# el_label, x, y, sXX, sYY, sZZ, sXY
1.000000000000000000e+00 3.883062744140625000e+01 1.149925899505615234e+01 -9.039823412895202637e-01 -2.613480389118194580e-02 -2.790351510047912598e-01 2.820002734661102295e-01
2.000000000000000000e+00 3.900292968750000000e+01 1.221970939636230469e+01 -1.108449220657348633e+00 4.538207128643989563e-02 -3.189201354980468750e-01 3.921069800853729248e-01
3.000000000000000000e+00 4.270645523071289062e+01 1.137148189544677734e+01 -7.217609286308288574e-01 5.184828862547874451e-02 -2.009737938642501831e-01 -2.529977858066558838e-01
4.000000000000000000e+00 4.338527297973632812e+01 1.115065574645996094e+01 -4.128596186637878418e-01 -1.142800450325012207e-01 -1.581418961286544800e-01 -2.429982125759124756e-01
5.000000000000000000e+00 4.049100112915039062e+01 1.189076042175292969e+01 -1.115655303001403809e+00 1.334062963724136353e-01 -2.946746945381164551e-01 8.540462702512741089e-02
6.000000000000000000e+00 4.152891921997070312e+01 1.088550662994384766e+01 -6.565648317337036133e-01 3.487081080675125122e-02 -1.865082085132598877e-01 7.396474480628967285e-03
7.000000000000000000e+00 4.219334030151367188e+01 1.072134494781494141e+01 -4.212274849414825439e-01 2.614774368703365326e-02 -1.185239255428314209e-01 -4.814824089407920837e-02
8.000000000000000000e+00 4.197386932373046875e+01 1.154970645904541016e+01 -9.381377100944519043e-01 1.626768708229064941e-01 -2.326382547616958618e-01 -1.645867377519607544e-01
9.000000000000000000e+00 4.284118652343750000e+01 1.054783821105957031e+01 -1.806578040122985840e-01 -2.381458878517150879e-02 -6.134171783924102783e-02 -6.530944257974624634e-02
1.000000000000000000e+01 3.974774169921875000e+01 1.205864620208740234e+01 -1.143403172492980957e+00 1.018639504909515381e-01 -3.124617636203765869e-01 2.421404868364334106e-01
1.100000000000000000e+01 4.123329162597656250e+01 1.172112464904785156e+01 -1.033247709274291992e+00 1.702115237712860107e-01 -2.589108347892761230e-01 -2.754797972738742828e-02
1.200000000000000000e+01 3.950727844238281250e+01 1.135225868225097656e+01 -9.797497391700744629e-01 -2.329620718955993652e-02 -3.009137809276580811e-01 2.234338968992233276e-01
1.300000000000000000e+01 4.018237304687500000e+01 1.119843482971191406e+01 -9.502440094947814941e-01 1.266870275139808655e-02 -2.812725901603698730e-01 1.675530672073364258e-01
1.400000000000000000e+01 4.085649871826171875e+01 1.104286193847656250e+01 -8.441233038902282715e-01 3.121719881892204285e-02 -2.438718229532241821e-01 8.467479050159454346e-02
1.500000000000000000e+01 3.660844421386718750e+01 1.264014816284179688e+01 -4.668608605861663818e-01 -8.628572821617126465e-01 -3.989154398441314697e-01 6.539515852928161621e-01
1.600000000000000000e+01 3.708995437622070312e+01 1.262835311889648438e+01 -8.929261565208435059e-01 -3.466587960720062256e-01 -3.718754947185516357e-01 7.422252297401428223e-01
1.700000000000000000e+01 3.741391754150390625e+01 1.203295421600341797e+01 -4.436006844043731689e-01 -2.043498456478118896e-01 -1.943851560354232788e-01 4.027741849422454834e-01
1.800000000000000000e+01 3.807363891601562500e+01 1.165119171142578125e+01 -5.950261950492858887e-01 -6.711839139461517334e-02 -1.986433714628219604e-01 2.760496139526367188e-01
1.900000000000000000e+01 3.684595489501953125e+01 1.185508537292480469e+01 -7.270361483097076416e-02 -7.304237037897109985e-02 -4.372379556298255920e-02 7.284483313560485840e-02
2.000000000000000000e+01 3.828802871704101562e+01 1.236698246002197266e+01 -1.140943884849548340e+00 -1.843192428350448608e-02 -3.478127419948577881e-01 5.890227556228637695e-01
2.100000000000000000e+01 3.765207290649414062e+01 1.253643894195556641e+01 -1.144250512123107910e+00 -1.005577668547630310e-01 -3.734425008296966553e-01 6.686604022979736328e-01
2.200000000000000000e+01 4.125169754028320312e+01 8.652711868286132812e+00 -1.179783977568149567e-02 2.539081266149878502e-03 -2.777627436444163322e-03 7.391289342194795609e-03
2.300000000000000000e+01 3.996825027465820312e+01 6.745716571807861328e+00 3.870940953493118286e-02 6.582757085561752319e-02 3.136109560728073120e-02 7.835018448531627655e-03
2.400000000000000000e+01 3.823686218261718750e+01 5.050586700439453125e+00 5.223954096436500549e-02 -2.477609664201736450e-01 -5.865642800927162170e-02 9.304771572351455688e-02
2.500000000000000000e+01 3.602226257324218750e+01 5.901315212249755859e+00 -3.726873397827148438e-01 -6.897670775651931763e-02 -1.324992179870605469e-01 3.164106607437133789e-01
2.600000000000000000e+01 3.389317703247070312e+01 5.934728622436523438e+00 -9.916161894798278809e-01 3.045231699943542480e-01 -2.061279118061065674e-01 1.495117992162704468e-01
2.700000000000000000e+01 3.097060775756835938e+01 5.431344032287597656e+00 -2.168074131011962891e+00 -5.891853570938110352e-01 -8.271778225898742676e-01 -1.279402017593383789e+00
2.800000000000000000e+01 3.161139488220214844e+01 5.918504714965820312e+00 -1.539340972900390625e+00 -3.989242613315582275e-01 -5.814795494079589844e-01 -7.415845990180969238e-01
2.900000000000000000e+01 2.906986427307128906e+01 3.961205005645751953e+00 -5.675151824951171875e+00 -2.061933755874633789e+00 -2.321125745773315430e+00 -3.249714136123657227e+00
3.000000000000000000e+01 2.840037155151367188e+01 3.506177902221679688e+00 -7.090044498443603516e+00 -2.233649492263793945e+00 -2.797108173370361328e+00 -3.993815422058105469e+00
3.100000000000000000e+01 2.720344161987304688e+01 2.042154312133789062e+00 -5.539087772369384766e+00 -1.567139863967895508e+00 -2.131868124008178711e+00 -1.894030451774597168e+00
3.200000000000000000e+01 2.698267364501953125e+01 -1.914520561695098877e-01 1.378450989723205566e+00 1.354789018630981445e+00 8.199719786643981934e-01 -1.161627531051635742e+00
3.300000000000000000e+01 2.624097061157226562e+01 -2.353819131851196289e+00 2.400106668472290039e+00 6.103102207183837891e+00 2.550962686538696289e+00 -1.420839905738830566e+00
3.400000000000000000e+01 2.689025497436523438e+01 -3.541159152984619141e+00 2.414683818817138672e+00 7.150014877319335938e+00 2.869409561157226562e+00 -4.724963307380676270e-01
3.500000000000000000e+01 2.655683326721191406e+01 -5.615807533264160156e+00 3.324146747589111328e+00 1.096499729156494141e+01 4.286743164062500000e+00 -1.608620047569274902e+00
3.600000000000000000e+01 2.716911506652832031e+01 -7.039591312408447266e+00 3.290219068527221680e+00 9.350984573364257812e+00 3.792361021041870117e+00 -2.113542556762695312e+00
3.700000000000000000e+01 2.629174804687500000e+01 -9.236962318420410156e+00 2.056633472442626953e+00 9.904080390930175781e+00 3.588214397430419922e+00 -1.636629223823547363e+00
3.800000000000000000e+01 2.514931678771972656e+01 -9.023278236389160156e+00 2.984903573989868164e+00 1.456666183471679688e+01 5.265469551086425781e+00 3.631934165954589844e+00
3.900000000000000000e+01 2.579704093933105469e+01 -9.770800590515136719e+00 -4.572593271732330322e-01 9.968486785888671875e+00 2.853368282318115234e+00 -1.043542504310607910e+00
4.000000000000000000e+01 2.400138664245605469e+01 -9.429697990417480469e+00 6.263558268547058105e-01 9.751067161560058594e-01 4.804387688636779785e-01 2.340770721435546875e+00
4.100000000000000000e+01 2.328132438659667969e+01 -9.165523529052734375e+00 -2.205573558807373047e+00 -6.503806114196777344e-01 -8.567862510681152344e-01 8.540775775909423828e-01
4.200000000000000000e+01 2.256504249572753906e+01 -8.791216850280761719e+00 -1.982982754707336426e+00 -3.527604043483734131e-01 -7.007229328155517578e-01 1.068104982376098633e+00
4.300000000000000000e+01 2.014835929870605469e+01 -8.297578811645507812e+00 -1.034816384315490723e+00 -1.019458696246147156e-01 -3.410286903381347656e-01 3.671675920486450195e-01
4.400000000000000000e+01 1.874838638305664062e+01 -6.760747909545898438e+00 -6.617749333381652832e-01 -1.487518250942230225e-01 -2.431580275297164917e-01 3.565176427364349365e-01
4.500000000000000000e+01 1.607666206359863281e+01 -2.775502204895019531e+00 -1.433392167091369629e-01 -1.134537085890769958e-01 -7.703787833452224731e-02 1.278142333030700684e-01
4.600000000000000000e+01 1.544486045837402344e+01 -1.837865710258483887e+00 -8.269469439983367920e-02 -5.913510546088218689e-02 -4.254893958568572998e-02 7.779695838689804077e-02
4.700000000000000000e+01 1.560877895355224609e+01 -2.361879110336303711e+00 -1.163485422730445862e-01 -8.671813458204269409e-02 -6.092000380158424377e-02 8.594322204589843750e-02
4.800000000000000000e+01 1.467749691009521484e+01 -2.715167284011840820e+00 -1.754014343023300171e-01 -7.521797437220811844e-03 -5.487696826457977295e-02 8.776175975799560547e-02
4.900000000000000000e+01 1.186952400207519531e+01 -1.925836563110351562e+00 -1.402191668748855591e-01 2.236277051270008087e-02 -3.535691648721694946e-02 2.192408777773380280e-02
5.000000000000000000e+01 1.034988021850585938e+01 -1.885591506958007812e+00 -1.330212652683258057e-01 1.920518837869167328e-02 -3.414482250809669495e-02 -5.905365571379661560e-03
5.100000000000000000e+01 8.739191055297851562e+00 -1.913300156593322754e+00 -1.127200424671173096e-01 1.163059193640947342e-02 -3.032683581113815308e-02 -2.592792920768260956e-02
5.200000000000000000e+01 7.073760032653808594e+00 -1.910576939582824707e+00 -8.634228259325027466e-02 4.119712859392166138e-03 -2.466677129268646240e-02 -3.673160076141357422e-02
5.300000000000000000e+01 4.580559253692626953e+00 -1.917812347412109375e+00 -4.383806139230728149e-02 -6.365251261740922928e-03 -1.506099384278059006e-02 -3.258537501096725464e-02
5.400000000000000000e+01 3.807074308395385742e+00 -3.646468877792358398e+00 -3.578412532806396484e-02 -2.248323336243629456e-02 -1.748020760715007782e-02 -5.339426919817924500e-02
5.500000000000000000e+01 4.991305828094482422e+00 -5.398745059967041016e+00 -5.259860306978225708e-02 -2.814737893640995026e-02 -2.422379516065120697e-02 -9.233879297971725464e-02
5.600000000000000000e+01 5.152889251708984375e+00 -6.905818939208984375e+00 -5.218044295907020569e-02 -3.893997520208358765e-02 -2.733612433075904846e-02 -1.237056106328964233e-01
5.700000000000000000e+01 4.911783218383789062e+00 -8.579865455627441406e+00 -3.857308998703956604e-02 -6.890673190355300903e-02 -3.224394842982292175e-02 -1.446403712034225464e-01
5.800000000000000000e+01 4.408719539642333984e+00 -1.097505950927734375e+01 -1.508271042257547379e-02 -1.334587037563323975e-01 -4.456242546439170837e-02 -1.580926030874252319e-01
5.900000000000000000e+01 4.463940143585205078e+00 -1.178453826904296875e+01 -6.374270655214786530e-03 -1.512552648782730103e-01 -4.728886112570762634e-02 -1.626263558864593506e-01
6.000000000000000000e+01 4.457274436950683594e+00 -1.331870555877685547e+01 4.939603619277477264e-03 -1.869548857212066650e-01 -5.460458248853683472e-02 -1.624967455863952637e-01
6.100000000000000000e+01 4.378518581390380859e+00 -1.544596099853515625e+01 1.687206700444221497e-02 -2.356346994638442993e-01 -6.562878936529159546e-02 -1.510068029165267944e-01
6.200000000000000000e+01 4.624105930328369141e+00 -1.772942161560058594e+01 3.240701556205749512e-02 -2.620368599891662598e-01 -6.888895481824874878e-02 -1.333759427070617676e-01
6.300000000000000000e+01 2.106893062591552734e+00 -1.954577064514160156e+01 7.243918254971504211e-03 -5.054664015769958496e-01 -1.494667381048202515e-01 -6.282165646553039551e-02
6.400000000000000000e+01 2.096767663955688477e+00 -2.114183044433593750e+01 8.590808138251304626e-03 -5.420472621917724609e-01 -1.600369364023208618e-01 -5.016394704580307007e-02
6.500000000000000000e+01 2.114614486694335938e+00 -2.274945449829101562e+01 6.088489666581153870e-03 -5.699186325073242188e-01 -1.691490411758422852e-01 -3.813797980546951294e-02
6.600000000000000000e+01 2.920320034027099609e+00 -2.433454895019531250e+01 1.597828418016433716e-02 -4.993330836296081543e-01 -1.450064331293106079e-01 -3.736836090683937073e-02
6.700000000000000000e+01 3.208468914031982422e+00 -2.622570610046386719e+01 1.204074919223785400e-02 -4.856877028942108154e-01 -1.420940905809402466e-01 -3.123262524604797363e-02
6.800000000000000000e+01 2.705037355422973633e+00 -2.807576751708984375e+01 1.840626122429966927e-03 -5.550892949104309082e-01 -1.659746021032333374e-01 -1.799583993852138519e-02
6.900000000000000000e+01 2.829835176467895508e+00 -3.045200920104980469e+01 1.366801094263792038e-03 -5.549432635307312012e-01 -1.660729348659515381e-01 -1.265290379524230957e-02
7.000000000000000000e+01 2.507398843765258789e+00 -3.211344146728515625e+01 8.342999964952468872e-03 -5.789731740951538086e-01 -1.711890548467636108e-01 5.709881428629159927e-03
7.100000000000000000e+01 2.449457168579101562e+00 -3.384414672851562500e+01 -4.941017250530421734e-04 -5.880858898162841797e-01 -1.765740066766738892e-01 5.768291652202606201e-03
7.200000000000000000e+01 2.690691471099853516e+00 -3.545569992065429688e+01 1.107156276702880859e-03 -5.542931556701660156e-01 -1.659557968378067017e-01 7.082788273692131042e-03
7.300000000000000000e+01 2.354766368865966797e+00 -3.772262191772460938e+01 3.842087229713797569e-03 -5.673452615737915039e-01 -1.690509468317031860e-01 5.888277664780616760e-03
7.400000000000000000e+01 2.702135801315307617e+00 -3.865279388427734375e+01 -7.562955375760793686e-03 -5.477470159530639648e-01 -1.665929853916168213e-01 1.125779235735535622e-03
7.500000000000000000e+01 3.379428386688232422e+00 -4.004127883911132812e+01 1.017872430384159088e-02 -4.307127594947814941e-01 -1.261602193117141724e-01 -6.265598349273204803e-03
7.600000000000000000e+01 3.967480897903442383e+00 -4.124199676513671875e+01 2.261622576043009758e-03 -4.250163137912750244e-01 -1.268264055252075195e-01 -1.174635626375675201e-02
7.700000000000000000e+01 3.081252574920654297e+00 -4.208098602294921875e+01 7.255556993186473846e-04 -4.897375106811523438e-01 -1.467035859823226929e-01 9.885648265480995178e-03
7.800000000000000000e+01 5.398165225982666016e+00 -4.025206756591796875e+01 -1.386275608092546463e-02 -2.428265213966369629e-01 -7.700678706169128418e-02 -1.986948074772953987e-03
7.900000000000000000e+01 4.033016681671142578e+00 -3.899732208251953125e+01 -1.116239186376333237e-02 -4.084298908710479736e-01 -1.258776932954788208e-01 2.137718722224235535e-02
8.000000000000000000e+01 4.553025722503662109e+00 -3.733543014526367188e+01 5.749557632952928543e-03 -3.662957251071929932e-01 -1.081638485193252563e-01 3.920403774827718735e-03
8.100000000000000000e+01 5.055206775665283203e+00 -3.566479492187500000e+01 6.828245241194963455e-04 -2.784798145294189453e-01 -8.333910256624221802e-02 2.810845035128295422e-04
8.200000000000000000e+01 5.557255268096923828e+00 -3.432718276977539062e+01 7.460033986717462540e-03 -2.236377745866775513e-01 -6.485331803560256958e-02 8.504983969032764435e-03
8.300000000000000000e+01 6.244360446929931641e+00 -3.140580368041992188e+01 1.377463340759277344e-02 -1.353420913219451904e-01 -3.647023811936378479e-02 4.917842801660299301e-03
8.400000000000000000e+01 5.024703979492187500e+00 -2.894262886047363281e+01 1.197320688515901566e-02 -2.953974604606628418e-01 -8.502727746963500977e-02 -1.290792040526866913e-02
8.500000000000000000e+01 3.780487298965454102e+00 -2.437628936767578125e+01 2.185294218361377716e-02 -4.100108146667480469e-01 -1.164473593235015869e-01 -4.365866258740425110e-02
8.600000000000000000e+01 3.786301136016845703e+00 -2.179605484008789062e+01 2.495174109935760498e-02 -3.914739787578582764e-01 -1.099566742777824402e-01 -7.151027768850326538e-02
8.700000000000000000e+01 3.776649236679077148e+00 -2.035718917846679688e+01 2.762611210346221924e-02 -3.662288188934326172e-01 -1.015808135271072388e-01 -8.874854445457458496e-02
8.800000000000000000e+01 5.581248760223388672e+00 -1.836540603637695312e+01 4.758496955037117004e-02 -2.009062021970748901e-01 -4.599637165665626526e-02 -1.382382512092590332e-01
8.900000000000000000e+01 6.920974254608154297e+00 -1.712547111511230469e+01 5.620410665869712830e-02 -9.176075458526611328e-02 -1.066699437797069550e-02 -1.656153649091720581e-01
9.000000000000000000e+01 5.780706405639648438e+00 -1.521834278106689453e+01 2.731009572744369507e-02 -1.407593637704849243e-01 -3.403478115797042847e-02 -1.776120960712432861e-01
9.100000000000000000e+01 5.629895687103271484e+00 -1.454585552215576172e+01 2.098109200596809387e-02 -1.446516066789627075e-01 -3.710115328431129456e-02 -1.782356947660446167e-01
9.200000000000000000e+01 6.254477977752685547e+00 -1.270927429199218750e+01 -7.225145818665623665e-04 -8.267265558242797852e-02 -2.501855045557022095e-02 -1.973818540573120117e-01
9.300000000000000000e+01 5.926439285278320312e+00 -1.019149398803710938e+01 -3.350817412137985229e-02 -6.170902401208877563e-02 -2.856515906751155853e-02 -1.789883673191070557e-01
9.400000000000000000e+01 5.803335189819335938e+00 -7.791386604309082031e+00 -5.828765034675598145e-02 -3.205635398626327515e-02 -2.710320055484771729e-02 -1.443035155534744263e-01
9.500000000000000000e+01 5.618504047393798828e+00 -6.741781711578369141e+00 -6.072165817022323608e-02 -2.759540826082229614e-02 -2.649511955678462982e-02 -1.241048052906990051e-01
9.600000000000000000e+01 5.752924442291259766e+00 -5.197981834411621094e+00 -6.695973873138427734e-02 -1.193433348089456558e-02 -2.366822212934494019e-02 -9.582231938838958740e-02
9.700000000000000000e+01 6.262562751770019531e+00 -2.719712018966674805e+00 -7.412430644035339355e-02 3.629378625191748142e-04 -2.212840877473354340e-02 -5.171038955450057983e-02
9.800000000000000000e+01 6.240205287933349609e+00 -1.907990813255310059e+00 -7.142429798841476440e-02 -7.449896656908094883e-04 -2.165078558027744293e-02 -3.709377348423004150e-02
9.900000000000000000e+01 3.639183425903320312e+01 8.877920150756835938e+00 -7.871029898524284363e-03 -2.671439945697784424e-02 -1.037562917917966843e-02 1.151650398969650269e-02
1.000000000000000000e+02 3.619093322753906250e+01 9.607088088989257812e+00 4.426620900630950928e-02 2.250033989548683167e-02 2.002996392548084259e-02 1.694951206445693970e-02
1.010000000000000000e+02 3.576521682739257812e+01 9.380371093750000000e+00 4.174779728055000305e-02 2.347988076508045197e-02 1.956830359995365143e-02 3.871265053749084473e-02
1.020000000000000000e+02 3.524347686767578125e+01 8.911135673522949219e+00 3.255589678883552551e-02 4.259179159998893738e-02 2.254430763423442841e-02 4.681817442178726196e-02
1.030000000000000000e+02 3.602905273437500000e+01 7.753769874572753906e+00 -1.347626596689224243e-01 -7.565390784293413162e-03 -4.269841313362121582e-02 3.472639992833137512e-02
1.040000000000000000e+02 3.548251342773437500e+01 7.315349102020263672e+00 -2.230819761753082275e-01 1.451165415346622467e-02 -6.257109344005584717e-02 3.959371894598007202e-02
1.050000000000000000e+02 3.719860076904296875e+01 6.496639728546142578e+00 -1.440230011940002441e-01 -1.022983044385910034e-01 -7.389639317989349365e-02 1.271638423204421997e-01
1.060000000000000000e+02 3.656501388549804688e+01 7.093335151672363281e+00 -1.524273604154586792e-01 -5.219461023807525635e-02 -6.138658896088600159e-02 6.952747702598571777e-02
1.070000000000000000e+02 3.916125488281250000e+01 9.165047645568847656e+00 9.641411714255809784e-03 9.859112091362476349e-03 5.850157234817743301e-03 -1.543270796537399292e-02
1.080000000000000000e+02 3.763811492919921875e+01 9.455093383789062500e+00 2.291020005941390991e-02 -1.551346667110919952e-02 2.219019923359155655e-03 -9.069504216313362122e-03
1.090000000000000000e+02 3.407452392578125000e+01 7.921376228332519531e+00 -1.158396899700164795e-01 1.146578975021839142e-02 -3.131217136979103088e-02 7.302239071577787399e-03
1.100000000000000000e+02 3.345986557006835938e+01 7.432669162750244141e+00 -2.700795829296112061e-01 8.260832168161869049e-03 -7.854562997817993164e-02 -1.037989556789398193e-01
1.110000000000000000e+02 3.334656524658203125e+01 6.390442848205566406e+00 -8.617321848869323730e-01 1.755486279726028442e-01 -2.058550715446472168e-01 -6.330788135528564453e-02
1.120000000000000000e+02 3.284869384765625000e+01 6.930495738983154297e+00 -6.269193291664123535e-01 -8.841785788536071777e-02 -2.146011590957641602e-01 -2.000879347324371338e-01
1.130000000000000000e+02 2.873257255554199219e+01 2.959150314331054688e+00 -5.769844055175781250e+00 -6.927453279495239258e-01 -1.938776731491088867e+00 -2.008373737335205078e+00
1.140000000000000000e+02 2.696154975891113281e+01 2.700437307357788086e+00 -9.849081993103027344e+00 -1.900164127349853516e+00 -3.524773836135864258e+00 -3.966613292694091797e+00
1.150000000000000000e+02 2.387015533447265625e+01 2.191048622131347656e+00 5.066262722015380859e+00 1.125796031951904297e+01 4.897266864776611328e+00 -8.641829490661621094e+00
1.160000000000000000e+02 2.319806861877441406e+01 2.305563688278198242e+00 4.368591308593750000e+00 1.984696006774902344e+01 7.264665603637695312e+00 -5.823653697967529297e+00
1.170000000000000000e+02 2.459249305725097656e+01 2.103357791900634766e+00 -4.713493347167968750e+00 -7.585700154304504395e-01 -1.641618967056274414e+00 -3.013035297393798828e+00
1.180000000000000000e+02 2.309461784362792969e+01 3.108057737350463867e+00 5.977323532104492188e+00 2.903287887573242188e+01 1.050306034088134766e+01 -6.234915733337402344e+00
1.190000000000000000e+02 2.301628303527832031e+01 3.895315885543823242e+00 2.819616317749023438e+00 3.057180404663085938e+01 1.001742649078369141e+01 1.596337199211120605e+00
1.200000000000000000e+02 2.311507797241210938e+01 4.661569118499755859e+00 5.044741630554199219e+00 2.451155281066894531e+01 8.866888046264648438e+00 6.456923007965087891e+00
1.210000000000000000e+02 2.140978050231933594e+01 4.632479667663574219e+00 6.765450954437255859e+00 8.427965164184570312e+00 4.558024883270263672e+00 -3.144704997539520264e-01
1.220000000000000000e+02 1.938643264770507812e+01 5.019330024719238281e+00 5.395956516265869141e+00 -1.835797876119613647e-01 1.563712954521179199e+00 1.438842862844467163e-01
1.230000000000000000e+02 1.802140235900878906e+01 6.007066249847412109e+00 1.113827347755432129e+00 -1.582035303115844727e+00 -1.404623985290527344e-01 -9.445094466209411621e-01
1.240000000000000000e+02 1.573639965057373047e+01 5.136186599731445312e+00 2.052070617675781250e+00 -2.608168125152587891e+00 -1.668292582035064697e-01 -2.774928808212280273e+00
1.250000000000000000e+02 1.409339714050292969e+01 5.532927036285400391e+00 -1.713329672813415527e+00 -1.620545387268066406e+00 -1.000162482261657715e+00 -2.338551521301269531e+00
1.260000000000000000e+02 1.282708358764648438e+01 4.726720333099365234e+00 6.544912815093994141e+00 -1.277376860380172729e-01 1.925152540206909180e+00 3.627974689006805420e-01
1.270000000000000000e+02 1.357778453826904297e+01 3.717868804931640625e+00 6.444762706756591797e+00 -2.761065244674682617e+00 1.105109214782714844e+00 -2.331308841705322266e+00
1.280000000000000000e+02 1.097610092163085938e+01 4.525750160217285156e+00 1.622448730468750000e+01 7.100767135620117188e+00 6.997576236724853516e+00 -6.539995670318603516e+00
1.290000000000000000e+02 1.016812419891357422e+01 4.686298847198486328e+00 1.038624191284179688e+01 7.668214797973632812e+00 5.416337013244628906e+00 -4.315690994262695312e+00
1.300000000000000000e+02 9.867826461791992188e+00 6.835702419281005859e+00 5.924642682075500488e-01 4.639495372772216797e+00 1.569587945938110352e+00 -9.166632890701293945e-01
1.310000000000000000e+02 9.282644271850585938e+00 7.483856678009033203e+00 -1.551127992570400238e-02 3.327263116836547852e+00 9.935255050659179688e-01 -1.886074900627136230e+00
1.320000000000000000e+02 1.044125461578369141e+01 7.294556617736816406e+00 9.691090881824493408e-02 3.140014410018920898e+00 9.710776209831237793e-01 -5.402808263897895813e-02
1.330000000000000000e+02 1.087066841125488281e+01 7.937099456787109375e+00 -3.115721642971038818e-01 7.917301654815673828e-01 1.440473943948745728e-01 1.021081209182739258e-01
1.340000000000000000e+02 9.499768257141113281e+00 9.839529037475585938e+00 -9.520094394683837891e-01 1.864386081695556641e+00 2.737129926681518555e-01 -8.833559751510620117e-01
1.350000000000000000e+02 7.864612102508544922e+00 1.198850154876708984e+01 -8.988395333290100098e-01 1.472372055053710938e+00 1.720597594976425171e-01 -8.958911895751953125e-01
1.360000000000000000e+02 5.372649669647216797e+00 1.313639354705810547e+01 -5.221118927001953125e-01 1.245961070060729980e+00 2.171547710895538330e-01 -8.552611470222473145e-01
1.370000000000000000e+02 3.804898738861083984e+00 1.525075531005859375e+01 -2.872191965579986572e-01 1.240733861923217773e+00 2.860543727874755859e-01 -4.934285283088684082e-01
1.380000000000000000e+02 2.525119304656982422e+00 1.726326560974121094e+01 -1.165038198232650757e-01 1.444230675697326660e+00 3.983180820941925049e-01 -2.056441009044647217e-01
1.390000000000000000e+02 3.613763749599456787e-01 1.716958045959472656e+01 -4.555187188088893890e-03 1.800598621368408203e+00 5.388129949569702148e-01 -3.680790215730667114e-02
1.400000000000000000e+02 1.065766572952270508e+00 1.794790267944335938e+01 -2.126226760447025299e-02 1.712001442909240723e+00 5.072217583656311035e-01 -7.075091451406478882e-02
1.410000000000000000e+02 3.717044293880462646e-01 1.636954307556152344e+01 -8.344740606844425201e-03 1.707309603691101074e+00 5.096894502639770508e-01 -5.078807845711708069e-02
1.420000000000000000e+02 1.120167136192321777e+00 1.637812614440917969e+01 -3.063726052641868591e-02 1.558897495269775391e+00 4.584780633449554443e-01 -1.437115371227264404e-01
1.430000000000000000e+02 2.981178998947143555e+00 1.406639766693115234e+01 -2.102388441562652588e-01 1.147471427917480469e+00 2.811697721481323242e-01 -5.620808005332946777e-01
1.440000000000000000e+02 4.564172744750976562e+00 1.200043582916259766e+01 -3.198431432247161865e-01 1.075897216796875000e+00 2.268162369728088379e-01 -9.838938117027282715e-01
1.450000000000000000e+02 7.461071491241455078e+00 8.666956901550292969e+00 6.216330081224441528e-02 1.766586065292358398e+00 5.486248135566711426e-01 -1.779764175415039062e+00
1.460000000000000000e+02 8.682769775390625000e+00 8.028426170349121094e+00 -2.995413029566407204e-03 2.668989658355712891e+00 7.997982501983642578e-01 -1.821499347686767578e+00
1.470000000000000000e+02 9.523842811584472656e+00 9.044878005981445312e+00 -8.600556850433349609e-01 2.017105817794799805e+00 3.471150696277618408e-01 -9.803248643875122070e-01
1.480000000000000000e+02 8.854421615600585938e+00 9.076012611389160156e+00 -6.302704215049743652e-01 2.329455852508544922e+00 5.097556710243225098e-01 -1.342371225357055664e+00
1.490000000000000000e+02 2.304011344909667969e+01 5.457157135009765625e+00 4.964177608489990234e+00 1.811242294311523438e+01 6.922979831695556641e+00 5.831785202026367188e+00
1.500000000000000000e+02 2.326121520996093750e+01 6.534789562225341797e+00 2.400988578796386719e+00 1.316219139099121094e+01 4.668953895568847656e+00 4.052219867706298828e+00
1.510000000000000000e+02 2.375859451293945312e+01 6.998475551605224609e+00 2.352780103683471680e+00 1.230682849884033203e+01 4.397882461547851562e+00 5.387594223022460938e+00
1.520000000000000000e+02 2.403110885620117188e+01 9.299349784851074219e+00 -3.092186212539672852e+00 8.853199005126953125e+00 1.728303670883178711e+00 2.604298591613769531e+00
1.530000000000000000e+02 2.325947570800781250e+01 1.049878883361816406e+01 -3.825931072235107422e+00 6.335981369018554688e+00 7.530151009559631348e-01 1.655040383338928223e+00
1.540000000000000000e+02 2.374649238586425781e+01 1.274078369140625000e+01 2.340801239013671875e+00 5.589257240295410156e+00 2.379017591476440430e+00 4.196957588195800781e+00
1.550000000000000000e+02 2.431657409667968750e+01 1.333650398254394531e+01 4.331165313720703125e+00 1.126398086547851562e+01 4.678543567657470703e+00 6.058177947998046875e+00
1.560000000000000000e+02 2.429036712646484375e+01 7.536640644073486328e+00 1.747380375862121582e+00 1.029610061645507812e+01 3.613044261932373047e+00 5.071759223937988281e+00
1.570000000000000000e+02 2.597167396545410156e+01 9.283345222473144531e+00 -1.276741743087768555e+00 6.432832717895507812e+00 1.546827197074890137e+00 2.323700189590454102e+00
1.580000000000000000e+02 2.810152816772460938e+01 1.031653594970703125e+01 -2.370417118072509766e+00 -1.990465670824050903e-01 -7.708390951156616211e-01 -1.388592720031738281e+00
1.590000000000000000e+02 2.991674232482910156e+01 1.184757518768310547e+01 -3.660542726516723633e+00 -2.295700073242187500e+00 -1.786872863769531250e+00 -2.952800273895263672e+00
1.600000000000000000e+02 3.078871154785156250e+01 1.347764396667480469e+01 -2.349044322967529297e+00 -1.553432703018188477e+00 -1.170743107795715332e+00 -1.662008881568908691e+00
1.610000000000000000e+02 3.051971817016601562e+01 1.629808044433593750e+01 6.477582454681396484e-02 1.755466610193252563e-01 7.209675014019012451e-02 1.423867344856262207e+00
1.620000000000000000e+02 2.941934585571289062e+01 1.754138565063476562e+01 5.611840635538101196e-02 2.251237630844116211e+00 6.922067999839782715e-01 2.252348899841308594e+00
1.630000000000000000e+02 3.051457595825195312e+01 1.949790763854980469e+01 -4.194394052028656006e-01 1.453226089477539062e+00 3.101360201835632324e-01 1.785564661026000977e+00
1.640000000000000000e+02 3.135476303100585938e+01 2.026775550842285156e+01 -3.619157373905181885e-01 1.134084463119506836e+00 2.316506206989288330e-01 1.536803245544433594e+00
1.650000000000000000e+02 2.964165115356445312e+01 2.364538955688476562e+01 -6.987154483795166016e-01 1.908370733261108398e+00 3.628965914249420166e-01 8.748953938484191895e-01
1.660000000000000000e+02 3.090438079833984375e+01 2.509166145324707031e+01 -4.014092087745666504e-01 1.493746399879455566e+00 3.277011513710021973e-01 7.334567904472351074e-01
1.670000000000000000e+02 3.076656532287597656e+01 2.663999176025390625e+01 -3.210321068763732910e-01 1.500537395477294922e+00 3.538515567779541016e-01 5.608763098716735840e-01
1.680000000000000000e+02 3.063874626159667969e+01 2.835258102416992188e+01 -2.274789959192276001e-01 1.462080478668212891e+00 3.703804612159729004e-01 3.894012272357940674e-01
1.690000000000000000e+02 3.214130783081054688e+01 3.063680076599121094e+01 -2.748409053310751915e-03 1.372154712677001953e+00 4.108219146728515625e-01 2.611070573329925537e-01
1.700000000000000000e+02 3.410786056518554688e+01 3.150357627868652344e+01 1.160554736852645874e-01 1.412806868553161621e+00 4.586586952209472656e-01 1.964664310216903687e-01
1.710000000000000000e+02 3.127248764038085938e+01 3.467948150634765625e+01 1.221065521240234375e-01 1.376324415206909180e+00 4.495292901992797852e-01 1.100022420287132263e-01
1.720000000000000000e+02 3.198727416992187500e+01 3.725480651855468750e+01 2.068866789340972900e-01 1.423782706260681152e+00 4.892008006572723389e-01 6.370761245489120483e-02
1.730000000000000000e+02 2.289115905761718750e+01 4.072922897338867188e+01 1.793698817491531372e-01 1.057154178619384766e+00 3.709572255611419678e-01 -3.037155838683247566e-03
1.740000000000000000e+02 2.960521507263183594e+01 3.224282073974609375e+01 -1.970865204930305481e-02 1.367497682571411133e+00 4.043366909027099609e-01 1.688430160284042358e-01
1.750000000000000000e+02 2.871942520141601562e+01 2.973138236999511719e+01 -2.222359478473663330e-01 1.454669952392578125e+00 3.697302043437957764e-01 2.240732461214065552e-01
1.760000000000000000e+02 2.941717910766601562e+01 2.490826797485351562e+01 -6.457913517951965332e-01 1.855392694473266602e+00 3.628804087638854980e-01 6.731832623481750488e-01
1.770000000000000000e+02 2.877548789978027344e+01 2.221403884887695312e+01 -9.802186489105224609e-01 2.414570569992065430e+00 4.303055703639984131e-01 1.003286480903625488e+00
1.780000000000000000e+02 2.845361137390136719e+01 1.970962333679199219e+01 -1.089637637138366699e+00 3.410521745681762695e+00 6.962652206420898438e-01 1.732008934020996094e+00
1.790000000000000000e+02 2.938251495361328125e+01 1.882332420349121094e+01 -5.455080270767211914e-01 2.474713563919067383e+00 5.787616372108459473e-01 2.073160409927368164e+00
1.800000000000000000e+02 2.752862548828125000e+01 1.728000068664550781e+01 -1.684271730482578278e-02 4.945047378540039062e+00 1.478461384773254395e+00 2.353918313980102539e+00
1.810000000000000000e+02 2.808658790588378906e+01 1.586637973785400391e+01 1.908999204635620117e+00 3.808579444885253906e+00 1.715273618698120117e+00 2.479974746704101562e+00
1.820000000000000000e+02 2.881787872314453125e+01 1.380482578277587891e+01 1.239326372742652893e-01 1.379656791687011719e+00 4.510768055915832520e-01 1.052349526435136795e-02
1.830000000000000000e+02 2.869672966003417969e+01 1.084434032440185547e+01 -3.143457412719726562e+00 -1.376815676689147949e+00 -1.356081843376159668e+00 -2.222045421600341797e+00
1.840000000000000000e+02 3.143849945068359375e+01 1.401606559753417969e+01 -2.709931135177612305e+00 -1.515143394470214844e+00 -1.267522335052490234e+00 -1.323704838752746582e+00
1.850000000000000000e+02 3.232677841186523438e+01 1.665264511108398438e+01 -8.386703729629516602e-01 -7.967848777770996094e-01 -4.906365573406219482e-01 7.999277710914611816e-01
1.860000000000000000e+02 3.160217857360839844e+01 1.873343849182128906e+01 -2.516148984432220459e-01 4.259313941001892090e-01 5.229494720697402954e-02 1.501643061637878418e+00
1.870000000000000000e+02 3.158245849609375000e+01 2.112315559387207031e+01 -3.579491674900054932e-01 1.116730809211730957e+00 2.276344895362854004e-01 1.346291661262512207e+00
1.880000000000000000e+02 3.097024345397949219e+01 2.375603485107421875e+01 -4.745550155639648438e-01 1.532619118690490723e+00 3.174192607402801514e-01 9.514795541763305664e-01
1.890000000000000000e+02 3.239826202392578125e+01 2.511602020263671875e+01 -2.279736250638961792e-01 1.243158459663391113e+00 3.045554459095001221e-01 7.056249380111694336e-01
1.900000000000000000e+02 3.231425094604492188e+01 2.672376251220703125e+01 -1.636021882295608521e-01 1.297097444534301758e+00 3.400485813617706299e-01 5.421536564826965332e-01
1.910000000000000000e+02 3.238503646850585938e+01 2.856529045104980469e+01 -7.789867371320724487e-02 1.362807750701904297e+00 3.854727149009704590e-01 3.839046955108642578e-01
1.920000000000000000e+02 3.300818252563476562e+01 3.358903121948242188e+01 1.340731829404830933e-01 1.407008528709411621e+00 4.623245000839233398e-01 1.430410742759704590e-01
1.930000000000000000e+02 3.732034301757812500e+01 4.051541519165039062e+01 2.749504745006561279e-01 1.787440419197082520e+00 6.187172532081604004e-01 5.305923055857419968e-03
1.940000000000000000e+02 3.337661361694335938e+01 1.417254257202148438e+01 -5.222301006317138672e+00 -9.929900169372558594e-01 -1.864587306976318359e+00 -1.350862383842468262e+00
1.950000000000000000e+02 3.422312164306640625e+01 1.428200721740722656e+01 -6.036056518554687500e+00 -5.601504445075988770e-01 -1.978862047195434570e+00 -4.557450413703918457e-01
1.960000000000000000e+02 3.437482452392578125e+01 1.518850040435791016e+01 -3.511611461639404297e+00 -1.234975218772888184e+00 -1.423975944519042969e+00 -1.524608284235000610e-01
1.970000000000000000e+02 3.455779647827148438e+01 1.940044784545898438e+01 -3.932781517505645752e-01 -1.745993494987487793e-01 -1.703632473945617676e-01 5.232077240943908691e-01
1.980000000000000000e+02 3.302410125732421875e+01 2.157808876037597656e+01 -1.951359808444976807e-01 6.397509574890136719e-01 1.333844810724258423e-01 9.714316129684448242e-01
1.990000000000000000e+02 3.237995529174804688e+01 2.361103248596191406e+01 -2.501694262027740479e-01 1.118484258651733398e+00 2.604944705963134766e-01 8.673093318939208984e-01
2.000000000000000000e+02 3.391976165771484375e+01 2.513103294372558594e+01 -7.726744562387466431e-02 1.034031867980957031e+00 2.870293259620666504e-01 5.709990262985229492e-01
2.010000000000000000e+02 3.368811035156250000e+01 2.668996429443359375e+01 -7.219074666500091553e-02 1.217877268791198730e+00 3.437059521675109863e-01 4.762475490570068359e-01
2.020000000000000000e+02 3.394794845581054688e+01 2.818190765380859375e+01 9.984493255615234375e-03 1.284635543823242188e+00 3.883860111236572266e-01 3.529495596885681152e-01
2.030000000000000000e+02 3.610091400146484375e+01 3.269659042358398438e+01 2.068443596363067627e-01 1.553848505020141602e+00 5.282078981399536133e-01 7.784818857908248901e-02
2.040000000000000000e+02 3.759569549560546875e+01 3.672914123535156250e+01 2.623794972896575928e-01 1.774861931800842285e+00 6.111724376678466797e-01 -1.032266393303871155e-02
2.050000000000000000e+02 1.843281173706054688e+01 4.069913482666015625e+01 1.742469966411590576e-01 9.450443983078002930e-01 3.357874155044555664e-01 4.825504962354898453e-03
2.060000000000000000e+02 3.498440933227539062e+01 1.423450851440429688e+01 -6.254161834716796875e+00 -8.600441813468933105e-01 -2.134261846542358398e+00 6.760098934173583984e-01
2.070000000000000000e+02 3.637765121459960938e+01 1.486873817443847656e+01 -3.232336282730102539e+00 -4.408282339572906494e-01 -1.101949334144592285e+00 -1.196971721947193146e-02
2.080000000000000000e+02 3.562229156494140625e+01 1.784148979187011719e+01 -1.056076407432556152e+00 -5.934835076332092285e-01 -4.948679804801940918e-01 -7.824033498764038086e-03
2.090000000000000000e+02 3.637663269042968750e+01 2.054180526733398438e+01 -3.774437308311462402e-01 1.408732682466506958e-01 -7.097113877534866333e-02 1.844791471958160400e-01
2.100000000000000000e+02 3.491090393066406250e+01 2.196488571166992188e+01 -1.712288558483123779e-01 4.953653812408447266e-01 9.724095463752746582e-02 5.660194158554077148e-01
2.110000000000000000e+02 3.392007446289062500e+01 2.351557922363281250e+01 -1.256138384342193604e-01 8.581194281578063965e-01 2.197516709566116333e-01 6.952593326568603516e-01
2.120000000000000000e+02 3.533457946777343750e+01 2.553843116760253906e+01 1.034411787986755371e-02 1.003147363662719727e+00 3.040474355220794678e-01 3.846915066242218018e-01
2.130000000000000000e+02 3.484598922729492188e+01 2.702132034301757812e+01 3.667901456356048584e-02 1.170381665229797363e+00 3.621182143688201904e-01 3.675721883773803711e-01
2.140000000000000000e+02 3.605976486206054688e+01 2.773453140258789062e+01 1.081440895795822144e-01 1.205009579658508301e+00 3.939461112022399902e-01 2.205911874771118164e-01
2.150000000000000000e+02 3.696416473388671875e+01 3.029824638366699219e+01 1.731799542903900146e-01 1.454522013664245605e+00 4.883106052875518799e-01 6.433127075433731079e-02
2.160000000000000000e+02 3.473591232299804688e+01 3.543439865112304688e+01 2.195182591676712036e-01 1.543288350105285645e+00 5.288419723510742188e-01 7.315723598003387451e-02
2.170000000000000000e+02 3.562844848632812500e+01 1.398904323577880859e+01 -4.987878322601318359e+00 -1.186914563179016113e+00 -1.852437853813171387e+00 1.718367457389831543e+00
2.180000000000000000e+02 3.634831619262695312e+01 1.426093578338623047e+01 -3.628201484680175781e+00 -3.769795000553131104e-01 -1.201554298400878906e+00 5.279139280319213867e-01
2.190000000000000000e+02 3.683521270751953125e+01 1.410600662231445312e+01 -3.152079582214355469e+00 -1.410216689109802246e-01 -9.879304170608520508e-01 6.735399961471557617e-01
2.200000000000000000e+02 3.845416641235351562e+01 1.303880405426025391e+01 -1.550882220268249512e+00 1.366078555583953857e-01 -4.242823123931884766e-01 5.377758741378784180e-01
2.210000000000000000e+02 3.917398452758789062e+01 1.290519237518310547e+01 -1.474760413169860840e+00 2.314686775207519531e-01 -3.729875385761260986e-01 4.173916578292846680e-01
2.220000000000000000e+02 4.070337677001953125e+01 1.259193420410156250e+01 -1.339882254600524902e+00 3.039542138576507568e-01 -3.107784092426300049e-01 7.292289286851882935e-02
2.230000000000000000e+02 4.147613525390625000e+01 1.243238925933837891e+01 -1.295266747474670410e+00 2.874673604965209961e-01 -3.023398220539093018e-01 -9.282400459051132202e-02
2.240000000000000000e+02 4.226427841186523438e+01 1.227554702758789062e+01 -1.227378249168395996e+00 3.019602596759796143e-01 -2.776253819465637207e-01 -2.093659043312072754e-01
2.250000000000000000e+02 4.264512252807617188e+01 1.459732532501220703e+01 -1.881658911705017090e+00 6.174200177192687988e-01 -3.792716860771179199e-01 -2.179841101169586182e-01
2.260000000000000000e+02 4.216344451904296875e+01 1.561447525024414062e+01 -1.746884703636169434e+00 7.028704285621643066e-01 -3.132042586803436279e-01 -1.304269880056381226e-01
2.270000000000000000e+02 4.270008850097656250e+01 1.718555068969726562e+01 -1.369151115417480469e+00 7.625222802162170410e-01 -1.819886416196823120e-01 -1.795347332954406738e-01
2.280000000000000000e+02 4.244150543212890625e+01 1.898917961120605469e+01 -8.420758247375488281e-01 8.934937715530395508e-01 1.542537566274404526e-02 -3.562984466552734375e-01
2.290000000000000000e+02 4.215540695190429688e+01 2.089181137084960938e+01 -4.061039388179779053e-01 1.048105001449584961e+00 1.926003098487854004e-01 -4.764292538166046143e-01
2.300000000000000000e+02 4.174229049682617188e+01 2.406030082702636719e+01 -5.617694929242134094e-02 1.351961970329284668e+00 3.887355327606201172e-01 -4.233967959880828857e-01
2.310000000000000000e+02 4.213542556762695312e+01 2.545941734313964844e+01 3.419568017125129700e-02 1.577750682830810547e+00 4.835838973522186279e-01 -4.419583976268768311e-01
2.320000000000000000e+02 4.257046890258789062e+01 2.692258453369140625e+01 7.165996730327606201e-02 1.840291023254394531e+00 5.735852718353271484e-01 -4.616785645484924316e-01
2.330000000000000000e+02 4.323091506958007812e+01 2.833398818969726562e+01 6.762933731079101562e-02 2.056231975555419922e+00 6.371583938598632812e-01 -4.527800977230072021e-01
2.340000000000000000e+02 4.422325134277343750e+01 2.976227951049804688e+01 5.527464300394058228e-02 2.405364990234375000e+00 7.381919026374816895e-01 -4.314961135387420654e-01
2.350000000000000000e+02 4.554463577270507812e+01 3.868060684204101562e+01 1.276485770940780640e-01 2.832100152969360352e+00 8.879246115684509277e-01 -1.118873581290245056e-01
2.360000000000000000e+02 4.103221511840820312e+01 3.667971420288085938e+01 2.263973951339721680e-01 2.152058362960815430e+00 7.135367393493652344e-01 -1.040990799665451050e-01
2.370000000000000000e+02 4.400197982788085938e+01 3.559469223022460938e+01 1.482057720422744751e-01 2.516067028045654297e+00 7.992818355560302734e-01 -2.010472416877746582e-01
2.380000000000000000e+02 4.074847793579101562e+01 3.358013916015625000e+01 2.108442187309265137e-01 1.974221467971801758e+00 6.555197238922119141e-01 -1.477684527635574341e-01
2.390000000000000000e+02 4.252558135986328125e+01 3.084095001220703125e+01 1.467735469341278076e-01 2.136554002761840820e+00 6.849982142448425293e-01 -2.931315004825592041e-01
2.400000000000000000e+02 4.172136306762695312e+01 2.937669944763183594e+01 1.470730304718017578e-01 1.885861992835998535e+00 6.098805069923400879e-01 -2.931428849697113037e-01
2.410000000000000000e+02 4.097334671020507812e+01 2.787309074401855469e+01 1.384045332670211792e-01 1.628499865531921387e+00 5.300713181495666504e-01 -2.711627781391143799e-01
2.420000000000000000e+02 4.065453338623046875e+01 2.615894508361816406e+01 8.995877951383590698e-02 1.399184346199035645e+00 4.467429220676422119e-01 -2.643356621265411377e-01
2.430000000000000000e+02 4.037300872802734375e+01 2.471763420104980469e+01 2.260892838239669800e-02 1.171193122863769531e+00 3.581406176090240479e-01 -2.435754835605621338e-01
2.440000000000000000e+02 4.114512252807617188e+01 2.300659751892089844e+01 -1.294227838516235352e-01 1.132803559303283691e+00 3.010142147541046143e-01 -3.729953765869140625e-01
2.450000000000000000e+02 4.065413284301757812e+01 2.035499191284179688e+01 -5.898395776748657227e-01 7.514298558235168457e-01 4.847708716988563538e-02 -2.871115505695343018e-01
2.460000000000000000e+02 4.013378906250000000e+01 1.817537498474121094e+01 -1.231641650199890137e+00 6.450610756874084473e-01 -1.759741902351379395e-01 -2.310003489255905151e-01
2.470000000000000000e+02 4.113157653808593750e+01 1.498612499237060547e+01 -1.825472354888916016e+00 6.612676978111267090e-01 -3.492614030838012695e-01 -4.951899126172065735e-02
2.480000000000000000e+02 4.008230972290039062e+01 1.347518348693847656e+01 -1.649913549423217773e+00 4.402416050434112549e-01 -3.629015684127807617e-01 1.948009580373764038e-01
2.490000000000000000e+02 4.022380828857421875e+01 1.425633525848388672e+01 -1.824309229850769043e+00 5.402235388755798340e-01 -3.852257132530212402e-01 9.562054276466369629e-02
2.500000000000000000e+02 4.245842742919921875e+01 1.384926414489746094e+01 -1.724481344223022461e+00 5.470121502876281738e-01 -3.532407581806182861e-01 -2.341116219758987427e-01
2.510000000000000000e+02 3.660821914672851562e+01 1.338640499114990234e+01 -1.923538565635681152e+00 -8.163841962814331055e-01 -8.219768404960632324e-01 1.112898111343383789e+00
2.520000000000000000e+02 3.713320159912109375e+01 1.327082061767578125e+01 -1.761284947395324707e+00 -2.480947226285934448e-01 -6.028138995170593262e-01 8.702634572982788086e-01
2.530000000000000000e+02 4.392773818969726562e+01 1.182427310943603516e+01 -8.968216180801391602e-01 -2.781298756599426270e-01 -3.524854481220245361e-01 -4.889764189720153809e-01
2.540000000000000000e+02 4.532833480834960938e+01 1.404968833923339844e+01 -2.240769863128662109e+00 -3.016516864299774170e-01 -7.627264261245727539e-01 -1.143998503684997559e+00
2.550000000000000000e+02 4.586752319335937500e+01 1.356966876983642578e+01 -1.958856105804443359e+00 -1.083399772644042969e+00 -9.126768112182617188e-01 -1.408733248710632324e+00
2.560000000000000000e+02 4.499730682373046875e+01 1.462110900878906250e+01 -2.374164819717407227e+00 3.936373293399810791e-01 -5.941582322120666504e-01 -5.380595922470092773e-01
2.570000000000000000e+02 4.473516082763671875e+01 1.363407039642333984e+01 -2.005534887313842773e+00 -6.071809306740760803e-02 -6.198759078979492188e-01 -9.007915258407592773e-01
2.580000000000000000e+02 4.525296020507812500e+01 1.302481460571289062e+01 -1.431792020797729492e+00 -7.023826241493225098e-01 -6.402524113655090332e-01 -1.099580526351928711e+00
2.590000000000000000e+02 4.642509460449218750e+01 1.413384437561035156e+01 -2.574720859527587891e+00 -1.335779786109924316e+00 -1.173150181770324707e+00 -1.857172489166259766e+00
2.600000000000000000e+02 4.594644927978515625e+01 1.510793495178222656e+01 -2.629924058914184570e+00 2.233509719371795654e-01 -7.219719290733337402e-01 -5.803946256637573242e-01
2.610000000000000000e+02 4.602405166625976562e+01 1.759494590759277344e+01 -5.845429301261901855e-01 6.592676639556884766e-01 2.241742052137851715e-02 -8.193572163581848145e-01
2.620000000000000000e+02 4.537207031250000000e+01 2.099007797241210938e+01 -2.655437886714935303e-01 1.841190576553344727e+00 4.726940393447875977e-01 -1.055776000022888184e+00
2.630000000000000000e+02 4.544483566284179688e+01 2.204454612731933594e+01 -2.844687104225158691e-01 2.087011337280273438e+00 5.407627820968627930e-01 -1.016877055168151855e+00
2.640000000000000000e+02 4.513867187500000000e+01 2.425532341003417969e+01 -1.603105366230010986e-01 2.269938468933105469e+00 6.328883767127990723e-01 -8.107820749282836914e-01
2.650000000000000000e+02 4.536354446411132812e+01 2.554080009460449219e+01 -1.243747919797897339e-01 2.448225975036621094e+00 6.971553564071655273e-01 -7.475097775459289551e-01
2.660000000000000000e+02 4.690019226074218750e+01 2.659615707397460938e+01 -2.084565311670303345e-01 2.981837272644042969e+00 8.320142030715942383e-01 -7.359036207199096680e-01
2.670000000000000000e+02 4.686960601806640625e+01 2.836071014404296875e+01 -1.428067833185195923e-01 2.985630035400390625e+00 8.528469800949096680e-01 -5.797557234764099121e-01
2.680000000000000000e+02 4.724396896362304688e+01 3.027532386779785156e+01 -9.371581673622131348e-02 3.112475395202636719e+00 9.056279063224792480e-01 -4.566026329994201660e-01
2.690000000000000000e+02 4.188095855712890625e+01 4.043806076049804688e+01 2.224963307380676270e-01 2.351904392242431641e+00 7.723202705383300781e-01 -3.998763486742973328e-02
2.700000000000000000e+02 4.803627014160156250e+01 3.578580474853515625e+01 1.685619237832725048e-03 3.321836471557617188e+00 9.970566034317016602e-01 -2.127282172441482544e-01
2.710000000000000000e+02 4.537911987304687500e+01 2.830718803405761719e+01 -4.602387920022010803e-02 2.627107858657836914e+00 7.743251919746398926e-01 -5.486214756965637207e-01
2.720000000000000000e+02 4.397997665405273438e+01 2.610932350158691406e+01 -1.616281457245349884e-02 2.090760946273803711e+00 6.223794221878051758e-01 -5.898017287254333496e-01
2.730000000000000000e+02 4.363982391357421875e+01 2.471605300903320312e+01 -5.437065660953521729e-02 1.882912755012512207e+00 5.485626459121704102e-01 -6.462035179138183594e-01
2.740000000000000000e+02 4.451026916503906250e+01 2.256393051147460938e+01 -2.026937305927276611e-01 1.886981129646301270e+00 5.052862167358398438e-01 -8.389133214950561523e-01
2.750000000000000000e+02 4.425487899780273438e+01 2.145521354675292969e+01 -2.671766281127929688e-01 1.565421819686889648e+00 3.894735872745513916e-01 -7.665928602218627930e-01
2.760000000000000000e+02 4.329616546630859375e+01 1.862318420410156250e+01 -8.446221947669982910e-01 8.656716346740722656e-01 6.314824335277080536e-03 -3.697104454040527344e-01
2.770000000000000000e+02 4.447521972656250000e+01 1.682040214538574219e+01 -1.372633457183837891e+00 6.426367759704589844e-01 -2.189990282058715820e-01 -3.327021300792694092e-01
2.780000000000000000e+02 4.501908874511718750e+01 1.530579948425292969e+01 -1.946366548538208008e+00 1.901550143957138062e-01 -5.268634557723999023e-01 -4.605867862701416016e-01
2.790000000000000000e+02 4.692880249023437500e+01 1.469621086120605469e+01 -3.724897623062133789e+00 -1.442480802536010742e+00 -1.550213575363159180e+00 -2.004190444946289062e+00
2.800000000000000000e+02 4.610792922973632812e+01 1.580201530456542969e+01 -1.811618328094482422e+00 2.503105625510215759e-02 -5.359761714935302734e-01 -5.099504590034484863e-01
2.810000000000000000e+02 4.714608001708984375e+01 1.549273681640625000e+01 -3.264102935791015625e+00 -7.871940732002258301e-01 -1.215389132499694824e+00 -1.360978484153747559e+00
2.820000000000000000e+02 4.754825592041015625e+01 1.857469749450683594e+01 -2.674328386783599854e-01 2.313920021057128906e+00 6.139461994171142578e-01 -1.914763212203979492e+00
2.830000000000000000e+02 4.822793197631835938e+01 1.954624748229980469e+01 -5.903437137603759766e-01 3.435275316238403320e+00 8.534795045852661133e-01 -1.805443644523620605e+00
2.840000000000000000e+02 4.745810699462890625e+01 2.178602981567382812e+01 -5.182558894157409668e-01 3.129351377487182617e+00 7.833286523818969727e-01 -1.301566123962402344e+00
2.850000000000000000e+02 4.651635360717773438e+01 2.390820312500000000e+01 -2.685583233833312988e-01 2.814146280288696289e+00 7.636764049530029297e-01 -9.912256002426147461e-01
2.860000000000000000e+02 4.831199264526367188e+01 2.475308609008789062e+01 -4.311909675598144531e-01 3.491212606430053711e+00 9.180064797401428223e-01 -8.983657956123352051e-01
2.870000000000000000e+02 4.834132766723632812e+01 2.623907279968261719e+01 -3.636111915111541748e-01 3.457062482833862305e+00 9.280353784561157227e-01 -7.426077723503112793e-01
2.880000000000000000e+02 4.848453903198242188e+01 2.775377464294433594e+01 -2.862774133682250977e-01 3.486624002456665039e+00 9.601039886474609375e-01 -6.009494066238403320e-01
2.890000000000000000e+02 4.891836547851562500e+01 2.921120071411132812e+01 -2.529025375843048096e-01 3.578618526458740234e+00 9.977148175239562988e-01 -5.155098438262939453e-01
2.900000000000000000e+02 5.101587295532226562e+01 3.136601638793945312e+01 -2.354524880647659302e-01 3.957229375839233398e+00 1.116533041000366211e+00 -3.188958466053009033e-01
2.910000000000000000e+02 4.641705322265625000e+01 3.382125854492187500e+01 3.538106381893157959e-02 2.970797777175903320e+00 9.018536806106567383e-01 -2.665801942348480225e-01
2.920000000000000000e+02 5.032503128051757812e+01 3.710461807250976562e+01 -4.771187528967857361e-02 3.653983116149902344e+00 1.081881403923034668e+00 -1.700320541858673096e-01
2.930000000000000000e+02 4.810581588745117188e+01 1.538243198394775391e+01 -3.947850227355957031e+00 -1.159380078315734863e+00 -1.532169103622436523e+00 -1.851785898208618164e+00
2.940000000000000000e+02 4.791579818725585938e+01 1.650367355346679688e+01 4.090302586555480957e-01 6.576358675956726074e-01 3.199998438358306885e-01 -2.612703561782836914e+00
2.950000000000000000e+02 5.007987594604492188e+01 1.474693107604980469e+01 2.643867731094360352e+00 1.289216613769531250e+01 4.660809993743896484e+00 -5.259250164031982422e+00
2.960000000000000000e+02 5.047859191894531250e+01 1.408679199218750000e+01 3.646269559860229492e+00 2.112854003906250000e+01 7.432443141937255859e+00 -4.132570743560791016e+00
2.970000000000000000e+02 5.066767120361328125e+01 1.278775882720947266e+01 1.308372616767883301e+00 2.391765785217285156e+01 7.567809104919433594e+00 -5.614895820617675781e-01
2.980000000000000000e+02 5.044557952880859375e+01 1.131755924224853516e+01 2.291120767593383789e+00 2.714122962951660156e+01 8.829705238342285156e+00 3.340718507766723633e+00
2.990000000000000000e+02 5.025513076782226562e+01 1.055164527893066406e+01 3.291563987731933594e+00 2.399687576293945312e+01 8.186532020568847656e+00 6.735234260559082031e+00
3.000000000000000000e+02 5.364026260375976562e+01 9.607707977294921875e+00 9.831549525260925293e-01 1.102852153778076172e+01 3.603502988815307617e+00 8.111283183097839355e-01
3.010000000000000000e+02 5.548968505859375000e+01 7.379313945770263672e+00 1.063679695129394531e+00 6.374261856079101562e+00 2.231382369995117188e+00 2.374901056289672852e+00
3.020000000000000000e+02 5.476607131958007812e+01 7.754838466644287109e+00 9.098134189844131470e-02 9.320634841918945312e+00 2.823484897613525391e+00 1.582679152488708496e+00
3.030000000000000000e+02 5.698089599609375000e+01 9.304736137390136719e+00 2.865788042545318604e-01 1.258933544158935547e+00 4.636537134647369385e-01 6.377248167991638184e-01
3.040000000000000000e+02 5.640400314331054688e+01 9.758562088012695312e+00 5.747510790824890137e-01 3.383301734924316406e+00 1.187415838241577148e+00 1.293045878410339355e+00
3.050000000000000000e+02 5.666061782836914062e+01 1.149485301971435547e+01 1.144166827201843262e+00 3.582571744918823242e+00 1.418021559715270996e+00 1.699481844902038574e+00
3.060000000000000000e+02 5.366635513305664062e+01 1.356362152099609375e+01 2.464476823806762695e+00 9.990536689758300781e+00 3.736503839492797852e+00 2.547850131988525391e+00
3.070000000000000000e+02 5.283450317382812500e+01 1.510935592651367188e+01 7.805414199829101562e-01 1.045738887786865234e+01 3.371379137039184570e+00 2.286511659622192383e+00
3.080000000000000000e+02 5.221309280395507812e+01 1.706641960144042969e+01 -1.369293332099914551e+00 9.570149421691894531e+00 2.460256814956665039e+00 6.728397011756896973e-01
3.090000000000000000e+02 4.908850097656250000e+01 1.863673591613769531e+01 -1.103115439414978027e+00 4.593600749969482422e+00 1.047145605087280273e+00 -2.204491376876831055e+00
3.100000000000000000e+02 5.028972244262695312e+01 1.701193428039550781e+01 -1.843665480613708496e+00 8.364906311035156250e+00 1.956372141838073730e+00 -2.486610651016235352e+00
3.110000000000000000e+02 4.926984405517578125e+01 1.771179008483886719e+01 -9.051163792610168457e-01 4.871506690979003906e+00 1.189917206764221191e+00 -2.956036329269409180e+00
3.120000000000000000e+02 4.888896560668945312e+01 1.542399883270263672e+01 -7.733747363090515137e-01 2.663671970367431641e+00 5.670892000198364258e-01 -3.276996612548828125e+00
3.130000000000000000e+02 5.105808258056640625e+01 1.106459426879882812e+01 3.413887739181518555e+00 1.975029945373535156e+01 6.949255943298339844e+00 2.714309453964233398e+00
3.140000000000000000e+02 5.104307556152343750e+01 8.268382072448730469e+00 3.905098438262939453e-01 1.434913444519042969e+01 4.421893119812011719e+00 1.389405727386474609e+00
3.150000000000000000e+02 5.373821640014648438e+01 7.162749290466308594e+00 -1.908282041549682617e-01 1.251410293579101562e+01 3.696982622146606445e+00 7.413819432258605957e-01
3.160000000000000000e+02 5.448233795166015625e+01 5.157806873321533203e+00 1.311304926872253418e+00 1.665411758422851562e+01 5.389626979827880859e+00 3.697890758514404297e+00
3.170000000000000000e+02 5.407040786743164062e+01 6.143673896789550781e+00 4.072040915489196777e-01 1.371525478363037109e+01 4.236737728118896484e+00 1.510555982589721680e+00
3.180000000000000000e+02 4.994449234008789062e+01 9.787787437438964844e+00 3.508750438690185547e+00 1.681133651733398438e+01 6.096025943756103516e+00 6.730205059051513672e+00
3.190000000000000000e+02 4.896526336669921875e+01 8.438474655151367188e+00 2.899311542510986328e+00 7.898275852203369141e+00 3.239276170730590820e+00 4.533639430999755859e+00
3.200000000000000000e+02 4.952280807495117188e+01 6.809544086456298828e+00 1.614822864532470703e+00 9.182559013366699219e+00 3.239214420318603516e+00 2.801646471023559570e+00
3.210000000000000000e+02 4.964739990234375000e+01 5.716907978057861328e+00 2.093258619308471680e+00 8.366751670837402344e+00 3.138003110885620117e+00 2.111257791519165039e+00
3.220000000000000000e+02 4.906921386718750000e+01 2.982527732849121094e+00 3.090750217437744141e+00 5.227934837341308594e+00 2.495605468750000000e+00 2.472197771072387695e+00
3.230000000000000000e+02 4.793941879272460938e+01 1.572191834449768066e+00 2.393530845642089844e+00 3.633308649063110352e+00 1.808051943778991699e+00 3.440808057785034180e+00
3.240000000000000000e+02 4.606835174560546875e+01 4.332858622074127197e-01 5.342180132865905762e-01 3.954434871673583984e+00 1.346595883369445801e+00 4.409586906433105469e+00
3.250000000000000000e+02 4.597089004516601562e+01 -2.303966760635375977e+00 -1.298134446144104004e+00 5.442641735076904297e+00 1.243352174758911133e+00 6.583043098449707031e+00
3.260000000000000000e+02 4.604161453247070312e+01 -3.185338497161865234e+00 1.267381310462951660e-01 3.249119043350219727e+00 1.012757182121276855e+00 4.674348354339599609e+00
3.270000000000000000e+02 4.683137130737304688e+01 -3.256204843521118164e+00 -5.201551437377929688e+00 -7.762829065322875977e-01 -1.793350338935852051e+00 2.194964170455932617e+00
3.280000000000000000e+02 4.823540496826171875e+01 -2.406018495559692383e+00 -2.484660387039184570e+00 -7.743028402328491211e-01 -9.776889681816101074e-01 3.360319614410400391e+00
3.290000000000000000e+02 4.805443191528320312e+01 -8.590380549430847168e-01 6.141628623008728027e-01 1.391359329223632812e+00 6.016566753387451172e-01 4.293800354003906250e+00
3.300000000000000000e+02 4.966276931762695312e+01 -2.433191239833831787e-01 7.451028227806091309e-01 3.045930624008178711e+00 1.137310028076171875e+00 2.056318998336791992e+00
3.310000000000000000e+02 5.090104675292968750e+01 1.790118575096130371e+00 3.052278995513916016e+00 6.782299995422363281e+00 2.950373888015747070e+00 1.232020139694213867e+00
3.320000000000000000e+02 5.188932037353515625e+01 3.964296340942382812e+00 3.483810901641845703e+00 1.125938320159912109e+01 4.422957897186279297e+00 -4.491032063961029053e-01
3.330000000000000000e+02 5.067653274536132812e+01 5.917010784149169922e+00 1.579408526420593262e+00 1.073779392242431641e+01 3.695160865783691406e+00 9.096999764442443848e-01
3.340000000000000000e+02 5.047923660278320312e+01 6.879816532135009766e+00 9.553694725036621094e-01 1.151919174194335938e+01 3.742368221282958984e+00 1.524920940399169922e+00
3.350000000000000000e+02 5.122630310058593750e+01 9.214566230773925781e+00 1.097123980522155762e+00 1.619539833068847656e+01 5.187756538391113281e+00 1.131606221199035645e+00
3.360000000000000000e+02 4.846694946289062500e+01 7.820369720458984375e+00 2.447461128234863281e+00 5.924621582031250000e+00 2.511624813079833984e+00 3.763512134552001953e+00
3.370000000000000000e+02 4.797740554809570312e+01 7.203698158264160156e+00 2.458954811096191406e+00 4.925677776336669922e+00 2.215389728546142578e+00 3.253555297851562500e+00
3.380000000000000000e+02 4.749608230590820312e+01 4.429578781127929688e+00 2.885940313339233398e+00 4.135598659515380859e+00 2.106461763381958008e+00 3.046908617019653320e+00
3.390000000000000000e+02 4.694329833984375000e+01 6.006492137908935547e+00 2.674274921417236328e+00 3.352516174316406250e+00 1.808037281036376953e+00 2.836952447891235352e+00
3.400000000000000000e+02 4.700404739379882812e+01 2.744036436080932617e+00 2.656619548797607422e+00 3.582265138626098633e+00 1.871665477752685547e+00 3.343125820159912109e+00
3.410000000000000000e+02 4.647669982910156250e+01 2.162668943405151367e+00 2.096046447753906250e+00 3.460399627685546875e+00 1.666933774948120117e+00 3.504722833633422852e+00
3.420000000000000000e+02 4.439117813110351562e+01 2.341654747724533081e-01 -7.110379338264465332e-01 5.082130908966064453e+00 1.311327934265136719e+00 3.079945802688598633e+00
3.430000000000000000e+02 4.427082824707031250e+01 -2.553407907485961914e+00 -1.558486819267272949e-01 1.016536808013916016e+01 3.002855777740478516e+00 2.210304737091064453e+00
3.440000000000000000e+02 4.435646057128906250e+01 -3.743380308151245117e+00 3.200996398925781250e+00 1.186870288848876953e+01 4.520909786224365234e+00 1.056568741798400879e+00
3.450000000000000000e+02 4.437601852416992188e+01 -5.828846454620361328e+00 1.562548041343688965e+00 1.484923267364501953e+01 4.923534393310546875e+00 4.744447469711303711e-01
3.460000000000000000e+02 4.507954025268554688e+01 -6.988506793975830078e+00 4.951325058937072754e-01 1.217303943634033203e+01 3.800451517105102539e+00 -2.453480720520019531e+00
3.470000000000000000e+02 4.525406646728515625e+01 -7.714496612548828125e+00 3.230325579643249512e-01 9.936607360839843750e+00 3.077891826629638672e+00 -1.953946709632873535e+00
3.480000000000000000e+02 4.541265106201171875e+01 -1.052198886871337891e+01 -1.054319143295288086e+00 4.706918239593505859e+00 1.095779657363891602e+00 6.252970099449157715e-01
3.490000000000000000e+02 4.643890380859375000e+01 -1.076109695434570312e+01 -4.290167391300201416e-01 1.762531042098999023e+00 4.000542759895324707e-01 -1.853093877434730530e-02
3.500000000000000000e+02 4.783032989501953125e+01 -1.390103721618652344e+01 -1.182606935501098633e+00 -4.312165081501007080e-01 -4.841470420360565186e-01 9.722060561180114746e-01
3.510000000000000000e+02 5.003417587280273438e+01 -1.498890590667724609e+01 -1.657893776893615723e+00 -1.760740756988525391e+00 -1.025590419769287109e+00 1.782878637313842773e+00
3.520000000000000000e+02 5.053936004638671875e+01 -1.658631896972656250e+01 -1.790781140327453613e+00 -1.315893530845642090e+00 -9.320024251937866211e-01 1.398902535438537598e+00
3.530000000000000000e+02 5.267311096191406250e+01 -1.802918815612792969e+01 -3.177279710769653320e+00 -2.128585100173950195e+00 -1.591759562492370605e+00 2.115039825439453125e+00
3.540000000000000000e+02 5.509197616577148438e+01 -1.940881919860839844e+01 -6.484878063201904297e-01 4.608667850494384766e+00 1.188053965568542480e+00 4.015575408935546875e+00
3.550000000000000000e+02 5.625159072875976562e+01 -1.827352333068847656e+01 3.528979778289794922e+00 1.399083232879638672e+01 5.255943775177001953e+00 2.184558153152465820e+00
3.560000000000000000e+02 5.645083236694335938e+01 -1.943665885925292969e+01 -1.643667697906494141e+00 1.042790508270263672e+01 2.635271072387695312e+00 5.377181768417358398e-01
3.570000000000000000e+02 4.534651947021484375e+01 4.260305404663085938e+00 2.335258007049560547e+00 3.121210813522338867e+00 1.636940717697143555e+00 2.795423030853271484e+00
3.580000000000000000e+02 4.539213943481445312e+01 3.151688575744628906e+00 2.483121156692504883e+00 3.272523880004882812e+00 1.726693511009216309e+00 3.091230630874633789e+00
3.590000000000000000e+02 4.482473754882812500e+01 1.373216509819030762e+00 7.595455646514892578e-01 4.161967754364013672e+00 1.476454019546508789e+00 3.142635107040405273e+00
3.600000000000000000e+02 4.245402526855468750e+01 4.351505041122436523e-01 -6.468296051025390625e-01 2.668040990829467773e+00 6.063634157180786133e-01 1.176104187965393066e+00
3.610000000000000000e+02 4.261565780639648438e+01 -2.421324968338012695e+00 5.883010625839233398e-01 5.338888645172119141e+00 1.778156995773315430e+00 5.558270812034606934e-01
3.620000000000000000e+02 4.304337692260742188e+01 -3.501512289047241211e+00 2.066004276275634766e+00 7.073071479797363281e+00 2.741722822189331055e+00 5.337355136871337891e-01
3.630000000000000000e+02 4.263190841674804688e+01 -5.721288681030273438e+00 2.180983304977416992e+00 6.323552608489990234e+00 2.551360845565795898e+00 1.783880233764648438e+00
3.640000000000000000e+02 4.287371444702148438e+01 -6.675007820129394531e+00 8.367343544960021973e-01 7.071079254150390625e+00 2.372344017028808594e+00 1.924617052078247070e+00
3.650000000000000000e+02 4.284891510009765625e+01 -8.819272041320800781e+00 -1.252694249153137207e+00 6.475136756896972656e+00 1.566732764244079590e+00 2.132930278778076172e+00
3.660000000000000000e+02 4.290983200073242188e+01 -1.035126495361328125e+01 -1.750373005867004395e+00 6.141095638275146484e+00 1.317216873168945312e+00 2.293580770492553711e+00
3.670000000000000000e+02 4.217269897460937500e+01 -1.164354515075683594e+01 -1.189540505409240723e+00 5.757606983184814453e+00 1.370419859886169434e+00 2.186563968658447266e+00
3.680000000000000000e+02 4.277997970581054688e+01 -1.415661907196044922e+01 7.041558623313903809e-01 5.745856761932373047e+00 1.935003757476806641e+00 1.433745861053466797e+00
3.690000000000000000e+02 4.126190567016601562e+01 -1.556225109100341797e+01 2.846223115921020508e+00 1.008415794372558594e+01 3.879114151000976562e+00 1.989254832267761230e+00
3.700000000000000000e+02 4.032895660400390625e+01 -1.677960395812988281e+01 3.893100023269653320e+00 7.185458660125732422e+00 3.323567628860473633e+00 2.860873937606811523e+00
3.710000000000000000e+02 3.996861267089843750e+01 -1.762072944641113281e+01 1.582695722579956055e+00 4.645732402801513672e+00 1.868528485298156738e+00 1.615362048149108887e+00
3.720000000000000000e+02 4.079626464843750000e+01 -1.813275337219238281e+01 1.072456002235412598e+00 5.997933387756347656e+00 2.121116876602172852e+00 7.627617120742797852e-01
3.730000000000000000e+02 3.918400573730468750e+01 -1.923738288879394531e+01 9.863587617874145508e-01 3.715451240539550781e+00 1.410543084144592285e+00 6.609922051429748535e-01
3.740000000000000000e+02 3.815254974365234375e+01 -2.063571739196777344e+01 7.341982722282409668e-01 3.328956365585327148e+00 1.218946337699890137e+00 1.820735782384872437e-01
3.750000000000000000e+02 3.994808197021484375e+01 -2.338432884216308594e+01 1.265780031681060791e-01 3.660733222961425781e+00 1.136193394660949707e+00 -2.444070577621459961e-01
3.760000000000000000e+02 3.890124511718750000e+01 -2.501786994934082031e+01 1.211112365126609802e-01 3.417746305465698242e+00 1.061657309532165527e+00 -2.469023913145065308e-01
3.770000000000000000e+02 3.886399459838867188e+01 -2.669083023071289062e+01 8.101639151573181152e-02 3.332695484161376953e+00 1.024113535881042480e+00 -2.922046780586242676e-01
3.780000000000000000e+02 3.871793746948242188e+01 -2.858532714843750000e+01 6.130982562899589539e-02 3.238131523132324219e+00 9.898324012756347656e-01 -3.084066510200500488e-01
3.790000000000000000e+02 3.832740783691406250e+01 -3.070115852355957031e+01 6.818357855081558228e-02 3.130568504333496094e+00 9.596256613731384277e-01 -2.648582160472869873e-01
3.800000000000000000e+02 3.537290954589843750e+01 -3.150243568420410156e+01 2.221959829330444336e-02 2.974829196929931641e+00 8.991146683692932129e-01 -1.806856989860534668e-01
3.810000000000000000e+02 4.001026535034179688e+01 -3.398973464965820312e+01 1.191110089421272278e-01 3.113034248352050781e+00 9.696435332298278809e-01 -2.191508263349533081e-01
3.820000000000000000e+02 4.262220764160156250e+01 -4.085565185546875000e+01 1.831343322992324829e-01 3.204061269760131836e+00 1.016158699989318848e+00 -3.349729627370834351e-02
3.830000000000000000e+02 3.930025863647460938e+01 -3.699865722656250000e+01 9.100373834371566772e-02 3.058631420135498047e+00 9.448905587196350098e-01 -1.370463222265243530e-01
3.840000000000000000e+02 4.276786422729492188e+01 -3.443786621093750000e+01 1.998649239540100098e-01 3.192937135696411133e+00 1.017840623855590820e+00 -2.185092121362686157e-01
3.850000000000000000e+02 4.041342544555664062e+01 -3.134412574768066406e+01 1.032698452472686768e-01 3.176568269729614258e+00 9.839514493942260742e-01 -3.121751844882965088e-01
3.860000000000000000e+02 4.060290145874023438e+01 -2.900178909301757812e+01 1.022204756736755371e-01 3.238075733184814453e+00 1.002088904380798340e+00 -3.726899027824401855e-01
3.870000000000000000e+02 4.068574905395507812e+01 -2.689304351806640625e+01 6.259758025407791138e-02 3.357831716537475586e+00 1.026128768920898438e+00 -4.261303246021270752e-01
3.880000000000000000e+02 4.106303787231445312e+01 -2.284116744995117188e+01 2.926998585462570190e-02 3.841092824935913086e+00 1.161108851432800293e+00 -3.613536059856414795e-01
3.890000000000000000e+02 4.188069152832031250e+01 -2.100397682189941406e+01 5.201359838247299194e-02 4.315114974975585938e+00 1.310138583183288574e+00 -4.322308301925659180e-01
3.900000000000000000e+02 4.223708343505859375e+01 -1.932321548461914062e+01 3.322218954563140869e-01 4.651805877685546875e+00 1.495208382606506348e+00 -6.233713030815124512e-01
3.910000000000000000e+02 4.295669555664062500e+01 -1.783049201965332031e+01 9.591614007949829102e-01 4.710497856140136719e+00 1.700897812843322754e+00 -5.737731456756591797e-01
3.920000000000000000e+02 4.360261154174804688e+01 -1.537051010131835938e+01 1.098623156547546387e+00 4.648620128631591797e+00 1.724173069000244141e+00 7.253569364547729492e-01
3.930000000000000000e+02 4.323865127563476562e+01 -1.378470706939697266e+01 8.871530741453170776e-02 5.330050945281982422e+00 1.625629901885986328e+00 1.598523020744323730e+00
3.940000000000000000e+02 4.438818740844726562e+01 -1.209887504577636719e+01 -1.277434110641479492e+00 4.960374355316162109e+00 1.104882001876831055e+00 1.655630826950073242e+00
3.950000000000000000e+02 4.393239212036132812e+01 -1.000896358489990234e+01 -1.555452704429626465e+00 6.398513793945312500e+00 1.452918291091918945e+00 1.780061841011047363e+00
3.960000000000000000e+02 4.458380508422851562e+01 -7.821618080139160156e+00 -1.876180469989776611e-01 9.598110198974609375e+00 2.823147535324096680e+00 -2.836143374443054199e-01
3.970000000000000000e+02 4.486516189575195312e+01 -6.321193218231201172e+00 9.457640051841735840e-01 1.561064720153808594e+01 4.966923236846923828e+00 -1.470677018165588379e+00
3.980000000000000000e+02 4.590663146972656250e+01 3.757366657257080078e+00 2.690984249114990234e+00 3.193049430847167969e+00 1.765210032463073730e+00 3.100440740585327148e+00
3.990000000000000000e+02 4.433555603027343750e+01 3.034414052963256836e+00 2.481603384017944336e+00 3.736847877502441406e+00 1.865535378456115723e+00 3.051142692565917969e+00
4.000000000000000000e+02 4.369505691528320312e+01 1.405944943428039551e+00 6.675014495849609375e-01 3.754309654235839844e+00 1.326543331146240234e+00 2.331318378448486328e+00
4.010000000000000000e+02 4.199199295043945312e+01 9.025576114654541016e-01 -4.132091104984283447e-01 8.626721501350402832e-01 1.348389089107513428e-01 5.134968757629394531e-01
4.020000000000000000e+02 4.029585266113281250e+01 -6.261209845542907715e-01 -1.728793859481811523e+00 -3.958188295364379883e-01 -6.373838186264038086e-01 -2.538115084171295166e-01
4.030000000000000000e+02 3.958416366577148438e+01 -3.195464313030242920e-01 -2.878261804580688477e+00 -7.200644016265869141e-01 -1.079497814178466797e+00 5.348230153322219849e-02
4.040000000000000000e+02 3.887579727172851562e+01 -4.370074346661567688e-02 -2.145642518997192383e+00 -1.240093111991882324e+00 -1.015720725059509277e+00 1.182992935180664062e+00
4.050000000000000000e+02 3.896123504638671875e+01 -1.931869387626647949e+00 5.048837065696716309e-01 -1.516539454460144043e+00 -3.034967184066772461e-01 -2.217612117528915405e-01
4.060000000000000000e+02 4.018058776855468750e+01 -3.827527761459350586e+00 1.607611536979675293e+00 1.521793305873870850e-01 5.279372930526733398e-01 1.392590254545211792e-01
4.070000000000000000e+02 3.861397552490234375e+01 -5.286779880523681641e+00 6.667949557304382324e-01 -1.952546596527099609e+00 -3.857254683971405029e-01 6.474214196205139160e-01
4.080000000000000000e+02 3.905308914184570312e+01 -8.716017723083496094e+00 -1.291271448135375977e+00 -2.682841777801513672e+00 -1.192234039306640625e+00 2.051855087280273438e+00
4.090000000000000000e+02 3.943451690673828125e+01 -7.532614707946777344e+00 -8.353570103645324707e-01 -9.101979732513427734e-01 -5.236665010452270508e-01 1.555846691131591797e+00
4.100000000000000000e+02 4.017959594726562500e+01 -9.066389083862304688e+00 -1.427961349487304688e+00 1.120012760162353516e+00 -9.238456934690475464e-02 1.734253883361816406e+00
4.110000000000000000e+02 3.942776870727539062e+01 -9.438379287719726562e+00 -1.207597136497497559e+00 -1.683390140533447266e+00 -8.672962188720703125e-01 1.644803285598754883e+00
4.120000000000000000e+02 3.978437042236328125e+01 -1.016811561584472656e+01 -9.098638296127319336e-01 -2.086450308561325073e-01 -3.355526626110076904e-01 1.139764785766601562e+00
4.130000000000000000e+02 4.069823074340820312e+01 -1.247130966186523438e+01 1.073962152004241943e-01 6.887983798980712891e+00 2.098613977432250977e+00 -8.334517478942871094e-02
4.140000000000000000e+02 4.083072662353515625e+01 -1.057563877105712891e+01 -1.457694530487060547e+00 3.662515640258789062e+00 6.614463329315185547e-01 1.502029061317443848e+00
4.150000000000000000e+02 4.092642974853515625e+01 -8.745209693908691406e+00 -1.427110791206359863e+00 3.087563753128051758e+00 4.981358647346496582e-01 1.886990666389465332e+00
4.160000000000000000e+02 4.052468490600585938e+01 -5.951497554779052734e+00 9.302715659141540527e-01 1.112705111503601074e+00 6.128929853439331055e-01 9.703876972198486328e-01
4.170000000000000000e+02 4.145684432983398438e+01 -4.816436290740966797e+00 2.154647111892700195e+00 2.811663627624511719e+00 1.489893198013305664e+00 7.991455793380737305e-01
4.180000000000000000e+02 4.035353469848632812e+01 -3.084555149078369141e+00 1.460542678833007812e+00 3.266353607177734375e-01 5.361534357070922852e-01 -5.249148979783058167e-02
4.190000000000000000e+02 3.996240234375000000e+01 -1.382884979248046875e+00 -2.224143147468566895e-01 -5.944690108299255371e-01 -2.450649887323379517e-01 -2.587714791297912598e-02
4.200000000000000000e+02 3.757106018066406250e+01 7.038463354110717773e-01 -9.506392478942871094e-01 -2.651141643524169922e+00 -1.080534219741821289e+00 8.707455396652221680e-01
4.210000000000000000e+02 3.777480316162109375e+01 2.338149309158325195e+00 -1.988490484654903412e-02 -2.114825487136840820e+00 -6.404131054878234863e-01 2.685831785202026367e-01
4.220000000000000000e+02 3.682093429565429688e+01 1.573173999786376953e+00 -6.485944986343383789e-01 -1.246574878692626953e+00 -5.685508251190185547e-01 1.087058067321777344e+00
4.230000000000000000e+02 3.792768859863281250e+01 3.089732170104980469e+00 -4.585861042141914368e-02 -1.076211690902709961e+00 -3.366210758686065674e-01 1.261769980192184448e-01
4.240000000000000000e+02 3.754922866821289062e+01 5.382627964019775391e+00 -1.010649576783180237e-01 -2.389092743396759033e-01 -1.019922643899917603e-01 2.198958694934844971e-01
4.250000000000000000e+02 3.576747894287109375e+01 3.661843538284301758e+00 -4.120790660381317139e-01 -3.578639626502990723e-01 -2.309828996658325195e-01 1.103351712226867676e+00
4.260000000000000000e+02 3.554243087768554688e+01 4.560004711151123047e+00 -5.743837952613830566e-01 -5.841616913676261902e-02 -1.898399889469146729e-01 8.236384391784667969e-01
4.270000000000000000e+02 3.884976196289062500e+01 4.696396827697753906e+00 -6.205630954355001450e-03 -6.215429678559303284e-02 -2.050797827541828156e-02 4.640473797917366028e-02
4.280000000000000000e+02 3.858250808715820312e+01 5.722725868225097656e+00 -3.807626292109489441e-02 -7.926125824451446533e-02 -3.520125523209571838e-02 5.120316520333290100e-02
4.290000000000000000e+02 3.897219848632812500e+01 6.400833606719970703e+00 7.412948179990053177e-03 2.188262529671192169e-03 2.880363259464502335e-03 -1.162872649729251862e-03
4.300000000000000000e+02 7.278363800048828125e+01 9.458974838256835938e+00 -3.388086080551147461e+00 -2.491183876991271973e-01 -1.091161370277404785e+00 -1.319795846939086914e+00
4.310000000000000000e+02 7.400790405273437500e+01 9.244454383850097656e+00 -5.270994901657104492e-01 1.809531092643737793e+00 3.847295045852661133e-01 -2.291462421417236328e+00
4.320000000000000000e+02 7.405187225341796875e+01 1.046937942504882812e+01 3.287355005741119385e-01 3.880344629287719727e+00 1.262724041938781738e+00 -3.338828563690185547e+00
4.330000000000000000e+02 7.432174682617187500e+01 1.160378074645996094e+01 4.488596320152282715e-01 5.136280059814453125e+00 1.675541877746582031e+00 -2.451348304748535156e+00
4.340000000000000000e+02 7.320476531982421875e+01 1.400448799133300781e+01 1.409030318260192871e+00 5.037773132324218750e+00 1.934041023254394531e+00 -3.473086357116699219e-01
4.350000000000000000e+02 7.320689392089843750e+01 1.639838600158691406e+01 8.825478553771972656e-01 6.016233444213867188e+00 2.069634437561035156e+00 1.997792869806289673e-01
4.360000000000000000e+02 7.385155487060546875e+01 1.804418182373046875e+01 4.991439878940582275e-01 6.359359264373779297e+00 2.057550907135009766e+00 1.915663778781890869e-01
4.370000000000000000e+02 7.398640441894531250e+01 1.940568161010742188e+01 3.101590871810913086e-01 6.509012222290039062e+00 2.045751571655273438e+00 2.150024175643920898e-01
4.380000000000000000e+02 7.375680541992187500e+01 2.097155952453613281e+01 1.359964311122894287e-01 6.620806217193603516e+00 2.027040958404541016e+00 2.496976107358932495e-01
4.390000000000000000e+02 7.303609466552734375e+01 2.305344009399414062e+01 1.005734968930482864e-02 6.649947643280029297e+00 1.998001575469970703e+00 2.371675223112106323e-01
4.400000000000000000e+02 7.339884185791015625e+01 2.557086944580078125e+01 -3.938131406903266907e-02 6.684010982513427734e+00 1.993388891220092773e+00 2.087350487709045410e-01
4.410000000000000000e+02 7.345301818847656250e+01 2.713958740234375000e+01 -5.344280973076820374e-02 6.673761844635009766e+00 1.986095786094665527e+00 1.875973641872406006e-01
4.420000000000000000e+02 7.329930877685546875e+01 2.885965156555175781e+01 -6.042167544364929199e-02 6.658957958221435547e+00 1.979560852050781250e+00 1.664930731058120728e-01
4.430000000000000000e+02 7.392757415771484375e+01 2.987863349914550781e+01 -5.291963368654251099e-02 6.712582111358642578e+00 1.997898697853088379e+00 1.566362679004669189e-01
4.440000000000000000e+02 7.303849792480468750e+01 3.210486984252929688e+01 -6.661988049745559692e-02 6.643341541290283203e+00 1.973016500473022461e+00 1.293296515941619873e-01
4.450000000000000000e+02 7.331278228759765625e+01 3.383634948730468750e+01 -6.264579296112060547e-02 6.670913696289062500e+00 1.982480287551879883e+00 1.077976673841476440e-01
4.460000000000000000e+02 7.353024291992187500e+01 3.579047775268554688e+01 -5.563893169164657593e-02 6.710136413574218750e+00 1.996349215507507324e+00 8.520537614822387695e-02
4.470000000000000000e+02 7.378856658935546875e+01 3.794216156005859375e+01 -4.958806931972503662e-02 6.727717876434326172e+00 2.003438949584960938e+00 5.942710861563682556e-02
4.480000000000000000e+02 7.485956573486328125e+01 4.019380187988281250e+01 -2.581116929650306702e-02 6.875499725341796875e+00 2.054906606674194336e+00 3.387048467993736267e-02
4.490000000000000000e+02 7.199412536621093750e+01 4.113597488403320312e+01 -6.244826689362525940e-02 6.589823722839355469e+00 1.958212614059448242e+00 6.801959127187728882e-03
4.500000000000000000e+02 7.133615112304687500e+01 3.615780258178710938e+01 -8.974355459213256836e-02 6.456035137176513672e+00 1.909887433052062988e+00 7.969594001770019531e-02
4.510000000000000000e+02 7.145317840576171875e+01 3.412249755859375000e+01 -7.587798684835433960e-02 6.478537559509277344e+00 1.920797824859619141e+00 1.033430919051170349e-01
4.520000000000000000e+02 7.277293395996093750e+01 3.063983154296875000e+01 -6.704352796077728271e-02 6.618181228637695312e+00 1.965341329574584961e+00 1.458012610673904419e-01
4.530000000000000000e+02 7.239032745361328125e+01 2.953337478637695312e+01 -6.933273375034332275e-02 6.589159965515136719e+00 1.955948233604431152e+00 1.578050553798675537e-01
4.540000000000000000e+02 7.091886901855468750e+01 2.822659873962402344e+01 -9.136310219764709473e-02 6.470043182373046875e+00 1.913603901863098145e+00 1.570166945457458496e-01
4.550000000000000000e+02 7.275008392333984375e+01 2.419467544555664062e+01 -2.708885259926319122e-02 6.649471759796142578e+00 1.986714959144592285e+00 2.248974591493606567e-01
4.560000000000000000e+02 7.182974243164062500e+01 2.281135368347167969e+01 -4.022365435957908630e-03 6.632443428039550781e+00 1.988526344299316406e+00 2.363960593938827515e-01
4.570000000000000000e+02 7.172649383544921875e+01 2.043918037414550781e+01 1.226917579770088196e-01 6.635227680206298828e+00 2.027375698089599609e+00 3.210711479187011719e-01
4.580000000000000000e+02 7.310301971435546875e+01 1.861035728454589844e+01 4.060792624950408936e-01 6.471102714538574219e+00 2.063154458999633789e+00 2.952142953872680664e-01
4.590000000000000000e+02 7.248789215087890625e+01 1.569992256164550781e+01 1.133206129074096680e+00 5.837082862854003906e+00 2.091086626052856445e+00 3.766046762466430664e-01
4.600000000000000000e+02 7.248301696777343750e+01 1.318148994445800781e+01 1.750603556632995605e+00 4.401885986328125000e+00 1.845746755599975586e+00 -1.415802836418151855e-01
4.610000000000000000e+02 7.232543945312500000e+01 1.144079494476318359e+01 1.500554561614990234e+00 2.599976301193237305e+00 1.230159282684326172e+00 -4.754701554775238037e-01
4.620000000000000000e+02 7.292989349365234375e+01 1.079041576385498047e+01 8.848378658294677734e-01 1.741099357604980469e+00 7.877811789512634277e-01 -1.715592622756958008e+00
4.630000000000000000e+02 7.143141937255859375e+01 8.902027130126953125e+00 -3.130965948104858398e+00 -3.935441374778747559e-02 -9.510960578918457031e-01 -1.048659920692443848e+00
4.640000000000000000e+02 7.462670135498046875e+01 8.821829795837402344e+00 3.080196380615234375e+00 5.377778530120849609e+00 2.537392616271972656e+00 -3.683274984359741211e+00
4.650000000000000000e+02 7.563962554931640625e+01 8.899099349975585938e+00 3.720016181468963623e-01 1.172343826293945312e+01 3.628632068634033203e+00 -2.625597238540649414e+00
4.660000000000000000e+02 7.556708526611328125e+01 1.078397655487060547e+01 -8.690329790115356445e-01 8.017139434814453125e+00 2.144431829452514648e+00 -2.165029048919677734e+00
4.670000000000000000e+02 7.592646026611328125e+01 1.165909767150878906e+01 -5.717781186103820801e-01 7.638183116912841797e+00 2.119921445846557617e+00 -1.513418436050415039e+00
4.680000000000000000e+02 7.463014984130859375e+01 1.414851856231689453e+01 8.395795822143554688e-01 5.704056262969970703e+00 1.963090777397155762e+00 -8.316954970359802246e-01
4.690000000000000000e+02 7.492609405517578125e+01 1.520777320861816406e+01 7.309821844100952148e-01 5.984892845153808594e+00 2.014762401580810547e+00 -5.140900015830993652e-01
4.700000000000000000e+02 7.555985260009765625e+01 1.679479026794433594e+01 4.657382071018218994e-01 6.363315582275390625e+00 2.048716068267822266e+00 -1.940802484750747681e-01
4.710000000000000000e+02 7.467022705078125000e+01 1.940570640563964844e+01 2.657637000083923340e-01 6.540493488311767578e+00 2.041877031326293945e+00 1.463506668806076050e-01
4.720000000000000000e+02 7.561437225341796875e+01 2.113085746765136719e+01 1.045720577239990234e-01 6.666577816009521484e+00 2.031344890594482422e+00 1.648633033037185669e-01
4.730000000000000000e+02 7.624402618408203125e+01 2.310602760314941406e+01 2.303696610033512115e-02 6.759517669677734375e+00 2.034766435623168945e+00 1.785048395395278931e-01
4.740000000000000000e+02 7.553868103027343750e+01 2.417233276367187500e+01 -1.436775433830916882e-03 6.751860141754150391e+00 2.025127172470092773e+00 1.997420936822891235e-01
4.750000000000000000e+02 7.521452331542968750e+01 2.710584068298339844e+01 -3.421361744403839111e-02 6.797973155975341797e+00 2.029127836227416992e+00 1.758941560983657837e-01
4.760000000000000000e+02 7.494627380371093750e+01 2.893112373352050781e+01 -3.701014071702957153e-02 6.798507690429687500e+00 2.028449296951293945e+00 1.575538218021392822e-01
4.770000000000000000e+02 7.465771484375000000e+01 3.064261054992675781e+01 -4.434308037161827087e-02 6.777889251708984375e+00 2.020063877105712891e+00 1.443185210227966309e-01
4.780000000000000000e+02 7.433757019042968750e+01 3.177408027648925781e+01 -5.074756965041160583e-02 6.749918460845947266e+00 2.009751319885253906e+00 1.308263987302780151e-01
4.790000000000000000e+02 7.593919372558593750e+01 3.386329269409179688e+01 -2.964721806347370148e-02 6.952622890472412109e+00 2.076892614364624023e+00 8.542406558990478516e-02
4.800000000000000000e+02 7.548103332519531250e+01 3.553835678100585938e+01 -3.536520153284072876e-02 6.916555881500244141e+00 2.064357280731201172e+00 7.840346544981002808e-02
4.810000000000000000e+02 7.551557159423828125e+01 3.731804656982421875e+01 -3.506222367286682129e-02 6.960120201110839844e+00 2.077517509460449219e+00 6.683217734098434448e-02
4.820000000000000000e+02 7.612397003173828125e+01 3.883172225952148438e+01 -1.073979306966066360e-02 7.059410095214843750e+00 2.114601135253906250e+00 2.481727488338947296e-02
4.830000000000000000e+02 7.735090637207031250e+01 7.867331981658935547e+00 1.913777470588684082e+00 1.129885482788085938e+01 3.963789701461791992e+00 -3.942686617374420166e-01
4.840000000000000000e+02 7.964580535888671875e+01 5.998939037322998047e+00 -8.126862347126007080e-02 6.564135551452636719e+00 1.944859981536865234e+00 -3.944065272808074951e-01
4.850000000000000000e+02 7.962280273437500000e+01 6.793728828430175781e+00 2.295708358287811279e-01 5.928525924682617188e+00 1.847428917884826660e+00 -2.141069173812866211e-01
4.860000000000000000e+02 7.894207000732421875e+01 5.951006889343261719e+00 4.142291545867919922e-01 8.275077819824218750e+00 2.606791973114013672e+00 -1.063567399978637695e+00
4.870000000000000000e+02 7.800817871093750000e+01 1.013309001922607422e+01 -4.136421978473663330e-01 8.699941635131835938e+00 2.485889911651611328e+00 2.155864834785461426e-01
4.880000000000000000e+02 7.766304779052734375e+01 8.502293586730957031e+00 5.686226487159729004e-01 9.632976531982421875e+00 3.060479640960693359e+00 3.770421743392944336e-01
4.890000000000000000e+02 7.715342712402343750e+01 8.827898979187011719e+00 1.630951613187789917e-01 1.074974536895751953e+01 3.273852109909057617e+00 -8.203897625207901001e-02
4.900000000000000000e+02 7.617519378662109375e+01 8.487793922424316406e+00 7.262201309204101562e-01 1.211834526062011719e+01 3.853369712829589844e+00 -8.838638067245483398e-01
4.910000000000000000e+02 7.598507690429687500e+01 6.601504802703857422e+00 1.768535614013671875e+00 1.920083045959472656e+01 6.290810108184814453e+00 -2.249464035034179688e+00
4.920000000000000000e+02 7.596438598632812500e+01 5.050102710723876953e+00 3.230053782463073730e-01 1.503773689270019531e+01 4.608222484588623047e+00 -6.370666623115539551e-01
4.930000000000000000e+02 7.534618377685546875e+01 2.739833354949951172e+00 -4.260531067848205566e-01 5.652224063873291016e+00 1.567851305007934570e+00 8.586351275444030762e-01
4.940000000000000000e+02 7.430639648437500000e+01 1.578503966331481934e+00 -4.691567897796630859e+00 -6.053223013877868652e-01 -1.589066982269287109e+00 -2.110607624053955078e+00
4.950000000000000000e+02 7.302207183837890625e+01 -1.916508972644805908e-01 -1.707163572311401367e+00 7.314422726631164551e-01 -2.927164137363433838e-01 -1.908254027366638184e+00
4.960000000000000000e+02 7.476618194580078125e+01 -6.102656126022338867e-01 -1.700198769569396973e+00 4.160952568054199219e+00 7.382261157035827637e-01 7.115277051925659180e-01
4.970000000000000000e+02 7.250002288818359375e+01 8.896493911743164062e-01 -6.120140075683593750e+00 -4.901621937751770020e-01 -1.983090639114379883e+00 -1.928207278251647949e+00
4.980000000000000000e+02 7.171500396728515625e+01 1.066823959350585938e+00 -1.548388957977294922e+00 2.818685770034790039e+00 3.810890614986419678e-01 -2.231103420257568359e+00
4.990000000000000000e+02 7.100737762451171875e+01 1.506271481513977051e+00 1.624885797500610352e+00 5.428621768951416016e+00 2.116052150726318359e+00 -3.724368572235107422e+00
5.000000000000000000e+02 7.040717315673828125e+01 9.136517047882080078e-01 -1.291013598442077637e+00 6.943291664123535156e+00 1.695683479309082031e+00 -3.080982446670532227e+00
5.010000000000000000e+02 6.645143890380859375e+01 2.155497074127197266e+00 3.322278857231140137e-01 6.261505126953125000e+00 1.978119850158691406e+00 1.970362544059753418e+00
5.020000000000000000e+02 6.533932495117187500e+01 2.269788980484008789e+00 -3.027279078960418701e-01 5.661839008331298828e+00 1.607733249664306641e+00 2.535786151885986328e+00
5.030000000000000000e+02 6.289171600341796875e+01 1.810180068016052246e+00 -2.336994647979736328e+00 4.645649433135986328e+00 6.925964355468750000e-01 2.543722152709960938e+00
5.040000000000000000e+02 6.101322555541992188e+01 1.575129628181457520e+00 -3.517750024795532227e+00 3.140631437301635742e+00 -1.131356358528137207e-01 8.732997179031372070e-01
5.050000000000000000e+02 5.931975936889648438e+01 2.284883737564086914e+00 -4.573429107666015625e+00 -1.251220226287841797e+00 -1.747394800186157227e+00 -2.581466197967529297e+00
5.060000000000000000e+02 5.810079574584960938e+01 1.408713579177856445e+00 -7.517185688018798828e+00 -1.792264819145202637e+00 -2.792835235595703125e+00 -3.309133529663085938e+00
5.070000000000000000e+02 5.469210052490234375e+01 1.708970904350280762e+00 7.069549560546875000e+00 1.789298248291015625e+01 7.488759517669677734e+00 -8.432024002075195312e+00
5.080000000000000000e+02 5.460223388671875000e+01 6.421191692352294922e-01 -1.299337029457092285e+00 1.348415565490722656e+01 3.655445575714111328e+00 -4.699113368988037109e+00
5.090000000000000000e+02 5.375855255126953125e+01 7.973870038986206055e-01 -7.496190816164016724e-02 1.265439796447753906e+01 3.773830652236938477e+00 -2.376788377761840820e+00
5.100000000000000000e+02 5.290464019775390625e+01 -2.367789506912231445e+00 -3.422631263732910156e+00 6.552245616912841797e+00 9.388841986656188965e-01 -2.137361526489257812e+00
5.110000000000000000e+02 5.355444717407226562e+01 -3.823058843612670898e+00 -3.377011060714721680e+00 5.698285102844238281e+00 6.963822245597839355e-01 -2.101989269256591797e+00
5.120000000000000000e+02 5.278715515136718750e+01 -5.055558681488037109e+00 -3.000257730484008789e+00 3.864883899688720703e+00 2.593878507614135742e-01 -6.299201250076293945e-01
5.130000000000000000e+02 5.174317932128906250e+01 -6.029005527496337891e+00 -1.261585116386413574e+00 4.211429655551910400e-01 -2.521326541900634766e-01 3.991310298442840576e-01
5.140000000000000000e+02 5.226827621459960938e+01 -6.622821807861328125e+00 -2.472521811723709106e-01 1.501155972480773926e+00 3.761711418628692627e-01 -4.783931076526641846e-01
5.150000000000000000e+02 5.274664688110351562e+01 -7.259544372558593750e+00 4.132381975650787354e-01 2.622063636779785156e+00 9.105905890464782715e-01 -1.138642907142639160e+00
5.160000000000000000e+02 5.327112197875976562e+01 -6.815158367156982422e+00 -5.331188440322875977e-01 3.503203153610229492e+00 8.910253047943115234e-01 -8.815121650695800781e-01
5.170000000000000000e+02 5.357772064208984375e+01 -8.603013038635253906e+00 8.192586302757263184e-01 4.021949291229248047e+00 1.452362418174743652e+00 -1.800993680953979492e+00
5.180000000000000000e+02 5.474976730346679688e+01 -1.068559741973876953e+01 1.156207799911499023e+00 7.555910110473632812e+00 2.613635301589965820e+00 -2.640703439712524414e+00
5.190000000000000000e+02 5.514402008056640625e+01 -1.143599033355712891e+01 1.154178380966186523e+00 9.406653404235839844e+00 3.168249607086181641e+00 -2.446299552917480469e+00
5.200000000000000000e+02 5.695751953125000000e+01 -1.374230670928955078e+01 7.018875479698181152e-01 1.142363166809082031e+01 3.637655973434448242e+00 -4.055272042751312256e-01
5.210000000000000000e+02 5.815955352783203125e+01 -1.480969238281250000e+01 1.075566291809082031e+00 1.026441860198974609e+01 3.401995658874511719e+00 2.519021034240722656e-01
5.220000000000000000e+02 6.029267501831054688e+01 -1.687833976745605469e+01 8.662514686584472656e-01 7.512958049774169922e+00 2.513762712478637695e+00 -7.082921266555786133e-01
5.230000000000000000e+02 6.129993820190429688e+01 -1.838304710388183594e+01 5.388376116752624512e-01 6.602647304534912109e+00 2.142445325851440430e+00 -1.151087284088134766e+00
5.240000000000000000e+02 6.410507965087890625e+01 -2.038197517395019531e+01 4.239759445190429688e-01 4.830565452575683594e+00 1.576362371444702148e+00 -1.196982979774475098e+00
5.250000000000000000e+02 6.437596893310546875e+01 -2.285889244079589844e+01 3.821634352207183838e-01 5.005880355834960938e+00 1.616413116455078125e+00 -8.234834074974060059e-01
5.260000000000000000e+02 6.702664947509765625e+01 -2.337489128112792969e+01 6.008672118186950684e-01 4.655417919158935547e+00 1.576885461807250977e+00 -2.088774591684341431e-01
5.270000000000000000e+02 7.140209197998046875e+01 -2.679598999023437500e+01 2.301954627037048340e-01 5.776282787322998047e+00 1.801943540573120117e+00 2.904387712478637695e-01
5.280000000000000000e+02 7.221626281738281250e+01 -2.945457839965820312e+01 1.734105199575424194e-01 5.990862369537353516e+00 1.849281787872314453e+00 1.985475420951843262e-01
5.290000000000000000e+02 7.605920410156250000e+01 -3.186401748657226562e+01 4.500486701726913452e-02 6.560244083404541016e+00 1.981574654579162598e+00 1.212941482663154602e-01
5.300000000000000000e+02 7.771519470214843750e+01 -3.460778045654296875e+01 1.198219042271375656e-02 6.698132514953613281e+00 2.013034343719482422e+00 4.854734614491462708e-02
5.310000000000000000e+02 7.957080078125000000e+01 -3.482872772216796875e+01 3.609193721786141396e-03 6.869991302490234375e+00 2.062080144882202148e+00 1.157334819436073303e-02
5.320000000000000000e+02 7.867638397216796875e+01 -3.546718978881835938e+01 3.776585217565298080e-03 6.779337882995605469e+00 2.034934282302856445e+00 2.959178015589714050e-02
5.330000000000000000e+02 7.960003662109375000e+01 -3.325914764404296875e+01 6.747286301106214523e-03 6.918143749237060547e+00 2.077467203140258789e+00 1.091984473168849945e-02
5.340000000000000000e+02 7.878665924072265625e+01 -3.321262741088867188e+01 -1.977717503905296326e-03 6.838642597198486328e+00 2.050999402999877930e+00 3.464494273066520691e-02
5.350000000000000000e+02 7.804833984375000000e+01 -3.181139755249023438e+01 1.743860356509685516e-02 6.804213047027587891e+00 2.046495437622070312e+00 7.639858126640319824e-02
5.360000000000000000e+02 7.589461517333984375e+01 -2.884162139892578125e+01 5.560882389545440674e-02 6.593252182006835938e+00 1.994658350944519043e+00 1.917461156845092773e-01
5.370000000000000000e+02 7.275058746337890625e+01 -2.683076286315917969e+01 1.546305865049362183e-01 6.043905258178710938e+00 1.859560847282409668e+00 3.267312943935394287e-01
5.380000000000000000e+02 6.978511047363281250e+01 -2.535164642333984375e+01 4.083957672119140625e-01 5.322206974029541016e+00 1.719180822372436523e+00 2.544462084770202637e-01
5.390000000000000000e+02 6.833777618408203125e+01 -2.223986816406250000e+01 7.278262376785278320e-01 4.370897293090820312e+00 1.529617071151733398e+00 2.211646139621734619e-01
5.400000000000000000e+02 6.649974060058593750e+01 -2.034876441955566406e+01 7.390202283859252930e-01 3.712165117263793945e+00 1.335355639457702637e+00 -6.197049021720886230e-01
5.410000000000000000e+02 6.527433776855468750e+01 -1.919183158874511719e+01 4.774031043052673340e-01 3.896982669830322266e+00 1.312315702438354492e+00 -1.145577669143676758e+00
5.420000000000000000e+02 6.343200683593750000e+01 -1.722727012634277344e+01 1.519468873739242554e-01 5.152863025665283203e+00 1.591442942619323730e+00 -1.221709609031677246e+00
5.430000000000000000e+02 6.165934753417968750e+01 -1.571000576019287109e+01 4.078181385993957520e-01 6.760862827301025391e+00 2.150604248046875000e+00 -5.351297855377197266e-01
5.440000000000000000e+02 5.951348495483398438e+01 -1.454371070861816406e+01 7.754270434379577637e-01 8.803045272827148438e+00 2.873541831970214844e+00 2.812046706676483154e-01
5.450000000000000000e+02 5.865164184570312500e+01 -1.299258613586425781e+01 5.355386137962341309e-01 9.334718704223632812e+00 2.961077213287353516e+00 4.801349043846130371e-01
5.460000000000000000e+02 5.660364532470703125e+01 -1.141336154937744141e+01 5.581114888191223145e-01 9.520578384399414062e+00 3.023606777191162109e+00 -5.718079209327697754e-01
5.470000000000000000e+02 6.995560455322265625e+01 2.666718244552612305e+00 3.952830553054809570e+00 1.220427417755126953e+01 4.847131252288818359e+00 -5.872797489166259766e+00
5.480000000000000000e+02 6.869393920898437500e+01 4.472685337066650391e+00 2.786403656005859375e+00 1.324943065643310547e+01 4.810750484466552734e+00 -2.125637054443359375e+00
5.490000000000000000e+02 6.659007263183593750e+01 7.277204513549804688e+00 -4.970445930957794189e-01 1.110275459289550781e+01 3.181713104248046875e+00 -6.755378246307373047e-01
5.500000000000000000e+02 6.507232666015625000e+01 7.520800590515136719e+00 3.054685890674591064e-01 9.614728927612304688e+00 2.976059198379516602e+00 2.218336820602416992e+00
5.510000000000000000e+02 6.361108398437500000e+01 6.858833789825439453e+00 1.112435936927795410e+00 3.660693883895874023e+00 1.431939005851745605e+00 2.048563480377197266e+00
5.520000000000000000e+02 6.414746856689453125e+01 6.381055355072021484e+00 6.992420554161071777e-01 5.413013935089111328e+00 1.833676815032958984e+00 1.891702890396118164e+00
5.530000000000000000e+02 6.174426269531250000e+01 4.335032939910888672e+00 -1.653628074564039707e-03 1.283415794372558594e+00 3.845286667346954346e-01 6.026927828788757324e-01
5.540000000000000000e+02 6.118717956542968750e+01 3.755117654800415039e+00 -1.028123021125793457e+00 5.866658687591552734e-01 -1.324371546506881714e-01 -5.846063047647476196e-02
5.550000000000000000e+02 6.175484466552734375e+01 3.260159730911254883e+00 -1.694550514221191406e+00 2.310322761535644531e+00 1.847316771745681763e-01 6.947211027145385742e-01
5.560000000000000000e+02 6.295619964599609375e+01 3.424055337905883789e+00 -9.225481748580932617e-01 3.691933631896972656e+00 8.308156132698059082e-01 1.612650036811828613e+00
5.570000000000000000e+02 6.536999511718750000e+01 3.360511302947998047e+00 2.794115245342254639e-01 6.099760055541992188e+00 1.913751482963562012e+00 1.762579560279846191e+00
5.580000000000000000e+02 6.720888519287109375e+01 3.819897651672363281e+00 1.887388467788696289e+00 8.510128021240234375e+00 3.119255065917968750e+00 1.087037660181522369e-02
5.590000000000000000e+02 6.948912048339843750e+01 3.721789360046386719e+00 3.197586297988891602e+00 1.941087150573730469e+01 6.782537460327148438e+00 -4.256187915802001953e+00
5.600000000000000000e+02 6.820819091796875000e+01 3.643668174743652344e+00 2.829745531082153320e+00 1.071814918518066406e+01 4.064368247985839844e+00 -8.741077184677124023e-01
5.610000000000000000e+02 6.966901397705078125e+01 5.862952232360839844e+00 5.435475707054138184e-01 1.298283195495605469e+01 4.057913780212402344e+00 1.772966980934143066e+00
5.620000000000000000e+02 6.992557525634765625e+01 6.869009494781494141e+00 4.786109030246734619e-01 8.522516250610351562e+00 2.700338125228881836e+00 1.485275030136108398e+00
5.630000000000000000e+02 7.061678314208984375e+01 8.078957557678222656e+00 -1.409149408340454102e+00 1.910631299018859863e+00 1.504445821046829224e-01 -6.759785860776901245e-02
5.640000000000000000e+02 7.069412994384765625e+01 8.765232086181640625e+00 -1.967962861061096191e+00 2.192515134811401367e+00 6.736566871404647827e-02 4.268160834908485413e-02
5.650000000000000000e+02 7.048841094970703125e+01 9.516889572143554688e+00 -1.156302571296691895e+00 4.122540473937988281e+00 8.898713588714599609e-01 9.367457032203674316e-01
5.660000000000000000e+02 6.992673492431640625e+01 8.793075561523437500e+00 -1.247503399848937988e+00 6.484793186187744141e+00 1.571187019348144531e+00 6.310005187988281250e-01
5.670000000000000000e+02 6.844989776611328125e+01 1.141944026947021484e+01 2.381086826324462891e+00 8.878177642822265625e+00 3.377779245376586914e+00 1.258684873580932617e+00
5.680000000000000000e+02 6.587598419189453125e+01 1.341379737854003906e+01 1.195531964302062988e+00 1.342675495147705078e+01 4.386686325073242188e+00 -6.965528130531311035e-01
5.690000000000000000e+02 6.460732269287109375e+01 1.343840217590332031e+01 2.989350080490112305e+00 4.149079799652099609e+00 2.141528844833374023e+00 -3.816325902938842773e+00
5.700000000000000000e+02 6.393466186523437500e+01 1.382140254974365234e+01 4.696183800697326660e-01 1.928846716880798340e+00 7.195395231246948242e-01 -1.839049339294433594e+00
5.710000000000000000e+02 6.213180160522460938e+01 1.454062080383300781e+01 5.432347655296325684e-01 4.797420799732208252e-01 3.068930506706237793e-01 -3.134680986404418945e-01
5.720000000000000000e+02 5.965190124511718750e+01 1.378295135498046875e+01 3.110785186290740967e-01 1.273040890693664551e+00 4.752358496189117432e-01 1.042553067207336426e+00
5.730000000000000000e+02 5.855255126953125000e+01 1.398115634918212891e+01 8.593106269836425781e-01 2.262805700302124023e+00 9.366348981857299805e-01 1.764812469482421875e+00
5.740000000000000000e+02 5.651491165161132812e+01 1.466812992095947266e+01 1.263348937034606934e+00 5.006083011627197266e+00 1.880829691886901855e+00 2.730571985244750977e+00
5.750000000000000000e+02 5.427414703369140625e+01 1.423955821990966797e+01 1.706411957740783691e+00 8.283839225769042969e+00 2.997075319290161133e+00 3.020971775054931641e+00
5.760000000000000000e+02 5.658859634399414062e+01 1.298593521118164062e+01 1.385558843612670898e+00 4.187041759490966797e+00 1.671780228614807129e+00 2.329685688018798828e+00
5.770000000000000000e+02 5.599050140380859375e+01 1.229815006256103516e+01 1.673258900642395020e+00 5.315139293670654297e+00 2.096519470214843750e+00 2.296379804611206055e+00
5.780000000000000000e+02 5.921637344360351562e+01 1.162788867950439453e+01 -2.844799458980560303e-01 8.380373567342758179e-02 -6.020285934209823608e-02 -7.934094965457916260e-02
5.790000000000000000e+02 5.986912536621093750e+01 1.210650157928466797e+01 -6.278736591339111328e-01 -6.566142290830612183e-02 -2.080605328083038330e-01 -1.886820197105407715e-01
5.800000000000000000e+02 6.120468139648437500e+01 1.299321556091308594e+01 -1.316039681434631348e+00 -2.917189002037048340e-01 -4.823275804519653320e-01 -5.343434214591979980e-01
5.810000000000000000e+02 6.696239471435546875e+01 -3.530367851257324219e+00 -3.327896356582641602e+00 -1.478607416152954102e+00 -1.441951036453247070e+00 2.515520334243774414e+00
5.820000000000000000e+02 6.618359375000000000e+01 -2.243069887161254883e+00 -7.060549259185791016e+00 -1.690031886100769043e+00 -2.625174283981323242e+00 2.635836362838745117e+00
5.830000000000000000e+02 6.862641143798828125e+01 -1.767632603645324707e+00 -3.884678125381469727e+00 4.438224315643310547e+00 1.660639494657516479e-01 -1.085182785987854004e+00
5.840000000000000000e+02 7.012130737304687500e+01 -1.689815968275070190e-01 -2.755545377731323242e+00 6.439130783081054688e+00 1.105075597763061523e+00 -2.865699529647827148e+00
5.850000000000000000e+02 6.988183593750000000e+01 1.539113044738769531e+00 2.812933921813964844e-01 9.337819099426269531e+00 2.885733604431152344e+00 -3.094534873962402344e+00
5.860000000000000000e+02 6.910739898681640625e+01 -5.767643451690673828e+00 -6.724235136061906815e-03 1.098858237266540527e+00 3.276401758193969727e-01 -4.750113487243652344e-01
5.870000000000000000e+02 7.124382781982421875e+01 -7.042165279388427734e+00 3.171626329421997070e-01 5.643567562103271484e+00 1.788219094276428223e+00 -1.680563449859619141e+00
5.880000000000000000e+02 7.223149871826171875e+01 -8.646964073181152344e+00 1.033935904502868652e+00 9.563304901123046875e+00 3.179172277450561523e+00 -1.077390432357788086e+00
5.890000000000000000e+02 7.190460968017578125e+01 -9.643828392028808594e+00 1.293653964996337891e+00 1.277307701110839844e+01 4.220019340515136719e+00 -2.257102966308593750e+00
5.900000000000000000e+02 7.281894683837890625e+01 -1.197418880462646484e+01 5.586621165275573730e-01 1.291947174072265625e+01 4.043440341949462891e+00 3.475962579250335693e-01
5.910000000000000000e+02 7.287483215332031250e+01 -1.348566722869873047e+01 1.668219089508056641e+00 1.272767829895019531e+01 4.318769454956054688e+00 1.883627772331237793e+00
5.920000000000000000e+02 7.139965820312500000e+01 -1.551726341247558594e+01 2.869054794311523438e+00 9.342709541320800781e+00 3.663529396057128906e+00 4.376183032989501953e+00
5.930000000000000000e+02 6.997674560546875000e+01 -1.610258865356445312e+01 -2.968866586685180664e+00 -1.075109094381332397e-01 -9.229132533073425293e-01 1.891112565994262695e+00
5.940000000000000000e+02 6.916680145263671875e+01 -1.633782958984375000e+01 -2.231820583343505859e+00 -9.635513424873352051e-01 -9.586115479469299316e-01 1.139007568359375000e+00
5.950000000000000000e+02 6.832384490966796875e+01 -1.501019287109375000e+01 -1.424118995666503906e+00 -9.964011907577514648e-01 -7.261560559272766113e-01 1.382173180580139160e+00
5.960000000000000000e+02 6.880204772949218750e+01 -1.560415172576904297e+01 -3.031601190567016602e+00 -1.421063542366027832e+00 -1.335799455642700195e+00 1.609434008598327637e+00
5.970000000000000000e+02 6.781404876708984375e+01 -1.443164062500000000e+01 -1.359651684761047363e+00 -7.071746587753295898e-01 -6.200479269027709961e-01 9.352626204490661621e-01
5.980000000000000000e+02 6.661983489990234375e+01 -1.429888916015625000e+01 -9.803202152252197266e-01 9.216306209564208984e-01 -1.760687679052352905e-02 4.985610395669937134e-02
5.990000000000000000e+02 6.563817596435546875e+01 -1.215894699096679688e+01 -4.893042519688606262e-02 1.196236729621887207e+00 3.441919088363647461e-01 -4.826039969921112061e-01
6.000000000000000000e+02 6.511330413818359375e+01 -1.156155872344970703e+01 4.649886190891265869e-01 2.477166414260864258e+00 8.826465606689453125e-01 -1.063271760940551758e+00
6.010000000000000000e+02 6.285427093505859375e+01 -1.066692733764648438e+01 2.840505447238683701e-03 7.820787429809570312e+00 2.347088336944580078e+00 3.299319371581077576e-02
6.020000000000000000e+02 6.329238510131835938e+01 -9.643982887268066406e+00 4.970488846302032471e-01 8.653397560119628906e+00 2.745133876800537109e+00 -6.322609782218933105e-01
6.030000000000000000e+02 6.221629714965820312e+01 -8.140545845031738281e+00 5.784291625022888184e-01 1.000219154357910156e+01 3.174186229705810547e+00 3.703629076480865479e-01
6.040000000000000000e+02 6.061016845703125000e+01 -5.949066638946533203e+00 1.406824588775634766e+00 8.471009254455566406e+00 2.963350296020507812e+00 8.761352896690368652e-01
6.050000000000000000e+02 5.919569778442382812e+01 -3.180906772613525391e+00 6.912572979927062988e-01 5.130263328552246094e+00 1.746456265449523926e+00 -1.137159466743469238e+00
6.060000000000000000e+02 5.677276229858398438e+01 -1.606137514114379883e+00 -9.122962355613708496e-01 3.787945270538330078e+00 8.626947402954101562e-01 -4.357059001922607422e+00
6.070000000000000000e+02 5.495454025268554688e+01 3.137487545609474182e-02 -1.603313803672790527e+00 9.717481613159179688e+00 2.434250354766845703e+00 -6.121876239776611328e+00
6.080000000000000000e+02 6.673170471191406250e+01 -1.329938220977783203e+01 -7.128555774688720703e-01 -2.675614133477210999e-02 -2.218835204839706421e-01 3.571216166019439697e-01
6.090000000000000000e+02 6.359712982177734375e+01 -7.902122020721435547e+00 3.132354021072387695e-01 1.179522895812988281e+01 3.632539272308349609e+00 -1.291472315788269043e+00
6.100000000000000000e+02 6.198607254028320312e+01 -5.776595592498779297e+00 1.403340935707092285e+00 1.116031551361083984e+01 3.769096851348876953e+00 1.600273847579956055e+00
6.110000000000000000e+02 6.000753784179687500e+01 -3.612144470214843750e+00 1.157387137413024902e+00 6.163983345031738281e+00 2.196411132812500000e+00 -3.248670101165771484e-01
6.120000000000000000e+02 5.814385604858398438e+01 -1.810668230056762695e+00 -2.946085333824157715e-01 3.185057640075683594e+00 8.671347498893737793e-01 -2.627859830856323242e+00
6.130000000000000000e+02 5.592564773559570312e+01 -2.080137729644775391e-01 -2.086285591125488281e+00 4.618332862854003906e+00 7.596141695976257324e-01 -6.294206619262695312e+00
6.140000000000000000e+02 5.561154174804687500e+01 5.676818490028381348e-01 1.926688291132450104e-02 5.678894519805908203e+00 1.709448456764221191e+00 -5.798538684844970703e+00
6.150000000000000000e+02 5.629692459106445312e+01 8.892323970794677734e-01 -2.651614427566528320e+00 1.515371084213256836e+00 -3.408729732036590576e-01 -3.726833343505859375e+00
6.160000000000000000e+02 6.338214874267578125e+01 -5.542127609252929688e+00 4.773709774017333984e-01 1.511928081512451172e+01 4.678995609283447266e+00 2.985445857048034668e-01
6.170000000000000000e+02 6.118704223632812500e+01 -3.884917497634887695e+00 1.828667759895324707e+00 8.048663139343261719e+00 2.963199138641357422e+00 6.767467260360717773e-01
6.180000000000000000e+02 6.030207824707031250e+01 -1.497689127922058105e+00 -1.074483156204223633e+00 5.070051193237304688e+00 1.198670387268066406e+00 -1.989000439643859863e-01
6.190000000000000000e+02 5.843750762939453125e+01 3.889373242855072021e-01 -3.158692359924316406e+00 8.027621544897556305e-03 -9.451994299888610840e-01 -1.485707879066467285e+00
6.200000000000000000e+02 5.772442245483398438e+01 8.152018189430236816e-01 -5.935026645660400391e+00 -1.272788882255554199e+00 -2.162344694137573242e+00 -2.649082899093627930e+00
6.210000000000000000e+02 6.274893951416015625e+01 -6.433577060699462891e+00 7.137457132339477539e-01 1.244695949554443359e+01 3.948211669921875000e+00 5.449873208999633789e-01
6.220000000000000000e+02 6.334937286376953125e+01 -3.901760816574096680e+00 2.778082132339477539e+00 1.756328582763671875e+01 6.102410793304443359e+00 3.551936626434326172e+00
6.230000000000000000e+02 6.311642074584960938e+01 -1.941159486770629883e+00 -2.406086683273315430e+00 1.089489650726318359e+01 2.546643018722534180e+00 2.832651615142822266e+00
6.240000000000000000e+02 6.542841339111328125e+01 -2.347221612930297852e+00 -9.512987136840820312e+00 -2.652669429779052734e+00 -3.649696826934814453e+00 3.950850486755371094e+00
6.250000000000000000e+02 6.565106964111328125e+01 -2.885787487030029297e-01 -1.570636987686157227e+00 3.355260133743286133e+00 5.353869795799255371e-01 3.317527055740356445e+00
6.260000000000000000e+02 6.600249481201171875e+01 8.883569240570068359e-01 -9.542156457901000977e-01 4.924555778503417969e+00 1.191102147102355957e+00 2.789068937301635742e+00
6.270000000000000000e+02 6.394069671630859375e+01 -2.300909042358398438e+00 -1.190962672233581543e+00 9.057312965393066406e+00 2.359905004501342773e+00 4.337053298950195312e+00
6.280000000000000000e+02 6.474227142333984375e+01 -2.364607095718383789e+00 -3.565089702606201172e+00 3.677524805068969727e+00 3.373048454523086548e-02 4.218677997589111328e+00
6.290000000000000000e+02 6.710510253906250000e+01 -2.778567969799041748e-01 -2.077861070632934570e+00 3.761545181274414062e+00 5.051052570343017578e-01 1.109781861305236816e+00
6.300000000000000000e+02 4.834803390502929688e+01 -3.392767190933227539e+00 -9.349989891052246094e+00 -1.546047449111938477e+00 -3.268811225891113281e+00 2.849198341369628906e+00
6.310000000000000000e+02 4.911759948730468750e+01 -3.158755064010620117e+00 -7.477344512939453125e+00 -1.681922674179077148e+00 -2.747780084609985352e+00 2.533261537551879883e+00
6.320000000000000000e+02 4.957048034667968750e+01 -1.952177286148071289e+00 -2.668431043624877930e+00 4.815189540386199951e-01 -6.560736894607543945e-01 1.390056848526000977e+00
6.330000000000000000e+02 5.054838943481445312e+01 4.803338944911956787e-01 1.390639424324035645e+00 5.227188110351562500e+00 1.985348224639892578e+00 1.386453866958618164e+00
6.340000000000000000e+02 5.269814682006835938e+01 1.082861185073852539e+00 1.856252431869506836e+00 1.093487548828125000e+01 3.837338447570800781e+00 -2.558808587491512299e-02
6.350000000000000000e+02 5.267171478271484375e+01 3.837790012359619141e+00 3.979287624359130859e+00 1.314166736602783203e+01 5.136286735534667969e+00 -1.155891537666320801e+00
6.360000000000000000e+02 5.378046798706054688e+01 5.346202850341796875e+00 1.088443875312805176e+00 1.586976337432861328e+01 5.087461948394775391e+00 7.032675147056579590e-01
6.370000000000000000e+02 5.333861541748046875e+01 6.397506713867187500e+00 2.542702853679656982e-01 1.374115371704101562e+01 4.198627471923828125e+00 1.428601890802383423e-01
6.380000000000000000e+02 4.952696609497070312e+01 -3.868226051330566406e+00 -9.126356124877929688e+00 -2.400467395782470703e+00 -3.458047151565551758e+00 3.691544055938720703e+00
6.390000000000000000e+02 5.064550399780273438e+01 -4.901054859161376953e+00 -4.064846038818359375e+00 -1.482982277870178223e+00 -1.664348483085632324e+00 2.493653297424316406e+00
6.400000000000000000e+02 5.119645309448242188e+01 -5.461067676544189453e+00 -2.412164926528930664e+00 -5.269624590873718262e-01 -8.817382454872131348e-01 1.418802022933959961e+00
6.410000000000000000e+02 5.436486816406250000e+01 -9.974141120910644531e+00 1.176237106323242188e+00 6.010290622711181641e+00 2.155958414077758789e+00 -2.439219474792480469e+00
6.420000000000000000e+02 5.540612030029296875e+01 -1.225836086273193359e+01 7.698901891708374023e-01 1.086097240447998047e+01 3.489258766174316406e+00 -2.361712932586669922e+00
6.430000000000000000e+02 5.563932418823242188e+01 -1.388024616241455078e+01 3.805993795394897461e-01 1.347783756256103516e+01 4.157531261444091797e+00 -1.929699063301086426e+00
6.440000000000000000e+02 5.850946044921875000e+01 -1.684898948669433594e+01 1.711148977279663086e+00 9.465009689331054688e+00 3.352847576141357422e+00 -2.064913697540760040e-02
6.450000000000000000e+02 6.011304855346679688e+01 -1.873336601257324219e+01 6.039249300956726074e-01 7.438366413116455078e+00 2.412687301635742188e+00 -1.024033188819885254e+00
6.460000000000000000e+02 6.183041381835937500e+01 -2.062928962707519531e+01 1.456515043973922729e-01 6.051462173461914062e+00 1.859134078025817871e+00 -1.179111480712890625e+00
6.470000000000000000e+02 6.371456909179687500e+01 -2.113262176513671875e+01 4.101059436798095703e-01 5.079493045806884766e+00 1.646879673004150391e+00 -1.110255837440490723e+00
6.480000000000000000e+02 6.531801605224609375e+01 -2.432646560668945312e+01 4.068066179752349854e-01 4.973523616790771484e+00 1.614099144935607910e+00 -4.496152400970458984e-01
6.490000000000000000e+02 6.659602355957031250e+01 -2.519156074523925781e+01 4.507665634155273438e-01 4.995953083038330078e+00 1.634015917778015137e+00 -1.954252719879150391e-01
6.500000000000000000e+02 7.107390594482421875e+01 -2.863383483886718750e+01 2.180300056934356689e-01 5.788597583770751953e+00 1.801988244056701660e+00 1.955113559961318970e-01
6.510000000000000000e+02 7.188957214355468750e+01 -3.094299507141113281e+01 1.554771661758422852e-01 5.970751762390136719e+00 1.837868690490722656e+00 1.503643393516540527e-01
6.520000000000000000e+02 7.340654754638671875e+01 -3.274669265747070312e+01 9.221255779266357422e-02 6.191437244415283203e+00 1.885094881057739258e+00 1.260447651147842407e-01
6.530000000000000000e+02 7.558693695068359375e+01 -3.359389495849609375e+01 4.519836232066154480e-02 6.451394557952880859e+00 1.948977828025817871e+00 9.309810400009155273e-02
6.540000000000000000e+02 7.715771484375000000e+01 -3.575898361206054688e+01 1.035321597009897232e-02 6.631713390350341797e+00 1.992619991302490234e+00 4.843074083328247070e-02
6.550000000000000000e+02 7.949744415283203125e+01 -3.721154403686523438e+01 -1.825780054787173867e-04 6.812075614929199219e+00 2.043567895889282227e+00 8.106671273708343506e-03
6.560000000000000000e+02 7.853205871582031250e+01 -3.701908493041992188e+01 7.760659325867891312e-03 6.735371112823486328e+00 2.022939443588256836e+00 2.243182435631752014e-02
6.570000000000000000e+02 5.574754333496093750e+01 -1.466099357604980469e+01 5.319296121597290039e-01 1.466015529632568359e+01 4.557625293731689453e+00 -1.474509000778198242e+00
6.580000000000000000e+02 5.586580276489257812e+01 -1.693931961059570312e+01 -3.451607823371887207e-01 1.724740028381347656e+01 5.070672035217285156e+00 1.799525879323482513e-02
6.590000000000000000e+02 5.582178497314453125e+01 -1.619645881652832031e+01 4.809564650058746338e-01 1.585974502563476562e+01 4.902210712432861328e+00 5.576534941792488098e-02
6.600000000000000000e+02 5.820411682128906250e+01 -1.865243530273437500e+01 8.828133940696716309e-01 8.738412857055664062e+00 2.886368036270141602e+00 -9.987158179283142090e-01
6.610000000000000000e+02 6.007703781127929688e+01 -2.054818153381347656e+01 6.259950995445251465e-02 6.913588523864746094e+00 2.092856407165527344e+00 -9.806866049766540527e-01
6.620000000000000000e+02 6.347324752807617188e+01 -2.371153450012207031e+01 1.906265169382095337e-01 5.272167682647705078e+00 1.638838171958923340e+00 -7.089040279388427734e-01
6.630000000000000000e+02 6.553997802734375000e+01 -2.682882118225097656e+01 2.775826156139373779e-01 5.211526393890380859e+00 1.646732687950134277e+00 -2.259532064199447632e-01
6.640000000000000000e+02 6.737616729736328125e+01 -2.845291709899902344e+01 2.699073851108551025e-01 5.374772548675537109e+00 1.693403959274291992e+00 -2.440217137336730957e-02
6.650000000000000000e+02 6.972807312011718750e+01 -2.948648834228515625e+01 2.397316545248031616e-01 5.662326812744140625e+00 1.770617485046386719e+00 1.098980233073234558e-01
6.660000000000000000e+02 7.038488006591796875e+01 -3.095856857299804688e+01 1.701021045446395874e-01 5.782663822174072266e+00 1.785829782485961914e+00 1.166597530245780945e-01
6.670000000000000000e+02 7.183876800537109375e+01 -3.263417053222656250e+01 1.201556622982025146e-01 5.982554435729980469e+00 1.830813050270080566e+00 1.126223355531692505e-01
6.680000000000000000e+02 7.334745788574218750e+01 -3.460855484008789062e+01 7.588405907154083252e-02 6.179706096649169922e+00 1.876677036285400391e+00 8.770488202571868896e-02
6.690000000000000000e+02 7.622881317138671875e+01 -3.535045242309570312e+01 2.457021921873092651e-02 6.531027793884277344e+00 1.966679334640502930e+00 5.828933790326118469e-02
6.700000000000000000e+02 7.735755920410156250e+01 -3.735275268554687500e+01 1.126008201390504837e-02 6.627041816711425781e+00 1.991490602493286133e+00 3.392961248755455017e-02
6.710000000000000000e+02 7.944795227050781250e+01 -3.882270050048828125e+01 4.409773682709783316e-04 6.794872283935546875e+00 2.038594007492065430e+00 2.799368230625987053e-03
6.720000000000000000e+02 7.830333709716796875e+01 -3.782807540893554688e+01 3.454420482739806175e-03 6.704893112182617188e+00 2.012504339218139648e+00 2.257103845477104187e-02
6.730000000000000000e+02 5.697062683105468750e+01 -1.774911880493164062e+01 2.127051591873168945e+00 1.127513694763183594e+01 4.020656585693359375e+00 3.800717592239379883e-01
6.740000000000000000e+02 5.591289520263671875e+01 -1.763800048828125000e+01 2.556222915649414062e+00 1.889538955688476562e+01 6.435483932495117188e+00 3.041807174682617188e+00
6.750000000000000000e+02 5.729690933227539062e+01 -1.998550605773925781e+01 -2.146922200918197632e-01 8.720575332641601562e+00 2.551764965057373047e+00 5.493190884590148926e-01
6.760000000000000000e+02 5.949061584472656250e+01 -2.204127693176269531e+01 -4.765508174896240234e-01 6.876515865325927734e+00 1.919989466667175293e+00 -3.786969184875488281e-01
6.770000000000000000e+02 5.989306640625000000e+01 -2.433125305175781250e+01 -4.599354863166809082e-01 5.909855842590332031e+00 1.634976148605346680e+00 -1.890386492013931274e-01
6.780000000000000000e+02 6.258818817138671875e+01 -2.629825019836425781e+01 -3.777903318405151367e-02 5.430198192596435547e+00 1.617725729942321777e+00 -3.267194032669067383e-01
6.790000000000000000e+02 6.391003417968750000e+01 -2.808897590637207031e+01 8.654840290546417236e-02 5.301136016845703125e+00 1.616305351257324219e+00 -1.971874833106994629e-01
6.800000000000000000e+02 6.510525512695312500e+01 -3.037095832824707031e+01 1.355569064617156982e-01 5.327239990234375000e+00 1.638839006423950195e+00 -5.451530218124389648e-02
6.810000000000000000e+02 6.672035980224609375e+01 -3.164201164245605469e+01 1.564985215663909912e-01 5.444106101989746094e+00 1.680181384086608887e+00 -2.913110889494419098e-03
6.820000000000000000e+02 6.823313903808593750e+01 -3.303730392456054688e+01 1.495629847049713135e-01 5.612280368804931641e+00 1.728552937507629395e+00 6.110607087612152100e-02
6.830000000000000000e+02 6.926132202148437500e+01 -3.593262481689453125e+01 1.100848764181137085e-01 5.748186111450195312e+00 1.757481217384338379e+00 6.781043112277984619e-02
6.840000000000000000e+02 7.137850189208984375e+01 -3.645953750610351562e+01 8.677534013986587524e-02 5.958367347717285156e+00 1.813542842864990234e+00 6.615735590457916260e-02
6.850000000000000000e+02 7.358773803710937500e+01 -3.857164382934570312e+01 4.267634078860282898e-02 6.203857898712158203e+00 1.873960256576538086e+00 2.490786649286746979e-02
6.860000000000000000e+02 7.592581939697265625e+01 -3.964154434204101562e+01 2.054858393967151642e-02 6.477212429046630859e+00 1.949328303337097168e+00 3.874554857611656189e-02
6.870000000000000000e+02 7.671818542480468750e+01 -4.180789947509765625e+01 8.492317982017993927e-03 6.529703617095947266e+00 1.961458802223205566e+00 8.888488635420799255e-03
6.880000000000000000e+02 7.957991790771484375e+01 -4.206417083740234375e+01 4.158502910286188126e-03 6.788848876953125000e+00 2.037902355194091797e+00 4.747841507196426392e-03
6.890000000000000000e+02 7.854941558837890625e+01 -4.199194717407226562e+01 -2.164729958167299628e-04 6.722650051116943359e+00 2.016730070114135742e+00 -9.742482565343379974e-03
6.900000000000000000e+02 7.951345062255859375e+01 -4.043741226196289062e+01 3.170561743900179863e-03 6.794828891754150391e+00 2.039399862289428711e+00 -4.353007767349481583e-03
6.910000000000000000e+02 7.851540374755859375e+01 -3.958354187011718750e+01 9.488462470471858978e-03 6.692143440246582031e+00 2.010489702224731445e+00 8.180575445294380188e-03
6.920000000000000000e+02 7.706903839111328125e+01 -3.896665573120117188e+01 1.776104234158992767e-02 6.575021743774414062e+00 1.977834939956665039e+00 2.770511992275714874e-02
6.930000000000000000e+02 7.513643646240234375e+01 -3.818214416503906250e+01 2.465640380978584290e-02 6.403044223785400391e+00 1.928310275077819824e+00 3.062386438250541687e-02
6.940000000000000000e+02 7.162229919433593750e+01 -3.443722915649414062e+01 1.052174195647239685e-01 5.980797290802001953e+00 1.825804471969604492e+00 9.225911647081375122e-02
6.950000000000000000e+02 7.037679290771484375e+01 -3.239161300659179688e+01 1.504243463277816772e-01 5.829147338867187500e+00 1.793871521949768066e+00 1.049878224730491638e-01
6.960000000000000000e+02 6.810758209228515625e+01 -3.028018569946289062e+01 2.011453360319137573e-01 5.507982730865478516e+00 1.712738394737243652e+00 3.203951939940452576e-02
6.970000000000000000e+02 6.418144989013671875e+01 -2.532314300537109375e+01 2.153378725051879883e-01 5.213468074798583984e+00 1.628641843795776367e+00 -4.536997675895690918e-01
6.980000000000000000e+02 6.149538803100585938e+01 -2.334395790100097656e+01 -1.637731045484542847e-01 5.793479919433593750e+00 1.688912034034729004e+00 -7.013514637947082520e-01
6.990000000000000000e+02 5.929694747924804688e+01 -2.017697143554687500e+01 -2.509783506393432617e-01 7.747264862060546875e+00 2.248885869979858398e+00 -9.090411663055419922e-01
7.000000000000000000e+02 5.772610092163085938e+01 -1.933077239990234375e+01 -1.906801611185073853e-01 9.637782096862792969e+00 2.834130764007568359e+00 -2.808330655097961426e-01
7.010000000000000000e+02 5.812114715576171875e+01 -2.046430397033691406e+01 -8.104402422904968262e-01 8.231494903564453125e+00 2.226316213607788086e+00 -4.545041918754577637e-01
7.020000000000000000e+02 5.894709777832031250e+01 -2.089593696594238281e+01 -2.951617836952209473e-01 7.464209556579589844e+00 2.150714397430419922e+00 -4.201704561710357666e-01
7.030000000000000000e+02 5.417736434936523438e+01 -1.893203735351562500e+01 -2.506831169128417969e+00 -4.343893229961395264e-01 -8.823661804199218750e-01 2.712868452072143555e+00
7.040000000000000000e+02 5.056293106079101562e+01 -1.555561351776123047e+01 -1.862620592117309570e+00 -1.940403342247009277e+00 -1.140907168388366699e+00 1.816074371337890625e+00
7.050000000000000000e+02 4.892701339721679688e+01 -1.388768386840820312e+01 -1.673907756805419922e+00 -1.758383989334106445e+00 -1.029687523841857910e+00 1.721537828445434570e+00
7.060000000000000000e+02 4.735974884033203125e+01 -1.207290744781494141e+01 -1.124935150146484375e+00 -7.213451862335205078e-01 -5.538840889930725098e-01 1.056616663932800293e+00
7.070000000000000000e+02 4.582254791259765625e+01 -1.122744560241699219e+01 -1.242600202560424805e+00 3.354266881942749023e+00 6.334999799728393555e-01 6.401852965354919434e-01
7.080000000000000000e+02 4.567763519287109375e+01 -9.306662559509277344e+00 1.028613150119781494e-01 5.940297603607177734e+00 1.812947630882263184e+00 -9.069680571556091309e-01
7.090000000000000000e+02 4.472452545166015625e+01 -5.188575744628906250e+00 9.844006299972534180e-01 1.858597564697265625e+01 5.871112823486328125e+00 9.275425076484680176e-01
7.100000000000000000e+02 4.484060668945312500e+01 -4.471036434173583984e+00 2.906598329544067383e+00 2.210020256042480469e+01 7.502039909362792969e+00 4.567506790161132812e+00
7.110000000000000000e+02 4.519557571411132812e+01 -3.147167921066284180e+00 2.049075365066528320e+00 1.125188732147216797e+01 3.990288734436035156e+00 5.474951744079589844e+00
7.120000000000000000e+02 3.235205078125000000e+01 -7.411959767341613770e-01 2.125963211059570312e+00 4.895643889904022217e-02 6.524758934974670410e-01 -1.062903285026550293e+00
7.130000000000000000e+02 3.291410827636718750e+01 -1.869216412305831909e-01 3.785799264907836914e+00 -2.526712417602539062e-01 1.059938430786132812e+00 5.625272989273071289e-01
7.140000000000000000e+02 3.475323867797851562e+01 -4.696615040302276611e-01 6.272443532943725586e-01 -6.252908110618591309e-01 5.860551027581095695e-04 2.255096733570098877e-01
7.150000000000000000e+02 3.481745147705078125e+01 -2.810900449752807617e+00 4.663728177547454834e-02 -3.751842379570007324e-01 -9.856408834457397461e-02 -7.737965136766433716e-02
7.160000000000000000e+02 3.588942337036132812e+01 -4.009805679321289062e+00 -3.922308683395385742e-01 -1.517783164978027344e+00 -5.730042457580566406e-01 6.786910891532897949e-01
7.170000000000000000e+02 3.685922622680664062e+01 -5.292379379272460938e+00 -7.312168478965759277e-01 -2.854810476303100586e+00 -1.075808167457580566e+00 1.437287688255310059e+00
7.180000000000000000e+02 3.796079635620117188e+01 -5.496411323547363281e+00 4.411752894520759583e-02 -2.568829059600830078e+00 -7.574134469032287598e-01 9.993536472320556641e-01
7.190000000000000000e+02 3.865324401855468750e+01 -8.008647918701171875e+00 -1.450765132904052734e+00 -3.340836048126220703e+00 -1.437480330467224121e+00 2.230542421340942383e+00
7.200000000000000000e+02 3.302430725097656250e+01 -1.185559511184692383e+00 1.627063989639282227e+00 4.361884295940399170e-01 6.189757585525512695e-01 -2.628784179687500000e-01
7.210000000000000000e+02 3.644326019287109375e+01 -3.537857770919799805e+00 5.042726993560791016e-01 -1.942172646522521973e+00 -4.313699901103973389e-01 3.498337864875793457e-01
7.220000000000000000e+02 4.205596923828125000e+01 -1.274130344390869141e+01 -3.184930384159088135e-01 6.289830207824707031e+00 1.791401147842407227e+00 1.753855347633361816e+00
7.230000000000000000e+02 4.082389450073242188e+01 -1.485723018646240234e+01 9.315546751022338867e-01 1.138761901855468750e+01 3.695752143859863281e+00 1.091109991073608398e+00
7.240000000000000000e+02 3.919958496093750000e+01 -1.714322853088378906e+01 3.080660104751586914e+00 2.791468143463134766e+00 1.761638522148132324e+00 1.682791233062744141e+00
7.250000000000000000e+02 3.885152435302734375e+01 -1.595572185516357422e+01 1.044013977050781250e+00 2.585053741931915283e-01 3.907558023929595947e-01 -9.113269448280334473e-01
7.260000000000000000e+02 3.820720672607421875e+01 -1.544963359832763672e+01 1.041052341461181641e+00 9.725854992866516113e-01 6.040913462638854980e-01 -5.187643170356750488e-01
7.270000000000000000e+02 3.712897491455078125e+01 -1.561839771270751953e+01 1.235798835754394531e+00 1.385069012641906738e+00 7.862603664398193359e-01 -9.409974813461303711e-01
7.280000000000000000e+02 3.591677474975585938e+01 -1.456187343597412109e+01 9.361932277679443359e-01 1.686517715454101562e+00 7.868132591247558594e-01 -1.141989469528198242e+00
7.290000000000000000e+02 3.574377059936523438e+01 -1.327622604370117188e+01 1.087212800979614258e+00 1.542797446250915527e+00 7.890030741691589355e-01 -1.185212612152099609e+00
7.300000000000000000e+02 3.340681076049804688e+01 -1.174592876434326172e+01 1.234830141067504883e+00 2.255165100097656250e+00 1.046998500823974609e+00 -1.565415143966674805e+00
7.310000000000000000e+02 3.254456329345703125e+01 -1.037959384918212891e+01 1.470204353332519531e+00 2.081542253494262695e+00 1.065523982048034668e+00 -1.693159937858581543e+00
7.320000000000000000e+02 3.050588989257812500e+01 -8.649350166320800781e+00 1.772372961044311523e+00 2.485649108886718750e+00 1.277406692504882812e+00 -2.207535982131958008e+00
7.330000000000000000e+02 3.071104049682617188e+01 -6.761012554168701172e+00 9.287075400352478027e-01 1.068811178207397461e+00 5.992556214332580566e-01 -1.022034645080566406e+00
7.340000000000000000e+02 2.921998786926269531e+01 -4.875412464141845703e+00 8.535751700401306152e-01 3.836812019348144531e+00 1.407116174697875977e+00 -5.852346122264862061e-02
7.350000000000000000e+02 2.660363960266113281e+01 -4.827721118927001953e+00 2.948239326477050781e+00 9.862071037292480469e+00 3.843093156814575195e+00 -1.421785354614257812e+00
7.360000000000000000e+02 3.463520812988281250e+01 -1.197287845611572266e+01 1.262400031089782715e+00 1.696419358253479004e+00 8.876458406448364258e-01 -1.448961257934570312e+00
7.370000000000000000e+02 3.298219299316406250e+01 -1.106195831298828125e+01 1.334976434707641602e+00 2.187046289443969727e+00 1.056606769561767578e+00 -1.622282862663269043e+00
7.380000000000000000e+02 3.316907119750976562e+01 -1.004734420776367188e+01 1.176036000251770020e+00 2.241317272186279297e+00 1.025205969810485840e+00 -1.619319915771484375e+00
7.390000000000000000e+02 3.274587631225585938e+01 -9.359407424926757812e+00 9.631512761116027832e-01 1.861838817596435547e+00 8.474970459938049316e-01 -1.335905313491821289e+00
7.400000000000000000e+02 3.234214019775390625e+01 -8.661993026733398438e+00 7.510954737663269043e-01 1.397268295288085938e+00 6.445091366767883301e-01 -1.071121811866760254e+00
7.410000000000000000e+02 3.164053153991699219e+01 -7.217815399169921875e+00 3.623441755771636963e-01 2.032081782817840576e-01 1.696657091379165649e-01 -4.709696173667907715e-01
7.420000000000000000e+02 3.048744964599609375e+01 -4.219731807708740234e+00 -4.784560203552246094e-02 -1.642282456159591675e-01 -6.362215429544448853e-02 3.783615231513977051e-01
7.430000000000000000e+02 3.012239074707031250e+01 -2.613939046859741211e+00 4.735036492347717285e-01 3.380374431610107422e+00 1.156163454055786133e+00 1.181162953376770020e+00
7.440000000000000000e+02 2.999815940856933594e+01 -1.190554380416870117e+00 3.452248096466064453e+00 6.236256122589111328e+00 2.906551361083984375e+00 4.091149806976318359e+00
7.450000000000000000e+02 3.015035438537597656e+01 -1.820903420448303223e+00 1.098405599594116211e+00 6.229313373565673828e+00 2.198315620422363281e+00 2.450974225997924805e+00
7.460000000000000000e+02 3.054259681701660156e+01 -6.905315518379211426e-01 8.263212203979492188e+00 8.410939216613769531e+00 5.002245426177978516e+00 5.093057632446289062e+00
7.470000000000000000e+02 2.834419631958007812e+01 1.955787539482116699e+00 -3.744610548019409180e+00 -2.469286173582077026e-01 -1.197461724281311035e+00 -8.125042319297790527e-01
7.480000000000000000e+02 2.758535957336425781e+01 1.416177988052368164e+00 -2.330823659896850586e+00 -6.620554327964782715e-01 -8.978637456893920898e-01 -1.066786408424377441e+00
7.490000000000000000e+02 3.043681907653808594e+01 -6.025888442993164062e+00 6.932205557823181152e-01 1.037768959999084473e+00 5.192968845367431641e-01 -6.331135034561157227e-01
7.500000000000000000e+02 3.048955154418945312e+01 4.974726736545562744e-01 1.646949529647827148e+00 4.638648509979248047e+00 1.885679364204406738e+00 1.442423343658447266e+00
7.510000000000000000e+02 3.152359008789062500e+01 1.470384836196899414e+00 1.209962740540504456e-01 2.928707838058471680e+00 9.149112105369567871e-01 2.549588441848754883e+00
7.520000000000000000e+02 3.210738372802734375e+01 3.968688726425170898e+00 -2.321553468704223633e+00 1.205212116241455078e+00 -3.349024057388305664e-01 5.634984374046325684e-01
7.530000000000000000e+02 3.277147293090820312e+01 5.794356346130371094e+00 -1.430220842361450195e+00 3.195501565933227539e-01 -3.332012295722961426e-01 -1.043889522552490234e-01
7.540000000000000000e+02 2.507532310485839844e+01 1.608890342712402344e+01 2.720860481262207031e+00 1.635483932495117188e+01 5.722710132598876953e+00 -2.611230850219726562e+00
7.550000000000000000e+02 2.637037658691406250e+01 1.479253864288330078e+01 3.702051877975463867e+00 8.870914459228515625e+00 3.771889925003051758e+00 1.675547122955322266e+00
7.560000000000000000e+02 2.479211807250976562e+01 1.400599765777587891e+01 3.792776107788085938e+00 1.687832641601562500e+01 6.201330661773681641e+00 7.167566776275634766e+00
7.570000000000000000e+02 2.525792884826660156e+01 1.351192092895507812e+01 1.614334225654602051e+00 1.395708370208740234e+01 4.671425342559814453e+00 2.315109729766845703e+00
7.580000000000000000e+02 2.653491783142089844e+01 9.880867004394531250e+00 -2.034819602966308594e+00 5.122651576995849609e+00 9.263495206832885742e-01 1.288342714309692383e+00
7.590000000000000000e+02 2.312836265563964844e+01 1.220212745666503906e+01 3.292124569416046143e-01 3.251368999481201172e+00 1.074174523353576660e+00 1.609149098396301270e+00
7.600000000000000000e+02 2.350988197326660156e+01 1.163061046600341797e+01 -2.143772125244140625e+00 5.779411792755126953e+00 1.090691924095153809e+00 2.265671730041503906e+00
7.610000000000000000e+02 2.164690971374511719e+01 1.006216812133789062e+01 -4.589449882507324219e+00 2.093258380889892578e+00 -7.488574385643005371e-01 -1.253301143646240234e+00
7.620000000000000000e+02 2.087340927124023438e+01 8.379019737243652344e+00 -3.168088436126708984e+00 2.186970472335815430e+00 -2.943353950977325439e-01 -1.085961580276489258e+00
7.630000000000000000e+02 2.156861495971679688e+01 6.337648868560791016e+00 2.536727428436279297e+00 8.018014907836914062e+00 3.166422843933105469e+00 2.376436293125152588e-01
7.640000000000000000e+02 2.241122245788574219e+01 6.701904773712158203e+00 1.524944424629211426e+00 1.037962245941162109e+01 3.571370124816894531e+00 2.092858314514160156e+00
7.650000000000000000e+02 2.370322799682617188e+01 5.777588367462158203e+00 5.965577602386474609e+00 1.697819137573242188e+01 6.883130550384521484e+00 8.759119987487792969e+00
7.660000000000000000e+02 2.062352943420410156e+01 1.018984317779541016e+01 -5.726753711700439453e+00 -2.145859718322753906e+00 -2.361783981323242188e+00 -3.965873479843139648e+00
7.670000000000000000e+02 1.916865158081054688e+01 8.003598213195800781e+00 -3.925109148025512695e+00 -1.733760356903076172e+00 -1.697660803794860840e+00 -3.352296829223632812e+00
7.680000000000000000e+02 1.968084526062011719e+01 7.328698158264160156e+00 -1.146739363670349121e+00 -7.529332488775253296e-02 -3.666097819805145264e-01 -1.773631691932678223e+00
7.690000000000000000e+02 1.872902297973632812e+01 8.710097312927246094e+00 -7.124805927276611328e+00 -3.959366321563720703e+00 -3.325251579284667969e+00 -5.346161842346191406e+00
7.700000000000000000e+02 1.936871719360351562e+01 9.193261146545410156e+00 -7.135002136230468750e+00 -3.468780994415283203e+00 -3.181134939193725586e+00 -5.223379135131835938e+00
7.710000000000000000e+02 1.683249092102050781e+01 7.314331531524658203e+00 -6.637972354888916016e+00 -4.005702018737792969e+00 -3.193102359771728516e+00 -5.373420715332031250e+00
7.720000000000000000e+02 1.779505920410156250e+01 7.273766040802001953e+00 -4.491539955139160156e+00 -3.184323310852050781e+00 -2.302758932113647461e+00 -3.817658185958862305e+00
7.730000000000000000e+02 1.744200325012207031e+01 7.798849105834960938e+00 -6.875373363494873047e+00 -4.398787021636962891e+00 -3.382248163223266602e+00 -5.251232624053955078e+00
7.740000000000000000e+02 1.971790885925292969e+01 6.146845340728759766e+00 2.422970533370971680e+00 6.331493258476257324e-01 9.168359637260437012e-01 -6.906487345695495605e-01
7.750000000000000000e+02 1.621883964538574219e+01 6.811404228210449219e+00 -6.372346878051757812e+00 -4.045134544372558594e+00 -3.125244617462158203e+00 -4.918206214904785156e+00
7.760000000000000000e+02 1.555531215667724609e+01 6.300413608551025391e+00 -5.278920650482177734e+00 -3.432424783706665039e+00 -2.613403797149658203e+00 -4.573108196258544922e+00
7.770000000000000000e+02 1.198177814483642578e+01 1.028319168090820312e+01 -9.969856739044189453e-01 -1.477665603160858154e-01 -3.434256613254547119e-01 -5.536477565765380859e-01
7.780000000000000000e+02 1.074423122406005859e+01 9.230483055114746094e+00 -8.492912054061889648e-01 9.573421478271484375e-01 3.241528198122978210e-02 -3.441111147403717041e-01
7.790000000000000000e+02 1.130357646942138672e+01 1.241755867004394531e+01 -1.252179861068725586e+00 5.200899839401245117e-01 -2.196269482374191284e-01 -4.663876593112945557e-01
7.800000000000000000e+02 1.177011871337890625e+01 1.408653068542480469e+01 -1.260991692543029785e+00 4.243574142456054688e-01 -2.509903013706207275e-01 -3.488624095916748047e-01
7.810000000000000000e+02 1.182634449005126953e+01 1.458714294433593750e+01 -1.224236607551574707e+00 4.223777055740356445e-01 -2.405576556921005249e-01 -3.273526728153228760e-01
7.820000000000000000e+02 1.226497173309326172e+01 1.806370735168457031e+01 -8.829258680343627930e-01 3.987994492053985596e-01 -1.452379226684570312e-01 -6.829597800970077515e-02
7.830000000000000000e+02 1.111515808105468750e+01 1.836350250244140625e+01 -7.843826413154602051e-01 5.802298188209533691e-01 -6.124583631753921509e-02 -4.507993906736373901e-02
7.840000000000000000e+02 1.178678131103515625e+01 2.415033531188964844e+01 -1.755694448947906494e-01 6.117054820060729980e-01 1.308408081531524658e-01 9.668783098459243774e-02
7.850000000000000000e+02 1.142597198486328125e+01 2.532071876525878906e+01 -9.260170161724090576e-02 6.583098173141479492e-01 1.697124391794204712e-01 1.081074923276901245e-01
7.860000000000000000e+02 1.124413871765136719e+01 2.674887657165527344e+01 -3.265463560819625854e-02 7.265599966049194336e-01 2.081716060638427734e-01 1.203453615307807922e-01
7.870000000000000000e+02 9.669425964355468750e+00 2.942348861694335938e+01 4.882458224892616272e-02 8.577272295951843262e-01 2.719655334949493408e-01 1.477176100015640259e-01
7.880000000000000000e+02 1.221388530731201172e+01 3.025730514526367188e+01 7.447456568479537964e-02 7.747930288314819336e-01 2.547802925109863281e-01 8.833335340023040771e-02
7.890000000000000000e+02 1.177800655364990234e+01 3.286640548706054688e+01 1.073675379157066345e-01 8.591002225875854492e-01 2.899403274059295654e-01 9.165953844785690308e-02
7.900000000000000000e+02 1.269427394866943359e+01 3.478716659545898438e+01 1.276211738586425781e-01 8.640180230140686035e-01 2.974917590618133545e-01 6.291952729225158691e-02
7.910000000000000000e+02 1.540472316741943359e+01 3.931655120849609375e+01 1.672753840684890747e-01 8.978098630905151367e-01 3.195255696773529053e-01 1.139585021883249283e-02
7.920000000000000000e+02 8.614081382751464844e+00 3.868601226806640625e+01 9.911339730024337769e-02 9.902986288070678711e-01 3.268235921859741211e-01 6.058677658438682556e-02
7.930000000000000000e+02 1.069461631774902344e+01 3.582966232299804688e+01 1.168728694319725037e-01 9.238775968551635742e-01 3.122251331806182861e-01 8.272919058799743652e-02
7.940000000000000000e+02 1.007392883300781250e+01 3.376062774658203125e+01 1.021634638309478760e-01 9.102365970611572266e-01 3.037199974060058594e-01 1.071800589561462402e-01
7.950000000000000000e+02 8.746885299682617188e+00 3.044838714599609375e+01 5.687002837657928467e-02 9.175851345062255859e-01 2.923365533351898193e-01 1.545909047126770020e-01
7.960000000000000000e+02 9.910236358642578125e+00 2.816471481323242188e+01 1.842716708779335022e-02 8.265097141265869141e-01 2.534810602664947510e-01 1.480854004621505737e-01
7.970000000000000000e+02 9.790933609008789062e+00 2.678176307678222656e+01 -2.478193677961826324e-02 8.004323244094848633e-01 2.326951175928115845e-01 1.504328399896621704e-01
7.980000000000000000e+02 9.376572608947753906e+00 2.386525344848632812e+01 -1.605945527553558350e-01 7.975808978080749512e-01 1.910959035158157349e-01 1.388552188873291016e-01
7.990000000000000000e+02 9.979200363159179688e+00 2.313056182861328125e+01 -2.269422858953475952e-01 7.452837228775024414e-01 1.555024236440658569e-01 1.166919469833374023e-01
8.000000000000000000e+02 1.077376842498779297e+01 2.050945472717285156e+01 -5.042748451232910156e-01 6.435224413871765137e-01 4.177426919341087341e-02 4.834511131048202515e-02
8.010000000000000000e+02 9.464024543762207031e+00 1.893706130981445312e+01 -6.039059162139892578e-01 8.139271140098571777e-01 6.300634890794754028e-02 -4.091972857713699341e-02
8.020000000000000000e+02 9.334725379943847656e+00 1.639736175537109375e+01 -8.650348782539367676e-01 9.112388491630554199e-01 1.386119425296783447e-02 -2.379055470228195190e-01
8.030000000000000000e+02 9.717942237854003906e+00 1.377240276336669922e+01 -1.131386041641235352e+00 9.977315068244934082e-01 -4.009635373950004578e-02 -4.551905989646911621e-01
8.040000000000000000e+02 1.078827857971191406e+01 1.209782505035400391e+01 -1.216863512992858887e+00 8.286880254745483398e-01 -1.164526492357254028e-01 -4.690068960189819336e-01
8.050000000000000000e+02 1.135029983520507812e+01 8.573319435119628906e+00 -4.292481839656829834e-01 2.597918510437011719e-01 -5.083690211176872253e-02 -3.577326834201812744e-01
8.060000000000000000e+02 1.134119892120361328e+01 3.822406387329101562e+01 1.304097175598144531e-01 9.287690520286560059e-01 3.177536129951477051e-01 5.132370814681053162e-02
8.070000000000000000e+02 2.262888908386230469e+01 3.452254867553710938e+01 4.110781475901603699e-02 1.084257125854492188e+00 3.376094698905944824e-01 -2.891667000949382782e-02
8.080000000000000000e+02 2.244447898864746094e+01 3.210104751586914062e+01 -5.324152857065200806e-02 1.101513266563415527e+00 3.144815266132354736e-01 -6.579136848449707031e-02
8.090000000000000000e+02 2.490937042236328125e+01 3.382321548461914062e+01 -4.835318308323621750e-03 1.191445112228393555e+00 3.559829592704772949e-01 2.623703144490718842e-02
8.100000000000000000e+02 2.773741912841796875e+01 3.156850242614746094e+01 -1.191697791218757629e-01 1.387127399444580078e+00 3.803873062133789062e-01 1.362292617559432983e-01
8.110000000000000000e+02 3.142503356933593750e+01 3.265921401977539062e+01 5.419168621301651001e-02 1.383998036384582520e+00 4.314569234848022461e-01 1.672843992710113525e-01
8.120000000000000000e+02 2.691919708251953125e+01 3.384258651733398438e+01 8.653206750750541687e-03 1.289357662200927734e+00 3.894032537937164307e-01 7.210988551378250122e-02
8.130000000000000000e+02 2.573308944702148438e+01 3.612299728393554688e+01 1.091488525271415710e-01 1.185996294021606445e+00 3.885435461997985840e-01 3.228634595870971680e-02
8.140000000000000000e+02 1.976540184020996094e+01 3.742676544189453125e+01 1.456549167633056641e-01 9.708234667778015137e-01 3.349435031414031982e-01 -8.329155854880809784e-03
8.150000000000000000e+02 2.629341506958007812e+01 3.028936386108398438e+01 -2.266218811273574829e-01 1.393123149871826172e+00 3.499503731727600098e-01 7.285274565219879150e-02
8.160000000000000000e+02 2.764036560058593750e+01 2.875863456726074219e+01 -3.661103546619415283e-01 1.570964455604553223e+00 3.614562153816223145e-01 1.938542872667312622e-01
8.170000000000000000e+02 2.243676376342773438e+01 1.644229888916015625e+01 -3.978106975555419922e+00 -7.457988858222961426e-01 -1.417171716690063477e+00 -1.406239151954650879e+00
8.180000000000000000e+02 2.149690246582031250e+01 1.802593040466308594e+01 -1.200822234153747559e+00 -2.448038607835769653e-01 -4.336878061294555664e-01 -1.090792298316955566e+00
8.190000000000000000e+02 1.927552223205566406e+01 2.041661071777343750e+01 -6.087991595268249512e-01 6.417728215456008911e-02 -1.633865684270858765e-01 -5.689271688461303711e-01
8.200000000000000000e+02 1.615837287902832031e+01 2.374491691589355469e+01 -2.208991646766662598e-01 3.809197247028350830e-01 4.800617322325706482e-02 -1.475808769464492798e-01
8.210000000000000000e+02 1.273089790344238281e+01 2.860307884216308594e+01 3.212636336684226990e-02 7.225856781005859375e-01 2.264136075973510742e-01 6.887917220592498779e-02
8.220000000000000000e+02 1.276988983154296875e+01 2.551700782775878906e+01 -8.909343928098678589e-02 6.004785299301147461e-01 1.534155160188674927e-01 6.417717039585113525e-02
8.230000000000000000e+02 1.407849216461181641e+01 2.548748207092285156e+01 -9.415372461080551147e-02 5.237518548965454102e-01 1.288794279098510742e-01 -5.436726380139589310e-03
8.240000000000000000e+02 1.512403869628906250e+01 2.238204574584960938e+01 -3.392019271850585938e-01 2.901320159435272217e-01 -1.472097262740135193e-02 -8.255904167890548706e-02
8.250000000000000000e+02 1.633034133911132812e+01 1.980794143676757812e+01 -7.465891242027282715e-01 8.920854888856410980e-03 -2.213004827499389648e-01 -2.031280994415283203e-01
8.260000000000000000e+02 1.844932937622070312e+01 1.996403312683105469e+01 -7.382913827896118164e-01 -1.152122206985950470e-02 -2.249437868595123291e-01 -4.459411203861236572e-01
8.270000000000000000e+02 1.952953910827636719e+01 1.806572341918945312e+01 -1.391483545303344727e+00 -2.875206470489501953e-01 -5.037012696266174316e-01 -5.824980735778808594e-01
8.280000000000000000e+02 2.171029281616210938e+01 1.609870338439941406e+01 -3.657742977142333984e+00 -6.864100694656372070e-01 -1.303245902061462402e+00 -1.588111281394958496e+00
8.290000000000000000e+02 2.127562522888183594e+01 1.685289764404296875e+01 -2.658913135528564453e+00 -5.047386884689331055e-01 -9.490955471992492676e-01 -9.118488430976867676e-01
8.300000000000000000e+02 1.989048576354980469e+01 1.606482887268066406e+01 -2.643674850463867188e+00 -5.818438529968261719e-01 -9.676555991172790527e-01 -1.052437901496887207e+00
8.310000000000000000e+02 2.029253387451171875e+01 1.535707378387451172e+01 -3.069540500640869141e+00 -7.230104207992553711e-01 -1.137765288352966309e+00 -1.519105792045593262e+00
8.320000000000000000e+02 1.749495887756347656e+01 1.375833702087402344e+01 -2.397763013839721680e+00 -6.796697974205017090e-01 -9.232298135757446289e-01 -1.318559169769287109e+00
8.330000000000000000e+02 1.672409820556640625e+01 1.501662445068359375e+01 -1.939737319946289062e+00 -5.082066655158996582e-01 -7.343831658363342285e-01 -9.045204520225524902e-01
8.340000000000000000e+02 1.427157974243164062e+01 1.646619606018066406e+01 -1.268168210983276367e+00 -8.378484286367893219e-03 -3.829640150070190430e-01 -2.825664877891540527e-01
8.350000000000000000e+02 1.295321750640869141e+01 1.844167137145996094e+01 -8.476746082305908203e-01 3.179256319999694824e-01 -1.589246988296508789e-01 -6.257931143045425415e-02
8.360000000000000000e+02 1.273828220367431641e+01 1.743807601928710938e+01 -9.853793382644653320e-01 3.227140903472900391e-01 -1.987995803356170654e-01 -1.184347420930862427e-01
8.370000000000000000e+02 1.293581295013427734e+01 1.593465042114257812e+01 -1.222741842269897461e+00 1.901463121175765991e-01 -3.097786307334899902e-01 -2.474304586648941040e-01
8.380000000000000000e+02 1.445996856689453125e+01 1.376939105987548828e+01 -1.644965291023254395e+00 -4.181219935417175293e-01 -6.189262270927429199e-01 -6.887282133102416992e-01
8.390000000000000000e+02 1.543428897857666016e+01 1.245888042449951172e+01 -1.951827168464660645e+00 -1.072809934616088867e+00 -9.073911309242248535e-01 -1.340467691421508789e+00
8.400000000000000000e+02 1.609351348876953125e+01 1.293542480468750000e+01 -2.249992370605468750e+00 -9.705771207809448242e-01 -9.661708474159240723e-01 -1.429156541824340820e+00
8.410000000000000000e+02 1.638656616210937500e+01 1.398121738433837891e+01 -2.035732269287109375e+00 -7.175984978675842285e-01 -8.259992003440856934e-01 -1.089691758155822754e+00
8.420000000000000000e+02 6.523516845703125000e+01 1.402646064758300781e+01 -1.386431157588958740e-01 1.031333446502685547e+01 3.052407264709472656e+00 -3.352478742599487305e+00
8.430000000000000000e+02 6.562579345703125000e+01 1.129056072235107422e+01 -6.499601155519485474e-02 2.201025390625000000e+01 6.583577156066894531e+00 5.236909911036491394e-02
8.440000000000000000e+02 6.560805511474609375e+01 1.212974166870117188e+01 3.364176273345947266e+00 2.191788291931152344e+01 7.584617614746093750e+00 -3.070852279663085938e+00
8.450000000000000000e+02 6.550033569335937500e+01 9.790439605712890625e+00 2.089258670806884766e+00 1.907441711425781250e+01 6.349102497100830078e+00 4.442986488342285156e+00
8.460000000000000000e+02 6.565349578857421875e+01 9.093681335449218750e+00 1.724287509918212891e+00 1.460676288604736328e+01 4.899314880371093750e+00 2.960314989089965820e+00
8.470000000000000000e+02 6.676222991943359375e+01 8.779113769531250000e+00 4.523091018199920654e-01 1.312292671203613281e+01 4.072570800781250000e+00 -1.516725867986679077e-01
8.480000000000000000e+02 6.725920104980468750e+01 7.388493061065673828e+00 -4.481895267963409424e-01 1.139212703704833984e+01 3.283181190490722656e+00 -1.105269908905029297e+00
8.490000000000000000e+02 6.930754852294921875e+01 7.266622066497802734e+00 -8.712347149848937988e-01 9.733715057373046875e+00 2.658744096755981445e+00 -4.606302082538604736e-01
8.500000000000000000e+02 6.890805053710937500e+01 6.742064476013183594e+00 -3.416752517223358154e-01 1.095620632171630859e+01 3.184359550476074219e+00 -9.272083640098571777e-01
8.510000000000000000e+02 6.733261871337890625e+01 6.654853343963623047e+00 -3.030887842178344727e-01 1.094022464752197266e+01 3.191140890121459961e+00 -1.374345183372497559e+00
8.520000000000000000e+02 6.937998199462890625e+01 8.180513381958007812e+00 -1.259209632873535156e+00 8.849071502685546875e+00 2.276958465576171875e+00 -1.598137021064758301e-01
8.530000000000000000e+02 6.927697753906250000e+01 8.748837471008300781e+00 -1.097870469093322754e+00 8.517775535583496094e+00 2.225971460342407227e+00 -1.557928025722503662e-01
8.540000000000000000e+02 6.848020172119140625e+01 9.234897613525390625e+00 -8.677135407924652100e-02 1.008055019378662109e+01 2.998133659362792969e+00 -2.933262586593627930e-01
8.550000000000000000e+02 6.627328491210937500e+01 1.130642509460449219e+01 2.477181196212768555e+00 1.847524070739746094e+01 6.285726547241210938e+00 -1.667145192623138428e-01
8.560000000000000000e+02 6.684746551513671875e+01 1.011732482910156250e+01 1.405671954154968262e+00 1.437239170074462891e+01 4.733419418334960938e+00 4.445388913154602051e-01
8.570000000000000000e+02 6.681515502929687500e+01 1.060638999938964844e+01 2.234264373779296875e+00 1.479904747009277344e+01 5.109993457794189453e+00 -4.608428478240966797e-02
8.580000000000000000e+02 6.559509277343750000e+01 1.050925064086914062e+01 1.862576365470886230e+00 2.312872123718261719e+01 7.497389316558837891e+00 2.362471580505371094e+00
8.590000000000000000e+02 5.403880310058593750e+01 2.047154188156127930e+00 5.720298767089843750e+00 1.894776344299316406e+01 7.400418281555175781e+00 -4.922263622283935547e+00
8.600000000000000000e+02 5.319891738891601562e+01 2.117357730865478516e+00 4.172086715698242188e+00 1.370512294769287109e+01 5.363162994384765625e+00 -7.977641820907592773e-01
8.610000000000000000e+02 5.185653686523437500e+01 7.320988774299621582e-01 1.258599162101745605e+00 8.261995315551757812e+00 2.856178283691406250e+00 3.943937420845031738e-01
8.620000000000000000e+02 5.104617309570312500e+01 -1.822669386863708496e+00 -2.510040283203125000e+00 3.820499420166015625e+00 3.931377530097961426e-01 -2.866739928722381592e-01
8.630000000000000000e+02 5.176211929321289062e+01 -3.959874868392944336e+00 -4.770549297332763672e+00 3.427307605743408203e+00 -4.029725492000579834e-01 -3.132047951221466064e-01
8.640000000000000000e+02 5.137378311157226562e+01 -3.347591400146484375e+00 -4.520928859710693359e+00 3.273523569107055664e+00 -3.742216527462005615e-01 -5.710141062736511230e-01
8.650000000000000000e+02 5.417092132568359375e+01 2.800788879394531250e+00 3.547075271606445312e+00 2.430538749694824219e+01 8.355738639831542969e+00 -4.694532394409179688e+00
8.660000000000000000e+02 5.416816711425781250e+01 3.576938629150390625e+00 1.433044195175170898e+00 2.448203086853027344e+01 7.774522304534912109e+00 -5.659257173538208008e-01
8.670000000000000000e+02 5.803335952758789062e+01 1.052112197875976562e+01 6.412856280803680420e-02 3.786501884460449219e-01 1.328336149454116821e-01 1.713649034500122070e-01
8.680000000000000000e+02 5.859686279296875000e+01 1.110236930847167969e+01 -9.783818572759628296e-02 1.966181099414825439e-01 2.963397651910781860e-02 8.094085752964019775e-02
8.690000000000000000e+02 6.259263992309570312e+01 1.378969287872314453e+01 -1.598712205886840820e+00 -3.344964683055877686e-01 -5.799626111984252930e-01 -7.520596385002136230e-01
8.700000000000000000e+02 5.409839630126953125e+00 -1.912017583847045898e+00 -5.744578689336776733e-02 -2.663534367457032204e-03 -1.803279668092727661e-02 -3.632366284728050232e-02
8.710000000000000000e+02 3.779218673706054688e+00 -2.768647670745849609e+00 -3.402519598603248596e-02 -1.538959145545959473e-02 -1.482443604618310928e-02 -3.981727361679077148e-02
8.720000000000000000e+02 2.102964639663696289e+00 -3.576751708984375000e+00 -1.315162051469087601e-02 -2.919067628681659698e-02 -1.270268857479095459e-02 -3.111476823687553406e-02
8.730000000000000000e+02 2.735801219940185547e+00 -6.156814098358154297e+00 -1.915735006332397461e-02 -7.010476291179656982e-02 -2.677863277494907379e-02 -7.197827845811843872e-02
8.740000000000000000e+02 1.906501173973083496e+00 -7.681962966918945312e+00 -7.307814434170722961e-03 -1.186891496181488037e-01 -3.779909014701843262e-02 -6.628957390785217285e-02
8.750000000000000000e+02 1.937182903289794922e+00 -9.268235206604003906e+00 -5.046131089329719543e-03 -1.681692898273468018e-01 -5.196462944149971008e-02 -7.783965766429901123e-02
8.760000000000000000e+02 1.989309549331665039e+00 -1.085004711151123047e+01 -2.493954030796885490e-03 -2.219608277082443237e-01 -6.733644008636474609e-02 -8.677875250577926636e-02
8.770000000000000000e+02 2.006876707077026367e+00 -1.242433261871337891e+01 5.036520888097584248e-04 -2.790999412536621094e-01 -8.357888460159301758e-02 -9.069851785898208618e-02
8.780000000000000000e+02 2.805756568908691406e+00 -1.399178600311279297e+01 2.936532255262136459e-03 -2.911724150180816650e-01 -8.647076040506362915e-02 -1.171297952532768250e-01
8.790000000000000000e+02 2.856703281402587891e+00 -1.632016563415527344e+01 1.182407606393098831e-02 -3.581034839153289795e-01 -1.038838252425193787e-01 -1.077597290277481079e-01
8.800000000000000000e+02 2.939437389373779297e+00 -1.791223526000976562e+01 1.575043052434921265e-02 -3.935921192169189453e-01 -1.133524999022483826e-01 -9.829295426607131958e-02
8.810000000000000000e+02 4.185993969440460205e-01 -1.958189392089843750e+01 -1.404899172484874725e-03 -6.740472912788391113e-01 -2.026356607675552368e-01 -1.352469157427549362e-02
8.820000000000000000e+02 1.258329987525939941e+00 -1.956637001037597656e+01 4.887060262262821198e-03 -5.883255004882812500e-01 -1.750315278768539429e-01 -4.066012054681777954e-02
8.830000000000000000e+02 4.210281670093536377e-01 -2.118873596191406250e+01 -7.482502260245382786e-04 -7.229391336441040039e-01 -2.171062082052230835e-01 -1.057203207165002823e-02
8.840000000000000000e+02 1.261979937553405762e+00 -2.117066001892089844e+01 5.131993442773818970e-03 -6.300168633460998535e-01 -1.874654591083526611e-01 -3.272558003664016724e-02
8.850000000000000000e+02 4.192022383213043213e-01 -2.279504585266113281e+01 -1.613880158402025700e-04 -7.611213922500610352e-01 -2.283848375082015991e-01 -7.974291220307350159e-03
8.860000000000000000e+02 1.261724233627319336e+00 -2.277631950378417969e+01 3.939195536077022552e-03 -6.633068323135375977e-01 -1.978102922439575195e-01 -2.494320832192897797e-02
8.870000000000000000e+02 4.100577831268310547e-01 -2.439579772949218750e+01 3.402457878109999001e-05 -7.890412807464599609e-01 -2.367021888494491577e-01 -5.238722078502178192e-03
8.880000000000000000e+02 1.281718969345092773e+00 -2.673203468322753906e+01 3.996737941633909941e-04 -7.125477790832519531e-01 -2.136444300413131714e-01 -7.859909906983375549e-03
8.890000000000000000e+02 1.728936076164245605e+00 -2.841823768615722656e+01 6.704051629640161991e-04 -6.631683111190795898e-01 -1.987493783235549927e-01 -8.676500059664249420e-03
8.900000000000000000e+02 1.702695131301879883e+00 -3.021832275390625000e+01 3.280269913375377655e-03 -6.696749925613403320e-01 -1.999184191226959229e-01 1.498014666140079498e-03
8.910000000000000000e+02 1.512755870819091797e+00 -3.189073944091796875e+01 5.730287637561559677e-03 -7.019123435020446777e-01 -2.088546156883239746e-01 -3.168349387124180794e-03
8.920000000000000000e+02 1.390753030776977539e+00 -3.349612808227539062e+01 1.231284346431493759e-03 -7.169559597969055176e-01 -2.147174030542373657e-01 5.529743619263172150e-03
8.930000000000000000e+02 1.305238366127014160e+00 -3.485588455200195312e+01 1.027167309075593948e-02 -7.124815583229064941e-01 -2.106629759073257446e-01 7.026837207376956940e-03
8.940000000000000000e+02 1.472826719284057617e+00 -3.732196426391601562e+01 3.848698455840349197e-03 -6.948702335357666016e-01 -2.073064744472503662e-01 1.527459826320409775e-03
8.950000000000000000e+02 1.452237486839294434e+00 -3.802001571655273438e+01 1.442542765289545059e-03 -6.972602009773254395e-01 -2.087453007698059082e-01 2.528473269194364548e-03
8.960000000000000000e+02 1.382966279983520508e+00 -4.210460662841796875e+01 2.800682326778769493e-03 -7.278825044631958008e-01 -2.175245434045791626e-01 -2.049643173813819885e-02
8.970000000000000000e+02 4.019787013530731201e-01 -4.209492874145507812e+01 -9.429852478206157684e-03 -8.072961568832397461e-01 -2.450178116559982300e-01 1.086136605590581894e-02
8.980000000000000000e+02 2.085962533950805664e+00 -1.915242314338684082e+00 -1.192299462854862213e-02 -9.885741397738456726e-03 -6.542620714753866196e-03 -1.382071059197187424e-02
8.990000000000000000e+02 1.260353446006774902e+00 -2.728649854660034180e+00 -5.565524566918611526e-03 -1.568117551505565643e-02 -6.374010350555181503e-03 -1.265441253781318665e-02
9.000000000000000000e+02 4.150930047035217285e-01 -4.325520515441894531e+00 -8.995462558232247829e-04 -3.054757602512836456e-02 -9.434136562049388885e-03 -8.216124027967453003e-03
9.010000000000000000e+02 1.246581196784973145e+00 -4.356915473937988281e+00 -5.188067909330129623e-03 -3.937922418117523193e-02 -1.337018795311450958e-02 -2.433570288121700287e-02
9.020000000000000000e+02 1.156191229820251465e+00 -7.611024379730224609e+00 -3.859285498037934303e-03 -1.238821595907211304e-01 -3.832243382930755615e-02 -4.266114532947540283e-02
9.030000000000000000e+02 1.167225122451782227e+00 -9.215116500854492188e+00 -3.227429464459419250e-03 -1.819974333047866821e-01 -5.556746199727058411e-02 -5.011599138379096985e-02
9.040000000000000000e+02 1.193141102790832520e+00 -1.080694293975830078e+01 -2.536151092499494553e-03 -2.459651678800582886e-01 -7.455039024353027344e-02 -5.572932213544845581e-02
9.050000000000000000e+02 4.001487493515014648e-01 -1.316674423217773438e+01 -1.490986673161387444e-03 -3.894040286540985107e-01 -1.172685027122497559e-01 -2.000760659575462341e-02
9.060000000000000000e+02 4.015083014965057373e-01 -1.476856231689453125e+01 -1.373878098092973232e-03 -4.704138934612274170e-01 -1.415363401174545288e-01 -1.933622546494007111e-02
9.070000000000000000e+02 1.245894670486450195e+00 -1.796818733215332031e+01 4.536658059805631638e-03 -5.386931896209716797e-01 -1.602469682693481445e-01 -4.693710058927536011e-02
9.080000000000000000e+02 4.104723036289215088e-01 -1.717493247985839844e+01 2.445399761199951172e-03 -5.820484161376953125e-01 -1.738809049129486084e-01 -1.688625290989875793e-02
9.090000000000000000e+02 7.453561782836914062e+00 -3.048843765258789062e+01 2.461321838200092316e-02 -3.164863213896751404e-03 6.434506736695766449e-03 1.074553281068801880e-02
9.100000000000000000e+02 6.996334552764892578e+00 -2.845836448669433594e+01 3.145150095224380493e-02 -8.094285428524017334e-02 -1.484740525484085083e-02 -9.072815999388694763e-03
9.110000000000000000e+02 6.269532203674316406e+00 -2.740088653564453125e+01 2.895323745906352997e-02 -1.532972902059555054e-01 -3.730321303009986877e-02 -2.094611898064613342e-02
9.120000000000000000e+02 5.890428066253662109e+00 -2.630391120910644531e+01 3.479847684502601624e-02 -2.072960436344146729e-01 -5.174926668405532837e-02 -3.329909965395927429e-02
9.130000000000000000e+02 5.189630508422851562e+00 -2.435830879211425781e+01 3.460681438446044922e-02 -2.701807022094726562e-01 -7.067216187715530396e-02 -5.006835609674453735e-02
9.140000000000000000e+02 6.677107334136962891e+00 -2.276118087768554688e+01 6.157431378960609436e-02 -1.174970045685768127e-01 -1.677680760622024536e-02 -7.211408764123916626e-02
9.150000000000000000e+02 6.419658660888671875e+00 -2.105257415771484375e+01 6.054278090596199036e-02 -1.410562694072723389e-01 -2.415404655039310455e-02 -9.641446173191070557e-02
9.160000000000000000e+02 7.323461055755615234e+00 -1.858254432678222656e+01 7.504118233919143677e-02 -6.537769734859466553e-02 2.899046987295150757e-03 -1.429654359817504883e-01
9.170000000000000000e+02 7.079540252685546875e+00 -1.785109329223632812e+01 6.934027373790740967e-02 -8.982357382774353027e-02 -6.144989747554063797e-03 -1.557184159755706787e-01
9.180000000000000000e+02 7.293484687805175781e+00 -1.546010398864746094e+01 4.799531027674674988e-02 -6.155818328261375427e-02 -4.068862181156873703e-03 -1.896415799856185913e-01
9.190000000000000000e+02 7.685321807861328125e+00 -1.439552497863769531e+01 3.702916204929351807e-02 -3.290117159485816956e-02 1.238397322595119476e-03 -2.045054137706756592e-01
9.200000000000000000e+02 7.760836124420166016e+00 -1.173540878295898438e+01 -1.926535554230213165e-02 -4.381880164146423340e-03 -7.094170432537794113e-03 -2.136533260345458984e-01
9.210000000000000000e+02 7.435784339904785156e+00 -9.377198219299316406e+00 -6.626895070075988770e-02 7.471434306353330612e-03 -1.763925515115261078e-02 -1.889518350362777710e-01
9.220000000000000000e+02 6.565724372863769531e+00 -7.949789047241210938e+00 -7.095366716384887695e-02 -1.097209937870502472e-02 -2.457772940397262573e-02 -1.543756872415542603e-01
9.230000000000000000e+02 7.443401813507080078e+00 -6.604411602020263672e+00 -9.782353043556213379e-02 1.944854296743869781e-02 -2.351249754428863525e-02 -1.305972039699554443e-01
9.240000000000000000e+02 7.261154651641845703e+00 -5.020674705505371094e+00 -9.855869412422180176e-02 1.682869344949722290e-02 -2.451900020241737366e-02 -9.620747715234756470e-02
9.250000000000000000e+02 8.074968338012695312e+00 -4.117656707763671875e+01 -1.086749043315649033e-02 4.660160094499588013e-02 1.072023250162601471e-02 9.530724957585334778e-03
9.260000000000000000e+02 8.760251998901367188e+00 -3.864176940917968750e+01 -5.414915271103382111e-03 1.658362001180648804e-01 4.812638461589813232e-02 1.993325352668762207e-02
9.270000000000000000e+02 6.795959949493408203e+00 -3.623317337036132812e+01 -2.429220126941800117e-03 -6.477198004722595215e-02 -2.016036026179790497e-02 8.900607004761695862e-03
9.280000000000000000e+02 6.819119453430175781e+00 -3.464502334594726562e+01 6.234592758119106293e-03 -5.811852216720581055e-02 -1.556517835706472397e-02 2.591611351817846298e-03
9.290000000000000000e+02 8.204623222351074219e+00 -2.935341835021972656e+01 3.705780208110809326e-02 7.970046252012252808e-02 3.502747789025306702e-02 6.507269572466611862e-03
9.300000000000000000e+02 9.131272315979003906e+00 -2.765787887573242188e+01 5.868532881140708923e-02 1.597979366779327393e-01 6.554497778415679932e-02 7.557431235909461975e-03
9.310000000000000000e+02 7.260686874389648438e+00 -2.677332687377929688e+01 4.611361771821975708e-02 -4.801762104034423828e-02 -5.712019628845155239e-04 -2.566933445632457733e-02
9.320000000000000000e+02 7.449678421020507812e+00 -2.442812919616699219e+01 5.680515244603157043e-02 -3.582934662699699402e-02 6.292742211371660233e-03 -4.491057619452476501e-02
9.330000000000000000e+02 7.328001022338867188e+00 -2.223864936828613281e+01 7.545915246009826660e-02 -6.539756804704666138e-02 3.018473973497748375e-03 -7.799737155437469482e-02
9.340000000000000000e+02 8.191912651062011719e+00 -2.010612869262695312e+01 9.232498705387115479e-02 9.140055626630783081e-03 3.043951280415058136e-02 -1.127589046955108643e-01
9.350000000000000000e+02 8.358354568481445312e+00 -1.883436965942382812e+01 9.423065185546875000e-02 1.256797090172767639e-02 3.203958645462989807e-02 -1.385570615530014038e-01
9.360000000000000000e+02 8.655820846557617188e+00 -1.722105026245117188e+01 8.972980082035064697e-02 2.163307555019855499e-02 3.340886533260345459e-02 -1.631855964660644531e-01
9.370000000000000000e+02 8.981698036193847656e+00 -1.590045738220214844e+01 7.606889307498931885e-02 4.794971644878387451e-02 3.720558062195777893e-02 -1.887812763452529907e-01
9.380000000000000000e+02 9.587816238403320312e+00 -1.389681720733642578e+01 4.370452091097831726e-02 7.243132591247558594e-02 3.484075516462326050e-02 -2.142363935708999634e-01
9.390000000000000000e+02 9.912714004516601562e+00 -9.552357673645019531e+00 -1.061158254742622375e-01 9.870328754186630249e-02 -2.223760355263948441e-03 -2.036252021789550781e-01
9.400000000000000000e+02 9.016594886779785156e+00 -6.878040790557861328e+00 -1.360391229391098022e-01 6.364038586616516113e-02 -2.171962335705757141e-02 -1.354974210262298584e-01
9.410000000000000000e+02 8.956632614135742188e+00 -5.454657554626464844e+00 -1.379653662443161011e-01 5.054093897342681885e-02 -2.622732706367969513e-02 -9.630427509546279907e-02
9.420000000000000000e+02 9.598211288452148438e+00 -2.667629480361938477e+00 -1.318172961473464966e-01 2.676332928240299225e-02 -3.151619061827659607e-02 -2.725594118237495422e-02
9.430000000000000000e+02 9.558311462402343750e+00 -1.890692114830017090e+00 -1.242092177271842957e-01 1.427752245217561722e-02 -3.297950699925422668e-02 -1.686506159603595734e-02
9.440000000000000000e+02 7.426939964294433594e+00 -3.273622131347656250e+01 9.806018322706222534e-03 -3.105852752923965454e-03 2.010049764066934586e-03 1.392220240086317062e-02
9.450000000000000000e+02 8.785676002502441406e+00 -3.193766212463378906e+01 1.546516269445419312e-02 1.547337323427200317e-01 5.105967074632644653e-02 1.843808405101299286e-02
9.460000000000000000e+02 9.436706542968750000e+00 -2.844136428833007812e+01 4.733452945947647095e-02 1.982990354299545288e-01 7.369007170200347900e-02 1.129738520830869675e-02
9.470000000000000000e+02 1.029532146453857422e+01 -2.809262084960937500e+01 5.837705731391906738e-02 2.823290526866912842e-01 1.022118330001831055e-01 1.123892795294523239e-02
9.480000000000000000e+02 8.867273330688476562e+00 -2.487104606628417969e+01 6.784010678529739380e-02 1.076092272996902466e-01 5.263479799032211304e-02 -2.617417089641094208e-02
9.490000000000000000e+02 8.738681793212890625e+00 -2.243466377258300781e+01 9.909877926111221313e-02 6.770779192447662354e-02 5.004196986556053162e-02 -6.725401431322097778e-02
9.500000000000000000e+02 9.528998374938964844e+00 -2.024445915222167969e+01 1.164870634675025940e-01 1.171881332993507385e-01 7.010255753993988037e-02 -1.009735018014907837e-01
9.510000000000000000e+02 1.018987464904785156e+01 -1.950849533081054688e+01 1.384995132684707642e-01 1.586079001426696777e-01 8.913222700357437134e-02 -1.012170016765594482e-01
9.520000000000000000e+02 1.081113910675048828e+01 -1.727726936340332031e+01 1.360435336828231812e-01 1.761201322078704834e-01 9.364909678697586060e-02 -1.442485451698303223e-01
9.530000000000000000e+02 1.098002052307128906e+01 -1.562497329711914062e+01 1.038952916860580444e-01 1.645673960447311401e-01 8.053880929946899414e-02 -1.799539625644683838e-01
9.540000000000000000e+02 1.092471694946289062e+01 -1.478317832946777344e+01 8.826413750648498535e-02 1.434169262647628784e-01 6.950432062149047852e-02 -1.989844143390655518e-01
9.550000000000000000e+02 1.086734104156494141e+01 -1.103949356079101562e+01 -6.360452622175216675e-02 1.341357231140136719e-01 2.115936018526554108e-02 -2.269814461469650269e-01
9.560000000000000000e+02 1.106745052337646484e+01 -9.852534294128417969e+00 -1.177956238389015198e-01 1.403545290231704712e-01 6.767670623958110809e-03 -2.102730721235275269e-01
9.570000000000000000e+02 1.101014137268066406e+01 -8.029846191406250000e+00 -1.798469871282577515e-01 1.308902055025100708e-01 -1.468703523278236389e-02 -1.569641828536987305e-01
9.580000000000000000e+02 1.090018177032470703e+01 -6.174973487854003906e+00 -1.952837854623794556e-01 1.040198951959609985e-01 -2.737916819751262665e-02 -9.698364138603210449e-02
9.590000000000000000e+02 1.057973194122314453e+01 -4.682644367218017578e+00 -1.777390986680984497e-01 7.176080346107482910e-02 -3.179349005222320557e-02 -5.262615531682968140e-02
9.600000000000000000e+02 1.041005134582519531e+01 -3.329042434692382812e+00 -1.536662727594375610e-01 4.407251998782157898e-02 -3.287812322378158569e-02 -2.414734847843647003e-02
9.610000000000000000e+02 1.111351394653320312e+01 -1.902374982833862305e+00 -1.382669359445571899e-01 1.938559301197528839e-02 -3.566440567374229431e-02 8.154078386723995209e-03
9.620000000000000000e+02 1.442326164245605469e+01 -3.773603057861328125e+01 -2.640760317444801331e-02 8.349546194076538086e-01 2.425641119480133057e-01 2.300522103905677795e-02
9.630000000000000000e+02 1.087133884429931641e+01 -3.602494049072265625e+01 -6.513570435345172882e-03 4.161664843559265137e-01 1.228958740830421448e-01 3.146157786250114441e-02
9.640000000000000000e+02 8.742705345153808594e+00 -3.636126708984375000e+01 1.984257949516177177e-03 1.817496269941329956e-01 5.512016639113426208e-02 1.495170034468173981e-02
9.650000000000000000e+02 1.152872657775878906e+01 -3.308781814575195312e+01 1.255809422582387924e-02 4.681482017040252686e-01 1.442118883132934570e-01 3.815246000885963440e-02
9.660000000000000000e+02 1.031349277496337891e+01 -3.120346832275390625e+01 2.573771588504314423e-02 3.061338067054748535e-01 9.956145286560058594e-02 2.301523275673389435e-02
9.670000000000000000e+02 1.090824508666992188e+01 -2.911319923400878906e+01 4.788218811154365540e-02 3.599915206432342529e-01 1.223621144890785217e-01 1.622747257351875305e-02
9.680000000000000000e+02 1.088163471221923828e+01 -2.739962577819824219e+01 6.765799969434738159e-02 3.274108767509460449e-01 1.185206621885299683e-01 1.124364323914051056e-02
9.690000000000000000e+02 1.135000801086425781e+01 -2.631642913818359375e+01 8.338735252618789673e-02 3.782004117965698242e-01 1.384763270616531372e-01 7.870973087847232819e-03
9.700000000000000000e+02 1.004037380218505859e+01 -2.453434181213378906e+01 9.708009660243988037e-02 2.218554019927978516e-01 9.568064659833908081e-02 -2.328888326883316040e-02
9.710000000000000000e+02 1.033678531646728516e+01 -2.278606224060058594e+01 1.230914294719696045e-01 2.171224206686019897e-01 1.020641550421714783e-01 -3.834229707717895508e-02
9.720000000000000000e+02 1.025743293762207031e+01 -2.108612823486328125e+01 1.351514309644699097e-01 1.859799474477767944e-01 9.633941203355789185e-02 -6.748458743095397949e-02
9.730000000000000000e+02 1.274020099639892578e+01 -1.917219924926757812e+01 1.885682791471481323e-01 3.844841718673706055e-01 1.719157248735427856e-01 -5.060680583119392395e-02
9.740000000000000000e+02 1.228899478912353516e+01 -1.781614494323730469e+01 1.815347522497177124e-01 3.049719333648681641e-01 1.459520012140274048e-01 -9.374569356441497803e-02
9.750000000000000000e+02 1.282278347015380859e+01 -1.593475818634033203e+01 1.630858331918716431e-01 2.939570546150207520e-01 1.371128708124160767e-01 -1.314275860786437988e-01
9.760000000000000000e+02 1.358457279205322266e+01 -1.372380161285400391e+01 1.049641892313957214e-01 2.621609568595886230e-01 1.101375445723533630e-01 -1.758915334939956665e-01
9.770000000000000000e+02 1.272303009033203125e+01 -1.081917476654052734e+01 -9.449693560600280762e-02 1.983803063631057739e-01 3.116500936448574066e-02 -2.113156914710998535e-01
9.780000000000000000e+02 1.274824810028076172e+01 -9.539646148681640625e+00 -1.765171587467193604e-01 1.957721263170242310e-01 5.776490084826946259e-03 -1.894098073244094849e-01
9.790000000000000000e+02 1.336311149597167969e+01 -7.925199985504150391e+00 -2.675646841526031494e-01 1.864653080701828003e-01 -2.432980947196483612e-02 -1.261367648839950562e-01
9.800000000000000000e+02 1.279676818847656250e+01 -6.879649162292480469e+00 -2.653357684612274170e-01 1.540501564741134644e-01 -3.338569030165672302e-02 -8.844050765037536621e-02
9.810000000000000000e+02 1.339403438568115234e+01 -4.913582801818847656e+00 -2.713536918163299561e-01 9.995472431182861328e-02 -5.141969025135040283e-02 1.364769879728555679e-02
9.820000000000000000e+02 1.182661437988281250e+01 -3.411123275756835938e+00 -1.860789954662322998e-01 5.972388386726379395e-02 -3.790653124451637268e-02 5.560331512242555618e-03
9.830000000000000000e+02 1.262315177917480469e+01 -1.944829940795898438e+00 -1.400039494037628174e-01 2.039594389498233795e-02 -3.588240221142768860e-02 3.828367963433265686e-02
9.840000000000000000e+02 1.178948211669921875e+01 -3.047913742065429688e+01 3.961610049009323120e-02 4.876264035701751709e-01 1.581727564334869385e-01 3.944090008735656738e-02
9.850000000000000000e+02 1.184917449951171875e+01 -2.830768013000488281e+01 5.860896781086921692e-02 4.744461476802825928e-01 1.599165350198745728e-01 3.160082548856735229e-02
9.860000000000000000e+02 1.256209945678710938e+01 -2.729995918273925781e+01 8.272898197174072266e-02 5.405266284942626953e-01 1.869766712188720703e-01 3.582183271646499634e-02
9.870000000000000000e+02 1.317536354064941406e+01 -2.625917053222656250e+01 8.843453973531723022e-02 5.984466671943664551e-01 2.060643583536148071e-01 2.863488718867301941e-02
9.880000000000000000e+02 1.215869903564453125e+01 -2.527455902099609375e+01 1.133418604731559753e-01 4.427853524684906006e-01 1.668381690979003906e-01 1.754949986934661865e-02
9.890000000000000000e+02 1.216956520080566406e+01 -2.297080802917480469e+01 1.448248177766799927e-01 4.222971498966217041e-01 1.701365858316421509e-01 -1.436263322830200195e-03
9.900000000000000000e+02 1.274520874023437500e+01 -2.181966590881347656e+01 1.653103083372116089e-01 4.613383114337921143e-01 1.879945844411849976e-01 -9.779140353202819824e-03
9.910000000000000000e+02 1.455123043060302734e+01 -2.000388717651367188e+01 2.185604870319366455e-01 6.030358672142028809e-01 2.464789003133773804e-01 3.343235328793525696e-02
9.920000000000000000e+02 1.416929626464843750e+01 -1.766253089904785156e+01 2.264663875102996826e-01 4.629474282264709473e-01 2.068241536617279053e-01 -3.628122806549072266e-02
9.930000000000000000e+02 1.545197200775146484e+01 -1.343510341644287109e+01 1.631153821945190430e-01 3.382747173309326172e-01 1.504170298576354980e-01 -1.211631149053573608e-01
9.940000000000000000e+02 1.445573329925537109e+01 -1.097227287292480469e+01 -8.778529614210128784e-02 2.445981949567794800e-01 4.704387113451957703e-02 -1.922450512647628784e-01
9.950000000000000000e+02 1.450771331787109375e+01 -9.816809654235839844e+00 -2.082493752241134644e-01 2.467983365058898926e-01 1.156468503177165985e-02 -1.867574304342269897e-01
9.960000000000000000e+02 1.385363578796386719e+01 -8.171602249145507812e+00 -2.892142832279205322e-01 2.082740217447280884e-01 -2.428207732737064362e-02 -1.319621652364730835e-01
9.970000000000000000e+02 1.439740180969238281e+01 -6.660557746887207031e+00 -3.559567928314208984e-01 1.638935357332229614e-01 -5.761897191405296326e-02 -2.776213549077510834e-02
9.980000000000000000e+02 1.532133579254150391e+01 -5.206193447113037109e+00 -3.560018837451934814e-01 6.677041202783584595e-02 -8.676944673061370850e-02 8.636567741632461548e-02
9.990000000000000000e+02 1.480973148345947266e+01 -3.726218223571777344e+00 -2.462362498044967651e-01 1.764077134430408478e-02 -6.857863813638687134e-02 9.419736266136169434e-02
1.000000000000000000e+03 1.403012752532958984e+01 -2.614624977111816406e+00 -1.679695695638656616e-01 2.048359811305999756e-02 -4.424579069018363953e-02 7.122260332107543945e-02
1.001000000000000000e+03 1.287615394592285156e+01 -3.523118209838867188e+01 -9.410548955202102661e-03 6.206176280975341797e-01 1.833621263504028320e-01 3.001870587468147278e-02
1.002000000000000000e+03 1.453641700744628906e+01 -3.407008743286132812e+01 -4.369925707578659058e-03 8.272216916084289551e-01 2.468555271625518799e-01 3.961362317204475403e-02
1.003000000000000000e+03 1.428332996368408203e+01 -3.096406555175781250e+01 2.633218280971050262e-02 7.851814627647399902e-01 2.434540838003158569e-01 4.366132244467735291e-02
1.004000000000000000e+03 1.385579490661621094e+01 -2.836733818054199219e+01 6.448588520288467407e-02 7.120755910873413086e-01 2.329684346914291382e-01 4.272051528096199036e-02
1.005000000000000000e+03 1.452544212341308594e+01 -2.703810691833496094e+01 8.613108843564987183e-02 7.604771256446838379e-01 2.539824545383453369e-01 6.203236430883407593e-02
1.006000000000000000e+03 1.485696792602539062e+01 -2.557031250000000000e+01 1.088103055953979492e-01 7.854683995246887207e-01 2.682836055755615234e-01 5.676512047648429871e-02
1.007000000000000000e+03 1.494862461090087891e+01 -2.410935020446777344e+01 1.402844637632369995e-01 7.910640835762023926e-01 2.794045507907867432e-01 6.343501061201095581e-02
1.008000000000000000e+03 1.503195667266845703e+01 -2.276809692382812500e+01 1.636853665113449097e-01 7.551446557044982910e-01 2.756490111351013184e-01 6.211179494857788086e-02
1.009000000000000000e+03 1.542643165588378906e+01 -2.043689727783203125e+01 2.179060727357864380e-01 7.174267172813415527e-01 2.805998325347900391e-01 6.638588756322860718e-02
1.010000000000000000e+03 1.659524345397949219e+01 -1.855744361877441406e+01 2.800233364105224609e-01 7.749989032745361328e-01 3.165066838264465332e-01 1.087552979588508606e-01
1.011000000000000000e+03 1.575666046142578125e+01 -1.674601173400878906e+01 2.812090814113616943e-01 5.552053451538085938e-01 2.509243190288543701e-01 3.009639680385589600e-02
1.012000000000000000e+03 1.681612968444824219e+01 -1.489470672607421875e+01 2.696372568607330322e-01 5.550905466079711914e-01 2.474183440208435059e-01 2.356257103383541107e-02
1.013000000000000000e+03 1.683166694641113281e+01 -1.313010311126708984e+01 2.010217159986495972e-01 3.874441981315612793e-01 1.765397638082504272e-01 -5.888545885682106018e-02
1.014000000000000000e+03 1.692252922058105469e+01 -1.163689517974853516e+01 3.185669332742691040e-02 3.066819608211517334e-01 1.015615910291671753e-01 -1.245290189981460571e-01
1.015000000000000000e+03 1.753372383117675781e+01 -1.045679473876953125e+01 -2.054619342088699341e-01 2.718253135681152344e-01 1.990901492536067963e-02 -1.243263781070709229e-01
1.016000000000000000e+03 1.614943695068359375e+01 -8.180596351623535156e+00 -4.353405833244323730e-01 2.092434465885162354e-01 -6.782913953065872192e-02 -4.741715639829635620e-02
1.017000000000000000e+03 1.625022125244140625e+01 -7.171986103057861328e+00 -4.789303839206695557e-01 1.551277935504913330e-01 -9.714078158140182495e-02 3.279827907681465149e-02
1.018000000000000000e+03 1.713984870910644531e+01 -3.903542995452880859e+00 -2.556203305721282959e-01 -1.851006746292114258e-01 -1.322163045406341553e-01 2.135545909404754639e-01
1.019000000000000000e+03 1.671416282653808594e+01 -4.448505878448486328e+00 -3.133344948291778564e-01 -9.693801403045654297e-02 -1.230817511677742004e-01 1.893435418605804443e-01
1.020000000000000000e+03 1.588667297363281250e+01 -3.261967468261718750e+01 8.383375592529773712e-03 9.634585380554199219e-01 2.915525734424591064e-01 4.910536855459213257e-02
1.021000000000000000e+03 1.532879924774169922e+01 -2.955765533447265625e+01 4.869765788316726685e-02 8.965165615081787109e-01 2.835642695426940918e-01 6.286883354187011719e-02
1.022000000000000000e+03 1.615555763244628906e+01 -2.789930152893066406e+01 6.475538015365600586e-02 9.965247511863708496e-01 3.183840513229370117e-01 6.813171505928039551e-02
1.023000000000000000e+03 1.645217895507812500e+01 -2.604711341857910156e+01 9.445229172706604004e-02 1.024989724159240723e+00 3.358325958251953125e-01 8.748298883438110352e-02
1.024000000000000000e+03 1.630827522277832031e+01 -2.432851028442382812e+01 1.322470456361770630e-01 9.640011787414550781e-01 3.288744688034057617e-01 9.372908622026443481e-02
1.025000000000000000e+03 1.611560440063476562e+01 -2.174230003356933594e+01 1.867506951093673706e-01 8.747159838676452637e-01 3.184400200843811035e-01 9.569188952445983887e-02
1.026000000000000000e+03 1.702569580078125000e+01 -2.088480758666992188e+01 2.007090151309967041e-01 9.630488157272338867e-01 3.491273522377014160e-01 1.261676251888275146e-01
1.027000000000000000e+03 1.816389274597167969e+01 -1.940432167053222656e+01 2.330546528100967407e-01 1.085390210151672363e+00 3.955334424972534180e-01 1.959854662418365479e-01
1.028000000000000000e+03 1.938121604919433594e+01 -1.788128280639648438e+01 2.521533966064453125e-01 1.249871015548706055e+00 4.506073296070098877e-01 2.894173860549926758e-01
1.029000000000000000e+03 1.918489265441894531e+01 -1.515023899078369141e+01 3.608867824077606201e-01 9.104179739952087402e-01 3.813914060592651367e-01 3.050635159015655518e-01
1.030000000000000000e+03 1.841145896911621094e+01 -1.346814632415771484e+01 3.106623589992523193e-01 5.846005082130432129e-01 2.685788571834564209e-01 1.479635238647460938e-01
1.031000000000000000e+03 1.760564231872558594e+01 -1.169224071502685547e+01 2.973999828100204468e-02 3.423682749271392822e-01 1.116324812173843384e-01 -8.912379294633865356e-02
1.032000000000000000e+03 1.809599876403808594e+01 -9.909487724304199219e+00 -3.178034424781799316e-01 2.267178893089294434e-01 -2.732566371560096741e-02 -1.008632183074951172e-01
1.033000000000000000e+03 1.876274490356445312e+01 -8.499498367309570312e+00 -6.964743137359619141e-01 1.133977845311164856e-01 -1.749229580163955688e-01 1.044465601444244385e-01
1.034000000000000000e+03 1.935195159912109375e+01 -6.211889266967773438e+00 -5.922396183013916016e-01 -3.781766295433044434e-01 -2.911248803138732910e-01 4.520946741104125977e-01
1.035000000000000000e+03 1.825375747680664062e+01 -5.041050434112548828e+00 -3.871009647846221924e-01 -2.641195952892303467e-01 -1.953661739826202393e-01 3.140375912189483643e-01
1.036000000000000000e+03 1.638115882873535156e+01 -4.079456329345703125e+01 -4.781907051801681519e-02 1.097016930580139160e+00 3.147593438625335693e-01 5.583214107900857925e-03
1.037000000000000000e+03 1.645478248596191406e+01 -3.631749725341796875e+01 -3.076887130737304688e-02 1.025854349136352539e+00 2.985256314277648926e-01 2.753496915102005005e-02
1.038000000000000000e+03 1.698929214477539062e+01 -3.092503547668457031e+01 1.676689647138118744e-02 1.109058618545532227e+00 3.377476632595062256e-01 4.625501111149787903e-02
1.039000000000000000e+03 1.791376113891601562e+01 -2.908352661132812500e+01 3.527450561523437500e-02 1.233676552772521973e+00 3.806853294372558594e-01 7.668836414813995361e-02
1.040000000000000000e+03 1.895633125305175781e+01 -2.754983520507812500e+01 4.407656192779541016e-02 1.372416138648986816e+00 4.249478280544281006e-01 9.408464282751083374e-02
1.041000000000000000e+03 1.935730552673339844e+01 -2.523654937744140625e+01 8.079454302787780762e-02 1.443856120109558105e+00 4.573951959609985352e-01 1.329142898321151733e-01
1.042000000000000000e+03 1.765827178955078125e+01 -2.151167297363281250e+01 1.934859901666641235e-01 1.080770492553710938e+00 3.822769224643707275e-01 1.552189588546752930e-01
1.043000000000000000e+03 1.829116439819335938e+01 -2.091253089904785156e+01 1.863257288932800293e-01 1.180418372154235840e+00 4.100232422351837158e-01 1.803655624389648438e-01
1.044000000000000000e+03 1.960559654235839844e+01 -1.939341735839843750e+01 1.967820376157760620e-01 1.373367786407470703e+00 4.710449576377868652e-01 2.581634223461151123e-01
1.045000000000000000e+03 2.075949096679687500e+01 -1.764092826843261719e+01 2.073592245578765869e-01 1.578313708305358887e+00 5.357018709182739258e-01 3.826960027217864990e-01
1.046000000000000000e+03 2.092040252685546875e+01 -1.544134998321533203e+01 3.592981100082397461e-01 1.432668209075927734e+00 5.375899076461791992e-01 5.469688177108764648e-01
1.047000000000000000e+03 1.992074203491210938e+01 -1.325560569763183594e+01 3.963999748229980469e-01 7.580063343048095703e-01 3.463218808174133301e-01 3.321005403995513916e-01
1.048000000000000000e+03 2.010630035400390625e+01 -1.134726333618164062e+01 1.929890066385269165e-01 3.756017684936523438e-01 1.705772280693054199e-01 2.463695406913757324e-01
1.049000000000000000e+03 2.106970024108886719e+01 -9.848228454589843750e+00 -5.434647798538208008e-01 4.456798359751701355e-02 -1.496690362691879272e-01 1.396591514348983765e-01
1.050000000000000000e+03 2.118178367614746094e+01 -7.949108123779296875e+00 -1.466301083564758301e+00 -6.237121224403381348e-01 -6.270039677619934082e-01 9.258267283439636230e-01
1.051000000000000000e+03 1.944894218444824219e+01 -8.985497474670410156e+00 -7.716438174247741699e-01 1.157788932323455811e-01 -1.967594772577285767e-01 8.209723234176635742e-02
1.052000000000000000e+03 1.785114097595214844e+01 -3.443618011474609375e+01 -2.448655106127262115e-02 1.224961042404174805e+00 3.601423501968383789e-01 2.380627207458019257e-02
1.053000000000000000e+03 2.110970497131347656e+01 -3.366368865966796875e+01 -3.800192475318908691e-02 1.630102038383483887e+00 4.776300489902496338e-01 4.091149568557739258e-02
1.054000000000000000e+03 1.970095825195312500e+01 -3.043646621704101562e+01 2.186234924010932446e-04 1.473547816276550293e+00 4.421299397945404053e-01 6.159647181630134583e-02
1.055000000000000000e+03 2.005143356323242188e+01 -2.645567321777343750e+01 5.022143572568893433e-02 1.534989476203918457e+00 4.755632877349853516e-01 1.033677682280540466e-01
1.056000000000000000e+03 2.072446441650390625e+01 -2.523930740356445312e+01 5.544691160321235657e-02 1.632530093193054199e+00 5.063930749893188477e-01 1.261438131332397461e-01
1.057000000000000000e+03 1.988355064392089844e+01 -2.298561859130859375e+01 1.058302074670791626e-01 1.500900864601135254e+00 4.820193350315093994e-01 1.576061844825744629e-01
1.058000000000000000e+03 1.979525756835937500e+01 -2.106565856933593750e+01 1.462139636278152466e-01 1.464721560478210449e+00 4.832806587219238281e-01 2.082850039005279541e-01
1.059000000000000000e+03 2.206305313110351562e+01 -1.944170951843261719e+01 1.078404188156127930e-01 1.939324975013732910e+00 6.141496300697326660e-01 2.995323836803436279e-01
1.060000000000000000e+03 2.209410667419433594e+01 -1.724840545654296875e+01 1.140421405434608459e-01 2.005410194396972656e+00 6.358357071876525879e-01 4.510824382305145264e-01
1.061000000000000000e+03 2.218531799316406250e+01 -1.536076164245605469e+01 2.352972328662872314e-01 2.028596162796020508e+00 6.791680455207824707e-01 6.716964840888977051e-01
1.062000000000000000e+03 2.201079940795898438e+01 -1.384574413299560547e+01 3.267319202423095703e-01 1.739793062210083008e+00 6.199575066566467285e-01 8.471199274063110352e-01
1.063000000000000000e+03 2.192295837402343750e+01 -1.145658016204833984e+01 4.686765372753143311e-01 7.818627357482910156e-01 3.751617670059204102e-01 7.706907987594604492e-01
1.064000000000000000e+03 2.286321449279785156e+01 -9.936805725097656250e+00 6.226361989974975586e-01 -6.622292101383209229e-02 1.669239848852157593e-01 8.351442217826843262e-01
1.065000000000000000e+03 2.148461723327636719e+01 -9.108477592468261719e+00 -9.994837641716003418e-01 -2.427170723676681519e-01 -3.726602494716644287e-01 4.154855310916900635e-01
1.066000000000000000e+03 2.336575889587402344e+01 -3.731149673461914062e+01 -6.458631902933120728e-02 1.839909791946411133e+00 5.325970649719238281e-01 1.686267368495464325e-02
1.067000000000000000e+03 2.284801673889160156e+01 -4.068081283569335938e+01 -7.527845352888107300e-02 1.763094425201416016e+00 5.063447952270507812e-01 8.291185833513736725e-03
1.068000000000000000e+03 2.034486198425292969e+01 -3.618837356567382812e+01 -4.458255693316459656e-02 1.548137903213500977e+00 4.510665833950042725e-01 3.517461568117141724e-02
1.069000000000000000e+03 2.360631942749023438e+01 -3.445210647583007812e+01 -4.458799213171005249e-02 1.907227158546447754e+00 5.587917566299438477e-01 2.535224519670009613e-02
1.070000000000000000e+03 2.044869804382324219e+01 -2.878226470947265625e+01 1.036528311669826508e-02 1.568827152252197266e+00 4.737577140331268311e-01 7.327441126108169556e-02
1.071000000000000000e+03 2.316553306579589844e+01 -2.511617851257324219e+01 2.406511455774307251e-02 1.993874907493591309e+00 6.053820252418518066e-01 9.477500617504119873e-02
1.072000000000000000e+03 2.160104370117187500e+01 -2.286792182922363281e+01 6.262863427400588989e-02 1.808125495910644531e+00 5.612262487411499023e-01 1.846681386232376099e-01
1.073000000000000000e+03 2.231343078613281250e+01 -2.046236038208007812e+01 7.970677316188812256e-02 1.936721324920654297e+00 6.049284338951110840e-01 2.484993338584899902e-01
1.074000000000000000e+03 2.233353996276855469e+01 -1.856729698181152344e+01 7.286084443330764771e-02 2.054509639739990234e+00 6.382111907005310059e-01 3.430611491203308105e-01
1.075000000000000000e+03 2.287500381469726562e+01 -1.776155853271484375e+01 8.718349039554595947e-02 2.196531534194946289e+00 6.851144433021545410e-01 4.006309211254119873e-01
1.076000000000000000e+03 2.353516769409179688e+01 -1.514584159851074219e+01 5.942889489233493805e-03 2.705053329467773438e+00 8.132988214492797852e-01 6.992703676223754883e-01
1.077000000000000000e+03 2.338485336303710938e+01 -1.378954410552978516e+01 7.619319856166839600e-02 2.641205310821533203e+00 8.152195215225219727e-01 9.917196035385131836e-01
1.078000000000000000e+03 2.373478698730468750e+01 -1.158716392517089844e+01 4.950051903724670410e-01 2.909290313720703125e+00 1.021288633346557617e+00 1.864072442054748535e+00
1.079000000000000000e+03 2.306942939758300781e+01 -1.113959503173828125e+01 3.779897093772888184e-01 1.557161331176757812e+00 5.805453062057495117e-01 1.494526028633117676e+00
1.080000000000000000e+03 2.369706344604492188e+01 -3.202502822875976562e+01 -4.387051612138748169e-02 1.937449336051940918e+00 5.680736303329467773e-01 3.145522624254226685e-02
1.081000000000000000e+03 2.370114898681640625e+01 -2.999428367614746094e+01 -2.213115245103836060e-02 1.972051501274108887e+00 5.849760770797729492e-01 4.663460701704025269e-02
1.082000000000000000e+03 2.360514640808105469e+01 -2.837417984008789062e+01 -1.506100036203861237e-02 1.976328372955322266e+00 5.883802175521850586e-01 4.971574991941452026e-02
1.083000000000000000e+03 2.419285583496093750e+01 -2.650384712219238281e+01 -1.356932800263166428e-03 2.077286243438720703e+00 6.227787733078002930e-01 4.785492643713951111e-02
1.084000000000000000e+03 2.444953536987304688e+01 -2.428303146362304688e+01 1.660997048020362854e-02 2.200883388519287109e+00 6.652479767799377441e-01 5.156940221786499023e-02
1.085000000000000000e+03 2.408649253845214844e+01 -2.213031768798828125e+01 1.589629426598548889e-02 2.226413726806640625e+00 6.726930141448974609e-01 9.792172163724899292e-02
1.086000000000000000e+03 2.331090545654296875e+01 -2.025085067749023438e+01 3.041316196322441101e-02 2.240785598754882812e+00 6.813595890998840332e-01 2.182331085205078125e-01
1.087000000000000000e+03 2.462497520446777344e+01 -1.911171722412109375e+01 -3.379034250974655151e-02 2.598874807357788086e+00 7.695253491401672363e-01 1.610405147075653076e-01
1.088000000000000000e+03 2.556553840637207031e+01 -1.720911216735839844e+01 -1.557514369487762451e-01 3.149104833602905273e+00 8.980060219764709473e-01 9.666803479194641113e-02
1.089000000000000000e+03 2.553796958923339844e+01 -1.568020629882812500e+01 -2.503866851329803467e-01 3.539044380187988281e+00 9.865973591804504395e-01 1.802854090929031372e-01
1.090000000000000000e+03 2.602723693847656250e+01 -1.319353008270263672e+01 -6.380441188812255859e-01 5.261846542358398438e+00 1.387140631675720215e+00 9.189936518669128418e-02
1.091000000000000000e+03 2.556514549255371094e+01 -1.168666172027587891e+01 -8.768127560615539551e-01 6.643882751464843750e+00 1.730121016502380371e+00 4.527326226234436035e-01
1.092000000000000000e+03 2.530237579345703125e+01 -1.042592239379882812e+01 -7.645854949951171875e-01 9.252463340759277344e+00 2.546363592147827148e+00 1.394573569297790527e+00
1.093000000000000000e+03 2.722211456298828125e+01 -4.081568527221679688e+01 -7.925163954496383667e-02 2.225087881088256836e+00 6.437509059906005859e-01 -5.728888325393199921e-03
1.094000000000000000e+03 2.667760658264160156e+01 -3.754594039916992188e+01 -6.509113311767578125e-02 2.183729648590087891e+00 6.355915665626525879e-01 -1.089558377861976624e-02
1.095000000000000000e+03 2.618546295166015625e+01 -3.461101531982421875e+01 -5.996316298842430115e-02 2.160047531127929688e+00 6.300253272056579590e-01 -6.348771508783102036e-03
1.096000000000000000e+03 2.537489128112792969e+01 -2.994554328918457031e+01 -3.196603804826736450e-02 2.147505998611450195e+00 6.346619725227355957e-01 7.012576330453157425e-03
1.097000000000000000e+03 2.490666389465332031e+01 -2.809605216979980469e+01 -1.475403271615505219e-02 2.143258094787597656e+00 6.385512351989746094e-01 3.144842386245727539e-02
1.098000000000000000e+03 2.552597808837890625e+01 -2.583729553222656250e+01 1.646228018216788769e-03 2.277339696884155273e+00 6.836957931518554688e-01 1.293177809566259384e-02
1.099000000000000000e+03 2.706796646118164062e+01 -2.539720726013183594e+01 1.284153759479522705e-02 2.444381952285766602e+00 7.371670603752136230e-01 -6.170916929841041565e-02
1.100000000000000000e+03 2.576915168762207031e+01 -2.204487228393554688e+01 -9.895700030028820038e-03 2.505995988845825195e+00 7.488300800323486328e-01 -1.214132923632860184e-02
1.101000000000000000e+03 2.535701942443847656e+01 -2.055234718322753906e+01 -2.279017679393291473e-02 2.634750366210937500e+00 7.835880517959594727e-01 1.499529648572206497e-02
1.102000000000000000e+03 2.606732177734375000e+01 -1.869734573364257812e+01 -8.899763971567153931e-02 2.941735506057739258e+00 8.558213114738464355e-01 -4.214287549257278442e-02
1.103000000000000000e+03 2.741544532775878906e+01 -1.731771659851074219e+01 -1.920688450336456299e-01 3.449384450912475586e+00 9.771946668624877930e-01 -3.738007545471191406e-01
1.104000000000000000e+03 2.708905220031738281e+01 -1.533029079437255859e+01 -2.666244506835937500e-01 3.988355398178100586e+00 1.116519331932067871e+00 -4.403856396675109863e-01
1.105000000000000000e+03 2.738940238952636719e+01 -1.315161514282226562e+01 -3.309789597988128662e-01 5.151976108551025391e+00 1.446299076080322266e+00 -8.630987405776977539e-01
1.106000000000000000e+03 2.740167236328125000e+01 -1.180608844757080078e+01 -1.314038187265396118e-01 6.101120471954345703e+00 1.790915012359619141e+00 -1.270292639732360840e+00
1.107000000000000000e+03 2.690212821960449219e+01 -9.893943786621093750e+00 3.651152849197387695e-01 8.600742340087890625e+00 2.689757347106933594e+00 -2.183102369308471680e+00
1.108000000000000000e+03 2.790304374694824219e+01 -8.720888137817382812e+00 2.523125648498535156e+00 6.954524040222167969e+00 2.843294858932495117e+00 -2.614494800567626953e+00
1.109000000000000000e+03 2.897077941894531250e+01 -6.673414707183837891e+00 1.979918718338012695e+00 4.346095085144042969e+00 1.897804141044616699e+00 -1.583762049674987793e+00
1.110000000000000000e+03 2.954496765136718750e+01 -6.889151096343994141e+00 1.783835291862487793e+00 3.360560178756713867e+00 1.543318629264831543e+00 -1.619714140892028809e+00
1.111000000000000000e+03 2.766578292846679688e+01 -3.176640319824218750e+01 -3.736608847975730896e-02 2.336296558380126953e+00 6.896791458129882812e-01 -3.361728042364120483e-02
1.112000000000000000e+03 2.696970939636230469e+01 -2.962198829650878906e+01 -2.563068456947803497e-02 2.320179700851440430e+00 6.883646845817565918e-01 -1.747511513531208038e-02
1.113000000000000000e+03 2.776024818420410156e+01 -2.724960327148437500e+01 1.141134463250637054e-02 2.446718931198120117e+00 7.374390363693237305e-01 -5.183514952659606934e-02
1.114000000000000000e+03 2.865685081481933594e+01 -2.517117881774902344e+01 6.076319143176078796e-02 2.609018325805664062e+00 8.009344339370727539e-01 -1.245187744498252869e-01
1.115000000000000000e+03 2.683937072753906250e+01 -2.228052711486816406e+01 -5.519760772585868835e-03 2.619640588760375977e+00 7.842361927032470703e-01 -1.062943637371063232e-01
1.116000000000000000e+03 2.699097824096679688e+01 -2.034018135070800781e+01 -4.549995064735412598e-03 2.826822757720947266e+00 8.466818332672119141e-01 -1.755412966012954712e-01
1.117000000000000000e+03 2.810004997253417969e+01 -1.756622314453125000e+01 -6.548829376697540283e-02 3.359412670135498047e+00 9.881772994995117188e-01 -5.205370783805847168e-01
1.118000000000000000e+03 2.921110725402832031e+01 -1.500664234161376953e+01 7.294933497905731201e-02 3.805904150009155273e+00 1.163655996322631836e+00 -1.168363809585571289e+00
1.119000000000000000e+03 2.939881134033203125e+01 -1.351264858245849609e+01 1.866429448127746582e-01 4.173759460449218750e+00 1.308120727539062500e+00 -1.624754190444946289e+00
1.120000000000000000e+03 2.852642059326171875e+01 -1.188031864166259766e+01 3.785934746265411377e-01 5.055382728576660156e+00 1.630192875862121582e+00 -1.946633815765380859e+00
1.121000000000000000e+03 2.861290550231933594e+01 -1.060159111022949219e+01 1.007763266563415527e+00 5.288166046142578125e+00 1.888778805732727051e+00 -2.542188882827758789e+00
1.122000000000000000e+03 2.976239967346191406e+01 -3.703416824340820312e+01 -6.013951450586318970e-02 2.468704462051391602e+00 7.225694656372070312e-01 -4.710277915000915527e-02
1.123000000000000000e+03 3.049458885192871094e+01 -3.329790115356445312e+01 -3.545730188488960266e-02 2.567875623703002930e+00 7.597254514694213867e-01 -7.468240708112716675e-02
1.124000000000000000e+03 2.927402305603027344e+01 -2.684493064880371094e+01 3.290256112813949585e-02 2.593594551086425781e+00 7.879490852355957031e-01 -1.123817861080169678e-01
1.125000000000000000e+03 3.007734489440917969e+01 -2.484243202209472656e+01 1.068722233176231384e-01 2.709333658218383789e+00 8.448617458343505859e-01 -1.945322453975677490e-01
1.126000000000000000e+03 2.909123611450195312e+01 -2.212185668945312500e+01 1.103168278932571411e-01 2.775453329086303711e+00 8.657310009002685547e-01 -3.138120472431182861e-01
1.127000000000000000e+03 2.925368690490722656e+01 -2.036507797241210938e+01 1.194890663027763367e-01 2.903056144714355469e+00 9.067635536193847656e-01 -4.547635614871978760e-01
1.128000000000000000e+03 2.930925178527832031e+01 -1.855703163146972656e+01 1.271533370018005371e-01 3.095812082290649414e+00 9.668896198272705078e-01 -6.462574005126953125e-01
1.129000000000000000e+03 3.075515365600585938e+01 -1.715046501159667969e+01 2.724086940288543701e-01 3.123328924179077148e+00 1.018721342086791992e+00 -1.037336587905883789e+00
1.130000000000000000e+03 3.011885261535644531e+01 -1.552369499206542969e+01 2.412258088588714600e-01 3.447861194610595703e+00 1.106726050376892090e+00 -1.246221661567687988e+00
1.131000000000000000e+03 3.001649475097656250e+01 -1.368552970886230469e+01 3.961631655693054199e-01 3.733256578445434570e+00 1.238825917243957520e+00 -1.703461527824401855e+00
1.132000000000000000e+03 3.134160232543945312e+01 -1.104686069488525391e+01 1.321868538856506348e+00 2.738019704818725586e+00 1.217966437339782715e+00 -2.041790962219238281e+00
1.133000000000000000e+03 3.037303733825683594e+01 -9.898172378540039062e+00 1.574995040893554688e+00 3.104150056838989258e+00 1.403743505477905273e+00 -2.419657707214355469e+00
1.134000000000000000e+03 3.089229202270507812e+01 -1.048052024841308594e+01 1.450035929679870605e+00 2.808249950408935547e+00 1.277485728263854980e+00 -2.289993524551391602e+00
1.135000000000000000e+03 2.933926010131835938e+01 -3.117479896545410156e+01 -2.947225607931613922e-02 2.503312587738037109e+00 7.421520948410034180e-01 -6.387257575988769531e-02
1.136000000000000000e+03 3.000840568542480469e+01 -2.861764526367187500e+01 1.769592240452766418e-02 2.607944488525390625e+00 7.876921296119689941e-01 -9.635872393846511841e-02
1.137000000000000000e+03 3.073957443237304688e+01 -2.641513252258300781e+01 8.630672097206115723e-02 2.722527503967285156e+00 8.426502943038940430e-01 -1.515830010175704956e-01
1.138000000000000000e+03 3.132485389709472656e+01 -2.445149803161621094e+01 1.895030140876770020e-01 2.786177158355712891e+00 8.927040696144104004e-01 -2.169085144996643066e-01
1.139000000000000000e+03 3.041524124145507812e+01 -1.985886955261230469e+01 2.382158190011978149e-01 2.936726331710815430e+00 9.524826407432556152e-01 -5.702109932899475098e-01
1.140000000000000000e+03 3.157600212097167969e+01 -1.730247306823730469e+01 4.733870625495910645e-01 2.929311990737915039e+00 1.020809650421142578e+00 -1.053216099739074707e+00
1.141000000000000000e+03 3.269177246093750000e+01 -1.544700431823730469e+01 6.670667529106140137e-01 2.704254627227783203e+00 1.011396408081054688e+00 -1.432041406631469727e+00
1.142000000000000000e+03 3.239569854736328125e+01 -1.372831535339355469e+01 8.189051151275634766e-01 2.743152856826782227e+00 1.068617343902587891e+00 -1.620562911033630371e+00
1.143000000000000000e+03 3.232903671264648438e+01 -1.137721729278564453e+01 1.319899678230285645e+00 2.404065847396850586e+00 1.117189645767211914e+00 -1.752413034439086914e+00
1.144000000000000000e+03 3.299166870117187500e+01 -1.276943492889404297e+01 1.034197807312011719e+00 2.456151247024536133e+00 1.047104716300964355e+00 -1.604323267936706543e+00
1.145000000000000000e+03 3.148743820190429688e+01 -4.054038619995117188e+01 -4.106255620718002319e-02 2.602990388870239258e+00 7.685783505439758301e-01 -1.788373850286006927e-02
1.146000000000000000e+03 3.459077453613281250e+01 -3.867304229736328125e+01 -4.177473485469818115e-03 2.800060033798217773e+00 8.387647867202758789e-01 -5.567273125052452087e-02
1.147000000000000000e+03 3.392378234863281250e+01 -3.360879516601562500e+01 -1.122957654297351837e-02 2.820775270462036133e+00 8.428637385368347168e-01 -1.344553083181381226e-01
1.148000000000000000e+03 3.078739929199218750e+01 -3.042559814453125000e+01 -1.750858314335346222e-02 2.626200914382934570e+00 7.826076745986938477e-01 -9.916962683200836182e-02
1.149000000000000000e+03 3.152009010314941406e+01 -2.811628150939941406e+01 4.147109016776084900e-02 2.753121852874755859e+00 8.383778929710388184e-01 -1.433690339326858521e-01
1.150000000000000000e+03 3.206565856933593750e+01 -2.591691780090332031e+01 1.202620789408683777e-01 2.824862480163574219e+00 8.835373520851135254e-01 -1.894803941249847412e-01
1.151000000000000000e+03 3.237614822387695312e+01 -2.405496597290039062e+01 2.124879360198974609e-01 2.847240209579467773e+00 9.179183840751647949e-01 -2.530064284801483154e-01
1.152000000000000000e+03 3.299572753906250000e+01 -1.863022994995117188e+01 6.366569995880126953e-01 2.685961008071899414e+00 9.967854022979736328e-01 -8.119177818298339844e-01
1.153000000000000000e+03 3.325279617309570312e+01 -1.771121978759765625e+01 8.239917755126953125e-01 2.574634790420532227e+00 1.019587993621826172e+00 -1.017788648605346680e+00
1.154000000000000000e+03 3.358012390136718750e+01 -1.519689941406250000e+01 7.297691702842712402e-01 2.468192815780639648e+00 9.593886137008666992e-01 -1.389323472976684570e+00
1.155000000000000000e+03 3.431777191162109375e+01 -1.405749320983886719e+01 8.528497815132141113e-01 2.144463777542114258e+00 8.991940617561340332e-01 -1.400675058364868164e+00
1.156000000000000000e+03 3.412967681884765625e+01 -1.134407520294189453e+01 1.405859470367431641e+00 1.903453469276428223e+00 9.927939176559448242e-01 -1.650487422943115234e+00
1.157000000000000000e+03 3.229483032226562500e+01 -3.005505180358886719e+01 1.644238643348217010e-02 2.773698329925537109e+00 8.370422124862670898e-01 -1.362417042255401611e-01
1.158000000000000000e+03 3.295914077758789062e+01 -2.754838371276855469e+01 8.565970510244369507e-02 2.862890481948852539e+00 8.845650553703308105e-01 -1.658506244421005249e-01
1.159000000000000000e+03 3.322136688232421875e+01 -2.525958633422851562e+01 2.056839466094970703e-01 2.898212432861328125e+00 9.311689734458923340e-01 -1.976825147867202759e-01
1.160000000000000000e+03 3.411813735961914062e+01 -2.436301612854003906e+01 2.706087231636047363e-01 2.939291954040527344e+00 9.629701972007751465e-01 -2.206738442182540894e-01
1.161000000000000000e+03 3.359390640258789062e+01 -2.250584030151367188e+01 4.409135878086090088e-01 2.839560985565185547e+00 9.841424226760864258e-01 -3.086465299129486084e-01
1.162000000000000000e+03 3.411953353881835938e+01 -2.148587226867675781e+01 5.666115880012512207e-01 2.804279327392578125e+00 1.011267304420471191e+00 -3.382713496685028076e-01
1.163000000000000000e+03 3.460749816894531250e+01 -1.861026763916015625e+01 9.882254600524902344e-01 2.455602645874023438e+00 1.033148407936096191e+00 -7.357354164123535156e-01
1.164000000000000000e+03 3.592451477050781250e+01 -1.704249572753906250e+01 1.443505167961120605e+00 1.878515839576721191e+00 9.966062903404235840e-01 -1.018083930015563965e+00
1.165000000000000000e+03 3.508142471313476562e+01 -1.581745719909667969e+01 1.069936633110046387e+00 2.021469354629516602e+00 9.274218082427978516e-01 -1.291782379150390625e+00
1.166000000000000000e+03 3.550994491577148438e+01 -1.525223064422607422e+01 8.028028011322021484e-01 1.904156327247619629e+00 8.120877146720886230e-01 -1.319492578506469727e+00
1.167000000000000000e+03 3.634605789184570312e+01 -3.562496566772460938e+01 3.928146883845329285e-02 2.957657814025878906e+00 8.990817666053771973e-01 -1.391546577215194702e-01
1.168000000000000000e+03 3.390513610839843750e+01 -2.952287292480468750e+01 2.803666330873966217e-02 2.900001287460327148e+00 8.784114122390747070e-01 -1.670987904071807861e-01
1.169000000000000000e+03 3.435143280029296875e+01 -2.670554924011230469e+01 1.159400939941406250e-01 2.977557420730590820e+00 9.280492663383483887e-01 -1.940811425447463989e-01
1.170000000000000000e+03 3.541164016723632812e+01 -2.547213745117187500e+01 2.040782719850540161e-01 3.072400331497192383e+00 9.829435944557189941e-01 -1.945928484201431274e-01
1.171000000000000000e+03 3.601599884033203125e+01 -2.406710815429687500e+01 2.998043894767761230e-01 3.118485927581787109e+00 1.025487065315246582e+00 -1.751930266618728638e-01
1.172000000000000000e+03 3.649507141113281250e+01 -2.273739814758300781e+01 4.715619981288909912e-01 3.124384641647338867e+00 1.078783988952636719e+00 -1.088764518499374390e-01
1.173000000000000000e+03 3.565343856811523438e+01 -2.097512245178222656e+01 7.833344340324401855e-01 2.806057214736938477e+00 1.076817512512207031e+00 -2.016971856355667114e-01
1.174000000000000000e+03 3.707970809936523438e+01 -1.955726814270019531e+01 1.223801732063293457e+00 2.727167606353759766e+00 1.185290813446044922e+00 2.004348672926425934e-02
1.175000000000000000e+03 3.761675262451171875e+01 -1.489626884460449219e+01 6.055224537849426270e-01 7.839508652687072754e-01 4.168419837951660156e-01 -9.039850831031799316e-01
1.176000000000000000e+03 3.817734146118164062e+01 -4.055547332763671875e+01 6.262938678264617920e-02 2.981172561645507812e+00 9.131405353546142578e-01 -4.727912694215774536e-02
1.177000000000000000e+03 3.753370285034179688e+01 -3.300933456420898438e+01 4.034397751092910767e-02 3.044512987136840820e+00 9.254570603370666504e-01 -2.067386806011199951e-01
1.178000000000000000e+03 3.652368164062500000e+01 -2.980382537841796875e+01 3.733754158020019531e-02 3.082230091094970703e+00 9.358702898025512695e-01 -2.287857383489608765e-01
1.179000000000000000e+03 3.690839767456054688e+01 -2.808768272399902344e+01 7.974189519882202148e-02 3.150162696838378906e+00 9.689713716506958008e-01 -2.318529337644577026e-01
1.180000000000000000e+03 3.705255508422851562e+01 -2.629750633239746094e+01 1.258877068758010864e-01 3.207623720169067383e+00 1.000053405761718750e+00 -2.193986028432846069e-01
1.181000000000000000e+03 3.740368270874023438e+01 -2.469810295104980469e+01 2.245926856994628906e-01 3.265789747238159180e+00 1.047114729881286621e+00 -1.758813261985778809e-01
1.182000000000000000e+03 3.836213302612304688e+01 -2.257666969299316406e+01 3.820213675498962402e-01 3.449442863464355469e+00 1.149439215660095215e+00 -7.054661959409713745e-02
1.183000000000000000e+03 3.679907989501953125e+01 -2.141506195068359375e+01 6.787887215614318848e-01 3.082002401351928711e+00 1.128237247467041016e+00 -5.232684314250946045e-02
1.184000000000000000e+03 3.847294616699218750e+01 -1.869809913635253906e+01 1.691740155220031738e+00 2.985569477081298828e+00 1.403192877769470215e+00 6.699853539466857910e-01
1.185000000000000000e+03 3.882491302490234375e+01 -1.793800163269042969e+01 1.958054542541503906e+00 2.915591716766357422e+00 1.462093830108642578e+00 8.469375967979431152e-01
1.186000000000000000e+03 4.279475021362304688e+01 -3.756283950805664062e+01 1.782254725694656372e-01 3.195797920227050781e+00 1.012207031250000000e+00 -1.257678419351577759e-01
1.187000000000000000e+03 4.251727294921875000e+01 -2.926828575134277344e+01 1.510879099369049072e-01 3.203559875488281250e+00 1.006394386291503906e+00 -4.283888638019561768e-01
1.188000000000000000e+03 4.251520156860351562e+01 -2.718856239318847656e+01 1.313141882419586182e-01 3.273345470428466797e+00 1.021397948265075684e+00 -5.139718651771545410e-01
1.189000000000000000e+03 4.294910049438476562e+01 -2.368016052246093750e+01 4.307253286242485046e-02 3.484411239624023438e+00 1.058245062828063965e+00 -6.938884258270263672e-01
1.190000000000000000e+03 4.343727874755859375e+01 -1.858463096618652344e+01 3.570337295532226562e-01 4.272388935089111328e+00 1.388826847076416016e+00 -9.152082800865173340e-01
1.191000000000000000e+03 4.432683944702148438e+01 -1.731210327148437500e+01 7.192961573600769043e-01 3.576812267303466797e+00 1.288832545280456543e+00 -6.427917480468750000e-01
1.192000000000000000e+03 4.612304687500000000e+01 -1.546545505523681641e+01 -2.410891503095626831e-01 1.917181253433227539e+00 5.028276443481445312e-01 1.623599082231521606e-01
1.193000000000000000e+03 4.575881958007812500e+01 -1.340526485443115234e+01 -9.510045647621154785e-01 2.687137365341186523e+00 5.208398103713989258e-01 8.309110999107360840e-01
1.194000000000000000e+03 4.627911758422851562e+01 -1.190210151672363281e+01 -1.288600444793701172e+00 2.050818204879760742e+00 2.286653220653533936e-01 6.594442129135131836e-01
1.195000000000000000e+03 4.561711120605468750e+01 -3.424999237060546875e+01 2.856581211090087891e-01 3.270533561706542969e+00 1.066857457160949707e+00 -1.670670956373214722e-01
1.196000000000000000e+03 4.472733306884765625e+01 -3.160943794250488281e+01 2.777436375617980957e-01 3.154744625091552734e+00 1.029746413230895996e+00 -2.940377295017242432e-01
1.197000000000000000e+03 4.440832138061523438e+01 -2.935192871093750000e+01 2.699180841445922852e-01 3.102620601654052734e+00 1.011761665344238281e+00 -4.301763772964477539e-01
1.198000000000000000e+03 4.432349777221679688e+01 -2.746809768676757812e+01 2.236713021993637085e-01 3.103674650192260742e+00 9.982038140296936035e-01 -5.650714635848999023e-01
1.199000000000000000e+03 4.579111099243164062e+01 -2.567804527282714844e+01 3.139548301696777344e-01 2.857578992843627930e+00 9.514601230621337891e-01 -6.626721620559692383e-01
1.200000000000000000e+03 4.491528701782226562e+01 -2.251218986511230469e+01 1.214657053351402283e-01 3.082655668258666992e+00 9.612364172935485840e-01 -9.280852675437927246e-01
1.201000000000000000e+03 4.592975234985351562e+01 -1.818508911132812500e+01 6.087337806820869446e-02 2.401479721069335938e+00 7.387059330940246582e-01 -7.839063405990600586e-01
1.202000000000000000e+03 4.491770935058593750e+01 -1.697931671142578125e+01 3.352228999137878418e-01 3.071685314178466797e+00 1.022072434425354004e+00 -4.749034941196441650e-01
1.203000000000000000e+03 4.801295471191406250e+01 -1.501377964019775391e+01 -9.412602782249450684e-01 -2.299107313156127930e-01 -3.513512909412384033e-01 7.371370792388916016e-01
1.204000000000000000e+03 4.837895584106445312e+01 -1.331640338897705078e+01 -1.530845642089843750e+00 -1.640098094940185547e+00 -9.512831568717956543e-01 1.562684774398803711e+00
1.205000000000000000e+03 5.987159347534179688e+01 -3.738177871704101562e+01 1.469498723745346069e-01 4.744365215301513672e+00 1.467394590377807617e+00 6.174264848232269287e-02
1.206000000000000000e+03 4.728006362915039062e+01 -4.086714172363281250e+01 2.734095156192779541e-01 3.460698604583740234e+00 1.120232462882995605e+00 -2.388438768684864044e-02
1.207000000000000000e+03 4.666107177734375000e+01 -3.744919586181640625e+01 2.754221260547637939e-01 3.403256893157958984e+00 1.103603720664978027e+00 -7.742000371217727661e-02
1.208000000000000000e+03 4.644463729858398438e+01 -3.123474884033203125e+01 3.464832901954650879e-01 3.141744375228881836e+00 1.046468377113342285e+00 -2.578248083591461182e-01
1.209000000000000000e+03 4.621945190429687500e+01 -2.929591941833496094e+01 3.718507587909698486e-01 3.038740158081054688e+00 1.023177266120910645e+00 -3.398807942867279053e-01
1.210000000000000000e+03 4.615135574340820312e+01 -2.743154907226562500e+01 3.922823667526245117e-01 2.877865076065063477e+00 9.810442328453063965e-01 -4.794727265834808350e-01
1.211000000000000000e+03 4.719655990600585938e+01 -2.511899948120117188e+01 4.633646309375762939e-01 2.536644935607910156e+00 9.000028371810913086e-01 -5.609390139579772949e-01
1.212000000000000000e+03 4.570952987670898438e+01 -2.192316436767578125e+01 1.239144355058670044e-01 2.732523202896118164e+00 8.569312691688537598e-01 -1.037445545196533203e+00
1.213000000000000000e+03 4.741254425048828125e+01 -1.904736137390136719e+01 -1.465866863727569580e-01 1.509325146675109863e+00 4.088215231895446777e-01 -7.271191477775573730e-01
1.214000000000000000e+03 4.716770172119140625e+01 -1.670329856872558594e+01 -3.871577084064483643e-01 1.192122220993041992e+00 2.414893656969070435e-01 -1.578061580657958984e-01
1.215000000000000000e+03 4.955302810668945312e+01 -1.547117710113525391e+01 -1.506135225296020508e+00 -1.278041958808898926e+00 -8.352531194686889648e-01 1.358690261840820312e+00
1.216000000000000000e+03 4.962137603759765625e+01 -3.391170501708984375e+01 3.491203188896179199e-01 3.457729578018188477e+00 1.142054915428161621e+00 -9.157706983387470245e-03
1.217000000000000000e+03 4.796191406250000000e+01 -3.124272537231445312e+01 4.043194055557250977e-01 3.220137834548950195e+00 1.087337136268615723e+00 -1.143893077969551086e-01
1.218000000000000000e+03 4.797403335571289062e+01 -2.937669372558593750e+01 4.507183134555816650e-01 3.020345687866210938e+00 1.041319251060485840e+00 -1.923921555280685425e-01
1.219000000000000000e+03 4.802695083618164062e+01 -2.753728294372558594e+01 4.990517199039459229e-01 2.802871942520141602e+00 9.905771017074584961e-01 -2.566997408866882324e-01
1.220000000000000000e+03 4.841774749755859375e+01 -2.476263999938964844e+01 5.536074042320251465e-01 2.289086818695068359e+00 8.528082370758056641e-01 -3.956823945045471191e-01
1.221000000000000000e+03 4.826226043701171875e+01 -2.127342414855957031e+01 1.999980658292770386e-01 1.496046185493469238e+00 5.088132619857788086e-01 -7.355427145957946777e-01
1.222000000000000000e+03 4.733105087280273438e+01 -2.033700180053710938e+01 5.134287104010581970e-02 1.775949478149414062e+00 5.481877326965332031e-01 -8.942305445671081543e-01
1.223000000000000000e+03 4.873454666137695312e+01 -1.799212646484375000e+01 -6.984128952026367188e-01 4.718161821365356445e-01 -6.797900795936584473e-02 -8.274768292903900146e-02
1.224000000000000000e+03 4.955896377563476562e+01 -1.644008636474609375e+01 -1.400636792182922363e+00 -7.434865236282348633e-01 -6.432369947433471680e-01 9.570110440254211426e-01
1.225000000000000000e+03 4.908163070678710938e+01 -1.594899177551269531e+01 -1.152334451675415039e+00 -7.174887657165527344e-01 -5.609469413757324219e-01 9.123136997222900391e-01
1.226000000000000000e+03 5.060152053833007812e+01 -3.702943038940429688e+01 3.042445778846740723e-01 3.682374000549316406e+00 1.195985555648803711e+00 1.470784936100244522e-02
1.227000000000000000e+03 4.954694366455078125e+01 -3.157927131652832031e+01 4.135511219501495361e-01 3.296829938888549805e+00 1.113114356994628906e+00 -1.472435146570205688e-02
1.228000000000000000e+03 4.983374023437500000e+01 -2.780312728881835938e+01 5.464329123497009277e-01 2.870864391326904297e+00 1.025189280509948730e+00 2.694032154977321625e-02
1.229000000000000000e+03 5.026609039306640625e+01 -2.210589408874511719e+01 4.661386311054229736e-01 1.214172959327697754e+00 5.040934681892395020e-01 -8.679592609405517578e-02
1.230000000000000000e+03 4.828179931640625000e+01 -2.039591598510742188e+01 -2.252462692558765411e-02 1.390107393264770508e+00 4.102748036384582520e-01 -6.819115877151489258e-01
1.231000000000000000e+03 5.091947174072265625e+01 -1.906304359436035156e+01 -1.018905758857727051e+00 -1.404249668121337891e-01 -3.477992117404937744e-01 2.537267804145812988e-01
1.232000000000000000e+03 5.161017608642578125e+01 -1.671738624572753906e+01 -2.190637826919555664e+00 -1.959993362426757812e+00 -1.245189309120178223e+00 1.953083038330078125e+00
1.233000000000000000e+03 5.686088180541992188e+01 -4.065377807617187500e+01 2.162071317434310913e-01 4.365812301635742188e+00 1.374605894088745117e+00 2.776125259697437286e-02
1.234000000000000000e+03 5.095000839233398438e+01 -3.160058784484863281e+01 4.069790840148925781e-01 3.416097879409790039e+00 1.146923065185546875e+00 8.404808491468429565e-02
1.235000000000000000e+03 5.100144958496093750e+01 -3.011902999877929688e+01 4.369733631610870361e-01 3.296736001968383789e+00 1.120112776756286621e+00 1.365536004304885864e-01
1.236000000000000000e+03 5.182684707641601562e+01 -2.919419860839843750e+01 4.408095777034759521e-01 3.297655344009399414e+00 1.121539473533630371e+00 2.378815859556198120e-01
1.237000000000000000e+03 5.146165084838867188e+01 -2.779421043395996094e+01 5.086048245429992676e-01 3.112138986587524414e+00 1.086223125457763672e+00 2.963089644908905029e-01
1.238000000000000000e+03 5.169592285156250000e+01 -2.452866935729980469e+01 6.672554612159729004e-01 2.350590229034423828e+00 9.053537249565124512e-01 6.217938661575317383e-01
1.239000000000000000e+03 5.192706298828125000e+01 -2.320297241210937500e+01 6.482756733894348145e-01 1.766322731971740723e+00 7.243795394897460938e-01 7.440949678421020508e-01
1.240000000000000000e+03 5.118207931518554688e+01 -2.203169822692871094e+01 6.442232131958007812e-01 9.924845695495605469e-01 4.910123348236083984e-01 3.837775588035583496e-01
1.241000000000000000e+03 5.304539489746093750e+01 -1.978097152709960938e+01 -1.878300309181213379e-01 -7.760547399520874023e-01 -2.891654372215270996e-01 1.243396401405334473e+00
1.242000000000000000e+03 5.111124801635742188e+01 -1.997296142578125000e+01 -4.308126568794250488e-01 3.019370697438716888e-02 -1.201856806874275208e-01 2.157595008611679077e-01
1.243000000000000000e+03 5.335703659057617188e+01 -3.578687667846679688e+01 2.880975008010864258e-01 3.954773664474487305e+00 1.272861361503601074e+00 8.917579799890518188e-02
1.244000000000000000e+03 5.461664581298828125e+01 -3.371744918823242188e+01 2.395042628049850464e-01 4.105546951293945312e+00 1.303515315055847168e+00 1.878961175680160522e-01
1.245000000000000000e+03 5.194889068603515625e+01 -3.106582832336425781e+01 3.743387162685394287e-01 3.537492990493774414e+00 1.173549532890319824e+00 1.879012137651443481e-01
1.246000000000000000e+03 5.267252349853515625e+01 -3.013520240783691406e+01 3.395585119724273682e-01 3.636584043502807617e+00 1.192842721939086914e+00 2.636811137199401855e-01
1.247000000000000000e+03 5.299227905273437500e+01 -2.907102584838867188e+01 3.577764630317687988e-01 3.577168941497802734e+00 1.180483698844909668e+00 3.885838687419891357e-01
1.248000000000000000e+03 5.427367019653320312e+01 -2.653404617309570312e+01 1.601614058017730713e-01 3.845986127853393555e+00 1.201844334602355957e+00 7.986825704574584961e-01
1.249000000000000000e+03 5.358540344238281250e+01 -2.434099769592285156e+01 3.790032565593719482e-01 3.127330064773559570e+00 1.051899909973144531e+00 1.259454846382141113e+00
1.250000000000000000e+03 5.294812011718750000e+01 -2.097570419311523438e+01 5.226531624794006348e-01 9.793153405189514160e-01 4.505905508995056152e-01 1.793631196022033691e+00
1.251000000000000000e+03 5.705007553100585938e+01 -3.233048248291015625e+01 1.249273121356964111e-01 4.452634811401367188e+00 1.373268604278564453e+00 2.492475956678390503e-01
1.252000000000000000e+03 5.385213470458984375e+01 -3.093451690673828125e+01 2.673243284225463867e-01 3.895113229751586914e+00 1.248731255531311035e+00 2.903880178928375244e-01
1.253000000000000000e+03 5.595510482788085938e+01 -2.812915039062500000e+01 1.626143977046012878e-02 4.400704383850097656e+00 1.325089693069458008e+00 5.758220553398132324e-01
1.254000000000000000e+03 5.515499114990234375e+01 -2.596575546264648438e+01 8.922507986426353455e-03 4.217672348022460938e+00 1.267978429794311523e+00 9.276389479637145996e-01
1.255000000000000000e+03 5.448717498779296875e+01 -2.452737236022949219e+01 7.606600224971771240e-02 3.755144596099853516e+00 1.149363160133361816e+00 1.278113961219787598e+00
1.256000000000000000e+03 5.616813659667968750e+01 -2.216071319580078125e+01 -8.929314613342285156e-01 5.884840488433837891e+00 1.497572779655456543e+00 1.892587304115295410e+00
1.257000000000000000e+03 5.572163391113281250e+01 -2.083141326904296875e+01 -1.046691060066223145e+00 6.254864692687988281e+00 1.562452077865600586e+00 2.987915277481079102e+00
1.258000000000000000e+03 5.482666015625000000e+01 -2.037146377563476562e+01 -6.643083691596984863e-01 3.733034133911132812e+00 9.206177592277526855e-01 3.541306495666503906e+00
1.259000000000000000e+03 5.682073593139648438e+01 -3.463356018066406250e+01 1.855431199073791504e-01 4.385886192321777344e+00 1.371428728103637695e+00 1.779080331325531006e-01
1.260000000000000000e+03 5.878779220581054688e+01 -3.252144241333007812e+01 8.840562403202056885e-02 4.691047191619873047e+00 1.433835744857788086e+00 1.885708868503570557e-01
1.261000000000000000e+03 5.533691787719726562e+01 -3.174300003051757812e+01 1.914411932229995728e-01 4.191638469696044922e+00 1.314924001693725586e+00 2.886097133159637451e-01
1.262000000000000000e+03 5.722952270507812500e+01 -3.030930137634277344e+01 4.660797864198684692e-02 4.567389011383056641e+00 1.384199023246765137e+00 3.350509405136108398e-01
1.263000000000000000e+03 5.746017074584960938e+01 -2.850866889953613281e+01 -9.840749204158782959e-02 4.758838176727294922e+00 1.398129224777221680e+00 4.193732440471649170e-01
1.264000000000000000e+03 5.774163055419921875e+01 -2.688345527648925781e+01 -2.483534961938858032e-01 5.070244312286376953e+00 1.446567296981811523e+00 4.681508839130401611e-01
1.265000000000000000e+03 5.661485290527343750e+01 -2.513396072387695312e+01 -3.601894676685333252e-01 5.050072669982910156e+00 1.406965017318725586e+00 9.261656403541564941e-01
1.266000000000000000e+03 5.739476394653320312e+01 -2.192665863037109375e+01 -1.001459717750549316e+00 6.902839183807373047e+00 1.770413756370544434e+00 6.753642559051513672e-01
1.267000000000000000e+03 5.605056381225585938e+01 -2.007739448547363281e+01 -1.192223906517028809e+00 9.676883697509765625e+00 2.545397996902465820e+00 2.666912317276000977e+00
1.268000000000000000e+03 5.893631744384765625e+01 -2.886929321289062500e+01 -1.049329638481140137e-01 4.999993801116943359e+00 1.468518257141113281e+00 2.348807603120803833e-01
1.269000000000000000e+03 5.927885818481445312e+01 -2.722015953063964844e+01 -2.578177750110626221e-01 5.236943244934082031e+00 1.493737578392028809e+00 2.012702375650405884e-01
1.270000000000000000e+03 5.879032135009765625e+01 -2.374444007873535156e+01 -6.482460498809814453e-01 6.283526897430419922e+00 1.690584301948547363e+00 1.978157311677932739e-01
1.271000000000000000e+03 5.920584487915039062e+01 -2.286121177673339844e+01 -5.958622097969055176e-01 6.394150733947753906e+00 1.739486575126647949e+00 -2.676202654838562012e-01
1.272000000000000000e+03 5.645048522949218750e+01 -3.733612060546875000e+01 2.174661010503768921e-01 4.323880672454833984e+00 1.362404108047485352e+00 9.755339473485946655e-02
1.273000000000000000e+03 5.915160751342773438e+01 -3.475541687011718750e+01 1.258494257926940918e-01 4.661764144897460938e+00 1.436284065246582031e+00 1.249014884233474731e-01
1.274000000000000000e+03 5.993179321289062500e+01 -3.070735359191894531e+01 -6.150154396891593933e-03 4.946282863616943359e+00 1.482039809226989746e+00 1.479351073503494263e-01
1.275000000000000000e+03 6.012370681762695312e+01 -2.942746543884277344e+01 -9.079358726739883423e-02 5.063408374786376953e+00 1.491784453392028809e+00 1.026957333087921143e-01
1.276000000000000000e+03 6.102648162841796875e+01 -2.871853828430175781e+01 -8.969298750162124634e-02 5.175266742706298828e+00 1.525672078132629395e+00 2.128846943378448486e-02
1.277000000000000000e+03 6.086612701416015625e+01 -2.742337226867675781e+01 -1.735701262950897217e-01 5.372185707092285156e+00 1.559584617614746094e+00 -5.100446194410324097e-02
1.278000000000000000e+03 6.108374404907226562e+01 -2.598878860473632812e+01 -2.076884061098098755e-01 5.479888439178466797e+00 1.581660032272338867e+00 -2.237052470445632935e-01
1.279000000000000000e+03 6.112731552124023438e+01 -3.424489212036132812e+01 9.655722230672836304e-02 4.922557830810546875e+00 1.505734562873840332e+00 7.341592013835906982e-02
1.280000000000000000e+03 6.034994125366210938e+01 -3.230817031860351562e+01 4.951654374599456787e-02 4.886757850646972656e+00 1.480882287025451660e+00 1.143037229776382446e-01
1.281000000000000000e+03 6.089970779418945312e+01 -3.038194847106933594e+01 4.399084020406007767e-03 5.054882526397705078e+00 1.517784476280212402e+00 5.184735357761383057e-02
1.282000000000000000e+03 6.171509170532226562e+01 -2.970881843566894531e+01 -1.657514087855815887e-02 5.137884616851806641e+00 1.536392927169799805e+00 -2.170694060623645782e-03
1.283000000000000000e+03 6.239611434936523438e+01 -2.763555526733398438e+01 -2.148170210421085358e-02 5.280539035797119141e+00 1.577717185020446777e+00 -2.017220109701156616e-01
1.284000000000000000e+03 6.412429809570312500e+01 -3.510624694824218750e+01 1.046752929687500000e-01 5.229221343994140625e+00 1.600169062614440918e+00 1.819779165089130402e-02
1.285000000000000000e+03 6.275483322143554688e+01 -3.071461486816406250e+01 5.448248609900474548e-02 5.177829265594482422e+00 1.569693565368652344e+00 -1.543581578880548477e-02
1.286000000000000000e+03 6.352020263671875000e+01 -2.949464035034179688e+01 6.293207406997680664e-02 5.231433391571044922e+00 1.588309764862060547e+00 -1.119250655174255371e-01
1.287000000000000000e+03 6.788724517822265625e+01 -4.101782989501953125e+01 9.465038031339645386e-02 5.584340572357177734e+00 1.703697323799133301e+00 6.284021306782960892e-03
1.288000000000000000e+03 6.142442321777343750e+01 -4.065175628662109375e+01 1.462250649929046631e-01 4.946222782135009766e+00 1.527734398841857910e+00 2.199218235909938812e-02
1.289000000000000000e+03 6.272349929809570312e+01 -3.328144073486328125e+01 8.139253407716751099e-02 5.106749534606933594e+00 1.556442618370056152e+00 3.643028810620307922e-02
1.290000000000000000e+03 6.403742980957031250e+01 -3.195752143859863281e+01 9.261428564786911011e-02 5.245260238647460938e+00 1.601362466812133789e+00 -1.839718781411647797e-02
1.291000000000000000e+03 6.446826934814453125e+01 -3.929151153564453125e+01 1.244362965226173401e-01 5.244931221008300781e+00 1.610810279846191406e+00 2.648703940212726593e-02
1.292000000000000000e+03 6.551976776123046875e+01 -3.340895843505859375e+01 1.112134233117103577e-01 5.377646923065185547e+00 1.646658062934875488e+00 1.509458571672439575e-02
1.293000000000000000e+03 7.198966979980468750e+01 -4.121342849731445312e+01 5.138114839792251587e-02 6.081305027008056641e+00 1.839805841445922852e+00 1.558516919612884521e-02
1.294000000000000000e+03 6.724382019042968750e+01 -3.485677719116210938e+01 1.195656061172485352e-01 5.539637088775634766e+00 1.697760820388793945e+00 4.489353299140930176e-02
1.295000000000000000e+03 6.605683898925781250e+01 -3.695890426635742188e+01 1.147807985544204712e-01 5.445066452026367188e+00 1.667954206466674805e+00 3.674559667706489563e-02
1.296000000000000000e+03 6.860691833496093750e+01 -3.827317810058593750e+01 9.501625597476959229e-02 5.682460784912109375e+00 1.733243227005004883e+00 4.258112609386444092e-02
1.297000000000000000e+03 7.469163513183593750e+01 -4.062050628662109375e+01 3.709372505545616150e-02 6.344255447387695312e+00 1.914404749870300293e+00 6.482096388936042786e-03
1.298000000000000000e+03 7.960874176025390625e+01 -3.168912696838378906e+01 7.978431880474090576e-03 6.975883483886718750e+00 2.095158576965332031e+00 1.417339686304330826e-02
1.299000000000000000e+03 7.882115173339843750e+01 -3.173005676269531250e+01 5.828376743011176586e-04 6.890477657318115234e+00 2.067318201065063477e+00 4.522746428847312927e-02
1.300000000000000000e+03 7.783071899414062500e+01 -3.035193252563476562e+01 2.026135846972465515e-02 6.830029964447021484e+00 2.055087327957153320e+00 9.768162667751312256e-02
1.301000000000000000e+03 7.510714721679687500e+01 -2.787537574768066406e+01 7.335160672664642334e-02 6.488444805145263672e+00 1.968538880348205566e+00 2.430417984724044800e-01
1.302000000000000000e+03 7.432219696044921875e+01 -2.592672920227050781e+01 6.819686293601989746e-02 6.418551921844482422e+00 1.946024537086486816e+00 3.459431231021881104e-01
1.303000000000000000e+03 7.186261749267578125e+01 -2.530541610717773438e+01 2.000078558921813965e-01 5.819335937500000000e+00 1.805803179740905762e+00 4.195168018341064453e-01
1.304000000000000000e+03 6.969491577148437500e+01 -2.262945556640625000e+01 4.674243927001953125e-01 4.868205070495605469e+00 1.600688934326171875e+00 5.482442378997802734e-01
1.305000000000000000e+03 6.854116058349609375e+01 -2.033794021606445312e+01 7.974919676780700684e-01 3.463801145553588867e+00 1.278387904167175293e+00 4.156487882137298584e-01
1.306000000000000000e+03 6.514403533935546875e+01 -1.752050209045410156e+01 5.731008201837539673e-02 3.730489969253540039e+00 1.136340022087097168e+00 -1.193545579910278320e+00
1.307000000000000000e+03 6.361761093139648438e+01 -1.558693218231201172e+01 -1.977949887514114380e-01 5.100539684295654297e+00 1.470823407173156738e+00 -9.611235260963439941e-01
1.308000000000000000e+03 6.275659942626953125e+01 -1.447945308685302734e+01 -2.458434402942657471e-01 6.082484245300292969e+00 1.750992178916931152e+00 -4.977004528045654297e-01
1.309000000000000000e+03 5.989047622680664062e+01 -1.305737495422363281e+01 3.663654327392578125e-01 8.606719017028808594e+00 2.691925287246704102e+00 6.463863849639892578e-01
1.310000000000000000e+03 5.946802520751953125e+01 -1.111481475830078125e+01 2.767004072666168213e-01 8.681914329528808594e+00 2.687584638595581055e+00 9.517167806625366211e-01
1.311000000000000000e+03 5.662473297119140625e+01 -9.162426948547363281e+00 1.930663287639617920e-01 7.718842029571533203e+00 2.373572587966918945e+00 -2.861897349357604980e-01
1.312000000000000000e+03 5.380167388916015625e+01 -6.343422889709472656e+00 -1.165420174598693848e+00 4.396917343139648438e+00 9.694491624832153320e-01 -9.864268302917480469e-01
1.313000000000000000e+03 5.461633300781250000e+01 -8.787995338439941406e+00 3.945465385913848877e-01 5.681696414947509766e+00 1.822872877120971680e+00 -1.608556985855102539e+00
1.314000000000000000e+03 5.501429367065429688e+01 -9.488466262817382812e+00 4.730019569396972656e-01 6.624424457550048828e+00 2.129228115081787109e+00 -1.622841835021972656e+00
1.315000000000000000e+03 7.958311462402343750e+01 -3.010777473449707031e+01 8.299858309328556061e-03 7.051981449127197266e+00 2.118084430694580078e+00 2.041004411876201630e-02
1.316000000000000000e+03 7.873106384277343750e+01 -3.020163536071777344e+01 1.494368887506425381e-03 6.951153278350830078e+00 2.085794448852539062e+00 6.402762979269027710e-02
1.317000000000000000e+03 7.601871490478515625e+01 -2.792828941345214844e+01 4.249837249517440796e-02 6.638480663299560547e+00 2.004293680191040039e+00 2.069073319435119629e-01
1.318000000000000000e+03 7.546697998046875000e+01 -2.624187660217285156e+01 4.055792838335037231e-02 6.611114978790283203e+00 1.995501875877380371e+00 2.831488251686096191e-01
1.319000000000000000e+03 7.336646270751953125e+01 -2.498431205749511719e+01 8.287885040044784546e-02 6.252432823181152344e+00 1.900593519210815430e+00 4.413047730922698975e-01
1.320000000000000000e+03 7.158663940429687500e+01 -2.278570556640625000e+01 1.734440922737121582e-01 5.635525226593017578e+00 1.742690801620483398e+00 7.308015227317810059e-01
1.321000000000000000e+03 7.032067871093750000e+01 -2.078909301757812500e+01 4.363052845001220703e-01 4.706172466278076172e+00 1.542743325233459473e+00 1.146688103675842285e+00
1.322000000000000000e+03 6.888230895996093750e+01 -1.834560203552246094e+01 8.196376562118530273e-01 2.087992429733276367e+00 8.722890019416809082e-01 8.888467550277709961e-01
1.323000000000000000e+03 6.782685089111328125e+01 -1.784452056884765625e+01 3.259695470333099365e-01 1.938306927680969238e+00 6.792829036712646484e-01 -2.865773737430572510e-01
1.324000000000000000e+03 6.485805511474609375e+01 -1.460418033599853516e+01 -5.582818984985351562e-01 3.617217063903808594e+00 9.176805615425109863e-01 -7.664365172386169434e-01
1.325000000000000000e+03 6.301305770874023438e+01 -1.333436107635498047e+01 -4.406566917896270752e-01 6.171044826507568359e+00 1.719116449356079102e+00 -3.068935573101043701e-01
1.326000000000000000e+03 6.213323211669921875e+01 -1.268079662322998047e+01 -2.748277485370635986e-01 7.261129379272460938e+00 2.095890522003173828e+00 1.835186481475830078e-01
1.327000000000000000e+03 5.983781814575195312e+01 -1.051311397552490234e+01 2.058644294738769531e-01 8.669688224792480469e+00 2.662665843963623047e+00 1.047470092773437500e+00
1.328000000000000000e+03 5.759753417968750000e+01 -8.977769851684570312e+00 2.401942014694213867e-01 7.840648174285888672e+00 2.424252748489379883e+00 2.583935558795928955e-01
1.329000000000000000e+03 5.610331344604492188e+01 -7.868388652801513672e+00 -1.309768706560134888e-01 6.648103237152099609e+00 1.955137968063354492e+00 -6.749314069747924805e-01
1.330000000000000000e+03 5.465301513671875000e+01 -4.332875728607177734e+00 -2.399518728256225586e+00 5.845437526702880859e+00 1.033775568008422852e+00 -2.299714088439941406e+00
1.331000000000000000e+03 5.223664093017578125e+01 -4.513616561889648438e+00 -3.848576068878173828e+00 3.440546035766601562e+00 -1.224089786410331726e-01 -3.742323517799377441e-01
1.332000000000000000e+03 7.957022857666015625e+01 -2.850630187988281250e+01 6.125324871391057968e-03 7.149469375610351562e+00 2.146678447723388672e+00 2.593182586133480072e-02
1.333000000000000000e+03 7.870064544677734375e+01 -2.858960533142089844e+01 1.446278300136327744e-03 7.026850700378417969e+00 2.108489036560058594e+00 7.864259928464889526e-02
1.334000000000000000e+03 7.704798126220703125e+01 -2.622236824035644531e+01 9.738654829561710358e-03 6.896139621734619141e+00 2.071763515472412109e+00 1.921038925647735596e-01
1.335000000000000000e+03 7.542079162597656250e+01 -2.473538017272949219e+01 -2.279813028872013092e-02 6.712257862091064453e+00 2.006838083267211914e+00 3.238761126995086670e-01
1.336000000000000000e+03 7.367149353027343750e+01 -2.317199325561523438e+01 -8.427291363477706909e-02 6.485864162445068359e+00 1.920477390289306641e+00 5.595436692237854004e-01
1.337000000000000000e+03 7.239405059814453125e+01 -2.015978050231933594e+01 -2.860415875911712646e-01 6.396107196807861328e+00 1.833019614219665527e+00 1.258657574653625488e+00
1.338000000000000000e+03 6.994837188720703125e+01 -1.894041252136230469e+01 5.099978446960449219e-01 3.700122117996215820e+00 1.263036012649536133e+00 1.743000864982604980e+00
1.339000000000000000e+03 6.618762207031250000e+01 -1.625196075439453125e+01 -5.193315148353576660e-01 2.412740707397460938e+00 5.680227875709533691e-01 -7.413009405136108398e-01
1.340000000000000000e+03 6.546028900146484375e+01 -1.415794658660888672e+01 -7.253092527389526367e-01 2.619240522384643555e+00 5.681793689727783203e-01 -5.531513094902038574e-01
1.341000000000000000e+03 6.369701766967773438e+01 -1.225768280029296875e+01 -4.274759590625762939e-01 5.725782871246337891e+00 1.589492082595825195e+00 -4.685671329498291016e-01
1.342000000000000000e+03 6.171161270141601562e+01 -1.001746654510498047e+01 2.244550883769989014e-01 8.602895736694335938e+00 2.648205280303955078e+00 7.752695679664611816e-01
1.343000000000000000e+03 5.991838073730468750e+01 -8.176576614379882812e+00 6.566225886344909668e-01 8.361762046813964844e+00 2.705515384674072266e+00 1.042609095573425293e+00
1.344000000000000000e+03 5.859037017822265625e+01 -7.578556537628173828e+00 5.401880145072937012e-01 7.448734283447265625e+00 2.396676778793334961e+00 4.473743736743927002e-01
1.345000000000000000e+03 5.614726257324218750e+01 -5.695130348205566406e+00 -7.501675486564636230e-01 5.944598674774169922e+00 1.558329343795776367e+00 -1.421228528022766113e+00
1.346000000000000000e+03 5.494089889526367188e+01 -3.689454078674316406e+00 -2.391587972640991211e+00 6.130401134490966797e+00 1.121643900871276855e+00 -2.982582807540893555e+00
1.347000000000000000e+03 5.314679718017578125e+01 -3.461318731307983398e+00 -3.611252784729003906e+00 5.769843578338623047e+00 6.475773453712463379e-01 -2.073504686355590820e+00
1.348000000000000000e+03 7.957602691650390625e+01 -2.689314079284667969e+01 4.734449088573455811e-03 7.264204025268554688e+00 2.180681467056274414e+00 2.889044024050235748e-02
1.349000000000000000e+03 7.872454071044921875e+01 -2.695168495178222656e+01 -2.665677107870578766e-03 7.127525329589843750e+00 2.137457847595214844e+00 8.683532476425170898e-02
1.350000000000000000e+03 7.706573486328125000e+01 -2.459114646911621094e+01 -3.057473711669445038e-02 7.009013175964355469e+00 2.093531608581542969e+00 1.869923472404479980e-01
1.351000000000000000e+03 7.529769134521484375e+01 -2.303550529479980469e+01 -1.383473426103591919e-01 6.866139411926269531e+00 2.018337726593017578e+00 3.542196154594421387e-01
1.352000000000000000e+03 7.360465240478515625e+01 -2.123148536682128906e+01 -2.869489192962646484e-01 6.783416748046875000e+00 1.948940396308898926e+00 7.344234585762023926e-01
1.353000000000000000e+03 7.261961364746093750e+01 -1.891933631896972656e+01 -6.978545784950256348e-01 7.131493568420410156e+00 1.930091738700866699e+00 1.411833763122558594e+00
1.354000000000000000e+03 6.968875885009765625e+01 -1.805853271484375000e+01 5.003898739814758301e-01 2.345274925231933594e+00 8.536994457244873047e-01 1.908125877380371094e+00
1.355000000000000000e+03 6.862444305419921875e+01 -1.751986312866210938e+01 1.001319810748100281e-01 7.982952594757080078e-01 2.695281803607940674e-01 3.756563663482666016e-01
1.356000000000000000e+03 7.958209991455078125e+01 -2.528093147277832031e+01 2.551698824390769005e-03 7.384259223937988281e+00 2.216043233871459961e+00 2.600174956023693085e-02
1.357000000000000000e+03 7.874543762207031250e+01 -2.532340049743652344e+01 -1.156493462622165680e-02 7.236322879791259766e+00 2.167427301406860352e+00 8.373844623565673828e-02
1.358000000000000000e+03 7.789040374755859375e+01 -2.291523551940917969e+01 -7.989239692687988281e-02 7.250929355621337891e+00 2.151311159133911133e+00 7.109887152910232544e-02
1.359000000000000000e+03 7.534751129150390625e+01 -2.118595123291015625e+01 -3.166688978672027588e-01 7.205389976501464844e+00 2.066616296768188477e+00 3.152037262916564941e-01
1.360000000000000000e+03 7.174837493896484375e+01 -1.637865829467773438e+01 -1.198621988296508789e+00 9.207529067993164062e+00 2.402672052383422852e+00 2.170693397521972656e+00
1.361000000000000000e+03 7.020861816406250000e+01 -1.694189834594726562e+01 2.548621296882629395e-01 1.700712084770202637e+00 5.866722464561462402e-01 3.137745380401611328e+00
1.362000000000000000e+03 7.958177185058593750e+01 -2.367155647277832031e+01 -2.612422686070203781e-03 7.481405258178710938e+00 2.243637800216674805e+00 1.361540332436561584e-02
1.363000000000000000e+03 7.874340057373046875e+01 -2.370344161987304688e+01 -2.650445327162742615e-02 7.329971313476562500e+00 2.191040039062500000e+00 5.613896995782852173e-02
1.364000000000000000e+03 7.790697479248046875e+01 -2.125430870056152344e+01 -1.345339417457580566e-01 7.345984458923339844e+00 2.163435220718383789e+00 -5.783530324697494507e-02
1.365000000000000000e+03 7.603404998779296875e+01 -1.956655883789062500e+01 -4.413660764694213867e-01 7.645291328430175781e+00 2.161177635192871094e+00 -4.815763607621192932e-02
1.366000000000000000e+03 7.390421295166015625e+01 -1.760211563110351562e+01 -6.180476546287536621e-01 8.674687385559082031e+00 2.416991949081420898e+00 4.367335438728332520e-01
1.367000000000000000e+03 7.252463531494140625e+01 -1.609160995483398438e+01 -1.155046373605728149e-01 9.632513046264648438e+00 2.855102300643920898e+00 9.536249637603759766e-01
1.368000000000000000e+03 7.203239440917968750e+01 -1.723476982116699219e+01 -1.021763086318969727e+00 7.812011241912841797e+00 2.037074565887451172e+00 2.252067327499389648e+00
1.369000000000000000e+03 7.958308410644531250e+01 -2.206163597106933594e+01 -8.973268792033195496e-03 7.506154537200927734e+00 2.249154329299926758e+00 -1.384443230926990509e-02
1.370000000000000000e+03 7.874414062500000000e+01 -2.207758712768554688e+01 -4.802512377500534058e-02 7.383626461029052734e+00 2.200680494308471680e+00 -1.477590017020702362e-02
1.371000000000000000e+03 7.803312683105468750e+01 -1.962009048461914062e+01 -1.428184807300567627e-01 7.366106986999511719e+00 2.166986465454101562e+00 -2.326353788375854492e-01
1.372000000000000000e+03 7.563491058349609375e+01 -1.631423759460449219e+01 3.163527250289916992e-01 8.405709266662597656e+00 2.616618633270263672e+00 -4.101416170597076416e-01
1.373000000000000000e+03 7.448915863037109375e+01 -1.631295394897460938e+01 2.629722952842712402e-01 9.083581924438476562e+00 2.803966283798217773e+00 -2.057530134916305542e-01
1.374000000000000000e+03 7.387757110595703125e+01 -1.477577304840087891e+01 1.558451056480407715e+00 9.897645950317382812e+00 3.436829090118408203e+00 4.394567310810089111e-01
1.375000000000000000e+03 7.293968963623046875e+01 -1.423586750030517578e+01 2.385993480682373047e+00 1.113146209716796875e+01 4.055236816406250000e+00 1.157490372657775879e+00
1.376000000000000000e+03 7.961148834228515625e+01 -1.965559577941894531e+01 -1.124190073460340500e-02 7.277862071990966797e+00 2.179986000061035156e+00 -7.676405459642410278e-02
1.377000000000000000e+03 7.882888793945312500e+01 -1.965941047668457031e+01 -4.976047948002815247e-02 7.292391777038574219e+00 2.172789335250854492e+00 -1.860528588294982910e-01
1.378000000000000000e+03 7.756800842285156250e+01 -1.801453018188476562e+01 -1.073345765471458435e-01 7.441398620605468750e+00 2.200219154357910156e+00 -4.133822917938232422e-01
1.379000000000000000e+03 7.515565490722656250e+01 -1.581094646453857422e+01 4.387175738811492920e-01 8.643971443176269531e+00 2.724806785583496094e+00 -2.789755761623382568e-01
1.380000000000000000e+03 7.529837036132812500e+01 -1.432836532592773438e+01 1.062713265419006348e+00 8.832707405090332031e+00 2.968626260757446289e+00 1.163722127676010132e-01
1.381000000000000000e+03 7.365080261230468750e+01 -1.332690525054931641e+01 1.580976963043212891e+00 1.085470008850097656e+01 3.730702877044677734e+00 8.321600556373596191e-01
1.382000000000000000e+03 7.283573913574218750e+01 -1.272646713256835938e+01 5.869955420494079590e-01 1.328151702880859375e+01 4.160553932189941406e+00 9.681249260902404785e-01
1.383000000000000000e+03 7.963787841796875000e+01 -1.805664062500000000e+01 -6.081058178097009659e-03 6.881649017333984375e+00 2.062670469284057617e+00 -1.160522624850273132e-01
1.384000000000000000e+03 7.892084503173828125e+01 -1.807449913024902344e+01 -3.188679739832878113e-02 7.061766147613525391e+00 2.108963727951049805e+00 -2.939465343952178955e-01
1.385000000000000000e+03 7.733335876464843750e+01 -1.504196166992187500e+01 3.391550183296203613e-01 7.538373947143554688e+00 2.363258600234985352e+00 -2.909851968288421631e-01
1.386000000000000000e+03 7.666830444335937500e+01 -1.421610260009765625e+01 5.891529917716979980e-01 7.941086769104003906e+00 2.559072017669677734e+00 -3.019369393587112427e-02
1.387000000000000000e+03 7.516860961914062500e+01 -1.300189685821533203e+01 1.219157457351684570e+00 9.126692771911621094e+00 3.103755235671997070e+00 5.108420848846435547e-01
1.388000000000000000e+03 7.361300659179687500e+01 -1.052474784851074219e+01 1.107787847518920898e+00 1.049037837982177734e+01 3.479449748992919922e+00 3.960246741771697998e-01
1.389000000000000000e+03 7.256679534912109375e+01 -9.294838905334472656e+00 1.285002470016479492e+00 1.051340484619140625e+01 3.539522171020507812e+00 -6.151320934295654297e-01
1.390000000000000000e+03 7.963995361328125000e+01 -1.645347213745117188e+01 1.287592016160488129e-02 6.348062515258789062e+00 1.908281564712524414e+00 -1.199577152729034424e-01
1.391000000000000000e+03 7.892773437500000000e+01 -1.648546791076660156e+01 2.534481883049011230e-02 6.749121665954589844e+00 2.032339811325073242e+00 -3.194926679134368896e-01
1.392000000000000000e+03 7.890045928955078125e+01 -1.569211483001708984e+01 5.800517648458480835e-02 6.618254184722900391e+00 2.002877950668334961e+00 -2.623594403266906738e-01
1.393000000000000000e+03 7.886651611328125000e+01 -1.410318565368652344e+01 1.137806847691535950e-01 6.496538162231445312e+00 1.983095645904541016e+00 -7.331190258264541626e-02
1.394000000000000000e+03 7.885217285156250000e+01 -1.251130390167236328e+01 1.388153582811355591e-01 6.633558750152587891e+00 2.031712293624877930e+00 2.189276069402694702e-01
1.395000000000000000e+03 7.881777191162109375e+01 -1.010690784454345703e+01 9.365285933017730713e-02 7.401905059814453125e+00 2.248667240142822266e+00 6.597234606742858887e-01
1.396000000000000000e+03 7.962770080566406250e+01 -7.641761302947998047e+00 -1.298944186419248581e-02 8.746059417724609375e+00 2.619920969009399414e+00 3.297059834003448486e-01
1.397000000000000000e+03 7.891751861572265625e+01 -6.886414051055908203e+00 -1.044898293912410736e-02 9.217866897583007812e+00 2.762225389480590820e+00 8.892247676849365234e-01
1.398000000000000000e+03 7.896901702880859375e+01 -5.309777259826660156e+00 -4.253973439335823059e-02 1.030397319793701172e+01 3.078430175781250000e+00 8.649320006370544434e-01
1.399000000000000000e+03 7.896463012695312500e+01 -3.735050678253173828e+00 -7.130856812000274658e-02 1.132468223571777344e+01 3.376012086868286133e+00 8.264955282211303711e-01
1.400000000000000000e+03 7.887462615966796875e+01 -2.114056825637817383e+00 -1.557337194681167603e-01 1.210810470581054688e+01 3.585711240768432617e+00 6.917067766189575195e-01
1.401000000000000000e+03 7.880765533447265625e+01 3.833567202091217041e-01 -3.570172190666198730e-01 1.259782028198242188e+01 3.672240734100341797e+00 -2.318236529827117920e-01
1.402000000000000000e+03 7.879343414306640625e+01 2.018649578094482422e+00 -4.159034192562103271e-01 1.193529701232910156e+01 3.455817937850952148e+00 -1.417550325393676758e+00
1.403000000000000000e+03 7.963448333740234375e+01 3.620805263519287109e+00 7.654119282960891724e-02 1.045543956756591797e+01 3.159594297409057617e+00 -7.194104194641113281e-01
1.404000000000000000e+03 7.897264099121093750e+01 5.197225570678710938e+00 1.874616295099258423e-01 8.939531326293945312e+00 2.738097667694091797e+00 -1.443975925445556641e+00
1.405000000000000000e+03 7.681308746337890625e+01 5.050945281982421875e+00 4.250640273094177246e-01 1.343758773803710938e+01 4.158795356750488281e+00 -1.379357695579528809e+00
1.406000000000000000e+03 7.815834045410156250e+01 6.545634269714355469e+00 1.093328833580017090e+00 9.274724006652832031e+00 3.110415697097778320e+00 -1.241696357727050781e+00
1.407000000000000000e+03 7.626047515869140625e+01 7.380552291870117188e+00 3.257116317749023438e+00 1.654276657104492188e+01 5.939964771270751953e+00 -2.561815977096557617e+00
1.408000000000000000e+03 7.959877014160156250e+01 9.215277671813964844e+00 1.063473988324403763e-02 6.548574447631835938e+00 1.967762708663940430e+00 2.937259972095489502e-01
1.409000000000000000e+03 7.879751586914062500e+01 9.184056282043457031e+00 6.237113848328590393e-02 7.829148769378662109e+00 2.367455959320068359e+00 5.740124583244323730e-01
1.410000000000000000e+03 7.792501068115234375e+01 1.163446521759033203e+01 -4.353871047496795654e-01 7.984677791595458984e+00 2.264787197113037109e+00 -2.514676749706268311e-01
1.411000000000000000e+03 7.800943756103515625e+01 1.084779167175292969e+01 -4.912598729133605957e-01 8.182645797729492188e+00 2.307415723800659180e+00 9.858386218547821045e-02
1.412000000000000000e+03 7.959235382080078125e+01 1.083588123321533203e+01 -3.663749247789382935e-02 7.435808181762695312e+00 2.219751119613647461e+00 1.441958099603652954e-01
1.413000000000000000e+03 7.878839874267578125e+01 1.085562419891357422e+01 -2.255956679582595825e-01 7.797370910644531250e+00 2.271532535552978516e+00 1.754109710454940796e-01
1.414000000000000000e+03 7.730892181396484375e+01 1.366040325164794922e+01 -2.766489051282405853e-02 7.122109413146972656e+00 2.128333330154418945e+00 -6.101674437522888184e-01
1.415000000000000000e+03 7.792089080810546875e+01 1.252046108245849609e+01 -1.846460253000259399e-01 7.500465393066406250e+00 2.194745779037475586e+00 -4.196680784225463867e-01
1.416000000000000000e+03 7.959095001220703125e+01 1.244424343109130859e+01 1.329926401376724243e-02 7.596149921417236328e+00 2.282834768295288086e+00 -3.150626271963119507e-02
1.417000000000000000e+03 7.876670837402343750e+01 1.247735404968261719e+01 -1.392936110496520996e-01 7.566194057464599609e+00 2.228070020675659180e+00 -1.359015107154846191e-01
1.418000000000000000e+03 7.745527648925781250e+01 1.499811840057373047e+01 1.191622540354728699e-01 6.866671562194824219e+00 2.095750093460083008e+00 -4.553740918636322021e-01
1.419000000000000000e+03 7.748588562011718750e+01 1.428978252410888672e+01 4.489350691437721252e-02 6.980188369750976562e+00 2.107524633407592773e+00 -4.646103680133819580e-01
1.420000000000000000e+03 7.962841033935546875e+01 1.485669231414794922e+01 -1.350655499845743179e-02 7.156685352325439453e+00 2.142953634262084961e+00 -7.577502727508544922e-02
1.421000000000000000e+03 7.886160278320312500e+01 1.410837936401367188e+01 -2.192015945911407471e-02 7.219152450561523438e+00 2.159169673919677734e+00 -2.382043749094009399e-01
1.422000000000000000e+03 7.738607025146484375e+01 1.723194313049316406e+01 1.580538004636764526e-01 6.669278144836425781e+00 2.048199653625488281e+00 -1.660100370645523071e-01
1.423000000000000000e+03 7.744001770019531250e+01 1.573825359344482422e+01 1.485995054244995117e-01 6.755118846893310547e+00 2.071115493774414062e+00 -3.578642904758453369e-01
1.424000000000000000e+03 7.962985229492187500e+01 1.644971656799316406e+01 -5.243385676294565201e-03 6.859859466552734375e+00 2.056384801864624023e+00 -4.636787250638008118e-02
1.425000000000000000e+03 7.962078094482421875e+01 1.724654197692871094e+01 1.610231399536132812e-02 6.763066768646240234e+00 2.033750772476196289e+00 -3.499446064233779907e-02
1.426000000000000000e+03 7.798700714111328125e+01 1.877159118652343750e+01 8.076778054237365723e-02 6.687694072723388672e+00 2.030538558959960938e+00 -3.695049881935119629e-02
1.427000000000000000e+03 7.889123535156250000e+01 1.646751976013183594e+01 4.638313502073287964e-02 6.850234508514404297e+00 2.068985223770141602e+00 -1.482541263103485107e-01
1.428000000000000000e+03 7.957386779785156250e+01 1.886058044433593750e+01 1.443049591034650803e-02 6.672956943511962891e+00 2.006216287612915039e+00 -2.969401422888040543e-03
1.429000000000000000e+03 7.778508758544921875e+01 2.088722419738769531e+01 4.393156617879867554e-02 6.727715492248535156e+00 2.031494140625000000e+00 7.860258221626281738e-02
1.430000000000000000e+03 7.773072052001953125e+01 1.958044433593750000e+01 7.736230641603469849e-02 6.691323280334472656e+00 2.030605554580688477e+00 2.560981549322605133e-02
1.431000000000000000e+03 7.882656097412109375e+01 1.803903007507324219e+01 4.253915697336196899e-02 6.724472999572753906e+00 2.030103683471679688e+00 -6.141852959990501404e-02
1.432000000000000000e+03 7.957607269287109375e+01 2.129172706604003906e+01 2.919419493991881609e-04 6.722285747528076172e+00 2.016773223876953125e+00 2.585659921169281006e-02
1.433000000000000000e+03 7.799008178710937500e+01 2.226671600341796875e+01 1.749806106090545654e-02 6.768259525299072266e+00 2.035727262496948242e+00 1.003629937767982483e-01
1.434000000000000000e+03 7.861676025390625000e+01 2.058261680603027344e+01 1.867687515914440155e-02 6.713261127471923828e+00 2.019581317901611328e+00 5.169582366943359375e-02
1.435000000000000000e+03 7.878750610351562500e+01 2.218839645385742188e+01 2.096392912790179253e-03 6.777815341949462891e+00 2.033973693847656250e+00 7.186162471771240234e-02
1.436000000000000000e+03 7.794547271728515625e+01 2.381159400939941406e+01 1.813730224967002869e-03 6.832061767578125000e+00 2.050162553787231445e+00 1.187319979071617126e-01
1.437000000000000000e+03 7.796637725830078125e+01 2.303241348266601562e+01 8.647046051919460297e-03 6.801146507263183594e+00 2.042938232421875000e+00 1.163409873843193054e-01
1.438000000000000000e+03 7.959696960449218750e+01 2.289460563659667969e+01 -1.725779613479971886e-03 6.816938400268554688e+00 2.044563770294189453e+00 3.033963404595851898e-02
1.439000000000000000e+03 7.878813171386718750e+01 2.297270202636718750e+01 4.716649651527404785e-03 6.811609745025634766e+00 2.044898033142089844e+00 7.494516670703887939e-02
1.440000000000000000e+03 7.697132110595703125e+01 2.539476394653320312e+01 -8.847535587847232819e-03 6.862878322601318359e+00 2.056209325790405273e+00 1.530318111181259155e-01
1.441000000000000000e+03 7.791529846191406250e+01 2.459193992614746094e+01 -2.570176962763071060e-03 6.868509769439697266e+00 2.059781789779663086e+00 1.209209039807319641e-01
1.442000000000000000e+03 7.958670043945312500e+01 2.528438377380371094e+01 -4.703758168034255505e-04 6.971893787384033203e+00 2.091427087783813477e+00 2.974361740052700043e-02
1.443000000000000000e+03 7.955715179443359375e+01 2.688058853149414062e+01 4.565004564938135445e-05 7.068878650665283203e+00 2.120677232742309570e+00 2.998106554150581360e-02
1.444000000000000000e+03 7.687477111816406250e+01 2.764400291442871094e+01 -1.769842393696308136e-02 6.910574913024902344e+00 2.067862987518310547e+00 1.394826918840408325e-01
1.445000000000000000e+03 7.698477172851562500e+01 2.614157867431640625e+01 -1.114528812468051910e-02 6.877936363220214844e+00 2.060037374496459961e+00 1.470310539007186890e-01
1.446000000000000000e+03 7.957666015625000000e+01 2.608081245422363281e+01 3.867804189212620258e-04 7.021631240844726562e+00 2.106605291366577148e+00 2.964083850383758545e-02
1.447000000000000000e+03 7.952184295654296875e+01 2.769124603271484375e+01 3.276113711763173342e-04 7.115421295166015625e+00 2.134724617004394531e+00 3.032042086124420166e-02
1.448000000000000000e+03 7.718459320068359375e+01 2.983555984497070312e+01 -1.794637925922870636e-02 7.000421524047851562e+00 2.094742536544799805e+00 1.088246703147888184e-01
1.449000000000000000e+03 7.867697143554687500e+01 2.689023399353027344e+01 -1.618728711036965251e-04 7.010297775268554688e+00 2.103040695190429688e+00 7.575793564319610596e-02
1.450000000000000000e+03 7.946051788330078125e+01 2.932669830322265625e+01 5.502726417034864426e-04 7.193029403686523438e+00 2.158073902130126953e+00 2.779359184205532074e-02
1.451000000000000000e+03 7.777889251708984375e+01 3.129765129089355469e+01 -1.108204573392868042e-02 7.093743801116943359e+00 2.124798536300659180e+00 7.534284144639968872e-02
1.452000000000000000e+03 7.838465881347656250e+01 2.855821037292480469e+01 -5.824956577271223068e-03 7.060725688934326172e+00 2.116470336914062500e+00 7.864406704902648926e-02
1.453000000000000000e+03 7.952055358886718750e+01 3.094007873535156250e+01 -3.711206227308139205e-05 7.264712333679199219e+00 2.179402589797973633e+00 2.391924336552619934e-02
1.454000000000000000e+03 7.753224182128906250e+01 3.280027389526367188e+01 -2.193691767752170563e-02 7.100005626678466797e+00 2.123420476913452148e+00 7.376602292060852051e-02
1.455000000000000000e+03 7.860903167724609375e+01 3.188963127136230469e+01 -9.491772390902042389e-03 7.196931838989257812e+00 2.156232118606567383e+00 5.188481509685516357e-02
1.456000000000000000e+03 7.952680206298828125e+01 3.175060462951660156e+01 -3.813524730503559113e-03 7.297868251800537109e+00 2.188216447830200195e+00 2.114882320165634155e-02
1.457000000000000000e+03 7.853202819824218750e+01 3.272157669067382812e+01 -7.409335114061832428e-03 7.220387458801269531e+00 2.163893461227416992e+00 4.909305647015571594e-02
1.458000000000000000e+03 7.950454711914062500e+01 3.494198226928710938e+01 4.285713657736778259e-03 7.383968830108642578e+00 2.216476440429687500e+00 9.106920100748538971e-03
1.459000000000000000e+03 7.694270324707031250e+01 3.699837875366210938e+01 -1.628246717154979706e-02 7.113172531127929688e+00 2.129066944122314453e+00 2.357807382941246033e-02
1.460000000000000000e+03 7.705930328369140625e+01 3.570524978637695312e+01 -1.434300933033227921e-02 7.127726554870605469e+00 2.134015083312988281e+00 4.972776770591735840e-02
1.461000000000000000e+03 7.857847595214843750e+01 3.428470611572265625e+01 -5.681069102138280869e-03 7.258312702178955078e+00 2.175789594650268555e+00 3.442082926630973816e-02
1.462000000000000000e+03 7.943766784667968750e+01 3.664405822753906250e+01 5.125775001943111420e-03 7.409482479095458984e+00 2.224382400512695312e+00 1.151798292994499207e-02
1.463000000000000000e+03 7.713141632080078125e+01 3.814667892456054688e+01 -5.280628800392150879e-03 7.128568649291992188e+00 2.136986494064331055e+00 1.902558840811252594e-02
1.464000000000000000e+03 7.821460723876953125e+01 3.791417694091796875e+01 -1.220928318798542023e-02 7.260756015777587891e+00 2.174563884735107422e+00 2.412278577685356140e-02
1.465000000000000000e+03 7.968483734130859375e+01 3.810881805419921875e+01 2.581613603979349136e-03 7.453432083129882812e+00 2.236804008483886719e+00 7.889685221016407013e-03
1.466000000000000000e+03 7.723852539062500000e+01 3.929709625244140625e+01 -9.685445576906204224e-03 7.145319938659667969e+00 2.140690326690673828e+00 1.482802629470825195e-02
1.467000000000000000e+03 7.905629730224609375e+01 3.797930526733398438e+01 -4.503265488892793655e-03 7.394941329956054688e+00 2.217131376266479492e+00 1.535002514719963074e-02
1.468000000000000000e+03 7.960553741455078125e+01 3.963792800903320312e+01 3.619201248511672020e-03 7.472217559814453125e+00 2.242750883102416992e+00 3.951299004256725311e-03
1.469000000000000000e+03 7.766124725341796875e+01 4.043161773681640625e+01 -1.626398041844367981e-02 7.173243045806884766e+00 2.147093534469604492e+00 1.149222068488597870e-02
1.470000000000000000e+03 7.865640258789062500e+01 4.023818588256835938e+01 -7.936313748359680176e-03 7.331807613372802734e+00 2.197161436080932617e+00 8.086088113486766815e-03
1.471000000000000000e+03 7.956924438476562500e+01 4.042222595214843750e+01 3.307504812255501747e-03 7.485492229461669922e+00 2.246639966964721680e+00 1.050440501421689987e-02
1.472000000000000000e+03 7.685533905029296875e+01 4.161801528930664062e+01 -1.269544102251529694e-02 7.123763561248779297e+00 2.133320569992065430e+00 4.171210806816816330e-03
1.473000000000000000e+03 7.861304473876953125e+01 4.195399093627929688e+01 8.306376636028289795e-03 7.375707149505615234e+00 2.215204000473022461e+00 1.020625140517950058e-02
1.474000000000000000e+03 7.011327362060546875e+01 3.233728790283203125e+01 -9.388819336891174316e-02 6.359244346618652344e+00 1.879606842994689941e+00 1.175379976630210876e-01
1.475000000000000000e+03 7.148511505126953125e+01 3.094661140441894531e+01 -8.219541609287261963e-02 6.501936912536621094e+00 1.925922513008117676e+00 1.371904760599136353e-01
1.476000000000000000e+03 7.027121734619140625e+01 2.960139656066894531e+01 -8.810995519161224365e-02 6.397357463836669922e+00 1.892774224281311035e+00 1.388795077800750732e-01
1.477000000000000000e+03 6.993408966064453125e+01 2.761935997009277344e+01 -8.382850885391235352e-02 6.399689674377441406e+00 1.894758343696594238e+00 1.439244300127029419e-01
1.478000000000000000e+03 6.974944305419921875e+01 2.560852241516113281e+01 -7.735889405012130737e-02 6.433425426483154297e+00 1.906819939613342285e+00 1.419383138418197632e-01
1.479000000000000000e+03 7.055090332031250000e+01 2.441228485107421875e+01 -5.968366935849189758e-02 6.515314579010009766e+00 1.936689257621765137e+00 1.798391193151473999e-01
1.480000000000000000e+03 6.991188049316406250e+01 2.039248657226562500e+01 1.582772657275199890e-02 6.726604938507080078e+00 2.022729873657226562e+00 2.704750597476959229e-01
1.481000000000000000e+03 7.161509704589843750e+01 1.885003471374511719e+01 3.143154084682464600e-01 6.602100849151611328e+00 2.074924945831298828e+00 4.268772006034851074e-01
1.482000000000000000e+03 7.185302734375000000e+01 1.669209289550781250e+01 8.534260988235473633e-01 6.251531124114990234e+00 2.131487131118774414e+00 5.709801912307739258e-01
1.483000000000000000e+03 7.005229187011718750e+01 1.505687427520751953e+01 1.212065815925598145e+00 6.669896602630615234e+00 2.364588737487792969e+00 1.242921113967895508e+00
1.484000000000000000e+03 7.168289947509765625e+01 1.329041671752929688e+01 2.004968166351318359e+00 4.595544338226318359e+00 1.980153679847717285e+00 5.378530621528625488e-01
1.485000000000000000e+03 7.000199890136718750e+01 1.138239765167236328e+01 1.683923125267028809e+00 5.546036720275878906e+00 2.168987989425659180e+00 1.336779475212097168e+00
1.486000000000000000e+03 7.136158752441406250e+01 1.068056392669677734e+01 1.084218859672546387e+00 2.399601221084594727e+00 1.045145988464355469e+00 6.970160603523254395e-01
1.487000000000000000e+03 6.549419403076171875e+01 3.780081176757812500e+01 -1.423112899065017700e-01 5.817723274230957031e+00 1.702623605728149414e+00 4.175707325339317322e-02
1.488000000000000000e+03 6.900511169433593750e+01 3.605235671997070312e+01 -1.095069497823715210e-01 6.225340366363525391e+00 1.834750056266784668e+00 6.747212260961532593e-02
1.489000000000000000e+03 6.799727630615234375e+01 3.334182739257812500e+01 -1.223057061433792114e-01 6.139820575714111328e+00 1.805254459381103516e+00 8.913478255271911621e-02
1.490000000000000000e+03 6.899909210205078125e+01 3.170980834960937500e+01 -1.016473397612571716e-01 6.250408172607421875e+00 1.844628334045410156e+00 1.174438372254371643e-01
1.491000000000000000e+03 6.905879974365234375e+01 2.911308670043945312e+01 -9.804684668779373169e-02 6.280647277832031250e+00 1.854780197143554688e+00 1.321401298046112061e-01
1.492000000000000000e+03 6.898039245605468750e+01 2.694565773010253906e+01 -8.416415005922317505e-02 6.298216819763183594e+00 1.864215731620788574e+00 1.298086345195770264e-01
1.493000000000000000e+03 6.811733245849609375e+01 2.625665283203125000e+01 -6.556347012519836426e-02 6.234605789184570312e+00 1.850712656974792480e+00 1.114669293165206909e-01
1.494000000000000000e+03 6.873605346679687500e+01 2.515491294860839844e+01 -7.409209012985229492e-02 6.329710483551025391e+00 1.876685500144958496e+00 1.093149632215499878e-01
1.495000000000000000e+03 6.906781768798828125e+01 2.151387405395507812e+01 -5.243280902504920959e-02 6.587679862976074219e+00 1.960574150085449219e+00 1.303409337997436523e-01
1.496000000000000000e+03 6.904178619384765625e+01 2.039997482299804688e+01 -4.177155718207359314e-02 6.724256038665771484e+00 2.004745483398437500e+00 1.713525801897048950e-01
1.497000000000000000e+03 6.810160064697265625e+01 1.934358406066894531e+01 -8.540514856576919556e-02 6.828755378723144531e+00 2.023005008697509766e+00 5.420228838920593262e-02
1.498000000000000000e+03 6.890508270263671875e+01 1.657571029663085938e+01 3.126357495784759521e-01 7.391744613647460938e+00 2.311314105987548828e+00 7.942256331443786621e-01
1.499000000000000000e+03 6.825000000000000000e+01 1.537055110931396484e+01 3.316147625446319580e-01 8.293751716613769531e+00 2.587610006332397461e+00 1.068848371505737305e+00
1.500000000000000000e+03 6.934114074707031250e+01 1.324152946472167969e+01 2.026747226715087891e+00 7.157627105712890625e+00 2.755312442779541016e+00 1.710013031959533691e+00
1.501000000000000000e+03 6.938105010986328125e+01 1.166882228851318359e+01 2.000605583190917969e+00 6.720251083374023438e+00 2.616256952285766602e+00 1.600744247436523438e+00
1.502000000000000000e+03 6.795716094970703125e+01 3.070670700073242188e+01 -1.080218851566314697e-01 6.158815860748291016e+00 1.815238237380981445e+00 1.139380037784576416e-01
1.503000000000000000e+03 6.801005554199218750e+01 2.828794097900390625e+01 -8.762373030185699463e-02 6.184231281280517578e+00 1.828982234001159668e+00 1.247571855783462524e-01
1.504000000000000000e+03 6.709435272216796875e+01 2.735254096984863281e+01 -7.444676756858825684e-02 6.077913761138916016e+00 1.801040053367614746e+00 1.026495471596717834e-01
1.505000000000000000e+03 6.627935791015625000e+01 2.651914787292480469e+01 -4.570874571800231934e-02 5.999050617218017578e+00 1.786002516746520996e+00 8.353013545274734497e-02
1.506000000000000000e+03 6.673511505126953125e+01 2.552611923217773438e+01 -4.254026338458061218e-02 6.074441432952880859e+00 1.809570312500000000e+00 5.901576951146125793e-02
1.507000000000000000e+03 6.771268463134765625e+01 2.225307273864746094e+01 -4.820173606276512146e-02 6.388135433197021484e+00 1.901980161666870117e+00 1.301725395023822784e-02
1.508000000000000000e+03 6.741722869873046875e+01 2.074658584594726562e+01 -6.802313774824142456e-02 6.531191349029541016e+00 1.938950538635253906e+00 -9.205008298158645630e-02
1.509000000000000000e+03 6.751080322265625000e+01 1.724852180480957031e+01 -1.854072958230972290e-01 7.643299579620361328e+00 2.237367630004882812e+00 3.393332287669181824e-02
1.510000000000000000e+03 6.726799774169921875e+01 1.557651519775390625e+01 -1.599168032407760620e-01 8.764699935913085938e+00 2.581434965133666992e+00 3.881350159645080566e-01
1.511000000000000000e+03 6.645111846923828125e+01 1.403923511505126953e+01 3.228234648704528809e-01 1.086209106445312500e+01 3.355474472045898438e+00 1.007876992225646973e-01
1.512000000000000000e+03 6.688840484619140625e+01 3.536460876464843750e+01 -1.245682016015052795e-01 6.007697105407714844e+00 1.764938592910766602e+00 7.199624180793762207e-02
1.513000000000000000e+03 6.522401428222656250e+01 3.423769378662109375e+01 -1.451922357082366943e-01 5.827355861663818359e+00 1.704649090766906738e+00 7.299675792455673218e-02
1.514000000000000000e+03 6.545894622802734375e+01 3.117966270446777344e+01 -1.209359094500541687e-01 5.873675346374511719e+00 1.725821733474731445e+00 1.038023456931114197e-01
1.515000000000000000e+03 6.585511779785156250e+01 2.858136749267578125e+01 -8.746273815631866455e-02 5.925900459289550781e+00 1.751531243324279785e+00 1.146883815526962280e-01
1.516000000000000000e+03 6.508049774169921875e+01 2.737022209167480469e+01 -4.805475100874900818e-02 5.811787128448486328e+00 1.729119777679443359e+00 1.024382784962654114e-01
1.517000000000000000e+03 6.466666412353515625e+01 2.603212738037109375e+01 -4.606724251061677933e-03 5.757780551910400391e+00 1.725952148437500000e+00 8.305189013481140137e-02
1.518000000000000000e+03 6.616450500488281250e+01 2.380037498474121094e+01 1.872382313013076782e-02 5.974010467529296875e+00 1.797820329666137695e+00 6.580685265362262726e-03
1.519000000000000000e+03 6.541860198974609375e+01 2.225229454040527344e+01 1.322261393070220947e-01 5.809323787689208984e+00 1.782465100288391113e+00 -1.320872902870178223e-01
1.520000000000000000e+03 6.510671234130859375e+01 1.941182327270507812e+01 2.063967585563659668e-01 5.791749954223632812e+00 1.799444079399108887e+00 -5.798448324203491211e-01
1.521000000000000000e+03 6.453981018066406250e+01 1.741379737854003906e+01 3.194358944892883301e-01 5.533803462982177734e+00 1.755971908569335938e+00 -1.326506614685058594e+00
1.522000000000000000e+03 6.485966491699218750e+01 1.591482830047607422e+01 6.650391966104507446e-02 6.190056324005126953e+00 1.876968026161193848e+00 -2.152816772460937500e+00
1.523000000000000000e+03 6.776535034179687500e+01 4.116845703125000000e+01 -1.096609979867935181e-01 6.071760654449462891e+00 1.788629889488220215e+00 1.705673336982727051e-02
1.524000000000000000e+03 6.389701461791992188e+01 3.280794525146484375e+01 -1.573372036218643188e-01 5.689649581909179688e+00 1.659693717956542969e+00 7.935006171464920044e-02
1.525000000000000000e+03 6.439863586425781250e+01 2.979999542236328125e+01 -1.230393648147583008e-01 5.741914749145507812e+00 1.685662627220153809e+00 1.072776988148689270e-01
1.526000000000000000e+03 6.350408554077148438e+01 2.819174003601074219e+01 -8.036428689956665039e-02 5.635499477386474609e+00 1.666540503501892090e+00 1.298119276762008667e-01
1.527000000000000000e+03 6.316725158691406250e+01 2.633373641967773438e+01 -3.717501880601048470e-03 5.532116413116455078e+00 1.658519744873046875e+00 1.439715027809143066e-01
1.528000000000000000e+03 6.384820556640625000e+01 2.340123748779296875e+01 2.066413462162017822e-01 5.473546504974365234e+00 1.704056262969970703e+00 2.540065534412860870e-02
1.529000000000000000e+03 6.402713775634765625e+01 2.182346916198730469e+01 3.053451776504516602e-01 5.437304496765136719e+00 1.722794890403747559e+00 -1.240375638008117676e-01
1.530000000000000000e+03 6.328406524658203125e+01 1.998853302001953125e+01 5.905450582504272461e-01 4.877894401550292969e+00 1.640531778335571289e+00 -2.907665669918060303e-01
1.531000000000000000e+03 6.318914794921875000e+01 1.805379104614257812e+01 9.607667326927185059e-01 4.014319896697998047e+00 1.492526054382324219e+00 -7.745499610900878906e-01
1.532000000000000000e+03 6.342626953125000000e+01 1.696419334411621094e+01 9.668060541152954102e-01 3.740140914916992188e+00 1.412084102630615234e+00 -1.247584819793701172e+00
1.533000000000000000e+03 6.410685729980468750e+01 1.514028930664062500e+01 9.409333467483520508e-01 4.316805362701416016e+00 1.577321648597717285e+00 -2.712163686752319336e+00
1.534000000000000000e+03 6.417682647705078125e+01 1.650487518310546875e+01 6.130487322807312012e-01 5.014773845672607422e+00 1.688346743583679199e+00 -1.858753323554992676e+00
1.535000000000000000e+03 6.360321426391601562e+01 4.081551742553710938e+01 -1.525717973709106445e-01 5.534082412719726562e+00 1.614453077316284180e+00 9.186873212456703186e-03
1.536000000000000000e+03 6.341690444946289062e+01 3.642810058593750000e+01 -1.560956835746765137e-01 5.618704795837402344e+00 1.638782739639282227e+00 4.346635937690734863e-02
1.537000000000000000e+03 6.201188659667968750e+01 3.458222579956054688e+01 -1.766400337219238281e-01 5.447318553924560547e+00 1.581203579902648926e+00 6.004523113369941711e-02
1.538000000000000000e+03 6.278269195556640625e+01 3.114475250244140625e+01 -1.472801417112350464e-01 5.573370456695556641e+00 1.627827167510986328e+00 1.034332588315010071e-01
1.539000000000000000e+03 6.179001998901367188e+01 2.933979034423828125e+01 -1.335843801498413086e-01 5.429774761199951172e+00 1.588857054710388184e+00 1.252518743276596069e-01
1.540000000000000000e+03 6.057455062866210938e+01 2.780803298950195312e+01 -1.224558874964714050e-01 5.328730583190917969e+00 1.561882376670837402e+00 1.674138158559799194e-01
1.541000000000000000e+03 6.033305740356445312e+01 2.563713645935058594e+01 -1.898650638759136200e-02 5.228760719299316406e+00 1.562932252883911133e+00 3.010064363479614258e-01
1.542000000000000000e+03 6.255120849609375000e+01 2.413476562500000000e+01 1.481634080410003662e-01 5.371023178100585938e+00 1.655755996704101562e+00 1.606505662202835083e-01
1.543000000000000000e+03 6.214719009399414062e+01 2.086030197143554688e+01 5.941281914710998535e-01 4.745946884155273438e+00 1.602022528648376465e+00 1.262820512056350708e-01
1.544000000000000000e+03 6.117903518676757812e+01 1.845815467834472656e+01 1.129816293716430664e+00 3.552126407623291016e+00 1.404582858085632324e+00 4.011338353157043457e-01
1.545000000000000000e+03 6.108391189575195312e+01 1.699909400939941406e+01 1.254035115242004395e+00 2.725114107131958008e+00 1.193744778633117676e+00 4.434276223182678223e-01
1.546000000000000000e+03 6.162541580200195312e+01 1.522137451171875000e+01 9.537621736526489258e-01 1.249418020248413086e+00 6.609540581703186035e-01 5.533833429217338562e-02
1.547000000000000000e+03 5.881525421142578125e+01 3.383302688598632812e+01 -2.077167183160781860e-01 5.038697719573974609e+00 1.449294328689575195e+00 -9.278467856347560883e-03
1.548000000000000000e+03 6.011101531982421875e+01 3.068750762939453125e+01 -1.926940530538558960e-01 5.262996673583984375e+00 1.521090865135192871e+00 7.950629293918609619e-02
1.549000000000000000e+03 5.950596618652343750e+01 2.654880714416503906e+01 -1.438751816749572754e-01 5.204376220703125000e+00 1.518150329589843750e+00 2.493884712457656860e-01
1.550000000000000000e+03 5.923737716674804688e+01 2.523330688476562500e+01 -7.805997878313064575e-02 5.181964397430419922e+00 1.531171321868896484e+00 3.418878018856048584e-01
1.551000000000000000e+03 5.959237289428710938e+01 2.248774719238281250e+01 2.425428479909896851e-01 4.965882778167724609e+00 1.562527775764465332e+00 6.045502424240112305e-01
1.552000000000000000e+03 5.997729492187500000e+01 1.954807472229003906e+01 8.003776073455810547e-01 4.202216625213623047e+00 1.500778198242187500e+00 8.938196897506713867e-01
1.553000000000000000e+03 5.941932296752929688e+01 1.764994049072265625e+01 1.105017662048339844e+00 3.532546043395996094e+00 1.391269087791442871e+00 1.405303597450256348e+00
1.554000000000000000e+03 6.038654327392578125e+01 1.828855895996093750e+01 1.105332255363464355e+00 3.569924116134643555e+00 1.402576923370361328e+00 8.067433834075927734e-01
1.555000000000000000e+03 6.046589279174804688e+01 1.535685539245605469e+01 9.959090948104858398e-01 1.683847427368164062e+00 8.039269447326660156e-01 9.481934309005737305e-01
1.556000000000000000e+03 5.940906906127929688e+01 1.658865356445312500e+01 1.182320713996887207e+00 3.002486228942871094e+00 1.255442023277282715e+00 1.565064668655395508e+00
1.557000000000000000e+03 5.661952209472656250e+01 3.741180038452148438e+01 -1.692258417606353760e-01 4.686983108520507812e+00 1.355327129364013672e+00 -5.487693846225738525e-02
1.558000000000000000e+03 5.714530944824218750e+01 4.071622467041015625e+01 -1.470815390348434448e-01 4.742834091186523438e+00 1.378725767135620117e+00 -1.532570552080869675e-02
1.559000000000000000e+03 5.959172439575195312e+01 3.630369186401367188e+01 -1.925076693296432495e-01 5.064973354339599609e+00 1.461739659309387207e+00 -5.463053472340106964e-03
1.560000000000000000e+03 5.637707519531250000e+01 3.460429382324218750e+01 -2.168114632368087769e-01 4.673376083374023438e+00 1.336969375610351562e+00 -7.484816759824752808e-02
1.561000000000000000e+03 5.923140335083007812e+01 2.913131904602050781e+01 -2.119812518358230591e-01 5.180191516876220703e+00 1.490463137626647949e+00 1.076966300606727600e-01
1.562000000000000000e+03 5.806529998779296875e+01 2.686517524719238281e+01 -2.385583817958831787e-01 5.173933982849121094e+00 1.480612635612487793e+00 1.950827538967132568e-01
1.563000000000000000e+03 5.788957214355468750e+01 2.522461700439453125e+01 -2.169694453477859497e-01 5.187021732330322266e+00 1.491015672683715820e+00 3.763225674629211426e-01
1.564000000000000000e+03 5.832496643066406250e+01 2.240525436401367188e+01 3.995659947395324707e-02 5.106534481048583984e+00 1.543947339057922363e+00 7.489179372787475586e-01
1.565000000000000000e+03 5.890090560913085938e+01 2.057276153564453125e+01 4.361749887466430664e-01 4.703140258789062500e+00 1.541794538497924805e+00 1.030270338058471680e+00
1.566000000000000000e+03 5.894543457031250000e+01 1.815710258483886719e+01 9.143345355987548828e-01 3.965451240539550781e+00 1.463935732841491699e+00 1.493719696998596191e+00
1.567000000000000000e+03 5.890115356445312500e+01 1.716530227661132812e+01 1.070338606834411621e+00 3.536418676376342773e+00 1.382027268409729004e+00 1.679197669029235840e+00
1.568000000000000000e+03 5.824109268188476562e+01 1.570809936523437500e+01 1.097284078598022461e+00 3.421461582183837891e+00 1.355623722076416016e+00 2.195646524429321289e+00
1.569000000000000000e+03 5.882452011108398438e+01 1.612683677673339844e+01 1.160257577896118164e+00 3.121169567108154297e+00 1.284428119659423828e+00 1.895290255546569824e+00
1.570000000000000000e+03 5.628636932373046875e+01 3.222933197021484375e+01 -2.491020113229751587e-01 4.757656097412109375e+00 1.352566242218017578e+00 -8.197523653507232666e-02
1.571000000000000000e+03 5.630331420898437500e+01 3.020640563964843750e+01 -3.092004656791687012e-01 4.859421730041503906e+00 1.365066289901733398e+00 -4.595711454749107361e-02
1.572000000000000000e+03 5.643949127197265625e+01 2.847570610046386719e+01 -3.148156702518463135e-01 4.971952438354492188e+00 1.397140979766845703e+00 2.841686271131038666e-02
1.573000000000000000e+03 5.652986526489257812e+01 2.688454437255859375e+01 -3.694762289524078369e-01 5.055700778961181641e+00 1.405867338180541992e+00 1.121523082256317139e-01
1.574000000000000000e+03 5.638798904418945312e+01 2.528895950317382812e+01 -4.043650925159454346e-01 5.237683773040771484e+00 1.449995636940002441e+00 2.722575664520263672e-01
1.575000000000000000e+03 5.670506668090820312e+01 2.238861656188964844e+01 -2.738759517669677734e-01 5.404780387878417969e+00 1.539271354675292969e+00 7.862297892570495605e-01
1.576000000000000000e+03 5.644953155517578125e+01 2.074559974670410156e+01 -2.192911058664321899e-01 5.579503059387207031e+00 1.608063578605651855e+00 1.244561910629272461e+00
1.577000000000000000e+03 5.774836730957031250e+01 1.920918273925781250e+01 3.593244552612304688e-01 4.927447795867919922e+00 1.586031675338745117e+00 1.583400368690490723e+00
1.578000000000000000e+03 5.713152313232421875e+01 1.594719791412353516e+01 1.027078032493591309e+00 4.560386657714843750e+00 1.676239371299743652e+00 2.597516775131225586e+00
1.579000000000000000e+03 5.278443908691406250e+01 4.084591293334960938e+01 -7.444394379854202271e-02 4.040158271789550781e+00 1.189714312553405762e+00 -3.161106631159782410e-02
1.580000000000000000e+03 5.334426116943359375e+01 3.763159561157226562e+01 -1.157708689570426941e-01 4.149003028869628906e+00 1.209969639778137207e+00 -9.643696248531341553e-02
1.581000000000000000e+03 5.469472885131835938e+01 3.022694396972656250e+01 -3.261979520320892334e-01 4.653436183929443359e+00 1.298171520233154297e+00 -1.485377848148345947e-01
1.582000000000000000e+03 5.370376205444335938e+01 2.829396057128906250e+01 -4.408943057060241699e-01 4.668824672698974609e+00 1.268379092216491699e+00 -2.096279114484786987e-01
1.583000000000000000e+03 5.494318008422851562e+01 2.566338539123535156e+01 -5.409549474716186523e-01 5.115832328796386719e+00 1.372463226318359375e+00 7.476232945919036865e-02
1.584000000000000000e+03 5.422819900512695312e+01 2.449956512451171875e+01 -6.626476049423217773e-01 5.267562389373779297e+00 1.381474375724792480e+00 5.046282708644866943e-02
1.585000000000000000e+03 5.328410339355468750e+01 2.273375320434570312e+01 -9.573535323143005371e-01 5.699813365936279297e+00 1.422737956047058105e+00 2.121214754879474640e-02
1.586000000000000000e+03 5.503957748413085938e+01 2.094256019592285156e+01 -6.786695122718811035e-01 5.993298053741455078e+00 1.594388604164123535e+00 8.941249847412109375e-01
1.587000000000000000e+03 5.508110809326171875e+01 1.931662559509277344e+01 -5.118699073791503906e-01 6.345587730407714844e+00 1.750115275382995605e+00 1.475552082061767578e+00
1.588000000000000000e+03 5.463289260864257812e+01 1.713268470764160156e+01 -2.253133803606033325e-01 7.300452709197998047e+00 2.122541666030883789e+00 2.299289464950561523e+00
1.589000000000000000e+03 5.400762557983398438e+01 1.542866802215576172e+01 7.255020141601562500e-01 8.595178604125976562e+00 2.796204328536987305e+00 2.840708971023559570e+00
1.590000000000000000e+03 5.440220642089843750e+01 1.623108100891113281e+01 2.159838974475860596e-01 7.917387485504150391e+00 2.440011501312255859e+00 2.670694351196289062e+00
1.591000000000000000e+03 5.431265258789062500e+01 3.231698989868164062e+01 -2.599203586578369141e-01 4.470911979675292969e+00 1.263297557830810547e+00 -1.703501045703887939e-01
1.592000000000000000e+03 5.321620178222656250e+01 3.001376342773437500e+01 -3.447602391242980957e-01 4.436188697814941406e+00 1.227428555488586426e+00 -2.380684614181518555e-01
1.593000000000000000e+03 5.247917938232421875e+01 2.807562255859375000e+01 -4.515515565872192383e-01 4.475337028503417969e+00 1.207135677337646484e+00 -3.051273822784423828e-01
1.594000000000000000e+03 5.280580520629882812e+01 2.656278800964355469e+01 -5.725951790809631348e-01 4.744376659393310547e+00 1.251534342765808105e+00 -2.788351476192474365e-01
1.595000000000000000e+03 5.277592086791992188e+01 2.519849205017089844e+01 -6.802995204925537109e-01 4.932666301727294922e+00 1.275709986686706543e+00 -2.485825419425964355e-01
1.596000000000000000e+03 5.298265075683593750e+01 2.091421127319335938e+01 -1.177642703056335449e+00 6.334496974945068359e+00 1.547056198120117188e+00 1.367690563201904297e-01
1.597000000000000000e+03 5.229465103149414062e+01 1.911039543151855469e+01 -1.530178189277648926e+00 7.569671630859375000e+00 1.811848044395446777e+00 9.931274503469467163e-02
1.598000000000000000e+03 5.374057769775390625e+01 1.788041305541992188e+01 -8.470135331153869629e-01 7.798326492309570312e+00 2.085393905639648438e+00 1.662571549415588379e+00
1.599000000000000000e+03 5.322616195678710938e+01 1.580533504486083984e+01 5.584776028990745544e-02 9.726789474487304688e+00 2.934791326522827148e+00 2.421335220336914062e+00
1.600000000000000000e+03 5.252618789672851562e+01 3.199904060363769531e+01 -2.504492998123168945e-01 4.201351165771484375e+00 1.185270547866821289e+00 -2.593021094799041748e-01
1.601000000000000000e+03 5.192242050170898438e+01 2.963473129272460938e+01 -3.470427393913269043e-01 4.221526145935058594e+00 1.162344932556152344e+00 -3.435981273651123047e-01
1.602000000000000000e+03 5.085151672363281250e+01 2.914984512329101562e+01 -3.452343046665191650e-01 4.054248332977294922e+00 1.112704157829284668e+00 -4.059588909149169922e-01
1.603000000000000000e+03 5.134775924682617188e+01 2.676108741760253906e+01 -5.389762520790100098e-01 4.387960910797119141e+00 1.154695391654968262e+00 -4.567655324935913086e-01
1.604000000000000000e+03 5.116249847412109375e+01 2.436825942993164062e+01 -7.455054521560668945e-01 4.695595264434814453e+00 1.185026884078979492e+00 -5.711103677749633789e-01
1.605000000000000000e+03 5.114905929565429688e+01 2.199002265930175781e+01 -1.111863970756530762e+00 5.332393646240234375e+00 1.266158819198608398e+00 -7.658919095993041992e-01
1.606000000000000000e+03 5.069940948486328125e+01 2.038371849060058594e+01 -1.324982881546020508e+00 5.736975193023681641e+00 1.323597788810729980e+00 -1.172418475151062012e+00
1.607000000000000000e+03 5.080424118041992188e+01 1.825032615661621094e+01 -1.814616799354553223e+00 7.602355957031250000e+00 1.736321687698364258e+00 -1.478489637374877930e+00
1.608000000000000000e+03 5.109928512573242188e+01 1.740411186218261719e+01 -2.058766841888427734e+00 9.258420944213867188e+00 2.159896373748779297e+00 -1.076777577400207520e+00
1.609000000000000000e+03 4.854748916625976562e+01 4.056555175781250000e+01 4.752416536211967468e-02 3.294090509414672852e+00 1.002484321594238281e+00 -4.765303805470466614e-02
1.610000000000000000e+03 5.159070968627929688e+01 3.432206344604492188e+01 -1.401267647743225098e-01 3.953527688980102539e+00 1.144020318984985352e+00 -2.152106761932373047e-01
1.611000000000000000e+03 4.978477859497070312e+01 3.044553375244140625e+01 -2.254890948534011841e-01 3.719722032546997070e+00 1.048269867897033691e+00 -4.171805977821350098e-01
1.612000000000000000e+03 4.993547439575195312e+01 2.716272354125976562e+01 -4.290989637374877930e-01 3.939962148666381836e+00 1.053258895874023438e+00 -5.915459990501403809e-01
1.613000000000000000e+03 4.980387115478515625e+01 2.588055419921875000e+01 -5.116286873817443848e-01 4.005156993865966797e+00 1.048058390617370605e+00 -6.768946051597595215e-01
1.614000000000000000e+03 4.977096176147460938e+01 2.458757591247558594e+01 -6.263549923896789551e-01 4.157710075378417969e+00 1.059406518936157227e+00 -8.113836050033569336e-01
1.615000000000000000e+03 4.895824432373046875e+01 2.206317710876464844e+01 -7.454133629798889160e-01 3.984256744384765625e+00 9.716529846191406250e-01 -1.243306040763854980e+00
1.616000000000000000e+03 4.897625732421875000e+01 2.037685394287109375e+01 -8.605142831802368164e-01 4.290915489196777344e+00 1.029120326042175293e+00 -1.550213575363159180e+00
1.617000000000000000e+03 4.981035614013671875e+01 1.878582000732421875e+01 -1.200486898422241211e+00 5.554992198944091797e+00 1.306351661682128906e+00 -2.077082872390747070e+00
1.618000000000000000e+03 3.833541107177734375e+01 3.346084213256835938e+01 2.273490726947784424e-01 1.738507151603698730e+00 5.897568464279174805e-01 -4.352440312504768372e-02
1.619000000000000000e+03 3.891895675659179688e+01 3.071684265136718750e+01 2.067993432283401489e-01 1.627772927284240723e+00 5.503717064857482910e-01 -7.545664906501770020e-02
1.620000000000000000e+03 3.922216796875000000e+01 2.840096664428710938e+01 1.637445092201232910e-01 1.486712574958801270e+00 4.951371550559997559e-01 -1.031453609466552734e-01
1.621000000000000000e+03 3.920969772338867188e+01 2.655497169494628906e+01 1.114312410354614258e-01 1.265796303749084473e+00 4.131682813167572021e-01 -9.831265360116958618e-02
1.622000000000000000e+03 3.912177276611328125e+01 2.507573509216308594e+01 5.492652580142021179e-02 1.107872843742370605e+00 3.488397896289825439e-01 -9.950919449329376221e-02
1.623000000000000000e+03 3.841753768920898438e+01 2.258977317810058594e+01 -1.491971760988235474e-01 6.737264394760131836e-01 1.573587805032730103e-01 -3.731461986899375916e-02
1.624000000000000000e+03 4.001797103881835938e+01 2.097238922119140625e+01 -4.591853618621826172e-01 7.166051864624023438e-01 7.722595334053039551e-02 -2.384232431650161743e-01
1.625000000000000000e+03 3.895904922485351562e+01 1.776506996154785156e+01 -1.363879561424255371e+00 4.143059849739074707e-01 -2.848720848560333252e-01 -2.448508739471435547e-01
1.626000000000000000e+03 3.960464859008789062e+01 1.512994956970214844e+01 -1.982953071594238281e+00 5.826005935668945312e-01 -4.201057255268096924e-01 3.870436921715736389e-02
1.627000000000000000e+03 3.934390258789062500e+01 1.359367275238037109e+01 -1.733176589012145996e+00 3.580547869205474854e-01 -4.125365614891052246e-01 3.065713942050933838e-01
1.628000000000000000e+03 3.754147720336914062e+01 2.825109100341796875e+01 1.513611823320388794e-01 1.312521696090698242e+00 4.391648471355438232e-01 7.402526587247848511e-02
1.629000000000000000e+03 3.785181427001953125e+01 2.656247901916503906e+01 1.106788814067840576e-01 1.177612066268920898e+00 3.864873051643371582e-01 4.443427920341491699e-02
1.630000000000000000e+03 3.723989105224609375e+01 2.319904899597167969e+01 -6.279037892818450928e-02 6.548058390617370605e-01 1.776046305894851685e-01 1.401331722736358643e-01
1.631000000000000000e+03 3.650942230224609375e+01 2.220085144042968750e+01 -1.466874033212661743e-01 4.842962622642517090e-01 1.012826561927795410e-01 2.501165270805358887e-01
1.632000000000000000e+03 3.727514648437500000e+01 2.110429954528808594e+01 -3.324694931507110596e-01 3.304694890975952148e-01 -5.999993882142007351e-04 4.041787236928939819e-02
1.633000000000000000e+03 3.810037231445312500e+01 1.789668464660644531e+01 -1.276277065277099609e+00 1.802629381418228149e-01 -3.288042545318603516e-01 -2.330417037010192871e-01
1.634000000000000000e+03 3.806518554687500000e+01 1.704740142822265625e+01 -1.644593238830566406e+00 2.004938572645187378e-01 -4.332298040390014648e-01 -2.852433323860168457e-01
1.635000000000000000e+03 3.718649673461914062e+01 1.547018909454345703e+01 -2.536157369613647461e+00 3.071869257837533951e-03 -7.599256634712219238e-01 -1.538015305995941162e-01
1.636000000000000000e+03 2.901861000061035156e+01 3.458425521850585938e+01 7.471724599599838257e-02 1.341606259346008301e+00 4.248970746994018555e-01 1.036513000726699829e-01
1.637000000000000000e+03 2.299057769775390625e+01 3.740538024902343750e+01 1.354794204235076904e-01 1.070968270301818848e+00 3.619343340396881104e-01 3.355833468958735466e-03
1.638000000000000000e+03 1.709819030761718750e+01 3.351418304443359375e+01 9.982632845640182495e-02 8.686612844467163086e-01 2.905462682247161865e-01 -1.655246317386627197e-02
1.639000000000000000e+03 1.606568527221679688e+01 3.203208541870117188e+01 9.295837581157684326e-02 8.083370923995971680e-01 2.703886330127716064e-01 -1.497209444642066956e-02
1.640000000000000000e+03 1.504060077667236328e+01 3.035714530944824219e+01 6.367918103933334351e-02 7.569900155067443848e-01 2.462007552385330200e-01 2.911169081926345825e-03
1.641000000000000000e+03 1.441442871093750000e+01 2.853217697143554688e+01 2.668201923370361328e-02 6.694859266281127930e-01 2.088503688573837280e-01 4.244959913194179535e-03
1.642000000000000000e+03 1.421123218536376953e+01 2.684946632385253906e+01 -3.620377182960510254e-02 6.118831038475036621e-01 1.727037876844406128e-01 5.232843104749917984e-03
1.643000000000000000e+03 1.566733932495117188e+01 2.649674987792968750e+01 -5.787254497408866882e-02 5.597525238990783691e-01 1.505640000104904175e-01 -8.506251871585845947e-02
1.644000000000000000e+03 1.538272762298583984e+01 2.523378944396972656e+01 -1.154009327292442322e-01 5.098692178726196289e-01 1.183404847979545593e-01 -6.656292825937271118e-02
1.645000000000000000e+03 1.672181510925292969e+01 2.476103782653808594e+01 -1.676607280969619751e-01 4.740197956562042236e-01 9.190771728754043579e-02 -2.000149488449096680e-01
1.646000000000000000e+03 1.993439102172851562e+01 2.433400154113769531e+01 -3.138642609119415283e-01 7.201492190361022949e-01 1.218854933977127075e-01 -4.932477474212646484e-01
1.647000000000000000e+03 2.103757476806640625e+01 2.369585609436035156e+01 -4.675684273242950439e-01 9.651047587394714355e-01 1.492609083652496338e-01 -6.236491799354553223e-01
1.648000000000000000e+03 2.209078598022460938e+01 2.586531639099121094e+01 -4.660772681236267090e-01 1.273850202560424805e+00 2.423318922519683838e-01 -4.262630045413970947e-01
1.649000000000000000e+03 2.419747734069824219e+01 2.475726127624511719e+01 -8.018174767494201660e-01 1.840186715126037598e+00 3.115107715129852295e-01 -3.549735844135284424e-01
1.650000000000000000e+03 2.626424789428710938e+01 2.521952247619628906e+01 -8.082900643348693848e-01 1.968005895614624023e+00 3.479147553443908691e-01 3.246508538722991943e-02
1.651000000000000000e+03 2.667105102539062500e+01 2.746716880798339844e+01 -4.979891777038574219e-01 1.637449860572814941e+00 3.418381810188293457e-01 1.201922446489334106e-01
1.652000000000000000e+03 2.451140594482421875e+01 3.152542114257812500e+01 -1.266926079988479614e-01 1.260760307312011719e+00 3.402203321456909180e-01 -1.376336440443992615e-02
1.653000000000000000e+03 2.039968681335449219e+01 3.223453140258789062e+01 -3.787044202908873558e-03 9.898694753646850586e-01 2.958247363567352295e-01 -8.579216897487640381e-02
1.654000000000000000e+03 1.842142677307128906e+01 3.439563751220703125e+01 9.911445528268814087e-02 9.214521050453186035e-01 3.061699569225311279e-01 -3.016841039061546326e-02
1.655000000000000000e+03 8.346430778503417969e+00 3.434008789062500000e+01 8.633170276880264282e-02 9.772931933403015137e-01 3.190874755382537842e-01 1.214287802577018738e-01
1.656000000000000000e+03 7.975858688354492188e+00 3.256951522827148438e+01 7.353539764881134033e-02 9.789387583732604980e-01 3.157422244548797607e-01 1.413341015577316284e-01
1.657000000000000000e+03 7.537662506103515625e+00 3.110260963439941406e+01 5.615827813744544983e-02 9.979495406150817871e-01 3.162323534488677979e-01 1.616674065589904785e-01
1.658000000000000000e+03 7.038336753845214844e+00 2.991876029968261719e+01 3.639758005738258362e-02 1.016809105873107910e+00 3.159619867801666260e-01 1.702535748481750488e-01
1.659000000000000000e+03 7.366248130798339844e+00 2.840368843078613281e+01 1.714231073856353760e-02 9.944033026695251465e-01 3.034636974334716797e-01 1.766336411237716675e-01
1.660000000000000000e+03 8.660781860351562500e+00 2.448915481567382812e+01 -1.237735748291015625e-01 8.639702200889587402e-01 2.220589965581893921e-01 1.489528715610504150e-01
1.661000000000000000e+03 7.418385028839111328e+00 2.289755439758300781e+01 -1.828106790781021118e-01 9.863710403442382812e-01 2.410681098699569702e-01 1.176688000559806824e-01
1.662000000000000000e+03 7.627080917358398438e+00 2.105261230468750000e+01 -3.144854903221130371e-01 9.717156291007995605e-01 1.971690356731414795e-01 4.461412876844406128e-02
1.663000000000000000e+03 7.723905086517333984e+00 1.968264579772949219e+01 -4.274590611457824707e-01 9.803630113601684570e-01 1.658711880445480347e-01 -2.705293148756027222e-02
1.664000000000000000e+03 7.814965724945068359e+00 1.696219825744628906e+01 -6.760604977607727051e-01 1.055484414100646973e+00 1.138271763920783997e-01 -2.473928779363632202e-01
1.665000000000000000e+03 7.907203197479248047e+00 1.574999809265136719e+01 -7.924921512603759766e-01 1.096611142158508301e+00 9.123570472002029419e-02 -3.684719502925872803e-01
1.666000000000000000e+03 7.767304897308349609e+00 1.355433273315429688e+01 -8.992595672607421875e-01 1.278059840202331543e+00 1.136400923132896423e-01 -6.570883989334106445e-01
1.667000000000000000e+03 8.060628890991210938e+00 1.295851707458496094e+01 -9.448420405387878418e-01 1.323361635208129883e+00 1.135558858513832092e-01 -7.134452462196350098e-01
1.668000000000000000e+03 8.008363723754882812e+00 4.119851684570312500e+01 8.608553558588027954e-02 1.012467384338378906e+00 3.295658528804779053e-01 2.113655023276805878e-02
1.669000000000000000e+03 6.425549507141113281e+00 3.853502273559570312e+01 7.037674635648727417e-02 1.040032386779785156e+00 3.331227302551269531e-01 5.934646725654602051e-02
1.670000000000000000e+03 6.760593891143798828e+00 3.654281234741210938e+01 6.966438144445419312e-02 1.039049506187438965e+00 3.326141536235809326e-01 9.114053100347518921e-02
1.671000000000000000e+03 6.653781890869140625e+00 3.464625167846679688e+01 6.627098470926284790e-02 1.042044401168823242e+00 3.324945867061614990e-01 1.181164532899856567e-01
1.672000000000000000e+03 6.490247249603271484e+00 3.291899108886718750e+01 5.620012059807777405e-02 1.055493593215942383e+00 3.335081338882446289e-01 1.419887840747833252e-01
1.673000000000000000e+03 6.051638126373291016e+00 3.031631469726562500e+01 3.550314158201217651e-02 1.083187699317932129e+00 3.356072604656219482e-01 1.715025156736373901e-01
1.674000000000000000e+03 5.909845829010009766e+00 2.806503677368164062e+01 7.500630803406238556e-03 1.103961110115051270e+00 3.334385454654693604e-01 1.770490258932113647e-01
1.675000000000000000e+03 6.179230690002441406e+00 2.565266609191894531e+01 -4.113281145691871643e-02 1.094528913497924805e+00 3.160188198089599609e-01 1.731946915388107300e-01
1.676000000000000000e+03 6.606011867523193359e+00 2.454106521606445312e+01 -8.534570783376693726e-02 1.057433009147644043e+00 2.916261851787567139e-01 1.573446244001388550e-01
1.677000000000000000e+03 6.170597553253173828e+00 2.195554733276367188e+01 -1.928628832101821899e-01 1.118177533149719238e+00 2.775944173336029053e-01 7.804383337497711182e-02
1.678000000000000000e+03 6.132053375244140625e+00 2.027249526977539062e+01 -2.804852724075317383e-01 1.128204107284545898e+00 2.543156445026397705e-01 -1.023916713893413544e-02
1.679000000000000000e+03 6.272936344146728516e+00 1.852639007568359375e+01 -4.135903716087341309e-01 1.145761489868164062e+00 2.196513414382934570e-01 -1.411109268665313721e-01
1.680000000000000000e+03 6.469260215759277344e+00 1.758697319030761719e+01 -4.891776144504547119e-01 1.149367332458496094e+00 1.980569213628768921e-01 -2.327704280614852905e-01
1.681000000000000000e+03 6.071081638336181641e+00 1.572208309173583984e+01 -5.687527656555175781e-01 1.225291371345520020e+00 1.969615817070007324e-01 -4.554646611213684082e-01
1.682000000000000000e+03 5.893038272857666016e+00 1.376746940612792969e+01 -6.209194660186767578e-01 1.268115520477294922e+00 1.941588371992111206e-01 -7.333948612213134766e-01
1.683000000000000000e+03 3.284722566604614258e+00 4.180176925659179688e+01 2.203788794577121735e-02 1.107707023620605469e+00 3.389234840869903564e-01 6.679375190287828445e-03
1.684000000000000000e+03 5.315392494201660156e+00 4.060203552246093750e+01 4.629416018724441528e-02 1.068700551986694336e+00 3.344984352588653564e-01 2.286541648209095001e-02
1.685000000000000000e+03 4.081785678863525391e+00 3.961547088623046875e+01 2.898272685706615448e-02 1.105946183204650879e+00 3.404786884784698486e-01 4.092913866043090820e-02
1.686000000000000000e+03 3.540729045867919922e+00 3.775473403930664062e+01 2.279879525303840637e-02 1.130140304565429688e+00 3.458817303180694580e-01 5.800611525774002075e-02
1.687000000000000000e+03 5.218261718750000000e+00 3.654914855957031250e+01 4.953544959425926208e-02 1.084934830665588379e+00 3.403410911560058594e-01 8.584607392549514771e-02
1.688000000000000000e+03 5.135323047637939453e+00 3.498929595947265625e+01 4.394026100635528564e-02 1.104693889617919922e+00 3.445902466773986816e-01 1.086630672216415405e-01
1.689000000000000000e+03 5.149291038513183594e+00 3.280743026733398438e+01 4.289652034640312195e-02 1.116824269294738770e+00 3.479162454605102539e-01 1.357754021883010864e-01
1.690000000000000000e+03 4.141206741333007812e+00 3.155756759643554688e+01 2.667458355426788330e-02 1.189327001571655273e+00 3.648004531860351562e-01 1.344898492097854614e-01
1.691000000000000000e+03 3.848780870437622070e+00 2.900649261474609375e+01 1.233310159295797348e-02 1.251343727111816406e+00 3.791030347347259521e-01 1.501154154539108276e-01
1.692000000000000000e+03 4.241703510284423828e+00 2.712863731384277344e+01 -3.009381936863064766e-03 1.258508205413818359e+00 3.766496479511260986e-01 1.578615158796310425e-01
1.693000000000000000e+03 4.532109737396240234e+00 2.564505577087402344e+01 -2.295092679560184479e-02 1.255813956260681152e+00 3.698588907718658447e-01 1.549485474824905396e-01
1.694000000000000000e+03 5.015995025634765625e+00 2.453860473632812500e+01 -5.658426508307456970e-02 1.212016701698303223e+00 3.466297388076782227e-01 1.467489898204803467e-01
1.695000000000000000e+03 4.003362655639648438e+00 2.235355949401855469e+01 -9.014971554279327393e-02 1.343087673187255859e+00 3.758813738822937012e-01 7.543348520994186401e-02
1.696000000000000000e+03 4.508728504180908203e+00 2.076090812683105469e+01 -1.587131917476654053e-01 1.293803930282592773e+00 3.405272066593170166e-01 4.910156596451997757e-03
1.697000000000000000e+03 5.156913280487060547e+00 1.941302299499511719e+01 -2.617755234241485596e-01 1.235714554786682129e+00 2.921817004680633545e-01 -8.014050126075744629e-02
1.698000000000000000e+03 4.498988628387451172e+00 1.820498657226562500e+01 -2.613765299320220947e-01 1.289642453193664551e+00 3.084797859191894531e-01 -1.866921335458755493e-01
1.699000000000000000e+03 4.467880249023437500e+00 1.574678993225097656e+01 -3.669912219047546387e-01 1.256917834281921387e+00 2.669779956340789795e-01 -4.553971290588378906e-01
1.700000000000000000e+03 2.281622171401977539e+00 3.986132431030273438e+01 1.281011477112770081e-02 1.129319787025451660e+00 3.426389694213867188e-01 2.438264898955821991e-02
1.701000000000000000e+03 2.309646844863891602e+00 3.389151000976562500e+01 9.619390591979026794e-03 1.226983904838562012e+00 3.709809780120849609e-01 7.530518621206283569e-02
1.702000000000000000e+03 2.200869560241699219e+00 3.231308746337890625e+01 7.925978861749172211e-03 1.277447462081909180e+00 3.856120407581329346e-01 8.485198020935058594e-02
1.703000000000000000e+03 2.189374685287475586e+00 3.073252868652343750e+01 6.154299248009920120e-03 1.326757192611694336e+00 3.998734354972839355e-01 9.563963115215301514e-02
1.704000000000000000e+03 2.114290952682495117e+00 2.914724159240722656e+01 2.594264922663569450e-03 1.387504339218139648e+00 4.170295894145965576e-01 1.011288687586784363e-01
1.705000000000000000e+03 2.880327463150024414e+00 2.693061065673828125e+01 -2.963209757581353188e-03 1.392048716545104980e+00 4.167256653308868408e-01 1.313916891813278198e-01
1.706000000000000000e+03 2.981007099151611328e+00 2.629491233825683594e+01 -1.357562025077641010e-03 1.396273374557495117e+00 4.184747338294982910e-01 1.302215307950973511e-01
1.707000000000000000e+03 3.227705240249633789e+00 2.486103820800781250e+01 -1.982914842665195465e-02 1.409194946289062500e+00 4.168097376823425293e-01 1.261059790849685669e-01
1.708000000000000000e+03 1.893170714378356934e+00 2.262407112121582031e+01 -2.233911491930484772e-02 1.630636572837829590e+00 4.824892580509185791e-01 5.837759375572204590e-02
1.709000000000000000e+03 2.008877754211425781e+00 2.114354324340820312e+01 -4.023716971278190613e-02 1.625879168510437012e+00 4.756926000118255615e-01 2.158450148999691010e-02
1.710000000000000000e+03 1.779094696044921875e+00 1.939420890808105469e+01 -3.887233883142471313e-02 1.648946881294250488e+00 4.830223619937896729e-01 -4.233731701970100403e-02
1.711000000000000000e+03 2.490224599838256836e+00 1.798625373840332031e+01 -9.888073056936264038e-02 1.488692164421081543e+00 4.169434309005737305e-01 -1.481454670429229736e-01
1.712000000000000000e+03 4.208059608936309814e-01 4.206238555908203125e+01 8.393989410251379013e-04 1.123563289642333984e+00 3.373208045959472656e-01 9.649532148614525795e-04
1.713000000000000000e+03 1.452626943588256836e+00 4.198833084106445312e+01 3.277129027992486954e-03 1.126715540885925293e+00 3.389978110790252686e-01 1.502935774624347687e-03
1.714000000000000000e+03 1.574939012527465820e+00 4.105630493164062500e+01 7.346261292695999146e-03 1.126921653747558594e+00 3.402803838253021240e-01 5.496503319591283798e-03
1.715000000000000000e+03 1.486979603767395020e+00 3.957019805908203125e+01 5.992716643959283829e-03 1.135919332504272461e+00 3.425736129283905029e-01 1.996651478111743927e-02
1.716000000000000000e+03 1.676652193069458008e+00 3.780052185058593750e+01 4.978514742106199265e-03 1.162480354309082031e+00 3.502376675605773926e-01 3.290224075317382812e-02
1.717000000000000000e+03 4.620212614536285400e-01 3.483887863159179688e+01 2.991928253322839737e-03 1.252225756645202637e+00 3.765653073787689209e-01 1.475879456847906113e-02
1.718000000000000000e+03 1.388713836669921875e+00 3.399073410034179688e+01 6.604614201933145523e-03 1.254213094711303711e+00 3.782453238964080811e-01 4.886011406779289246e-02
1.719000000000000000e+03 1.319492578506469727e+00 3.236592864990234375e+01 5.900654010474681854e-03 1.313101291656494141e+00 3.957006037235260010e-01 5.510468035936355591e-02
1.720000000000000000e+03 1.296525478363037109e+00 3.077515983581542969e+01 4.911651834845542908e-03 1.377084732055664062e+00 4.145989418029785156e-01 6.161306425929069519e-02
1.721000000000000000e+03 1.259529113769531250e+00 2.918775558471679688e+01 3.642397932708263397e-03 1.448293566703796387e+00 4.355807900428771973e-01 6.512562185525894165e-02
1.722000000000000000e+03 1.252927422523498535e+00 2.760214805603027344e+01 3.863175632432103157e-03 1.522181153297424316e+00 4.578132927417755127e-01 6.709422171115875244e-02
1.723000000000000000e+03 2.256357908248901367e+00 2.604711723327636719e+01 -4.105499479919672012e-03 1.484058380126953125e+00 4.439858496189117432e-01 1.079851612448692322e-01
1.724000000000000000e+03 1.206423997879028320e+00 2.423207855224609375e+01 -3.416822990402579308e-03 1.678502321243286133e+00 5.025256872177124023e-01 5.966234207153320312e-02
1.725000000000000000e+03 3.841387927532196045e-01 2.196258544921875000e+01 1.212883580592460930e-04 1.901497364044189453e+00 5.704855918884277344e-01 1.189784798771142960e-02
1.726000000000000000e+03 1.164643168449401855e+00 2.027270126342773438e+01 -1.827212236821651459e-02 1.766920447349548340e+00 5.245944857597351074e-01 -1.956453081220388412e-03
1.727000000000000000e+03 1.082297801971435547e+00 1.948367881774902344e+01 -1.352941710501909256e-02 1.773281693458557129e+00 5.279256701469421387e-01 -2.349453419446945190e-02
1.728000000000000000e+03 3.916469812393188477e-01 1.477081012725830078e+01 -8.572482503950595856e-03 1.429318666458129883e+00 4.262238442897796631e-01 -8.387220650911331177e-02
1.729000000000000000e+03 1.190633296966552734e+00 1.479191207885742188e+01 -3.722009435296058655e-02 1.317247509956359863e+00 3.840082287788391113e-01 -2.389443665742874146e-01
1.730000000000000000e+03 2.745601654052734375e+00 1.240019130706787109e+01 -1.573344022035598755e-01 9.032694697380065918e-01 2.237805128097534180e-01 -7.097138166427612305e-01
1.731000000000000000e+03 4.320051670074462891e+00 1.107353878021240234e+01 -2.092000395059585571e-01 9.465224742889404297e-01 2.211967259645462036e-01 -1.072980165481567383e+00
1.732000000000000000e+03 6.235603809356689453e+00 8.245373725891113281e+00 5.721927881240844727e-01 1.040480256080627441e+00 4.838019013404846191e-01 -1.674741864204406738e+00
1.733000000000000000e+03 8.271512031555175781e+00 6.551230907440185547e+00 2.296528816223144531e+00 2.175402402877807617e+00 1.341579437255859375e+00 -2.556386232376098633e+00
1.734000000000000000e+03 9.377930641174316406e+00 5.408707618713378906e+00 6.371469497680664062e+00 2.864459753036499023e+00 2.770778656005859375e+00 -3.409433603286743164e+00
1.735000000000000000e+03 3.957344889640808105e-01 1.316925239562988281e+01 -7.246409542858600616e-03 1.021184086799621582e+00 3.041813075542449951e-01 -1.179608926177024841e-01
1.736000000000000000e+03 1.196825385093688965e+00 1.319687461853027344e+01 -3.711958974599838257e-02 9.874527454376220703e-01 2.850999534130096436e-01 -3.325904905796051025e-01
1.737000000000000000e+03 1.952823519706726074e+00 1.079747295379638672e+01 -2.006373181939125061e-02 4.502240419387817383e-01 1.290480941534042358e-01 -6.461617946624755859e-01
1.738000000000000000e+03 7.283131122589111328e+00 7.437477111816406250e+00 1.062620520591735840e+00 1.506613969802856445e+00 7.707703709602355957e-01 -2.084678888320922852e+00
1.739000000000000000e+03 8.607218742370605469e+00 5.516623973846435547e+00 4.116241931915283203e+00 2.026758670806884766e+00 1.842900276184082031e+00 -2.151387214660644531e+00
1.740000000000000000e+03 9.851874351501464844e+00 3.258194446563720703e+00 3.510022878646850586e+00 3.226649761199951172e+00 2.021001815795898438e+00 1.432122588157653809e-01
1.741000000000000000e+03 1.132965087890625000e+01 2.515208005905151367e+00 1.548618197441101074e+00 2.563150882720947266e+00 1.233530759811401367e+00 -2.163426876068115234e+00
1.742000000000000000e+03 1.193039703369140625e+01 1.748391866683959961e+00 -6.891926527023315430e-01 1.199426531791687012e+00 1.530701667070388794e-01 -2.259597539901733398e+00
1.743000000000000000e+03 1.332924175262451172e+01 1.701871514320373535e+00 3.835114836692810059e-01 -4.960052371025085449e-01 -3.374812379479408264e-02 -2.424762248992919922e+00
1.744000000000000000e+03 1.394427776336669922e+01 2.457599639892578125e+00 2.354965448379516602e+00 -1.772024393081665039e+00 1.748823076486587524e-01 -1.463108301162719727e+00
1.745000000000000000e+03 1.623050880432128906e+01 3.366430282592773438e+00 1.580354022979736328e+01 1.967077255249023438e+00 5.331185340881347656e+00 -4.273953661322593689e-02
1.746000000000000000e+03 1.450290679931640625e+01 3.306520223617553711e+00 7.287518501281738281e+00 -3.889857053756713867e+00 1.019298315048217773e+00 -8.528479337692260742e-01
1.747000000000000000e+03 1.549455356597900391e+01 3.024802446365356445e+00 7.820755481719970703e+00 -1.525242328643798828e+00 1.888653874397277832e+00 1.172453522682189941e+00
1.748000000000000000e+03 1.810886001586914062e+01 2.756732225418090820e+00 5.994658946990966797e+00 2.699889242649078369e-01 1.879394292831420898e+00 -1.998810291290283203e+00
1.749000000000000000e+03 1.821508026123046875e+01 3.749718904495239258e+00 8.603180885314941406e+00 -1.817420482635498047e+00 2.035728216171264648e+00 1.246818184852600098e+00
1.750000000000000000e+03 1.750125885009765625e+01 3.197627782821655273e+00 1.198346233367919922e+01 1.068628907203674316e+00 3.915627479553222656e+00 -2.213918209075927734e+00
1.751000000000000000e+03 1.930500793457031250e+01 1.690152406692504883e+00 1.811348795890808105e-01 -1.070171713829040527e+00 -2.667110562324523926e-01 8.036296367645263672e-01
1.752000000000000000e+03 1.919666862487792969e+01 3.729994535446166992e+00 7.709945678710937500e+00 -7.677385210990905762e-01 2.082662105560302734e+00 6.964573264122009277e-01
1.753000000000000000e+03 2.085008430480957031e+01 6.445608615875244141e+00 2.270369768142700195e+00 4.693793296813964844e+00 2.089248895645141602e+00 -1.660755425691604614e-01
1.754000000000000000e+03 3.902454376220703125e-01 1.155783843994140625e+01 -2.316230908036231995e-03 4.793585836887359619e-01 1.431127041578292847e-01 -1.451103836297988892e-01
1.755000000000000000e+03 1.170807003974914551e+00 1.157572841644287109e+01 -2.229291014373302460e-02 5.490442514419555664e-01 1.580254137516021729e-01 -4.083791971206665039e-01
1.756000000000000000e+03 2.003890275955200195e+00 9.211977958679199219e+00 8.385057002305984497e-02 5.659259110689163208e-02 4.213294759392738342e-02 -6.317502260208129883e-01
1.757000000000000000e+03 5.018039703369140625e+00 7.678940296173095703e+00 8.582580685615539551e-01 3.989934921264648438e-01 3.771754801273345947e-01 -1.227985262870788574e+00
1.758000000000000000e+03 6.345996856689453125e+00 4.734036445617675781e+00 2.357205629348754883e+00 -2.322223037481307983e-01 6.374949812889099121e-01 -2.223664373159408569e-01
1.759000000000000000e+03 7.506794452667236328e+00 3.505291938781738281e+00 2.535361289978027344e+00 -3.399671614170074463e-01 6.586182117462158203e-01 7.765211462974548340e-01
1.760000000000000000e+03 9.678664207458496094e+00 1.854204297065734863e+00 -1.156980991363525391e+00 1.171598672866821289e+00 4.385327920317649841e-03 5.453410744667053223e-01
1.761000000000000000e+03 1.044381141662597656e+01 1.833271980285644531e+00 -1.108787655830383301e+00 1.433048605918884277e+00 9.727828204631805420e-02 -3.417663276195526123e-01
1.762000000000000000e+03 3.920724391937255859e-01 9.950150489807128906e+00 8.100925944745540619e-03 -1.431836187839508057e-01 -4.052480682730674744e-02 -1.513421535491943359e-01
1.763000000000000000e+03 1.179320573806762695e+00 9.972537994384765625e+00 1.181888021528720856e-02 6.002635881304740906e-02 2.155357226729393005e-02 -4.296723902225494385e-01
1.764000000000000000e+03 2.841857671737670898e+00 7.592127323150634766e+00 3.607976734638214111e-01 -1.023059934377670288e-01 7.754749804735183716e-02 -6.268039941787719727e-01
1.765000000000000000e+03 4.658952236175537109e+00 5.690549373626708984e+00 1.254587292671203613e+00 -3.332840204238891602e-01 2.763909697532653809e-01 -4.275783896446228027e-01
1.766000000000000000e+03 8.189613342285156250e+00 2.657182693481445312e+00 1.181721448898315430e+00 1.922647356986999512e-01 4.121958315372467041e-01 1.417053341865539551e+00
1.767000000000000000e+03 8.125472068786621094e+00 1.890106558799743652e+00 -8.803513646125793457e-01 2.255573570728302002e-01 -1.964381933212280273e-01 1.441066861152648926e+00
1.768000000000000000e+03 8.903228759765625000e+00 1.869745612144470215e+00 -1.051602959632873535e+00 4.941665530204772949e-01 -1.672309190034866333e-01 1.225703358650207520e+00
1.769000000000000000e+03 4.015285074710845947e-01 7.540276527404785156e+00 1.781600341200828552e-02 -9.368784427642822266e-01 -2.757187187671661377e-01 -9.343540668487548828e-02
1.770000000000000000e+03 1.205357551574707031e+00 7.565319538116455078e+00 8.596395701169967651e-02 -5.714116692543029785e-01 -1.456343084573745728e-01 -2.785322666168212891e-01
1.771000000000000000e+03 3.138566255569458008e+00 5.356269359588623047e+00 6.537040472030639648e-01 -4.672882258892059326e-01 5.592473596334457397e-02 -2.479251241311430931e-03
1.772000000000000000e+03 4.008983135223388672e+00 3.294303894042968750e+00 3.908418715000152588e-01 -4.641773104667663574e-01 -2.200063131749629974e-02 7.243608236312866211e-01
1.773000000000000000e+03 5.691877841949462891e+00 2.808566808700561523e+00 5.559490919113159180e-01 -4.326199889183044434e-01 3.699872642755508423e-02 1.038218140602111816e+00
1.774000000000000000e+03 6.551610469818115234e+00 1.938782095909118652e+00 -6.522445678710937500e-01 -2.387848794460296631e-01 -2.673088312149047852e-01 1.356650710105895996e+00
1.775000000000000000e+03 4.038448631763458252e-01 5.917861461639404297e+00 2.697374485433101654e-02 -1.131514191627502441e+00 -3.313621282577514648e-01 5.092911305837333202e-04
1.776000000000000000e+03 1.213940143585205078e+00 5.906877040863037109e+00 1.228647381067276001e-01 -7.823206782341003418e-01 -1.978367865085601807e-01 -1.356751844286918640e-02
1.777000000000000000e+03 2.592040538787841797e+00 3.329893827438354492e+00 1.411736160516738892e-01 -4.559874534606933594e-01 -9.444414824247360229e-02 5.519458651542663574e-01
1.778000000000000000e+03 4.208474636077880859e+00 1.874617695808410645e+00 -4.544366002082824707e-01 -2.682109773159027100e-01 -2.167942672967910767e-01 8.333318233489990234e-01
1.779000000000000000e+03 5.764652729034423828e+00 1.931334018707275391e+00 -5.854806900024414062e-01 -3.430815041065216064e-01 -2.785686552524566650e-01 1.183361530303955078e+00
1.780000000000000000e+03 3.870377540588378906e-01 4.298341751098632812e+00 2.045104093849658966e-02 -9.426706433296203613e-01 -2.766658663749694824e-01 9.106307476758956909e-02
1.781000000000000000e+03 1.871341228485107422e+00 3.394742488861083984e+00 8.212862908840179443e-02 -4.932034611701965332e-01 -1.233224570751190186e-01 4.409076869487762451e-01
1.782000000000000000e+03 2.673764705657958984e+00 1.866878747940063477e+00 -2.679399549961090088e-01 -2.217153459787368774e-01 -1.468965858221054077e-01 5.582126379013061523e-01
1.783000000000000000e+03 1.145984411239624023e+00 1.885348916053771973e+00 -7.867321372032165527e-02 -2.589701712131500244e-01 -1.012930199503898621e-01 2.739420235157012939e-01
1.784000000000000000e+03 3.770765960216522217e-01 2.691920042037963867e+00 -4.966766573488712311e-03 -4.650090634822845459e-01 -1.409927457571029663e-01 1.211650967597961426e-01
1.785000000000000000e+03 1.910249352455139160e+00 1.875028491020202637e+00 -1.703184545040130615e-01 -2.286741733551025391e-01 -1.196977868676185608e-01 4.208147227764129639e-01
1.786000000000000000e+03 1.986430168151855469e+01 2.238918542861938477e+00 3.821516513824462891e+00 7.616606354713439941e-01 1.374953150749206543e+00 -5.202396512031555176e-01
1.787000000000000000e+03 2.154380035400390625e+01 3.295193016529083252e-01 -1.608501553535461426e+00 7.961462020874023438e+00 1.905888080596923828e+00 -1.897004246711730957e+00
1.788000000000000000e+03 2.212512397766113281e+01 -3.262430429458618164e-01 -1.234761953353881836e+00 8.743445396423339844e+00 2.252605199813842773e+00 -3.289642810821533203e+00
1.789000000000000000e+03 2.295997238159179688e+01 -2.699605226516723633e+00 4.449015617370605469e+00 9.224700927734375000e+00 4.102115154266357422e+00 -6.366687774658203125e+00
1.790000000000000000e+03 2.342798805236816406e+01 -3.354058265686035156e+00 4.680380821228027344e+00 1.026037025451660156e+01 4.482225418090820312e+00 -6.762135505676269531e+00
1.791000000000000000e+03 2.582240295410156250e+01 -5.844938278198242188e+00 3.645422697067260742e+00 1.384333801269531250e+01 5.246628284454345703e+00 -2.980713367462158203e+00
1.792000000000000000e+03 2.511753654479980469e+01 -6.166123867034912109e+00 3.108120679855346680e+00 2.044828605651855469e+01 7.066921710968017578e+00 -5.124979019165039062e+00
1.793000000000000000e+03 2.532394409179687500e+01 -7.010429859161376953e+00 1.256744623184204102e+00 1.923387336730957031e+01 6.147185802459716797e+00 -2.474009752273559570e+00
1.794000000000000000e+03 2.096360588073730469e+01 -1.302309036254882812e-01 -4.443398118019104004e-01 3.548878431320190430e+00 9.313615560531616211e-01 -1.183004498481750488e+00
1.795000000000000000e+03 1.769576644897460938e+01 -4.471348285675048828e+00 -3.134745359420776367e-01 -2.198389172554016113e-01 -1.599940359592437744e-01 2.639954090118408203e-01
1.796000000000000000e+03 1.659601402282714844e+01 -3.335389614105224609e+00 -1.951090842485427856e-01 -1.518807113170623779e-01 -1.040969341993331909e-01 1.701258271932601929e-01
1.797000000000000000e+03 4.322748184204101562e+01 1.890573620796203613e+00 1.700987577438354492e+00 2.824982643127441406e+00 1.357791066169738770e+00 2.296786308288574219e+00
1.798000000000000000e+03 1.169440555572509766e+01 4.379549026489257812e+00 1.532197761535644531e+01 1.471800804138183594e+00 5.038133621215820312e+00 -2.155061960220336914e+00
1.799000000000000000e+03 1.233631324768066406e+01 4.150460243225097656e+00 9.855298995971679688e+00 9.419838786125183105e-01 3.239184856414794922e+00 -1.406658291816711426e+00
1.800000000000000000e+03 1.193106555938720703e+01 3.481750488281250000e+00 6.807972431182861328e+00 1.913743376731872559e+00 2.616514921188354492e+00 -4.151947975158691406e+00
1.801000000000000000e+03 3.600415420532226562e+01 8.714711189270019531e+00 -1.538410782814025879e-02 -5.823095794767141342e-03 -6.362161133438348770e-03 1.320380065590143204e-02
1.802000000000000000e+03 4.082963943481445312e+01 8.029649734497070312e+00 1.890374720096588135e-02 2.376818284392356873e-02 1.280157919973134995e-02 -5.544584710150957108e-03
1.803000000000000000e+03 4.023387908935546875e+01 8.252552032470703125e+00 -1.848115585744380951e-02 1.237414684146642685e-02 -1.832102891057729721e-03 7.444298826158046722e-03
1.804000000000000000e+03 3.939207458496093750e+01 7.059258937835693359e+00 -3.578024357557296753e-02 2.344955503940582275e-02 -3.699206514284014702e-03 8.678988553583621979e-03
1.805000000000000000e+03 3.844023895263671875e+01 9.303283691406250000e+00 -4.516685847193002701e-03 -1.841551624238491058e-02 -6.879660766571760178e-03 -1.353105902671813965e-02
1.806000000000000000e+03 2.971376991271972656e+01 4.437873363494873047e+00 -4.255877971649169922e+00 -1.477251410484313965e+00 -1.719938755035400391e+00 -2.624337434768676758e+00
1.807000000000000000e+03 3.250244522094726562e+01 3.631359338760375977e+00 -2.307159900665283203e+00 1.355054974555969238e+00 -2.856314480304718018e-01 9.454448819160461426e-01
1.808000000000000000e+03 3.512058639526367188e+01 1.458235383033752441e+00 6.636504828929901123e-02 -4.017429351806640625e-01 -1.006133705377578735e-01 1.387853622436523438e+00
1.809000000000000000e+03 3.576652526855468750e+01 8.694332093000411987e-02 1.133183315396308899e-01 -9.612556099891662598e-01 -2.543811798095703125e-01 4.478664100170135498e-01
1.810000000000000000e+03 3.764271926879882812e+01 -1.138699054718017578e+00 -3.694526106119155884e-02 -1.849934697151184082e+00 -5.660640001296997070e-01 -1.541857421398162842e-01
1.811000000000000000e+03 3.726653289794921875e+01 -1.564749032258987427e-01 -3.903385996818542480e-01 -1.753410577774047852e+00 -6.431247591972351074e-01 2.154942899942398071e-01
1.812000000000000000e+03 3.826821517944335938e+01 4.026750922203063965e-01 -1.437631368637084961e+00 -2.725550889968872070e+00 -1.248954653739929199e+00 1.403193354606628418e+00
1.813000000000000000e+03 2.618074226379394531e+01 2.430194139480590820e+00 -1.002202129364013672e+01 -1.512078046798706055e+00 -3.460229635238647461e+00 -3.119811534881591797e+00
1.814000000000000000e+03 3.010893821716308594e+01 3.869771957397460938e+00 -4.357689380645751953e+00 5.221954360604286194e-02 -1.291640996932983398e+00 -1.293164730072021484e+00
1.815000000000000000e+03 3.072349548339843750e+01 2.135704517364501953e+00 -2.518116950988769531e+00 2.433362245559692383e+00 -2.542645484209060669e-02 1.114770412445068359e+00
1.816000000000000000e+03 3.323063278198242188e+01 3.347031593322753906e+00 -1.489961028099060059e+00 1.033000111579895020e+00 -1.370882838964462280e-01 1.465833067893981934e+00
1.817000000000000000e+03 3.369982910156250000e+01 2.046570301055908203e+00 -1.822547763586044312e-01 6.450583934783935547e-01 1.388410776853561401e-01 1.754784107208251953e+00
1.818000000000000000e+03 3.348284149169921875e+01 3.453694880008697510e-01 1.537502646446228027e+00 -1.094282884150743484e-02 4.579679369926452637e-01 1.593685984611511230e+00
1.819000000000000000e+03 3.536874008178710938e+01 -2.361874341964721680e+00 5.962876677513122559e-01 -9.522700309753417969e-01 -1.067947149276733398e-01 1.307909786701202393e-01
1.820000000000000000e+03 3.759123611450195312e+01 -3.530086517333984375e+00 9.283246994018554688e-01 -2.131304264068603516e+00 -3.608939051628112793e-01 7.217031717300415039e-02
1.821000000000000000e+03 3.734564971923828125e+01 -1.701433658599853516e+00 6.640043258666992188e-01 -1.956359028816223145e+00 -3.877063989639282227e-01 -2.824432253837585449e-01
1.822000000000000000e+03 2.144399070739746094e+01 1.319931030273437500e+00 2.073798477649688721e-01 8.148035049438476562e+00 2.506624221801757812e+00 -9.982618093490600586e-01
1.823000000000000000e+03 2.166556739807128906e+01 2.917592048645019531e+00 5.786632061004638672e+00 1.059139537811279297e+01 4.913408279418945312e+00 -1.554753780364990234e-01
1.824000000000000000e+03 2.076083183288574219e+01 3.466754436492919922e+00 7.405581951141357422e+00 4.729757308959960938e+00 3.640601873397827148e+00 -2.389459460973739624e-01
1.825000000000000000e+03 2.224094963073730469e+01 4.645697593688964844e+00 5.966919898986816406e+00 1.477728557586669922e+01 6.223261833190917969e+00 6.361813545227050781e-01
1.826000000000000000e+03 2.554289054870605469e+01 9.940687417984008789e-01 -9.360122680664062500e-01 5.039519667625427246e-01 -1.296180933713912964e-01 -4.451223373413085938e+00
1.827000000000000000e+03 2.402140235900878906e+01 2.336160689592361450e-01 -1.558195471763610840e+00 8.265748977661132812e+00 2.012266159057617188e+00 -6.138463497161865234e+00
1.828000000000000000e+03 2.149627113342285156e+01 -7.603009343147277832e-01 1.002934455871582031e+00 5.776980876922607422e+00 2.033974647521972656e+00 -2.942229747772216797e+00
1.829000000000000000e+03 2.377760505676269531e+01 -2.701736986637115479e-01 -8.244476318359375000e-01 8.408031463623046875e+00 2.275074958801269531e+00 -5.425248146057128906e+00
1.830000000000000000e+03 2.311192893981933594e+01 -1.674676895141601562e+00 1.826864480972290039e+00 8.662554740905761719e+00 3.146825790405273438e+00 -5.040370941162109375e+00
1.831000000000000000e+03 2.247945976257324219e+01 -2.059465885162353516e+00 3.504194259643554688e+00 8.165934562683105469e+00 3.501038551330566406e+00 -5.601102828979492188e+00
1.832000000000000000e+03 2.952314186096191406e+01 -7.106289863586425781e-01 6.109286785125732422e+00 2.777505874633789062e+00 2.666037797927856445e+00 3.028436899185180664e+00
1.833000000000000000e+03 2.953035545349121094e+01 1.496439874172210693e-01 2.626024484634399414e+00 2.917938947677612305e+00 1.663189053535461426e+00 1.154867649078369141e+00
1.834000000000000000e+03 3.183309936523437500e+01 7.868124246597290039e-01 1.170724511146545410e+00 2.041439533233642578e+00 9.636491537094116211e-01 2.860886812210083008e+00
1.835000000000000000e+03 3.226879501342773438e+01 1.823241353034973145e+00 -3.829731047153472900e-01 1.580065965652465820e+00 3.591278493404388428e-01 2.262744903564453125e+00
1.836000000000000000e+03 3.444693374633789062e+01 1.953276395797729492e+00 -1.278923451900482178e-01 1.219022721052169800e-01 -1.797022414393723011e-03 1.584054112434387207e+00
1.837000000000000000e+03 3.590672302246093750e+01 8.203979730606079102e-01 -5.935857072472572327e-02 -9.713675379753112793e-01 -3.092178106307983398e-01 9.999284148216247559e-01
1.838000000000000000e+03 2.227458953857421875e+01 3.844614267349243164e+00 7.618653774261474609e+00 1.657165336608886719e+01 7.257092475891113281e+00 -4.396539330482482910e-01
1.839000000000000000e+03 1.923297500610351562e+01 2.758673429489135742e+00 5.741426467895507812e+00 -9.219639897346496582e-01 1.445838689804077148e+00 -5.962030291557312012e-01
1.840000000000000000e+03 1.645570945739746094e+01 5.180814266204833984e+00 2.200285673141479492e+00 -1.420718312263488770e+00 2.338702082633972168e-01 -2.041340827941894531e+00
1.841000000000000000e+03 1.753957176208496094e+01 4.932478904724121094e+00 4.935961246490478516e+00 -6.291087865829467773e-01 1.292055726051330566e+00 2.359991371631622314e-01
1.842000000000000000e+03 1.482677078247070312e+01 5.870618343353271484e+00 -4.193053722381591797e+00 -3.161495447158813477e+00 -2.206364870071411133e+00 -3.468310117721557617e+00
1.843000000000000000e+03 1.019147586822509766e+01 5.400981903076171875e+00 5.627919673919677734e+00 1.115836715698242188e+01 5.035886287689208984e+00 -5.194273948669433594e+00
1.844000000000000000e+03 7.858901977539062500e+00 5.582021713256835938e+00 3.767078161239624023e+00 7.545499205589294434e-01 1.356488466262817383e+00 -1.884854912757873535e+00
1.845000000000000000e+03 5.792455196380615234e+00 5.145699977874755859e+00 1.947692036628723145e+00 -4.362372159957885742e-01 4.534364342689514160e-01 -3.072284758090972900e-01
1.846000000000000000e+03 2.734467744827270508e+00 4.796198844909667969e+00 4.518555104732513428e-01 -5.499697923660278320e-01 -2.943429164588451385e-02 2.186222225427627563e-01
1.847000000000000000e+03 1.879748940467834473e+00 2.629480600357055664e+00 -4.239423200488090515e-02 -3.751935660839080811e-01 -1.252763420343399048e-01 4.711886644363403320e-01
1.848000000000000000e+03 4.488777637481689453e+00 4.027854442596435547e+00 9.833927750587463379e-01 -5.470755100250244141e-01 1.308951824903488159e-01 4.999582469463348389e-01
1.849000000000000000e+03 7.388109683990478516e+00 2.731235742568969727e+00 1.152524352073669434e+00 -1.225897818803787231e-01 3.089803457260131836e-01 1.327877163887023926e+00
1.850000000000000000e+03 9.075896263122558594e+00 3.326927900314331055e+00 3.519380331039428711e+00 1.383012533187866211e+00 1.470717906951904297e+00 9.369400143623352051e-01
1.851000000000000000e+03 1.134824275970458984e+01 3.166493415832519531e+00 3.598398208618164062e+00 4.187125682830810547e+00 2.335657119750976562e+00 -2.290814638137817383e+00
1.852000000000000000e+03 2.248086738586425781e+01 8.826005935668945312e+00 -3.149083137512207031e+00 6.769694328308105469e+00 1.086183428764343262e+00 1.007782459259033203e+00
1.853000000000000000e+03 2.581578636169433594e+01 8.075006484985351562e+00 2.795662641525268555e+00 5.879725933074951172e+00 2.602616548538208008e+00 4.221273422241210938e+00
1.854000000000000000e+03 2.484265518188476562e+01 8.104319572448730469e+00 8.092637062072753906e-01 8.986186981201171875e+00 2.938635110855102539e+00 4.388170719146728516e+00
1.855000000000000000e+03 2.485825920104980469e+01 1.093474578857421875e+01 -3.565207004547119141e+00 9.154350280761718750e+00 1.676742911338806152e+00 1.970394372940063477e+00
1.856000000000000000e+03 2.518249702453613281e+01 1.227082633972167969e+01 -1.900512576103210449e+00 1.062776088714599609e+01 2.618174552917480469e+00 1.755332589149475098e+00
1.857000000000000000e+03 2.225922584533691406e+01 1.057492351531982422e+01 -3.979112863540649414e+00 2.792517900466918945e+00 -3.559784889221191406e-01 -1.098158024251461029e-02
1.858000000000000000e+03 2.638989067077636719e+01 1.186479663848876953e+01 -2.360073566436767578e+00 7.520053863525390625e+00 1.547994017601013184e+00 4.714679121971130371e-01
1.859000000000000000e+03 2.575026321411132812e+01 1.181737613677978516e+01 -2.607551097869873047e+00 8.761173248291015625e+00 1.846086502075195312e+00 1.081122517585754395e+00
1.860000000000000000e+03 2.622698211669921875e+01 1.356170558929443359e+01 1.752970933914184570e+00 9.346376419067382812e+00 3.329804420471191406e+00 6.196398735046386719e-01
1.861000000000000000e+03 2.698624610900878906e+01 1.550724983215332031e+01 3.339693546295166016e+00 7.090107440948486328e+00 3.128940343856811523e+00 2.106335639953613281e+00
1.862000000000000000e+03 2.713217735290527344e+01 1.775075721740722656e+01 -7.730739712715148926e-01 5.692270755767822266e+00 1.475759029388427734e+00 2.454152345657348633e+00
1.863000000000000000e+03 2.684403800964355469e+01 1.985943222045898438e+01 -1.666060805320739746e+00 4.351513862609863281e+00 8.056359291076660156e-01 9.658064842224121094e-01
1.864000000000000000e+03 2.710308837890625000e+01 2.265400123596191406e+01 -1.207815647125244141e+00 2.702849626541137695e+00 4.485101699829101562e-01 4.104738235473632812e-01
1.865000000000000000e+03 2.661974143981933594e+01 2.386568832397460938e+01 -1.064842462539672852e+00 2.401586055755615234e+00 4.010230302810668945e-01 1.786742806434631348e-01
1.866000000000000000e+03 2.516815567016601562e+01 2.472555923461914062e+01 -8.526875376701354980e-01 1.988902568817138672e+00 3.408645093441009521e-01 -1.359953135251998901e-01
1.867000000000000000e+03 2.524003982543945312e+01 2.350732040405273438e+01 -1.087139010429382324e+00 2.314912557601928711e+00 3.683320581912994385e-01 -2.729838490486145020e-01
1.868000000000000000e+03 2.482144927978515625e+01 2.092845535278320312e+01 -1.571058750152587891e+00 3.256661891937255859e+00 5.056809782981872559e-01 -9.357510209083557129e-01
1.869000000000000000e+03 2.640956687927246094e+01 1.915277671813964844e+01 -1.877691149711608887e+00 5.280452728271484375e+00 1.020828366279602051e+00 4.538437128067016602e-01
1.870000000000000000e+03 2.453097343444824219e+01 1.664142227172851562e+01 -1.777344942092895508e-01 5.533280849456787109e+00 1.606663942337036133e+00 -3.478063344955444336e+00
1.871000000000000000e+03 2.892595100402832031e+01 1.201473522186279297e+01 -2.308548927307128906e+00 -1.826396435499191284e-01 -7.473565340042114258e-01 -1.509457111358642578e+00
1.872000000000000000e+03 2.832123947143554688e+01 1.152154064178466797e+01 -2.525434255599975586e+00 1.078539609909057617e+00 -4.340684115886688232e-01 -1.089317917823791504e+00
1.873000000000000000e+03 2.827634239196777344e+01 1.347308826446533203e+01 2.386930733919143677e-01 2.500209093093872070e+00 8.216705918312072754e-01 -1.114231348037719727e-01
1.874000000000000000e+03 3.117185020446777344e+01 1.283998966217041016e+01 -3.677668571472167969e+00 -2.263677358627319336e+00 -1.782403707504272461e+00 -2.738717079162597656e+00
1.875000000000000000e+03 2.660839080810546875e+01 1.293310546875000000e+01 -2.366287261247634888e-01 7.608481884002685547e+00 2.211555957794189453e+00 1.561122387647628784e-01
1.876000000000000000e+03 4.190607833862304688e+01 1.481526660919189453e+01 -1.812925219535827637e+00 7.129881978034973145e-01 -3.299811184406280518e-01 -9.460246562957763672e-02
1.877000000000000000e+03 4.333108520507812500e+01 1.602325439453125000e+01 -1.637732267379760742e+00 6.796280741691589355e-01 -2.874312400817871094e-01 -2.018690705299377441e-01
1.878000000000000000e+03 3.587875366210937500e+01 1.458902645111083984e+01 -3.728177309036254883e+00 -7.709132432937622070e-01 -1.349727153778076172e+00 1.825780719518661499e-01
1.879000000000000000e+03 3.346755218505859375e+01 1.516872119903564453e+01 -3.133645534515380859e+00 -1.311732769012451172e+00 -1.333613395690917969e+00 -3.561493456363677979e-01
1.880000000000000000e+03 3.155766296386718750e+01 1.519553852081298828e+01 -1.355496644973754883e+00 -1.069909572601318359e+00 -7.276218533515930176e-01 7.435707747936248779e-02
1.881000000000000000e+03 2.772226524353027344e+01 1.511094665527343750e+01 2.496308803558349609e+00 4.364953994750976562e+00 2.058378934860229492e+00 1.683260679244995117e+00
1.882000000000000000e+03 3.053773880004882812e+01 1.517404747009277344e+01 -4.562927782535552979e-01 -4.351204335689544678e-01 -2.674239575862884521e-01 5.102143883705139160e-01
1.883000000000000000e+03 7.587274169921875000e+01 1.740028381347656250e+01 3.507867157459259033e-01 6.465410232543945312e+00 2.044858932495117188e+00 -1.244068518280982971e-01
1.884000000000000000e+03 7.394247436523437500e+01 1.540439319610595703e+01 9.727306365966796875e-01 5.782364368438720703e+00 2.026528596878051758e+00 -1.743451505899429321e-01
1.885000000000000000e+03 7.329775238037109375e+01 1.746897506713867188e+01 6.403785347938537598e-01 6.281253814697265625e+00 2.076489686965942383e+00 2.810461819171905518e-01
1.886000000000000000e+03 6.942068481445312500e+01 1.615676307678222656e+01 5.316800475120544434e-01 7.264584064483642578e+00 2.338879108428955078e+00 9.774826169013977051e-01
1.887000000000000000e+03 6.794094848632812500e+01 1.591055774688720703e+01 1.512685567140579224e-01 8.118680000305175781e+00 2.480984687805175781e+00 6.488294601440429688e-01
1.888000000000000000e+03 6.768654632568359375e+01 1.652247238159179688e+01 -1.245755851268768311e-01 7.896001338958740234e+00 2.331427812576293945e+00 3.793480694293975830e-01
1.889000000000000000e+03 5.181311798095703125e+01 1.581667327880859375e+01 -5.024107694625854492e-01 1.119815826416015625e+01 3.208724021911621094e+00 9.797576665878295898e-01
1.890000000000000000e+03 5.110216903686523438e+01 1.344335269927978516e+01 3.186927795410156250e+00 2.011987686157226562e+01 6.992041587829589844e+00 -1.055334091186523438e+00
1.891000000000000000e+03 5.282390975952148438e+01 1.138945102691650391e+01 2.748598814010620117e+00 1.265741920471191406e+01 4.621805667877197266e+00 1.221423506736755371e+00
1.892000000000000000e+03 5.205442810058593750e+01 1.047786331176757812e+01 2.570794820785522461e+00 1.461542129516601562e+01 5.155864715576171875e+00 6.292859315872192383e-01
1.893000000000000000e+03 5.348452758789062500e+01 1.033598423004150391e+01 1.634224057197570801e+00 1.144800281524658203e+01 3.924668073654174805e+00 9.740558862686157227e-01
1.894000000000000000e+03 4.772522735595703125e+01 1.755112838745117188e+01 -8.248947858810424805e-01 2.114186286926269531e+00 3.867874145507812500e-01 -2.307168483734130859e+00
1.895000000000000000e+03 4.347258377075195312e+01 1.729112625122070312e+01 -1.270681977272033691e+00 7.882186174392700195e-01 -1.447390019893646240e-01 -2.699366807937622070e-01
1.896000000000000000e+03 4.516580581665039062e+01 1.760947990417480469e+01 -9.184219241142272949e-01 7.289828658103942871e-01 -5.683171376585960388e-02 -5.614917278289794922e-01
1.897000000000000000e+03 4.067007064819335938e+01 1.694782638549804688e+01 -1.568580865859985352e+00 7.255584597587585449e-01 -2.529067099094390869e-01 -1.569901555776596069e-01
1.898000000000000000e+03 3.806015396118164062e+01 1.628920173645019531e+01 -2.015007257461547852e+00 2.449972480535507202e-01 -5.310029983520507812e-01 -2.174039632081985474e-01
1.899000000000000000e+03 3.515327072143554688e+01 1.657738494873046875e+01 -1.788106322288513184e+00 -1.011296391487121582e+00 -8.398208022117614746e-01 -1.184124946594238281e-01
1.900000000000000000e+03 3.327189636230468750e+01 1.711176300048828125e+01 -8.446033000946044922e-01 -8.986750245094299316e-01 -5.229834914207458496e-01 5.864851474761962891e-01
1.901000000000000000e+03 3.168385696411132812e+01 1.689067459106445312e+01 -4.967067837715148926e-01 -3.704963326454162598e-01 -2.601609230041503906e-01 1.126867771148681641e+00
1.902000000000000000e+03 2.807920265197753906e+01 1.778670501708984375e+01 -3.866929709911346436e-01 4.098636150360107422e+00 1.113582968711853027e+00 2.561628103256225586e+00
1.903000000000000000e+03 2.930046653747558594e+01 1.688541412353515625e+01 3.572447299957275391e-01 2.069039344787597656e+00 7.278852462768554688e-01 2.361336708068847656e+00
1.904000000000000000e+03 2.526555252075195312e+01 1.747589683532714844e+01 -2.534237861633300781e+00 9.442699432373046875e+00 2.072538375854492188e+00 -1.179039120674133301e+00
1.905000000000000000e+03 1.780999946594238281e+01 1.479822635650634766e+01 -2.287284851074218750e+00 -5.568462014198303223e-01 -8.532392978668212891e-01 -1.161617279052734375e+00
1.906000000000000000e+03 2.010092353820800781e+01 1.723561477661132812e+01 -1.994647026062011719e+00 -4.234158992767333984e-01 -7.254188656806945801e-01 -7.096961736679077148e-01
1.907000000000000000e+03 1.733372497558593750e+01 1.697831344604492188e+01 -1.619789004325866699e+00 -2.708230018615722656e-01 -5.671836137771606445e-01 -5.199700593948364258e-01
1.908000000000000000e+03 1.640926361083984375e+01 1.716963195800781250e+01 -1.410950660705566406e+00 -1.912323385477066040e-01 -4.806548953056335449e-01 -3.988024592399597168e-01
1.909000000000000000e+03 1.466830253601074219e+01 1.757482719421386719e+01 -1.120149016380310059e+00 1.154318172484636307e-02 -3.325817584991455078e-01 -2.064885348081588745e-01
1.910000000000000000e+03 1.604295730590820312e+01 1.629767036437988281e+01 -1.534455180168151855e+00 -2.455871403217315674e-01 -5.340126752853393555e-01 -5.075742602348327637e-01
1.911000000000000000e+03 1.850931739807128906e+01 1.521581268310546875e+01 -2.436604022979736328e+00 -5.791277885437011719e-01 -9.047195315361022949e-01 -1.081984519958496094e+00
1.912000000000000000e+03 1.889227867126464844e+01 1.750160980224609375e+01 -1.623100280761718750e+00 -3.206831216812133789e-01 -5.831350684165954590e-01 -5.568280816078186035e-01
1.913000000000000000e+03 1.488813495635986328e+01 1.493297958374023438e+01 -1.597321033477783203e+00 -3.410846590995788574e-01 -5.815216898918151855e-01 -5.705751180648803711e-01
1.914000000000000000e+03 1.532504081726074219e+01 1.601080322265625000e+01 -1.498054862022399902e+00 -2.501704990863800049e-01 -5.244676470756530762e-01 -4.589557349681854248e-01
1.915000000000000000e+03 1.095351505279541016e+01 1.497294139862060547e+01 -1.139033317565917969e+00 6.485017538070678711e-01 -1.471594721078872681e-01 -2.935147285461425781e-01
1.916000000000000000e+03 9.879955291748046875e+00 1.625618171691894531e+01 -9.303691983222961426e-01 8.312374353408813477e-01 -2.973952516913414001e-02 -2.216576188802719116e-01
1.917000000000000000e+03 1.204782199859619141e+01 1.702015304565429688e+01 -1.010982632637023926e+00 4.155603945255279541e-01 -1.786266565322875977e-01 -1.329484879970550537e-01
1.918000000000000000e+03 7.468768596649169922e+00 1.504704380035400391e+01 -7.671133875846862793e-01 1.186680197715759277e+00 1.258700340986251831e-01 -4.767383038997650146e-01
1.919000000000000000e+03 2.945351600646972656e+00 1.493276405334472656e+01 -1.905728727579116821e-01 1.234481215476989746e+00 3.131725192070007324e-01 -4.647936224937438965e-01
1.920000000000000000e+03 2.609088659286499023e+00 1.651764869689941406e+01 -1.283368766307830811e-01 1.384865880012512207e+00 3.769586980342864990e-01 -2.715501785278320312e-01
1.921000000000000000e+03 4.690865516662597656e+00 1.354403972625732422e+01 -4.354213476181030273e-01 1.196821689605712891e+00 2.284201085567474365e-01 -7.663413882255554199e-01
1.922000000000000000e+03 4.379838943481445312e+00 1.465727519989013672e+01 -3.731430470943450928e-01 1.220913887023925781e+00 2.543312609195709229e-01 -5.888973474502563477e-01
1.923000000000000000e+03 8.187910079956054688e+00 1.380546855926513672e+01 -9.573432207107543945e-01 1.219823360443115234e+00 7.874403893947601318e-02 -5.949978828430175781e-01
1.924000000000000000e+03 1.138747119903564453e+01 1.320161437988281250e+01 -1.280577898025512695e+00 5.133358240127563477e-01 -2.301726043224334717e-01 -4.241026937961578369e-01
1.925000000000000000e+03 1.042737865447998047e+01 1.324824047088623047e+01 -1.191830277442932129e+00 8.761860132217407227e-01 -9.469327330589294434e-02 -4.413347542285919189e-01
1.926000000000000000e+03 1.356684207916259766e+01 1.617014884948730469e+01 -1.234815120697021484e+00 1.229592040181159973e-01 -3.335568010807037354e-01 -2.636635601520538330e-01
1.927000000000000000e+03 1.376941680908203125e+01 1.317620944976806641e+01 -1.523301959037780762e+00 -2.719729542732238770e-01 -5.385824441909790039e-01 -7.062896490097045898e-01
1.928000000000000000e+03 1.481103229522705078e+01 1.194156932830810547e+01 -1.619082450866699219e+00 -9.844927191734313965e-01 -7.810725569725036621e-01 -1.273974537849426270e+00
1.929000000000000000e+03 1.599864959716796875e+01 1.461928176879882812e+01 -1.863184571266174316e+00 -5.747132897377014160e-01 -7.313693761825561523e-01 -8.247563242912292480e-01
1.930000000000000000e+03 5.180976867675781250e+01 1.402299690246582031e+01 3.113407611846923828e+00 1.358247089385986328e+01 5.008763790130615234e+00 1.084132313728332520e+00
1.931000000000000000e+03 5.243347549438476562e+01 1.452615165710449219e+01 1.335116147994995117e+00 1.225299358367919922e+01 4.076433181762695312e+00 2.436425924301147461e+00
1.932000000000000000e+03 6.848032379150390625e+01 1.485466003417968750e+01 7.577062249183654785e-01 8.213867187500000000e+00 2.691472053527832031e+00 1.314902544021606445e+00
1.933000000000000000e+03 7.019130706787109375e+01 1.424832916259765625e+01 1.557124137878417969e+00 6.407457351684570312e+00 2.389374494552612305e+00 1.428655624389648438e+00
1.934000000000000000e+03 7.392466735839843750e+01 1.401865863800048828e+01 1.131180524826049805e+00 5.298555850982666016e+00 1.928920865058898926e+00 -6.398265361785888672e-01
1.935000000000000000e+03 7.245783233642578125e+01 1.489418506622314453e+01 1.342917084693908691e+00 5.508112907409667969e+00 2.055309057235717773e+00 2.761952877044677734e-01
1.936000000000000000e+03 7.553875732421875000e+01 1.560880565643310547e+01 5.290133953094482422e-01 6.257857322692871094e+00 2.036061286926269531e+00 -4.387508928775787354e-01
1.937000000000000000e+03 4.971667861938476562e+01 1.563264179229736328e+01 -4.503667354583740234e-02 8.044766426086425781e+00 2.399919033050537109e+00 -3.872025728225708008e+00
1.938000000000000000e+03 5.499370956420898438e+01 1.143606376647949219e+01 1.752629160881042480e+00 7.450799465179443359e+00 2.761028528213500977e+00 1.918599247932434082e+00
1.939000000000000000e+03 5.487271881103515625e+01 1.253769016265869141e+01 2.075176715850830078e+00 7.404837608337402344e+00 2.844004154205322266e+00 2.429542779922485352e+00
1.940000000000000000e+03 5.800772857666015625e+01 1.172799301147460938e+01 5.793031454086303711e-01 1.511737346649169922e+00 6.273121237754821777e-01 9.943131208419799805e-01
1.941000000000000000e+03 5.788328170776367188e+01 1.358378028869628906e+01 1.032786726951599121e+00 2.812343835830688477e+00 1.153539180755615234e+00 2.031390190124511719e+00
1.942000000000000000e+03 6.053561401367187500e+01 1.255364799499511719e+01 -8.872006535530090332e-01 -9.833023697137832642e-02 -2.956592440605163574e-01 -4.200923740863800049e-01
1.943000000000000000e+03 6.031529617309570312e+01 1.424632549285888672e+01 2.473310530185699463e-01 1.107906460762023926e+00 4.065712392330169678e-01 9.429543614387512207e-01
1.944000000000000000e+03 6.635655975341796875e+01 1.211919593811035156e+01 3.772138357162475586e+00 1.512800025939941406e+01 5.670041561126708984e+00 -6.589234471321105957e-01
1.945000000000000000e+03 7.097393035888671875e+01 1.139192008972167969e+01 1.586830019950866699e+00 3.863485574722290039e+00 1.635094642639160156e+00 8.839669227600097656e-01
1.946000000000000000e+03 7.412183380126953125e+01 1.238971614837646484e+01 8.304157257080078125e-01 4.787942409515380859e+00 1.685507416725158691e+00 -1.718160510063171387e+00
1.947000000000000000e+03 7.530615997314453125e+01 1.441731739044189453e+01 5.589383840560913086e-01 6.089308261871337891e+00 1.994473934173583984e+00 -7.936155200004577637e-01
1.948000000000000000e+03 5.535157012939453125e+01 1.056347370147705078e+01 1.145102500915527344e+00 6.359914302825927734e+00 2.251504898071289062e+00 1.671867251396179199e+00
1.949000000000000000e+03 5.645193099975585938e+01 8.695565223693847656e+00 5.498640537261962891e-01 2.451451778411865234e+00 9.003947377204895020e-01 1.037975549697875977e+00
1.950000000000000000e+03 5.586093139648437500e+01 9.146542549133300781e+00 5.126441121101379395e-01 4.832143783569335938e+00 1.603436350822448730e+00 1.461981177330017090e+00
1.951000000000000000e+03 5.510311889648437500e+01 6.655958652496337891e+00 1.201910018920898438e+00 9.246262550354003906e+00 3.134451866149902344e+00 3.136298894882202148e+00
1.952000000000000000e+03 5.494891357421875000e+01 1.015325641632080078e+01 1.018473267555236816e+00 7.695284366607666016e+00 2.614127397537231445e+00 1.471600532531738281e+00
1.953000000000000000e+03 5.129970550537109375e+01 6.852083683013916016e+00 5.370460152626037598e-01 1.275417327880859375e+01 3.987365722656250000e+00 5.084886550903320312e-01
1.954000000000000000e+03 4.850470733642578125e+01 6.719799995422363281e+00 2.318871259689331055e+00 6.257999897003173828e+00 2.573061466217041016e+00 3.276002168655395508e+00
1.955000000000000000e+03 5.278180694580078125e+01 7.803535461425781250e+00 -1.037508342415094376e-02 1.339243316650390625e+01 4.014617443084716797e+00 4.716670140624046326e-02
1.956000000000000000e+03 4.800173950195312500e+01 6.118801116943359375e+00 2.569491624832153320e+00 5.143304347991943359e+00 2.313838720321655273e+00 2.997984409332275391e+00
1.957000000000000000e+03 5.202106094360351562e+01 4.789500236511230469e+00 2.704454898834228516e+00 1.200071334838867188e+01 4.411550521850585938e+00 -7.035632133483886719e-01
1.958000000000000000e+03 4.804082107543945312e+01 3.913620233535766602e+00 2.992049932479858398e+00 4.594590663909912109e+00 2.275992155075073242e+00 2.900801181793212891e+00
1.959000000000000000e+03 5.180180740356445312e+01 3.159489393234252930e+00 4.088297367095947266e+00 9.958012580871582031e+00 4.213892936706542969e+00 -1.588550359010696411e-01
1.960000000000000000e+03 4.955974960327148438e+01 3.499727249145507812e+00 3.204566478729248047e+00 6.131609439849853516e+00 2.800852775573730469e+00 2.017235040664672852e+00
1.961000000000000000e+03 5.357307434082031250e+01 4.521179199218750000e+00 2.074271678924560547e+00 1.719025421142578125e+01 5.779357433319091797e+00 -2.995288968086242676e-01
1.962000000000000000e+03 4.873723602294921875e+01 2.319566726684570312e+00 2.851888656616210938e+00 4.392733573913574219e+00 2.173386573791503906e+00 2.877837657928466797e+00
1.963000000000000000e+03 4.980702209472656250e+01 2.066093921661376953e+00 3.053633928298950195e+00 5.458640098571777344e+00 2.553682088851928711e+00 2.055441141128540039e+00
1.964000000000000000e+03 5.031809234619140625e+01 1.912537932395935059e+00 3.060581684112548828e+00 6.137768745422363281e+00 2.759505033493041992e+00 1.639873981475830078e+00
1.965000000000000000e+03 5.342892074584960938e+01 3.697381019592285156e+00 3.673991918563842773e+00 1.751053810119628906e+01 6.355359077453613281e+00 -1.783186316490173340e+00
1.966000000000000000e+03 7.731940460205078125e+01 3.419713735580444336e+00 -2.916595041751861572e-01 1.088502788543701172e+01 3.178010463714599609e+00 -2.388533592224121094e+00
1.967000000000000000e+03 7.486050415039062500e+01 2.117815017700195312e+00 -2.473617315292358398e+00 1.314548254013061523e+00 -3.477207124233245850e-01 -7.123911976814270020e-01
1.968000000000000000e+03 7.406464385986328125e+01 -5.717431008815765381e-02 -2.013727664947509766e+00 1.670745611190795898e+00 -1.028946340084075928e-01 -5.389163270592689514e-02
1.969000000000000000e+03 7.360872650146484375e+01 -2.860626220703125000e+00 -7.899953126907348633e-01 4.746820449829101562e+00 1.187047481536865234e+00 -4.681770503520965576e-01
1.970000000000000000e+03 7.342170715332031250e+01 -3.906151771545410156e+00 -8.128466606140136719e-01 5.565210819244384766e+00 1.425709247589111328e+00 -2.661955058574676514e-01
1.971000000000000000e+03 7.421742248535156250e+01 -5.199627876281738281e+00 -4.235220253467559814e-01 7.051280021667480469e+00 1.988327383995056152e+00 8.051148653030395508e-01
1.972000000000000000e+03 7.426308441162109375e+01 -7.179035186767578125e+00 5.118250101804733276e-02 8.131064414978027344e+00 2.454674005508422852e+00 1.084846973419189453e+00
1.973000000000000000e+03 7.351490783691406250e+01 -9.189593315124511719e+00 1.070269346237182617e+00 9.478006362915039062e+00 3.164482831954956055e+00 4.940291047096252441e-01
1.974000000000000000e+03 7.494728851318359375e+01 -1.033421611785888672e+01 9.791256785392761230e-01 9.240605354309082031e+00 3.065919399261474609e+00 1.012359619140625000e+00
1.975000000000000000e+03 7.508555603027343750e+01 -1.162210655212402344e+01 1.105937361717224121e+00 9.310693740844726562e+00 3.124989509582519531e+00 8.220956921577453613e-01
1.976000000000000000e+03 7.810446929931640625e+01 -1.257806110382080078e+01 2.860956788063049316e-01 7.178318500518798828e+00 2.239324092864990234e+00 3.150027692317962646e-01
1.977000000000000000e+03 7.885983276367187500e+01 -1.330553340911865234e+01 1.165452226996421814e-01 6.523972988128662109e+00 1.992155432701110840e+00 6.900183856487274170e-02
1.978000000000000000e+03 7.808386230468750000e+01 -1.179180145263671875e+01 3.175331950187683105e-01 7.332591533660888672e+00 2.295037269592285156e+00 5.342210531234741211e-01
1.979000000000000000e+03 7.805675506591796875e+01 -1.099133682250976562e+01 2.757852077484130859e-01 7.520958900451660156e+00 2.339023113250732422e+00 7.417067885398864746e-01
1.980000000000000000e+03 7.803492736816406250e+01 -1.017268085479736328e+01 2.698996067047119141e-01 7.768790721893310547e+00 2.411607027053833008e+00 9.464628100395202637e-01
1.981000000000000000e+03 7.883961486816406250e+01 -1.171594905853271484e+01 1.205590218305587769e-01 6.812844753265380859e+00 2.080021142959594727e+00 3.734868764877319336e-01
1.982000000000000000e+03 7.797873687744140625e+01 4.083397686481475830e-01 -1.048795700073242188e+00 1.113001823425292969e+01 3.024366855621337891e+00 -1.559971719980239868e-01
1.983000000000000000e+03 7.806614685058593750e+01 -1.356231451034545898e+00 -4.685856997966766357e-01 1.088401031494140625e+01 3.124627351760864258e+00 7.901377677917480469e-01
1.984000000000000000e+03 7.892769622802734375e+01 -2.932438373565673828e+00 -3.299200907349586487e-02 1.176369571685791016e+01 3.519211053848266602e+00 8.064028620719909668e-01
1.985000000000000000e+03 7.373033905029296875e+01 1.128294229507446289e+00 -6.766147613525390625e+00 -1.153001308441162109e+00 -2.375744581222534180e+00 -2.178620815277099609e+00
1.986000000000000000e+03 7.155377960205078125e+01 2.522564828395843506e-01 -3.027109861373901367e+00 4.036736011505126953e+00 3.028877973556518555e-01 -4.208257675170898438e+00
1.987000000000000000e+03 7.215103912353515625e+01 -1.245595574378967285e+00 -1.676292061805725098e+00 3.465130329132080078e+00 5.366514921188354492e-01 -2.845693111419677734e+00
1.988000000000000000e+03 6.917475891113281250e+01 6.961724907159805298e-02 -2.536397457122802734e+00 6.838156700134277344e+00 1.290527701377868652e+00 -1.485772252082824707e+00
1.989000000000000000e+03 6.882904815673828125e+01 1.703680157661437988e+00 2.746524214744567871e-01 8.978990554809570312e+00 2.776093006134033203e+00 -9.696395397186279297e-01
1.990000000000000000e+03 6.366812133789062500e+01 -4.741829335689544678e-01 -3.506312847137451172e+00 6.502656936645507812e+00 8.989032506942749023e-01 4.610920906066894531e+00
1.991000000000000000e+03 6.428648376464843750e+01 -6.619576215744018555e-01 -2.548060894012451172e+00 5.132026672363281250e+00 7.751897573471069336e-01 5.389955043792724609e+00
1.992000000000000000e+03 6.112442398071289062e+01 4.164046049118041992e-01 -3.244602203369140625e+00 4.493700504302978516e+00 3.747294247150421143e-01 1.241645216941833496e+00
1.993000000000000000e+03 6.136403656005859375e+01 -1.503773331642150879e+00 -1.596263289451599121e+00 6.719343185424804688e+00 1.536923885345458984e+00 6.258770227432250977e-01
1.994000000000000000e+03 6.341906356811523438e+01 2.114967346191406250e+00 -1.670896410942077637e+00 4.883311748504638672e+00 9.637246131896972656e-01 2.787183761596679688e+00
1.995000000000000000e+03 5.979501342773437500e+01 -1.184114366769790649e-01 -2.426829576492309570e+00 2.902965307235717773e+00 1.428406983613967896e-01 8.731151372194290161e-02
1.996000000000000000e+03 5.930524063110351562e+01 -1.412601232528686523e+00 -8.073949813842773438e-01 3.409489393234252930e+00 7.806283235549926758e-01 -9.823487401008605957e-01
1.997000000000000000e+03 6.184784317016601562e+01 -1.026983499526977539e+00 -2.317042589187622070e+00 6.969259262084960938e+00 1.395665049552917480e+00 1.640542626380920410e+00
1.998000000000000000e+03 6.076581954956054688e+01 -3.196871757507324219e+00 1.129218220710754395e+00 6.817726135253906250e+00 2.384083271026611328e+00 -1.181160435080528259e-01
1.999000000000000000e+03 6.243616867065429688e+01 -4.053420066833496094e+00 2.932542324066162109e+00 1.084496498107910156e+01 4.133252143859863281e+00 2.073311090469360352e+00
2.000000000000000000e+03 6.033937072753906250e+01 -5.830280855298042297e-02 -2.750432968139648438e+00 3.795559644699096680e+00 3.135379552841186523e-01 4.409755766391754150e-01
2.001000000000000000e+03 6.048894882202148438e+01 2.196089267730712891e+00 -3.578978776931762695e+00 1.426220655441284180e+00 -6.458274126052856445e-01 -3.444643616676330566e-01
2.002000000000000000e+03 5.152169418334960938e+01 1.640749931335449219e+00 2.996505975723266602e+00 8.212809562683105469e+00 3.362794637680053711e+00 7.201046943664550781e-01
2.003000000000000000e+03 4.837448883056640625e+01 -4.816336184740066528e-02 1.046640276908874512e+00 2.564726114273071289e+00 1.083409905433654785e+00 3.739216327667236328e+00
2.004000000000000000e+03 4.704929351806640625e+01 6.474379301071166992e-01 1.330204486846923828e+00 3.293850898742675781e+00 1.387216567993164062e+00 4.286676406860351562e+00
2.005000000000000000e+03 4.476395797729492188e+01 -6.032894253730773926e-01 -1.522686243057250977e+00 6.238526821136474609e+00 1.414752125740051270e+00 3.785654783248901367e+00
2.006000000000000000e+03 4.415876770019531250e+01 8.517574667930603027e-01 -2.276527732610702515e-01 4.543057918548583984e+00 1.294621586799621582e+00 2.881083011627197266e+00
2.007000000000000000e+03 4.137180709838867188e+01 4.367021322250366211e-01 -1.018705010414123535e+00 2.931596636772155762e-01 -2.176636010408401489e-01 -4.137203693389892578e-01
2.008000000000000000e+03 7.545824432373046875e+01 -9.354334473609924316e-01 -1.299348592758178711e+00 5.805591583251953125e+00 1.351872920989990234e+00 1.009219050407409668e+00
2.009000000000000000e+03 7.519084167480468750e+01 -2.749652385711669922e+00 -4.968172907829284668e-01 6.295817375183105469e+00 1.739700078964233398e+00 8.950889706611633301e-01
2.010000000000000000e+03 7.552812194824218750e+01 -3.474508762359619141e+00 -4.210269451141357422e-01 7.081595420837402344e+00 1.998170614242553711e+00 1.111297011375427246e+00
2.011000000000000000e+03 7.517185211181640625e+01 -4.564985752105712891e+00 -3.231750130653381348e-01 7.285961151123046875e+00 2.088835954666137695e+00 1.110045790672302246e+00
2.012000000000000000e+03 7.600990295410156250e+01 -7.785163879394531250e+00 2.535658776760101318e-01 8.518230438232421875e+00 2.631538867950439453e+00 1.642067909240722656e+00
2.013000000000000000e+03 7.437418365478515625e+01 -8.923897743225097656e+00 8.402456641197204590e-01 9.025526046752929688e+00 2.959731578826904297e+00 1.058589100837707520e+00
2.014000000000000000e+03 7.801248168945312500e+01 -4.746778309345245361e-01 -6.859024167060852051e-01 1.099547672271728516e+01 3.092872381210327148e+00 3.763625919818878174e-01
2.015000000000000000e+03 7.883478546142578125e+01 -1.281459093093872070e+00 -1.635821908712387085e-01 1.234957408905029297e+01 3.655797719955444336e+00 5.178564190864562988e-01
2.016000000000000000e+03 2.493341636657714844e+01 -1.806380391120910645e+00 1.623441338539123535e+00 7.542208194732666016e+00 2.749694824218750000e+00 -3.727976083755493164e+00
2.017000000000000000e+03 2.496419715881347656e+01 -3.308481216430664062e+00 2.901379108428955078e+00 9.896048545837402344e+00 3.839228391647338867e+00 -4.142638683319091797e+00
2.018000000000000000e+03 2.388696861267089844e+01 -4.019862174987792969e+00 4.565966129302978516e+00 1.110549736022949219e+01 4.701438903808593750e+00 -6.990622520446777344e+00
2.019000000000000000e+03 2.651810455322265625e+01 -6.716310381889343262e-01 1.995714545249938965e+00 2.515387296676635742e+00 1.353330492973327637e+00 -1.569606661796569824e+00
2.020000000000000000e+03 2.948249435424804688e+01 -1.689358353614807129e+00 3.000303030014038086e+00 3.539417028427124023e+00 1.961915969848632812e+00 2.967098951339721680e+00
2.021000000000000000e+03 2.898748397827148438e+01 -1.192453503608703613e+00 3.284266948699951172e+00 3.151192426681518555e+00 1.930637836456298828e+00 2.702543020248413086e+00
2.022000000000000000e+03 3.406790924072265625e+01 -7.696399837732315063e-02 1.752921581268310547e+00 -4.594711065292358398e-01 3.880351483821868896e-01 6.704108715057373047e-01
2.023000000000000000e+03 3.506398391723632812e+01 1.971517950296401978e-01 7.392024993896484375e-01 -8.473736643791198730e-01 -3.245135024189949036e-02 8.085181117057800293e-01
2.024000000000000000e+03 4.117088317871093750e+01 -1.888327836990356445e+00 3.188648223876953125e-01 1.498807072639465332e+00 5.453015565872192383e-01 3.346865177154541016e-01
2.025000000000000000e+03 3.928003311157226562e+01 -1.102270960807800293e+00 -3.400725722312927246e-01 -1.265482902526855469e+00 -4.816666543483734131e-01 -1.520891785621643066e-01
2.026000000000000000e+03 4.283879089355468750e+01 -9.866818785667419434e-01 -1.142694830894470215e+00 4.847772121429443359e+00 1.111523270606994629e+00 1.543567419052124023e+00
2.027000000000000000e+03 4.509857177734375000e+01 -2.359854698181152344e+00 -1.814069032669067383e+00 8.794074058532714844e+00 2.094001531600952148e+00 4.508231639862060547e+00
2.028000000000000000e+03 4.813612747192382812e+01 -1.578636765480041504e+00 -1.050022721290588379e+00 3.890124857425689697e-01 -1.983030587434768677e-01 3.334376811981201172e+00
2.029000000000000000e+03 4.679630279541015625e+01 -2.395113706588745117e+00 -8.865298628807067871e-01 1.063113570213317871e+00 5.297513306140899658e-02 5.264362335205078125e+00
2.030000000000000000e+03 4.911732482910156250e+01 -4.894485175609588623e-01 3.740564286708831787e-01 2.305119752883911133e+00 8.037528395652770996e-01 2.770298480987548828e+00
2.031000000000000000e+03 5.297154998779296875e+01 -1.534101247787475586e+00 -2.810847282409667969e+00 7.467957019805908203e+00 1.397132992744445801e+00 -2.144636869430541992e+00
2.032000000000000000e+03 5.457796859741210938e+01 -2.617957592010498047e+00 -2.741558790206909180e+00 6.780991077423095703e+00 1.211829662322998047e+00 -3.718005418777465820e+00
2.033000000000000000e+03 5.530645370483398438e+01 -6.731383204460144043e-01 -1.943665385246276855e+00 6.961443424224853516e+00 1.505333423614501953e+00 -5.809660911560058594e+00
2.034000000000000000e+03 5.634384155273437500e+01 -8.994132876396179199e-01 -9.788189530372619629e-01 3.673923015594482422e+00 8.085312247276306152e-01 -5.325279712677001953e+00
2.035000000000000000e+03 5.869960784912109375e+01 -1.014223217964172363e+00 -1.066509008407592773e+00 2.204989194869995117e+00 3.415440917015075684e-01 -1.503865480422973633e+00
2.036000000000000000e+03 6.240422058105468750e+01 1.516267657279968262e-01 -3.326699018478393555e+00 6.452446460723876953e+00 9.377242326736450195e-01 2.622434854507446289e+00
2.037000000000000000e+03 6.488523101806640625e+01 -7.810849547386169434e-01 -2.287392616271972656e+00 3.598834753036499023e+00 3.934326767921447754e-01 4.476183891296386719e+00
2.038000000000000000e+03 6.687851715087890625e+01 3.705036640167236328e-01 -1.191800355911254883e+00 4.685072422027587891e+00 1.047981619834899902e+00 1.637703537940979004e+00
2.039000000000000000e+03 6.695655059814453125e+01 -1.885223627090454102e+00 -4.095128536224365234e+00 1.456466436386108398e+00 -7.915985584259033203e-01 3.663361072540283203e-01
2.040000000000000000e+03 7.078421783447265625e+01 1.662220358848571777e-01 -2.780597925186157227e+00 5.913774490356445312e+00 9.399529695510864258e-01 -3.510587215423583984e+00
2.041000000000000000e+03 7.095697784423828125e+01 -5.642185807228088379e-01 -2.922669172286987305e+00 4.798389434814453125e+00 5.627161264419555664e-01 -3.773932456970214844e+00
2.042000000000000000e+03 7.205478668212890625e+01 -3.038383722305297852e+00 -1.597419261932373047e+00 4.636917114257812500e+00 9.118494391441345215e-01 -1.546633958816528320e+00
2.043000000000000000e+03 7.267320251464843750e+01 -1.884491682052612305e+00 -1.344057440757751465e+00 3.682740449905395508e+00 7.016049027442932129e-01 -1.919383406639099121e+00
2.044000000000000000e+03 7.430831909179687500e+01 -1.250834226608276367e+00 -9.656361937522888184e-01 3.750696897506713867e+00 8.355181813240051270e-01 2.211913168430328369e-01
2.045000000000000000e+03 7.812561035156250000e+01 -2.223258256912231445e+00 -2.305342257022857666e-01 1.072327899932861328e+01 3.147823333740234375e+00 1.019126892089843750e+00
2.046000000000000000e+03 7.695417022705078125e+01 -3.393903493881225586e+00 -2.792887687683105469e-01 8.778977394104003906e+00 2.549906730651855469e+00 1.421777844429016113e+00
2.047000000000000000e+03 7.697018432617187500e+01 -5.420598506927490234e+00 -2.426884509623050690e-02 8.743456840515136719e+00 2.615756273269653320e+00 1.601119875907897949e+00
2.048000000000000000e+03 7.741832733154296875e+01 -7.706423282623291016e+00 1.812362074851989746e-01 8.597133636474609375e+00 2.633511066436767578e+00 1.518637776374816895e+00
2.049000000000000000e+03 7.804821777343750000e+01 -9.341841697692871094e+00 1.866559535264968872e-01 8.011760711669921875e+00 2.459525108337402344e+00 1.089305162429809570e+00
2.050000000000000000e+03 7.809410858154296875e+01 -8.513180732727050781e+00 1.738073378801345825e-01 8.333963394165039062e+00 2.552330970764160156e+00 1.221365213394165039e+00
2.051000000000000000e+03 2.477119255065917969e+01 8.466079831123352051e-01 -1.399959921836853027e+00 4.224601268768310547e+00 8.473924398422241211e-01 -6.125632286071777344e+00
2.052000000000000000e+03 7.607311248779296875e+01 9.517162322998046875e+00 -9.534690380096435547e-01 1.013801574707031250e+01 2.755364179611206055e+00 -1.220904111862182617e+00
2.053000000000000000e+03 7.190181732177734375e+01 1.097119617462158203e+01 1.160034656524658203e+00 2.092716455459594727e+00 9.758253693580627441e-01 -9.021046757698059082e-02
2.054000000000000000e+03 6.608691406250000000e+01 8.436607360839843750e+00 9.633150696754455566e-02 1.255748653411865234e+01 3.796145439147949219e+00 3.258468210697174072e-01
2.055000000000000000e+03 6.499398040771484375e+01 8.679955482482910156e+00 2.237027645111083984e+00 1.142074394226074219e+01 4.097331523895263672e+00 4.161397933959960938e+00
2.056000000000000000e+03 6.512451171875000000e+01 6.452253341674804688e+00 1.329575777053833008e-01 8.152974128723144531e+00 2.485779285430908203e+00 1.278609752655029297e+00
2.057000000000000000e+03 6.484357452392578125e+01 4.910443305969238281e+00 3.958901464939117432e-01 6.088410854339599609e+00 1.945290327072143555e+00 1.317233204841613770e+00
2.058000000000000000e+03 6.420612335205078125e+01 3.774842262268066406e+00 -9.048104286193847656e-02 4.977111339569091797e+00 1.465988993644714355e+00 1.894288301467895508e+00
2.059000000000000000e+03 7.569767761230468750e+01 3.451803445816040039e+00 5.257347226142883301e-01 1.144025421142578125e+01 3.589796543121337891e+00 1.171520590782165527e+00
2.060000000000000000e+03 7.664144134521484375e+01 3.843741655349731445e+00 5.286267995834350586e-01 1.173538684844970703e+01 3.679204225540161133e+00 -1.651457190513610840e+00
2.061000000000000000e+03 7.491979217529296875e+01 1.092140316963195801e+00 -4.204335689544677734e+00 3.664405584335327148e+00 -1.619790047407150269e-01 3.052684068679809570e-01
2.062000000000000000e+03 6.675269317626953125e+01 4.453023433685302734e+00 1.361162424087524414e+00 8.391748428344726562e+00 2.925873279571533203e+00 -7.932588458061218262e-03
2.063000000000000000e+03 6.468215179443359375e+01 5.906929016113281250e+00 4.438756704330444336e-01 6.381663799285888672e+00 2.047661781311035156e+00 1.488131642341613770e+00
2.064000000000000000e+03 6.282238769531250000e+01 4.516323566436767578e+00 1.133069247007369995e-01 2.885683536529541016e+00 8.996971249580383301e-01 1.277277708053588867e+00
2.065000000000000000e+03 6.235619354248046875e+01 2.753365993499755859e+00 -2.003391742706298828e+00 3.616165637969970703e+00 4.838321506977081299e-01 1.533675551414489746e+00
2.066000000000000000e+03 6.951560974121093750e+01 5.181576728820800781e+00 7.385688424110412598e-01 1.639326477050781250e+01 5.139549732208251953e+00 9.636383056640625000e-01
2.067000000000000000e+03 6.878954315185546875e+01 5.238520145416259766e+00 1.150058507919311523e+00 1.339186096191406250e+01 4.362576007843017578e+00 -1.270682573318481445e+00
2.068000000000000000e+03 6.701090240478515625e+01 5.546425342559814453e+00 7.427026033401489258e-01 9.790238380432128906e+00 3.159882307052612305e+00 -9.505935311317443848e-01
2.069000000000000000e+03 7.897659301757812500e+01 -4.523644924163818359e+00 2.811526320874691010e-02 1.084749698638916016e+01 3.262683629989624023e+00 8.691207170486450195e-01
2.070000000000000000e+03 7.829165649414062500e+01 -3.832463741302490234e+00 -1.979718171060085297e-02 1.040481758117675781e+01 3.115506172180175781e+00 1.201948642730712891e+00
2.071000000000000000e+03 7.611902618408203125e+01 -3.124020099639892578e+00 -3.869274258613586426e-01 7.640327453613281250e+00 2.176020145416259766e+00 1.279191255569458008e+00
2.072000000000000000e+03 7.419816589355468750e+01 -2.415687561035156250e+00 -6.539333462715148926e-01 4.802470207214355469e+00 1.244561076164245605e+00 1.036381945013999939e-01
2.073000000000000000e+03 6.985122680664062500e+01 -3.397803306579589844e+00 -2.858056545257568359e+00 3.863622903823852539e+00 3.016699254512786865e-01 -1.191601395606994629e+00
2.074000000000000000e+03 7.187971496582031250e+01 -5.454599380493164062e+00 -9.032962322235107422e-01 5.639811038970947266e+00 1.420954346656799316e+00 -7.538908123970031738e-01
2.075000000000000000e+03 7.044606018066406250e+01 -2.958959102630615234e+00 -2.577102184295654297e+00 4.353931427001953125e+00 5.330486893653869629e-01 -1.908990502357482910e+00
2.076000000000000000e+03 6.032260894775390625e+01 -2.543801546096801758e+00 8.351387828588485718e-02 5.897416591644287109e+00 1.794279098510742188e+00 -4.079975187778472900e-01
2.077000000000000000e+03 5.838772583007812500e+01 -3.931710243225097656e+00 4.286366999149322510e-01 5.288428783416748047e+00 1.715119600296020508e+00 -1.494907259941101074e+00
2.078000000000000000e+03 5.695267486572265625e+01 -3.296260356903076172e+00 -5.696727633476257324e-01 4.966803550720214844e+00 1.319139242172241211e+00 -2.892453908920288086e+00
2.079000000000000000e+03 5.687451553344726562e+01 -4.404889106750488281e+00 -4.475365579128265381e-01 5.529248714447021484e+00 1.524513721466064453e+00 -2.153216838836669922e+00
2.080000000000000000e+03 5.671814346313476562e+01 -5.337262153625488281e+00 -5.080993771553039551e-01 5.969157695770263672e+00 1.638317465782165527e+00 -1.507568836212158203e+00
2.081000000000000000e+03 5.735232543945312500e+01 -5.966411590576171875e+00 -9.122927673161029816e-03 6.329702377319335938e+00 1.896173834800720215e+00 -8.050738573074340820e-01
2.082000000000000000e+03 5.934558105468750000e+01 -6.832854747772216797e+00 8.857223987579345703e-01 7.510413646697998047e+00 2.518840789794921875e+00 5.458840131759643555e-01
2.083000000000000000e+03 5.999878311157226562e+01 -6.782926559448242188e+00 1.041764378547668457e+00 8.139953613281250000e+00 2.754515409469604492e+00 8.463104367256164551e-01
2.084000000000000000e+03 5.432323837280273438e+01 -3.378029346466064453e+00 -2.970170736312866211e+00 6.348158359527587891e+00 1.013396382331848145e+00 -2.879704475402832031e+00
2.085000000000000000e+03 4.890359497070312500e+01 -2.246130943298339844e+00 -2.564205169677734375e+00 -4.310903549194335938e-01 -8.985886573791503906e-01 2.030282497406005859e+00
2.086000000000000000e+03 4.145601654052734375e+01 -3.721617460250854492e+00 1.951737999916076660e+00 2.392952680587768555e+00 1.303407192230224609e+00 3.262079358100891113e-01
2.087000000000000000e+03 3.955613327026367188e+01 -2.918152809143066406e+00 1.225659132003784180e+00 -8.300486803054809570e-01 1.186831295490264893e-01 -8.362419158220291138e-02
2.088000000000000000e+03 3.427259445190429688e+01 -2.217288732528686523e+00 5.916182398796081543e-01 8.355292677879333496e-02 2.025513499975204468e-01 -9.872692078351974487e-02
2.089000000000000000e+03 3.699847412109375000e+01 -4.130710601806640625e+00 2.799363136291503906e-01 -2.313729286193847656e+00 -6.101378798484802246e-01 4.192476272583007812e-01
2.090000000000000000e+03 4.194368362426757812e+01 -4.293767452239990234e+00 2.295750856399536133e+00 4.077028274536132812e+00 1.911833643913269043e+00 6.834098696708679199e-01
2.091000000000000000e+03 4.288373947143554688e+01 -4.307716369628906250e+00 2.774407625198364258e+00 6.837247848510742188e+00 2.883496761322021484e+00 9.412280917167663574e-01
2.092000000000000000e+03 5.526830673217773438e+01 -5.788610935211181641e+00 -1.250733971595764160e+00 5.732320785522460938e+00 1.344476103782653809e+00 -1.452454566955566406e+00
2.093000000000000000e+03 5.878747177124023438e+01 -5.308345317840576172e+00 7.636945247650146484e-01 6.425037384033203125e+00 2.156619548797607422e+00 -4.708281457424163818e-01
2.094000000000000000e+03 6.052902221679687500e+01 -5.141955852508544922e+00 1.637679934501647949e+00 7.767533302307128906e+00 2.821563959121704102e+00 6.289143562316894531e-01
2.095000000000000000e+03 6.190659713745117188e+01 -5.062111854553222656e+00 2.216898918151855469e+00 1.010581874847412109e+01 3.696815490722656250e+00 1.580821990966796875e+00
2.096000000000000000e+03 6.814170074462890625e+01 -3.651692628860473633e+00 -3.066503763198852539e+00 1.307380557060241699e+00 -5.277369618415832520e-01 6.714112758636474609e-01
2.097000000000000000e+03 6.925273895263671875e+01 -3.804792881011962891e+00 -2.570363759994506836e+00 2.902081727981567383e+00 9.951540082693099976e-02 -5.975933670997619629e-01
2.098000000000000000e+03 7.020298767089843750e+01 -5.909381389617919922e+00 -1.760485023260116577e-01 3.087305307388305664e+00 8.733770847320556641e-01 -1.119996428489685059e+00
2.099000000000000000e+03 7.230608367919921875e+01 -7.074055671691894531e+00 -9.523300826549530029e-02 7.266443252563476562e+00 2.151363134384155273e+00 -4.990842938423156738e-01
2.100000000000000000e+03 7.130114746093750000e+01 -5.986986637115478516e+00 -5.002381205558776855e-01 5.157267093658447266e+00 1.397108674049377441e+00 -1.139792203903198242e+00
2.101000000000000000e+03 7.365363311767578125e+01 -4.937263011932373047e+00 -6.179879903793334961e-01 6.424974441528320312e+00 1.742095828056335449e+00 2.653515338897705078e-01
2.102000000000000000e+03 7.588658905029296875e+01 -4.179785251617431641e+00 -2.546257376670837402e-01 7.741196632385253906e+00 2.245971202850341797e+00 1.366102576255798340e+00
2.103000000000000000e+03 7.894782257080078125e+01 -6.097381591796875000e+00 3.499831259250640869e-02 9.765978813171386719e+00 2.940293312072753906e+00 9.022502899169921875e-01
2.104000000000000000e+03 7.828735351562500000e+01 -5.359785079956054688e+00 2.090433984994888306e-02 9.754298210144042969e+00 2.932560682296752930e+00 1.271940588951110840e+00
2.105000000000000000e+03 6.857234954833984375e+01 -5.198687553405761719e+00 -7.780259251594543457e-01 4.491901695728302002e-01 -9.865073114633560181e-02 9.308849275112152100e-02
2.106000000000000000e+03 7.390075683593750000e+01 -5.921441555023193359e+00 -4.250817000865936279e-01 7.169586658477783203e+00 2.023351430892944336e+00 6.506947875022888184e-01
2.107000000000000000e+03 7.635926055908203125e+01 -6.053973197937011719e+00 2.278450690209865570e-02 8.451869010925292969e+00 2.542396068572998047e+00 1.627418041229248047e+00
2.108000000000000000e+03 7.814534759521484375e+01 -7.702912330627441406e+00 6.301116198301315308e-02 8.644015312194824219e+00 2.612107992172241211e+00 1.252670645713806152e+00
2.109000000000000000e+03 7.015719604492187500e+01 -6.921452999114990234e+00 9.863647222518920898e-01 2.640636205673217773e+00 1.088100314140319824e+00 -1.578648567199707031e+00
2.110000000000000000e+03 7.119028472900390625e+01 -8.141288757324218750e+00 1.776891708374023438e+00 6.693696498870849609e+00 2.541176557540893555e+00 -2.840163707733154297e+00
2.111000000000000000e+03 7.160089111328125000e+01 -8.861297607421875000e+00 1.536579728126525879e+00 9.796366691589355469e+00 3.399883747100830078e+00 -3.126024007797241211e+00
2.112000000000000000e+03 7.374192047119140625e+01 -7.637102127075195312e+00 2.026649713516235352e-01 8.388788223266601562e+00 2.577435970306396484e+00 7.982886433601379395e-01
2.113000000000000000e+03 7.525465393066406250e+01 -8.456513404846191406e+00 5.394068956375122070e-01 8.636738777160644531e+00 2.752843856811523438e+00 1.451074600219726562e+00
2.114000000000000000e+03 6.915592956542968750e+01 -4.779767513275146484e+00 -1.409945130348205566e+00 1.909735321998596191e+00 1.499370634555816650e-01 -3.013757765293121338e-01
2.115000000000000000e+03 7.357795715332031250e+01 -1.118850898742675781e+01 1.176909923553466797e+00 1.099561214447021484e+01 3.651756525039672852e+00 3.635328710079193115e-01
2.116000000000000000e+03 7.373497009277343750e+01 -1.404784488677978516e+01 1.570037484169006348e+00 1.065936470031738281e+01 3.668820619583129883e+00 7.264864444732666016e-01
2.117000000000000000e+03 7.522222137451171875e+01 -1.368006229400634766e+01 1.141996860504150391e+00 9.059668540954589844e+00 3.060499668121337891e+00 3.051568567752838135e-01
2.118000000000000000e+03 7.887792968750000000e+01 -1.490032196044921875e+01 7.497853785753250122e-02 6.535487651824951172e+00 1.983139872550964355e+00 -1.884036064147949219e-01
2.119000000000000000e+03 7.811517333984375000e+01 -1.415794658660888672e+01 2.521244287490844727e-01 7.048896312713623047e+00 2.190306186676025391e+00 -8.599402755498886108e-02
2.120000000000000000e+03 7.218518829345703125e+01 -1.520081424713134766e+01 2.431027173995971680e+00 1.242469310760498047e+01 4.456716060638427734e+00 2.502436876296997070e+00
2.121000000000000000e+03 7.308226776123046875e+01 -1.500439834594726562e+01 1.564767956733703613e+00 1.091439151763916016e+01 3.743747711181640625e+00 4.692277312278747559e-01
2.122000000000000000e+03 7.569756317138671875e+01 -1.535725879669189453e+01 6.916912794113159180e-01 8.477256774902343750e+00 2.750684499740600586e+00 -2.709230482578277588e-01
2.123000000000000000e+03 5.641664123535156250e+01 -1.539181518554687500e+01 9.449920058250427246e-01 1.364514541625976562e+01 4.377040863037109375e+00 -2.840028703212738037e-01
2.124000000000000000e+03 5.779458618164062500e+01 -1.569144153594970703e+01 1.246060729026794434e+00 1.101676273345947266e+01 3.678846836090087891e+00 2.003011405467987061e-01
2.125000000000000000e+03 5.965447235107421875e+01 -1.545124244689941406e+01 1.023530006408691406e+00 8.515236854553222656e+00 2.861629962921142578e+00 2.813759632408618927e-02
2.126000000000000000e+03 6.070317459106445312e+01 -1.617313003540039062e+01 8.320484161376953125e-01 7.397737503051757812e+00 2.468935728073120117e+00 -4.589104652404785156e-01
2.127000000000000000e+03 6.169134140014648438e+01 -1.759311866760253906e+01 5.780378580093383789e-01 6.302911281585693359e+00 2.064284801483154297e+00 -1.171616196632385254e+00
2.128000000000000000e+03 6.134479522705078125e+01 -1.648157119750976562e+01 5.401079058647155762e-01 6.774536132812500000e+00 2.194393157958984375e+00 -7.938154935836791992e-01
2.129000000000000000e+03 6.364666748046875000e+01 -1.660070610046386719e+01 3.631358221173286438e-02 4.942191600799560547e+00 1.493551611900329590e+00 -1.196903347969055176e+00
2.130000000000000000e+03 6.493585205078125000e+01 -1.700558471679687500e+01 -3.876165673136711121e-02 3.747371912002563477e+00 1.112583041191101074e+00 -1.147399783134460449e+00
2.131000000000000000e+03 6.610390472412109375e+01 -1.774277496337890625e+01 7.001289725303649902e-02 2.960901975631713867e+00 9.092744588851928711e-01 -9.589498639106750488e-01
2.132000000000000000e+03 7.368463134765625000e+01 -1.670099258422851562e+01 -4.845489263534545898e-01 9.173213005065917969e+00 2.606599092483520508e+00 2.058501690626144409e-01
2.133000000000000000e+03 7.758003997802734375e+01 -1.660382270812988281e+01 8.971564471721649170e-02 7.431006908416748047e+00 2.256216764450073242e+00 -4.924530386924743652e-01
2.134000000000000000e+03 6.727266693115234375e+01 -1.387119483947753906e+01 -9.433352947235107422e-01 -3.832492530345916748e-01 -3.979753553867340088e-01 7.395228147506713867e-01
2.135000000000000000e+03 6.712464141845703125e+01 -1.487236690521240234e+01 -1.029623150825500488e+00 6.186009049415588379e-01 -1.233066469430923462e-01 3.219071626663208008e-01
2.136000000000000000e+03 6.534657287597656250e+01 -1.514687538146972656e+01 -7.029109001159667969e-01 3.102595806121826172e+00 7.199054956436157227e-01 -7.443003654479980469e-01
2.137000000000000000e+03 6.377546691894531250e+01 -1.453345584869384766e+01 -4.320181906223297119e-01 5.055517673492431641e+00 1.387049794197082520e+00 -7.356961965560913086e-01
2.138000000000000000e+03 6.208060073852539062e+01 -1.419536495208740234e+01 -1.150447651743888855e-01 6.747801303863525391e+00 1.989826917648315430e+00 -2.308500558137893677e-01
2.139000000000000000e+03 5.752007675170898438e+01 -1.343147850036621094e+01 7.225450873374938965e-01 1.061392402648925781e+01 3.400940656661987305e+00 1.275210976600646973e-01
2.140000000000000000e+03 5.917031097412109375e+01 -1.506975841522216797e+01 9.703009128570556641e-01 9.100204467773437500e+00 3.021151542663574219e+00 2.049560248851776123e-01
2.141000000000000000e+03 5.580285644531250000e+01 -1.543674182891845703e+01 2.161811292171478271e-01 1.569854545593261719e+01 4.774417877197265625e+00 -8.977941274642944336e-01
2.142000000000000000e+03 6.552648925781250000e+01 -1.315063667297363281e+01 -5.214044451713562012e-01 2.111254930496215820e+00 4.769551753997802734e-01 -4.918802678585052490e-01
2.143000000000000000e+03 6.374013900756835938e+01 -1.350467014312744141e+01 -5.425074696540832520e-01 5.252131938934326172e+00 1.412887334823608398e+00 -5.586233735084533691e-01
2.144000000000000000e+03 5.885329437255859375e+01 -1.455414199829101562e+01 8.685150742530822754e-01 9.309384346008300781e+00 3.053369760513305664e+00 2.659410238265991211e-01
2.145000000000000000e+03 5.629658126831054688e+01 -1.223472404479980469e+01 7.879161834716796875e-01 1.032075309753417969e+01 3.332600593566894531e+00 -1.028483748435974121e+00
2.146000000000000000e+03 5.711205673217773438e+01 -1.247080135345458984e+01 5.451638102531433105e-01 1.028594589233398438e+01 3.249332904815673828e+00 -2.173944413661956787e-01
2.147000000000000000e+03 6.426366424560546875e+01 -1.297721290588378906e+01 -5.836799740791320801e-01 4.559088230133056641e+00 1.192622423171997070e+00 -6.579325795173645020e-01
2.148000000000000000e+03 6.426595306396484375e+01 -1.019972991943359375e+01 9.078661799430847168e-01 6.444688320159912109e+00 2.205766201019287109e+00 -2.031327486038208008e+00
2.149000000000000000e+03 5.959278488159179688e+01 -8.795442581176757812e+00 4.752239584922790527e-01 8.367321968078613281e+00 2.652763843536376953e+00 1.016846656799316406e+00
2.150000000000000000e+03 6.250188827514648438e+01 -1.173701381683349609e+01 -2.611919343471527100e-01 7.380574703216552734e+00 2.135814905166625977e+00 2.078601717948913574e-01
2.151000000000000000e+03 5.875862121582031250e+01 -1.232827854156494141e+01 5.166541934013366699e-01 9.179709434509277344e+00 2.908909082412719727e+00 6.373495459556579590e-01
2.152000000000000000e+03 6.234866714477539062e+01 -8.978616714477539062e+00 5.477029681205749512e-01 9.355290412902832031e+00 2.970898151397705078e+00 3.329193592071533203e-01
2.153000000000000000e+03 6.009124755859375000e+01 -9.902266502380371094e+00 3.501041531562805176e-01 8.587978363037109375e+00 2.681424617767333984e+00 1.130537390708923340e+00
2.154000000000000000e+03 5.776766586303710938e+01 -1.106756687164306641e+01 3.896999955177307129e-01 9.044257164001464844e+00 2.830187082290649414e+00 3.774773776531219482e-01
2.155000000000000000e+03 5.709440231323242188e+01 -9.602300643920898438e+00 2.365783601999282837e-01 7.998773097991943359e+00 2.470605373382568359e+00 1.013834495097398758e-02
2.156000000000000000e+03 5.816135787963867188e+01 -8.451743125915527344e+00 3.695462048053741455e-01 7.681776523590087891e+00 2.415396928787231445e+00 4.599923789501190186e-01
2.157000000000000000e+03 5.701688385009765625e+01 -8.583939552307128906e+00 1.132182851433753967e-01 7.402117729187011719e+00 2.254600763320922852e+00 -6.230552867054939270e-02
2.158000000000000000e+03 6.205568313598632812e+01 -6.541263103485107422e+00 8.630554676055908203e-01 1.091710090637207031e+01 3.534047126770019531e+00 8.677109479904174805e-01
2.159000000000000000e+03 5.598783874511718750e+01 -7.107761859893798828e+00 -3.373202383518218994e-01 6.215275287628173828e+00 1.763386487960815430e+00 -8.980180025100708008e-01
2.160000000000000000e+03 5.805831527709960938e+01 -1.755614852905273438e+01 1.505594611167907715e+00 9.462037086486816406e+00 3.290289402008056641e+00 -1.568572819232940674e-01
2.161000000000000000e+03 5.983814620971679688e+01 -1.760233879089355469e+01 1.160982966423034668e+00 7.790017127990722656e+00 2.685300111770629883e+00 -6.893972754478454590e-01
2.162000000000000000e+03 6.410507202148437500e+01 -1.927511024475097656e+01 4.309166967868804932e-01 4.697389602661132812e+00 1.538491964340209961e+00 -1.286197185516357422e+00
2.163000000000000000e+03 6.470751190185546875e+01 -1.864758110046386719e+01 3.560388684272766113e-01 4.159247875213623047e+00 1.354586005210876465e+00 -1.282262682914733887e+00
2.164000000000000000e+03 6.718238067626953125e+01 -1.894673156738281250e+01 6.830878853797912598e-01 2.876510620117187500e+00 1.067879557609558105e+00 -4.654994606971740723e-01
2.165000000000000000e+03 7.075212860107421875e+01 -1.869327163696289062e+01 -6.089972704648971558e-02 4.753515720367431641e+00 1.407784819602966309e+00 2.132318258285522461e+00
2.166000000000000000e+03 7.425144958496093750e+01 -1.901483154296875000e+01 -6.332095861434936523e-01 7.784593105316162109e+00 2.145415067672729492e+00 5.643675923347473145e-01
2.167000000000000000e+03 7.612696075439453125e+01 -1.829279327392578125e+01 -3.592748343944549561e-01 7.887213230133056641e+00 2.258381605148315430e+00 -2.524664402008056641e-01
2.168000000000000000e+03 7.814201354980468750e+01 -1.883431243896484375e+01 -1.019533127546310425e-01 7.324450969696044922e+00 2.166749477386474609e+00 -3.159869015216827393e-01
2.169000000000000000e+03 3.862051248550415039e+00 -1.867883872985839844e+01 2.676219679415225983e-02 -3.342726230621337891e-01 -9.225313365459442139e-02 -1.100233569741249084e-01
2.170000000000000000e+03 4.879321575164794922e+00 -1.947119140625000000e+01 3.982027247548103333e-02 -2.670165002346038818e-01 -6.815886497497558594e-02 -1.144368946552276611e-01
2.171000000000000000e+03 3.682129621505737305e+00 -2.105161094665527344e+01 2.133470773696899414e-02 -3.897134959697723389e-01 -1.105136349797248840e-01 -7.810872048139572144e-02
2.172000000000000000e+03 2.098810672760009766e+00 -2.033985710144042969e+01 1.034383568912744522e-02 -5.253728032112121582e-01 -1.545086801052093506e-01 -5.797588452696800232e-02
2.173000000000000000e+03 6.603725910186767578e+00 -1.891581153869628906e+01 6.745699048042297363e-02 -1.274346709251403809e-01 -1.799330674111843109e-02 -1.349418461322784424e-01
2.174000000000000000e+03 7.700785636901855469e+00 -1.933269309997558594e+01 8.800588548183441162e-02 -4.380328208208084106e-02 1.326078083366155624e-02 -1.294440925121307373e-01
2.175000000000000000e+03 8.899160385131835938e+00 -1.949703788757324219e+01 1.127814725041389465e-01 5.333277955651283264e-02 4.983427375555038452e-02 -1.156821325421333313e-01
2.176000000000000000e+03 1.091501426696777344e+01 -2.032711410522460938e+01 1.465340107679367065e-01 2.383679300546646118e-01 1.154705882072448730e-01 -8.021458983421325684e-02
2.177000000000000000e+03 1.321416473388671875e+01 -2.070442581176757812e+01 1.897347867488861084e-01 4.804256856441497803e-01 2.010481506586074829e-01 -4.538020584732294083e-03
2.178000000000000000e+03 2.110278892517089844e+01 -1.915990829467773438e+01 1.410331875085830688e-01 1.712232589721679688e+00 5.559797286987304688e-01 3.097871243953704834e-01
2.179000000000000000e+03 2.296314239501953125e+01 -1.919181060791015625e+01 5.017527565360069275e-02 2.193803071975708008e+00 6.731935143470764160e-01 2.672154009342193604e-01
2.180000000000000000e+03 2.367731857299804688e+01 -1.846077537536621094e+01 -2.221560850739479065e-02 2.448489427566528320e+00 7.278821468353271484e-01 2.816388010978698730e-01
2.181000000000000000e+03 2.848644447326660156e+01 -1.920682525634765625e+01 3.062589839100837708e-02 3.065867185592651367e+00 9.289479255676269531e-01 -4.245062172412872314e-01
2.182000000000000000e+03 2.866749000549316406e+01 -1.794233131408691406e+01 -3.749718144536018372e-02 3.287408113479614258e+00 9.749732613563537598e-01 -5.937367081642150879e-01
2.183000000000000000e+03 3.273893356323242188e+01 -1.951108741760253906e+01 6.258079409599304199e-01 2.727003335952758789e+00 1.005843400955200195e+00 -7.064229249954223633e-01
2.184000000000000000e+03 3.384672164916992188e+01 -1.887732887268066406e+01 8.898937702178955078e-01 2.566202878952026367e+00 1.036828994750976562e+00 -7.452202439308166504e-01
2.185000000000000000e+03 3.647802352905273438e+01 -1.910688018798828125e+01 1.351109027862548828e+00 2.461966037750244141e+00 1.143922567367553711e+00 -1.469341963529586792e-01
2.186000000000000000e+03 3.749752426147460938e+01 -1.895769309997558594e+01 1.483456850051879883e+00 2.702527046203613281e+00 1.255795121192932129e+00 2.844229638576507568e-01
2.187000000000000000e+03 3.994409561157226562e+01 -1.987921333312988281e+01 6.626477241516113281e-01 4.249058246612548828e+00 1.473511815071105957e+00 4.170586764812469482e-01
2.188000000000000000e+03 4.118167495727539062e+01 -1.957552909851074219e+01 2.892412841320037842e-01 5.024137496948242188e+00 1.594013690948486328e+00 4.103000834584236145e-02
2.189000000000000000e+03 4.084266281127929688e+01 -2.061705780029296875e+01 1.545089334249496460e-01 4.324336051940917969e+00 1.343653440475463867e+00 -5.265260487794876099e-02
2.190000000000000000e+03 3.876825332641601562e+01 -2.124243736267089844e+01 5.279380083084106445e-01 3.638198614120483398e+00 1.249840974807739258e+00 1.368094533681869507e-01
2.191000000000000000e+03 4.327829742431640625e+01 -1.969747543334960938e+01 1.344501376152038574e-01 4.078628063201904297e+00 1.263923406600952148e+00 -9.301657676696777344e-01
2.192000000000000000e+03 4.461167907714843750e+01 -1.900026130676269531e+01 1.847056448459625244e-01 3.388689756393432617e+00 1.072018623352050781e+00 -1.025842666625976562e+00
2.193000000000000000e+03 4.517886734008789062e+01 -1.975937080383300781e+01 1.518725454807281494e-01 2.997205495834350586e+00 9.447234272956848145e-01 -1.015565872192382812e+00
2.194000000000000000e+03 4.910940933227539062e+01 -1.950248336791992188e+01 -3.554342985153198242e-01 7.874826788902282715e-01 1.296145170927047729e-01 -4.040153622627258301e-01
2.195000000000000000e+03 5.938134765625000000e+01 -1.834000015258789062e+01 9.236570000648498535e-01 7.844168663024902344e+00 2.630347728729248047e+00 -1.088256835937500000e+00
2.196000000000000000e+03 6.086499404907226562e+01 -1.912678527832031250e+01 4.802552163600921631e-01 6.639393806457519531e+00 2.135894775390625000e+00 -1.318893551826477051e+00
2.197000000000000000e+03 6.523503112792968750e+01 -2.033385086059570312e+01 5.924490690231323242e-01 4.223658084869384766e+00 1.444832086563110352e+00 -9.995025992393493652e-01
2.198000000000000000e+03 6.772199249267578125e+01 -2.069165039062500000e+01 8.640906214714050293e-01 3.668188571929931641e+00 1.359683752059936523e+00 7.798448670655488968e-03
2.199000000000000000e+03 6.935648345947265625e+01 -2.006783294677734375e+01 7.373452186584472656e-01 3.776480436325073242e+00 1.354147672653198242e+00 1.006977081298828125e+00
2.200000000000000000e+03 7.114273834228515625e+01 -2.072625160217285156e+01 9.372566640377044678e-02 5.411767482757568359e+00 1.651647925376892090e+00 1.259411454200744629e+00
2.201000000000000000e+03 7.187265014648437500e+01 -1.935083580017089844e+01 -4.194656014442443848e-01 6.202619075775146484e+00 1.734946012496948242e+00 1.632693290710449219e+00
2.202000000000000000e+03 7.390408325195312500e+01 -2.080039787292480469e+01 -4.740794897079467773e-01 7.051221370697021484e+00 1.973142504692077637e+00 7.173707485198974609e-01
2.203000000000000000e+03 7.618908691406250000e+01 -2.034082603454589844e+01 -3.458957374095916748e-01 7.477966308593750000e+00 2.139621257781982422e+00 4.492791369557380676e-02
2.204000000000000000e+03 7.794758605957031250e+01 -2.042789268493652344e+01 -1.257107704877853394e-01 7.371751785278320312e+00 2.173812389373779297e+00 -1.466816961765289307e-01
2.205000000000000000e+03 4.813771057128906250e+01 -1.697237586975097656e+01 -7.038230299949645996e-01 4.887388050556182861e-01 -6.452526152133941650e-02 6.071600317955017090e-02
2.206000000000000000e+03 4.663963699340820312e+01 -1.773838806152343750e+01 -8.834671974182128906e-02 1.788703918457031250e+00 5.101071596145629883e-01 -5.624594092369079590e-01
2.207000000000000000e+03 4.365611267089843750e+01 -1.756089782714843750e+01 6.601762771606445312e-01 4.267777442932128906e+00 1.478386044502258301e+00 -6.984187364578247070e-01
2.208000000000000000e+03 4.141028976440429688e+01 -1.668401145935058594e+01 1.960172653198242188e+00 6.566745281219482422e+00 2.558075428009033203e+00 -7.087368369102478027e-01
2.209000000000000000e+03 3.774494171142578125e+01 -1.829622268676757812e+01 1.841846346855163574e+00 2.383291006088256836e+00 1.267541170120239258e+00 9.993660449981689453e-02
2.210000000000000000e+03 3.523254776000976562e+01 -1.780691719055175781e+01 1.169331431388854980e+00 2.228999376296997070e+00 1.019499182701110840e+00 -7.619515061378479004e-01
2.211000000000000000e+03 3.402786254882812500e+01 -1.803269958496093750e+01 8.603377342224121094e-01 2.479066371917724609e+00 1.001821160316467285e+00 -8.880028128623962402e-01
2.212000000000000000e+03 3.133691596984863281e+01 -1.821970367431640625e+01 3.637410998344421387e-01 2.932669401168823242e+00 9.889231324195861816e-01 -8.988534808158874512e-01
2.213000000000000000e+03 3.050716018676757812e+01 -1.800826644897460938e+01 2.853692471981048584e-01 3.051703453063964844e+00 1.001121759414672852e+00 -8.487126231193542480e-01
2.214000000000000000e+03 2.833781623840332031e+01 -1.692958641052246094e+01 -1.231900304555892944e-01 3.542379379272460938e+00 1.025756835937500000e+00 -6.577224731445312500e-01
2.215000000000000000e+03 2.636652565002441406e+01 -1.777315711975097656e+01 -1.734730452299118042e-01 3.223690271377563477e+00 9.150651693344116211e-01 -1.479809582233428955e-01
2.216000000000000000e+03 2.484396553039550781e+01 -1.655388450622558594e+01 -1.718619465827941895e-01 3.096721410751342773e+00 8.774577975273132324e-01 2.812428474426269531e-01
2.217000000000000000e+03 2.155465507507324219e+01 -1.814367294311523438e+01 1.767614036798477173e-01 1.827898859977722168e+00 6.013980507850646973e-01 3.924939036369323730e-01
2.218000000000000000e+03 1.862432861328125000e+01 -1.717540168762207031e+01 3.314306437969207764e-01 1.012230038642883301e+00 4.030981957912445068e-01 2.589725255966186523e-01
2.219000000000000000e+03 1.307989692687988281e+01 -1.820394515991210938e+01 1.998481005430221558e-01 3.796781897544860840e-01 1.738578826189041138e-01 -6.717834621667861938e-02
2.220000000000000000e+03 1.061865043640136719e+01 -1.813389778137207031e+01 1.427796930074691772e-01 1.671202033758163452e-01 9.296996891498565674e-02 -1.316209286451339722e-01
2.221000000000000000e+03 8.877962112426757812e+00 -1.825406455993652344e+01 1.055077761411666870e-01 4.354576393961906433e-02 4.471606388688087463e-02 -1.415933817625045776e-01
2.222000000000000000e+03 4.524970531463623047e+00 -1.693885803222656250e+01 2.564388699829578400e-02 -2.537775039672851562e-01 -6.844008713960647583e-02 -1.395237743854522705e-01
2.223000000000000000e+03 5.302361965179443359e+00 -1.679445266723632812e+01 3.528730943799018860e-02 -2.010240852832794189e-01 -4.972103238105773926e-02 -1.547428071498870850e-01
2.224000000000000000e+03 2.103987455368041992e+00 -1.874924468994140625e+01 8.997318334877490997e-03 -4.868830144405364990e-01 -1.433657109737396240e-01 -6.883770972490310669e-02
2.225000000000000000e+03 4.329515838623046875e+01 -1.604685592651367188e+01 1.646289706230163574e+00 4.576313972473144531e+00 1.866781115531921387e+00 2.501347362995147705e-01
2.226000000000000000e+03 4.192771148681640625e+01 -1.514207744598388672e+01 2.012841224670410156e+00 6.790281295776367188e+00 2.640936851501464844e+00 1.384263157844543457e+00
2.227000000000000000e+03 4.198654556274414062e+01 -1.624636077880859375e+01 3.161366939544677734e+00 5.833514690399169922e+00 2.698464393615722656e+00 4.195146858692169189e-01
2.228000000000000000e+03 3.404356765747070312e+01 -1.595367336273193359e+01 9.242349863052368164e-01 2.341565370559692383e+00 9.797400832176208496e-01 -1.299171924591064453e+00
2.229000000000000000e+03 3.265982055664062500e+01 -1.646710014343261719e+01 6.789168119430541992e-01 2.715208768844604492e+00 1.018237709999084473e+00 -1.230049014091491699e+00
2.230000000000000000e+03 3.013388824462890625e+01 -1.624173355102539062e+01 1.730862110853195190e-01 3.363337516784667969e+00 1.060927152633666992e+00 -1.110138297080993652e+00
2.231000000000000000e+03 2.896685981750488281e+01 -1.584960460662841797e+01 -1.456410810351371765e-02 3.671735763549804688e+00 1.097151517868041992e+00 -9.223750233650207520e-01
2.232000000000000000e+03 2.481376838684082031e+01 -1.497862911224365234e+01 -2.489454150199890137e-01 3.529330015182495117e+00 9.841154217720031738e-01 4.919259548187255859e-01
2.233000000000000000e+03 2.285939979553222656e+01 -1.546965503692626953e+01 1.033766791224479675e-01 2.278635263442993164e+00 7.146036028861999512e-01 6.339774727821350098e-01
2.234000000000000000e+03 2.157224082946777344e+01 -1.544782066345214844e+01 2.951838076114654541e-01 1.663041710853576660e+00 5.874676704406738281e-01 6.003151535987854004e-01
2.235000000000000000e+03 2.054603004455566406e+01 -1.491610527038574219e+01 3.501389026641845703e-01 1.271680831909179688e+00 4.865459501743316650e-01 4.924228191375732422e-01
2.236000000000000000e+03 1.790356254577636719e+01 -1.526199722290039062e+01 3.093398213386535645e-01 7.238616943359375000e-01 3.099604547023773193e-01 1.358454674482345581e-01
2.237000000000000000e+03 1.648104667663574219e+01 -1.619078636169433594e+01 2.749630808830261230e-01 6.095256209373474121e-01 2.653466165065765381e-01 4.609540477395057678e-02
2.238000000000000000e+03 1.499882602691650391e+01 -1.617388343811035156e+01 2.410798221826553345e-01 4.622381627559661865e-01 2.109953910112380981e-01 -4.376040399074554443e-02
2.239000000000000000e+03 1.095680618286132812e+01 -1.644274902343750000e+01 1.308178156614303589e-01 1.644877940416336060e-01 8.859167993068695068e-02 -1.672556996345520020e-01
2.240000000000000000e+03 9.680223464965820312e+00 -1.611274909973144531e+01 9.536960721015930176e-02 8.382850140333175659e-02 5.375943332910537720e-02 -1.864507198333740234e-01
2.241000000000000000e+03 7.647861957550048828e+00 -1.692409896850585938e+01 7.064308226108551025e-02 -4.778188094496726990e-02 6.858360953629016876e-03 -1.724518090486526489e-01
2.242000000000000000e+03 4.443040370941162109e+00 -1.617996597290039062e+01 2.374528162181377411e-02 -2.479794770479202271e-01 -6.727025657892227173e-02 -1.460878551006317139e-01
2.243000000000000000e+03 5.106269836425781250e+00 -1.536271572113037109e+01 2.454409748315811157e-02 -1.922301650047302246e-01 -5.030582100152969360e-02 -1.644852608442306519e-01
2.244000000000000000e+03 2.896342515945434570e+00 -1.711048316955566406e+01 1.135908812284469604e-02 -3.758819401264190674e-01 -1.093568578362464905e-01 -1.028694808483123779e-01
2.245000000000000000e+03 4.605130004882812500e+01 -1.386962890625000000e+01 -7.132192850112915039e-01 2.097080230712890625e+00 4.151582717895507812e-01 6.761044859886169434e-01
2.246000000000000000e+03 4.194596862792968750e+01 -1.426447105407714844e+01 1.267224669456481934e+00 6.717265129089355469e+00 2.395346879959106445e+00 1.316452026367187500e+00
2.247000000000000000e+03 4.331109619140625000e+01 -1.441454219818115234e+01 5.108339786529541016e-01 5.234220504760742188e+00 1.723516464233398438e+00 1.261408567428588867e+00
2.248000000000000000e+03 4.417804336547851562e+01 -1.130868434906005859e+01 -1.649132251739501953e+00 5.536807537078857422e+00 1.166302561759948730e+00 1.835146784782409668e+00
2.249000000000000000e+03 4.143679428100585938e+01 -1.407100200653076172e+01 3.736186921596527100e-01 9.264122009277343750e+00 2.891322374343872070e+00 1.409455418586730957e+00
2.250000000000000000e+03 4.230741119384765625e+01 -1.011949920654296875e+01 -1.767523646354675293e+00 5.680232048034667969e+00 1.173812508583068848e+00 2.350292444229125977e+00
2.251000000000000000e+03 4.479877471923828125e+01 -1.098601627349853516e+01 -1.520774006843566895e+00 5.354112148284912109e+00 1.150001406669616699e+00 1.370464205741882324e+00
2.252000000000000000e+03 4.150201034545898438e+01 -1.210174083709716797e+01 -5.724968314170837402e-01 6.246260643005371094e+00 1.702129125595092773e+00 1.687004566192626953e+00
2.253000000000000000e+03 4.306659317016601562e+01 -8.182385444641113281e+00 -7.378343939781188965e-01 7.230648517608642578e+00 1.947844266891479492e+00 1.964566707611083984e+00
2.254000000000000000e+03 4.456687545776367188e+01 -8.573143959045410156e+00 -6.743641495704650879e-01 8.142376899719238281e+00 2.240403652191162109e+00 3.264206051826477051e-01
2.255000000000000000e+03 3.889425277709960938e+01 -6.852563858032226562e+00 -5.571129322052001953e-01 -1.873266696929931641e+00 -7.291138768196105957e-01 1.415468931198120117e+00
2.256000000000000000e+03 4.029981994628906250e+01 -7.089127063751220703e+00 -1.764140874147415161e-01 1.100387334823608398e+00 2.771919667720794678e-01 1.439065456390380859e+00
2.257000000000000000e+03 3.728951263427734375e+01 -5.973168373107910156e+00 -8.550652265548706055e-01 -3.113481760025024414e+00 -1.190564036369323730e+00 1.785607457160949707e+00
2.258000000000000000e+03 7.552344512939453125e+01 -1.689405560493469238e+00 -9.319391250610351562e-01 6.131684303283691406e+00 1.559923529624938965e+00 1.000379920005798340e+00
2.259000000000000000e+03 3.254342269897460938e+01 -1.452383804321289062e+01 7.023053765296936035e-01 2.736783027648925781e+00 1.031726479530334473e+00 -1.507868885993957520e+00
2.260000000000000000e+03 3.074491310119628906e+01 -1.388214874267578125e+01 5.149378180503845215e-01 3.403853178024291992e+00 1.175637364387512207e+00 -1.658267617225646973e+00
2.261000000000000000e+03 2.893748855590820312e+01 -1.434179115295410156e+01 -1.796446926891803741e-02 4.060981750488281250e+00 1.212905168533325195e+00 -1.262268066406250000e+00
2.262000000000000000e+03 2.468506050109863281e+01 -1.347046184539794922e+01 -2.843303680419921875e-01 3.900233983993530273e+00 1.084771037101745605e+00 8.510823249816894531e-01
2.263000000000000000e+03 2.267963027954101562e+01 -1.322312450408935547e+01 4.078134596347808838e-01 2.017467737197875977e+00 7.275843620300292969e-01 1.070172786712646484e+00
2.264000000000000000e+03 2.098124694824218750e+01 -1.386494731903076172e+01 3.916790485382080078e-01 1.246518373489379883e+00 4.914592504501342773e-01 6.094526648521423340e-01
2.265000000000000000e+03 1.705979156494140625e+01 -1.369462680816650391e+01 2.532262504100799561e-01 4.558550715446472168e-01 2.127244025468826294e-01 -2.306515350937843323e-02
2.266000000000000000e+03 1.566882991790771484e+01 -1.431541442871093750e+01 1.999007165431976318e-01 4.121721982955932617e-01 1.836218684911727905e-01 -7.939759641885757446e-02
2.267000000000000000e+03 1.386290550231933594e+01 -1.475783157348632812e+01 1.574389636516571045e-01 3.264764845371246338e-01 1.451746374368667603e-01 -1.391659826040267944e-01
2.268000000000000000e+03 1.186715793609619141e+01 -1.415415191650390625e+01 9.014186263084411621e-02 1.919243335723876953e-01 8.461986482143402100e-02 -1.977914571762084961e-01
2.269000000000000000e+03 8.918210983276367188e+00 -1.503686428070068359e+01 6.277957558631896973e-02 3.329518809914588928e-02 2.882242761552333832e-02 -2.023658454418182373e-01
2.270000000000000000e+03 6.980899810791015625e+00 -1.474765872955322266e+01 3.064071387052536011e-02 -7.108679413795471191e-02 -1.213382463902235031e-02 -1.962690055370330811e-01
2.271000000000000000e+03 2.009046077728271484e+00 -1.477143001556396484e+01 2.257982734590768814e-03 -3.651368916034698486e-01 -1.088636741042137146e-01 -8.786080777645111084e-02
2.272000000000000000e+03 4.035411179065704346e-01 -1.557024383544921875e+01 2.099004108458757401e-03 -5.094789862632751465e-01 -1.522139906883239746e-01 -1.873825676739215851e-02
2.273000000000000000e+03 3.039344787597656250e+01 -1.100633239746093750e+01 1.184547424316406250e+00 3.426788806915283203e+00 1.383400797843933105e+00 -2.327406406402587891e+00
2.274000000000000000e+03 2.690449714660644531e+01 -1.112125205993652344e+01 -3.335974216461181641e-01 6.940601825714111328e+00 1.982101321220397949e+00 -1.543249845504760742e+00
2.275000000000000000e+03 2.258090209960937500e+01 -1.191791629791259766e+01 6.633509993553161621e-01 1.489470362663269043e+00 6.458464264869689941e-01 1.285832881927490234e+00
2.276000000000000000e+03 2.125892639160156250e+01 -1.102160835266113281e+01 3.205416500568389893e-01 3.843361437320709229e-01 2.114633321762084961e-01 5.946373343467712402e-01
2.277000000000000000e+03 1.968178558349609375e+01 -1.214252662658691406e+01 3.307393193244934082e-01 4.537774622440338135e-01 2.353550344705581665e-01 1.679317206144332886e-01
2.278000000000000000e+03 1.809179306030273438e+01 -1.255901718139648438e+01 2.019211798906326294e-01 4.367252886295318604e-01 1.915939450263977051e-01 2.222580462694168091e-02
2.279000000000000000e+03 1.619731903076171875e+01 -1.106145763397216797e+01 -6.750941276550292969e-02 2.804509699344635010e-01 6.388246268033981323e-02 -1.648300588130950928e-01
2.280000000000000000e+03 1.455599784851074219e+01 -1.260614299774169922e+01 6.149867922067642212e-02 2.764186263084411621e-01 1.013751924037933350e-01 -1.848228424787521362e-01
2.281000000000000000e+03 1.259888076782226562e+01 -1.201946163177490234e+01 -1.732577942311763763e-02 2.018504589796066284e-01 5.535740405321121216e-02 -2.154137045145034790e-01
2.282000000000000000e+03 1.137585639953613281e+01 -1.175631237030029297e+01 -3.245537728071212769e-02 1.552746295928955078e-01 3.684577345848083496e-02 -2.228792905807495117e-01
2.283000000000000000e+03 9.941279411315917969e+00 -1.267135524749755859e+01 5.827135406434535980e-03 8.960358798503875732e-02 2.862921729683876038e-02 -2.238880246877670288e-01
2.284000000000000000e+03 7.144251823425292969e+00 -1.266499519348144531e+01 1.189708826132118702e-03 -4.381430894136428833e-02 -1.278738025575876236e-02 -2.085953801870346069e-01
2.285000000000000000e+03 4.484090805053710938e+00 -1.257345581054687500e+01 -2.194966888055205345e-03 -1.675792187452316284e-01 -5.093225836753845215e-02 -1.639797091484069824e-01
2.286000000000000000e+03 5.306752204895019531e+00 -1.183415317535400391e+01 -1.096400991082191467e-02 -1.124222278594970703e-01 -3.701587393879890442e-02 -1.806448549032211304e-01
2.287000000000000000e+03 2.811483144760131836e+00 -1.322709083557128906e+01 2.752633299678564072e-03 -2.677789330482482910e-01 -7.950788736343383789e-02 -1.186313778162002563e-01
2.288000000000000000e+03 1.202159881591796875e+00 -1.397876262664794922e+01 -5.125091411173343658e-04 -3.831082284450531006e-01 -1.150862202048301697e-01 -5.751059949398040771e-02
2.289000000000000000e+03 3.519771194458007812e+01 -1.413376140594482422e+01 8.788201808929443359e-01 1.793365240097045898e+00 8.016556501388549805e-01 -1.348908543586730957e+00
2.290000000000000000e+03 2.801066970825195312e+01 -1.120712947845458984e+01 2.316537201404571533e-01 5.935693264007568359e+00 1.850204110145568848e+00 -2.171272516250610352e+00
2.291000000000000000e+03 2.485603141784667969e+01 -1.122409915924072266e+01 -2.908742725849151611e-01 5.520848274230957031e+00 1.568992137908935547e+00 2.231268405914306641e+00
2.292000000000000000e+03 1.995922660827636719e+01 -1.013687324523925781e+01 -3.428929150104522705e-01 1.945935338735580444e-01 -4.448981955647468567e-02 2.199819870293140411e-02
2.293000000000000000e+03 1.803147315979003906e+01 -1.106774902343750000e+01 -1.646424084901809692e-02 2.867213189601898193e-01 8.107712119817733765e-02 -1.230775937438011169e-01
2.294000000000000000e+03 1.503600883483886719e+01 -9.891532897949218750e+00 -2.003114819526672363e-01 2.422543168067932129e-01 1.258284877985715866e-02 -1.745139211416244507e-01
2.295000000000000000e+03 9.180178642272949219e+00 -9.990615844726562500e+00 -7.899563014507293701e-02 6.600856781005859375e-02 -3.896118607372045517e-03 -2.050180435180664062e-01
2.296000000000000000e+03 6.835267066955566406e+00 -1.100229263305664062e+01 -2.931322157382965088e-02 -3.645381703972816467e-02 -1.973011158406734467e-02 -1.988345384597778320e-01
2.297000000000000000e+03 4.330712318420410156e+00 -1.016944980621337891e+01 -1.908160001039505005e-02 -1.200307384133338928e-01 -4.173370078206062317e-02 -1.500075161457061768e-01
2.298000000000000000e+03 5.129511356353759766e+00 -1.018391513824462891e+01 -2.767801471054553986e-02 -8.932639658451080322e-02 -3.510132431983947754e-02 -1.669893860816955566e-01
2.299000000000000000e+03 2.003015756607055664e+00 -1.163966083526611328e+01 -3.274616552516818047e-03 -2.496405243873596191e-01 -7.587454468011856079e-02 -8.965583890676498413e-02
2.300000000000000000e+03 1.202077150344848633e+00 -1.239424133300781250e+01 -1.582887140102684498e-03 -3.139071464538574219e-01 -9.464701265096664429e-02 -5.818012356758117676e-02
2.301000000000000000e+03 2.613412857055664062e+01 -8.063477516174316406e+00 3.011408329010009766e+00 1.269509124755859375e+01 4.711949825286865234e+00 -1.362485527992248535e+00
2.302000000000000000e+03 2.741078567504882812e+01 -9.320489883422851562e+00 1.825762987136840820e+00 7.452237129211425781e+00 2.783400058746337891e+00 -2.777537584304809570e+00
2.303000000000000000e+03 1.852153778076171875e+01 -9.409447669982910156e+00 -4.722793102264404297e-01 2.161225676536560059e-01 -7.684703171253204346e-02 -4.913511127233505249e-02
2.304000000000000000e+03 1.682955741882324219e+01 -9.206095695495605469e+00 -3.809894621372222900e-01 2.360074073076248169e-01 -4.349461570382118225e-02 -9.515623748302459717e-02
2.305000000000000000e+03 1.564202022552490234e+01 -8.698582649230957031e+00 -3.437567353248596191e-01 2.257217764854431152e-01 -3.541048988699913025e-02 -1.137074753642082214e-01
2.306000000000000000e+03 9.415799140930175781e+00 -8.885498046875000000e+00 -1.135308071970939636e-01 7.845296710729598999e-02 -1.052335370332002640e-02 -1.848789751529693604e-01
2.307000000000000000e+03 7.244738578796386719e+00 -8.036877632141113281e+00 -8.322124183177947998e-02 9.048974141478538513e-03 -2.225168235599994659e-02 -1.598380953073501587e-01
2.308000000000000000e+03 5.735808849334716797e+00 -8.577553749084472656e+00 -4.922908544540405273e-02 -4.525822401046752930e-02 -2.834619395434856415e-02 -1.550232470035552979e-01
2.309000000000000000e+03 1.965739130973815918e+00 -1.005887889862060547e+01 -5.697913002222776413e-03 -1.939467489719390869e-01 -5.989339947700500488e-02 -8.324903249740600586e-02
2.310000000000000000e+03 3.101613235473632812e+01 -5.741624832153320312e+00 1.766595803201198578e-02 -6.705697178840637207e-01 -1.958711147308349609e-01 1.603586375713348389e-01
2.311000000000000000e+03 3.013574028015136719e+01 -5.291965007781982422e+00 3.282917737960815430e-01 1.438535332679748535e+00 5.300481319427490234e-01 -2.796911001205444336e-01
2.312000000000000000e+03 2.959243202209472656e+01 -3.742461681365966797e+00 2.400219142436981201e-01 3.194751977920532227e+00 1.030432105064392090e+00 9.138407707214355469e-01
2.313000000000000000e+03 2.653715896606445312e+01 -2.958901643753051758e+00 2.362469196319580078e+00 6.830898761749267578e+00 2.758010387420654297e+00 -7.990406751632690430e-01
2.314000000000000000e+03 2.478449630737304688e+01 -5.394484519958496094e+00 4.227971076965332031e+00 1.713014984130859375e+01 6.407436370849609375e+00 -7.220773696899414062e+00
2.315000000000000000e+03 3.027688217163085938e+01 -3.430737495422363281e+00 -7.939272373914718628e-02 1.033663272857666016e+00 2.862811386585235596e-01 4.372698068618774414e-01
2.316000000000000000e+03 2.932615470886230469e+01 -2.956780672073364258e+00 9.032615423202514648e-01 3.991225004196166992e+00 1.468345999717712402e+00 1.964166641235351562e+00
2.317000000000000000e+03 6.876988410949707031e+00 6.955506801605224609e+00 1.771027684211730957e+00 9.926082491874694824e-01 8.290907740592956543e-01 -1.964050531387329102e+00
2.318000000000000000e+03 1.995629072189331055e+00 6.761850357055664062e+00 2.681713402271270752e-01 -4.625115096569061279e-01 -5.830205231904983521e-02 -2.815774381160736084e-01
2.319000000000000000e+03 6.764163494110107422e+00 7.825875759124755859e+00 8.672136664390563965e-01 1.290403485298156738e+00 6.472851634025573730e-01 -1.873009562492370605e+00
2.320000000000000000e+03 2.025624275207519531e+00 8.405754089355468750e+00 1.366855502128601074e-01 -1.430491060018539429e-01 -1.909064943902194500e-03 -5.602050423622131348e-01
2.321000000000000000e+03 8.222296714782714844e+00 1.127371120452880859e+01 -9.388205409049987793e-01 1.558527231216430664e+00 1.859120130538940430e-01 -9.556265473365783691e-01
2.322000000000000000e+03 7.528029441833496094e+00 1.100483322143554688e+01 -7.335316538810729980e-01 1.598050951957702637e+00 2.593557834625244141e-01 -1.141900658607482910e+00
2.323000000000000000e+03 6.958984851837158203e+00 1.061778640747070312e+01 -5.489275455474853516e-01 1.527228355407714844e+00 2.934902608394622803e-01 -1.275041580200195312e+00
2.324000000000000000e+03 3.652102470397949219e+00 9.387414932250976562e+00 1.374853700399398804e-01 5.031440854072570801e-01 1.921888291835784912e-01 -1.021373510360717773e+00
2.325000000000000000e+03 1.974842071533203125e+00 1.000832462310791016e+01 1.436983514577150345e-02 2.504623830318450928e-01 7.944966852664947510e-02 -6.533204317092895508e-01
2.326000000000000000e+03 1.421139621734619141e+01 1.139926528930664062e+01 -1.426232814788818359e+00 -9.784958958625793457e-01 -7.214186191558837891e-01 -1.114982485771179199e+00
2.327000000000000000e+03 1.321719360351562500e+01 1.250244522094726562e+01 -1.414718508720397949e+00 -2.739748060703277588e-01 -5.066079497337341309e-01 -6.702913045883178711e-01
2.328000000000000000e+03 1.304107379913330078e+01 1.028994846343994141e+01 -1.085986495018005371e+00 -8.083590269088745117e-01 -5.683036446571350098e-01 -8.658043146133422852e-01
2.329000000000000000e+03 9.737763404846191406e+00 1.295178890228271484e+01 -1.181399345397949219e+00 1.052894473075866699e+00 -3.855143859982490540e-02 -5.199913978576660156e-01
2.330000000000000000e+03 5.921116828918457031e+00 1.265545558929443359e+01 -5.894172787666320801e-01 1.297771811485290527e+00 2.125063538551330566e-01 -9.206869006156921387e-01
2.331000000000000000e+03 5.935627460479736328e+00 1.172991561889648438e+01 -5.094023346900939941e-01 1.300600528717041016e+00 2.373594641685485840e-01 -1.097358465194702148e+00
2.332000000000000000e+03 4.083042621612548828e+00 1.170328426361083984e+01 -2.262600064277648926e-01 9.841776490211486816e-01 2.273752987384796143e-01 -9.661012291908264160e-01
2.333000000000000000e+03 1.949232459068298340e+00 1.159393787384033203e+01 -6.347434967756271362e-02 6.434350013732910156e-01 1.739881932735443115e-01 -6.082864403724670410e-01
2.334000000000000000e+03 1.309034347534179688e+01 1.365283966064453125e+01 -1.431929111480712891e+00 -2.856548316776752472e-02 -4.381484091281890869e-01 -4.985563755035400391e-01
2.335000000000000000e+03 2.844108819961547852e+00 1.321122360229492188e+01 -1.731473952531814575e-01 1.029206037521362305e+00 2.568175792694091797e-01 -6.458280086517333984e-01
2.336000000000000000e+03 1.372652626037597656e+01 1.196038627624511719e+01 -1.420523285865783691e+00 -5.391369462013244629e-01 -5.878980755805969238e-01 -9.292264580726623535e-01
2.337000000000000000e+03 1.819861793518066406e+01 1.415166664123535156e+01 -2.423095226287841797e+00 -7.357051372528076172e-01 -9.476401209831237793e-01 -1.299124360084533691e+00
2.338000000000000000e+03 6.894826507568359375e+01 1.105971050262451172e+01 1.703062653541564941e+00 7.829181671142578125e+00 2.859673261642456055e+00 1.171818614006042480e+00
2.339000000000000000e+03 7.527799224853515625e+01 1.130477714538574219e+01 -2.590782344341278076e-01 6.835116386413574219e+00 1.972811341285705566e+00 -2.348177433013916016e+00
2.340000000000000000e+03 2.942161321640014648e+00 -2.760459184646606445e+00 -2.309235557913780212e-02 -1.745581254363059998e-02 -1.216445025056600571e-02 -3.187115862965583801e-02
2.341000000000000000e+03 6.298783779144287109e+00 -3.523199081420898438e+00 -7.709291577339172363e-02 -1.764917833497747779e-04 -2.318082191050052643e-02 -6.535894423723220825e-02
2.342000000000000000e+03 4.651697158813476562e+00 -3.632886886596679688e+00 -4.781408980488777161e-02 -1.726432517170906067e-02 -1.952352374792098999e-02 -5.996254831552505493e-02
2.343000000000000000e+03 2.851975440979003906e+00 -5.326912879943847656e+00 -2.032374776899814606e-02 -5.396130308508872986e-02 -2.228551544249057770e-02 -6.290408968925476074e-02
2.344000000000000000e+03 6.511907100677490234e+00 -5.094655513763427734e+00 -8.220332860946655273e-02 8.519975235685706139e-04 -2.440540120005607605e-02 -9.630941599607467651e-02
2.345000000000000000e+03 4.402948379516601562e+00 -5.869200229644775391e+00 -4.128992930054664612e-02 -4.226602613925933838e-02 -2.506678737699985504e-02 -9.480121731758117676e-02
2.346000000000000000e+03 8.788989067077636719e+00 -2.764380931854248047e+00 -1.190169230103492737e-01 1.966196857392787933e-02 -2.980648539960384369e-02 -3.904137387871742249e-02
2.347000000000000000e+03 1.115053176879882812e+01 -4.499081611633300781e+00 -1.945999413728713989e-01 7.795537263154983521e-02 -3.499336913228034973e-02 -3.695958852767944336e-02
2.348000000000000000e+03 1.161171340942382812e+01 -4.101906299591064453e+00 -1.970392614603042603e-01 7.225684076547622681e-02 -3.743472695350646973e-02 -1.485668122768402100e-02
2.349000000000000000e+03 1.259327769279479980e+00 -3.543725967407226562e+00 -5.226923618465662003e-03 -2.637822553515434265e-02 -9.481544606387615204e-03 -1.866581849753856659e-02
2.350000000000000000e+03 1.568742084503173828e+01 -3.440074682235717773e+00 -2.228163629770278931e-01 -5.283593386411666870e-02 -8.269569277763366699e-02 1.280642300844192505e-01
2.351000000000000000e+03 1.926556348800659180e+00 -6.872071743011474609e+00 -9.723008610308170319e-03 -9.524888545274734497e-02 -3.149157017469406128e-02 -6.059969589114189148e-02
2.352000000000000000e+03 6.029348850250244141e+00 -7.145991325378417969e+00 -6.566599011421203613e-02 -2.089637331664562225e-02 -2.596870809793472290e-02 -1.336853802204132080e-01
2.353000000000000000e+03 4.895376205444335938e+00 -6.374958515167236328e+00 -5.063664168119430542e-02 -3.823737427592277527e-02 -2.666220441460609436e-02 -1.090612187981605530e-01
2.354000000000000000e+03 1.137886524200439453e+01 -5.086479187011718750e+00 -2.055290043354034424e-01 9.333576261997222900e-02 -3.365797176957130432e-02 -5.225361883640289307e-02
2.355000000000000000e+03 1.264308738708496094e+01 -4.267373085021972656e+00 -2.303777039051055908e-01 8.502192795276641846e-02 -4.360673576593399048e-02 7.202023174613714218e-03
2.356000000000000000e+03 4.078412353992462158e-01 -5.130768299102783203e+00 -1.052717794664204121e-03 -4.834816977381706238e-02 -1.482026558369398117e-02 -1.011082995682954788e-02
2.357000000000000000e+03 1.913425087928771973e+00 -8.477862358093261719e+00 -7.626333739608526230e-03 -1.423393636941909790e-01 -4.498970881104469299e-02 -7.261278480291366577e-02
2.358000000000000000e+03 8.241566658020019531e+00 -6.652574062347412109e+00 -1.178717166185379028e-01 4.042709246277809143e-02 -2.323338761925697327e-02 -1.300144791603088379e-01
2.359000000000000000e+03 1.127029800415039062e+01 -6.906214714050292969e+00 -2.067937701940536499e-01 1.239886507391929626e-01 -2.484153583645820618e-02 -1.155497059226036072e-01
2.360000000000000000e+03 1.194520950317382812e+01 -6.504764080047607422e+00 -2.349187731742858887e-01 1.317644417285919189e-01 -3.094629570841789246e-02 -8.758904784917831421e-02
2.361000000000000000e+03 1.580996036529541016e+01 -6.712985992431640625e+00 -4.301290512084960938e-01 1.333594471216201782e-01 -8.903088420629501343e-02 4.006975144147872925e-02
2.362000000000000000e+03 1.716885185241699219e+01 -7.158606052398681641e+00 -5.641407966613769531e-01 1.118860766291618347e-01 -1.356764137744903564e-01 1.050464510917663574e-01
2.363000000000000000e+03 1.826771736145019531e+01 -6.146950721740722656e+00 -5.565492510795593262e-01 -1.445351541042327881e-01 -2.103253155946731567e-01 3.112867474555969238e-01
2.364000000000000000e+03 3.924967944622039795e-01 -6.746805191040039062e+00 -1.111951423808932304e-03 -9.590220451354980469e-02 -2.910424582660198212e-02 -1.343524456024169922e-02
2.365000000000000000e+03 1.990112113952636719e+01 -6.855022907257080078e+00 -7.710793614387512207e-01 -4.302757680416107178e-01 -3.604065179824829102e-01 5.592510700225830078e-01
2.366000000000000000e+03 3.898147642612457275e-01 -9.163280487060546875e+00 3.819795965682715178e-04 -1.925842314958572388e-01 -5.766067653894424438e-02 -1.728989928960800171e-02
2.367000000000000000e+03 3.874298810958862305e+00 -2.262521553039550781e+01 2.584809064865112305e-02 -3.848931193351745605e-01 -1.077135130763053894e-01 -6.000151857733726501e-02
2.368000000000000000e+03 2.107070922851562500e+00 -2.194765663146972656e+01 1.002593897283077240e-02 -5.569766759872436523e-01 -1.640852242708206177e-01 -4.504926130175590515e-02
2.369000000000000000e+03 5.640650272369384766e+00 -2.219619560241699219e+01 5.008820071816444397e-02 -2.160705626010894775e-01 -4.979470744729042053e-02 -7.768536359071731567e-02
2.370000000000000000e+03 8.003447532653808594e+00 -2.155530548095703125e+01 8.610114455223083496e-02 -1.445720670744776726e-03 2.539662830531597137e-02 -8.710218220949172974e-02
2.371000000000000000e+03 9.527696609497070312e+00 -2.179267311096191406e+01 1.085448265075683594e-01 1.392433345317840576e-01 7.433644682168960571e-02 -6.909961253404617310e-02
2.372000000000000000e+03 1.111482810974121094e+01 -2.200072860717773438e+01 1.340892463922500610e-01 2.862108349800109863e-01 1.260900348424911499e-01 -4.670615121722221375e-02
2.373000000000000000e+03 1.903057670593261719e+01 -2.187327957153320312e+01 1.630135625600814819e-01 1.313335895538330078e+00 4.429048299789428711e-01 1.798386126756668091e-01
2.374000000000000000e+03 2.067387771606445312e+01 -2.200012779235839844e+01 1.132558584213256836e-01 1.645768046379089355e+00 5.277071595191955566e-01 2.018987387418746948e-01
2.375000000000000000e+03 2.235644912719726562e+01 -2.208276557922363281e+01 6.596302241086959839e-02 1.935718417167663574e+00 6.005043983459472656e-01 1.765694022178649902e-01
2.376000000000000000e+03 2.825538063049316406e+01 -2.113110542297363281e+01 3.520604595541954041e-02 2.834874868392944336e+00 8.610243201255798340e-01 -2.694905698299407959e-01
2.377000000000000000e+03 3.019334602355957031e+01 -2.162198829650878906e+01 2.090427279472351074e-01 2.815459728240966797e+00 9.073507785797119141e-01 -3.602544963359832764e-01
2.378000000000000000e+03 3.239353561401367188e+01 -2.182531929016113281e+01 3.660479784011840820e-01 2.817929029464721680e+00 9.551931023597717285e-01 -3.774354159832000732e-01
2.379000000000000000e+03 3.524816513061523438e+01 -2.213217163085937500e+01 5.624774694442749023e-01 2.921693801879882812e+00 1.045251369476318359e+00 -2.189879715442657471e-01
2.380000000000000000e+03 3.791687011718750000e+01 -2.154391479492187500e+01 5.911694765090942383e-01 3.312037944793701172e+00 1.170962214469909668e+00 8.277757465839385986e-02
2.381000000000000000e+03 4.181731414794921875e+01 -2.443266296386718750e+01 4.410576075315475464e-02 3.525892496109008789e+00 1.070999503135681152e+00 -5.506328344345092773e-01
2.382000000000000000e+03 3.934831619262695312e+01 -2.215786170959472656e+01 2.840944826602935791e-01 3.678225517272949219e+00 1.188696026802062988e+00 -1.486275810748338699e-02
2.383000000000000000e+03 4.644369506835937500e+01 -2.136339759826660156e+01 1.669398546218872070e-01 2.384851455688476562e+00 7.655373811721801758e-01 -9.732542037963867188e-01
2.384000000000000000e+03 4.924838256835937500e+01 -2.123599433898925781e+01 1.604532748460769653e-01 1.228874921798706055e+00 4.167984724044799805e-01 -4.687998890876770020e-01
2.385000000000000000e+03 5.203535461425781250e+01 -2.205138969421386719e+01 6.043079495429992676e-01 1.319637179374694824e+00 5.771835446357727051e-01 1.009254455566406250e+00
2.386000000000000000e+03 5.286806488037109375e+01 -2.211268806457519531e+01 4.753740131855010986e-01 1.664620161056518555e+00 6.419982910156250000e-01 1.319343566894531250e+00
2.387000000000000000e+03 6.136145782470703125e+01 -2.176829338073730469e+01 -1.324903219938278198e-01 6.197257041931152344e+00 1.819430112838745117e+00 -1.117588877677917480e+00
2.388000000000000000e+03 6.024069595336914062e+01 -2.324299049377441406e+01 -4.295566678047180176e-01 6.335574626922607422e+00 1.771805405616760254e+00 -4.230382442474365234e-01
2.389000000000000000e+03 6.350948715209960938e+01 -1.993606376647949219e+01 4.128752648830413818e-01 4.978185653686523438e+00 1.617318391799926758e+00 -1.338547229766845703e+00
2.390000000000000000e+03 6.653210449218750000e+01 -2.251502609252929688e+01 6.773825883865356445e-01 4.343528747558593750e+00 1.506273388862609863e+00 -4.328592121601104736e-01
2.391000000000000000e+03 6.899880981445312500e+01 -2.194357109069824219e+01 6.165682077407836914e-01 4.407030582427978516e+00 1.507079601287841797e+00 4.358479380607604980e-01
2.392000000000000000e+03 7.241674041748046875e+01 -2.210691642761230469e+01 -5.484186485409736633e-02 6.056532859802246094e+00 1.800507307052612305e+00 8.639374971389770508e-01
2.393000000000000000e+03 7.615535736083984375e+01 -2.210186004638671875e+01 -1.995762437582015991e-01 7.149025440216064453e+00 2.084834814071655273e+00 1.975398957729339600e-01
2.394000000000000000e+03 7.789128875732421875e+01 -2.208678817749023438e+01 -9.274426102638244629e-02 7.305032253265380859e+00 2.163686513900756836e+00 1.554533839225769043e-02
2.395000000000000000e+03 3.677316427230834961e+00 -2.513756179809570312e+01 1.562465820461511612e-02 -4.294039905071258545e-01 -1.241338029503822327e-01 -3.816309571266174316e-02
2.396000000000000000e+03 2.983307600021362305e+00 -2.352416801452636719e+01 1.261054631322622299e-02 -4.900010228157043457e-01 -1.432171463966369629e-01 -4.270103946328163147e-02
2.397000000000000000e+03 6.132925510406494141e+00 -2.397595214843750000e+01 4.596891999244689941e-02 -1.675053536891937256e-01 -3.646092861890792847e-02 -5.389208346605300903e-02
2.398000000000000000e+03 7.920340061187744141e+00 -2.303158187866210938e+01 7.988796383142471313e-02 6.549821700900793076e-03 2.593133412301540375e-02 -6.261478364467620850e-02
2.399000000000000000e+03 9.422642707824707031e+00 -2.340647697448730469e+01 1.017916724085807800e-01 1.576731652021408081e-01 7.783944904804229736e-02 -4.270329698920249939e-02
2.400000000000000000e+03 1.125772094726562500e+01 -2.398265647888183594e+01 1.116622835397720337e-01 3.503430485725402832e-01 1.386016011238098145e-01 -1.089783944189548492e-02
2.401000000000000000e+03 1.350648689270019531e+01 -2.370048904418945312e+01 1.445196568965911865e-01 5.812699198722839355e-01 2.177368700504302979e-01 2.596922218799591064e-02
2.402000000000000000e+03 1.616972732543945312e+01 -2.293502235412597656e+01 1.612609177827835083e-01 9.179823398590087891e-01 3.237729966640472412e-01 1.001894623041152954e-01
2.403000000000000000e+03 2.106627082824707031e+01 -2.389296913146972656e+01 7.779452949762344360e-02 1.701557874679565430e+00 5.338057279586791992e-01 1.548572927713394165e-01
2.404000000000000000e+03 2.232819557189941406e+01 -2.385829925537109375e+01 4.063143953680992126e-02 1.897137045860290527e+00 5.813305377960205078e-01 1.216890215873718262e-01
2.405000000000000000e+03 2.678538894653320312e+01 -2.370910453796386719e+01 2.732863835990428925e-02 2.503806352615356445e+00 7.593405246734619141e-01 -6.088132038712501526e-02
2.406000000000000000e+03 2.824826812744140625e+01 -2.365186691284179688e+01 4.557964578270912170e-02 2.633953571319580078e+00 8.038599491119384766e-01 -1.666609942913055420e-01
2.407000000000000000e+03 2.956732177734375000e+01 -2.339625740051269531e+01 1.236786469817161560e-01 2.740538835525512695e+00 8.592652678489685059e-01 -2.307461798191070557e-01
2.408000000000000000e+03 3.769730758666992188e+01 -2.335363769531250000e+01 3.147890269756317139e-01 3.315994501113891602e+00 1.089235067367553711e+00 -1.014140322804450989e-01
2.409000000000000000e+03 4.046509552001953125e+01 -2.498749351501464844e+01 5.188830941915512085e-02 3.518113136291503906e+00 1.071000456809997559e+00 -3.812041580677032471e-01
2.410000000000000000e+03 4.379003906250000000e+01 -2.481609916687011719e+01 1.271460056304931641e-01 3.245021581649780273e+00 1.011650204658508301e+00 -7.247733473777770996e-01
2.411000000000000000e+03 4.493666458129882812e+01 -2.425209045410156250e+01 2.043934762477874756e-01 2.995935440063476562e+00 9.600986838340759277e-01 -7.911270260810852051e-01
2.412000000000000000e+03 4.690349960327148438e+01 -2.375575637817382812e+01 3.261086046695709229e-01 2.495971679687500000e+00 8.466240763664245605e-01 -7.536317706108093262e-01
2.413000000000000000e+03 4.818107986450195312e+01 -2.351999473571777344e+01 5.063171386718750000e-01 2.048526287078857422e+00 7.664530277252197266e-01 -5.443012118339538574e-01
2.414000000000000000e+03 4.937429046630859375e+01 -2.336788368225097656e+01 5.798977613449096680e-01 1.735995173454284668e+00 6.947678923606872559e-01 -2.741781175136566162e-01
2.415000000000000000e+03 5.112942886352539062e+01 -2.305886650085449219e+01 6.517931222915649414e-01 1.682414770126342773e+00 7.002623677253723145e-01 4.946336150169372559e-01
2.416000000000000000e+03 5.277709960937500000e+01 -2.325586509704589844e+01 5.950904488563537598e-01 2.273589611053466797e+00 8.606040477752685547e-01 1.214819073677062988e+00
2.417000000000000000e+03 5.459502029418945312e+01 -2.239298057556152344e+01 -8.146785944700241089e-02 3.633357048034667969e+00 1.065566778182983398e+00 2.047425031661987305e+00
2.418000000000000000e+03 5.656230163574218750e+01 -2.138486480712890625e+01 -1.260978460311889648e+00 7.752774715423583984e+00 1.947538971900939941e+00 1.437138438224792480e+00
2.419000000000000000e+03 6.140711212158203125e+01 -2.460104942321777344e+01 -1.989082396030426025e-01 5.752600193023681641e+00 1.666107535362243652e+00 -4.427267014980316162e-01
2.420000000000000000e+03 6.804159545898437500e+01 -2.610147285461425781e+01 3.984424769878387451e-01 5.208775043487548828e+00 1.682165265083312988e+00 1.158859021961688995e-02
2.421000000000000000e+03 6.866138458251953125e+01 -2.466225051879882812e+01 4.993923604488372803e-01 5.057719230651855469e+00 1.667133450508117676e+00 1.743775010108947754e-01
2.422000000000000000e+03 7.035178375244140625e+01 -2.414874839782714844e+01 4.120984077453613281e-01 5.338269233703613281e+00 1.725110292434692383e+00 4.424019157886505127e-01
2.423000000000000000e+03 7.151192474365234375e+01 -2.448862838745117188e+01 2.603401839733123779e-01 5.702613353729248047e+00 1.788886070251464844e+00 4.870121777057647705e-01
2.424000000000000000e+03 7.446151733398437500e+01 -2.407407951354980469e+01 -3.724519163370132446e-02 6.571445941925048828e+00 1.960260152816772461e+00 4.222795665264129639e-01
2.425000000000000000e+03 7.619381713867187500e+01 -2.383152389526367188e+01 -7.405193150043487549e-02 6.934282779693603516e+00 2.058069229125976562e+00 2.529875636100769043e-01
2.426000000000000000e+03 7.789788818359375000e+01 -2.373604965209960938e+01 -3.957251086831092834e-02 7.199918270111083984e+00 2.148103713989257812e+00 1.028827130794525146e-01
2.427000000000000000e+03 3.886077880859375000e+00 -2.593852615356445312e+01 1.678190194070339203e-02 -4.033657312393188477e-01 -1.159751489758491516e-01 -2.946744859218597412e-02
2.428000000000000000e+03 2.716481208801269531e+00 -2.587171745300292969e+01 1.291776541620492935e-02 -5.325190424919128418e-01 -1.558803766965866089e-01 -2.879246324300765991e-02
2.429000000000000000e+03 5.562616348266601562e+00 -2.530628776550292969e+01 3.593447804450988770e-02 -2.269429862499237061e-01 -5.730255320668220520e-02 -3.820449858903884888e-02
2.430000000000000000e+03 8.200820922851562500e+00 -2.619964027404785156e+01 5.836276337504386902e-02 5.922476202249526978e-02 3.527625650167465210e-02 -1.927726343274116516e-02
2.431000000000000000e+03 1.800772857666015625e+01 -2.590320205688476562e+01 8.885551244020462036e-02 1.210847616195678711e+00 3.899109363555908203e-01 1.045494824647903442e-01
2.432000000000000000e+03 2.205099105834960938e+01 -2.611825752258300781e+01 2.827610448002815247e-02 1.821691751480102539e+00 5.549903512001037598e-01 1.056968718767166138e-01
2.433000000000000000e+03 4.426737213134765625e+01 -2.596909141540527344e+01 2.071155905723571777e-01 3.117587566375732422e+00 9.974109530448913574e-01 -6.311231851577758789e-01
2.434000000000000000e+03 4.830582046508789062e+01 -2.600109481811523438e+01 5.450958013534545898e-01 2.546424865722656250e+00 9.274561405181884766e-01 -3.499259054660797119e-01
2.435000000000000000e+03 4.971266174316406250e+01 -2.461489295959472656e+01 6.731855273246765137e-01 2.105381727218627930e+00 8.335701823234558105e-01 -7.792890071868896484e-02
2.436000000000000000e+03 5.425720596313476562e+01 -2.551670455932617188e+01 2.110245376825332642e-01 3.673877477645874023e+00 1.165470600128173828e+00 1.015156745910644531e+00
2.437000000000000000e+03 5.951121139526367188e+01 -2.566377830505371094e+01 -4.021331965923309326e-01 5.692403793334960938e+00 1.587081193923950195e+00 5.915457382798194885e-02
2.438000000000000000e+03 6.543177032470703125e+01 -2.542497634887695312e+01 3.426002860069274902e-01 5.027953147888183594e+00 1.611166000366210938e+00 -3.780346810817718506e-01
2.439000000000000000e+03 6.406013488769531250e+01 -2.664136695861816406e+01 1.538062393665313721e-01 5.221774578094482422e+00 1.612674236297607422e+00 -3.518575131893157959e-01
2.440000000000000000e+03 6.623439788818359375e+01 -2.398299217224121094e+01 5.125736594200134277e-01 4.750626564025878906e+00 1.578960061073303223e+00 -3.816265463829040527e-01
2.441000000000000000e+03 7.002261352539062500e+01 -2.635670280456542969e+01 3.101077079772949219e-01 5.481131553649902344e+00 1.737371683120727539e+00 2.138853669166564941e-01
2.442000000000000000e+03 7.222660827636718750e+01 -2.614629364013671875e+01 2.021437287330627441e-01 5.953541755676269531e+00 1.846705675125122070e+00 3.592262864112854004e-01
2.443000000000000000e+03 7.625999450683593750e+01 -2.544187164306640625e+01 -2.683087950572371483e-03 6.808403015136718750e+00 2.041715860366821289e+00 2.501327097415924072e-01
2.444000000000000000e+03 7.790531921386718750e+01 -2.536428070068359375e+01 -5.503524094820022583e-03 7.092951297760009766e+00 2.126234292984008789e+00 1.371003538370132446e-01
2.445000000000000000e+03 4.068799912929534912e-01 -2.519524765014648438e+01 1.525960047729313374e-03 -7.988446354866027832e-01 -2.391956001520156860e-01 -3.777747275307774544e-03
2.446000000000000000e+03 4.036796092987060547e+00 -2.772912979125976562e+01 1.291391346603631973e-02 -3.978654742240905762e-01 -1.154854670166969299e-01 -1.185234915465116501e-02
2.447000000000000000e+03 2.247867822647094727e+00 -2.733544158935546875e+01 2.399789867922663689e-03 -6.125488877296447754e-01 -1.830447167158126831e-01 -1.466359756886959076e-02
2.448000000000000000e+03 9.960622787475585938e+00 -2.724148750305175781e+01 6.487417221069335938e-02 2.329836040735244751e-01 8.935733139514923096e-02 2.342712134122848511e-03
2.449000000000000000e+03 2.122058868408203125e+01 -2.739122772216796875e+01 2.114125527441501617e-02 1.660778284072875977e+00 5.045758485794067383e-01 9.105902910232543945e-02
2.450000000000000000e+03 2.308673095703125000e+01 -2.716793251037597656e+01 -1.497065240982919931e-04 1.943208336830139160e+00 5.829176306724548340e-01 7.165111601352691650e-02
2.451000000000000000e+03 2.629881095886230469e+01 -2.767724609375000000e+01 -1.013966649770736694e-02 2.292197704315185547e+00 6.846174001693725586e-01 -1.804377697408199310e-02
2.452000000000000000e+03 5.295042419433593750e+01 -2.635189628601074219e+01 4.360221922397613525e-01 3.250505208969116211e+00 1.105958223342895508e+00 7.005692124366760254e-01
2.453000000000000000e+03 5.442861175537109375e+01 -2.788228225708007812e+01 1.981726288795471191e-01 3.921600103378295898e+00 1.235931754112243652e+00 6.281993389129638672e-01
2.454000000000000000e+03 6.559268951416015625e+01 -2.856028938293457031e+01 1.987011134624481201e-01 5.271047592163085938e+00 1.640924572944641113e+00 -1.371894925832748413e-01
2.455000000000000000e+03 6.888095855712890625e+01 -2.563187980651855469e+01 4.132714569568634033e-01 5.194880962371826172e+00 1.682445764541625977e+00 1.402288228273391724e-01
2.456000000000000000e+03 7.285881805419921875e+01 -2.828609275817871094e+01 1.556572169065475464e-01 6.072063922882080078e+00 1.868316292762756348e+00 2.532449364662170410e-01
2.457000000000000000e+03 7.201498413085937500e+01 -2.765193557739257812e+01 2.121771275997161865e-01 5.941062927246093750e+00 1.845972061157226562e+00 2.718142569065093994e-01
2.458000000000000000e+03 7.614123535156250000e+01 -2.706952667236328125e+01 3.865596279501914978e-02 6.695300579071044922e+00 2.020186901092529297e+00 2.269646674394607544e-01
2.459000000000000000e+03 7.783177947998046875e+01 -2.784008026123046875e+01 8.608832024037837982e-03 6.937397480010986328e+00 2.083801984786987305e+00 1.313049197196960449e-01
2.460000000000000000e+03 4.126004576683044434e-01 -2.599708366394042969e+01 8.177657146006822586e-04 -8.048099279403686523e-01 -2.411976605653762817e-01 -1.361315720714628696e-03
2.461000000000000000e+03 5.215115547180175781e+00 -3.015835571289062500e+01 1.595978811383247375e-02 -2.638483941555023193e-01 -7.436657696962356567e-02 -5.671513732522726059e-03
2.462000000000000000e+03 3.136676073074340820e+00 -2.961729431152343750e+01 1.027972344309091568e-02 -4.921009540557861328e-01 -1.445463597774505615e-01 -1.039344351738691330e-02
2.463000000000000000e+03 8.572697639465332031e+00 -2.829604148864746094e+01 4.677121341228485107e-02 1.079613119363784790e-01 4.641975834965705872e-02 7.868280634284019470e-03
2.464000000000000000e+03 2.203152656555175781e+01 -2.961406517028808594e+01 -1.190990582108497620e-02 1.759440898895263672e+00 5.242592692375183105e-01 6.668966263532638550e-02
2.465000000000000000e+03 2.849616622924804688e+01 -2.915404891967773438e+01 -1.446719188243150711e-02 2.461213350296020508e+00 7.340238094329833984e-01 -6.057900190353393555e-02
2.466000000000000000e+03 4.965660476684570312e+01 -2.962941360473632812e+01 4.840548932552337646e-01 3.123563766479492188e+00 1.082285523414611816e+00 2.214245498180389404e-02
2.467000000000000000e+03 7.352645874023437500e+01 -2.978339576721191406e+01 1.202505379915237427e-01 6.201156139373779297e+00 1.896422028541564941e+00 1.971931159496307373e-01
2.468000000000000000e+03 7.779429626464843750e+01 -2.952836036682128906e+01 1.388321816921234131e-02 6.856750965118408203e+00 2.061190128326416016e+00 1.121664941310882568e-01
2.469000000000000000e+03 4.931334853172302246e-01 -2.762465286254882812e+01 -1.859034644439816475e-03 -8.108468055725097656e-01 -2.438117563724517822e-01 -2.123799407854676247e-03
2.470000000000000000e+03 6.276185989379882812e+00 -3.341859817504882812e+01 7.224160246551036835e-03 -1.167380809783935547e-01 -3.285417333245277405e-02 6.033985409885644913e-03
2.471000000000000000e+03 2.713530540466308594e+00 -3.131639289855957031e+01 3.667495679110288620e-03 -5.785465836524963379e-01 -1.724637299776077271e-01 2.269228862132877111e-04
2.472000000000000000e+03 6.215133190155029297e+00 -2.941650962829589844e+01 1.939494349062442780e-02 -1.366871148347854614e-01 -3.518765047192573547e-02 -3.943612333387136459e-03
2.473000000000000000e+03 9.626559257507324219e+00 -2.960832405090332031e+01 3.919308632612228394e-02 2.272219955921173096e-01 7.992452383041381836e-02 1.830484718084335327e-02
2.474000000000000000e+03 1.295052623748779297e+01 -2.952080154418945312e+01 5.445017293095588684e-02 6.020371317863464355e-01 1.969461888074874878e-01 4.429696127772331238e-02
2.475000000000000000e+03 2.162944221496582031e+01 -3.145472145080566406e+01 -1.855537295341491699e-02 1.708080172538757324e+00 5.068574547767639160e-01 5.296586453914642334e-02
2.476000000000000000e+03 4.262051773071289062e+01 -3.166604423522949219e+01 1.951290220022201538e-01 3.174002408981323242e+00 1.010739445686340332e+00 -3.179875016212463379e-01
2.477000000000000000e+03 5.573008728027343750e+01 -2.988720321655273438e+01 1.191824078559875488e-01 4.267336845397949219e+00 1.315955758094787598e+00 4.081065058708190918e-01
2.478000000000000000e+03 5.868309402465820312e+01 -3.059292793273925781e+01 -3.962449263781309128e-03 4.773074626922607422e+00 1.430733680725097656e+00 2.354631274938583374e-01
2.479000000000000000e+03 6.917993927001953125e+01 -3.166756439208984375e+01 1.706003993749618530e-01 5.669425487518310547e+00 1.752007842063903809e+00 7.630773633718490601e-02
2.480000000000000000e+03 7.486521148681640625e+01 -3.244233322143554688e+01 6.614702194929122925e-02 6.378583431243896484e+00 1.933419108390808105e+00 1.234072148799896240e-01
2.481000000000000000e+03 7.583994293212890625e+01 -3.083891677856445312e+01 5.222940072417259216e-02 6.539554595947265625e+00 1.977535128593444824e+00 1.418256163597106934e-01
2.482000000000000000e+03 7.792233276367187500e+01 -3.112365150451660156e+01 1.198271755129098892e-02 6.818691253662109375e+00 2.049202203750610352e+00 8.519298583269119263e-02
2.483000000000000000e+03 5.852311849594116211e-01 -2.926721382141113281e+01 -1.977075735339894891e-04 -8.172786831855773926e-01 -2.452429085969924927e-01 -6.711923633702099323e-04
2.484000000000000000e+03 2.506419897079467773e+00 -3.293944549560546875e+01 7.025871891528367996e-03 -5.773091316223144531e-01 -1.710849702358245850e-01 4.239843226969242096e-03
2.485000000000000000e+03 1.301208114624023438e+01 -3.213650512695312500e+01 1.883272826671600342e-02 6.177254319190979004e-01 1.909674555063247681e-01 3.723104298114776611e-02
2.486000000000000000e+03 1.888687515258789062e+01 -3.238751983642578125e+01 -1.257992628961801529e-02 1.369442224502563477e+00 4.070586860179901123e-01 5.326483026146888733e-02
2.487000000000000000e+03 2.854516792297363281e+01 -3.419498825073242188e+01 -5.618960410356521606e-02 2.386847972869873047e+00 6.991974711418151855e-01 -3.620100021362304688e-02
2.488000000000000000e+03 2.576489448547363281e+01 -3.209817504882812500e+01 -4.248296096920967102e-02 2.158839464187622070e+00 6.349069476127624512e-01 9.246622212231159210e-03
2.489000000000000000e+03 3.201249694824218750e+01 -3.192186737060546875e+01 -1.633953675627708435e-02 2.718309402465820312e+00 8.105909228324890137e-01 -1.046683192253112793e-01
2.490000000000000000e+03 4.749690628051757812e+01 -3.307347488403320312e+01 3.445407450199127197e-01 3.318102836608886719e+00 1.098793148994445801e+00 -1.219541206955909729e-01
2.491000000000000000e+03 5.167298126220703125e+01 -3.346410751342773438e+01 3.289418816566467285e-01 3.626872301101684570e+00 1.186744213104248047e+00 7.842657715082168579e-02
2.492000000000000000e+03 5.300028991699218750e+01 -3.235754394531250000e+01 3.021307289600372314e-01 3.812181949615478516e+00 1.234293818473815918e+00 1.692841947078704834e-01
2.493000000000000000e+03 6.167347717285156250e+01 -3.168993949890136719e+01 4.259067028760910034e-02 5.061061859130859375e+00 1.531095862388610840e+00 4.100355133414268494e-02
2.494000000000000000e+03 6.987788391113281250e+01 -3.397213363647460938e+01 1.230087503790855408e-01 5.792994022369384766e+00 1.774800896644592285e+00 8.082131296396255493e-02
2.495000000000000000e+03 7.794115447998046875e+01 -3.315761947631835938e+01 1.283903885632753372e-02 6.745030403137207031e+00 2.027360916137695312e+00 6.120375171303749084e-02
2.496000000000000000e+03 7.799168395996093750e+01 -3.246963500976562500e+01 9.895660914480686188e-03 6.769524574279785156e+00 2.033826112747192383e+00 6.577645242214202881e-02
2.497000000000000000e+03 5.048390626907348633e-01 -3.172028732299804688e+01 -3.652978921309113503e-03 -8.208594322204589844e-01 -2.473537325859069824e-01 -5.186374182812869549e-04
2.498000000000000000e+03 8.284617424011230469e+00 -3.437507247924804688e+01 -9.007587505038827658e-05 1.160900294780731201e-01 3.479998558759689331e-02 1.732975803315639496e-02
2.499000000000000000e+03 9.910225868225097656e+00 -3.383104705810546875e+01 4.573403857648372650e-03 2.940744459629058838e-01 8.959435671567916870e-02 2.809579111635684967e-02
2.500000000000000000e+03 4.524865150451660156e-01 -3.331642532348632812e+01 -3.623743308708071709e-03 -8.232995271682739258e-01 -2.480769753456115723e-01 9.942164178937673569e-04
2.501000000000000000e+03 7.491227722167968750e+01 -3.490845108032226562e+01 4.416647925972938538e-02 6.370270252227783203e+00 1.924331068992614746e+00 8.073454350233078003e-02
2.502000000000000000e+03 7.325478363037109375e+01 -3.657258987426757812e+01 5.928389728069305420e-02 6.169948577880859375e+00 1.868769764900207520e+00 5.200909823179244995e-02
2.503000000000000000e+03 4.433061480522155762e-01 -3.487544250488281250e+01 -5.057430244050920010e-04 -8.170440793037414551e-01 -2.452649474143981934e-01 4.825736861675977707e-03
2.504000000000000000e+03 6.435316562652587891e+00 -3.813488769531250000e+01 -9.993189014494419098e-04 -8.564953505992889404e-02 -2.599465660750865936e-02 -5.334862973541021347e-03
2.505000000000000000e+03 1.911575698852539062e+01 -3.901706314086914062e+01 -5.478694289922714233e-02 1.385263681411743164e+00 3.991430103778839111e-01 1.494254823774099350e-02
2.506000000000000000e+03 3.216473770141601562e+01 -3.570080947875976562e+01 -4.702128842473030090e-02 2.657009601593017578e+00 7.829964756965637207e-01 -7.887800037860870361e-02
2.507000000000000000e+03 6.236247634887695312e+01 -3.653743743896484375e+01 1.104111671447753906e-01 5.014973163604736328e+00 1.537615299224853516e+00 4.542830958962440491e-02
2.508000000000000000e+03 7.138255310058593750e+01 -3.873206710815429688e+01 6.043568998575210571e-02 5.970117092132568359e+00 1.809165835380554199e+00 4.044076800346374512e-02
2.509000000000000000e+03 7.771192169189453125e+01 -3.673561477661132812e+01 7.587805390357971191e-03 6.686553955078125000e+00 2.008242607116699219e+00 3.263290971517562866e-02
2.510000000000000000e+03 5.188679695129394531e-01 -3.648050308227539062e+01 -8.052909746766090393e-03 -8.034014701843261719e-01 -2.434363216161727905e-01 9.931728709489107132e-04
2.511000000000000000e+03 7.713924407958984375e+01 -4.064155578613281250e+01 1.523555256426334381e-02 6.551846504211425781e+00 1.970124602317810059e+00 2.070363610982894897e-02
2.512000000000000000e+03 7.772260284423828125e+01 -3.987752914428710938e+01 1.237588468939065933e-02 6.624846458435058594e+00 1.991166710853576660e+00 1.775677315890789032e-02
2.513000000000000000e+03 4.891557991504669189e-01 -3.806384658813476562e+01 -4.854479804635047913e-03 -8.018288612365722656e-01 -2.420049905776977539e-01 1.546875922940671444e-03
2.514000000000000000e+03 1.225729370117187500e+01 -4.117880249023437500e+01 -3.378659859299659729e-02 5.833442807197570801e-01 1.648673117160797119e-01 1.380597241222858429e-03
2.515000000000000000e+03 5.202526473999023438e+01 -4.066896820068359375e+01 2.755248844623565674e-01 3.880608797073364258e+00 1.246840119361877441e+00 1.657691784203052521e-02
2.516000000000000000e+03 5.097219347953796387e-01 -3.966215515136718750e+01 6.986889056861400604e-04 -8.028103709220886230e-01 -2.406335026025772095e-01 2.083222643705084920e-04
2.517000000000000000e+03 7.517214965820312500e+01 1.834492492675781250e+01 3.726026117801666260e-01 6.448687076568603516e+00 2.046386957168579102e+00 5.256066098809242249e-02
2.518000000000000000e+03 7.057953643798828125e+01 1.824669265747070312e+01 3.075428307056427002e-01 6.730450153350830078e+00 2.111397981643676758e+00 5.247923135757446289e-01
2.519000000000000000e+03 6.827625274658203125e+01 1.830206680297851562e+01 -7.797093689441680908e-02 7.188868999481201172e+00 2.133269309997558594e+00 2.072415351867675781e-01
2.520000000000000000e+03 6.641764831542968750e+01 1.780280494689941406e+01 -2.216544598340988159e-01 7.160712718963623047e+00 2.081717491149902344e+00 -5.471218228340148926e-01
2.521000000000000000e+03 6.546335601806640625e+01 1.747630310058593750e+01 -1.519267726689577103e-02 6.413870334625244141e+00 1.919603228569030762e+00 -1.138929486274719238e+00
2.522000000000000000e+03 6.169353485107421875e+01 1.643953514099121094e+01 1.329005479812622070e+00 2.345532417297363281e+00 1.102361321449279785e+00 5.501012317836284637e-03
2.523000000000000000e+03 5.998449325561523438e+01 1.711660003662109375e+01 1.203539967536926270e+00 3.041748762130737305e+00 1.273586630821228027e+00 1.147193074226379395e+00
2.524000000000000000e+03 5.794616699218750000e+01 1.741395950317382812e+01 8.429126143455505371e-01 4.294945716857910156e+00 1.541357517242431641e+00 1.995759606361389160e+00
2.525000000000000000e+03 5.556956863403320312e+01 1.710581207275390625e+01 2.486006766557693481e-01 6.366647243499755859e+00 1.984574317932128906e+00 2.450066089630126953e+00
2.526000000000000000e+03 5.458419799804687500e+01 1.808237266540527344e+01 -4.918101131916046143e-01 7.153967857360839844e+00 1.998647212982177734e+00 1.888160109519958496e+00
2.527000000000000000e+03 5.295960998535156250e+01 1.753325653076171875e+01 -1.166711807250976562e+00 8.798632621765136719e+00 2.289576292037963867e+00 1.318692088127136230e+00
2.528000000000000000e+03 4.741677856445312500e+01 1.960742759704589844e+01 -5.632240772247314453e-01 2.726287603378295898e+00 6.489190459251403809e-01 -1.714689135551452637e+00
2.529000000000000000e+03 4.412636184692382812e+01 1.841384506225585938e+01 -8.236743807792663574e-01 9.248722791671752930e-01 3.035936690866947174e-02 -4.645965397357940674e-01
2.530000000000000000e+03 4.580494308471679688e+01 1.862092399597167969e+01 -4.039490818977355957e-01 1.199913501739501953e+00 2.387893050909042358e-01 -1.123226046562194824e+00
2.531000000000000000e+03 4.100809860229492188e+01 1.781603813171386719e+01 -1.267534017562866211e+00 7.101550698280334473e-01 -1.672136634588241577e-01 -2.084605097770690918e-01
2.532000000000000000e+03 4.216975021362304688e+01 1.819879341125488281e+01 -1.086063623428344727e+00 7.901251912117004395e-01 -8.878152072429656982e-02 -2.610848844051361084e-01
2.533000000000000000e+03 3.730003356933593750e+01 1.774314880371093750e+01 -1.280992865562438965e+00 -9.363471530377864838e-03 -3.871068954467773438e-01 -2.328993678092956543e-01
2.534000000000000000e+03 3.540854644775390625e+01 1.943020820617675781e+01 -4.714587628841400146e-01 -1.804425716400146484e-01 -1.955703943967819214e-01 3.246234655380249023e-01
2.535000000000000000e+03 3.302632522583007812e+01 1.840450859069824219e+01 -3.884394466876983643e-01 -3.246441185474395752e-01 -2.139250636100769043e-01 9.400040507316589355e-01
2.536000000000000000e+03 3.173887634277343750e+01 1.775788688659667969e+01 -3.067413568496704102e-01 -5.975306779146194458e-02 -1.099483296275138855e-01 1.385104894638061523e+00
2.537000000000000000e+03 2.953230285644531250e+01 1.966113090515136719e+01 -6.257705092430114746e-01 2.211209774017333984e+00 4.756318330764770508e-01 1.850252985954284668e+00
2.538000000000000000e+03 2.627906608581542969e+01 2.032895278930664062e+01 -1.798945426940917969e+00 4.226788520812988281e+00 7.283529639244079590e-01 1.856848597526550293e-01
2.539000000000000000e+03 2.391304779052734375e+01 1.729486656188964844e+01 -1.440187454223632812e+00 2.207117080688476562e+00 2.300788909196853638e-01 -2.430890560150146484e+00
2.540000000000000000e+03 2.282912254333496094e+01 1.889048957824707031e+01 -9.490385651588439941e-01 1.126797318458557129e+00 5.332764610648155212e-02 -1.633641839027404785e+00
2.541000000000000000e+03 2.150211524963378906e+01 2.198051643371582031e+01 -6.106749176979064941e-01 9.496927261352539062e-01 1.017053350806236267e-01 -8.649780154228210449e-01
2.542000000000000000e+03 1.956386756896972656e+01 2.195440673828125000e+01 -4.296970367431640625e-01 3.993794620037078857e-01 -9.095271117985248566e-03 -5.933286547660827637e-01
2.543000000000000000e+03 1.783309173583984375e+01 2.391854667663574219e+01 -2.342623323202133179e-01 4.702650904655456543e-01 7.080082595348358154e-02 -2.880080938339233398e-01
2.544000000000000000e+03 2.028556442260742188e+01 1.848945236206054688e+01 -1.126167058944702148e+00 -2.436278760433197021e-01 -4.109384715557098389e-01 -7.532625198364257812e-01
2.545000000000000000e+03 1.897035217285156250e+01 1.900557899475097656e+01 -9.909626245498657227e-01 -1.893258243799209595e-01 -3.540865480899810791e-01 -5.129823088645935059e-01
2.546000000000000000e+03 1.757227897644042969e+01 1.784993553161621094e+01 -1.309597134590148926e+00 -1.874362379312515259e-01 -4.491100311279296875e-01 -4.040880203247070312e-01
2.547000000000000000e+03 1.613263130187988281e+01 1.866195106506347656e+01 -9.927588701248168945e-01 -6.806936860084533691e-02 -3.182484805583953857e-01 -2.345593720674514771e-01
2.548000000000000000e+03 1.431601428985595703e+01 1.938493537902832031e+01 -7.675381302833557129e-01 1.861722171306610107e-01 -1.744097769260406494e-01 -7.771439850330352783e-02
2.549000000000000000e+03 1.313210010528564453e+01 1.942863082885742188e+01 -7.158835530281066895e-01 3.233328461647033691e-01 -1.177652180194854736e-01 -2.107246220111846924e-02
2.550000000000000000e+03 1.416276073455810547e+01 1.825207138061523438e+01 -9.437366127967834473e-01 1.461318284273147583e-01 -2.392814457416534424e-01 -1.233651563525199890e-01
2.551000000000000000e+03 1.542392921447753906e+01 1.810136413574218750e+01 -1.066735625267028809e+00 -2.455352433025836945e-02 -3.273867368698120117e-01 -2.198347151279449463e-01
2.552000000000000000e+03 9.306160926818847656e+00 1.982580566406250000e+01 -5.093952417373657227e-01 8.145936131477355957e-01 9.155950695276260376e-02 6.986881606280803680e-03
2.553000000000000000e+03 1.179213714599609375e+01 1.870147323608398438e+01 -7.569692134857177734e-01 4.999571144580841064e-01 -7.710362225770950317e-02 -2.779668010771274567e-02
2.554000000000000000e+03 7.429081439971923828e+00 1.777970504760742188e+01 -5.683242082595825195e-01 1.074977278709411621e+00 1.519959270954132080e-01 -1.836676150560379028e-01
2.555000000000000000e+03 5.578830718994140625e+00 1.751920509338378906e+01 -4.100259244441986084e-01 1.215784788131713867e+00 2.417276650667190552e-01 -2.536700665950775146e-01
2.556000000000000000e+03 4.513854980468750000e+00 1.754900360107421875e+01 -3.018753826618194580e-01 1.285166144371032715e+00 2.949872016906738281e-01 -2.506300210952758789e-01
2.557000000000000000e+03 7.562001800537109375e+01 2.012830734252929688e+01 1.602790355682373047e-01 6.622066020965576172e+00 2.034703493118286133e+00 1.318079829216003418e-01
2.558000000000000000e+03 7.135932159423828125e+01 2.128242111206054688e+01 6.343923509120941162e-02 6.663259506225585938e+00 2.018009662628173828e+00 2.895728051662445068e-01
2.559000000000000000e+03 7.397647094726562500e+01 2.022512054443359375e+01 2.187334895133972168e-01 6.585384845733642578e+00 2.041235446929931641e+00 2.464762330055236816e-01
2.560000000000000000e+03 6.993649291992187500e+01 1.941586875915527344e+01 9.743309020996093750e-02 6.772810459136962891e+00 2.061073064804077148e+00 3.669522404670715332e-01
2.561000000000000000e+03 6.904094696044921875e+01 1.940925598144531250e+01 -2.833540365099906921e-02 6.904366970062255859e+00 2.062809467315673828e+00 2.582510113716125488e-01
2.562000000000000000e+03 6.712664794921875000e+01 1.911802673339843750e+01 -1.281825602054595947e-01 6.830369472503662109e+00 2.010656118392944336e+00 -1.824442893266677856e-01
2.563000000000000000e+03 6.379106903076171875e+01 1.830439567565917969e+01 5.904150009155273438e-01 4.917517185211181641e+00 1.652379631996154785e+00 -8.963828086853027344e-01
2.564000000000000000e+03 6.198653793334960938e+01 1.860182189941406250e+01 1.052268266677856445e+00 3.828812599182128906e+00 1.464324235916137695e+00 -6.652852147817611694e-02
2.565000000000000000e+03 5.832098770141601562e+01 1.992358398437500000e+01 4.315311014652252197e-01 4.801734447479248047e+00 1.569979667663574219e+00 1.312868952751159668e+00
2.566000000000000000e+03 5.708269882202148438e+01 1.985340118408203125e+01 1.249213740229606628e-01 5.262218952178955078e+00 1.616142153739929199e+00 1.476667284965515137e+00
2.567000000000000000e+03 5.446841049194335938e+01 1.995962333679199219e+01 -8.333621621131896973e-01 6.528573036193847656e+00 1.708563327789306641e+00 1.050795555114746094e+00
2.568000000000000000e+03 5.349319076538085938e+01 1.878489875793457031e+01 -1.110271573066711426e+00 7.502291679382324219e+00 1.917605996131896973e+00 1.104113698005676270e+00
2.569000000000000000e+03 5.155095291137695312e+01 1.865892601013183594e+01 -1.828237652778625488e+00 7.828240394592285156e+00 1.800000786781311035e+00 -6.163949370384216309e-01
2.570000000000000000e+03 4.737387466430664062e+01 2.066546440124511719e+01 -4.059680104255676270e-01 2.840632915496826172e+00 7.303994297981262207e-01 -1.484938263893127441e+00
2.571000000000000000e+03 4.392784118652343750e+01 2.053611183166503906e+01 -3.963839113712310791e-01 1.334830641746520996e+00 2.815340161323547363e-01 -6.983492970466613770e-01
2.572000000000000000e+03 4.085950469970703125e+01 2.153623962402343750e+01 -3.272863626480102539e-01 8.813384175300598145e-01 1.662156134843826294e-01 -3.246680200099945068e-01
2.573000000000000000e+03 3.766478347778320312e+01 1.993610191345214844e+01 -6.057255268096923828e-01 2.418391108512878418e-01 -1.091659367084503174e-01 -5.558203533291816711e-02
2.574000000000000000e+03 3.456187820434570312e+01 2.044122505187988281e+01 -2.387528568506240845e-01 5.906097590923309326e-02 -5.390756204724311829e-02 6.360645294189453125e-01
2.575000000000000000e+03 3.316246032714843750e+01 1.991624832153320312e+01 -2.300590723752975464e-01 1.436320692300796509e-01 -2.592810057103633881e-02 9.494817256927490234e-01
2.576000000000000000e+03 3.194345855712890625e+01 1.991438293457031250e+01 -2.435219883918762207e-01 6.517767310142517090e-01 1.224764212965965271e-01 1.380294561386108398e+00
2.577000000000000000e+03 3.061783409118652344e+01 2.032319831848144531e+01 -4.591367542743682861e-01 1.495558381080627441e+00 3.109264969825744629e-01 1.646623015403747559e+00
2.578000000000000000e+03 2.563727569580078125e+01 2.080797958374023438e+01 -1.634905815124511719e+00 3.626732349395751953e+00 5.975480079650878906e-01 -1.599031537771224976e-01
2.579000000000000000e+03 2.612676811218261719e+01 2.176376914978027344e+01 -1.517268180847167969e+00 3.276968002319335938e+00 5.279098749160766602e-01 4.214052855968475342e-02
2.580000000000000000e+03 2.401183509826660156e+01 1.881099700927734375e+01 -1.423486471176147461e+00 2.943836688995361328e+00 4.561050236225128174e-01 -2.070214271545410156e+00
2.581000000000000000e+03 2.314458084106445312e+01 2.109116935729980469e+01 -9.405297040939331055e-01 1.735455393791198730e+00 2.384777218103408813e-01 -1.206570506095886230e+00
2.582000000000000000e+03 1.945126152038574219e+01 2.353265190124511719e+01 -3.264380991458892822e-01 5.703160166740417480e-01 7.316339015960693359e-02 -4.797091782093048096e-01
2.583000000000000000e+03 2.138085937500000000e+01 2.005532646179199219e+01 -7.859908938407897949e-01 5.439503788948059082e-01 -7.261216640472412109e-02 -1.065085768699645996e+00
2.584000000000000000e+03 1.785074043273925781e+01 2.083228492736816406e+01 -5.534834265708923340e-01 7.909277826547622681e-02 -1.423171907663345337e-01 -3.591563999652862549e-01
2.585000000000000000e+03 1.499891853332519531e+01 1.993319511413574219e+01 -6.906753778457641602e-01 1.237672865390777588e-01 -1.700724214315414429e-01 -1.004576012492179871e-01
2.586000000000000000e+03 1.376482295989990234e+01 2.129063034057617188e+01 -4.663638770580291748e-01 3.169291019439697266e-01 -4.483043029904365540e-02 -9.996542707085609436e-03
2.587000000000000000e+03 1.305855560302734375e+01 2.033301734924316406e+01 -5.885155797004699707e-01 3.541132807731628418e-01 -7.032069563865661621e-02 -2.632262418046593666e-03
2.588000000000000000e+03 9.847284317016601562e+00 2.081945610046386719e+01 -4.258448481559753418e-01 7.369777560234069824e-01 9.333988279104232788e-02 6.307870894670486450e-02
2.589000000000000000e+03 8.864191055297851562e+00 1.935214805603027344e+01 -5.319926142692565918e-01 8.676401376724243164e-01 1.006942540407180786e-01 -2.318311110138893127e-02
2.590000000000000000e+03 6.132369518280029297e+00 1.941321945190429688e+01 -3.435528874397277832e-01 1.139224648475646973e+00 2.387015223503112793e-01 -7.449010014533996582e-02
2.591000000000000000e+03 4.140120983123779297e+00 1.942076873779296875e+01 -1.828592419624328613e-01 1.331489205360412598e+00 3.445889949798583984e-01 -8.343347907066345215e-02
2.592000000000000000e+03 1.855069875717163086e+00 2.007489776611328125e+01 -3.773016855120658875e-02 1.645023107528686523e+00 4.821878969669342041e-01 -1.960718631744384766e-02
2.593000000000000000e+03 7.632733917236328125e+01 2.221018600463867188e+01 4.322840645909309387e-02 6.728399276733398438e+00 2.031488418579101562e+00 1.630228757858276367e-01
2.594000000000000000e+03 7.335796356201171875e+01 2.190272521972656250e+01 7.322477549314498901e-02 6.657047748565673828e+00 2.019081592559814453e+00 2.554651200771331787e-01
2.595000000000000000e+03 6.682055664062500000e+01 2.159675979614257812e+01 -6.229509017430245876e-04 6.200228691101074219e+00 1.859881639480590820e+00 -1.215566620230674744e-01
2.596000000000000000e+03 6.193967056274414062e+01 2.204742813110351562e+01 4.278788864612579346e-01 4.976889610290527344e+00 1.621430516242980957e+00 2.082014679908752441e-01
2.597000000000000000e+03 6.090677642822265625e+01 2.204149055480957031e+01 3.974856734275817871e-01 4.870206356048583984e+00 1.580307602882385254e+00 4.125597476959228516e-01
2.598000000000000000e+03 5.894194030761718750e+01 2.181907272338867188e+01 2.287730723619461060e-01 4.922219753265380859e+00 1.545297861099243164e+00 7.784262299537658691e-01
2.599000000000000000e+03 5.518398666381835938e+01 2.320812988281250000e+01 -6.008328199386596680e-01 5.523991107940673828e+00 1.476947426795959473e+00 4.301732182502746582e-01
2.600000000000000000e+03 4.994957351684570312e+01 2.100264358520507812e+01 -1.041501879692077637e+00 4.935153484344482422e+00 1.168095469474792480e+00 -1.263954758644104004e+00
2.601000000000000000e+03 4.006082534790039062e+01 2.350278282165527344e+01 -7.019729912281036377e-02 9.972232580184936523e-01 2.781077921390533447e-01 -2.334900945425033569e-01
2.602000000000000000e+03 3.955974578857421875e+01 2.012445068359375000e+01 -6.353789567947387695e-01 5.810382962226867676e-01 -1.630220375955104828e-02 -2.064083069562911987e-01
2.603000000000000000e+03 3.200317764282226562e+01 2.224576187133789062e+01 -3.425824940204620361e-01 1.132060408592224121e+00 2.368433773517608643e-01 1.112223267555236816e+00
2.604000000000000000e+03 2.836390495300292969e+01 2.325720596313476562e+01 -9.642324447631835938e-01 2.342472791671752930e+00 4.134721159934997559e-01 7.223655581474304199e-01
2.605000000000000000e+03 2.982261085510253906e+01 2.262738990783691406e+01 -7.343365550041198730e-01 1.991149902343750000e+00 3.770440220832824707e-01 1.098276138305664062e+00
2.606000000000000000e+03 2.402560806274414062e+01 2.038016510009765625e+01 -1.353697180747985840e+00 2.723785638809204102e+00 4.110265672206878662e-01 -1.291858553886413574e+00
2.607000000000000000e+03 2.355333518981933594e+01 2.237355232238769531e+01 -1.005251765251159668e+00 1.965930938720703125e+00 2.882037460803985596e-01 -8.713507056236267090e-01
2.608000000000000000e+03 2.221792221069335938e+01 2.296667289733886719e+01 -6.443576812744140625e-01 1.239703893661499023e+00 1.786038726568222046e-01 -8.171463012695312500e-01
2.609000000000000000e+03 2.018589210510253906e+01 2.087796592712402344e+01 -6.187375187873840332e-01 3.568573594093322754e-01 -7.856404781341552734e-02 -7.753996849060058594e-01
2.610000000000000000e+03 1.644237709045410156e+01 2.234220504760742188e+01 -3.392604589462280273e-01 2.537881135940551758e-01 -2.564170211553573608e-02 -1.867428869009017944e-01
2.611000000000000000e+03 1.297923946380615234e+01 2.333854866027832031e+01 -2.412819415330886841e-01 4.969283044338226318e-01 7.669391483068466187e-02 5.479914695024490356e-02
2.612000000000000000e+03 1.330852413177490234e+01 2.192030143737792969e+01 -3.895553648471832275e-01 4.019306302070617676e-01 3.712573088705539703e-03 2.606139518320560455e-02
2.613000000000000000e+03 1.049766063690185547e+01 2.237612533569335938e+01 -2.927234172821044922e-01 6.707226634025573730e-01 1.133997738361358643e-01 9.659923613071441650e-02
2.614000000000000000e+03 1.234393024444580078e+01 2.234504699707031250e+01 -3.274317681789398193e-01 5.077257752418518066e-01 5.408820137381553650e-02 6.905574351549148560e-02
2.615000000000000000e+03 7.568577289581298828e+00 2.031766700744628906e+01 -3.574737906455993652e-01 9.886034131050109863e-01 1.893388777971267700e-01 6.260985042899847031e-03
2.616000000000000000e+03 6.230952739715576172e+00 2.113546752929687500e+01 -2.252006530761718750e-01 1.113674640655517578e+00 2.665421962738037109e-01 3.815167397260665894e-02
2.617000000000000000e+03 4.940593242645263672e+00 2.138790702819824219e+01 -1.561945974826812744e-01 1.246756076812744141e+00 3.271684646606445312e-01 3.951703384518623352e-02
2.618000000000000000e+03 1.200427532196044922e+00 2.109499168395996094e+01 -1.483142096549272537e-02 1.760349988937377930e+00 5.236555933952331543e-01 1.521803997457027435e-02
2.619000000000000000e+03 7.629718017578125000e+01 2.387677192687988281e+01 5.281828809529542923e-03 6.780985355377197266e+00 2.035880088806152344e+00 1.772470623254776001e-01
2.620000000000000000e+03 7.245185089111328125e+01 2.532479667663574219e+01 -5.418040230870246887e-02 6.612123012542724609e+00 1.967382788658142090e+00 2.024013847112655640e-01
2.621000000000000000e+03 6.879566192626953125e+01 2.268545532226562500e+01 -5.468696728348731995e-02 6.442914962768554688e+00 1.916468381881713867e+00 1.060780137777328491e-01
2.622000000000000000e+03 6.702242279052734375e+01 2.313546180725097656e+01 -2.001396194100379944e-02 6.162419319152832031e+00 1.842721700668334961e+00 -8.329801261425018311e-03
2.623000000000000000e+03 6.562142181396484375e+01 2.312211799621582031e+01 6.816185265779495239e-02 5.844792366027832031e+00 1.773886322975158691e+00 -2.929951250553131104e-02
2.624000000000000000e+03 5.967444992065429688e+01 2.404695320129394531e+01 4.224605113267898560e-02 5.138751506805419922e+00 1.554299354553222656e+00 4.357449412345886230e-01
2.625000000000000000e+03 5.771590423583984375e+01 2.376845932006835938e+01 -1.525642722845077515e-01 5.219451904296875000e+00 1.520066380500793457e+00 5.357730984687805176e-01
2.626000000000000000e+03 5.638726806640625000e+01 2.372878456115722656e+01 -4.025150835514068604e-01 5.337480068206787109e+00 1.480489492416381836e+00 4.919905960559844971e-01
2.627000000000000000e+03 5.420048522949218750e+01 2.268228721618652344e+01 -8.220433592796325684e-01 5.679172515869140625e+00 1.457138657569885254e+00 3.114571571350097656e-01
2.628000000000000000e+03 5.226768112182617188e+01 2.300356864929199219e+01 -9.885701537132263184e-01 5.411365032196044922e+00 1.326838493347167969e+00 -3.296656608581542969e-01
2.629000000000000000e+03 5.111093902587890625e+01 2.318825721740722656e+01 -8.822687268257141113e-01 4.937103271484375000e+00 1.216450333595275879e+00 -6.794241070747375488e-01
2.630000000000000000e+03 4.986320495605468750e+01 2.330052566528320312e+01 -7.502689957618713379e-01 4.383794784545898438e+00 1.090057730674743652e+00 -8.955821990966796875e-01
2.631000000000000000e+03 4.681726455688476562e+01 2.507777404785156250e+01 -2.908914983272552490e-01 2.950743198394775391e+00 7.979555130004882812e-01 -8.775545358657836914e-01
2.632000000000000000e+03 3.889151000976562500e+01 2.376849365234375000e+01 -3.486873582005500793e-02 8.717675805091857910e-01 2.510696351528167725e-01 -7.414497435092926025e-02
2.633000000000000000e+03 3.781773757934570312e+01 2.420853042602539062e+01 -2.242415444925427437e-03 8.689026832580566406e-01 2.599980831146240234e-01 7.555386424064636230e-02
2.634000000000000000e+03 2.756105422973632812e+01 2.597695159912109375e+01 -6.860070824623107910e-01 1.901484370231628418e+00 3.646431863307952881e-01 2.889389097690582275e-01
2.635000000000000000e+03 2.272367668151855469e+01 2.412469673156738281e+01 -6.867522001266479492e-01 1.516937613487243652e+00 2.490556091070175171e-01 -6.306480169296264648e-01
2.636000000000000000e+03 1.509723854064941406e+01 2.413925552368164062e+01 -1.883082240819931030e-01 4.222746491432189941e-01 7.018993049860000610e-02 -7.847461849451065063e-02
2.637000000000000000e+03 1.287049007415771484e+01 2.433484268188476562e+01 -1.621634811162948608e-01 5.273516178131103516e-01 1.095564365386962891e-01 4.812521487474441528e-02
2.638000000000000000e+03 8.026238441467285156e+00 2.231611442565917969e+01 -2.359600812196731567e-01 9.217529296875000000e-01 2.057378590106964111e-01 1.031542569398880005e-01
2.639000000000000000e+03 6.282944202423095703e+00 2.267685890197753906e+01 -1.541197896003723145e-01 1.101790070533752441e+00 2.843010723590850830e-01 1.048091128468513489e-01
2.640000000000000000e+03 4.431526184082031250e+00 2.292452239990234375e+01 -8.614429831504821777e-02 1.283156275749206543e+00 3.591036200523376465e-01 1.041937619447708130e-01
2.641000000000000000e+03 1.875013113021850586e+00 2.333578300476074219e+01 -1.429072022438049316e-02 1.614622950553894043e+00 4.800996780395507812e-01 7.194570451974868774e-02
2.642000000000000000e+03 1.139927029609680176e+00 2.344704246520996094e+01 -8.978698402643203735e-03 1.720726966857910156e+00 5.135244727134704590e-01 5.037990212440490723e-02
2.643000000000000000e+03 7.494820404052734375e+01 2.506628417968750000e+01 -1.697539165616035461e-02 6.759949684143066406e+00 2.022892236709594727e+00 2.039320915937423706e-01
2.644000000000000000e+03 6.770015716552734375e+01 2.531623268127441406e+01 -6.020959466695785522e-02 6.193749904632568359e+00 1.840062022209167480e+00 9.131403267383575439e-02
2.645000000000000000e+03 6.347865676879882812e+01 2.464635467529296875e+01 9.976639598608016968e-02 5.487872123718261719e+00 1.676291465759277344e+00 1.048170328140258789e-01
2.646000000000000000e+03 6.157817077636718750e+01 2.621010971069335938e+01 -5.649571307003498077e-03 5.371480464935302734e+00 1.609749317169189453e+00 1.932545006275177002e-01
2.647000000000000000e+03 5.127171325683593750e+01 2.554857254028320312e+01 -6.364008188247680664e-01 4.525687694549560547e+00 1.166786074638366699e+00 -5.311485528945922852e-01
2.648000000000000000e+03 4.559313201904296875e+01 2.684509086608886719e+01 -1.152093335986137390e-01 2.638864278793334961e+00 7.570964694023132324e-01 -6.748989820480346680e-01
2.649000000000000000e+03 3.801484680175781250e+01 2.523887443542480469e+01 6.424865871667861938e-02 1.005819320678710938e+00 3.210204243659973145e-01 3.921101987361907959e-02
2.650000000000000000e+03 2.469214248657226562e+01 2.562442016601562500e+01 -6.943112015724182129e-01 1.726837515830993652e+00 3.097579181194305420e-01 -1.903982013463973999e-01
2.651000000000000000e+03 2.214323616027832031e+01 2.863923072814941406e+01 -2.548283934593200684e-01 1.169082045555114746e+00 2.742761075496673584e-01 -1.935058236122131348e-01
2.652000000000000000e+03 2.227283096313476562e+01 3.014023590087890625e+01 -1.615408211946487427e-01 1.157854795455932617e+00 2.988941669464111328e-01 -1.268282085657119751e-01
2.653000000000000000e+03 1.854695510864257812e+01 3.247805404663085938e+01 5.648124217987060547e-02 8.918385505676269531e-01 2.844959497451782227e-01 -5.746397748589515686e-02
2.654000000000000000e+03 1.208694648742675781e+01 4.100411605834960938e+01 1.473578065633773804e-01 9.309779405593872070e-01 3.235007226467132568e-01 1.025737728923559189e-02
2.655000000000000000e+03 2.319357490539550781e+01 2.523503303527832031e+01 -6.299294233322143555e-01 1.520748853683471680e+00 2.672458291053771973e-01 -4.205561578273773193e-01
2.656000000000000000e+03 2.099753379821777344e+01 2.856521415710449219e+01 -1.979190856218338013e-01 1.040457963943481445e+00 2.527616620063781738e-01 -2.373235225677490234e-01
2.657000000000000000e+03 2.055704307556152344e+01 3.015157699584960938e+01 -7.755640894174575806e-02 9.835153222084045410e-01 2.717876732349395752e-01 -1.424247026443481445e-01
2.658000000000000000e+03 2.153968620300292969e+01 2.477672004699707031e+01 -4.499521255493164062e-01 1.098808288574218750e+00 1.946568638086318970e-01 -5.502003431320190430e-01
2.659000000000000000e+03 1.988184928894042969e+01 2.785664176940917969e+01 -1.555500477552413940e-01 9.032852649688720703e-01 2.243205606937408447e-01 -2.395296841859817505e-01
2.660000000000000000e+03 1.794677352905273438e+01 2.843703269958496094e+01 -4.577025771141052246e-02 7.802443504333496094e-01 2.203422337770462036e-01 -1.445515602827072144e-01
2.661000000000000000e+03 1.771344757080078125e+01 3.083856391906738281e+01 2.658754028379917145e-02 8.473476171493530273e-01 2.621805667877197266e-01 -7.211188971996307373e-02
2.662000000000000000e+03 1.866238021850585938e+01 2.723634910583496094e+01 -1.329582482576370239e-01 7.807022929191589355e-01 1.943232268095016479e-01 -2.431386560201644897e-01
2.663000000000000000e+03 1.738107109069824219e+01 2.734026718139648438e+01 -6.350938230752944946e-02 6.597058176994323730e-01 1.788589358329772949e-01 -1.688681840896606445e-01
2.664000000000000000e+03 1.667208480834960938e+01 2.939663124084472656e+01 1.219328679144382477e-02 7.360650300979614258e-01 2.244774997234344482e-01 -8.720333129167556763e-02
2.665000000000000000e+03 1.715639686584472656e+01 2.601046562194824219e+01 -1.180179566144943237e-01 6.001300215721130371e-01 1.446336060762405396e-01 -1.825184077024459839e-01
2.666000000000000000e+03 1.601577949523925781e+01 2.792914390563964844e+01 -1.803665980696678162e-02 6.684899330139160156e-01 1.951359808444976807e-01 -7.914552837610244751e-02
2.667000000000000000e+03 7.849606037139892578e+00 2.497256660461425781e+01 -8.593097329139709473e-02 9.383275508880615234e-01 2.557189762592315674e-01 1.640330851078033447e-01
2.668000000000000000e+03 5.919381618499755859e+00 2.486263275146484375e+01 -5.987826362252235413e-02 1.119057178497314453e+00 3.177536725997924805e-01 1.561743170022964478e-01
2.669000000000000000e+03 4.492297649383544922e+00 2.409890747070312500e+01 -5.547169968485832214e-02 1.271302700042724609e+00 3.647492825984954834e-01 1.319372057914733887e-01
2.670000000000000000e+03 2.823844432830810547e+00 2.438072776794433594e+01 -2.461679279804229736e-02 1.463364601135253906e+00 4.316243231296539307e-01 1.128861233592033386e-01
2.671000000000000000e+03 1.347442507743835449e+00 2.505679130554199219e+01 -4.871081560850143433e-03 1.621941566467285156e+00 4.851211309432983398e-01 7.135374844074249268e-02
2.672000000000000000e+03 7.180812835693359375e+01 2.878361701965332031e+01 -7.799971848726272583e-02 6.543962955474853516e+00 1.939789056777954102e+00 1.606815606355667114e-01
2.673000000000000000e+03 7.257845306396484375e+01 2.795859146118164062e+01 -7.333632558584213257e-02 6.604846000671386719e+00 1.959452986717224121e+00 1.763449609279632568e-01
2.674000000000000000e+03 7.076839447021484375e+01 2.631521224975585938e+01 -7.968734204769134521e-02 6.495405197143554688e+00 1.924715399742126465e+00 1.711811870336532593e-01
2.675000000000000000e+03 5.407629776000976562e+01 2.676205444335937500e+01 -5.456550121307373047e-01 4.918503761291503906e+00 1.311854600906372070e+00 -1.109519526362419128e-01
2.676000000000000000e+03 2.902344322204589844e+01 2.814031982421875000e+01 -3.599692583084106445e-01 1.575237989425659180e+00 3.645806014537811279e-01 3.267903625965118408e-01
2.677000000000000000e+03 2.378833007812500000e+01 2.632008171081542969e+01 -5.702508687973022461e-01 1.557206153869628906e+00 2.960865795612335205e-01 -2.478201836347579956e-01
2.678000000000000000e+03 2.334889984130859375e+01 2.817610168457031250e+01 -3.496601283550262451e-01 1.340147495269775391e+00 2.971462309360504150e-01 -1.703008264303207397e-01
2.679000000000000000e+03 2.389189338684082031e+01 2.965816497802734375e+01 -2.522322237491607666e-01 1.290590882301330566e+00 3.115075826644897461e-01 -7.361084222793579102e-02
2.680000000000000000e+03 1.736461830139160156e+01 3.661811065673828125e+01 1.464051753282546997e-01 9.141258597373962402e-01 3.181593120098114014e-01 4.657666664570569992e-03
2.681000000000000000e+03 2.169905853271484375e+01 2.758302307128906250e+01 -2.970458567142486572e-01 1.155213713645935059e+00 2.574503719806671143e-01 -2.737799584865570068e-01
2.682000000000000000e+03 1.120831108093261719e+01 2.829716491699218750e+01 2.910128794610500336e-02 7.593818306922912598e-01 2.365449368953704834e-01 1.218332052230834961e-01
2.683000000000000000e+03 6.368123531341552734e+00 2.655282402038574219e+01 -1.614352874457836151e-02 1.073194980621337891e+00 3.171154260635375977e-01 1.745376735925674438e-01
2.684000000000000000e+03 3.332612991333007812e+00 2.580110168457031250e+01 -1.071727089583873749e-02 1.370157122611999512e+00 4.078319668769836426e-01 1.346207708120346069e-01
2.685000000000000000e+03 1.293906331062316895e+00 2.678861236572265625e+01 -5.785245448350906372e-04 1.552961587905883789e+00 4.657149314880371094e-01 7.092190533876419067e-02
2.686000000000000000e+03 5.789587402343750000e+01 2.995685005187988281e+01 -2.507557868957519531e-01 5.035107135772705078e+00 1.435305356979370117e+00 3.203877061605453491e-02
2.687000000000000000e+03 5.501049804687500000e+01 2.846364593505859375e+01 -4.085964262485504150e-01 4.839721202850341797e+00 1.329337477684020996e+00 -7.227370887994766235e-02
2.688000000000000000e+03 5.131974411010742188e+01 2.797650337219238281e+01 -4.409871101379394531e-01 4.262218475341796875e+00 1.146369457244873047e+00 -4.324263632297515869e-01
2.689000000000000000e+03 4.527448272705078125e+01 3.162101173400878906e+01 4.546432942152023315e-02 2.684041738510131836e+00 8.188517689704895020e-01 -3.689670562744140625e-01
2.690000000000000000e+03 3.516442871093750000e+01 2.945854949951171875e+01 9.772188961505889893e-02 1.344173312187194824e+00 4.325685799121856689e-01 2.308299094438552856e-01
2.691000000000000000e+03 3.027834892272949219e+01 3.020503807067871094e+01 -1.327378004789352417e-01 1.427093267440795898e+00 3.883066475391387939e-01 2.572972178459167480e-01
2.692000000000000000e+03 2.535919952392578125e+01 2.873083305358886719e+01 -3.637472093105316162e-01 1.469829678535461426e+00 3.318247199058532715e-01 -1.419432461261749268e-02
2.693000000000000000e+03 1.904566574096679688e+01 2.946088409423828125e+01 -5.158263817429542542e-02 8.631711602210998535e-01 2.434765547513961792e-01 -1.564760506153106689e-01
2.694000000000000000e+03 1.338384914398193359e+01 3.159645462036132812e+01 9.586685895919799805e-02 7.848168611526489258e-01 2.642050981521606445e-01 5.214134976267814636e-02
2.695000000000000000e+03 1.445635414123535156e+01 3.341488647460937500e+01 1.173138394951820374e-01 8.338258862495422363e-01 2.853419184684753418e-01 3.030108846724033356e-02
2.696000000000000000e+03 1.087780189514160156e+01 2.979312515258789062e+01 5.713479593396186829e-02 8.165996074676513672e-01 2.621203362941741943e-01 1.231580302119255066e-01
2.697000000000000000e+03 8.231539726257324219e+00 2.776997184753417969e+01 5.544321611523628235e-03 9.280031323432922363e-01 2.800642251968383789e-01 1.766920536756515503e-01
2.698000000000000000e+03 5.692756175994873047e+00 2.937960624694824219e+01 2.218244411051273346e-02 1.112795472145080566e+00 3.404933810234069824e-01 1.725356280803680420e-01
2.699000000000000000e+03 4.637555122375488281e+00 2.891753196716308594e+01 1.541750878095626831e-02 1.198482751846313477e+00 3.641700744628906250e-01 1.601811349391937256e-01
2.700000000000000000e+03 2.927761077880859375e+00 2.832792472839355469e+01 3.552430309355258942e-03 1.349207639694213867e+00 4.058280289173126221e-01 1.313085258007049561e-01
2.701000000000000000e+03 1.246429085731506348e+00 2.839652824401855469e+01 -1.300622010603547096e-03 1.486915946006774902e+00 4.456845819950103760e-01 6.721059978008270264e-02
2.702000000000000000e+03 6.683322143554687500e+01 2.969543838500976562e+01 -1.127442941069602966e-01 6.034189701080322266e+00 1.776433587074279785e+00 1.098596975207328796e-01
2.703000000000000000e+03 5.828416061401367188e+01 3.169079208374023438e+01 -2.438542842864990234e-01 5.006897449493408203e+00 1.428912997245788574e+00 1.063473336398601532e-02
2.704000000000000000e+03 4.830583953857421875e+01 3.201514434814453125e+01 -1.030741706490516663e-01 3.374636650085449219e+00 9.814687967300415039e-01 -3.677556216716766357e-01
2.705000000000000000e+03 4.080549240112304688e+01 3.104298782348632812e+01 1.987951844930648804e-01 1.852887272834777832e+00 6.155047416687011719e-01 -1.994444727897644043e-01
2.706000000000000000e+03 9.472569465637207031e+00 3.192200469970703125e+01 8.261987566947937012e-02 9.089730978012084961e-01 2.974779009819030762e-01 1.348123103380203247e-01
2.707000000000000000e+03 1.097553253173828125e+01 3.124984359741210938e+01 8.463621884584426880e-02 8.424642086029052734e-01 2.781301140785217285e-01 1.118356958031654358e-01
2.708000000000000000e+03 3.960629701614379883e+00 2.981116294860839844e+01 1.854817010462284088e-02 1.230297923088073730e+00 3.746538162231445312e-01 1.449053883552551270e-01
2.709000000000000000e+03 2.156054973602294922e+00 2.993799018859863281e+01 7.196447346359491348e-03 1.355090498924255371e+00 4.086860716342926025e-01 9.865014255046844482e-02
2.710000000000000000e+03 1.279188394546508789e+00 2.998138427734375000e+01 1.533098547952249646e-04 1.412280797958374023e+00 4.237302243709564209e-01 6.416755914688110352e-02
2.711000000000000000e+03 7.482484436035156250e+01 3.305760574340820312e+01 -4.736761748790740967e-02 6.825677394866943359e+00 2.033493041992187500e+00 1.148375794291496277e-01
2.712000000000000000e+03 7.153571319580078125e+01 3.238682937622070312e+01 -8.689979463815689087e-02 6.490685939788818359e+00 1.921135902404785156e+00 1.189279928803443909e-01
2.713000000000000000e+03 7.016577911376953125e+01 3.100011253356933594e+01 -1.000307202339172363e-01 6.371953010559082031e+00 1.881576657295227051e+00 1.243065595626831055e-01
2.714000000000000000e+03 6.665152740478515625e+01 3.236057281494140625e+01 -1.282989829778671265e-01 6.001434803009033203e+00 1.761940836906433105e+00 9.912987053394317627e-02
2.715000000000000000e+03 6.096341323852539062e+01 3.257854461669921875e+01 -1.865903139114379883e-01 5.307797431945800781e+00 1.536362171173095703e+00 5.839924886822700500e-02
2.716000000000000000e+03 5.386357116699218750e+01 3.475878524780273438e+01 -1.808919161558151245e-01 4.313030242919921875e+00 1.239641547203063965e+00 -1.590940207242965698e-01
2.717000000000000000e+03 4.310516357421875000e+01 3.294304275512695312e+01 1.531997174024581909e-01 2.312563896179199219e+00 7.397290468215942383e-01 -2.594052851200103760e-01
2.718000000000000000e+03 2.203540325164794922e+00 3.152615356445312500e+01 1.054862048476934433e-02 1.300205945968627930e+00 3.932263851165771484e-01 9.008612483739852905e-02
2.719000000000000000e+03 1.308558821678161621e+00 3.156918716430664062e+01 1.488754875026643276e-03 1.344670295715332031e+00 4.038477241992950439e-01 5.903388932347297668e-02
2.720000000000000000e+03 6.961578369140625000e+01 3.397728729248046875e+01 -1.003267839550971985e-01 6.296153545379638672e+00 1.858748078346252441e+00 9.277124702930450439e-02
2.721000000000000000e+03 4.975419998168945312e+01 3.338718032836914062e+01 -1.137747764587402344e-01 3.626734256744384766e+00 1.053887844085693359e+00 -2.992874979972839355e-01
2.722000000000000000e+03 2.032207107543945312e+01 3.466791915893554688e+01 8.732561767101287842e-02 9.874868392944335938e-01 3.224437534809112549e-01 -2.377043291926383972e-02
2.723000000000000000e+03 1.570195388793945312e+01 3.517637252807617188e+01 1.380716413259506226e-01 8.595200181007385254e-01 2.992775142192840576e-01 1.169085409492254257e-02
2.724000000000000000e+03 1.382170295715332031e+01 3.694633483886718750e+01 1.448893547058105469e-01 8.912119865417480469e-01 3.108304142951965332e-01 3.304350376129150391e-02
2.725000000000000000e+03 4.546782970428466797e+00 3.384095764160156250e+01 3.548950329422950745e-02 1.133228421211242676e+00 3.506153821945190430e-01 1.161310523748397827e-01
2.726000000000000000e+03 2.213486671447753906e+00 3.309601211547851562e+01 1.124905701726675034e-02 1.251916885375976562e+00 3.789497911930084229e-01 7.947015017271041870e-02
2.727000000000000000e+03 1.342210531234741211e+00 3.317142868041992188e+01 2.131689339876174927e-03 1.283944129943847656e+00 3.858227431774139404e-01 5.181720852851867676e-02
2.728000000000000000e+03 3.249410247802734375e+01 4.062940979003906250e+01 2.505617439746856689e-01 1.460127234458923340e+00 5.132067203521728516e-01 1.515317056328058243e-02
2.729000000000000000e+03 8.618191719055175781e+00 3.638446807861328125e+01 9.697200357913970947e-02 9.770314097404479980e-01 3.222010135650634766e-01 9.136638045310974121e-02
2.730000000000000000e+03 2.481561183929443359e+00 3.472467041015625000e+01 1.479609590023756027e-02 1.199942111968994141e+00 3.644214570522308350e-01 7.013373076915740967e-02
2.731000000000000000e+03 4.605492949485778809e-01 3.403843307495117188e+01 -1.022971933707594872e-03 1.279348492622375488e+00 3.834976553916931152e-01 1.665905676782131195e-02
2.732000000000000000e+03 6.083812713623046875e+01 3.907881164550781250e+01 -1.710750311613082886e-01 5.237136363983154297e+00 1.519818305969238281e+00 3.708493430167436600e-03
2.733000000000000000e+03 2.831312561035156250e+01 3.740154647827148438e+01 1.589763611555099487e-01 1.262025356292724609e+00 4.263004958629608154e-01 4.345833882689476013e-02
2.734000000000000000e+03 4.874528408050537109e+00 3.814241409301757812e+01 3.915832191705703735e-02 1.091138005256652832e+00 3.390888869762420654e-01 5.665532872080802917e-02
2.735000000000000000e+03 2.198971748352050781e+00 3.666502380371093750e+01 8.132758550345897675e-03 1.176491260528564453e+00 3.553872108459472656e-01 4.787865653634071350e-02
2.736000000000000000e+03 1.416039228439331055e+00 3.700629425048828125e+01 3.776487428694963455e-03 1.182068109512329102e+00 3.557533919811248779e-01 3.283092379570007324e-02
2.737000000000000000e+03 2.766231346130371094e+01 4.072394561767578125e+01 1.983194202184677124e-01 1.214703202247619629e+00 4.239068031311035156e-01 1.968410052359104156e-02
2.738000000000000000e+03 2.932921886444091797e+00 3.893679809570312500e+01 1.600599475204944611e-02 1.126904368400573730e+00 3.428731262683868408e-01 3.831333294510841370e-02
2.739000000000000000e+03 1.725461363792419434e+00 3.870219421386718750e+01 6.367836613208055496e-03 1.148727416992187500e+00 3.465285599231719971e-01 2.854016236960887909e-02
2.740000000000000000e+03 7.138089752197265625e+01 3.851573944091796875e+01 -8.248716592788696289e-02 6.491399765014648438e+00 1.922673821449279785e+00 4.167328774929046631e-02
2.741000000000000000e+03 2.866222620010375977e+00 4.062727355957031250e+01 1.778557524085044861e-02 1.111067891120910645e+00 3.386560678482055664e-01 2.137843891978263855e-02
2.742000000000000000e+03 1.447785377502441406e+00 4.029418563842773438e+01 6.441899109631776810e-03 1.127645969390869141e+00 3.402263522148132324e-01 1.200596056878566742e-02
2.743000000000000000e+03 5.009107971191406250e+01 -4.356058120727539062e+00 -6.289879322052001953e+00 -2.240413188934326172e+00 -2.559087753295898438e+00 3.652536392211914062e+00
2.744000000000000000e+03 7.576541900634765625e+01 -3.487173914909362793e-01 -1.897177457809448242e+00 6.588039875030517578e+00 1.407258629798889160e+00 1.071585059165954590e+00
2.745000000000000000e+03 4.056921386718750000e+01 8.841506958007812500e+00 6.702182348817586899e-03 2.269194833934307098e-02 8.818238973617553711e-03 -1.248016767203807831e-02
2.746000000000000000e+03 3.987097167968750000e+01 9.020364761352539062e+00 -1.889047957956790924e-02 3.503705142065882683e-03 -4.616032354533672333e-03 -8.062627166509628296e-03
2.747000000000000000e+03 3.678524780273437500e+01 9.570673942565917969e+00 1.931757852435112000e-02 -1.894196867942810059e-02 1.126827701227739453e-04 1.248048339039087296e-02
2.748000000000000000e+03 3.557585144042968750e+01 8.332286834716796875e+00 -3.213003650307655334e-02 4.399158060550689697e-03 -8.319263346493244171e-03 3.775697201490402222e-03
2.749000000000000000e+03 3.467485427856445312e+01 8.413160324096679688e+00 8.581403642892837524e-03 4.226472973823547363e-02 1.525384001433849335e-02 2.206690981984138489e-02
2.750000000000000000e+03 3.223925781250000000e+01 6.416382312774658203e+00 -9.743536710739135742e-01 -1.392096579074859619e-01 -3.340689837932586670e-01 -5.003190636634826660e-01
2.751000000000000000e+03 3.034057998657226562e+01 4.933103561401367188e+00 -3.161406993865966797e+00 -1.108759522438049316e+00 -1.281049966812133789e+00 -1.815518260002136230e+00
2.752000000000000000e+03 2.770106697082519531e+01 3.076364040374755859e+00 -8.681194305419921875e+00 -2.475223302841186523e+00 -3.346925258636474609e+00 -4.147964477539062500e+00
2.753000000000000000e+03 2.538828659057617188e+01 2.239306688308715820e+00 -8.873318672180175781e+00 -4.286448955535888672e-01 -2.790589094161987305e+00 -2.987568140029907227e+00
2.754000000000000000e+03 2.470734786987304688e+01 6.922815799713134766e+00 5.546506404876708984e+00 1.037023925781250000e+01 4.775023460388183594e+00 7.350177764892578125e+00
2.755000000000000000e+03 2.638312530517578125e+01 8.645673751831054688e+00 1.231522679328918457e+00 4.088393688201904297e+00 1.595974922180175781e+00 2.704002618789672852e+00
2.756000000000000000e+03 2.751889419555664062e+01 9.771065711975097656e+00 -1.341265797615051270e+00 1.081727623939514160e+00 -7.786143571138381958e-02 -1.415036767721176147e-01
2.757000000000000000e+03 3.053879165649414062e+01 1.234272575378417969e+01 -3.605769395828247070e+00 -2.377775430679321289e+00 -1.795063376426696777e+00 -2.927785396575927734e+00
2.758000000000000000e+03 3.183025932312011719e+01 1.333731842041015625e+01 -3.905758619308471680e+00 -1.913122415542602539e+00 -1.745664358139038086e+00 -2.527938842773437500e+00
2.759000000000000000e+03 3.255497741699218750e+01 1.384071826934814453e+01 -4.545907974243164062e+00 -1.592729210853576660e+00 -1.841591119766235352e+00 -1.970093727111816406e+00
2.760000000000000000e+03 3.778035736083984375e+01 1.315031147003173828e+01 -1.608543872833251953e+00 4.687697067856788635e-02 -4.685000777244567871e-01 7.267571687698364258e-01
2.761000000000000000e+03 3.993580245971679688e+01 1.274893760681152344e+01 -1.377886056900024414e+00 2.357320785522460938e-01 -3.426462113857269287e-01 2.213314026594161987e-01
2.762000000000000000e+03 4.321166610717773438e+01 1.298926639556884766e+01 -1.481460809707641602e+00 2.872301936149597168e-01 -3.582691848278045654e-01 -4.115476310253143311e-01
2.763000000000000000e+03 4.311461257934570312e+01 1.213121128082275391e+01 -1.162499189376831055e+00 9.907642006874084473e-02 -3.190268576145172119e-01 -3.835957944393157959e-01
2.764000000000000000e+03 5.055464172363281250e+01 1.207339477539062500e+01 2.945101261138916016e-01 2.440231132507324219e+01 7.409046649932861328e+00 1.297991991043090820e+00
2.765000000000000000e+03 4.949842834472656250e+01 7.910887241363525391e+00 1.591737270355224609e+00 1.028132247924804688e+01 3.561917781829833984e+00 3.844656944274902344e+00
2.766000000000000000e+03 4.747456359863281250e+01 6.594675064086914062e+00 2.582990169525146484e+00 4.062751293182373047e+00 1.993722438812255859e+00 3.087525129318237305e+00
2.767000000000000000e+03 4.586166763305664062e+01 4.855278968811035156e+00 2.403159141540527344e+00 2.867506742477416992e+00 1.581199765205383301e+00 2.667251586914062500e+00
2.768000000000000000e+03 4.262100601196289062e+01 1.376955866813659668e+00 8.489860296249389648e-01 1.872941493988037109e+00 8.165782690048217773e-01 1.356706976890563965e+00
2.769000000000000000e+03 4.077379608154296875e+01 -2.496407739818096161e-02 -2.391920566558837891e+00 -3.022224009037017822e-01 -8.082428574562072754e-01 -5.976594686508178711e-01
2.770000000000000000e+03 3.793039321899414062e+01 3.786052703857421875e+00 9.964843839406967163e-02 -6.196630001068115234e-01 -1.560043692588806152e-01 2.008467614650726318e-01
2.771000000000000000e+03 3.853475952148437500e+01 4.060139656066894531e+00 4.211490228772163391e-02 -3.395486176013946533e-01 -8.923011273145675659e-02 -3.894097404554486275e-03
2.772000000000000000e+03 3.957254409790039062e+01 6.067540168762207031e+00 -1.962279528379440308e-02 5.861172452569007874e-02 1.169667858630418777e-02 4.960958287119865417e-02
2.773000000000000000e+03 4.039186477661132812e+01 7.396893978118896484e+00 -2.135638147592544556e-02 2.888337709009647369e-02 2.258099149912595749e-03 2.766406908631324768e-02
2.774000000000000000e+03 7.565739440917968750e+01 7.767871379852294922e+00 3.768873453140258789e+00 1.701070785522460938e+01 6.233874320983886719e+00 -5.309442996978759766e+00
2.775000000000000000e+03 7.595073699951171875e+01 5.851084709167480469e+00 -2.066070288419723511e-01 1.631313896179199219e+01 4.831959724426269531e+00 -6.981407999992370605e-01
2.776000000000000000e+03 7.591011810302734375e+01 4.231528282165527344e+00 6.872984170913696289e-01 1.459441757202148438e+01 4.584514617919921875e+00 8.936472237110137939e-02
2.777000000000000000e+03 7.026985168457031250e+01 7.484912395477294922e+00 2.020192742347717285e-01 4.772000312805175781e+00 1.492205858230590820e+00 1.072192907333374023e+00
2.778000000000000000e+03 7.209299468994140625e+01 9.215403556823730469e+00 -4.175887584686279297e+00 -5.726466774940490723e-01 -1.424560189247131348e+00 -1.363902091979980469e+00
2.779000000000000000e+03 6.648186492919921875e+01 -2.957542181015014648e+00 -6.330182075500488281e+00 -2.496830701828002930e+00 -2.648103952407836914e+00 3.512375593185424805e+00
2.780000000000000000e+03 6.803047943115234375e+01 -4.638948917388916016e+00 -1.540776014328002930e+00 -1.576164364814758301e-01 -5.095177292823791504e-01 8.384788632392883301e-01
2.781000000000000000e+03 6.963520812988281250e+01 -6.342348575592041016e+00 4.777681529521942139e-01 1.745014667510986328e+00 6.668348312377929688e-01 -1.059204220771789551e+00
2.782000000000000000e+03 7.067502593994140625e+01 -7.512748718261718750e+00 1.367262840270996094e+00 3.941213130950927734e+00 1.592542767524719238e+00 -2.295096874237060547e+00
2.783000000000000000e+03 7.207110595703125000e+01 -1.126971721649169922e+01 2.985570132732391357e-01 1.399594402313232422e+01 4.288350582122802734e+00 -2.270016670227050781e-01
2.784000000000000000e+03 7.206987762451171875e+01 -1.205267429351806641e+01 5.157525464892387390e-02 1.392462730407714844e+01 4.192861080169677734e+00 1.219550818204879761e-01
2.785000000000000000e+03 7.208858489990234375e+01 -1.361031818389892578e+01 5.599941015243530273e-01 1.621136093139648438e+01 5.031406879425048828e+00 1.280932664871215820e+00
2.786000000000000000e+03 6.618868255615234375e+01 -1.272703456878662109e+01 -3.155695497989654541e-01 4.827499687671661377e-01 5.015412718057632446e-02 3.462504595518112183e-02
2.787000000000000000e+03 6.465162658691406250e+01 -1.090638637542724609e+01 7.521941661834716797e-01 4.269934654235839844e+00 1.506638646125793457e+00 -1.679677844047546387e+00
2.788000000000000000e+03 6.396185302734375000e+01 -9.456271171569824219e+00 7.757315635681152344e-01 8.711914062500000000e+00 2.846293687820434570e+00 -2.110469579696655273e+00
2.789000000000000000e+03 6.292484283447265625e+01 -8.024915695190429688e+00 6.298654079437255859e-01 1.081281566619873047e+01 3.432804346084594727e+00 -3.391186892986297607e-01
2.790000000000000000e+03 6.342580413818359375e+01 -6.330405712127685547e+00 1.553068161010742188e-01 1.403888893127441406e+01 4.258258819580078125e+00 -4.522713422775268555e-01
2.791000000000000000e+03 6.335140991210937500e+01 -4.740944385528564453e+00 3.775405287742614746e-01 1.676700973510742188e+01 5.143364906311035156e+00 1.215916872024536133e+00
2.792000000000000000e+03 4.987471771240234375e+01 -2.671521663665771484e+00 -3.860669612884521484e+00 4.142937362194061279e-01 -1.033912777900695801e+00 8.325500488281250000e-01
2.793000000000000000e+03 5.225514984130859375e+01 -5.561820030212402344e+00 -2.279492139816284180e+00 2.285622596740722656e+00 1.839132746681571007e-03 -2.421103417873382568e-02
2.794000000000000000e+03 5.317639923095703125e+01 -7.926876068115234375e+00 6.776368021965026855e-01 3.419122934341430664e+00 1.229027867317199707e+00 -1.541423916816711426e+00
2.795000000000000000e+03 5.552090454101562500e+01 -1.309096908569335938e+01 6.591971516609191895e-01 1.229889202117919922e+01 3.887426853179931641e+00 -2.153093576431274414e+00
2.796000000000000000e+03 5.692428207397460938e+01 -1.568230819702148438e+01 9.244261980056762695e-01 1.313151931762695312e+01 4.216784000396728516e+00 1.847039610147476196e-01
2.797000000000000000e+03 5.212831115722656250e+01 -1.733492851257324219e+01 -2.287860155105590820e+00 -1.941974282264709473e+00 -1.268950343132019043e+00 2.164554357528686523e+00
2.798000000000000000e+03 4.948670959472656250e+01 -1.443787288665771484e+01 -1.739982843399047852e+00 -1.760436177253723145e+00 -1.050125718116760254e+00 1.713605880737304688e+00
2.799000000000000000e+03 4.565844345092773438e+01 -1.240436649322509766e+01 -1.316680908203125000e+00 3.142940282821655273e+00 5.478778481483459473e-01 9.566498994827270508e-01
2.800000000000000000e+03 3.535740280151367188e+01 -3.405178785324096680e+00 7.125061005353927612e-02 -7.644485831260681152e-01 -2.079593986272811890e-01 3.994131982326507568e-01
2.801000000000000000e+03 3.639568328857421875e+01 -4.636851787567138672e+00 -4.900317192077636719e-01 -2.285138845443725586e+00 -8.325511217117309570e-01 1.147581100463867188e+00
2.802000000000000000e+03 3.773283004760742188e+01 -6.657111167907714844e+00 -1.196801900863647461e+00 -3.398372650146484375e+00 -1.378552317619323730e+00 2.081228733062744141e+00
2.803000000000000000e+03 4.040943527221679688e+01 -1.167093753814697266e+01 -2.184036225080490112e-01 4.085107326507568359e+00 1.160011053085327148e+00 -5.778979137539863586e-02
2.804000000000000000e+03 4.080582427978515625e+01 -1.331188297271728516e+01 2.783422768115997314e-01 8.703444480895996094e+00 2.694535970687866211e+00 2.609193921089172363e-01
2.805000000000000000e+03 3.702828598022460938e+01 -1.434544086456298828e+01 8.775917291641235352e-01 1.130712151527404785e+00 6.024911403656005859e-01 -8.349622488021850586e-01
2.806000000000000000e+03 3.641781616210937500e+01 -1.380744743347167969e+01 8.829491734504699707e-01 1.210534453392028809e+00 6.280450820922851562e-01 -1.129224300384521484e+00
2.807000000000000000e+03 3.513363265991210938e+01 -1.265236854553222656e+01 1.054759860038757324e+00 1.588179588317871094e+00 7.928818464279174805e-01 -1.383070826530456543e+00
2.808000000000000000e+03 3.362888336181640625e+01 -1.071304702758789062e+01 1.526652574539184570e+00 2.273755073547363281e+00 1.140122294425964355e+00 -1.717710137367248535e+00
2.809000000000000000e+03 3.167113876342773438e+01 -9.008440017700195312e+00 1.393381595611572266e+00 1.705180883407592773e+00 9.295687079429626465e-01 -1.685312509536743164e+00
2.810000000000000000e+03 3.197341537475585938e+01 -7.946864604949951172e+00 5.642867088317871094e-01 8.430123925209045410e-01 4.221897423267364502e-01 -7.473785281181335449e-01
2.811000000000000000e+03 2.249945259094238281e+01 1.169042778015136719e+01 -1.834507346153259277e+00 9.638907909393310547e-01 -2.611849606037139893e-01 1.322002857923507690e-01
2.812000000000000000e+03 2.186915016174316406e+01 1.119136524200439453e+01 -3.308541536331176758e+00 9.922010451555252075e-02 -9.627963900566101074e-01 -1.642324090003967285e+00
2.813000000000000000e+03 2.000180816650390625e+01 9.686531066894531250e+00 -6.780714511871337891e+00 -3.324512958526611328e+00 -3.031568288803100586e+00 -4.622496128082275391e+00
2.814000000000000000e+03 1.808379364013671875e+01 8.250254631042480469e+00 -6.789973258972167969e+00 -4.082427024841308594e+00 -3.261720180511474609e+00 -5.528074264526367188e+00
2.815000000000000000e+03 1.431365013122558594e+01 5.035061359405517578e+00 1.202968597412109375e+00 -3.246510267257690430e+00 -6.130625605583190918e-01 -2.372389078140258789e+00
2.816000000000000000e+03 1.372464561462402344e+01 3.079810380935668945e+00 4.706976413726806641e+00 -2.714276075363159180e+00 5.978100299835205078e-01 -2.123408794403076172e+00
2.817000000000000000e+03 1.246426773071289062e+01 9.729560852050781250e+00 -8.526016473770141602e-01 -5.434691905975341797e-01 -4.188212454319000244e-01 -7.874333858489990234e-01
2.818000000000000000e+03 1.678633880615234375e+01 1.336503314971923828e+01 -2.459240198135375977e+00 -8.801775574684143066e-01 -1.001825332641601562e+00 -1.345510840415954590e+00
2.819000000000000000e+03 1.889384078979492188e+01 1.456005764007568359e+01 -2.583097219467163086e+00 -7.426708936691284180e-01 -9.977304339408874512e-01 -1.423630475997924805e+00
2.820000000000000000e+03 1.959067153930664062e+01 1.496621990203857422e+01 -2.873908996582031250e+00 -8.415638804435729980e-01 -1.114641904830932617e+00 -1.433507442474365234e+00
2.821000000000000000e+03 2.099777030944824219e+01 1.573334121704101562e+01 -3.348546266555786133e+00 -8.009437918663024902e-01 -1.244847059249877930e+00 -1.494457364082336426e+00
2.822000000000000000e+03 2.267258834838867188e+01 1.763161659240722656e+01 -1.036132454872131348e+00 8.126863092184066772e-02 -2.864591479301452637e-01 -1.625314950942993164e+00
2.823000000000000000e+03 6.526361846923828125e+01 1.289165306091308594e+01 4.992702484130859375e+00 1.443905639648437500e+01 5.829527854919433594e+00 -5.354019165039062500e+00
2.824000000000000000e+03 6.407191467285156250e+01 7.481403827667236328e+00 1.463095188140869141e+00 5.143305778503417969e+00 1.981920242309570312e+00 2.568487405776977539e+00
2.825000000000000000e+03 6.270956802368164062e+01 5.587480068206787109e+00 7.970907688140869141e-01 2.333485841751098633e+00 9.391729831695556641e-01 1.383007526397705078e+00
2.826000000000000000e+03 6.224634933471679688e+01 4.951366901397705078e+00 5.327568054199218750e-01 1.887861251831054688e+00 7.261854410171508789e-01 1.073931336402893066e+00
2.827000000000000000e+03 6.058105087280273438e+01 3.228751420974731445e+00 -2.193662166595458984e+00 -5.190319567918777466e-02 -6.736695766448974609e-01 -8.690202832221984863e-01
2.828000000000000000e+03 5.870001602172851562e+01 1.825316905975341797e+00 -6.340194225311279297e+00 -1.876496434211730957e+00 -2.465007305145263672e+00 -3.273450136184692383e+00
2.829000000000000000e+03 5.698630142211914062e+01 9.876358509063720703e-01 -7.177699565887451172e+00 -1.628925681114196777e+00 -2.641987562179565430e+00 -2.750146865844726562e+00
2.830000000000000000e+03 5.427425765991210938e+01 4.375107765197753906e+00 1.521475911140441895e+00 2.135234260559082031e+01 6.862145900726318359e+00 2.336472511291503906e+00
2.831000000000000000e+03 5.476552963256835938e+01 5.915285110473632812e+00 1.415526032447814941e+00 1.263390159606933594e+01 4.214828491210937500e+00 3.611713647842407227e+00
2.832000000000000000e+03 5.594189834594726562e+01 8.060943603515625000e+00 7.140567898750305176e-01 4.141865253448486328e+00 1.456776618957519531e+00 1.722543239593505859e+00
2.833000000000000000e+03 1.339472293853759766e+01 -1.930575132369995117e+00 -1.359905749559402466e-01 1.720532216131687164e-02 -3.563557565212249756e-02 5.243175104260444641e-02
2.834000000000000000e+03 7.909965991973876953e+00 -1.919712901115417480e+00 -1.005095317959785461e-01 6.751978769898414612e-03 -2.812726609408855438e-02 -3.165126591920852661e-02
2.835000000000000000e+03 7.088060855865478516e+00 -2.718461751937866211e+00 -8.819491416215896606e-02 5.166234914213418961e-03 -2.490860410034656525e-02 -4.994133487343788147e-02
2.836000000000000000e+03 3.751164197921752930e+00 -1.920359969139099121e+00 -3.178272768855094910e-02 -7.711517624557018280e-03 -1.184827368706464767e-02 -2.780464664101600647e-02
2.837000000000000000e+03 2.919554471969604492e+00 -1.919106721878051758e+00 -2.074433676898479462e-02 -1.015715766698122025e-02 -9.270448237657546997e-03 -2.104870416224002838e-02
2.838000000000000000e+03 1.252019882202148438e+00 -1.910041689872741699e+00 -4.963598679751157761e-03 -8.260911330580711365e-03 -3.967352677136659622e-03 -6.815712433308362961e-03
2.839000000000000000e+03 4.175389111042022705e-01 -1.904789209365844727e+00 -1.155917765572667122e-03 -1.380130532197654247e-03 -7.608145242556929588e-04 -1.794639974832534790e-03
2.840000000000000000e+03 4.727677404880523682e-01 -4.128642272949218750e+01 2.189747989177703857e-02 -8.173086047172546387e-01 -2.386233359575271606e-01 1.404078648192808032e-04
2.841000000000000000e+03 4.944768548011779785e-01 -3.727362060546875000e+01 6.994368042796850204e-03 -8.030565977096557617e-01 -2.388186603784561157e-01 -2.767322257568594068e-05
2.842000000000000000e+03 1.544237017631530762e+00 -3.564947509765625000e+01 -6.781630218029022217e-03 -6.940481662750244141e-01 -2.102489322423934937e-01 5.273921415209770203e-03
2.843000000000000000e+03 1.254956841468811035e+00 -3.418597030639648438e+01 -4.935762262903153896e-04 -7.229446768760681152e-01 -2.170314788818359375e-01 4.536327905952930450e-03
2.844000000000000000e+03 1.460522651672363281e+00 -3.271433639526367188e+01 3.431056160479784012e-03 -7.107958793640136719e-01 -2.122094482183456421e-01 3.270788816735148430e-03
2.845000000000000000e+03 1.603512406349182129e+00 -3.106756019592285156e+01 -7.400275673717260361e-03 -6.835454702377319336e-01 -2.072837203741073608e-01 -2.649457659572362900e-03
2.846000000000000000e+03 1.829150080680847168e+00 -2.932444190979003906e+01 6.994955707341432571e-03 -6.574002504348754883e-01 -1.951215863227844238e-01 -6.986991502344608307e-03
2.847000000000000000e+03 1.444462180137634277e+00 -2.755148315429687500e+01 -1.016532303765416145e-03 -6.926683783531188965e-01 -2.081054747104644775e-01 -7.163099478930234909e-03
2.848000000000000000e+03 1.219666361808776855e+00 -2.593716049194335938e+01 4.591743461787700653e-03 -7.124186158180236816e-01 -2.123480737209320068e-01 -9.990808553993701935e-03
2.849000000000000000e+03 1.251694083213806152e+00 -2.357183265686035156e+01 2.629363443702459335e-03 -6.788886785507202148e-01 -2.028778046369552612e-01 -2.065809443593025208e-02
2.850000000000000000e+03 1.263975024223327637e+00 -2.197591400146484375e+01 2.255685627460479736e-03 -6.475203037261962891e-01 -1.935793757438659668e-01 -2.745242416858673096e-02
2.851000000000000000e+03 1.259860754013061523e+00 -2.036613273620605469e+01 2.427101368084549904e-03 -6.097801327705383301e-01 -1.822059154510498047e-01 -3.599090129137039185e-02
2.852000000000000000e+03 4.168437421321868896e-01 -1.877990150451660156e+01 2.722519915550947189e-03 -6.458042263984680176e-01 -1.929245144128799438e-01 -1.481549162417650223e-02
2.853000000000000000e+03 1.212120294570922852e+00 -1.556969547271728516e+01 4.308820643927901983e-04 -4.497575163841247559e-01 -1.347979903221130371e-01 -5.468209460377693176e-02
2.854000000000000000e+03 3.973327577114105225e-01 -1.076563644409179688e+01 8.805973920971155167e-04 -2.681091129779815674e-01 -8.016856014728546143e-02 -1.918083243072032928e-02
2.855000000000000000e+03 1.180763721466064453e+00 -1.001183891296386719e+01 -9.403093717992305756e-04 -2.137363404035568237e-01 -6.440299749374389648e-02 -5.298606678843498230e-02
2.856000000000000000e+03 1.156884312629699707e+00 -8.415992736816406250e+00 -2.089728834107518196e-03 -1.523679941892623901e-01 -4.633731767535209656e-02 -4.625090584158897400e-02
2.857000000000000000e+03 1.169389605522155762e+00 -6.799267292022705078e+00 -3.271779511123895645e-03 -9.833436459302902222e-02 -3.048184327781200409e-02 -3.831883892416954041e-02
2.858000000000000000e+03 4.194957017898559570e-01 -3.519729375839233398e+00 -1.174078206531703472e-03 -1.661802455782890320e-02 -5.337630864232778549e-03 -6.177665200084447861e-03
2.859000000000000000e+03 7.959819030761718750e+01 4.206212234497070312e+01 8.992123417556285858e-03 7.469141006469726562e+00 2.243439912796020508e+00 -1.027015130966901779e-02
2.860000000000000000e+03 7.965024566650390625e+01 3.886454010009765625e+01 -5.031936336308717728e-03 7.465252399444580078e+00 2.238066196441650391e+00 4.709481261670589447e-03
2.861000000000000000e+03 7.957540130615234375e+01 3.741878128051757812e+01 -6.413049064576625824e-03 7.424971580505371094e+00 2.225567579269409180e+00 1.496048923581838608e-02
2.862000000000000000e+03 7.945568847656250000e+01 3.577039337158203125e+01 -2.615884877741336823e-03 7.396374225616455078e+00 2.218127489089965820e+00 1.130497734993696213e-02
2.863000000000000000e+03 7.952296447753906250e+01 3.414498901367187500e+01 -8.710402995347976685e-03 7.367657184600830078e+00 2.207684040069580078e+00 1.451098918914794922e-02
2.864000000000000000e+03 7.951016235351562500e+01 3.336025238037109375e+01 4.247809294611215591e-03 7.345917224884033203e+00 2.205049514770507812e+00 1.620069518685340881e-02
2.865000000000000000e+03 7.847882080078125000e+01 3.030087471008300781e+01 -5.321381613612174988e-03 7.130042076110839844e+00 2.137416124343872070e+00 6.405521929264068604e-02
2.866000000000000000e+03 7.874913787841796875e+01 2.532850646972656250e+01 -3.072358202189207077e-03 6.936795234680175781e+00 2.080116987228393555e+00 8.052354305982589722e-02
2.867000000000000000e+03 7.877863311767578125e+01 2.376020050048828125e+01 2.605186309665441513e-04 6.854139328002929688e+00 2.056319952011108398e+00 7.995430380105972290e-02
2.868000000000000000e+03 7.959294891357421875e+01 2.209609031677246094e+01 2.916085766628384590e-03 6.766101360321044922e+00 2.030705213546752930e+00 2.863116748631000519e-02
2.869000000000000000e+03 7.874942779541015625e+01 2.139584350585937500e+01 1.390746887773275375e-02 6.742024421691894531e+00 2.026779413223266602e+00 6.341640651226043701e-02
2.870000000000000000e+03 7.860161590576171875e+01 1.972417449951171875e+01 3.766924515366554260e-02 6.696691513061523438e+00 2.020308256149291992e+00 2.117515169084072113e-02
2.871000000000000000e+03 7.889176177978515625e+01 1.490565109252929688e+01 4.420038685202598572e-02 7.072217941284179688e+00 2.134925603866577148e+00 -2.290390133857727051e-01
2.872000000000000000e+03 7.880531311035156250e+01 1.329772567749023438e+01 -3.260392323136329651e-02 7.393452644348144531e+00 2.208254575729370117e+00 -2.403722852468490601e-01
2.873000000000000000e+03 7.876770019531250000e+01 1.165830326080322266e+01 -1.528132408857345581e-01 7.657262325286865234e+00 2.251334667205810547e+00 2.639598958194255829e-02
2.874000000000000000e+03 7.958949279785156250e+01 1.002685642242431641e+01 -6.223882734775543213e-02 7.062494754791259766e+00 2.100076675415039062e+00 2.421553730964660645e-01
2.875000000000000000e+03 7.961322784423828125e+01 8.403266906738281250e+00 9.441983699798583984e-02 6.050154685974121094e+00 1.843372344970703125e+00 1.862325668334960938e-01
2.876000000000000000e+03 7.882267761230468750e+01 7.548548221588134766e+00 5.511794686317443848e-01 7.888694763183593750e+00 2.531962156295776367e+00 -1.878213882446289062e-01
2.877000000000000000e+03 7.965320587158203125e+01 4.417413234710693359e+00 -4.968398064374923706e-02 8.934227943420410156e+00 2.665363311767578125e+00 -6.927547454833984375e-01
2.878000000000000000e+03 7.880667877197265625e+01 2.864439964294433594e+00 -2.185313105583190918e-01 1.135062599182128906e+01 3.339628458023071289e+00 -1.683717727661132812e+00
2.879000000000000000e+03 7.883266448974609375e+01 1.188963532447814941e+00 -5.834991931915283203e-01 1.248214149475097656e+01 3.569592714309692383e+00 -7.265842556953430176e-01
2.880000000000000000e+03 7.880920410156250000e+01 -4.419297575950622559e-01 -3.827885687351226807e-01 1.253971099853515625e+01 3.647076845169067383e+00 2.130043804645538330e-01
2.881000000000000000e+03 7.963907623291015625e+01 -6.842220783233642578e+00 2.556674554944038391e-02 9.456192970275878906e+00 2.844527959823608398e+00 3.446297943592071533e-01
2.882000000000000000e+03 7.888400268554687500e+01 -7.681425094604492188e+00 6.411883980035781860e-02 8.709504127502441406e+00 2.632086753845214844e+00 8.958055377006530762e-01
2.883000000000000000e+03 7.882599639892578125e+01 -9.295741081237792969e+00 1.003037169575691223e-01 7.794666290283203125e+00 2.368490934371948242e+00 7.737964987754821777e-01
2.884000000000000000e+03 7.882554626464843750e+01 -1.091457843780517578e+01 1.347014307975769043e-01 7.078381061553955078e+00 2.163924694061279297e+00 5.285096764564514160e-01
2.885000000000000000e+03 7.959812927246093750e+01 -2.045546150207519531e+01 -1.130636408925056458e-02 7.398673534393310547e+00 2.216210126876831055e+00 -5.402157083153724670e-02
2.886000000000000000e+03 7.875728607177734375e+01 -2.126442337036132812e+01 -4.656075686216354370e-02 7.383284091949462891e+00 2.201017141342163086e+00 -6.882572919130325317e-02
2.887000000000000000e+03 7.871089172363281250e+01 -2.776932144165039062e+01 9.112932719290256500e-03 7.075648307800292969e+00 2.125428438186645508e+00 8.383072167634963989e-02
2.888000000000000000e+03 7.870491027832031250e+01 -2.940398025512695312e+01 1.095880847424268723e-02 6.985528945922851562e+00 2.098946332931518555e+00 7.086785137653350830e-02
2.889000000000000000e+03 7.877858734130859375e+01 -3.097396659851074219e+01 1.252479944378137589e-02 6.919440269470214844e+00 2.079589605331420898e+00 5.542673543095588684e-02
2.890000000000000000e+03 7.881642913818359375e+01 -3.247530746459960938e+01 9.707599878311157227e-03 6.863232612609863281e+00 2.061882019042968750e+00 3.900556266307830811e-02
2.891000000000000000e+03 7.958565521240234375e+01 -3.404388046264648438e+01 -5.584524944424629211e-03 6.893864631652832031e+00 2.066483974456787109e+00 1.064573507755994797e-02
2.892000000000000000e+03 7.874284362792968750e+01 -3.396035766601562500e+01 4.538891371339559555e-03 6.811361789703369141e+00 2.044770240783691406e+00 3.539566695690155029e-02
2.893000000000000000e+03 7.953791046142578125e+01 -3.640768814086914062e+01 2.011307515203952789e-03 6.828196048736572266e+00 2.049062252044677734e+00 9.331816807389259338e-03
2.894000000000000000e+03 7.944979858398437500e+01 -3.801398086547851562e+01 3.429726231843233109e-03 6.801139831542968750e+00 2.041370868682861328e+00 5.162351764738559723e-03
2.895000000000000000e+03 7.949510955810546875e+01 -3.963637161254882812e+01 2.396281808614730835e-03 6.791797161102294922e+00 2.038258075714111328e+00 4.828303935937583447e-04
2.896000000000000000e+03 7.950825500488281250e+01 -4.123097610473632812e+01 -9.425174444913864136e-03 6.795349597930908203e+00 2.035777330398559570e+00 2.380108227953314781e-03
2.897000000000000000e+03 7.862252044677734375e+01 4.103985214233398438e+01 -2.331784926354885101e-02 7.326735496520996094e+00 2.191025257110595703e+00 3.834522562101483345e-03
2.898000000000000000e+03 3.818375468254089355e-01 1.896481633186340332e+00 -1.718714833259582520e-02 -2.297680079936981201e-01 -7.408654689788818359e-02 9.807519614696502686e-02
2.899000000000000000e+03 1.155850052833557129e+00 4.255371570587158203e+00 8.865205198526382446e-02 -7.115321159362792969e-01 -1.868640184402465820e-01 2.437025457620620728e-01
2.900000000000000000e+03 3.988764584064483643e-01 8.345035552978515625e+00 1.512966398149728775e-02 -7.157752513885498047e-01 -2.101936787366867065e-01 -1.263403743505477905e-01
2.901000000000000000e+03 1.192595958709716797e+00 9.173353195190429688e+00 3.406861051917076111e-02 -1.808026731014251709e-01 -4.402021691203117371e-02 -4.055284857749938965e-01
2.902000000000000000e+03 1.158124446868896484e+00 1.558377456665039062e+01 -3.836140781641006470e-02 1.448491334915161133e+00 4.230389595031738281e-01 -1.886352151632308960e-01
2.903000000000000000e+03 1.086789131164550781e+00 1.716729545593261719e+01 -2.863727696239948273e-02 1.647073864936828613e+00 4.855309724807739258e-01 -1.024073734879493713e-01
2.904000000000000000e+03 3.539960086345672607e-01 1.876179504394531250e+01 -1.673083635978400707e-03 1.906739830970764160e+00 5.715200304985046387e-01 -1.471930369734764099e-02
2.905000000000000000e+03 3.841556310653686523e-01 2.035717010498046875e+01 -1.302468939684331417e-03 1.932478308677673340e+00 5.793527364730834961e-01 -1.549910521134734154e-04
2.906000000000000000e+03 1.131129503250122070e+00 2.267946243286132812e+01 -5.202668718993663788e-03 1.746372342109680176e+00 5.223509073257446289e-01 4.172325879335403442e-02
2.907000000000000000e+03 1.380802989006042480e+00 2.592756843566894531e+01 1.942922826856374741e-04 1.582869052886962891e+00 4.749190211296081543e-01 7.318121939897537231e-02
2.908000000000000000e+03 4.380226433277130127e-01 3.562629318237304688e+01 -1.354857697151601315e-03 1.227462887763977051e+00 3.678324222564697266e-01 1.363820489495992661e-02
2.909000000000000000e+03 1.318446755409240723e+00 3.560258865356445312e+01 6.094500422477722168e-03 1.212462425231933594e+00 3.655670881271362305e-01 3.835541754961013794e-02
2.910000000000000000e+03 4.931727647781372070e-01 4.122635269165039062e+01 1.224858104251325130e-03 1.126226663589477539e+00 3.382354378700256348e-01 2.597369719296693802e-03
2.911000000000000000e+03 7.341278076171875000e+00 1.915787220001220703e+00 -7.776408791542053223e-01 -1.696183979511260986e-01 -2.841777801513671875e-01 1.480474472045898438e+00
2.912000000000000000e+03 4.984002590179443359e+00 1.899086594581604004e+00 -5.179203152656555176e-01 -2.585772573947906494e-01 -2.329492568969726562e-01 1.001077651977539062e+00
2.913000000000000000e+03 3.438827037811279297e+00 1.864948272705078125e+00 -3.716079890727996826e-01 -2.090515792369842529e-01 -1.741978675127029419e-01 6.926811933517456055e-01
2.914000000000000000e+03 1.119670963287353516e+01 1.801434516906738281e+00 -1.065130949020385742e+00 1.546047091484069824e+00 1.442748159170150757e-01 -1.386899590492248535e+00
2.915000000000000000e+03 1.263617134094238281e+01 1.687105298042297363e+00 -2.973038852214813232e-01 6.792717576026916504e-01 1.145903766155242920e-01 -2.612668991088867188e+00
2.916000000000000000e+03 1.403740310668945312e+01 1.796039700508117676e+00 4.500280320644378662e-01 -7.608944177627563477e-01 -9.325992316007614136e-02 -1.612331748008728027e+00
2.917000000000000000e+03 1.480522918701171875e+01 1.914173245429992676e+00 -3.271108120679855347e-02 -2.953248739242553711e+00 -8.957879543304443359e-01 -9.815118312835693359e-01
2.918000000000000000e+03 1.871619606018066406e+01 2.244557142257690430e+00 2.422880411148071289e+00 -7.437711358070373535e-01 5.037328004837036133e-01 -2.930932044982910156e-01
2.919000000000000000e+03 1.986579895019531250e+01 1.098080635070800781e+00 -7.901625633239746094e-01 -5.842429995536804199e-01 -4.123216569423675537e-01 1.016809821128845215e+00
2.920000000000000000e+03 2.041118431091308594e+01 4.833122789859771729e-01 -9.443373084068298340e-01 1.192227959632873535e+00 7.436720281839370728e-02 5.134372115135192871e-01
2.921000000000000000e+03 2.434706115722656250e+01 -4.691550254821777344e+00 4.640290737152099609e+00 1.316707134246826172e+01 5.342208385467529297e+00 -7.290868759155273438e+00
2.922000000000000000e+03 2.537656402587890625e+01 -7.822627544403076172e+00 1.890295982360839844e+00 1.983055305480957031e+01 6.516254425048828125e+00 5.185608565807342529e-02
2.923000000000000000e+03 2.185502052307128906e+01 -8.401694297790527344e+00 -2.014418125152587891e+00 -6.624975800514221191e-01 -8.030747175216674805e-01 9.172273874282836914e-01
2.924000000000000000e+03 2.051925659179687500e+01 -7.448147773742675781e+00 -1.027175903320312500e+00 -5.147174000740051270e-01 -4.625679850578308105e-01 6.872876286506652832e-01
2.925000000000000000e+03 1.626626777648925781e+01 -5.033035278320312500e+00 -3.703317642211914062e-01 -7.367147598415613174e-03 -1.133096739649772644e-01 1.492307186126708984e-01
2.926000000000000000e+03 1.568619728088378906e+01 -1.772439718246459961e+00 -5.930585786700248718e-02 -1.066620498895645142e-01 -4.979037493467330933e-02 7.495391368865966797e-02
2.927000000000000000e+03 1.494598579406738281e+01 -1.905663609504699707e+00 -9.718209505081176758e-02 -2.489981241524219513e-02 -3.662457317113876343e-02 6.961886584758758545e-02
2.928000000000000000e+03 6.947517395019531250e+01 6.374198436737060547e+00 2.679879069328308105e-01 1.134245395660400391e+01 3.483132362365722656e+00 9.734178781509399414e-01
2.929000000000000000e+03 7.343914794921875000e+01 9.888064384460449219e+00 -1.074363946914672852e+00 1.221591949462890625e+00 4.416842013597488403e-02 -2.115368843078613281e+00
2.930000000000000000e+03 7.454108428955078125e+01 9.855523109436035156e+00 -5.225737690925598145e-01 5.920162677764892578e+00 1.619276642799377441e+00 -3.762877464294433594e+00
2.931000000000000000e+03 2.467868995666503906e+01 -9.813923835754394531e+00 1.124663829803466797e+00 6.499543666839599609e+00 2.287262201309204102e+00 3.703232526779174805e+00
2.932000000000000000e+03 5.643450927734375000e+01 -1.461813449859619141e+01 6.299871206283569336e-01 1.311238288879394531e+01 4.122711181640625000e+00 -6.529648900032043457e-01
2.933000000000000000e+03 3.616059875488281250e+01 1.363096427917480469e+01 -2.829017877578735352e+00 -1.413941860198974609e+00 -1.272887825965881348e+00 1.615652441978454590e+00
2.934000000000000000e+03 3.736345672607421875e+01 1.395660305023193359e+01 -2.522777557373046875e+00 8.019367605447769165e-02 -7.327752113342285156e-01 6.640629768371582031e-01
2.935000000000000000e+03 3.814281463623046875e+01 1.448091888427734375e+01 -2.340356349945068359e+00 3.859540820121765137e-01 -5.863206386566162109e-01 2.926049828529357910e-01
2.936000000000000000e+03 3.863691329956054688e+01 1.370484447479248047e+01 -1.885169506072998047e+00 3.394431769847869873e-01 -4.637178778648376465e-01 4.653747975826263428e-01
2.937000000000000000e+03 4.456326293945312500e+01 1.247568798065185547e+01 -1.182181596755981445e+00 -4.079597592353820801e-01 -4.770424067974090576e-01 -7.574837803840637207e-01
2.938000000000000000e+03 7.234647369384765625e+01 1.030223846435546875e+01 6.932420134544372559e-01 5.790936350822448730e-01 3.817006945610046387e-01 -6.636214256286621094e-01
2.939000000000000000e+03 4.069267272949218750e+01 -1.605928039550781250e+01 4.941324234008789062e+00 1.103895759582519531e+01 4.794084548950195312e+00 3.389398097991943359e+00
2.940000000000000000e+03 1.305854511260986328e+01 2.754363298416137695e+00 3.367186546325683594e+00 -8.013598322868347168e-01 7.697480320930480957e-01 -2.970840930938720703e+00
2.941000000000000000e+03 1.249668693542480469e+01 3.116357564926147461e+00 4.962847232818603516e+00 7.808482050895690918e-01 1.723108530044555664e+00 -3.331231594085693359e+00
2.942000000000000000e+03 1.329124832153320312e+01 2.274995803833007812e+00 1.995669484138488770e+00 -9.493288993835449219e-01 3.139021992683410645e-01 -2.552953720092773438e+00
2.943000000000000000e+03 1.472585296630859375e+01 2.665530443191528320e+00 2.918573617935180664e+00 -3.029827117919921875e+00 -3.337603062391281128e-02 -3.613928258419036865e-01
2.944000000000000000e+03 3.758834457397460938e+01 8.775702476501464844e+00 -8.995735086500644684e-03 -4.062180966138839722e-02 -1.488526351749897003e-02 -9.645194746553897858e-03
2.945000000000000000e+03 3.833052825927734375e+01 8.592825889587402344e+00 5.843956489115953445e-03 -8.165914565324783325e-03 -6.965874345041811466e-04 -2.244940027594566345e-02
2.946000000000000000e+03 1.500220203399658203e+01 5.212615489959716797e+00 1.137565612792968750e+00 -3.315054178237915039e+00 -6.532466411590576172e-01 -2.955521106719970703e+00
2.947000000000000000e+03 1.061014842987060547e+01 3.190428972244262695e+00 3.799933671951293945e+00 3.415372848510742188e+00 2.164592027664184570e+00 -9.541339874267578125e-01
2.948000000000000000e+03 1.052787494659423828e+01 2.521314620971679688e+00 1.048563003540039062e+00 2.776083469390869141e+00 1.147393941879272461e+00 -5.914269089698791504e-01
2.949000000000000000e+03 4.506159210205078125e+01 -3.809854745864868164e+00 6.079800605773925781e+00 1.722637367248535156e+01 6.991852283477783203e+00 7.194962978363037109e+00
2.950000000000000000e+03 4.899564743041992188e+01 7.318080902099609375e+00 2.013952970504760742e+00 7.959541797637939453e+00 2.992048263549804688e+00 3.512525796890258789e+00
2.951000000000000000e+03 3.949655914306640625e+01 1.433544254302978516e+01 -1.939313888549804688e+00 5.358802080154418945e-01 -4.210300743579864502e-01 2.025229185819625854e-01
2.952000000000000000e+03 2.566416168212890625e+01 -8.553067207336425781e+00 3.231820106506347656e+00 1.640369796752929688e+01 5.890655517578125000e+00 4.314362406730651855e-01
2.953000000000000000e+03 6.541978454589843750e+01 -8.734216690063476562e-01 -2.824961662292480469e+00 3.019312381744384766e+00 5.830527469515800476e-02 4.649926662445068359e+00
2.954000000000000000e+03 3.964758300781250000e+01 8.475727081298828125e+00 -4.483822267502546310e-03 2.979868277907371521e-02 7.594458293169736862e-03 -2.011711709201335907e-02
2.955000000000000000e+03 3.903646850585937500e+01 8.538330078125000000e+00 -2.416431903839111328e-02 -7.108701393008232117e-03 -9.381906129419803619e-03 -2.149830758571624756e-02
2.956000000000000000e+03 5.554137420654296875e+01 -1.872996139526367188e+01 1.649228811264038086e+00 9.845001220703125000e+00 3.448268890380859375e+00 4.075179576873779297e+00
2.957000000000000000e+03 5.659835052490234375e+01 -1.728610420227050781e+01 2.286925554275512695e+00 1.220385646820068359e+01 4.347234249114990234e+00 1.755381941795349121e+00
2.958000000000000000e+03 1.036875915527343750e+01 -2.616693019866943359e+00 -1.424051076173782349e-01 2.940370142459869385e-02 -3.390042483806610107e-02 -1.351708546280860901e-02
2.959000000000000000e+03 1.112196350097656250e+01 -2.610859632492065430e+00 -1.533980071544647217e-01 3.643902763724327087e-02 -3.508769348263740540e-02 1.124981557950377464e-03
2.960000000000000000e+03 7.635025787353515625e+01 3.071603536605834961e+00 -6.962885260581970215e-01 1.059226894378662109e+01 2.968794107437133789e+00 -1.526003122329711914e+00
2.961000000000000000e+03 7.446286010742187500e+01 5.313519239425659180e-01 -3.083717584609985352e+00 2.454982042312622070e+00 -1.886206716299057007e-01 6.978359818458557129e-01
2.962000000000000000e+03 7.329570770263671875e+01 5.331310629844665527e-01 -5.047260761260986328e+00 -6.524931192398071289e-01 -1.709926128387451172e+00 -1.536457777023315430e+00
2.963000000000000000e+03 6.992867279052734375e+01 8.232907295227050781e+00 -1.765532493591308594e+00 6.840507030487060547e+00 1.522492408752441406e+00 2.995160520076751709e-01
2.964000000000000000e+03 7.683396911621093750e+01 6.499683856964111328e+00 2.130734920501708984e+00 1.257249259948730469e+01 4.410968303680419922e+00 -2.484366178512573242e+00
2.965000000000000000e+03 3.109938812255859375e+01 7.382118701934814453e-02 6.366451263427734375e+00 5.655440807342529297e+00 3.606567621231079102e+00 3.488474607467651367e+00
2.966000000000000000e+03 3.168751335144042969e+01 -3.635409474372863770e-01 8.004220008850097656e+00 1.188198328018188477e+00 2.757725477218627930e+00 1.080870509147644043e+00
2.967000000000000000e+03 7.542237091064453125e+01 1.686021566390991211e+00 -3.393052101135253906e+00 5.624442577362060547e+00 6.694171428680419922e-01 -1.067823451012372971e-02
2.968000000000000000e+03 7.594470214843750000e+01 2.327590227127075195e+00 -2.430156946182250977e+00 8.701746940612792969e+00 1.881476998329162598e+00 -7.643991708755493164e-01
2.969000000000000000e+03 7.519316101074218750e+01 8.313598632812500000e+00 4.036376476287841797e+00 1.019806194305419922e+01 4.270331382751464844e+00 -5.966164588928222656e+00
2.970000000000000000e+03 6.943926239013671875e+01 4.440211296081542969e+00 1.017011642456054688e+00 1.964136123657226562e+01 6.197511672973632812e+00 -8.906759023666381836e-01
2.971000000000000000e+03 2.392096328735351562e+01 1.512287259101867676e+00 -2.533875942230224609e+00 1.047988796234130859e+01 2.383803606033325195e+00 -7.832132339477539062e+00
2.972000000000000000e+03 6.906169128417968750e+01 5.903009414672851562e+00 2.800509631633758545e-01 1.301209163665771484e+01 3.987642765045166016e+00 -5.670861601829528809e-01
2.973000000000000000e+03 7.706372833251953125e+01 4.370983123779296875e+00 6.270591616630554199e-01 1.190281391143798828e+01 3.758961915969848633e+00 -1.737148642539978027e+00
2.974000000000000000e+03 7.677850341796875000e+01 5.801826000213623047e+00 9.166490435600280762e-01 1.462080860137939453e+01 4.661237239837646484e+00 -2.399324417114257812e+00
2.975000000000000000e+03 7.045207977294921875e+01 2.109972715377807617e+00 3.339049816131591797e+00 7.628747940063476562e+00 3.290339231491088867e+00 -4.961852550506591797e+00
2.976000000000000000e+03 6.943241119384765625e+01 2.057380914688110352e+00 6.529670953750610352e-01 1.048376274108886719e+01 3.341018915176391602e+00 -1.741199493408203125e+00
2.977000000000000000e+03 3.002657127380371094e+01 -1.984538137912750244e-01 5.172931671142578125e+00 3.622190713882446289e+00 2.638536691665649414e+00 8.998606204986572266e-01
2.978000000000000000e+03 8.974198341369628906e+00 2.602373361587524414e+00 1.232546567916870117e+00 1.199189901351928711e+00 7.295209765434265137e-01 1.081650376319885254e+00
2.979000000000000000e+03 6.543711185455322266e+00 2.833645582199096680e+00 8.832175135612487793e-01 -5.168293714523315430e-01 1.099164560437202454e-01 1.176066398620605469e+00
2.980000000000000000e+03 4.715769290924072266e+00 3.392095565795898438e+00 6.616298556327819824e-01 -5.076474547386169434e-01 4.619472101330757141e-02 7.606320381164550781e-01
2.981000000000000000e+03 3.367824792861938477e+00 2.586017847061157227e+00 -4.347873851656913757e-02 -3.495965600013732910e-01 -1.179225891828536987e-01 7.219918966293334961e-01
2.982000000000000000e+03 4.889108657836914062e+00 2.675023078918457031e+00 1.717622429132461548e-01 -4.489385783672332764e-01 -8.315289765596389771e-02 9.590157866477966309e-01
2.983000000000000000e+03 1.130474925041198730e+00 2.662235260009765625e+00 -2.030527591705322266e-02 -4.173483252525329590e-01 -1.312960833311080933e-01 3.242923319339752197e-01
2.984000000000000000e+03 2.419284629821777344e+01 -1.073899936676025391e+01 -2.931122435256838799e-03 3.369756937026977539e+00 1.010047793388366699e+00 2.442929983139038086e+00
2.985000000000000000e+03 6.409896850585937500e+01 -1.436785578727722168e+00 -4.567189216613769531e+00 6.759490013122558594e+00 6.576902866363525391e-01 5.227759838104248047e+00
2.986000000000000000e+03 5.336644744873046875e+01 -1.861042976379394531e+01 -3.876891851425170898e+00 -1.738118886947631836e+00 -1.684503197669982910e+00 2.239197015762329102e+00
2.987000000000000000e+03 5.393901443481445312e+01 -2.003733444213867188e+01 3.426325023174285889e-01 9.311487674713134766e-01 3.821343779563903809e-01 3.137655496597290039e+00
2.988000000000000000e+03 4.681844711303710938e+01 -1.573584318161010742e+00 -9.955714941024780273e-01 2.641528844833374023e+00 4.937872290611267090e-01 6.004333972930908203e+00
2.989000000000000000e+03 6.259938812255859375e+01 -4.860591888427734375e+00 1.835969209671020508e+00 1.348871040344238281e+01 4.597404003143310547e+00 2.380581855773925781e+00
2.990000000000000000e+03 6.361774826049804688e+01 -3.114751577377319336e+00 3.246973276138305664e+00 1.337171840667724609e+01 4.985607624053955078e+00 4.551517486572265625e+00
2.991000000000000000e+03 7.205109405517578125e+01 -1.437349510192871094e+01 2.425936460494995117e+00 1.601130485534667969e+01 5.531172275543212891e+00 3.318124532699584961e+00
2.992000000000000000e+03 6.269770431518554688e+01 -2.674720764160156250e+00 -2.289789617061614990e-01 1.072259330749511719e+01 3.148084163665771484e+00 7.386611700057983398e-01
2.993000000000000000e+03 2.515005111694335938e+01 1.471715736389160156e+01 3.239922285079956055e+00 2.188234901428222656e+01 7.536681652069091797e+00 3.363879919052124023e+00
2.994000000000000000e+03 2.583031654357910156e+01 1.681866264343261719e+01 -9.893861413002014160e-01 9.445513725280761719e+00 2.536838293075561523e+00 2.457987308502197266e+00
2.995000000000000000e+03 2.335593986511230469e+01 1.814102172851562500e+01 -1.253827452659606934e+00 1.322228670120239258e+00 2.052037790417671204e-02 -2.270403623580932617e+00
2.996000000000000000e+03 5.646897888183593750e+01 1.298560053110122681e-01 -1.010135531425476074e+00 1.725622653961181641e+00 2.146461606025695801e-01 -6.265144348144531250e+00
2.997000000000000000e+03 6.833589935302734375e+01 -1.674467849731445312e+01 -5.172690153121948242e-01 6.997765898704528809e-01 5.475228279829025269e-02 -6.421405822038650513e-02
2.998000000000000000e+03 5.519009399414062500e+01 1.208886504173278809e+00 4.361901760101318359e+00 8.458321571350097656e+00 3.846066951751708984e+00 -7.137290954589843750e+00
2.999000000000000000e+03 7.273643493652343750e+01 -8.394717216491699219e+00 6.743556261062622070e-01 9.250789642333984375e+00 2.977543592453002930e+00 4.903913941234350204e-03
3.000000000000000000e+03 7.206293487548828125e+01 -1.045490264892578125e+01 7.423182129859924316e-01 1.387883377075195312e+01 4.386345386505126953e+00 -1.148000359535217285e+00
3.001000000000000000e+03 5.425030517578125000e+01 1.126638889312744141e+00 7.708905935287475586e-01 1.343136501312255859e+01 4.260676860809326172e+00 -2.321380853652954102e+00
3.002000000000000000e+03 6.444130706787109375e+01 -1.189997768402099609e+01 -2.647538483142852783e-01 4.390383243560791016e+00 1.237688779830932617e+00 -8.775152564048767090e-01
3.003000000000000000e+03 6.496265411376953125e+01 -1.255245590209960938e+01 -3.225934505462646484e-01 3.175402879714965820e+00 8.558428287506103516e-01 -7.292919158935546875e-01
3.004000000000000000e+03 6.334755325317382812e+01 1.435645580291748047e+01 -3.377800807356834412e-02 1.066236853599548340e+00 3.097376525402069092e-01 -1.724132061004638672e+00
3.005000000000000000e+03 6.374251174926757812e+01 -8.685708999633789062e+00 6.736394166946411133e-01 1.062385749816894531e+01 3.389249086380004883e+00 -1.732385277748107910e+00
3.006000000000000000e+03 7.286248016357421875e+01 -1.044980907440185547e+01 1.324455738067626953e+00 1.157665157318115234e+01 3.870332002639770508e+00 -4.109399914741516113e-01
3.007000000000000000e+03 6.359837722778320312e+01 -1.043080425262451172e+01 1.885053962469100952e-01 7.315138339996337891e+00 2.251093149185180664e+00 -8.223338723182678223e-01
3.008000000000000000e+03 6.307321166992187500e+01 -8.835335731506347656e+00 5.624371170997619629e-01 9.742383003234863281e+00 3.091446161270141602e+00 -5.774410367012023926e-01
3.009000000000000000e+03 6.144901657104492188e+01 1.408207607269287109e+01 -4.113479256629943848e-01 3.836709558963775635e-01 -8.303094655275344849e-03 2.868816256523132324e-01
3.010000000000000000e+03 6.764728546142578125e+01 -1.532980084419250488e+00 -3.997626543045043945e+00 3.273616790771484375e+00 -2.172029018402099609e-01 2.232604473829269409e-02
3.011000000000000000e+03 6.748741912841796875e+01 -4.086974620819091797e+00 -2.659120082855224609e+00 -8.175603151321411133e-01 -1.043004035949707031e+00 1.524281024932861328e+00
3.012000000000000000e+03 6.727583312988281250e+01 -2.505796909332275391e+00 -5.243435382843017578e+00 1.997277021408081055e+00 -9.738475680351257324e-01 5.547343492507934570e-01
3.013000000000000000e+03 6.349839401245117188e+01 -7.116408824920654297e+00 3.197597563266754150e-01 1.276795482635498047e+01 3.926314353942871094e+00 -8.467932939529418945e-01
3.014000000000000000e+03 6.268453598022460938e+01 -5.649422168731689453e+00 7.217854261398315430e-01 1.314713191986083984e+01 4.160675048828125000e+00 9.219301342964172363e-01
3.015000000000000000e+03 6.608376312255859375e+01 -1.372551059722900391e+01 -6.347064971923828125e-01 1.401648163795471191e+00 2.300824820995330811e-01 -1.582281887531280518e-01
3.016000000000000000e+03 7.207460021972656250e+01 -1.282973480224609375e+01 2.284094542264938354e-01 1.442930984497070312e+01 4.397315979003906250e+00 4.334242939949035645e-01
3.017000000000000000e+03 7.072553253173828125e+01 -6.470259189605712891e+00 1.235763430595397949e-01 4.063944339752197266e+00 1.256256103515625000e+00 -1.495292186737060547e+00
3.018000000000000000e+03 6.864137268066406250e+01 -4.214968681335449219e+00 -2.417158603668212891e+00 1.576873421669006348e+00 -2.520855367183685303e-01 1.270020902156829834e-01
3.019000000000000000e+03 6.767819976806640625e+01 -3.082584142684936523e+00 -4.839043617248535156e+00 1.328861117362976074e+00 -1.053054690361022949e+00 1.241991996765136719e+00
3.020000000000000000e+03 7.076755523681640625e+01 -5.459035396575927734e+00 -8.185304403305053711e-01 4.144498348236083984e+00 9.977903962135314941e-01 -1.121625423431396484e+00
3.021000000000000000e+03 6.282393646240234375e+01 -7.224892139434814453e+00 4.236983060836791992e-01 1.172275829315185547e+01 3.643937110900878906e+00 -5.339471995830535889e-02
3.022000000000000000e+03 7.282301330566406250e+01 -1.122189903259277344e+01 7.277044653892517090e-01 1.254522895812988281e+01 3.981880187988281250e+00 -2.480768561363220215e-01
3.023000000000000000e+03 3.772792816162109375e+01 1.560299158096313477e+00 -6.810466647148132324e-01 -3.179177761077880859e+00 -1.158067345619201660e+00 8.611796498298645020e-01
3.024000000000000000e+03 3.653222656250000000e+01 -3.069452941417694092e-03 -1.663613021373748779e-01 -1.559944748878479004e+00 -5.178918242454528809e-01 3.911245763301849365e-01
3.025000000000000000e+03 3.793135833740234375e+01 -4.220410883426666260e-01 -4.287871122360229492e-01 -1.928611874580383301e+00 -7.072197198867797852e-01 1.842601597309112549e-01
3.026000000000000000e+03 3.859263229370117188e+01 -7.769955396652221680e-01 -8.122736215591430664e-01 -1.789348602294921875e+00 -7.804867029190063477e-01 8.207132667303085327e-02
3.027000000000000000e+03 4.400026321411132812e+01 -4.938620567321777344e+00 3.535068750381469727e+00 1.255871963500976562e+01 4.828136444091796875e+00 2.652795791625976562e+00
3.028000000000000000e+03 4.403548812866210938e+01 -7.181232929229736328e+00 4.492270350456237793e-01 9.506602287292480469e+00 2.986748933792114258e+00 9.143705368041992188e-01
3.029000000000000000e+03 4.605422592163085938e+01 -1.005440330505371094e+01 -2.963035181164741516e-02 3.796123504638671875e+00 1.129947900772094727e+00 -5.097290277481079102e-01
3.030000000000000000e+03 4.422315979003906250e+01 -4.347308158874511719e+00 4.873119831085205078e+00 1.217103004455566406e+01 5.113245010375976562e+00 2.432117462158203125e+00
3.031000000000000000e+03 5.374334335327148438e+01 -7.467105865478515625e+00 4.746340587735176086e-02 4.114261150360107422e+00 1.248517274856567383e+00 -1.229368329048156738e+00
3.032000000000000000e+03 4.496406555175781250e+01 -9.820797920227050781e+00 -9.808768033981323242e-01 6.131088256835937500e+00 1.545063376426696777e+00 6.620455384254455566e-01
3.033000000000000000e+03 5.625089263916015625e+01 -1.305547714233398438e+01 5.917452573776245117e-01 1.153463459014892578e+01 3.637914180755615234e+00 -1.224702358245849609e+00
3.034000000000000000e+03 4.687778472900390625e+01 -1.142952251434326172e+01 -8.194640278816223145e-01 2.485406398773193359e-01 -1.712770015001296997e-01 5.995921492576599121e-01
3.035000000000000000e+03 5.592527389526367188e+01 -1.088475513458251953e+01 6.044965386390686035e-01 8.826778411865234375e+00 2.829382419586181641e+00 -1.127438545227050781e+00
3.036000000000000000e+03 5.543444824218750000e+01 -1.019038867950439453e+01 5.949116945266723633e-01 7.876501560211181641e+00 2.541424036026000977e+00 -1.450431108474731445e+00
3.037000000000000000e+03 4.844534301757812500e+01 -1.443513488769531250e+01 -1.260126233100891113e+00 -9.544224143028259277e-01 -6.643645763397216797e-01 1.103423237800598145e+00
3.038000000000000000e+03 5.566252136230468750e+01 -9.000548362731933594e+00 1.862369179725646973e-01 7.012733459472656250e+00 2.159691095352172852e+00 -9.698800444602966309e-01
3.039000000000000000e+03 4.901650619506835938e+01 -1.495213699340820312e+01 -1.282949805259704590e+00 -1.202194452285766602e+00 -7.455433011054992676e-01 1.283833265304565430e+00
3.040000000000000000e+03 5.647913742065429688e+01 -1.672449302673339844e+01 1.328453898429870605e+00 1.489365386962890625e+01 4.866632461547851562e+00 1.837556004524230957e+00
3.041000000000000000e+03 5.641471481323242188e+01 -1.607110595703125000e+01 5.747492909431457520e-01 1.430841922760009766e+01 4.464950561523437500e+00 -1.039046049118041992e-01
3.042000000000000000e+03 4.785964965820312500e+01 -1.270730876922607422e+01 -1.296105980873107910e+00 -1.277445673942565918e+00 -7.720655202865600586e-01 1.372471690177917480e+00
3.043000000000000000e+03 4.739780807495117188e+01 -1.457763576507568359e+01 -9.133803248405456543e-01 3.829831182956695557e-01 -1.591191738843917847e-01 6.126343011856079102e-01
3.044000000000000000e+03 4.431816101074218750e+01 -6.732292652130126953e+00 5.372605323791503906e-01 1.160032558441162109e+01 3.641275882720947266e+00 8.679631352424621582e-01
3.045000000000000000e+03 4.453630828857421875e+01 -7.193368911743164062e+00 -5.417307466268539429e-02 1.179155731201171875e+01 3.521215200424194336e+00 -2.054578065872192383e-02
3.046000000000000000e+03 4.677727890014648438e+01 -1.256194305419921875e+01 -1.162520647048950195e+00 9.160587787628173828e-01 -7.393857091665267944e-02 7.951222658157348633e-01
3.047000000000000000e+03 5.397195816040039062e+01 -9.283023834228515625e+00 9.534744620323181152e-01 4.741539001464843750e+00 1.708504080772399902e+00 -2.150331258773803711e+00
3.048000000000000000e+03 5.141279983520507812e+01 -1.788962936401367188e+01 -2.359728097915649414e+00 -1.038686633110046387e+00 -1.019524335861206055e+00 1.404723405838012695e+00
3.049000000000000000e+03 4.754774856567382812e+01 -2.439339876174926758e+00 -3.191909551620483398e+00 -6.491670608520507812e-01 -1.152323007583618164e+00 3.913287878036499023e+00
3.050000000000000000e+03 4.760467147827148438e+01 -3.340167522430419922e+00 -7.449340820312500000e+00 5.682909861207008362e-02 -2.217753410339355469e+00 2.216636657714843750e+00
3.051000000000000000e+03 5.006185150146484375e+01 -1.601144790649414062e+01 -1.556868910789489746e+00 -1.284895658493041992e+00 -8.525293469429016113e-01 1.424772739410400391e+00
3.052000000000000000e+03 5.419652938842773438e+01 -8.116050720214843750e+00 2.950775325298309326e-01 4.794806003570556641e+00 1.526965022087097168e+00 -1.512112617492675781e+00
3.053000000000000000e+03 5.108634948730468750e+01 -1.613272857666015625e+01 -1.958667278289794922e+00 -1.930001735687255859e+00 -1.166600704193115234e+00 1.977025985717773438e+00
3.054000000000000000e+03 4.996971511840820312e+01 -1.698068237304687500e+01 -1.390023708343505859e+00 -7.216191887855529785e-01 -6.334928870201110840e-01 9.611549377441406250e-01
3.055000000000000000e+03 5.171768188476562500e+01 -4.989032268524169922e+00 -3.493752241134643555e+00 1.771489977836608887e+00 -5.166786909103393555e-01 5.314164161682128906e-01
3.056000000000000000e+03 4.726950454711914062e+01 -1.326186943054199219e+01 -1.180821776390075684e+00 9.410053491592407227e-02 -3.260163664817810059e-01 8.763238787651062012e-01
3.057000000000000000e+03 4.136660766601562500e+01 -5.143443942070007324e-01 -9.717289805412292480e-01 1.458965420722961426e+00 1.461709290742874146e-01 5.084258317947387695e-01
3.058000000000000000e+03 5.927705001831054688e+01 1.324025034904479980e+00 -4.952914714813232422e+00 5.818566083908081055e-01 -1.311317443847656250e+00 -1.091310858726501465e+00
3.059000000000000000e+03 5.225694274902343750e+01 1.186363029479980469e+01 3.277130126953125000e+00 1.463553047180175781e+01 5.373797893524169922e+00 1.927243113517761230e+00
3.060000000000000000e+03 5.698479080200195312e+01 2.094314843416213989e-01 -4.089339077472686768e-01 -2.738951444625854492e-01 -2.048487216234207153e-01 -4.542800903320312500e+00
3.061000000000000000e+03 5.879785919189453125e+01 8.796247839927673340e-01 -4.265428066253662109e+00 1.111562997102737427e-01 -1.246281504631042480e+00 -9.289432764053344727e-01
3.062000000000000000e+03 6.465783691406250000e+01 1.457655906677246094e+01 5.213741064071655273e-01 5.899827003479003906e+00 1.926360368728637695e+00 -3.565074443817138672e+00
3.063000000000000000e+03 2.467101097106933594e+01 1.526903033256530762e+00 -8.567491769790649414e-01 2.153722047805786133e+00 3.890918791294097900e-01 -6.753547191619873047e+00
3.064000000000000000e+03 6.188446426391601562e+01 1.342324638366699219e+01 -1.733288407325744629e+00 -2.784904837608337402e-01 -6.035336852073669434e-01 -7.700663805007934570e-01
3.065000000000000000e+03 6.113455581665039062e+01 2.688054561614990234e+00 -2.692741394042968750e+00 1.914905786514282227e+00 -2.333506941795349121e-01 2.812834084033966064e-01
3.066000000000000000e+03 5.872475433349609375e+01 1.223399257659912109e+01 2.373450994491577148e-01 1.023018002510070801e+00 3.781089186668395996e-01 7.799986004829406738e-01
3.067000000000000000e+03 5.739208221435546875e+01 1.109395408630371094e+01 6.901833415031433105e-01 2.010877370834350586e+00 8.103182315826416016e-01 1.111072540283203125e+00
3.068000000000000000e+03 5.441561508178710938e+01 6.928311347961425781e+00 2.457557320594787598e-01 1.147717380523681641e+01 3.516878843307495117e+00 1.618676304817199707e+00
3.069000000000000000e+03 5.089251327514648438e+01 1.031146717071533203e+01 2.960845470428466797e+00 1.888392639160156250e+01 6.553431510925292969e+00 2.248380899429321289e+00
3.070000000000000000e+03 5.941576766967773438e+01 1.270739173889160156e+01 -9.684813208878040314e-03 7.470403909683227539e-01 2.212066650390625000e-01 5.296913385391235352e-01
3.071000000000000000e+03 5.525753021240234375e+01 8.514572143554687500e+00 2.902711629867553711e-01 7.251118659973144531e+00 2.262416839599609375e+00 1.488063335418701172e+00
3.072000000000000000e+03 5.470573043823242188e+01 9.127153396606445312e+00 4.328040480613708496e-01 8.666831016540527344e+00 2.729890584945678711e+00 1.254211306571960449e+00
3.073000000000000000e+03 6.453405761718750000e+01 8.093829154968261719e+00 1.728543996810913086e+00 7.032810688018798828e+00 2.628406524658203125e+00 3.494118452072143555e+00
3.074000000000000000e+03 5.750744628906250000e+01 9.910331726074218750e+00 1.475878208875656128e-01 7.039452195167541504e-01 2.554599046707153320e-01 3.221904337406158447e-01
3.075000000000000000e+03 5.690276718139648438e+01 1.039558982849121094e+01 6.935433745384216309e-01 2.475506067276000977e+00 9.507148861885070801e-01 1.193310737609863281e+00
3.076000000000000000e+03 6.553652191162109375e+01 8.024472236633300781e+00 -1.498456448316574097e-01 1.149467563629150391e+01 3.403449058532714844e+00 1.289058566093444824e+00
3.077000000000000000e+03 5.985498428344726562e+01 1.760568618774414062e+00 -4.450179100036621094e+00 1.013295412063598633e+00 -1.031065106391906738e+00 -8.558220863342285156e-01
3.078000000000000000e+03 6.346099853515625000e+01 4.079368114471435547e+00 -2.404090166091918945e-01 4.035567283630371094e+00 1.138547539710998535e+00 1.570179224014282227e+00
3.079000000000000000e+03 6.315894699096679688e+01 6.227159500122070312e+00 9.653553962707519531e-01 2.909021615982055664e+00 1.162313103675842285e+00 1.603400945663452148e+00
3.080000000000000000e+03 6.460500335693359375e+01 6.964144229888916016e+00 5.751662850379943848e-01 6.889358043670654297e+00 2.239357233047485352e+00 2.143755674362182617e+00
3.081000000000000000e+03 6.370586776733398438e+01 5.780177116394042969e+00 7.161426544189453125e-01 4.165810108184814453e+00 1.464585781097412109e+00 1.723970770835876465e+00
3.082000000000000000e+03 3.686582946777343750e+01 2.347769498825073242e+00 -4.261837005615234375e-01 -1.389817953109741211e+00 -5.448004603385925293e-01 1.209127187728881836e+00
3.083000000000000000e+03 1.013837051391601562e+01 6.110569477081298828e+00 3.213080167770385742e-01 7.736972808837890625e+00 2.417484283447265625e+00 -1.293636322021484375e+00
3.084000000000000000e+03 9.309432029724121094e+00 4.744652271270751953e+00 6.323831081390380859e+00 2.360453605651855469e+00 2.605285406112670898e+00 -1.376365661621093750e+00
3.085000000000000000e+03 5.194746017456054688e+01 1.289389801025390625e+01 2.814153671264648438e+00 1.522415637969970703e+01 5.411493301391601562e+00 1.364161133766174316e+00
3.086000000000000000e+03 3.702511215209960938e+01 3.901744127273559570e+00 -1.173403263092041016e-01 -7.380771636962890625e-01 -2.566252648830413818e-01 6.213626861572265625e-01
3.087000000000000000e+03 4.188339996337890625e+01 -3.676835447549819946e-02 -1.410091161727905273e+00 2.046495676040649414e+00 1.909213960170745850e-01 6.886541247367858887e-01
3.088000000000000000e+03 4.306529998779296875e+01 9.142187833786010742e-01 -2.937612533569335938e-01 3.390471458435058594e+00 9.290130138397216797e-01 1.884189724922180176e+00
3.089000000000000000e+03 5.128387069702148438e+01 1.173456478118896484e+01 2.792745590209960938e+00 2.057678413391113281e+01 7.010859012603759766e+00 1.923668980598449707e+00
3.090000000000000000e+03 5.156167221069335938e+01 1.232839488983154297e+01 2.754235744476318359e+00 1.767771911621093750e+01 6.129586696624755859e+00 8.204935193061828613e-01
3.091000000000000000e+03 4.747810745239257812e+01 5.522102355957031250e+00 2.666617155075073242e+00 4.230479240417480469e+00 2.069128990173339844e+00 2.984927177429199219e+00
3.092000000000000000e+03 4.237597656250000000e+01 -4.963612854480743408e-01 -9.331058263778686523e-01 3.453434944152832031e+00 7.560987472534179688e-01 1.304177641868591309e+00
3.093000000000000000e+03 3.982806015014648438e+01 7.664291381835937500e+00 2.081951824948191643e-03 3.716785460710525513e-02 1.177494134753942490e-02 -1.953329518437385559e-02
3.094000000000000000e+03 4.484538269042968750e+01 3.647195339202880859e+00 2.423602819442749023e+00 3.546663761138916016e+00 1.791079998016357422e+00 2.969599008560180664e+00
3.095000000000000000e+03 4.429910278320312500e+01 1.942049741744995117e+00 1.305280804634094238e+00 3.807173013687133789e+00 1.533736109733581543e+00 2.719132184982299805e+00
3.096000000000000000e+03 4.379869461059570312e+01 2.444416522979736328e+00 2.318158864974975586e+00 3.479655027389526367e+00 1.739344120025634766e+00 2.833269119262695312e+00
3.097000000000000000e+03 4.486074829101562500e+01 2.537354469299316406e+00 2.074037790298461914e+00 3.576656579971313477e+00 1.695208430290222168e+00 2.940666437149047852e+00
3.098000000000000000e+03 4.694553756713867188e+01 4.933809280395507812e+00 2.742134094238281250e+00 3.649474620819091797e+00 1.917482614517211914e+00 2.984633207321166992e+00
3.099000000000000000e+03 4.639784240722656250e+01 5.432735443115234375e+00 2.527657270431518555e+00 2.876741886138916016e+00 1.621319770812988281e+00 2.713766098022460938e+00
3.100000000000000000e+03 4.642066574096679688e+01 4.348874092102050781e+00 2.722219705581665039e+00 3.248213291168212891e+00 1.791129946708679199e+00 3.080511569976806641e+00
3.101000000000000000e+03 5.004959487915039062e+01 8.491559982299804688e+00 1.279901385307312012e+00 1.315577983856201172e+01 4.330704212188720703e+00 3.444499015808105469e+00
3.102000000000000000e+03 3.919998168945312500e+01 5.378439903259277344e+00 5.048312246799468994e-02 4.541360214352607727e-02 2.876901812851428986e-02 2.584017813205718994e-02
3.103000000000000000e+03 3.957357788085937500e+01 -1.633937454223632812e+01 4.746993541717529297e+00 1.490920782089233398e+00 1.871374368667602539e+00 1.361463904380798340e+00
3.104000000000000000e+03 3.524369812011718750e+01 1.503036212921142578e+01 -3.534018278121948242e+00 -1.157798171043395996e+00 -1.407544851303100586e+00 -5.727920681238174438e-02
3.105000000000000000e+03 9.411052703857421875e+00 6.014498710632324219e+00 3.525204896926879883e+00 5.230268478393554688e+00 2.626641988754272461e+00 -4.180707454681396484e+00
3.106000000000000000e+03 3.368120574951171875e+01 -1.662257909774780273e+00 5.205844044685363770e-01 9.459946304559707642e-02 1.845551729202270508e-01 -5.494646430015563965e-01
3.107000000000000000e+03 3.212376022338867188e+01 1.461983680725097656e+01 -2.786766767501831055e+00 -1.344179868698120117e+00 -1.239284038543701172e+00 -6.995437741279602051e-01
3.108000000000000000e+03 2.418748474121093750e+01 6.338901996612548828e+00 6.035200595855712891e+00 1.271008110046386719e+01 5.623584270477294922e+00 8.537359237670898438e+00
3.109000000000000000e+03 2.222518348693847656e+01 5.420886993408203125e+00 4.435220718383789062e+00 1.326588726043701172e+01 5.310332298278808594e+00 1.316704630851745605e+00
3.110000000000000000e+03 2.977498435974121094e+01 1.360039424896240234e+01 -1.045517086982727051e+00 -4.050917029380798340e-01 -4.351826310157775879e-01 -7.457072138786315918e-01
3.111000000000000000e+03 2.547726440429687500e+01 1.637351870536804199e+00 -3.951522350311279297e+00 -9.185351133346557617e-01 -1.461017251014709473e+00 -3.004914999008178711e+00
3.112000000000000000e+03 2.943903923034667969e+01 3.401106357574462891e+00 -5.056970596313476562e+00 -1.504579782485961914e-01 -1.562228560447692871e+00 -1.754113316535949707e+00
3.113000000000000000e+03 3.448446273803710938e+01 7.420740604400634766e+00 -2.679794430732727051e-01 5.559542402625083923e-02 -6.371520459651947021e-02 -3.328819060698151588e-03
3.114000000000000000e+03 3.637509918212890625e+01 8.284435272216796875e+00 -2.274745330214500427e-02 -2.375597506761550903e-02 -1.395102869719266891e-02 8.824157528579235077e-03
3.115000000000000000e+03 3.114309501647949219e+01 3.841200113296508789e+00 -3.243747949600219727e+00 1.127417206764221191e+00 -6.348992586135864258e-01 -4.480641707777976990e-02
3.116000000000000000e+03 2.771787261962890625e+01 1.099174594879150391e+01 -2.574890375137329102e+00 2.433216094970703125e+00 -4.250229522585868835e-02 -4.568269252777099609e-01
3.117000000000000000e+03 2.711459159851074219e+01 1.044889259338378906e+01 -2.477457046508789062e+00 3.936141967773437500e+00 4.376054704189300537e-01 3.172818422317504883e-01
3.118000000000000000e+03 3.015656852722167969e+01 1.297207546234130859e+01 -2.190663099288940430e+00 -1.483455538749694824e+00 -1.102235555648803711e+00 -1.703245997428894043e+00
3.119000000000000000e+03 2.930205917358398438e+01 1.135175800323486328e+01 -3.567996501922607422e+00 -1.953078866004943848e+00 -1.656322598457336426e+00 -2.748558998107910156e+00
3.120000000000000000e+03 3.074193382263183594e+01 4.371778488159179688e+00 -3.480734586715698242e+00 3.075209259986877441e-01 -9.519640803337097168e-01 -1.048177361488342285e+00
3.121000000000000000e+03 3.390865707397460938e+01 6.928433418273925781e+00 -5.562317371368408203e-01 1.021516248583793640e-01 -1.362240314483642578e-01 -1.033815648406744003e-02
3.122000000000000000e+03 3.437061309814453125e+01 6.470224380493164062e+00 -6.459321975708007812e-01 1.654573827981948853e-01 -1.441424489021301270e-01 1.248596385121345520e-01
3.123000000000000000e+03 2.953778457641601562e+01 1.248741054534912109e+01 -2.086087942123413086e+00 -9.307041764259338379e-01 -9.050376415252685547e-01 -1.763727307319641113e+00
3.124000000000000000e+03 3.138233184814453125e+01 4.860459804534912109e+00 -2.733306884765625000e+00 3.202239274978637695e-01 -7.239248752593994141e-01 -5.942658782005310059e-01
3.125000000000000000e+03 3.209347915649414062e+01 5.287066936492919922e+00 -1.931747317314147949e+00 3.932459056377410889e-01 -4.615504145622253418e-01 -3.051020801067352295e-01
3.126000000000000000e+03 2.694901466369628906e+01 9.212873458862304688e+00 -9.953763335943222046e-02 2.669219493865966797e+00 7.709045410156250000e-01 1.149057984352111816e+00
3.127000000000000000e+03 2.540538406372070312e+01 8.686913490295410156e+00 -2.923361063003540039e-01 7.566651344299316406e+00 2.182294607162475586e+00 3.533419847488403320e+00
3.128000000000000000e+03 4.237338256835937500e+01 1.307300662994384766e+01 -1.522492408752441406e+00 3.717517852783203125e-01 -3.452221751213073730e-01 -2.380868345499038696e-01
3.129000000000000000e+03 4.083485794067382812e+01 1.334862518310546875e+01 -1.583511710166931152e+00 4.258846938610076904e-01 -3.472881019115447998e-01 3.274115547537803650e-02
3.130000000000000000e+03 2.576413726806640625e+01 1.416270446777343750e+01 3.386073589324951172e+00 1.195385646820068359e+01 4.601978778839111328e+00 7.705183625221252441e-01
3.131000000000000000e+03 1.704848289489746094e+01 3.765020847320556641e+00 1.158094215393066406e+01 1.186279654502868652e+00 3.830166339874267578e+00 -3.077938556671142578e-01
3.132000000000000000e+03 1.671937751770019531e+01 4.486443042755126953e+00 5.327419757843017578e+00 1.357240527868270874e-01 1.638943076133728027e+00 -4.502532184123992920e-01
3.133000000000000000e+03 1.332359981536865234e+01 4.261107444763183594e+00 7.058590412139892578e+00 -3.040435075759887695e+00 1.205446600914001465e+00 -2.629120826721191406e+00
3.134000000000000000e+03 2.414473152160644531e+01 1.220287799835205078e+01 -1.013545274734497070e+00 8.781173706054687500e+00 2.330288648605346680e+00 2.961900234222412109e+00
3.135000000000000000e+03 2.473427200317382812e+01 1.283690452575683594e+01 2.114840447902679443e-01 1.092983055114746094e+01 3.342394590377807617e+00 3.373321056365966797e+00
3.136000000000000000e+03 2.317131614685058594e+01 1.674660873413085938e+01 -3.025983810424804688e+00 -1.964128464460372925e-01 -9.667189717292785645e-01 -1.650850892066955566e+00
3.137000000000000000e+03 1.189248085021972656e+01 9.162987709045410156e+00 -7.397418618202209473e-01 -3.855242133140563965e-01 -3.375798165798187256e-01 -5.060071349143981934e-01
3.138000000000000000e+03 1.021331691741943359e+01 8.597064971923828125e+00 -7.940065264701843262e-01 2.267593383789062500e+00 4.420760571956634521e-01 -4.983591139316558838e-01
3.139000000000000000e+03 9.770564079284667969e+00 7.969575405120849609e+00 -5.853779911994934082e-01 2.983546018600463867e+00 7.194504141807556152e-01 -1.086223006248474121e+00
3.140000000000000000e+03 4.076310348510742188e+01 -1.411980819702148438e+01 -3.479176461696624756e-01 9.376422882080078125e+00 2.708551645278930664e+00 1.284663975238800049e-01
3.141000000000000000e+03 4.161415863037109375e+01 -1.339799022674560547e+01 1.568373441696166992e-01 7.367114067077636719e+00 2.257185459136962891e+00 1.017252206802368164e+00
3.142000000000000000e+03 1.152811431884765625e+01 1.087495613098144531e+01 -1.093307733535766602e+00 3.877115845680236816e-01 -2.116788476705551147e-01 -5.108466744422912598e-01
3.143000000000000000e+03 2.057756233215332031e+01 1.646686935424804688e+01 -2.693760156631469727e+00 -4.822469949722290039e-01 -9.528021216392517090e-01 -1.043459534645080566e+00
3.144000000000000000e+03 1.710348320007324219e+01 1.439128494262695312e+01 -2.179807662963867188e+00 -6.978436112403869629e-01 -8.632954359054565430e-01 -1.124771833419799805e+00
3.145000000000000000e+03 3.775268554687500000e+01 -1.616997909545898438e+01 1.229041457176208496e+00 1.199777364730834961e+00 7.286456823348999023e-01 -9.785023927688598633e-01
3.146000000000000000e+03 3.844866180419921875e+01 -1.668071746826171875e+01 3.097034215927124023e+00 9.370792508125305176e-01 1.210234045982360840e+00 -2.524166405200958252e-01
3.147000000000000000e+03 1.980656814575195312e+01 8.527050018310546875e+00 -4.482595920562744141e+00 -1.291654706001281738e+00 -1.732275128364562988e+00 -3.008862495422363281e+00
3.148000000000000000e+03 2.042786407470703125e+01 9.039386749267578125e+00 -4.935904979705810547e+00 1.181287784129381180e-02 -1.477227687835693359e+00 -2.604066848754882812e+00
3.149000000000000000e+03 2.124275588989257812e+01 1.069415760040283203e+01 -4.698377609252929688e+00 -1.479746937751770020e+00 -1.853437304496765137e+00 -2.645258426666259766e+00
3.150000000000000000e+03 2.146684455871582031e+01 8.905659675598144531e+00 -3.781240224838256836e+00 3.750283241271972656e+00 -9.287111461162567139e-03 -6.522434353828430176e-01
3.151000000000000000e+03 1.343865966796875000e+01 5.152233123779296875e+00 9.464610219001770020e-01 -1.291012167930603027e+00 -1.033653318881988525e-01 -5.156958699226379395e-01
3.152000000000000000e+03 1.500841140747070312e+01 4.102670192718505859e+00 6.775473594665527344e+00 -2.947737932205200195e+00 1.148320794105529785e+00 -2.893982172012329102e+00
3.153000000000000000e+03 1.362263011932373047e+01 1.084773349761962891e+01 -1.215631365776062012e+00 -8.326573967933654785e-01 -6.144866347312927246e-01 -1.056071877479553223e+00
3.154000000000000000e+03 1.676181030273437500e+01 6.256001949310302734e+00 -2.574357032775878906e+00 -2.664260864257812500e+00 -1.571585416793823242e+00 -3.024236202239990234e+00
3.155000000000000000e+03 1.257205104827880859e+01 1.082203578948974609e+01 -1.102674245834350586e+00 -2.902443408966064453e-01 -4.178755879402160645e-01 -7.347117066383361816e-01
3.156000000000000000e+03 1.878977203369140625e+01 1.630484390258789062e+01 -2.176565647125244141e+00 -4.379921853542327881e-01 -7.843673229217529297e-01 -8.004808425903320312e-01
3.157000000000000000e+03 1.847183418273925781e+01 7.584305763244628906e+00 -4.146217346191406250e+00 -2.605631113052368164e+00 -2.025554656982421875e+00 -3.470898151397705078e+00
3.158000000000000000e+03 2.287953758239746094e+01 1.109391307830810547e+01 -3.083648920059204102e+00 4.485791206359863281e+00 4.206427037715911865e-01 8.981646299362182617e-01
3.159000000000000000e+03 1.431892108917236328e+01 1.253971195220947266e+01 -1.640214323997497559e+00 -6.667158007621765137e-01 -6.920790076255798340e-01 -9.406567811965942383e-01
3.160000000000000000e+03 1.730533218383789062e+01 6.818582057952880859e+00 -3.702541828155517578e+00 -2.987119913101196289e+00 -2.006898641586303711e+00 -3.341625213623046875e+00
3.161000000000000000e+03 3.073622131347656250e+01 -4.988565444946289062e+00 -5.796580389142036438e-02 -6.930052638053894043e-01 -2.252913266420364380e-01 2.683952450752258301e-01
3.162000000000000000e+03 3.233588027954101562e+01 2.743551135063171387e-01 3.411178827285766602e+00 8.508697748184204102e-01 1.278614640235900879e+00 2.704194068908691406e+00
3.163000000000000000e+03 3.210436248779296875e+01 -9.699302673339843750e+00 1.340724229812622070e+00 1.941718816757202148e+00 9.847329258918762207e-01 -1.775185942649841309e+00
3.164000000000000000e+03 2.985554885864257812e+01 -4.526361465454101562e+00 2.814926803112030029e-01 2.066891670227050781e+00 7.045152783393859863e-01 1.481617540121078491e-01
3.165000000000000000e+03 4.182266235351562500e+01 -1.098851203918457031e+01 -1.538002133369445801e+00 5.597325325012207031e+00 1.217796921730041504e+00 2.186198472976684570e+00
3.166000000000000000e+03 4.113921356201171875e+01 -1.133479213714599609e+01 -1.199656724929809570e+00 5.160800933837890625e+00 1.188343286514282227e+00 1.483472228050231934e+00
3.167000000000000000e+03 4.010833740234375000e+01 -1.090997695922851562e+01 -6.177608370780944824e-01 1.704708695411682129e+00 3.260843455791473389e-01 4.595250785350799561e-01
3.168000000000000000e+03 3.591516876220703125e+01 -1.943016171455383301e+00 3.785504996776580811e-01 -1.289510846138000488e+00 -2.732881009578704834e-01 -7.531318068504333496e-02
3.169000000000000000e+03 3.487022399902343750e+01 -1.719015479087829590e+00 3.515068292617797852e-01 -6.047646403312683105e-01 -7.597734034061431885e-02 -1.064970046281814575e-01
3.170000000000000000e+03 3.132188987731933594e+01 -6.483007907867431641e+00 2.729121744632720947e-01 -3.383222222328186035e-01 -1.962301880121231079e-02 -9.961975365877151489e-02
3.171000000000000000e+03 3.820457839965820312e+01 -7.328300476074218750e+00 -1.392831802368164062e+00 -3.525017261505126953e+00 -1.475354671478271484e+00 2.293367862701416016e+00
3.172000000000000000e+03 3.268770599365234375e+01 -1.206242084503173828e+01 1.116847276687622070e+00 2.418784618377685547e+00 1.060689568519592285e+00 -1.674145221710205078e+00
3.173000000000000000e+03 3.589672470092773438e+01 -2.948392629623413086e+00 2.554367780685424805e-01 -1.395355939865112305e+00 -3.419757485389709473e-01 1.500339359045028687e-01
3.174000000000000000e+03 3.753924560546875000e+01 -4.766372203826904297e+00 3.261314928531646729e-01 -2.431290388107299805e+00 -6.315476894378662109e-01 7.139660120010375977e-01
3.175000000000000000e+03 3.983528900146484375e+01 -8.297097206115722656e+00 -1.214985489845275879e+00 1.564334845170378685e-03 -3.640263676643371582e-01 1.671819210052490234e+00
3.176000000000000000e+03 7.951333618164062500e+01 3.256225585937500000e+01 -2.248084405437111855e-03 7.325042247772216797e+00 2.196838140487670898e+00 1.578010804951190948e-02
3.177000000000000000e+03 7.955746459960937500e+01 4.122361755371093750e+01 -1.792202703654766083e-02 7.485373973846435547e+00 2.240235567092895508e+00 -6.777337752282619476e-03
3.178000000000000000e+03 7.877321624755859375e+01 3.947514724731445312e+01 1.465695444494485855e-02 7.351984500885009766e+00 2.209992408752441406e+00 1.817219331860542297e-02
3.179000000000000000e+03 7.824659729003906250e+01 3.685863113403320312e+01 9.612401481717824936e-04 7.268969058990478516e+00 2.180979013442993164e+00 2.927000634372234344e-02
3.180000000000000000e+03 7.852635955810546875e+01 3.499901962280273438e+01 -1.071661151945590973e-02 7.269687652587890625e+00 2.177691459655761719e+00 2.871103957295417786e-02
3.181000000000000000e+03 7.859722137451171875e+01 3.109213256835937500e+01 -2.771881874650716782e-03 7.167691230773925781e+00 2.149475812911987305e+00 5.622301250696182251e-02
3.182000000000000000e+03 7.959000396728515625e+01 1.163972568511962891e+01 -7.669324427843093872e-02 7.604261875152587891e+00 2.258270502090454102e+00 3.296846151351928711e-02
3.183000000000000000e+03 7.876340484619140625e+01 1.002801513671875000e+01 -2.559612989425659180e-01 7.892579555511474609e+00 2.290985345840454102e+00 4.885220527648925781e-01
3.184000000000000000e+03 7.960162353515625000e+01 1.324939823150634766e+01 -4.463702440261840820e-02 7.498996257781982422e+00 2.236307621002197266e+00 -6.044134870171546936e-02
3.185000000000000000e+03 7.961748504638671875e+01 1.405448532104492188e+01 2.194584719836711884e-02 7.338287830352783203e+00 2.208070039749145508e+00 -8.689607679843902588e-02
3.186000000000000000e+03 7.963226318359375000e+01 1.565413665771484375e+01 2.315348573029041290e-02 6.991037845611572266e+00 2.104257345199584961e+00 -6.704212725162506104e-02
3.187000000000000000e+03 7.889920806884765625e+01 1.568834590911865234e+01 1.834914088249206543e-02 6.952508926391601562e+00 2.091257333755493164e+00 -1.773986965417861938e-01
3.188000000000000000e+03 7.960285949707031250e+01 1.804847145080566406e+01 5.467705195769667625e-04 6.701775074005126953e+00 2.010696649551391602e+00 -1.745902188122272491e-02
3.189000000000000000e+03 7.886940765380859375e+01 1.724845314025878906e+01 2.719678916037082672e-02 6.774640560150146484e+00 2.040551185607910156e+00 -9.674448519945144653e-02
3.190000000000000000e+03 7.954409027099609375e+01 1.967749214172363281e+01 2.757800975814461708e-04 6.673444747924804688e+00 2.002116203308105469e+00 1.117161009460687637e-02
3.191000000000000000e+03 7.874143981933593750e+01 1.885815048217773438e+01 3.210142999887466431e-02 6.700080394744873047e+00 2.019654512405395508e+00 -1.820065453648567200e-02
3.192000000000000000e+03 7.954757690429687500e+01 2.048636054992675781e+01 7.944936864078044891e-03 6.689874649047851562e+00 2.009345769882202148e+00 1.756951771676540375e-02
3.193000000000000000e+03 7.959546661376953125e+01 2.369217300415039062e+01 2.061508130282163620e-03 6.867897987365722656e+00 2.060987949371337891e+00 3.022724203765392303e-02
3.194000000000000000e+03 7.959185028076171875e+01 2.448901557922363281e+01 -1.132120378315448761e-03 6.920977592468261719e+00 2.075953722000122070e+00 3.144677355885505676e-02
3.195000000000000000e+03 7.876527404785156250e+01 2.454711723327636719e+01 -1.198191748699173331e-04 6.893461227416992188e+00 2.068002462387084961e+00 7.899625599384307861e-02
3.196000000000000000e+03 7.872307586669921875e+01 2.610826110839843750e+01 -4.040020983666181564e-03 6.975672245025634766e+00 2.091489553451538086e+00 7.618895918130874634e-02
3.197000000000000000e+03 7.947536468505859375e+01 2.851165962219238281e+01 -1.983222085982561111e-03 7.156381607055664062e+00 2.146319389343261719e+00 2.908968180418014526e-02
3.198000000000000000e+03 7.858227539062500000e+01 2.769512939453125000e+01 -5.676024127751588821e-03 7.035395145416259766e+00 2.108915805816650391e+00 7.653830945491790771e-02
3.199000000000000000e+03 7.948891448974609375e+01 3.013358306884765625e+01 -2.690559951588511467e-03 7.228399753570556641e+00 2.167712688446044922e+00 2.650365978479385376e-02
3.200000000000000000e+03 7.832723236083984375e+01 2.945498657226562500e+01 -6.893376819789409637e-03 7.087086677551269531e+00 2.124058008193969727e+00 7.466763257980346680e-02
3.201000000000000000e+03 7.896620178222656250e+01 4.441668987274169922e+00 2.466312795877456665e-01 9.686157226562500000e+00 2.979836463928222656e+00 -1.608116865158081055e+00
3.202000000000000000e+03 7.965687561035156250e+01 5.208363056182861328e+00 2.004642933607101440e-01 7.570519447326660156e+00 2.331295013427734375e+00 -5.200683474540710449e-01
3.203000000000000000e+03 7.961186218261718750e+01 7.594003677368164062e+00 3.631580248475074768e-02 5.792684078216552734e+00 1.748700022697448730e+00 4.687057808041572571e-02
3.204000000000000000e+03 7.885125732421875000e+01 6.732604503631591797e+00 3.955355584621429443e-01 8.146758079528808594e+00 2.562687873840332031e+00 -5.648891329765319824e-01
3.205000000000000000e+03 7.864817047119140625e+01 -3.623607254028320312e+01 2.392404247075319290e-03 6.759665012359619141e+00 2.028617143630981445e+00 2.680115774273872375e-02
3.206000000000000000e+03 7.955884552001953125e+01 -3.561327743530273438e+01 -1.524813123978674412e-03 6.847696304321289062e+00 2.053851604461669922e+00 1.036218367516994476e-02
3.207000000000000000e+03 7.960913848876953125e+01 -3.247604370117187500e+01 -6.091848015785217285e-03 6.944966316223144531e+00 2.081662416458129883e+00 1.193829439580440521e-02
3.208000000000000000e+03 7.827228546142578125e+01 -3.872442626953125000e+01 8.414012379944324493e-03 6.690681934356689453e+00 2.009728670120239258e+00 1.960155181586742401e-02
3.209000000000000000e+03 7.855545806884765625e+01 -4.030451965332031250e+01 6.745920050889253616e-03 6.683600425720214844e+00 2.007103919982910156e+00 2.696757670491933823e-03
3.210000000000000000e+03 7.842906188964843750e+01 -4.106483078002929688e+01 -1.749874674715101719e-03 6.684947013854980469e+00 2.004959106445312500e+00 -8.018457330763339996e-03
3.211000000000000000e+03 7.959749603271484375e+01 -3.089950180053710938e+01 -5.229495000094175339e-03 7.011291027069091797e+00 2.101818561553955078e+00 1.637646742165088654e-02
3.212000000000000000e+03 7.957339477539062500e+01 -2.930986595153808594e+01 -4.188280086964368820e-03 7.098250865936279297e+00 2.128218650817871094e+00 2.324461936950683594e-02
3.213000000000000000e+03 7.957224273681640625e+01 -2.769970893859863281e+01 -3.747840877622365952e-03 7.204828739166259766e+00 2.160324335098266602e+00 2.747830748558044434e-02
3.214000000000000000e+03 7.957979583740234375e+01 -2.608683204650878906e+01 -5.043536890298128128e-03 7.324867725372314453e+00 2.195947170257568359e+00 2.817497402429580688e-02
3.215000000000000000e+03 7.958238220214843750e+01 -2.447626686096191406e+01 -6.275010295212268829e-03 7.438270092010498047e+00 2.229598522186279297e+00 2.225950174033641815e-02
3.216000000000000000e+03 7.873626708984375000e+01 -2.613717842102050781e+01 3.722127759829163551e-03 7.181680202484130859e+00 2.155620574951171875e+00 8.726897090673446655e-02
3.217000000000000000e+03 7.958141326904296875e+01 -2.286668205261230469e+01 -8.374880068004131317e-03 7.506362438201904297e+00 2.249396324157714844e+00 3.143064677715301514e-03
3.218000000000000000e+03 7.874621582031250000e+01 -2.451338958740234375e+01 -7.552560884505510330e-03 7.286103248596191406e+00 2.183565139770507812e+00 7.181819528341293335e-02
3.219000000000000000e+03 7.958812713623046875e+01 -2.125741195678710938e+01 -1.033857185393571854e-02 7.471998691558837891e+00 2.238497972488403320e+00 -3.231846913695335388e-02
3.220000000000000000e+03 7.874110412597656250e+01 -2.289153861999511719e+01 -2.768070809543132782e-02 7.365036487579345703e+00 2.201206684112548828e+00 2.432822249829769135e-02
3.221000000000000000e+03 7.962609100341796875e+01 -1.885643386840820312e+01 -9.565655142068862915e-03 7.105017662048339844e+00 2.128635644912719727e+00 -9.911792725324630737e-02
3.222000000000000000e+03 7.878519439697265625e+01 -2.045780181884765625e+01 -6.061845645308494568e-02 7.352486133575439453e+00 2.187560319900512695e+00 -1.266464143991470337e-01
3.223000000000000000e+03 7.964260101318359375e+01 -1.725552368164062500e+01 -5.300507880747318268e-03 6.617568969726562500e+00 1.983680486679077148e+00 -1.293406784534454346e-01
3.224000000000000000e+03 7.887966918945312500e+01 -1.886543083190917969e+01 -5.516327917575836182e-02 7.197970867156982422e+00 2.142842292785644531e+00 -2.413592934608459473e-01
3.225000000000000000e+03 7.963275909423828125e+01 -1.565310668945312500e+01 1.173376338556408882e-03 6.106921672821044922e+00 1.832428574562072754e+00 -1.052529439330101013e-01
3.226000000000000000e+03 7.893817901611328125e+01 -1.728192710876464844e+01 -1.320698950439691544e-02 6.910228252410888672e+00 2.069106340408325195e+00 -3.133780360221862793e-01
3.227000000000000000e+03 7.962592315673828125e+01 -1.485436439514160156e+01 2.847451157867908478e-02 5.922374248504638672e+00 1.785254597663879395e+00 -7.172960042953491211e-02
3.228000000000000000e+03 7.962140655517578125e+01 -1.405464649200439453e+01 1.239110715687274933e-02 5.818266391754150391e+00 1.749197244644165039e+00 -2.916176058351993561e-02
3.229000000000000000e+03 7.961882781982421875e+01 -1.325482940673828125e+01 3.539737313985824585e-02 5.813594818115234375e+00 1.754697680473327637e+00 2.275048382580280304e-02
3.230000000000000000e+03 7.961579895019531250e+01 -1.245515632629394531e+01 2.286728657782077789e-02 5.922903060913085938e+00 1.783731102943420410e+00 8.318420499563217163e-02
3.231000000000000000e+03 7.961159515380859375e+01 -1.165498256683349609e+01 3.432412818074226379e-02 6.154537677764892578e+00 1.856658577919006348e+00 1.432880163192749023e-01
3.232000000000000000e+03 7.960734558105468750e+01 -1.085344982147216797e+01 2.214390411972999573e-02 6.498405933380126953e+00 1.956164956092834473e+00 2.002723515033721924e-01
3.233000000000000000e+03 7.960536956787109375e+01 -1.005066776275634766e+01 2.812499739229679108e-02 6.945840358734130859e+00 2.092189550399780273e+00 2.512618005275726318e-01
3.234000000000000000e+03 7.960847473144531250e+01 -9.247104644775390625e+00 9.406099095940589905e-03 7.475528717041015625e+00 2.245480298995971680e+00 2.876217067241668701e-01
3.235000000000000000e+03 7.961643981933593750e+01 -8.443515777587890625e+00 2.360710501670837402e-02 8.083958625793457031e+00 2.432269573211669922e+00 3.215864002704620361e-01
3.236000000000000000e+03 7.885137939453125000e+01 -8.485413551330566406e+00 4.596316069364547729e-02 8.218552589416503906e+00 2.479354858398437500e+00 8.337520360946655273e-01
3.237000000000000000e+03 7.964907836914062500e+01 -6.044323444366455078e+00 -3.270816802978515625e-02 1.018313503265380859e+01 3.045128107070922852e+00 3.311178386211395264e-01
3.238000000000000000e+03 7.965585327148437500e+01 -5.246592521667480469e+00 3.331213444471359253e-02 1.092543506622314453e+01 3.287624120712280273e+00 3.363813757896423340e-01
3.239000000000000000e+03 7.965766143798828125e+01 -4.448544502258300781e+00 -4.277001693844795227e-02 1.165791606903076172e+01 3.484543800354003906e+00 3.167988657951354980e-01
3.240000000000000000e+03 7.965256500244140625e+01 -3.648734807968139648e+00 4.067638516426086426e-02 1.238498020172119141e+01 3.727697134017944336e+00 3.226237595081329346e-01
3.241000000000000000e+03 7.963987731933593750e+01 -2.844660043716430664e+00 -6.654685735702514648e-02 1.305343151092529297e+01 3.896065473556518555e+00 2.810607552528381348e-01
3.242000000000000000e+03 7.962356567382812500e+01 -2.036833763122558594e+00 3.525947406888008118e-02 1.363756942749023438e+01 4.101848602294921875e+00 2.555403411388397217e-01
3.243000000000000000e+03 7.961010742187500000e+01 -1.226113200187683105e+00 -1.031836420297622681e-01 1.409560108184814453e+01 4.197725296020507812e+00 1.751269251108169556e-01
3.244000000000000000e+03 7.960284423828125000e+01 -4.143487513065338135e-01 -2.760471776127815247e-02 1.434753608703613281e+01 4.295979499816894531e+00 4.381456971168518066e-02
3.245000000000000000e+03 7.960295104980468750e+01 3.932851254940032959e-01 -1.234328001737594604e-01 1.432736396789550781e+01 4.261179447174072266e+00 -1.099663004279136658e-01
3.246000000000000000e+03 7.960567474365234375e+01 1.199307203292846680e+00 -1.080139502882957458e-01 1.393009662628173828e+01 4.146625041961669922e+00 -3.490836620330810547e-01
3.247000000000000000e+03 7.960019683837890625e+01 2.010174512863159180e+00 -9.805070608854293823e-02 1.308219909667968750e+01 3.895244598388671875e+00 -5.615683197975158691e-01
3.248000000000000000e+03 7.960762786865234375e+01 2.819014310836791992e+00 -6.131076067686080933e-02 1.190243053436279297e+01 3.552335977554321289e+00 -7.270020246505737305e-01
3.249000000000000000e+03 7.891287231445312500e+01 3.670139312744140625e+00 -4.118706658482551575e-02 1.059179687500000000e+01 3.165183067321777344e+00 -1.876662969589233398e+00
3.250000000000000000e+03 7.820564270019531250e+01 8.344856262207031250e+00 7.107882499694824219e-01 8.914156913757324219e+00 2.887483358383178711e+00 4.210808575153350830e-01
3.251000000000000000e+03 7.896265411376953125e+01 3.877720642089843750e+01 -1.252455357462167740e-02 7.373732566833496094e+00 2.208362340927124023e+00 3.167359158396720886e-03
3.252000000000000000e+03 7.831843566894531250e+01 3.585737228393554688e+01 5.684536881744861603e-03 7.262691974639892578e+00 2.180512905120849609e+00 2.701631747186183929e-02
3.253000000000000000e+03 7.849263000488281250e+01 3.354992294311523438e+01 -5.340624600648880005e-03 7.243432044982910156e+00 2.171427488327026367e+00 3.679110482335090637e-02
3.254000000000000000e+03 7.868821716308593750e+01 -3.471475982666015625e+01 6.814682274125516415e-04 6.792766094207763672e+00 2.038034200668334961e+00 2.923277951776981354e-02
3.255000000000000000e+03 2.541698074340820312e+01 -5.024924755096435547e+00 3.375682830810546875e+00 1.391324806213378906e+01 5.186679363250732422e+00 -3.624575376510620117e+00
3.256000000000000000e+03 4.877283871173858643e-01 4.043083953857421875e+01 1.155332894995808601e-03 1.131793856620788574e+00 3.398847579956054688e-01 4.544684197753667831e-03
3.257000000000000000e+03 5.056073665618896484e-01 3.962751770019531250e+01 1.790667651221156120e-03 1.141085624694824219e+00 3.428628742694854736e-01 6.933023221790790558e-03
3.258000000000000000e+03 5.505209565162658691e-01 3.881102752685546875e+01 4.599050444085150957e-04 1.152814149856567383e+00 3.459822237491607666e-01 8.807049132883548737e-03
3.259000000000000000e+03 5.420753359794616699e-01 3.800158309936523438e+01 1.086505013518035412e-03 1.165746092796325684e+00 3.500497639179229736e-01 9.796372614800930023e-03
3.260000000000000000e+03 4.827147424221038818e-01 3.720572662353515625e+01 1.100110894185490906e-04 1.181806445121765137e+00 3.545749485492706299e-01 1.089114230126142502e-02
3.261000000000000000e+03 4.344155490398406982e-01 3.641324234008789062e+01 2.049242379143834114e-03 1.202361702919006348e+00 3.613232970237731934e-01 1.251821592450141907e-02
3.262000000000000000e+03 1.437554955482482910e+00 3.482709503173828125e+01 3.074528183788061142e-03 1.229633808135986328e+00 3.698125183582305908e-01 4.457254707813262939e-02
3.263000000000000000e+03 4.491623342037200928e-01 3.323006057739257812e+01 3.135258331894874573e-03 1.310048222541809082e+00 3.939550220966339111e-01 1.826592348515987396e-02
3.264000000000000000e+03 4.401938319206237793e-01 3.242402267456054688e+01 -1.951681915670633316e-03 1.344542503356933594e+00 4.027772247791290283e-01 1.971510611474514008e-02
3.265000000000000000e+03 4.343826174736022949e-01 3.162157058715820312e+01 3.259846707805991173e-03 1.381458044052124023e+00 4.154153764247894287e-01 2.052493020892143250e-02
3.266000000000000000e+03 4.294131994247436523e-01 3.082108116149902344e+01 -2.230553654953837395e-03 1.421057224273681641e+00 4.256479740142822266e-01 2.187671884894371033e-02
3.267000000000000000e+03 4.238916933536529541e-01 3.002097511291503906e+01 3.086382988840341568e-03 1.462672352790832520e+00 4.397276341915130615e-01 2.234031818807125092e-02
3.268000000000000000e+03 4.185307025909423828e-01 2.922036552429199219e+01 -2.519304398447275162e-03 1.506433010101318359e+00 4.511741101741790771e-01 2.321125008165836334e-02
3.269000000000000000e+03 4.161828458309173584e-01 2.841915130615234375e+01 2.630235627293586731e-03 1.551221251487731934e+00 4.661554396152496338e-01 2.303861267864704132e-02
3.270000000000000000e+03 4.211145043373107910e-01 2.761491584777832031e+01 -9.680068469606339931e-04 1.597837686538696289e+00 4.790608882904052734e-01 2.487120777368545532e-02
3.271000000000000000e+03 4.361467361450195312e-01 2.680323982238769531e+01 2.454541157931089401e-03 1.646095395088195801e+00 4.945650100708007812e-01 2.603792585432529449e-02
3.272000000000000000e+03 4.537208676338195801e-01 2.598473167419433594e+01 -2.081355545669794083e-03 1.694152832031250000e+00 5.076214671134948730e-01 2.678140252828598022e-02
3.273000000000000000e+03 4.435836672782897949e-01 2.516960716247558594e+01 2.887462906073778868e-04 1.739812731742858887e+00 5.220304727554321289e-01 2.487110532820224762e-02
3.274000000000000000e+03 4.083468616008758545e-01 2.436029243469238281e+01 -2.571567660197615623e-03 1.786106944084167480e+00 5.350605845451354980e-01 2.319857291877269745e-02
3.275000000000000000e+03 3.834782242774963379e-01 2.355682754516601562e+01 -6.919964798726141453e-04 1.831340193748474121e+00 5.491944551467895508e-01 1.942067220807075500e-02
3.276000000000000000e+03 3.774118423461914062e-01 2.276017379760742188e+01 -3.238550620153546333e-03 1.870523810386657715e+00 5.601855516433715820e-01 1.572952978312969208e-02
3.277000000000000000e+03 1.620080351829528809e+00 -3.653557205200195312e+01 -7.277717348188161850e-03 -6.893215179443359375e-01 -2.089797705411911011e-01 4.457090049982070923e-03
3.278000000000000000e+03 3.932943642139434814e-01 2.116061019897460938e+01 -5.375456996262073517e-03 1.923112154006958008e+00 5.753210186958312988e-01 7.159410044550895691e-03
3.279000000000000000e+03 1.249416112899780273e+00 3.629157257080078125e+01 2.047807676717638969e-03 1.197890400886535645e+00 3.599814772605895996e-01 3.002290986478328705e-02
3.280000000000000000e+03 3.547200858592987061e-01 1.796698379516601562e+01 -6.688299123197793961e-03 1.865865230560302734e+00 5.577530860900878906e-01 -2.380666881799697876e-02
3.281000000000000000e+03 3.825958371162414551e-01 1.556961536407470703e+01 -7.149002514779567719e-03 1.583963036537170410e+00 4.730442166328430176e-01 -6.762779504060745239e-02
3.282000000000000000e+03 4.200801253318786621e-01 -2.038474082946777344e+01 2.628972753882408142e-03 -6.999976038932800293e-01 -2.092105895280838013e-01 -1.240450143814086914e-02
3.283000000000000000e+03 4.210062623023986816e-01 -2.199286270141601562e+01 1.820697332732379436e-03 -7.432859539985656738e-01 -2.224395722150802612e-01 -9.637097828090190887e-03
3.284000000000000000e+03 4.996308982372283936e-01 -4.047541046142578125e+01 -1.153503544628620148e-02 -8.100571632385253906e-01 -2.464776635169982910e-01 -8.912023156881332397e-03
3.285000000000000000e+03 3.992514610290527344e-01 -1.156630992889404297e+01 -1.549236942082643509e-03 -3.077793717384338379e-01 -9.279858320951461792e-02 -1.973791979253292084e-02
3.286000000000000000e+03 1.199962258338928223e+00 -1.160137844085693359e+01 3.428514173720031977e-04 -2.799420952796936035e-01 -8.387977629899978638e-02 -5.722915753722190857e-02
3.287000000000000000e+03 3.999293148517608643e-01 -1.236649990081787109e+01 1.439614221453666687e-03 -3.485442996025085449e-01 -1.041314005851745605e-01 -2.005045302212238312e-02
3.288000000000000000e+03 1.202356934547424316e+00 -1.318620300292968750e+01 1.763159525580704212e-03 -3.488992750644683838e-01 -1.041408404707908630e-01 -5.822680145502090454e-02
3.289000000000000000e+03 4.004223048686981201e-01 -1.396740531921386719e+01 1.816920470446348190e-03 -4.303444325923919678e-01 -1.285582482814788818e-01 -1.984340511262416840e-02
3.290000000000000000e+03 1.222066402435302734e+00 -1.636765098571777344e+01 3.993472550064325333e-03 -4.812530577182769775e-01 -1.431778669357299805e-01 -5.266818776726722717e-02
3.291000000000000000e+03 4.140460193157196045e-01 -1.797754859924316406e+01 -1.494664349593222141e-03 -6.149830222129821777e-01 -1.849433034658432007e-01 -1.592335291206836700e-02
3.292000000000000000e+03 1.154578566551208496e+00 2.190355491638183594e+01 -1.226581819355487823e-02 1.759545207023620605e+00 5.241838097572326660e-01 3.178387135267257690e-02
3.293000000000000000e+03 3.634891510009765625e-01 1.955754280090332031e+01 -5.112768150866031647e-03 1.927856683731079102e+00 5.768231749534606934e-01 -6.550288759171962738e-03
3.294000000000000000e+03 3.959133625030517578e-01 1.397149753570556641e+01 -8.693930692970752716e-03 1.242569684982299805e+00 3.701627254486083984e-01 -1.018210723996162415e-01
3.295000000000000000e+03 3.929694592952728271e-01 1.236392688751220703e+01 -8.283266797661781311e-03 7.657914161682128906e-01 2.272524386644363403e-01 -1.342653334140777588e-01
3.296000000000000000e+03 1.203525781631469727e+00 1.399922657012939453e+01 -4.274386540055274963e-02 1.165183305740356445e+00 3.367318212985992432e-01 -2.854685187339782715e-01
3.297000000000000000e+03 3.898688554763793945e-01 1.075324535369873047e+01 -5.714474245905876160e-03 1.712764948606491089e-01 4.966860637068748474e-02 -1.539740264415740967e-01
3.298000000000000000e+03 1.182500123977661133e+00 1.238675308227539062e+01 -3.678603097796440125e-02 7.815419435501098633e-01 2.234267741441726685e-01 -3.721151351928710938e-01
3.299000000000000000e+03 3.958635926246643066e-01 9.147809028625488281e+00 8.525776793248951435e-04 -4.435934126377105713e-01 -1.328222453594207764e-01 -1.428232192993164062e-01
3.300000000000000000e+03 1.170351266860961914e+00 1.077165126800537109e+01 -9.641710668802261353e-03 3.051815330982208252e-01 8.866194635629653931e-02 -4.237007796764373779e-01
3.301000000000000000e+03 4.035575985908508301e-01 6.730346202850341797e+00 2.473869733512401581e-02 -1.080169439315795898e+00 -3.166292011737823486e-01 -5.078455060720443726e-02
3.302000000000000000e+03 1.202294826507568359e+00 8.372199058532714844e+00 5.514851212501525879e-02 -3.907918035984039307e-01 -1.006929874420166016e-01 -3.523759841918945312e-01
3.303000000000000000e+03 3.978695571422576904e-01 5.107183933258056641e+00 2.108392864465713501e-02 -1.083196043968200684e+00 -3.186336457729339600e-01 4.860846698284149170e-02
3.304000000000000000e+03 1.208493947982788086e+00 6.742085456848144531e+00 1.193673014640808105e-01 -7.145423889160156250e-01 -1.785525232553482056e-01 -1.561315506696701050e-01
3.305000000000000000e+03 3.790878355503082275e-01 3.492560625076293945e+00 6.029595620930194855e-03 -7.210403680801391602e-01 -2.145032286643981934e-01 1.197315976023674011e-01
3.306000000000000000e+03 1.194927573204040527e+00 5.075394630432128906e+00 1.123525127768516541e-01 -7.853276729583740234e-01 -2.018925547599792480e-01 1.238747984170913696e-01
3.307000000000000000e+03 1.132497429847717285e+00 3.451318740844726562e+00 3.148559480905532837e-02 -5.820861458778381348e-01 -1.651801615953445435e-01 3.130389153957366943e-01
3.308000000000000000e+03 1.205291748046875000e+00 -1.477326297760009766e+01 2.959410427138209343e-03 -4.172631800174713135e-01 -1.242911294102668762e-01 -5.639877170324325562e-02
3.309000000000000000e+03 4.067585468292236328e-01 -1.637228584289550781e+01 -1.305497484281659126e-03 -5.467432737350463867e-01 -1.644146442413330078e-01 -1.790771447122097015e-02
3.310000000000000000e+03 3.996502161026000977e-01 -5.938053607940673828e+00 -5.510164774022996426e-04 -7.030388712882995605e-02 -2.125647105276584625e-02 -1.177260186523199081e-02
3.311000000000000000e+03 1.193847298622131348e+00 -5.982221126556396484e+00 -4.539929796010255814e-03 -7.512103021144866943e-02 -2.389828674495220184e-02 -3.426267206668853760e-02
3.312000000000000000e+03 3.880034089088439941e-01 -7.554950237274169922e+00 -9.051803499460220337e-05 -1.253014206886291504e-01 -3.761757910251617432e-02 -1.479615923017263412e-02
3.313000000000000000e+03 3.875369429588317871e-01 -8.360345840454101562e+00 -1.299817464314401150e-03 -1.575767397880554199e-01 -4.766296967864036560e-02 -1.615849323570728302e-02
3.314000000000000000e+03 1.233965992927551270e+00 -2.436531257629394531e+01 4.206364043056964874e-03 -6.928750872611999512e-01 -2.066006213426589966e-01 -1.709438301622867584e-02
3.315000000000000000e+03 1.216976284980773926e+00 -2.515336227416992188e+01 3.137572435662150383e-03 -7.042788267135620117e-01 -2.103423625230789185e-01 -1.247055456042289734e-02
3.316000000000000000e+03 4.396893382072448730e-01 -2.680541419982910156e+01 1.012552529573440552e-04 -8.075503110885620117e-01 -2.422347217798233032e-01 -6.609262200072407722e-04
3.317000000000000000e+03 5.590442419052124023e-01 -2.844825935363769531e+01 2.067867666482925415e-03 -8.146846294403076172e-01 -2.437850385904312134e-01 -2.146386774256825447e-03
3.318000000000000000e+03 5.653019547462463379e-01 -3.008807563781738281e+01 -1.795496500562876463e-04 -8.188688755035400391e-01 -2.457145303487777710e-01 -1.052823499776422977e-03
3.319000000000000000e+03 5.342973470687866211e-01 -3.090678215026855469e+01 1.992353005334734917e-03 -8.202991485595703125e-01 -2.454920411109924316e-01 1.542302343295887113e-04
3.320000000000000000e+03 4.813060760498046875e-01 -3.252759933471679688e+01 4.536748863756656647e-03 -8.226897120475769043e-01 -2.454458922147750854e-01 -9.916413109749555588e-04
3.321000000000000000e+03 4.252758622169494629e-01 -3.409218597412109375e+01 4.404316190630197525e-03 -8.222178220748901367e-01 -2.453440427780151367e-01 9.056164417415857315e-04
3.322000000000000000e+03 4.990616738796234131e-01 -3.567641830444335938e+01 1.568426843732595444e-03 -8.085843324661254883e-01 -2.421047687530517578e-01 5.762232933193445206e-03
3.323000000000000000e+03 5.072217583656311035e-01 -3.885838317871093750e+01 1.124653499573469162e-03 -8.019195199012756348e-01 -2.402384579181671143e-01 -1.222899998538196087e-03
3.324000000000000000e+03 1.550341367721557617e+00 -3.878823471069335938e+01 -6.049591582268476486e-03 -6.852425336837768555e-01 -2.073876410722732544e-01 3.858810523524880409e-03
3.325000000000000000e+03 1.535523653030395508e+00 -3.961761093139648438e+01 1.518925884738564491e-03 -6.811773180961608887e-01 -2.038975208997726440e-01 -1.693422091193497181e-03
3.326000000000000000e+03 1.498932242393493652e+00 -4.129008102416992188e+01 -8.020657114684581757e-04 -6.656162738800048828e-01 -1.999255120754241943e-01 -1.038233097642660141e-02
3.327000000000000000e+03 4.152222275733947754e-01 -2.359547615051269531e+01 1.486564520746469498e-03 -7.763330340385437012e-01 -2.324539422988891602e-01 -6.794661283493041992e-03
3.328000000000000000e+03 1.254307150840759277e+00 -1.876796722412109375e+01 1.504554762504994869e-03 -5.639379024505615234e-01 -1.687300056219100952e-01 -4.372845962643623352e-02
3.329000000000000000e+03 1.234222650527954102e+00 -1.716761398315429688e+01 1.425542868673801422e-03 -5.108280181884765625e-01 -1.528207361698150635e-01 -5.005403235554695129e-02
3.330000000000000000e+03 3.934807479381561279e-01 -9.965070724487304688e+00 -1.511894515715539455e-03 -2.294491231441497803e-01 -6.928830593824386597e-02 -1.832981407642364502e-02
3.331000000000000000e+03 4.203065335750579834e-01 -2.713135957717895508e+00 -1.117956009693443775e-03 -7.017430849373340607e-03 -2.440616022795438766e-03 -4.001929890364408493e-03
3.332000000000000000e+03 1.061052441596984863e+00 1.871774673461914062e+01 -1.967053860425949097e-02 1.754501223564147949e+00 5.204491615295410156e-01 -4.306545108556747437e-02
3.333000000000000000e+03 1.867250061035156250e+01 3.250500679016113281e+00 8.787651062011718750e+00 -1.936914443969726562e+00 2.055221080780029297e+00 -2.994737625122070312e-01
3.334000000000000000e+03 2.081990432739257812e+01 -8.680642127990722656e+00 -1.226363897323608398e+00 -1.897331774234771729e-01 -4.248290956020355225e-01 3.154540657997131348e-01
3.335000000000000000e+03 2.490512466430664062e+01 -4.324291706085205078e+00 3.337740898132324219e+00 1.250932788848876953e+01 4.754120826721191406e+00 -5.175152778625488281e+00
3.336000000000000000e+03 2.611751174926757812e+01 -6.730050086975097656e+00 3.205059051513671875e+00 1.430198860168457031e+01 5.252114295959472656e+00 -2.256212234497070312e+00
3.337000000000000000e+03 2.280274581909179688e+01 9.717002511024475098e-03 -1.764706015586853027e+00 1.020382022857666016e+01 2.531734228134155273e+00 -4.429784297943115234e+00
3.338000000000000000e+03 2.443234062194824219e+01 -3.666287899017333984e+00 3.712080955505371094e+00 1.086363887786865234e+01 4.372715950012207031e+00 -5.587509155273437500e+00
3.339000000000000000e+03 1.619176864624023438e+01 -3.922593832015991211e+00 -2.660199105739593506e-01 -7.088870555162429810e-02 -1.010725870728492737e-01 1.539063602685928345e-01
3.340000000000000000e+03 2.262380218505859375e+01 -1.026838302612304688e+00 5.230956077575683594e-01 8.602326393127441406e+00 2.737626552581787109e+00 -4.493223667144775391e+00
3.341000000000000000e+03 1.724143218994140625e+01 -4.997499942779541016e+00 -3.825728893280029297e-01 -1.150196716189384460e-01 -1.492777764797210693e-01 2.254044115543365479e-01
3.342000000000000000e+03 1.943595314025878906e+01 -8.233173370361328125e+00 -8.336693644523620605e-01 -1.408359128981828690e-02 -2.543258666992187500e-01 2.353485375642776489e-01
3.343000000000000000e+03 2.398786544799804688e+01 -3.001787185668945312e+00 3.576541900634765625e+00 9.497007369995117188e+00 3.922064781188964844e+00 -5.568916320800781250e+00
3.344000000000000000e+03 1.919837570190429688e+01 -7.442327499389648438e+00 -8.364827036857604980e-01 -9.619975090026855469e-02 -2.798047363758087158e-01 3.455017209053039551e-01
3.345000000000000000e+03 1.880604553222656250e+01 -5.618263244628906250e+00 -4.617506861686706543e-01 -3.128844797611236572e-01 -2.323905527591705322e-01 3.860018551349639893e-01
3.346000000000000000e+03 1.813521003723144531e+01 -7.241658210754394531e+00 -6.788858175277709961e-01 4.074277728796005249e-02 -1.914429068565368652e-01 2.028525322675704956e-01
3.347000000000000000e+03 2.044462776184082031e+01 1.611996293067932129e+00 1.622727990150451660e+00 2.923963069915771484e+00 1.364007353782653809e+00 -2.643438279628753662e-01
3.348000000000000000e+03 1.776269340515136719e+01 -5.562974452972412109e+00 -4.469743967056274414e-01 -1.349146515130996704e-01 -1.745667159557342529e-01 2.723675668239593506e-01
3.349000000000000000e+03 4.609364986419677734e+00 -2.762029409408569336e+00 -4.677769914269447327e-02 -1.019744761288166046e-02 -1.709254458546638489e-02 -4.650222882628440857e-02
3.350000000000000000e+03 7.937795639038085938e+00 -2.774290561676025391e+00 -1.042892634868621826e-01 1.402891613543033600e-02 -2.707810513675212860e-02 -4.729947447776794434e-02
3.351000000000000000e+03 6.878053283691406250e+01 3.794687509536743164e+00 3.514926910400390625e+00 1.224302482604980469e+01 4.727385520935058594e+00 -1.264416098594665527e+00
3.352000000000000000e+03 6.932202911376953125e+01 3.027420759201049805e+00 3.535822391510009766e+00 1.442407131195068359e+01 5.387968063354492188e+00 -3.421924352645874023e+00
3.353000000000000000e+03 4.403919982910156250e+01 1.318915843963623047e+01 -1.605224490165710449e+00 8.139041252434253693e-03 -4.791256189346313477e-01 -6.276068091392517090e-01
3.354000000000000000e+03 4.572312164306640625e+01 1.452168941497802734e+01 -2.794237136840820312e+00 -2.414053827524185181e-01 -9.106927514076232910e-01 -1.116753935813903809e+00
3.355000000000000000e+03 7.098611450195312500e+01 -1.668123817443847656e+01 -9.493995308876037598e-01 5.889248847961425781e+00 1.481954813003540039e+00 4.071376323699951172e+00
3.356000000000000000e+03 7.072425842285156250e+01 -1.591293144226074219e+01 6.748512983322143555e-01 2.892686605453491211e+00 1.070261359214782715e+00 2.649549722671508789e+00
3.357000000000000000e+03 7.231109619140625000e+01 9.510851651430130005e-02 -1.923200368881225586e+00 1.259311676025390625e+00 -1.991666108369827271e-01 -3.752052068710327148e+00
3.358000000000000000e+03 4.949132156372070312e+01 9.075968742370605469e+00 3.317908525466918945e+00 1.177707481384277344e+01 4.528495311737060547e+00 5.650081157684326172e+00
3.359000000000000000e+03 1.075011348724365234e+01 3.855240821838378906e+00 6.606821537017822266e+00 5.998973369598388672e+00 3.781738519668579102e+00 -1.524564981460571289e+00
3.360000000000000000e+03 5.277857589721679688e+01 -6.169790744781494141e+00 -1.399768710136413574e+00 2.942127466201782227e+00 4.627076089382171631e-01 -4.688593149185180664e-01
3.361000000000000000e+03 5.094480514526367188e+01 1.532290267944335938e+01 -1.168660521507263184e+00 1.420523548126220703e+01 3.910972356796264648e+00 -6.732814013957977295e-02
3.362000000000000000e+03 5.058973312377929688e+01 1.610876464843750000e+01 -1.718724250793457031e+00 1.149254131317138672e+01 2.932145118713378906e+00 -2.173131704330444336e+00
3.363000000000000000e+03 5.994872665405273438e+01 2.750304222106933594e+00 -3.356566667556762695e+00 -6.474959850311279297e-01 -1.201218843460083008e+00 -1.630205273628234863e+00
3.364000000000000000e+03 4.540693664550781250e+01 -8.505427360534667969e+00 1.019261628389358521e-01 7.721204757690429688e+00 2.346939325332641602e+00 -1.367878198623657227e+00
3.365000000000000000e+03 6.758428192138671875e+01 -1.545905685424804688e+01 -1.824001431465148926e+00 6.052948832511901855e-01 -3.656119704246520996e-01 4.517578482627868652e-01
3.366000000000000000e+03 6.799109649658203125e+01 -1.606734085083007812e+01 -1.456640124320983887e+00 8.536029458045959473e-01 -1.809111535549163818e-01 -1.010107994079589844e-01
3.367000000000000000e+03 5.208650970458984375e+01 -1.976047897338867188e+01 -7.770415544509887695e-01 -2.859953641891479492e-01 -3.189110755920410156e-01 5.637428164482116699e-01
3.368000000000000000e+03 2.914734125137329102e+00 -3.674797439575195312e+01 -6.417313124984502792e-03 -5.325616598129272461e-01 -1.616936922073364258e-01 1.233627740293741226e-02
3.369000000000000000e+03 7.530403900146484375e+01 3.127614021301269531e+01 -3.549684956669807434e-02 6.866201877593994141e+00 2.049211502075195312e+00 1.377202123403549194e-01
3.370000000000000000e+03 7.645553588867187500e+01 -3.780726242065429688e+01 1.672733016312122345e-02 6.537551403045654297e+00 1.966283679008483887e+00 4.736971855163574219e-02
3.371000000000000000e+03 1.997323036193847656e+00 -3.455816268920898438e+01 7.848727516829967499e-03 -6.300460100173950195e-01 -1.866591870784759521e-01 5.019308533519506454e-03
3.372000000000000000e+03 3.857419252395629883e+00 3.535570144653320312e+01 2.993026375770568848e-02 1.146081447601318359e+00 3.528035283088684082e-01 8.727876842021942139e-02
3.373000000000000000e+03 2.605518341064453125e+00 3.729189682006835938e+01 1.234520412981510162e-02 1.152812719345092773e+00 3.495473861694335938e-01 4.967335611581802368e-02
3.374000000000000000e+03 5.429811096191406250e+01 -6.958646297454833984e+00 -5.939871072769165039e-01 4.784480571746826172e+00 1.257148027420043945e+00 -1.119024276733398438e+00
3.375000000000000000e+03 5.332097244262695312e+01 -5.680427074432373047e+00 -2.020558357238769531e+00 4.108241081237792969e+00 6.263048052787780762e-01 -8.646805286407470703e-01
3.376000000000000000e+03 3.755389022827148438e+01 1.461895847320556641e+01 -2.676270246505737305e+00 2.130300998687744141e-01 -7.389720082283020020e-01 2.104663252830505371e-01
3.377000000000000000e+03 1.435920524597167969e+01 -4.365755081176757812e+00 -2.788832783699035645e-01 6.634394824504852295e-02 -6.376180052757263184e-02 6.092891469597816467e-02
3.378000000000000000e+03 1.521142482757568359e+01 -3.006129026412963867e+00 -1.917999088764190674e-01 -2.387193217873573303e-02 -6.470154970884323120e-02 1.046870499849319458e-01
3.379000000000000000e+03 2.792499351501464844e+01 1.223749923706054688e+01 -1.487261652946472168e+00 2.894459724426269531e+00 4.221594631671905518e-01 -4.371590614318847656e-01
3.380000000000000000e+03 1.209890460968017578e+01 2.432852268218994141e+00 1.707142233848571777e+00 1.629415273666381836e+00 1.000967264175415039e+00 -2.929535627365112305e+00
3.381000000000000000e+03 4.763140487670898438e+01 -1.559467411041259766e+01 -7.525264620780944824e-01 4.721143543720245361e-01 -8.412364125251770020e-02 3.469845950603485107e-01
3.382000000000000000e+03 6.212711715698242188e+01 -7.330252647399902344e+00 8.160631060600280762e-01 1.058464908599853516e+01 3.420213699340820312e+00 6.737416386604309082e-01
3.383000000000000000e+03 2.134176826477050781e+01 7.679244518280029297e+00 -1.254350781440734863e+00 5.226809024810791016e+00 1.191737532615661621e+00 -1.299568116664886475e-01
3.384000000000000000e+03 4.051717376708984375e+01 -9.824879646301269531e+00 -1.622732520103454590e+00 2.378295660018920898e+00 2.266689687967300415e-01 1.586085557937622070e+00
3.385000000000000000e+03 3.590195083618164062e+01 6.659016132354736328e+00 -2.760234475135803223e-01 -1.540558598935604095e-02 -8.742871135473251343e-02 1.525930166244506836e-01
3.386000000000000000e+03 3.505460357666015625e+01 7.884450435638427734e+00 -1.393354237079620361e-01 2.795513905584812164e-02 -3.341408818960189819e-02 2.331783808767795563e-02
3.387000000000000000e+03 6.232439041137695312e+01 3.881761074066162109e+00 -7.124932408332824707e-01 2.645687580108642578e+00 5.799583196640014648e-01 1.015580892562866211e+00
3.388000000000000000e+03 4.348426055908203125e+01 4.323956668376922607e-01 -6.824744939804077148e-01 4.436852455139160156e+00 1.126313447952270508e+00 2.178771734237670898e+00
3.389000000000000000e+03 4.663740158081054688e+01 -1.365255832672119141e+01 -9.389981031417846680e-01 1.213680863380432129e+00 8.240482211112976074e-02 6.853111982345581055e-01
3.390000000000000000e+03 3.797195434570312500e+01 1.381848716735839844e+01 -2.142227172851562500e+00 2.237417697906494141e-01 -5.755456089973449707e-01 5.622666478157043457e-01
3.391000000000000000e+03 7.703636169433593750e+01 7.184745311737060547e+00 2.221643209457397461e+00 1.167187690734863281e+01 4.168056011199951172e+00 -1.106317639350891113e+00
3.392000000000000000e+03 1.742989158630371094e+01 1.541981601715087891e+01 -2.070731878280639648e+00 -5.150104761123657227e-01 -7.757226824760437012e-01 -8.935440778732299805e-01
3.393000000000000000e+03 5.098440551757812500e+01 -1.720407295227050781e+01 -1.794052243232727051e+00 -1.250472784042358398e+00 -9.133574962615966797e-01 1.489615082740783691e+00
3.394000000000000000e+03 2.908863639831542969e+01 -2.441095113754272461e-01 3.286832094192504883e+00 2.084005832672119141e+00 1.611251354217529297e+00 8.480290174484252930e-01
3.395000000000000000e+03 6.661861419677734375e+01 1.290592765808105469e+01 2.619803667068481445e+00 1.256527423858642578e+01 4.555523395538330078e+00 7.927675843238830566e-01
3.396000000000000000e+03 6.589886474609375000e+01 1.460992908477783203e+01 -3.792612850666046143e-01 1.021584129333496094e+01 2.950974225997924805e+00 -1.021008729934692383e+00
3.397000000000000000e+03 5.757140350341796875e+01 5.403082817792892456e-02 -1.849231243133544922e+00 -3.166870474815368652e-01 -6.497755050659179688e-01 -2.770230531692504883e+00
3.398000000000000000e+03 5.882512664794921875e+01 -4.616278111934661865e-01 -1.707338452339172363e+00 1.738258004188537598e+00 9.275855496525764465e-03 -1.157960414886474609e+00
3.399000000000000000e+03 7.177209472656250000e+01 -7.629039764404296875e+00 4.389810860157012939e-01 7.336161136627197266e+00 2.332542657852172852e+00 -1.381499409675598145e+00
3.400000000000000000e+03 8.239624977111816406e+00 7.507338523864746094e+00 7.215269804000854492e-01 2.370602369308471680e+00 9.276388287544250488e-01 -2.290766477584838867e+00
3.401000000000000000e+03 6.695899486541748047e+00 3.682038784027099609e+00 2.062836408615112305e+00 -3.524457812309265137e-01 5.131171941757202148e-01 6.513886451721191406e-01
3.402000000000000000e+03 5.987886905670166016e+00 4.087823867797851562e+00 1.803860187530517578e+00 -5.997778773307800293e-01 3.612246811389923096e-01 3.790931403636932373e-01
3.403000000000000000e+03 4.948046875000000000e+01 1.672163200378417969e+01 -2.022631168365478516e+00 5.976998805999755859e+00 1.186310291290283203e+00 -3.521631479263305664e+00
3.404000000000000000e+03 4.999660110473632812e+01 7.372467994689941406e+00 1.062384724617004395e+00 1.126312923431396484e+01 3.697654247283935547e+00 2.471989154815673828e+00
3.405000000000000000e+03 6.850880432128906250e+01 6.185529232025146484e+00 1.159553378820419312e-01 1.207232284545898438e+01 3.656483411788940430e+00 -1.222241640090942383e+00
3.406000000000000000e+03 2.555588912963867188e+01 9.869422912597656250e+00 -2.808513164520263672e+00 7.896173954010009766e+00 1.526298165321350098e+00 2.227344036102294922e+00
3.407000000000000000e+03 2.443422889709472656e+01 8.701526641845703125e+00 -1.571689486503601074e+00 9.186312675476074219e+00 2.284386873245239258e+00 3.296078205108642578e+00
3.408000000000000000e+03 8.293582916259765625e+00 3.401032924652099609e+00 3.283130168914794922e+00 5.622389316558837891e-01 1.153610706329345703e+00 8.791111707687377930e-01
3.409000000000000000e+03 6.489933776855468750e+01 -1.358599281311035156e+01 -5.743843913078308105e-01 3.405788421630859375e+00 8.494212031364440918e-01 -6.417719125747680664e-01
3.410000000000000000e+03 6.597702789306640625e+01 -1.472022056579589844e+01 -7.229753732681274414e-01 2.101368665695190430e+00 4.135179817676544189e-01 -4.172633290290832520e-01
3.411000000000000000e+03 3.323388290405273438e+01 -1.350465869903564453e+01 8.467999696731567383e-01 2.468662023544311523e+00 9.946385622024536133e-01 -1.557076930999755859e+00
3.412000000000000000e+03 3.380434036254882812e+01 -1.244536113739013672e+01 1.036288022994995117e+00 2.158259391784667969e+00 9.583641886711120605e-01 -1.579643607139587402e+00
3.413000000000000000e+03 4.037719726562500000e+01 -1.900879478454589844e+01 6.051597595214843750e-01 4.695096492767333984e+00 1.590076923370361328e+00 6.443586945533752441e-01
3.414000000000000000e+03 4.109252166748046875e+01 -1.730243110656738281e+01 1.008835196495056152e+00 7.267162322998046875e+00 2.482799291610717773e+00 1.976855657994747162e-02
3.415000000000000000e+03 6.974543762207031250e+01 4.729321897029876709e-01 -2.348562479019165039e+00 7.623537063598632812e+00 1.582492351531982422e+00 -2.518244743347167969e+00
3.416000000000000000e+03 4.645583724975585938e+01 3.254387378692626953e+00 2.671412706375122070e+00 3.346264839172363281e+00 1.805303215980529785e+00 3.262838602066040039e+00
3.417000000000000000e+03 3.438459396362304688e+01 1.613944435119628906e+01 -1.908454656600952148e+00 -1.280888557434082031e+00 -9.568029642105102539e-01 -6.054612994194030762e-02
3.418000000000000000e+03 3.298564529418945312e+01 1.631518173217773438e+01 -1.476686000823974609e+00 -1.048923015594482422e+00 -7.576826810836791992e-01 4.324509501457214355e-01
3.419000000000000000e+03 3.297148513793945312e+01 7.869006991386413574e-01 1.286449074745178223e+00 7.342457771301269531e-01 6.062084436416625977e-01 1.904748916625976562e+00
3.420000000000000000e+03 3.426509857177734375e+01 -1.119464039802551270e+00 1.107508182525634766e+00 -3.186076879501342773e-01 2.366701513528823853e-01 6.812761723995208740e-02
3.421000000000000000e+03 4.241226196289062500e+01 -1.466205406188964844e+01 1.035133481025695801e+00 6.482476234436035156e+00 2.255282878875732422e+00 1.469723463058471680e+00
3.422000000000000000e+03 3.884125518798828125e+01 -5.865964412689208984e+00 1.588407456874847412e-01 -1.793987631797790527e+00 -4.905440807342529297e-01 9.289898872375488281e-01
3.423000000000000000e+03 3.818814849853515625e+01 -4.122678279876708984e+00 9.102104902267456055e-01 -2.110006332397460938e+00 -3.599387407302856445e-01 1.521138101816177368e-01
3.424000000000000000e+03 2.198083114624023438e+01 1.723721504211425781e+01 -2.016228437423706055e+00 -4.675286114215850830e-01 -7.451270818710327148e-01 -9.633237123489379883e-01
3.425000000000000000e+03 2.079688835144042969e+01 1.763897514343261719e+01 -1.668325066566467285e+00 -3.850727975368499756e-01 -6.160193681716918945e-01 -7.519770860671997070e-01
3.426000000000000000e+03 4.539754486083984375e+01 2.025706291198730469e+00 1.619247317314147949e+00 3.636328220367431641e+00 1.576672673225402832e+00 3.283264398574829102e+00
3.427000000000000000e+03 1.047562313079833984e+01 -4.011505603790283203e+00 -1.677923351526260376e-01 5.689767748117446899e-02 -3.326839581131935120e-02 -3.483834117650985718e-02
3.428000000000000000e+03 2.354024124145507812e+01 -1.032587528228759766e+01 1.097231388092041016e+00 1.743714094161987305e+00 8.522836565971374512e-01 2.404682159423828125e+00
3.429000000000000000e+03 7.112538909912109375e+01 9.699237823486328125e+00 -9.341373443603515625e-01 2.230863571166992188e+00 3.890178203582763672e-01 9.021891355514526367e-01
3.430000000000000000e+03 5.695783233642578125e+01 -1.884049415588378906e+01 6.000315546989440918e-01 9.669752120971679688e+00 3.080935001373291016e+00 -4.741776287555694580e-01
3.431000000000000000e+03 3.659934997558593750e+01 -1.634477806091308594e+01 1.149375081062316895e+00 1.688418030738830566e+00 8.513379096984863281e-01 -1.057994365692138672e+00
3.432000000000000000e+03 6.202420043945312500e+01 -3.317961454391479492e+00 1.824267745018005371e+00 9.039293289184570312e+00 3.259068250656127930e+00 6.338642239570617676e-01
3.433000000000000000e+03 6.540383911132812500e+01 -1.560058712959289551e+00 -1.301915526390075684e+00 1.024080812931060791e-01 -3.598522245883941650e-01 4.650513648986816406e+00
3.434000000000000000e+03 2.857672500610351562e+01 1.002374291419982910e+00 -4.082240462303161621e-01 6.304232478141784668e-01 6.665975600481033325e-02 3.341626748442649841e-02
3.435000000000000000e+03 2.800122642517089844e+01 2.501356363296508789e+00 -5.885524272918701172e+00 -1.066687464714050293e+00 -2.085663557052612305e+00 -2.171305894851684570e+00
3.436000000000000000e+03 3.494648742675781250e+01 -1.488897037506103516e+01 9.376367330551147461e-01 2.031649827957153320e+00 8.907859921455383301e-01 -1.304863691329956055e+00
3.437000000000000000e+03 3.343509292602539062e+01 5.305288791656494141e+00 -1.420851588249206543e+00 4.986897408962249756e-01 -2.766485512256622314e-01 2.799821794033050537e-01
3.438000000000000000e+03 3.490480804443359375e+01 6.918306827545166016e+00 -4.015353322029113770e-01 6.818998605012893677e-02 -1.000036001205444336e-01 9.196011722087860107e-02
3.439000000000000000e+03 5.071457290649414062e+01 -3.839825868606567383e+00 -6.152313709259033203e+00 1.283628225326538086e+00 -1.460605621337890625e+00 1.018508195877075195e+00
3.440000000000000000e+03 2.733406639099121094e+01 1.166936492919921875e+01 -2.231585979461669922e+00 4.451738834381103516e+00 6.660459041595458984e-01 -1.292424052953720093e-01
3.441000000000000000e+03 2.608868217468261719e+01 1.053652477264404297e+01 -3.010796308517456055e+00 7.194569587707519531e+00 1.255131840705871582e+00 1.199003934860229492e+00
3.442000000000000000e+03 5.628725814819335938e+01 1.079731559753417969e+01 9.171135425567626953e-01 4.096958160400390625e+00 1.504221558570861816e+00 1.624868154525756836e+00
3.443000000000000000e+03 4.097113800048828125e+01 1.414663505554199219e+01 -1.768954634666442871e+00 6.098376512527465820e-01 -3.477350771427154541e-01 1.452814042568206787e-02
3.444000000000000000e+03 3.171123504638671875e+01 4.335319042205810547e+00 -2.728940725326538086e+00 9.045014977455139160e-01 -5.473317503929138184e-01 -9.902863949537277222e-02
3.445000000000000000e+03 3.235005950927734375e+01 4.596870422363281250e+00 -2.234843254089355469e+00 7.934165000915527344e-01 -4.324280023574829102e-01 2.242891043424606323e-01
3.446000000000000000e+03 6.561351013183593750e+01 6.972675800323486328e+00 -2.085090130567550659e-01 9.675162315368652344e+00 2.839995861053466797e+00 6.296647787094116211e-01
3.447000000000000000e+03 1.551795482635498047e+01 4.490912914276123047e+00 5.056428432464599609e+00 -2.373659849166870117e+00 8.048306107521057129e-01 -2.460960865020751953e+00
3.448000000000000000e+03 6.076940536499023438e+01 1.362225627899169922e+01 -4.835493266582489014e-01 5.215713977813720703e-01 1.140661258250474930e-02 2.579696178436279297e-01
3.449000000000000000e+03 1.142094993591308594e+01 3.743034124374389648e+00 7.436728477478027344e+00 5.327547550201416016e+00 3.829282760620117188e+00 -4.119971752166748047e+00
3.450000000000000000e+03 5.630966949462890625e+01 -1.382531166076660156e+01 7.019254565238952637e-01 1.243973350524902344e+01 3.942497730255126953e+00 -9.601353406906127930e-01
3.451000000000000000e+03 6.973967742919921875e+01 -4.363697052001953125e+00 -1.997789740562438965e+00 3.092946767807006836e+00 3.285470604896545410e-01 -7.916863560676574707e-01
3.452000000000000000e+03 2.030337524414062500e+01 2.883381605148315430e+00 5.835545539855957031e+00 2.128441572189331055e+00 2.389196157455444336e+00 -1.969383507966995239e-01
3.453000000000000000e+03 5.260821914672851562e+01 1.634366035461425781e+01 -8.031327128410339355e-01 1.025010967254638672e+01 2.834093093872070312e+00 1.584264636039733887e+00
3.454000000000000000e+03 5.131672668457031250e+01 1.464740657806396484e+01 1.430797815322875977e+00 1.339192867279052734e+01 4.446817874908447266e+00 1.387226819992065430e+00
3.455000000000000000e+03 7.024272918701171875e+01 -4.920654296875000000e+00 -1.234145402908325195e+00 3.462623119354248047e+00 6.685433387756347656e-01 -9.870143532752990723e-01
3.456000000000000000e+03 6.967756652832031250e+01 -5.346585750579833984e+00 -7.887139320373535156e-01 2.374481916427612305e+00 4.757303893566131592e-01 -7.559871077537536621e-01
3.457000000000000000e+03 2.525350570678710938e+01 7.502147197723388672e+00 4.295953273773193359e+00 7.788531780242919922e+00 3.625345468521118164e+00 5.938531398773193359e+00
3.458000000000000000e+03 3.879572296142578125e+01 1.439908695220947266e+01 -2.098798036575317383e+00 4.403432011604309082e-01 -4.975364208221435547e-01 2.554767429828643799e-01
3.459000000000000000e+03 6.878307342529296875e+01 -3.250885963439941406e+00 -3.686388254165649414e+00 2.974318742752075195e+00 -2.136208415031433105e-01 -2.972181737422943115e-01
3.460000000000000000e+03 6.325711059570312500e+01 -1.146473312377929688e+01 -3.137998282909393311e-01 6.817251682281494141e+00 1.951035618782043457e+00 -2.697630226612091064e-01
3.461000000000000000e+03 1.381005001068115234e+01 4.690903186798095703e+00 4.398436546325683594e+00 -2.669922828674316406e+00 5.185540914535522461e-01 -1.963413357734680176e+00
3.462000000000000000e+03 1.566522216796875000e+01 1.354818344116210938e+01 -1.962055087089538574e+00 -7.606439590454101562e-01 -8.168097138404846191e-01 -9.949576854705810547e-01
3.463000000000000000e+03 2.103927421569824219e+01 9.550262451171875000e+00 -4.984942436218261719e+00 6.551733613014221191e-01 -1.298930644989013672e+00 -1.847417950630187988e+00
3.464000000000000000e+03 5.633606719970703125e+01 -8.597060203552246094e+00 7.065133750438690186e-02 7.111695289611816406e+00 2.154704093933105469e+00 -5.292937159538269043e-01
3.465000000000000000e+03 3.834835052490234375e+01 -6.220003128051757812e+00 -2.088488489389419556e-01 -2.548024415969848633e+00 -8.270620107650756836e-01 1.337839603424072266e+00
3.466000000000000000e+03 7.712435913085937500e+01 2.306342315673828125e+01 1.654212735593318939e-02 6.778587818145751953e+00 2.038538932800292969e+00 1.440901756286621094e-01
3.467000000000000000e+03 7.785533142089843750e+01 2.612200546264648438e+01 -8.775579743087291718e-03 6.927095890045166016e+00 2.075495958328247070e+00 1.209497153759002686e-01
3.468000000000000000e+03 7.714593505859375000e+01 3.175805282592773438e+01 -6.809038575738668442e-03 7.043275833129882812e+00 2.110939979553222656e+00 8.817680180072784424e-02
3.469000000000000000e+03 7.817009735107421875e+01 1.571871757507324219e+01 9.111429005861282349e-02 6.876870155334472656e+00 2.090395450592041016e+00 -2.897721529006958008e-01
3.470000000000000000e+03 7.813908386230468750e+01 1.418805503845214844e+01 4.218642413616180420e-02 7.093430995941162109e+00 2.140685319900512695e+00 -3.925075531005859375e-01
3.471000000000000000e+03 7.828629302978515625e+01 5.179697036743164062e+00 5.992265939712524414e-01 1.002032756805419922e+01 3.185866355895996094e+00 -1.825380086898803711e+00
3.472000000000000000e+03 7.764879608154296875e+01 4.524583816528320312e+00 3.744151294231414795e-01 1.152100849151611328e+01 3.568626880645751953e+00 -2.123512983322143555e+00
3.473000000000000000e+03 7.826216125488281250e+01 -1.730079269409179688e+01 -1.991940662264823914e-02 7.178985118865966797e+00 2.147719860076904297e+00 -4.311852157115936279e-01
3.474000000000000000e+03 7.822595977783203125e+01 -1.806595993041992188e+01 -9.582834690809249878e-02 7.270027637481689453e+00 2.152259826660156250e+00 -3.728223145008087158e-01
3.475000000000000000e+03 7.816651153564453125e+01 -1.575233745574951172e+01 1.330650150775909424e-01 7.075709819793701172e+00 2.162632465362548828e+00 -3.713237345218658447e-01
3.476000000000000000e+03 7.823529052734375000e+01 -1.652830314636230469e+01 4.083476960659027100e-02 7.114068984985351562e+00 2.146471261978149414e+00 -4.122667610645294189e-01
3.477000000000000000e+03 7.825144958496093750e+01 -6.134289264678955078e+00 -3.010379523038864136e-02 9.361989974975585938e+00 2.799565792083740234e+00 1.274074435234069824e+00
3.478000000000000000e+03 7.803144073486328125e+01 3.077381372451782227e+00 -5.071524977684020996e-01 1.112397670745849609e+01 3.185047388076782227e+00 -2.268962621688842773e+00
3.479000000000000000e+03 7.767345428466796875e+01 2.476540327072143555e+00 -8.126642704010009766e-01 1.103164482116699219e+01 3.065694332122802734e+00 -1.981217622756958008e+00
3.480000000000000000e+03 7.688695526123046875e+01 -1.518233418464660645e-01 -1.488271951675415039e+00 9.173155784606933594e+00 2.305465221405029297e+00 5.719988942146301270e-01
3.481000000000000000e+03 7.739577484130859375e+01 -1.337741136550903320e+00 -6.847016215324401855e-01 9.805255889892578125e+00 2.736166477203369141e+00 9.472313523292541504e-01
3.482000000000000000e+03 7.823674011230468750e+01 -3.048077344894409180e+00 -1.817279160022735596e-01 1.061365318298339844e+01 3.129577636718750000e+00 1.126309394836425781e+00
3.483000000000000000e+03 7.830266571044921875e+01 -4.594266414642333984e+00 -7.370434701442718506e-02 1.008618736267089844e+01 3.003744840621948242e+00 1.209159016609191895e+00
3.484000000000000000e+03 7.819998168945312500e+01 -6.913195133209228516e+00 8.086769282817840576e-02 9.000345230102539062e+00 2.724364042282104492e+00 1.305531740188598633e+00
3.485000000000000000e+03 7.736283874511718750e+01 -8.520100593566894531e+00 2.071955353021621704e-01 8.384868621826171875e+00 2.577619075775146484e+00 1.420502424240112305e+00
3.486000000000000000e+03 7.811461639404296875e+01 -1.336265945434570312e+01 2.944133877754211426e-01 7.096196651458740234e+00 2.217183113098144531e+00 1.156583428382873535e-01
3.487000000000000000e+03 7.812117767333984375e+01 -1.496192264556884766e+01 1.916542798280715942e-01 7.044329643249511719e+00 2.170795202255249023e+00 -2.449246495962142944e-01
3.488000000000000000e+03 7.788926696777343750e+01 -2.618391609191894531e+01 -6.476318929344415665e-03 7.039263248443603516e+00 2.109836101531982422e+00 1.405082643032073975e-01
3.489000000000000000e+03 7.720252227783203125e+01 -3.346736145019531250e+01 1.863360404968261719e-02 6.654223918914794922e+00 2.001857280731201172e+00 7.257539778947830200e-02
3.490000000000000000e+03 7.774914550781250000e+01 6.989366054534912109e+00 1.345810651779174805e+00 1.056212902069091797e+01 3.572381734848022461e+00 -1.141669988632202148e+00
3.491000000000000000e+03 7.829325103759765625e+01 4.486158847808837891e+00 3.961122035980224609e-01 1.043334007263183594e+01 3.248835563659667969e+00 -2.279944896697998047e+00
3.492000000000000000e+03 7.785132598876953125e+01 -3.606499099731445312e+01 1.147259213030338287e-02 6.694941043853759766e+00 2.011924028396606445e+00 3.312769159674644470e-02
3.493000000000000000e+03 2.758124351501464844e+00 2.189968681335449219e+01 -5.206747725605964661e-02 1.505147218704223633e+00 4.359239041805267334e-01 4.900985211133956909e-02
3.494000000000000000e+03 1.946978688240051270e+00 2.404762649536132812e+01 -1.240947563201189041e-02 1.584461450576782227e+00 4.716155827045440674e-01 8.206555247306823730e-02
3.495000000000000000e+03 1.872199773788452148e+00 1.642167854309082031e+01 -7.936557382345199585e-02 1.456121563911437988e+00 4.130267798900604248e-01 -2.190009057521820068e-01
3.496000000000000000e+03 2.000729322433471680e+00 5.013376712799072266e+00 2.906184494495391846e-01 -6.032746434211730957e-01 -9.379685670137405396e-02 1.594045162200927734e-01
3.497000000000000000e+03 2.032986164093017578e+00 5.892315864562988281e+00 3.094587624073028564e-01 -5.683114528656005859e-01 -7.765580713748931885e-02 -5.943638086318969727e-02
3.498000000000000000e+03 2.031469821929931641e+00 -2.659986686706542969e+01 3.433250822126865387e-03 -6.233070492744445801e-01 -1.859621405601501465e-01 -1.617026515305042267e-02
3.499000000000000000e+03 1.986203908920288086e+00 -2.586985778808593750e+01 7.691066246479749680e-03 -6.244688630104064941e-01 -1.850333362817764282e-01 -1.745236665010452271e-02
3.500000000000000000e+03 2.004959106445312500e+00 -1.398676776885986328e+01 3.598742652684450150e-03 -3.372715711593627930e-01 -1.001018509268760681e-01 -8.981595933437347412e-02
3.501000000000000000e+03 1.972536087036132812e+00 1.240379047393798828e+01 -7.780466228723526001e-02 8.286069631576538086e-01 2.252406924962997437e-01 -5.685263872146606445e-01
3.502000000000000000e+03 2.016433477401733398e+00 1.322110557556152344e+01 -1.077877283096313477e-01 1.001462697982788086e+00 2.681024968624114990e-01 -5.047590732574462891e-01
3.503000000000000000e+03 2.053650379180908203e+00 1.403614330291748047e+01 -9.849540144205093384e-02 1.139018774032592773e+00 3.121570050716400146e-01 -4.362888336181640625e-01
3.504000000000000000e+03 2.100763797760009766e+00 -2.745680093765258789e+00 -1.291777286678552628e-02 -1.898039877414703369e-02 -9.569451212882995605e-03 -2.231578528881072998e-02
3.505000000000000000e+03 2.040323019027709961e+00 -1.635221290588378906e+01 4.584759939461946487e-03 -4.180553257465362549e-01 -1.240411698818206787e-01 -8.232042193412780762e-02
3.506000000000000000e+03 1.974660634994506836e+00 -6.050648212432861328e+00 -9.929046034812927246e-03 -7.494579255580902100e-02 -2.546245045959949493e-02 -5.366079881787300110e-02
3.507000000000000000e+03 2.035755634307861328e+00 -5.229318141937255859e+00 -1.171918120235204697e-02 -5.694363638758659363e-02 -2.059884555637836456e-02 -4.714408516883850098e-02
3.508000000000000000e+03 2.069784164428710938e+00 -2.434103393554687500e+01 7.961482740938663483e-03 -5.971856713294982910e-01 -1.767672449350357056e-01 -2.846332080662250519e-02
3.509000000000000000e+03 6.602322387695312500e+01 7.482969760894775391e+00 -1.255213171243667603e-01 1.101931571960449219e+01 3.268138408660888672e+00 3.356993496417999268e-01
3.510000000000000000e+03 2.356176567077636719e+01 -2.327299356460571289e+00 2.877204656600952148e+00 9.023801803588867188e+00 3.570302009582519531e+00 -5.242896080017089844e+00
3.511000000000000000e+03 4.391753387451171875e+01 -7.756205081939697266e+00 -3.529780507087707520e-01 9.034806251525878906e+00 2.604548215866088867e+00 1.291421175003051758e+00
3.512000000000000000e+03 1.725469207763671875e+01 -6.087625980377197266e+00 -5.013251304626464844e-01 -1.070701796561479568e-02 -1.536096483469009399e-01 1.971810013055801392e-01
3.513000000000000000e+03 1.831790161132812500e+01 5.340723514556884766e+00 3.704836845397949219e+00 -1.379312396049499512e+00 6.976572871208190918e-01 2.382061183452606201e-01
3.514000000000000000e+03 1.791614151000976562e+01 6.685948848724365234e+00 -2.114628791809082031e+00 -2.263334751129150391e+00 -1.313389062881469727e+00 -2.363851785659790039e+00
3.515000000000000000e+03 3.052265739440917969e+01 3.279084920883178711e+00 -3.771622180938720703e+00 1.310313701629638672e+00 -7.383925914764404297e-01 -1.672165989875793457e-01
3.516000000000000000e+03 1.220503711700439453e+01 1.238909912109375000e+01 -1.298055410385131836e+00 1.093865111470222473e-01 -3.566006720066070557e-01 -5.236485600471496582e-01
3.517000000000000000e+03 1.861442947387695312e+01 4.720559597015380859e+00 6.373789787292480469e+00 -1.392048835754394531e+00 1.494522213935852051e+00 4.914637207984924316e-01
3.518000000000000000e+03 1.786064720153808594e+01 4.304255962371826172e+00 6.258893966674804688e+00 -9.065014719963073730e-01 1.605717778205871582e+00 9.475020170211791992e-01
3.519000000000000000e+03 3.039236450195312500e+01 1.408331775665283203e+01 -1.238666892051696777e+00 -8.624446392059326172e-01 -6.303334832191467285e-01 -5.897331833839416504e-01
3.520000000000000000e+03 3.642834091186523438e+01 -2.467917442321777344e+00 7.773915529251098633e-01 -1.736456871032714844e+00 -2.877195775508880615e-01 1.603606902062892914e-02
3.521000000000000000e+03 3.554684066772460938e+01 -1.382418036460876465e+00 6.890037059783935547e-01 -1.067192792892456055e+00 -1.134567260742187500e-01 6.428864318877458572e-03
3.522000000000000000e+03 1.267563915252685547e+01 1.190389347076416016e+01 -1.279321312904357910e+00 -1.086739376187324524e-01 -4.163985848426818848e-01 -6.704810857772827148e-01
3.523000000000000000e+03 1.315077781677246094e+01 1.138287734985351562e+01 -1.270220637321472168e+00 -5.301171541213989258e-01 -5.401013493537902832e-01 -7.904280424118041992e-01
3.524000000000000000e+03 2.261936950683593750e+01 7.537876367568969727e-01 -2.773756265640258789e+00 1.158217144012451172e+01 2.642524480819702148e+00 -3.792187452316284180e+00
3.525000000000000000e+03 2.543475341796875000e+01 -3.894154071807861328e+00 2.921465635299682617e+00 1.100940322875976562e+01 4.179260730743408203e+00 -3.299898147583007812e+00
3.526000000000000000e+03 1.211511707305908203e+01 1.136230468750000000e+01 -1.180876851081848145e+00 -1.142506767064332962e-02 -3.576905727386474609e-01 -5.650157332420349121e-01
3.527000000000000000e+03 1.023812198638916016e+01 1.003331947326660156e+01 -1.048810601234436035e+00 1.442181944847106934e+00 1.180114001035690308e-01 -5.328924655914306641e-01
3.528000000000000000e+03 4.432158279418945312e+01 -9.336675643920898438e+00 -1.054606318473815918e+00 7.050228118896484375e+00 1.798686623573303223e+00 1.043757438659667969e+00
3.529000000000000000e+03 1.090513324737548828e+01 1.043389415740966797e+01 -1.046105384826660156e+00 7.079510092735290527e-01 -1.014463230967521667e-01 -4.568471610546112061e-01
3.530000000000000000e+03 1.137326908111572266e+01 9.759567260742187500e+00 -8.769319653511047363e-01 4.085095822811126709e-01 -1.405267268419265747e-01 -4.716103672981262207e-01
3.531000000000000000e+03 1.920309066772460938e+01 1.564278984069824219e+01 -2.511833429336547852e+00 -5.430104136466979980e-01 -9.164531826972961426e-01 -1.108194351196289062e+00
3.532000000000000000e+03 1.833910179138183594e+01 1.690505790710449219e+01 -1.819368600845336914e+00 -3.580606877803802490e-01 -6.532288193702697754e-01 -6.380642652511596680e-01
3.533000000000000000e+03 5.282080078125000000e+01 4.671327114105224609e+00 2.570018529891967773e+00 1.432813072204589844e+01 5.069444656372070312e+00 -1.086674571037292480e+00
3.534000000000000000e+03 5.300736236572265625e+01 5.552971363067626953e+00 1.147542953491210938e+00 1.425140094757080078e+01 4.619683265686035156e+00 -4.328617155551910400e-01
3.535000000000000000e+03 1.972535514831542969e+01 3.344581604003906250e+00 7.529000282287597656e+00 -1.314867585897445679e-01 2.219254016876220703e+00 -3.227943181991577148e-01
3.536000000000000000e+03 5.050132369995117188e+01 7.869715690612792969e+00 6.045705080032348633e-01 1.297350311279296875e+01 4.073421955108642578e+00 2.111386299133300781e+00
3.537000000000000000e+03 3.690845489501953125e+01 8.866979598999023438e+00 2.075638435781002045e-02 -2.156858146190643311e-02 -2.436591603327542543e-04 -6.158223259262740612e-04
3.538000000000000000e+03 3.791374969482421875e+01 6.088609695434570312e+00 -2.523011155426502228e-02 -1.332226097583770752e-01 -4.753581434488296509e-02 6.891872733831405640e-02
3.539000000000000000e+03 3.680410766601562500e+01 5.725574016571044922e+00 -1.620841771364212036e-01 -1.596838980913162231e-01 -9.653041511774063110e-02 2.395766079425811768e-01
3.540000000000000000e+03 2.842786788940429688e+01 -1.705371975898742676e+00 3.075509309768676758e+00 3.092828750610351562e+00 1.850501537322998047e+00 2.059407711029052734e+00
3.541000000000000000e+03 2.892539215087890625e+01 -2.275699853897094727e+00 2.024451732635498047e+00 3.965509891510009766e+00 1.796988487243652344e+00 2.627711296081542969e+00
3.542000000000000000e+03 5.716956710815429688e+01 -1.444076633453369141e+01 9.277377128601074219e-01 1.180151939392089844e+01 3.818777084350585938e+00 -1.428669085726141930e-03
3.543000000000000000e+03 1.607836723327636719e+01 5.749133110046386719e+00 -1.432700753211975098e+00 -2.697258472442626953e+00 -1.238987803459167480e+00 -2.651169776916503906e+00
3.544000000000000000e+03 4.430621337890625000e+01 1.432188796997070312e+01 -1.978718638420104980e+00 2.988562881946563721e-01 -5.039587020874023438e-01 -4.855563044548034668e-01
3.545000000000000000e+03 3.933511734008789062e+01 -6.327487468719482422e+00 2.288501709699630737e-01 -8.716379404067993164e-01 -1.928363293409347534e-01 1.062265992164611816e+00
3.546000000000000000e+03 6.713050842285156250e+01 1.189659786224365234e+01 2.935786485671997070e+00 1.223714160919189453e+01 4.551878452301025391e+00 1.141543149948120117e+00
3.547000000000000000e+03 5.534747314453125000e+01 9.633343696594238281e+00 6.264168620109558105e-01 6.584171772003173828e+00 2.163176536560058594e+00 1.499669551849365234e+00
3.548000000000000000e+03 2.284175491333007812e+01 7.156095504760742188e+00 8.910480141639709473e-01 1.004679203033447266e+01 3.281352043151855469e+00 2.777599334716796875e+00
3.549000000000000000e+03 2.276413345336914062e+01 6.202842712402343750e+00 3.247553348541259766e+00 1.212405967712402344e+01 4.611484050750732422e+00 3.064911365509033203e+00
3.550000000000000000e+03 7.219384765625000000e+01 -6.135163903236389160e-01 -2.026246547698974609e+00 2.910804748535156250e+00 2.653674781322479248e-01 -3.130429983139038086e+00
3.551000000000000000e+03 6.695060729980468750e+01 1.120607948303222656e+01 3.427543401718139648e+00 1.305661392211914062e+01 4.945247173309326172e+00 2.049284726381301880e-01
3.552000000000000000e+03 6.621871185302734375e+01 1.058352661132812500e+01 2.174468994140625000e+00 1.676862716674804688e+01 5.682928562164306641e+00 1.486388087272644043e+00
3.553000000000000000e+03 4.378397750854492188e+01 -8.400165557861328125e+00 -8.374677896499633789e-01 7.883203983306884766e+00 2.113720893859863281e+00 1.439065456390380859e+00
3.554000000000000000e+03 5.399470138549804688e+01 7.968761444091796875e+00 -7.003559917211532593e-02 1.123049545288085938e+01 3.348138093948364258e+00 8.280491828918457031e-01
3.555000000000000000e+03 2.333969497680664062e+01 7.635038852691650391e+00 -2.416695058345794678e-01 1.022845840454101562e+01 2.996036767959594727e+00 2.972049236297607422e+00
3.556000000000000000e+03 6.045287704467773438e+01 5.823668241500854492e-01 -3.207843065261840820e+00 3.353746891021728516e+00 4.377117380499839783e-02 6.005437374114990234e-01
3.557000000000000000e+03 6.942580413818359375e+01 -1.720279693603515625e+01 3.548360466957092285e-01 9.315723776817321777e-01 3.859225213527679443e-01 1.463375449180603027e+00
3.558000000000000000e+03 7.047479248046875000e+01 -1.779376983642578125e+01 -2.666145376861095428e-02 4.033524036407470703e+00 1.202058792114257812e+00 2.795648336410522461e+00
3.559000000000000000e+03 2.181763648986816406e+01 2.166386604309082031e+00 3.235848426818847656e+00 1.119038009643554688e+01 4.327868461608886719e+00 -4.327350854873657227e-01
3.560000000000000000e+03 2.095118331909179688e+01 9.351902008056640625e-01 -4.911209046840667725e-01 5.589672565460205078e+00 1.529565453529357910e+00 -5.020612478256225586e-01
3.561000000000000000e+03 4.366993331909179688e+01 -4.202625751495361328e+00 3.209795713424682617e+00 9.709510803222656250e+00 3.875791788101196289e+00 1.088492393493652344e+00
3.562000000000000000e+03 4.303646469116210938e+01 -5.168267726898193359e+00 3.007179975509643555e+00 7.787452220916748047e+00 3.238389730453491211e+00 1.792303562164306641e+00
3.563000000000000000e+03 4.349817276000976562e+01 -6.960061550140380859e+00 4.490037262439727783e-01 9.035897254943847656e+00 2.845470428466796875e+00 1.641113281250000000e+00
3.564000000000000000e+03 1.432749176025390625e+01 4.512329101562500000e+00 5.480204105377197266e+00 -3.925579547882080078e+00 4.663873910903930664e-01 -2.632784843444824219e+00
3.565000000000000000e+03 2.632754135131835938e+01 1.767615318298339844e+00 -4.860110282897949219e+00 -9.926163554191589355e-01 -1.755818009376525879e+00 -2.689443111419677734e+00
3.566000000000000000e+03 2.627474784851074219e+01 1.087099909782409668e+00 -1.854116082191467285e+00 -8.249833583831787109e-01 -8.037298321723937988e-01 -2.092620849609375000e+00
3.567000000000000000e+03 5.828980636596679688e+01 -1.546014022827148438e+01 1.098184108734130859e+00 9.903463363647460938e+00 3.300494194030761719e+00 2.045694291591644287e-01
3.568000000000000000e+03 6.925512695312500000e+01 1.070735454559326172e+00 -1.385511279106140137e+00 8.179298400878906250e+00 2.038136243820190430e+00 -1.142964720726013184e+00
3.569000000000000000e+03 6.888673400878906250e+01 2.361812591552734375e+00 1.417339444160461426e+00 9.831437110900878906e+00 3.374633073806762695e+00 -8.654799461364746094e-01
3.570000000000000000e+03 2.987565040588378906e+01 -6.331742763519287109e+00 1.256732583045959473e+00 2.529859304428100586e+00 1.135977506637573242e+00 -1.115394115447998047e+00
3.571000000000000000e+03 3.011390495300292969e+01 -6.968649864196777344e+00 1.431464791297912598e+00 2.175292015075683594e+00 1.082027077674865723e+00 -1.538493871688842773e+00
3.572000000000000000e+03 5.754741668701171875e+01 1.246775341033935547e+01 9.706536531448364258e-01 2.621192693710327148e+00 1.077553987503051758e+00 1.706997156143188477e+00
3.573000000000000000e+03 4.515876388549804688e+01 -1.172659111022949219e+01 -1.448615431785583496e+00 4.218891620635986328e+00 8.310828804969787598e-01 1.196183681488037109e+00
3.574000000000000000e+03 1.922125244140625000e+01 6.737075805664062500e+00 -4.447331652045249939e-02 -4.873562455177307129e-01 -1.595488637685775757e-01 -1.477858543395996094e+00
3.575000000000000000e+03 4.366627502441406250e+01 -3.271744012832641602e+00 2.111908912658691406e+00 8.453994750976562500e+00 3.169771194458007812e+00 8.611192107200622559e-01
3.576000000000000000e+03 7.307912445068359375e+01 -8.835928916931152344e+00 8.429484963417053223e-01 9.295501708984375000e+00 3.041535139083862305e+00 2.358458787202835083e-01
3.577000000000000000e+03 7.231357574462890625e+01 -8.047375679016113281e+00 4.600004255771636963e-01 8.653714179992675781e+00 2.734114408493041992e+00 -8.061910271644592285e-01
3.578000000000000000e+03 5.693122863769531250e+01 -1.312788391113281250e+01 7.815943360328674316e-01 1.080191802978515625e+01 3.475053787231445312e+00 -3.956158459186553955e-01
3.579000000000000000e+03 6.644980621337890625e+01 -1.528568458557128906e+01 -1.086794734001159668e+00 1.830679416656494141e+00 2.231653928756713867e-01 -3.164551556110382080e-01
3.580000000000000000e+03 6.687142944335937500e+01 -1.586472511291503906e+01 -8.622977137565612793e-01 1.712895154953002930e+00 2.551792263984680176e-01 -5.559160113334655762e-01
3.581000000000000000e+03 3.769147491455078125e+01 7.163388729095458984e+00 -4.691959545016288757e-02 -5.744133889675140381e-02 -3.130827844142913818e-02 1.120716682635247707e-03
3.582000000000000000e+03 9.196842193603515625e+00 4.046016216278076172e+00 6.142261981964111328e+00 2.406174182891845703e+00 2.564530849456787109e+00 -2.805756926536560059e-01
3.583000000000000000e+03 9.991132736206054688e+00 3.966206073760986328e+00 7.141051769256591797e+00 3.646266460418701172e+00 3.236195564270019531e+00 -3.323122262954711914e-01
3.584000000000000000e+03 6.135902023315429688e+01 -6.632685184478759766e+00 1.193805456161499023e+00 9.707596778869628906e+00 3.270420551300048828e+00 1.196916222572326660e+00
3.585000000000000000e+03 7.753737640380859375e+01 5.805850982666015625e+00 1.348799467086791992e+00 1.101548576354980469e+01 3.709285497665405273e+00 -1.898653030395507812e+00
3.586000000000000000e+03 5.066603469848632812e+01 8.875006675720214844e+00 9.943336248397827148e-01 1.522921848297119141e+01 4.867065429687500000e+00 2.703944444656372070e+00
3.587000000000000000e+03 5.162604904174804688e+01 1.082270812988281250e+01 3.086610555648803711e+00 1.721774482727050781e+01 6.091306686401367188e+00 1.357990741729736328e+00
3.588000000000000000e+03 2.095242118835449219e+01 2.742545366287231445e+00 5.459467887878417969e+00 5.635174751281738281e+00 3.328392744064331055e+00 -2.509639859199523926e-01
3.589000000000000000e+03 2.793121147155761719e+01 -3.859995603561401367e+00 1.975368499755859375e+00 5.872515678405761719e+00 2.354365110397338867e+00 5.290989279747009277e-01
3.590000000000000000e+03 2.892340660095214844e+01 -4.122320175170898438e+00 1.043720364570617676e+00 4.405217170715332031e+00 1.634681344032287598e+00 7.376425266265869141e-01
3.591000000000000000e+03 2.217634391784667969e+01 1.841546249389648438e+01 -1.197379708290100098e+00 3.118614554405212402e-01 -2.656554877758026123e-01 -1.494461894035339355e+00
3.592000000000000000e+03 7.702510070800781250e+01 1.148898959159851074e+00 -2.106124162673950195e+00 1.009335803985595703e+01 2.396170139312744141e+00 -5.525376796722412109e-01
3.593000000000000000e+03 5.711796951293945312e+01 -1.068371868133544922e+01 3.942413628101348877e-01 8.721693038940429688e+00 2.734780550003051758e+00 -1.566922478377819061e-02
3.594000000000000000e+03 5.606018829345703125e+01 -9.657410621643066406e+00 2.641762197017669678e-01 7.753870487213134766e+00 2.405414104461669922e+00 -7.203664183616638184e-01
3.595000000000000000e+03 2.110869979858398438e+01 1.988760828971862793e+00 2.763046503067016602e+00 6.812403202056884766e+00 2.872634887695312500e+00 -3.258414566516876221e-01
3.596000000000000000e+03 2.238381004333496094e+01 3.033211946487426758e+00 6.351213455200195312e+00 1.613475418090820312e+01 6.745790004730224609e+00 -2.774105668067932129e-01
3.597000000000000000e+03 6.398734664916992188e+01 -1.118677616119384766e+01 3.819784522056579590e-02 5.848333358764648438e+00 1.765959382057189941e+00 -8.456708192825317383e-01
3.598000000000000000e+03 2.456502914428710938e+01 1.160603618621826172e+01 -2.852626562118530273e+00 9.106207847595214844e+00 1.876074433326721191e+00 2.239603996276855469e+00
3.599000000000000000e+03 6.703979492187500000e+01 9.647148132324218750e+00 1.945849657058715820e+00 1.309208011627197266e+01 4.511378765106201172e+00 -3.543814122676849365e-01
3.600000000000000000e+03 7.833285331726074219e+00 -3.531898260116577148e+00 -1.062249839305877686e-01 1.727607473731040955e-02 -2.668467164039611816e-02 -6.047441810369491577e-02
3.601000000000000000e+03 2.677877807617187500e+01 -8.692110061645507812e+00 2.965842008590698242e+00 1.010699081420898438e+01 3.921849727630615234e+00 -2.008072614669799805e+00
3.602000000000000000e+03 9.222523689270019531e+00 6.541490077972412109e+00 1.054566383361816406e+00 5.007818222045898438e+00 1.818715453147888184e+00 -2.982971191406250000e+00
3.603000000000000000e+03 3.416896057128906250e+01 -1.320072555541992188e+01 1.046108841896057129e+00 2.073076486587524414e+00 9.357555508613586426e-01 -1.481421709060668945e+00
3.604000000000000000e+03 6.809745025634765625e+01 5.537870407104492188e+00 1.077731013298034668e+00 1.158693599700927734e+01 3.799400091171264648e+00 -1.709975957870483398e+00
3.605000000000000000e+03 6.791378021240234375e+01 4.273736476898193359e+00 2.323773145675659180e+00 1.022526264190673828e+01 3.764710664749145508e+00 -8.509766459465026855e-01
3.606000000000000000e+03 6.351916885375976562e+01 1.573603439331054688e+01 8.930683732032775879e-01 3.018156766891479492e+00 1.173367500305175781e+00 -1.887642502784729004e+00
3.607000000000000000e+03 6.282630538940429688e+01 1.507499694824218750e+01 9.477264285087585449e-01 1.506327271461486816e+00 7.362161278724670410e-01 -1.184389114379882812e+00
3.608000000000000000e+03 4.606494140625000000e+01 -1.416961669921875000e+00 -1.344095468521118164e+00 4.759412765502929688e+00 1.024595260620117188e+00 5.409083366394042969e+00
3.609000000000000000e+03 4.520035934448242188e+01 1.601172828674316406e+01 -1.844053149223327637e+00 4.735578596591949463e-01 -4.111485779285430908e-01 -4.200645685195922852e-01
3.610000000000000000e+03 4.803337478637695312e+01 5.023456573486328125e+00 2.788680791854858398e+00 5.034490108489990234e+00 2.346951246261596680e+00 2.852555990219116211e+00
3.611000000000000000e+03 8.969984054565429688e+00 -3.601935148239135742e+00 -1.282918006181716919e-01 3.259386494755744934e-02 -2.870937995612621307e-02 -5.335205048322677612e-02
3.612000000000000000e+03 6.254811859130859375e+01 -9.832954406738281250e+00 2.167836427688598633e-01 8.575634956359863281e+00 2.637725591659545898e+00 1.526326537132263184e-01
3.613000000000000000e+03 7.448706054687500000e+01 -1.385316658020019531e+01 1.464486002922058105e+00 9.582343101501464844e+00 3.314048767089843750e+00 4.690296053886413574e-01
3.614000000000000000e+03 1.885339355468750000e+01 4.157351493835449219e+00 7.006045341491699219e+00 -1.266734600067138672e+00 1.721793174743652344e+00 3.826298415660858154e-01
3.615000000000000000e+03 5.332202911376953125e+01 2.906209945678710938e+00 5.054826259613037109e+00 1.505902481079101562e+01 6.034155368804931641e+00 -1.856654167175292969e+00
3.616000000000000000e+03 5.738731765747070312e+01 -1.176118183135986328e+01 5.346944332122802734e-01 9.576012611389160156e+00 3.033211946487426758e+00 9.233663976192474365e-02
3.617000000000000000e+03 2.917013740539550781e+01 1.314614868164062500e+01 -9.230029582977294922e-01 1.554521471261978149e-01 -2.302652448415756226e-01 -7.377968430519104004e-01
3.618000000000000000e+03 6.227271652221679688e+01 1.575152492523193359e+01 1.154934406280517578e+00 1.859766483306884766e+00 9.044103026390075684e-01 -5.705780982971191406e-01
3.619000000000000000e+03 6.097301101684570312e+01 1.472536945343017578e+01 6.725041866302490234e-01 9.732574820518493652e-01 4.937284886837005615e-01 6.184751391410827637e-01
3.620000000000000000e+03 7.704629516601562500e+01 2.781284332275390625e+00 -1.164029955863952637e+00 1.069114208221435547e+01 2.858133792877197266e+00 -2.155022382736206055e+00
3.621000000000000000e+03 5.749583435058593750e+01 -1.716870689392089844e+01 1.939149379730224609e+00 1.101499176025390625e+01 3.886242151260375977e+00 5.295556783676147461e-01
3.622000000000000000e+03 5.701080322265625000e+01 -1.679269218444824219e+01 1.683288335800170898e+00 1.216024017333984375e+01 4.153058528900146484e+00 1.004207730293273926e-01
3.623000000000000000e+03 2.569536781311035156e+01 1.297178363800048828e+01 3.852456063032150269e-02 1.024512672424316406e+01 3.085095405578613281e+00 7.775767445564270020e-01
3.624000000000000000e+03 7.672529602050781250e+01 8.145869255065917969e+00 1.731229186058044434e+00 1.129145145416259766e+01 3.906804323196411133e+00 -6.228386759757995605e-01
3.625000000000000000e+03 3.622793960571289062e+01 4.205774784088134766e+00 -2.673781812191009521e-01 -4.097010195255279541e-01 -2.031237483024597168e-01 7.933701276779174805e-01
3.626000000000000000e+03 3.266955947875976562e+01 1.542214393615722656e+01 -2.182670116424560547e+00 -1.248113751411437988e+00 -1.029235124588012695e+00 -1.289952844381332397e-01
3.627000000000000000e+03 4.060899734497070312e+01 -1.655729055404663086e+00 7.896188646554946899e-02 3.825744092464447021e-01 1.384608894586563110e-01 5.714910104870796204e-02
3.628000000000000000e+03 4.093541717529296875e+01 -1.041994452476501465e+00 -5.592157840728759766e-01 6.783780455589294434e-01 3.574867546558380127e-02 2.815047800540924072e-01
3.629000000000000000e+03 2.678280067443847656e+01 -6.387907981872558594e+00 3.579259872436523438e+00 1.031594944000244141e+01 4.168562889099121094e+00 -1.774062275886535645e+00
3.630000000000000000e+03 2.596549797058105469e+01 -4.483006954193115234e+00 3.078036785125732422e+00 1.067720794677734375e+01 4.126573562622070312e+00 -2.259724378585815430e+00
3.631000000000000000e+03 4.172423934936523438e+01 1.400453948974609375e+01 -1.751593470573425293e+00 5.608309507369995117e-01 -3.572287559509277344e-01 -1.134299188852310181e-01
3.632000000000000000e+03 5.246296691894531250e+01 1.346612262725830078e+01 3.106190681457519531e+00 1.348806667327880859e+01 4.978277206420898438e+00 1.644553422927856445e+00
3.633000000000000000e+03 2.216964721679687500e+01 -9.527687072753906250e+00 -1.023980975151062012e+00 -1.702021658420562744e-01 -3.582549393177032471e-01 3.668754994869232178e-01
3.634000000000000000e+03 3.256074905395507812e+01 1.266375660896301270e+00 9.248859286308288574e-01 1.391426801681518555e+00 6.948938369750976562e-01 2.253735780715942383e+00
3.635000000000000000e+03 2.638813972473144531e+01 -1.044256114959716797e+01 9.570184350013732910e-02 8.372773170471191406e+00 2.540542602539062500e+00 -5.822757482528686523e-01
3.636000000000000000e+03 2.712277030944824219e+01 1.333204460144042969e+01 6.258845329284667969e-01 5.719425678253173828e+00 1.903593063354492188e+00 5.211218819022178650e-02
3.637000000000000000e+03 6.624848937988281250e+01 9.944542884826660156e+00 2.688078403472900391e+00 1.545127391815185547e+01 5.441805839538574219e+00 1.566901206970214844e-01
3.638000000000000000e+03 7.173947906494140625e+01 9.968161582946777344e+00 -3.799907863140106201e-01 7.457541227340698242e-01 1.097290143370628357e-01 3.375017940998077393e-01
3.639000000000000000e+03 7.368439483642578125e+01 -6.603210568428039551e-01 -1.670760154724121094e+00 1.682822823524475098e+00 3.618789371103048325e-03 -6.568787693977355957e-01
3.640000000000000000e+03 6.832443237304687500e+01 7.106361865997314453e+00 -7.462084889411926270e-01 1.127047061920166016e+01 3.157278537750244141e+00 -1.330906987190246582e+00
3.641000000000000000e+03 3.594818115234375000e+01 2.313593149185180664e+00 -3.524290621280670166e-01 -5.836032032966613770e-01 -2.808096706867218018e-01 1.300322651863098145e+00
3.642000000000000000e+03 7.466091918945312500e+01 1.091849136352539062e+01 -2.558991909027099609e-01 5.902109146118164062e+00 1.693863034248352051e+00 -2.787010669708251953e+00
3.643000000000000000e+03 2.388446807861328125e+01 1.104487991333007812e+01 -3.414587974548339844e+00 7.889109611511230469e+00 1.342356562614440918e+00 2.121193170547485352e+00
3.644000000000000000e+03 5.191312789916992188e+01 1.134674739837646484e+01 3.425480127334594727e+00 1.545918846130371094e+01 5.665400505065917969e+00 1.234413027763366699e+00
3.645000000000000000e+03 6.341889190673828125e+01 -1.196165800094604492e+00 -3.392009019851684570e+00 8.255971908569335938e+00 1.459188818931579590e+00 4.214706897735595703e+00
3.646000000000000000e+03 5.063208389282226562e+01 -1.827776145935058594e+01 -1.578972935676574707e+00 -2.969363629817962646e-01 -5.627728104591369629e-01 5.364393591880798340e-01
3.647000000000000000e+03 5.208374404907226562e+01 -2.093120002746582031e+01 5.132383108139038086e-01 2.612294852733612061e-01 2.323403358459472656e-01 7.997178435325622559e-01
3.648000000000000000e+03 6.615171813964843750e+01 1.578120040893554688e+01 -4.799445569515228271e-01 8.437897682189941406e+00 2.387386083602905273e+00 -7.990678548812866211e-01
3.649000000000000000e+03 7.334069824218750000e+01 -1.582715797424316406e+01 8.266158103942871094e-01 1.022292137145996094e+01 3.314861059188842773e+00 2.963659763336181641e-01
3.650000000000000000e+03 7.514046478271484375e+01 5.111428350210189819e-02 -2.338080167770385742e+00 4.720016956329345703e+00 7.145810127258300781e-01 7.377105355262756348e-01
3.651000000000000000e+03 7.600885772705078125e+01 1.215191721916198730e+00 -3.262149810791015625e+00 7.933958053588867188e+00 1.401542544364929199e+00 7.645601034164428711e-02
3.652000000000000000e+03 6.670729827880859375e+01 -1.213562369346618652e+00 -3.385131120681762695e+00 1.387853980064392090e+00 -5.991831421852111816e-01 1.180013060569763184e+00
3.653000000000000000e+03 3.095863914489746094e+01 -7.526647567749023438e+00 1.099633216857910156e+00 1.213938951492309570e+00 6.940716505050659180e-01 -1.338667511940002441e+00
3.654000000000000000e+03 2.324654579162597656e+01 1.521884918212890625e+00 -2.417498111724853516e+00 1.363092422485351562e+01 3.364027738571166992e+00 -4.938889980316162109e+00
3.655000000000000000e+03 3.701875305175781250e+01 -8.809057474136352539e-01 1.488887816667556763e-01 -1.769662857055664062e+00 -4.862322211265563965e-01 7.565255463123321533e-02
3.656000000000000000e+03 5.379537200927734375e+01 1.381600379943847656e+00 2.872912406921386719e+00 1.328919792175292969e+01 4.848633289337158203e+00 -1.449216961860656738e+00
3.657000000000000000e+03 3.690575790405273438e+01 3.131064653396606445e+00 -1.445618271827697754e-02 -1.102407336235046387e+00 -3.350590467453002930e-01 9.156542420387268066e-01
3.658000000000000000e+03 4.254937744140625000e+01 -1.569140243530273438e+01 1.996805071830749512e+00 5.889001369476318359e+00 2.365741968154907227e+00 7.356253266334533691e-01
3.659000000000000000e+03 7.742289733886718750e+01 2.831457519531250000e+01 -1.923117414116859436e-02 6.973352909088134766e+00 2.086236476898193359e+00 1.165351346135139465e-01
3.660000000000000000e+03 7.808964538574218750e+01 1.799610137939453125e+01 7.894375175237655640e-02 6.706682205200195312e+00 2.035687685012817383e+00 -8.290340006351470947e-02
3.661000000000000000e+03 2.067499637603759766e+00 2.761096382141113281e+01 -1.055267523042857647e-03 1.448663353919982910e+00 4.342824220657348633e-01 1.030140966176986694e-01
3.662000000000000000e+03 1.778340697288513184e+00 1.795287513732910156e+01 -5.657804757356643677e-02 1.587385892868041992e+00 4.592423737049102783e-01 -1.126840412616729736e-01
3.663000000000000000e+03 2.087593317031860352e+00 -1.794858360290527344e+01 6.997318938374519348e-03 -4.650216698646545410e-01 -1.374073028564453125e-01 -7.408384233713150024e-02
3.664000000000000000e+03 3.672013092041015625e+01 7.859115004539489746e-01 -5.573506951332092285e-01 -1.400814175605773926e+00 -5.874494314193725586e-01 6.193610429763793945e-01
3.665000000000000000e+03 4.905393600463867188e+01 6.219795227050781250e+00 2.138879776000976562e+00 7.549576282501220703e+00 2.906536817550659180e+00 2.744829177856445312e+00
3.666000000000000000e+03 7.431532287597656250e+01 -1.110678195953369141e+01 1.094252228736877441e+00 1.003394794464111328e+01 3.338459968566894531e+00 7.543371915817260742e-01
3.667000000000000000e+03 7.310263824462890625e+01 -9.743236541748046875e+00 1.220773577690124512e+00 1.046232414245605469e+01 3.504929304122924805e+00 -4.089921712875366211e-02
3.668000000000000000e+03 2.798550605773925781e+00 6.004300594329833984e+00 5.093826055526733398e-01 -4.415425956249237061e-01 2.035200409591197968e-02 -1.684721261262893677e-01
3.669000000000000000e+03 7.665911102294921875e+01 3.121948242187500000e+01 -1.740893349051475525e-02 6.980850696563720703e+00 2.089032411575317383e+00 1.019541472196578979e-01
3.670000000000000000e+03 7.743449401855468750e+01 -1.873293113708496094e+01 -2.000462561845779419e-01 7.494047641754150391e+00 2.188200473785400391e+00 -3.380016386508941650e-01
3.671000000000000000e+03 2.951984977722167969e+01 -5.656767845153808594e+00 1.063566446304321289e+00 3.078247308731079102e+00 1.242544174194335938e+00 -7.473925948143005371e-01
3.672000000000000000e+03 7.278351593017578125e+01 -7.554995536804199219e+00 1.229688599705696106e-01 8.143337249755859375e+00 2.479892015457153320e+00 -3.203091025352478027e-02
3.673000000000000000e+03 2.485809087753295898e+00 1.868671798706054688e+01 -8.791148662567138672e-02 1.516572594642639160e+00 4.285983145236968994e-01 -9.876360744237899780e-02
3.674000000000000000e+03 7.766119384765625000e+01 3.470306396484375000e+01 -1.618359051644802094e-02 7.152893066406250000e+00 2.141012907028198242e+00 5.363924801349639893e-02
3.675000000000000000e+03 7.436837768554687500e+01 -1.246218967437744141e+01 1.288878917694091797e+00 1.010448551177978516e+01 3.418009519577026367e+00 6.694720387458801270e-01
3.676000000000000000e+03 5.465045166015625000e+01 -2.136546516418457031e+01 -7.301219552755355835e-02 3.564902067184448242e+00 1.047566890716552734e+00 2.688957452774047852e+00
3.677000000000000000e+03 7.732865905761718750e+01 2.150169372558593750e+01 4.279147833585739136e-02 6.725970745086669922e+00 2.030628681182861328e+00 1.082870438694953918e-01
3.678000000000000000e+03 4.437204360961914062e+01 -3.158045291900634766e+00 9.841134548187255859e-01 1.228111553192138672e+01 3.979568481445312500e+00 1.648622274398803711e+00
3.679000000000000000e+03 2.462176704406738281e+01 1.808835983276367188e+01 -1.590043425559997559e+00 5.263612747192382812e+00 1.102070808410644531e+00 -2.727301359176635742e+00
3.680000000000000000e+03 2.635594367980957031e+01 1.611685943603515625e+01 2.543804883956909180e+00 8.227630615234375000e+00 3.231430768966674805e+00 2.708886623382568359e+00
3.681000000000000000e+03 3.147756767272949219e+01 -1.006420707702636719e+01 1.539546012878417969e+00 2.305667400360107422e+00 1.153563976287841797e+00 -2.010470867156982422e+00
3.682000000000000000e+03 3.192304229736328125e+01 -1.071178340911865234e+01 1.397217869758605957e+00 2.319741487503051758e+00 1.115087866783142090e+00 -1.912266492843627930e+00
3.683000000000000000e+03 2.148319625854492188e+01 5.488437652587890625e+00 4.733626365661621094e+00 8.214491844177246094e+00 3.884435415267944336e+00 3.694902062416076660e-01
3.684000000000000000e+03 4.372924804687500000e+01 1.389313507080078125e+01 -1.908131003379821777e+00 4.237104058265686035e-01 -4.453261792659759521e-01 -4.746483564376831055e-01
3.685000000000000000e+03 4.313953781127929688e+01 1.373942375183105469e+01 -1.806030988693237305e+00 4.113245904445648193e-01 -4.184119105339050293e-01 -3.719395697116851807e-01
3.686000000000000000e+03 3.746720504760742188e+01 8.116189002990722656e+00 -1.935452036559581757e-02 -3.152048587799072266e-02 -1.526250131428241730e-02 -8.881481364369392395e-03
3.687000000000000000e+03 1.524762058258056641e+01 1.421131706237792969e+01 -1.739424586296081543e+00 -4.749622642993927002e-01 -6.643160581588745117e-01 -7.776757478713989258e-01
3.688000000000000000e+03 1.993974113464355469e+01 -9.078088760375976562e+00 -7.930970788002014160e-01 8.488233387470245361e-02 -2.124644219875335693e-01 6.014448404312133789e-02
3.689000000000000000e+03 1.771532821655273438e+01 -6.653182029724121094e+00 -5.673056244850158691e-01 -1.816275645978748798e-03 -1.707365661859512329e-01 2.147455215454101562e-01
3.690000000000000000e+03 1.594470787048339844e+01 4.025432586669921875e+00 6.859134197235107422e+00 -3.870270550251007080e-01 1.941632151603698730e+00 -2.871183395385742188e+00
3.691000000000000000e+03 4.705429840087890625e+01 1.653137397766113281e+01 -8.642024397850036621e-01 -6.941504310816526413e-03 -2.613431811332702637e-01 -1.002913951873779297e+00
3.692000000000000000e+03 1.928840160369873047e+00 3.596597290039062500e+01 7.965878583490848541e-03 1.192170262336730957e+00 3.600408434867858887e-01 4.956893995404243469e-02
3.693000000000000000e+03 7.583964538574218750e+01 3.204577636718750000e+01 -2.412098832428455353e-02 6.940290451049804688e+00 2.074850797653198242e+00 1.075025871396064758e-01
3.694000000000000000e+03 7.617708587646484375e+01 3.051466560363769531e+01 -2.834957465529441833e-02 6.930670738220214844e+00 2.070696353912353516e+00 1.174268126487731934e-01
3.695000000000000000e+03 7.666447448730468750e+01 -3.428686523437500000e+01 1.845237798988819122e-02 6.583045959472656250e+00 1.980449557304382324e+00 6.845306605100631714e-02
3.696000000000000000e+03 2.747506618499755859e+00 3.558966064453125000e+01 1.389608625322580338e-02 1.179491400718688965e+00 3.580162227153778076e-01 6.597467511892318726e-02
3.697000000000000000e+03 7.560501861572265625e+01 2.975617980957031250e+01 -3.904205188155174255e-02 6.860982418060302734e+00 2.046581983566284180e+00 1.467097848653793335e-01
3.698000000000000000e+03 7.657289123535156250e+01 -3.275784301757812500e+01 2.954092621803283691e-02 6.600518703460693359e+00 1.989017963409423828e+00 9.858357161283493042e-02
3.699000000000000000e+03 4.360576152801513672e+00 -3.348967361450195312e+01 4.845293704420328140e-03 -3.531328141689300537e-01 -1.044862568378448486e-01 -1.895323512144386768e-03
3.700000000000000000e+03 2.931376695632934570e+00 3.646574020385742188e+01 1.891628094017505646e-02 1.157229065895080566e+00 3.528435826301574707e-01 6.364654004573822021e-02
3.701000000000000000e+03 3.762818813323974609e+00 3.323390579223632812e+01 2.591612562537193298e-02 1.181254506111145020e+00 3.621511757373809814e-01 1.154414862394332886e-01
3.702000000000000000e+03 4.060251712799072266e+00 3.246133041381835938e+01 2.550614811480045319e-02 1.183352231979370117e+00 3.626574873924255371e-01 1.245600581169128418e-01
3.703000000000000000e+03 7.658860015869140625e+01 3.260862731933593750e+01 -2.485180459916591644e-02 6.996375083923339844e+00 2.091456890106201172e+00 9.044117480516433716e-02
3.704000000000000000e+03 7.700124359130859375e+01 -3.656559753417968750e+01 1.661381870508193970e-02 6.595972061157226562e+00 1.983775734901428223e+00 4.701503366231918335e-02
3.705000000000000000e+03 3.645657730102539062e+01 1.556721782684326172e+01 -2.675174713134765625e+00 -4.089183807373046875e-01 -9.252279400825500488e-01 -2.664871215820312500e-01
3.706000000000000000e+03 3.570534133911132812e+01 1.586573123931884766e+01 -2.411278963088989258e+00 -8.551163077354431152e-01 -9.799185991287231445e-01 -2.732533812522888184e-01
3.707000000000000000e+03 1.168620109558105469e+01 1.189866352081298828e+01 -1.224237799644470215e+00 3.822088837623596191e-01 -2.526086568832397461e-01 -5.075089931488037109e-01
3.708000000000000000e+03 3.595482254028320312e+01 1.552215456962585449e+00 -3.917289376258850098e-01 -8.272174596786499023e-01 -3.656839132308959961e-01 1.126958370208740234e+00
3.709000000000000000e+03 2.685072708129882812e+01 1.406543827056884766e+01 2.196622371673583984e+00 7.319200038909912109e+00 2.854746818542480469e+00 6.820134520530700684e-01
3.710000000000000000e+03 7.762807464599609375e+01 -4.655362129211425781e+00 -1.644127070903778076e-02 9.434850692749023438e+00 2.825522899627685547e+00 1.466057181358337402e+00
3.711000000000000000e+03 7.692003631591796875e+01 -4.696135520935058594e+00 -1.514788120985031128e-01 8.719650268554687500e+00 2.570451259613037109e+00 1.531293153762817383e+00
3.712000000000000000e+03 7.824923706054687500e+01 5.867969512939453125e+00 6.069771051406860352e-01 9.920563697814941406e+00 3.158262252807617188e+00 -1.618833184242248535e+00
3.713000000000000000e+03 3.827037048339843750e+01 1.510495853424072266e+01 -2.315019130706787109e+00 3.820088207721710205e-01 -5.799030661582946777e-01 4.244255647063255310e-02
3.714000000000000000e+03 1.267408275604248047e+01 1.296499347686767578e+01 -1.372341394424438477e+00 5.240920186042785645e-02 -3.959796428680419922e-01 -5.580996870994567871e-01
3.715000000000000000e+03 7.817098236083984375e+01 1.495987033843994141e+01 4.541221633553504944e-02 6.977269649505615234e+00 2.106804609298706055e+00 -3.179809749126434326e-01
3.716000000000000000e+03 7.815499114990234375e+01 1.647851562500000000e+01 8.008120208978652954e-02 6.794275283813476562e+00 2.062307119369506836e+00 -2.096397876739501953e-01
3.717000000000000000e+03 4.312055969238281250e+01 -1.176993656158447266e+01 -1.287404298782348633e+00 5.817876815795898438e+00 1.359141826629638672e+00 2.229803323745727539e+00
3.718000000000000000e+03 4.275706100463867188e+01 -1.124937343597412109e+01 -1.526577234268188477e+00 5.924538135528564453e+00 1.319388270378112793e+00 2.307617187500000000e+00
3.719000000000000000e+03 4.367438888549804688e+01 -5.498435020446777344e+00 2.382661581039428711e+00 1.069764804840087891e+01 3.924093008041381836e+00 1.992892265319824219e+00
3.720000000000000000e+03 2.021409273147583008e+00 -1.556032466888427734e+01 6.128302309662103653e-03 -3.927517235279083252e-01 -1.159870252013206482e-01 -8.553413301706314087e-02
3.721000000000000000e+03 7.707025146484375000e+01 -2.540334892272949219e+01 -2.262828871607780457e-02 6.952756404876708984e+00 2.079038381576538086e+00 1.915186196565628052e-01
3.722000000000000000e+03 2.032131671905517578e+00 1.483801460266113281e+01 -1.029769703745841980e-01 1.253449559211730957e+00 3.451417982578277588e-01 -3.666588366031646729e-01
3.723000000000000000e+03 7.081118011474609375e+01 1.040412807464599609e+01 5.284826159477233887e-01 3.455375909805297852e+00 1.195157527923583984e+00 1.053602099418640137e+00
3.724000000000000000e+03 6.939375305175781250e+01 -2.865724086761474609e+00 -3.211978912353515625e+00 3.922358036041259766e+00 2.131137698888778687e-01 -1.380587220191955566e+00
3.725000000000000000e+03 5.681552124023437500e+01 -4.074063301086425781e-01 -1.478642821311950684e+00 2.318989515304565430e+00 2.521039843559265137e-01 -4.712394237518310547e+00
3.726000000000000000e+03 5.480349349975585938e+01 -6.392628192901611328e+00 -1.017659902572631836e+00 5.383445262908935547e+00 1.309735536575317383e+00 -1.207098126411437988e+00
3.727000000000000000e+03 7.753929138183593750e+01 6.426554203033447266e+00 1.273108482360839844e+00 1.161354923248291016e+01 3.865997314453125000e+00 -1.385784029960632324e+00
3.728000000000000000e+03 7.805240631103515625e+01 7.634437561035156250e+00 1.126455426216125488e+00 9.097310066223144531e+00 3.067129850387573242e+00 -2.247832864522933960e-01
3.729000000000000000e+03 5.051997375488281250e+01 -2.226670980453491211e+00 -3.350613355636596680e+00 2.568900346755981445e+00 -2.345139086246490479e-01 2.148476988077163696e-01
3.730000000000000000e+03 5.026704025268554688e+01 -3.285744190216064453e+00 -5.341933250427246094e+00 9.415216445922851562e-01 -1.320123553276062012e+00 3.435080647468566895e-01
3.731000000000000000e+03 4.157698822021484375e+01 -1.024949359893798828e+01 -1.795510888099670410e+00 4.979279518127441406e+00 9.551306366920471191e-01 2.100198030471801758e+00
3.732000000000000000e+03 4.243420028686523438e+01 -1.071057415008544922e+01 -1.709596633911132812e+00 5.684971332550048828e+00 1.192612409591674805e+00 2.343144416809082031e+00
3.733000000000000000e+03 2.594675445556640625e+01 -3.390512466430664062e+00 2.643014907836914062e+00 8.623757362365722656e+00 3.380031585693359375e+00 -1.960076212882995605e+00
3.734000000000000000e+03 2.545895195007324219e+01 -2.923424959182739258e+00 2.466634988784790039e+00 8.650633811950683594e+00 3.335180759429931641e+00 -2.873496055603027344e+00
3.735000000000000000e+03 5.119832611083984375e+01 -4.416197299957275391e+00 -4.761255264282226562e+00 1.407479763031005859e+00 -1.006132602691650391e+00 1.089835047721862793e+00
3.736000000000000000e+03 5.483613967895507812e+01 -7.566531181335449219e+00 -2.206964641809463501e-01 5.505949974060058594e+00 1.585576057434082031e+00 -1.147567033767700195e+00
3.737000000000000000e+03 6.033974456787109375e+01 1.204727411270141602e+00 -3.890285730361938477e+00 2.649218797683715820e+00 -3.723200559616088867e-01 3.300870954990386963e-01
3.738000000000000000e+03 5.940152359008789062e+01 4.003488123416900635e-01 -3.242429256439208984e+00 1.630128383636474609e+00 -4.836902320384979248e-01 -5.201426744461059570e-01
3.739000000000000000e+03 2.005861520767211914e+00 -1.320558929443359375e+01 -4.651580820791423321e-04 -3.076132833957672119e-01 -9.242352843284606934e-02 -9.082830697298049927e-02
3.740000000000000000e+03 7.763534545898437500e+01 9.463365554809570312e+00 -2.167169153690338135e-01 9.102680206298828125e+00 2.665788888931274414e+00 3.538779616355895996e-01
3.741000000000000000e+03 7.661702728271484375e+01 9.166514396667480469e+00 2.935802005231380463e-02 1.050378894805908203e+01 3.159944057464599609e+00 -7.643125653266906738e-01
3.742000000000000000e+03 4.873976898193359375e+01 -1.439978361129760742e+00 -9.255489110946655273e-01 7.997729778289794922e-01 -3.773278370499610901e-02 3.058466196060180664e+00
3.743000000000000000e+03 2.555370521545410156e+01 -1.881184577941894531e+00 1.973852992057800293e+00 6.286920547485351562e+00 2.478232145309448242e+00 -2.759819269180297852e+00
3.744000000000000000e+03 2.455547523498535156e+01 -2.682963609695434570e+00 2.711756706237792969e+00 9.043690681457519531e+00 3.526634216308593750e+00 -4.381512641906738281e+00
3.745000000000000000e+03 5.095404434204101562e+01 -2.773964881896972656e+00 -4.094058036804199219e+00 2.864197969436645508e+00 -3.689580559730529785e-01 -1.236122399568557739e-01
3.746000000000000000e+03 6.579302215576171875e+01 -1.569343090057373047e+01 -5.642594695091247559e-01 2.751712083816528320e+00 6.562358140945434570e-01 -8.524923324584960938e-01
3.747000000000000000e+03 7.763246154785156250e+01 -1.731155776977539062e+01 -9.295246750116348267e-02 7.444867134094238281e+00 2.205574274063110352e+00 -4.481300413608551025e-01
3.748000000000000000e+03 6.808980560302734375e+01 1.228779983520507812e+01 2.592328786849975586e+00 9.389219284057617188e+00 3.594464540481567383e+00 1.591616988182067871e+00
3.749000000000000000e+03 6.738965606689453125e+01 1.257378959655761719e+01 2.798551797866821289e+00 1.108298778533935547e+01 4.164461612701416016e+00 1.262509584426879883e+00
3.750000000000000000e+03 7.757115173339843750e+01 -6.150051116943359375e+00 4.794205725193023682e-02 9.008211135864257812e+00 2.716845750808715820e+00 1.544450759887695312e+00
3.751000000000000000e+03 7.749063110351562500e+01 -6.918336868286132812e+00 4.330858215689659119e-02 8.780415534973144531e+00 2.647117137908935547e+00 1.514236807823181152e+00
3.752000000000000000e+03 4.697119140625000000e+01 3.841247797012329102e+00 2.869709730148315430e+00 3.650285720825195312e+00 1.955998659133911133e+00 3.162209749221801758e+00
3.753000000000000000e+03 4.523025894165039062e+01 -1.300024414062500000e+01 -1.129562854766845703e+00 3.576776981353759766e+00 7.341642379760742188e-01 1.066512942314147949e+00
3.754000000000000000e+03 2.590205001831054688e+01 1.833029747009277344e+01 -1.942390918731689453e+00 6.338233470916748047e+00 1.318752765655517578e+00 6.931492686271667480e-01
3.755000000000000000e+03 2.172928810119628906e+01 -1.027609157562255859e+01 3.221457898616790771e-01 -6.300555914640426636e-02 7.774206995964050293e-02 3.400456905364990234e-01
3.756000000000000000e+03 7.181396484375000000e+01 -6.532887935638427734e+00 -3.460768759250640869e-01 6.243323326110839844e+00 1.769173860549926758e+00 -8.972160220146179199e-01
3.757000000000000000e+03 5.586097335815429688e+01 1.018255424499511719e+01 9.099017381668090820e-01 4.958330631256103516e+00 1.760469794273376465e+00 1.591269016265869141e+00
3.758000000000000000e+03 5.435878372192382812e+01 9.858329772949218750e+00 8.923611640930175781e-01 9.313784599304199219e+00 3.061843872070312500e+00 1.182567000389099121e+00
3.759000000000000000e+03 2.332071876525878906e+01 8.281576037406921387e-01 -2.329534292221069336e+00 1.162260150909423828e+01 2.787920236587524414e+00 -5.966509342193603516e+00
3.760000000000000000e+03 4.595329666137695312e+01 1.536742448806762695e+00 1.493333578109741211e+00 3.673443317413330078e+00 1.550033092498779297e+00 3.640693187713623047e+00
3.761000000000000000e+03 3.723442840576171875e+01 -1.697014045715332031e+01 2.036752700805664062e+00 1.482552409172058105e+00 1.055791616439819336e+00 -7.162002921104431152e-01
3.762000000000000000e+03 7.672801971435546875e+01 -2.793246507644653320e+00 -3.511924743652343750e-01 8.433516502380371094e+00 2.424697160720825195e+00 1.369089603424072266e+00
3.763000000000000000e+03 1.902129769325256348e+00 4.180996894836425781e+00 1.817910522222518921e-01 -5.896543860435485840e-01 -1.223590001463890076e-01 3.457662761211395264e-01
3.764000000000000000e+03 7.821687316894531250e+01 3.789358139038085938e+00 4.939999431371688843e-02 1.081489276885986328e+01 3.259287834167480469e+00 -2.289449691772460938e+00
3.765000000000000000e+03 3.810539245605468750e+01 7.845292568206787109e+00 -3.773503378033638000e-02 -3.501715883612632751e-02 -2.182565815746784210e-02 -3.690474899485707283e-03
3.766000000000000000e+03 6.009471130371093750e+01 1.316580677032470703e+01 -3.331717252731323242e-01 5.766871571540832520e-01 7.305462658405303955e-02 4.110109210014343262e-01
3.767000000000000000e+03 2.191331672668457031e+01 8.273567199707031250e+00 -2.311510086059570312e+00 5.854063510894775391e+00 1.062765955924987793e+00 6.349846720695495605e-01
3.768000000000000000e+03 2.237903404235839844e+01 7.701736450195312500e+00 -1.103844165802001953e+00 8.164071083068847656e+00 2.118067979812622070e+00 1.401128888130187988e+00
3.769000000000000000e+03 6.147430801391601562e+01 -8.231142044067382812e+00 7.095454931259155273e-01 9.382616996765136719e+00 3.027648687362670898e+00 9.108762741088867188e-01
3.770000000000000000e+03 1.676681900024414062e+01 -5.546674728393554688e+00 -4.179230630397796631e-01 -1.796006225049495697e-02 -1.307649314403533936e-01 1.767261326313018799e-01
3.771000000000000000e+03 6.642716217041015625e+01 9.356504440307617188e+00 9.737933278083801270e-01 1.511529636383056641e+01 4.826726913452148438e+00 1.183350607752799988e-01
3.772000000000000000e+03 3.682220840454101562e+01 -1.524700284004211426e+00 4.639993011951446533e-01 -1.713400483131408691e+00 -3.748203814029693604e-01 -2.125934362411499023e-01
3.773000000000000000e+03 3.738738250732421875e+01 -2.531942129135131836e+00 8.898454308509826660e-01 -2.033320188522338867e+00 -3.430424630641937256e-01 -1.552639454603195190e-01
3.774000000000000000e+03 5.272526168823242188e+01 6.841321468353271484e+00 1.597605049610137939e-01 1.342957019805908203e+01 4.076799392700195312e+00 -1.524799168109893799e-01
3.775000000000000000e+03 6.522174835205078125e+01 5.453602313995361328e+00 3.796982765197753906e-01 7.222164154052734375e+00 2.280558824539184570e+00 9.391183853149414062e-01
3.776000000000000000e+03 6.561622619628906250e+01 5.969010353088378906e+00 1.846511363983154297e-01 8.438939094543457031e+00 2.587077140808105469e+00 4.412612617015838623e-01
3.777000000000000000e+03 6.604634094238281250e+01 -1.458878755569458008e+00 -2.922547101974487305e+00 4.754631593823432922e-02 -8.625002503395080566e-01 1.943645000457763672e+00
3.778000000000000000e+03 6.591868591308593750e+01 -7.945694923400878906e-01 -1.773796677589416504e+00 2.073221206665039062e+00 8.982737362384796143e-02 3.692171812057495117e+00
3.779000000000000000e+03 6.476818847656250000e+01 -1.543133735656738281e+00 -3.625623941421508789e+00 3.820693492889404297e+00 5.852086842060089111e-02 6.918330192565917969e+00
3.780000000000000000e+03 3.621711349487304688e+01 -1.411202430725097656e+00 5.393368601799011230e-01 -1.566146731376647949e+00 -3.080429434776306152e-01 4.870811104774475098e-02
3.781000000000000000e+03 2.725991630554199219e+01 -5.531076431274414062e+00 3.037973165512084961e+00 8.215493202209472656e+00 3.376039981842041016e+00 -1.101235866546630859e+00
3.782000000000000000e+03 2.723220825195312500e+01 -4.907279968261718750e+00 2.684741735458374023e+00 8.273567199707031250e+00 3.287492752075195312e+00 -6.473242044448852539e-01
3.783000000000000000e+03 6.834450531005859375e+01 9.997076988220214844e+00 1.041844725608825684e+00 9.943714141845703125e+00 3.295667648315429688e+00 2.017321586608886719e-01
3.784000000000000000e+03 6.762289428710937500e+01 1.096128654479980469e+01 2.203882217407226562e+00 1.131036853790283203e+01 4.054275512695312500e+00 7.016582489013671875e-01
3.785000000000000000e+03 6.108401489257812500e+01 1.587024593353271484e+01 1.209945797920227051e+00 1.835206508636474609e+00 9.135456681251525879e-01 5.110353231430053711e-01
3.786000000000000000e+03 1.496409893035888672e+01 1.307518959045410156e+01 -1.798818945884704590e+00 -6.575720906257629395e-01 -7.369173169136047363e-01 -1.000712752342224121e+00
3.787000000000000000e+03 3.946742248535156250e+01 -3.590848684310913086e+00 1.427435517311096191e+00 -9.069694280624389648e-01 1.561398357152938843e-01 -6.992454826831817627e-02
3.788000000000000000e+03 3.970713043212890625e+01 -2.152565956115722656e+00 7.890910506248474121e-01 -7.165739536285400391e-01 2.175512909889221191e-02 -2.390671223402023315e-01
3.789000000000000000e+03 7.553913879394531250e+01 9.900985717773437500e+00 -9.382476806640625000e-01 9.317947387695312500e+00 2.513909816741943359e+00 -2.618163585662841797e+00
3.790000000000000000e+03 7.507844543457031250e+01 9.361466407775878906e+00 -4.997783303260803223e-01 8.214546203613281250e+00 2.314430475234985352e+00 -3.413313627243041992e+00
3.791000000000000000e+03 2.606864452362060547e+00 4.059831142425537109e+00 3.094589114189147949e-01 -5.165147185325622559e-01 -6.211673840880393982e-02 4.147740006446838379e-01
3.792000000000000000e+03 4.675920867919921875e+01 -1.435136413574218750e+01 -8.506371974945068359e-01 1.013515114784240723e+00 4.886338114738464355e-02 5.368301272392272949e-01
3.793000000000000000e+03 4.621908950805664062e+01 -1.299729537963867188e+01 -1.193235635757446289e+00 1.948355197906494141e+00 2.265358567237854004e-01 8.038456439971923828e-01
3.794000000000000000e+03 5.327238464355468750e+01 1.187742042541503906e+01 2.872643947601318359e+00 1.110663795471191406e+01 4.193784713745117188e+00 1.749027371406555176e+00
3.795000000000000000e+03 5.265839767456054688e+01 1.238886356353759766e+01 2.958038568496704102e+00 1.342475605010986328e+01 4.914838314056396484e+00 1.709989666938781738e+00
3.796000000000000000e+03 6.606307220458984375e+01 6.431598663330078125e+00 -6.444358825683593750e-02 9.704286575317382812e+00 2.891952991485595703e+00 1.107918769121170044e-01
3.797000000000000000e+03 1.788790702819824219e+01 -8.289474487304687500e+00 -5.935211181640625000e-01 1.630093306303024292e-01 -1.291535347700119019e-01 4.725975170731544495e-02
3.798000000000000000e+03 1.849399757385253906e+01 -7.856559276580810547e+00 -6.780554056167602539e-01 7.625444233417510986e-02 -1.805402934551239014e-01 1.450288593769073486e-01
3.799000000000000000e+03 7.319416809082031250e+01 -8.000333786010742188e+00 4.664857387542724609e-01 8.684645652770996094e+00 2.745339393615722656e+00 3.607646524906158447e-01
3.800000000000000000e+03 7.788294219970703125e+01 2.536207008361816406e+01 -4.062483087182044983e-03 6.894680023193359375e+00 2.067185401916503906e+00 1.185511052608489990e-01
3.801000000000000000e+03 3.418082809448242188e+01 5.003492832183837891e+00 -1.138412117958068848e+00 4.799220561981201172e-01 -1.975470185279846191e-01 6.312736272811889648e-01
3.802000000000000000e+03 3.449537277221679688e+01 5.587553024291992188e+00 -9.147363901138305664e-01 2.975741326808929443e-01 -1.851486712694168091e-01 3.910779654979705811e-01
3.803000000000000000e+03 6.426441192626953125e+01 5.340488910675048828e+00 4.327262938022613525e-01 5.384353160858154297e+00 1.745123744010925293e+00 1.537287831306457520e+00
3.804000000000000000e+03 5.424331665039062500e+00 3.610307455062866211e+00 1.167508244514465332e+00 -5.453399419784545898e-01 1.866504997014999390e-01 7.246223092079162598e-01
3.805000000000000000e+03 2.748575782775878906e+01 -6.487480401992797852e-01 2.698582172393798828e+00 1.654236316680908203e+00 1.305845499038696289e+00 2.093788832426071167e-01
3.806000000000000000e+03 2.852160072326660156e+01 -6.455398797988891602e-01 3.802077054977416992e+00 1.733858585357666016e+00 1.660780668258666992e+00 1.563051223754882812e+00
3.807000000000000000e+03 7.669754028320312500e+00 4.229244232177734375e+00 3.635579586029052734e+00 1.618486791849136353e-01 1.139228463172912598e+00 -1.168437823653221130e-01
3.808000000000000000e+03 4.355888748168945312e+01 -9.071314811706542969e+00 -1.309272050857543945e+00 7.220743656158447266e+00 1.773441433906555176e+00 1.731873035430908203e+00
3.809000000000000000e+03 4.271633911132812500e+01 -1.323892593383789062e+01 -1.605177819728851318e-01 6.081251621246337891e+00 1.776220083236694336e+00 1.767002224922180176e+00
3.810000000000000000e+03 4.227199935913085938e+01 -1.375208091735839844e+01 4.111238718032836914e-01 6.573865413665771484e+00 2.095496654510498047e+00 1.883233547210693359e+00
3.811000000000000000e+03 5.534320831298828125e+01 -6.890077590942382812e+00 -5.836278200149536133e-01 5.798215866088867188e+00 1.564376473426818848e+00 -1.059582114219665527e+00
3.812000000000000000e+03 6.163008117675781250e+01 -4.478737831115722656e+00 2.009589195251464844e+00 9.094593048095703125e+00 3.331254720687866211e+00 9.579775333404541016e-01
3.813000000000000000e+03 1.706191444396972656e+01 1.602144050598144531e+01 -1.812236905097961426e+00 -3.680397868156433105e-01 -6.540830135345458984e-01 -7.069666385650634766e-01
3.814000000000000000e+03 1.636639785766601562e+01 1.564799308776855469e+01 -1.759679317474365234e+00 -4.172753095626831055e-01 -6.530863642692565918e-01 -6.712137460708618164e-01
3.815000000000000000e+03 4.814493179321289062e+01 -1.599855327606201172e+01 -7.983145713806152344e-01 8.038692176342010498e-02 -2.153782993555068970e-01 4.579437077045440674e-01
3.816000000000000000e+03 7.699839782714843750e+01 -2.705227279663085938e+01 1.238304655998945236e-02 6.841534137725830078e+00 2.056174993515014648e+00 1.831385344266891479e-01
3.817000000000000000e+03 7.780148315429687500e+01 -2.868431854248046875e+01 1.886852458119392395e-02 6.894443511962890625e+00 2.073993682861328125e+00 1.224926933646202087e-01
3.818000000000000000e+03 2.938365745544433594e+01 1.423721313476562500e+01 2.055026777088642120e-02 4.751161038875579834e-01 1.486999094486236572e-01 1.936642676591873169e-01
3.819000000000000000e+03 4.329616546630859375e+01 1.433864212036132812e+01 -1.858988404273986816e+00 5.406492948532104492e-01 -3.955017328262329102e-01 -3.074541985988616943e-01
3.820000000000000000e+03 6.706854248046875000e+01 1.356598854064941406e+01 1.251199126243591309e+00 1.102777481079101562e+01 3.683692216873168945e+00 1.125660300254821777e+00
3.821000000000000000e+03 3.208539962768554688e+01 2.471617460250854492e+00 -1.346942782402038574e+00 1.966405272483825684e+00 1.858387440443038940e-01 1.914963960647583008e+00
3.822000000000000000e+03 7.812949371337890625e+01 1.723760795593261719e+01 9.794577211141586304e-02 6.738305091857910156e+00 2.050875186920166016e+00 -1.559204608201980591e-01
3.823000000000000000e+03 1.107057857513427734e+01 -3.950760841369628906e+00 -1.777139604091644287e-01 6.214999035000801086e-02 -3.466919064521789551e-02 -2.203101292252540588e-02
3.824000000000000000e+03 9.700918197631835938e+00 -3.423878431320190430e+00 -1.423617452383041382e-01 3.739782050251960754e-02 -3.148917481303215027e-02 -3.738082200288772583e-02
3.825000000000000000e+03 4.423102951049804688e+01 -3.296945691108703613e-01 -1.038389444351196289e+00 5.618271350860595703e+00 1.373964667320251465e+00 3.235276699066162109e+00
3.826000000000000000e+03 2.172705888748168945e+00 2.477576637268066406e+01 -7.971293292939662933e-03 1.534658193588256836e+00 4.580060839653015137e-01 9.437127411365509033e-02
3.827000000000000000e+03 4.907526397705078125e+01 -1.683953666687011719e+01 -1.039310455322265625e+00 -2.535838782787322998e-01 -3.878683149814605713e-01 5.548394322395324707e-01
3.828000000000000000e+03 5.031300735473632812e+01 -1.758990669250488281e+01 -1.667990684509277344e+00 -5.517750978469848633e-01 -6.659297347068786621e-01 8.788444399833679199e-01
3.829000000000000000e+03 2.079146385192871094e+00 2.837260818481445312e+01 4.538991954177618027e-03 1.417188048362731934e+00 4.265181124210357666e-01 1.015294939279556274e-01
3.830000000000000000e+03 3.916771316528320312e+01 -5.483160018920898438e+00 8.447002768516540527e-01 -9.680286049842834473e-01 -3.699851036071777344e-02 5.820858478546142578e-01
3.831000000000000000e+03 7.772203063964843750e+01 2.760101127624511719e+01 -6.397604476660490036e-03 6.982193470001220703e+00 2.092738866806030273e+00 1.110633388161659241e-01
3.832000000000000000e+03 1.432649707794189453e+01 3.919926881790161133e+00 6.938127040863037109e+00 -4.310884475708007812e+00 7.881727218627929688e-01 -3.005878210067749023e+00
3.833000000000000000e+03 1.524051094055175781e+01 3.603149175643920898e+00 9.601309776306152344e+00 -3.537261724472045898e+00 1.819214463233947754e+00 -2.523177623748779297e+00
3.834000000000000000e+03 5.675793838500976562e+01 1.226591205596923828e+01 1.304928064346313477e+00 3.676773786544799805e+00 1.494510531425476074e+00 1.943472981452941895e+00
3.835000000000000000e+03 4.479026794433593750e+01 -1.638599038124084473e+00 -1.848409175872802734e+00 7.654136180877685547e+00 1.741718053817749023e+00 4.396101951599121094e+00
3.836000000000000000e+03 4.406098937988281250e+01 -1.950802087783813477e+00 -1.480793714523315430e+00 8.492241859436035156e+00 2.103434562683105469e+00 2.292940378189086914e+00
3.837000000000000000e+03 7.738734436035156250e+01 -1.341996097564697266e+01 4.647719264030456543e-01 7.560704231262207031e+00 2.407642841339111328e+00 1.461225897073745728e-01
3.838000000000000000e+03 2.953990936279296875e+00 -3.615276575088500977e+00 -2.303270250558853149e-02 -2.841294929385185242e-02 -1.543369609862565994e-02 -4.315098375082015991e-02
3.839000000000000000e+03 3.825228452682495117e+00 -4.577809333801269531e+00 -3.472913056612014771e-02 -3.450465947389602661e-02 -2.077013812959194183e-02 -6.779377907514572144e-02
3.840000000000000000e+03 7.800231933593750000e+01 1.338407325744628906e+01 -8.943124860525131226e-02 7.263739109039306641e+00 2.152292251586914062e+00 -4.137538373470306396e-01
3.841000000000000000e+03 4.443894958496093750e+01 -1.036136531829833984e+01 -1.513400554656982422e+00 6.034843444824218750e+00 1.356432795524597168e+00 1.469519138336181641e+00
3.842000000000000000e+03 1.811842346191406250e+01 1.584504604339599609e+01 -2.122993230819702148e+00 -4.433500766754150391e-01 -7.699030041694641113e-01 -8.904787302017211914e-01
3.843000000000000000e+03 1.766974449157714844e+00 1.868671607971191406e+01 -4.518546164035797119e-02 1.625821471214294434e+00 4.741908013820648193e-01 -7.490190863609313965e-02
3.844000000000000000e+03 5.786547470092773438e+01 -1.280301952362060547e+01 6.526131033897399902e-01 9.910561561584472656e+00 3.168952465057373047e+00 3.538261055946350098e-01
3.845000000000000000e+03 7.704657745361328125e+01 -2.377508354187011719e+01 -8.420728147029876709e-02 7.075292587280273438e+00 2.097325563430786133e+00 1.713597774505615234e-01
3.846000000000000000e+03 7.790570831298828125e+01 -2.455059623718261719e+01 -3.511937707662582397e-02 7.147817611694335938e+00 2.133809566497802734e+00 1.273146122694015503e-01
3.847000000000000000e+03 4.290746307373046875e+01 -3.557737916707992554e-02 -1.190541386604309082e+00 4.029388427734375000e+00 8.516541123390197754e-01 1.686235904693603516e+00
3.848000000000000000e+03 4.381675338745117188e+01 -1.372285008430480957e+00 -1.367377281188964844e+00 6.818323612213134766e+00 1.635283946990966797e+00 2.631660699844360352e+00
3.849000000000000000e+03 3.826564788818359375e+01 -1.562582492828369141e+00 4.936834573745727539e-01 -1.826742529869079590e+00 -3.999176919460296631e-01 -3.240036070346832275e-01
3.850000000000000000e+03 2.063839673995971680e+00 -1.714842414855957031e+01 8.347001858055591583e-03 -4.424806237220764160e-01 -1.302400827407836914e-01 -7.895692437887191772e-02
3.851000000000000000e+03 7.125371551513671875e+01 -1.752270507812500000e+01 -7.008716464042663574e-01 5.981088638305664062e+00 1.584065198898315430e+00 2.728826045989990234e+00
3.852000000000000000e+03 6.141525650024414062e+01 -7.417766094207763672e+00 8.294245600700378418e-01 9.560794830322265625e+00 3.117065906524658203e+00 9.078480601310729980e-01
3.853000000000000000e+03 2.422504806518554688e+01 -1.960493564605712891e+00 1.928406596183776855e+00 8.278276443481445312e+00 3.062005043029785156e+00 -4.586766719818115234e+00
3.854000000000000000e+03 4.752064132690429688e+01 3.317451477050781250e+00 2.861874580383300781e+00 3.889605998992919922e+00 2.025444030761718750e+00 3.169681310653686523e+00
3.855000000000000000e+03 3.252383947372436523e+00 -2.748794555664062500e+01 7.711669895797967911e-03 -4.716034531593322754e-01 -1.391675323247909546e-01 -1.835286803543567657e-02
3.856000000000000000e+03 3.099621009826660156e+01 1.461455059051513672e+01 -1.499695062637329102e+00 -9.643968939781188965e-01 -7.392275929450988770e-01 -2.487912327051162720e-01
3.857000000000000000e+03 5.323134994506835938e+01 -4.447692871093750000e+00 -3.262471914291381836e+00 4.951671123504638672e+00 5.067597627639770508e-01 -1.376635313034057617e+00
3.858000000000000000e+03 1.873943519592285156e+01 6.292537212371826172e+00 1.042831778526306152e+00 -1.099531769752502441e+00 -1.701001822948455811e-02 -1.056600332260131836e+00
3.859000000000000000e+03 1.944026565551757812e+01 1.678565216064453125e+01 -2.114758968353271484e+00 -3.921372592449188232e-01 -7.520688176155090332e-01 -7.750727534294128418e-01
3.860000000000000000e+03 3.926553344726562500e+01 8.008758544921875000e+00 -1.565557904541492462e-02 3.702316898852586746e-03 -3.585978643968701363e-03 -3.154947655275464058e-03
3.861000000000000000e+03 3.877449035644531250e+01 7.463659286499023438e+00 -1.276875473558902740e-02 -1.370129990391433239e-03 -4.241665359586477280e-03 -2.626852318644523621e-02
3.862000000000000000e+03 5.065525054931640625e+01 9.554183006286621094e+00 1.700124144554138184e+00 1.698177146911621094e+01 5.604568958282470703e+00 2.917933464050292969e+00
3.863000000000000000e+03 5.484725952148437500e+00 -3.577206611633300781e+00 -6.227003782987594604e-02 -8.217078633606433868e-03 -2.114613540470600128e-02 -6.539636850357055664e-02
3.864000000000000000e+03 5.579963684082031250e+00 -4.408718585968017578e+00 -6.497709453105926514e-02 -1.125095970928668976e-02 -2.286841720342636108e-02 -8.009491115808486938e-02
3.865000000000000000e+03 3.653445053100585938e+01 -1.506967926025390625e+01 7.766191959381103516e-01 1.457923412322998047e+00 6.703627705574035645e-01 -1.197657108306884766e+00
3.866000000000000000e+03 2.980023574829101562e+01 2.808034181594848633e+00 -4.159617900848388672e+00 1.132092714309692383e+00 -9.082576036453247070e-01 -4.630329012870788574e-01
3.867000000000000000e+03 3.160163688659667969e+01 3.380153179168701172e+00 -2.883823871612548828e+00 1.592956542968750000e+00 -3.872601687908172607e-01 7.217523455619812012e-01
3.868000000000000000e+03 7.705085754394531250e+01 2.461376380920410156e+01 -7.455552928149700165e-03 6.831666469573974609e+00 2.047263145446777344e+00 1.556465774774551392e-01
3.869000000000000000e+03 7.710721588134765625e+01 2.384205436706542969e+01 5.574461072683334351e-03 6.806413650512695312e+00 2.043596506118774414e+00 1.550783962011337280e-01
3.870000000000000000e+03 5.897840118408203125e+01 1.333127880096435547e+01 4.403112530708312988e-01 1.523291587829589844e+00 5.890808701515197754e-01 1.244043707847595215e+00
3.871000000000000000e+03 5.828359985351562500e+01 1.289094829559326172e+01 7.160527110099792480e-01 1.882475376129150391e+00 7.795584201812744141e-01 1.408614039421081543e+00
3.872000000000000000e+03 3.020469093322753906e+01 -7.786823272705078125e+00 1.657981634140014648e+00 2.474424362182617188e+00 1.239721775054931641e+00 -1.994042158126831055e+00
3.873000000000000000e+03 4.692286682128906250e+01 -8.302715420722961426e-01 2.465860359370708466e-02 2.853322505950927734e+00 8.633943200111389160e-01 4.866949081420898438e+00
3.874000000000000000e+03 4.750370788574218750e+01 -1.625017285346984863e+00 1.084436103701591492e-01 6.104182600975036621e-01 2.156585752964019775e-01 4.773363113403320312e+00
3.875000000000000000e+03 1.772208213806152344e+01 1.643112564086914062e+01 -1.870662808418273926e+00 -3.948705792427062988e-01 -6.796600222587585449e-01 -6.774014234542846680e-01
3.876000000000000000e+03 6.739392852783203125e+01 9.232312202453613281e+00 6.725461483001708984e-01 1.216219234466552734e+01 3.850421667098999023e+00 -7.830268740653991699e-01
3.877000000000000000e+03 2.712459325790405273e+00 1.161029720306396484e+01 -9.503813087940216064e-02 7.507346868515014648e-01 1.967089772224426270e-01 -7.793689370155334473e-01
3.878000000000000000e+03 3.364418029785156250e+00 6.750734806060791016e+00 5.956397652626037598e-01 -1.846432089805603027e-01 1.232989653944969177e-01 -5.022527575492858887e-01
3.879000000000000000e+03 2.014545202255249023e+00 7.592781066894531250e+00 2.012799829244613647e-01 -3.164099454879760742e-01 -3.453898802399635315e-02 -4.405288398265838623e-01
3.880000000000000000e+03 2.821975898742675781e+01 -2.779526948928833008e+00 1.988203883171081543e+00 4.481950759887695312e+00 1.941046357154846191e+00 1.520364999771118164e+00
3.881000000000000000e+03 4.859378814697265625e+01 4.514061450958251953e+00 2.915858983993530273e+00 5.601031780242919922e+00 2.555067300796508789e+00 2.607686996459960938e+00
3.882000000000000000e+03 2.817023277282714844e+00 -1.245994472503662109e+01 -2.359704114496707916e-03 -2.422794401645660400e-01 -7.339174300432205200e-02 -1.189023181796073914e-01
3.883000000000000000e+03 2.811566114425659180e+00 -1.168210411071777344e+01 -2.838285872712731361e-03 -2.189303636550903320e-01 -6.653059273958206177e-02 -1.171399578452110291e-01
3.884000000000000000e+03 5.746257400512695312e+01 -1.514677047729492188e+01 1.122212171554565430e+00 1.118864727020263672e+01 3.693257808685302734e+00 1.643443703651428223e-01
3.885000000000000000e+03 2.634869337081909180e+00 -7.765482902526855469e+00 -1.468148175626993179e-02 -1.090409979224205017e-01 -3.711674362421035767e-02 -8.723174780607223511e-02
3.886000000000000000e+03 2.656966686248779297e+00 -6.972413063049316406e+00 -1.528803166002035141e-02 -9.009427577257156372e-02 -3.161469474434852600e-02 -7.927539944648742676e-02
3.887000000000000000e+03 2.193576049804687500e+01 8.684033155441284180e-01 -1.602984070777893066e+00 1.075444221496582031e+01 2.745437383651733398e+00 -1.937597990036010742e+00
3.888000000000000000e+03 7.441352081298828125e+01 -1.316055488586425781e+01 1.350850820541381836e+00 1.004626369476318359e+01 3.419134378433227539e+00 6.966997981071472168e-01
3.889000000000000000e+03 5.092736434936523438e+01 7.334824562072753906e+00 4.785414040088653564e-01 1.289750671386718750e+01 4.012814521789550781e+00 1.119788408279418945e+00
3.890000000000000000e+03 1.564330005645751953e+01 1.529155445098876953e+01 -1.658342003822326660e+00 -3.478742837905883789e-01 -6.018648743629455566e-01 -6.380622982978820801e-01
3.891000000000000000e+03 1.408351612091064453e+01 1.458617687225341797e+01 -1.494331955909729004e+00 -1.413877010345458984e-01 -4.907158911228179932e-01 -5.088353753089904785e-01
3.892000000000000000e+03 1.576641941070556641e+01 -4.553274631500244141e+00 -3.148619532585144043e-01 -2.777732443064451218e-03 -9.529190510511398315e-02 1.279558092355728149e-01
3.893000000000000000e+03 4.336291503906250000e+01 -5.116385817527770996e-01 -1.095577359199523926e+00 5.169385433197021484e+00 1.222142457962036133e+00 2.166491031646728516e+00
3.894000000000000000e+03 4.230731582641601562e+01 -1.347943663597106934e+00 -5.754119753837585449e-01 4.121571063995361328e+00 1.063847780227661133e+00 9.005939960479736328e-01
3.895000000000000000e+03 4.250543594360351562e+01 -1.835031151771545410e+00 -7.876415550708770752e-02 4.690894603729248047e+00 1.383639097213745117e+00 6.844006776809692383e-01
3.896000000000000000e+03 6.171547698974609375e+01 2.107538461685180664e+00 -2.832113027572631836e+00 3.456155061721801758e+00 1.872125566005706787e-01 1.266744613647460938e+00
3.897000000000000000e+03 7.721947479248046875e+01 -1.950408935546875000e+01 -2.237584739923477173e-01 7.486058712005615234e+00 2.178689956665039062e+00 -2.243371605873107910e-01
3.898000000000000000e+03 7.683642578125000000e+01 -2.967459869384765625e+01 3.418629989027976990e-02 6.715477466583251953e+00 2.024899005889892578e+00 1.417163163423538208e-01
3.899000000000000000e+03 6.875200653076171875e+01 7.571884155273437500e+00 -1.122221231460571289e+00 1.036471748352050781e+01 2.772748708724975586e+00 -1.135181784629821777e+00
3.900000000000000000e+03 2.443596839904785156e+01 -1.206637859344482422e+01 -2.117279469966888428e-01 4.103752613067626953e+00 1.167607426643371582e+00 1.552998542785644531e+00
3.901000000000000000e+03 2.588419532775878906e+01 -1.098656654357910156e+01 -5.804657936096191406e-01 7.312159061431884766e+00 2.019508123397827148e+00 -2.330282330513000488e-01
3.902000000000000000e+03 7.810528564453125000e+01 8.979706764221191406e+00 -4.473177716135978699e-02 9.004370689392089844e+00 2.687891721725463867e+00 4.727112948894500732e-01
3.903000000000000000e+03 7.709701538085937500e+01 1.922136497497558594e+01 1.289688795804977417e-01 6.644084930419921875e+00 2.031916141510009766e+00 1.661971583962440491e-02
3.904000000000000000e+03 7.677927398681640625e+01 1.870004272460937500e+01 1.761912554502487183e-01 6.627812385559082031e+00 2.041201114654541016e+00 -2.911833673715591431e-02
3.905000000000000000e+03 5.983926773071289062e+01 1.486914825439453125e+01 8.683905601501464844e-01 1.712802767753601074e+00 7.743579745292663574e-01 1.312510490417480469e+00
3.906000000000000000e+03 5.920226669311523438e+01 1.441085624694824219e+01 7.202309370040893555e-01 1.964165449142456055e+00 8.053189516067504883e-01 1.585246682167053223e+00
3.907000000000000000e+03 2.686162948608398438e+00 2.263104057312011719e+01 -3.824107721447944641e-02 1.509268999099731445e+00 4.413083791732788086e-01 7.215085625648498535e-02
3.908000000000000000e+03 3.089652299880981445e+00 2.354658508300781250e+01 -3.301527351140975952e-02 1.444017410278320312e+00 4.233006536960601807e-01 1.021521836519241333e-01
3.909000000000000000e+03 3.340419006347656250e+01 -1.430621719360351562e+01 8.493288755416870117e-01 2.449789285659790039e+00 9.897354245185852051e-01 -1.512253165245056152e+00
3.910000000000000000e+03 7.555714416503906250e+01 6.355678439140319824e-01 -2.898738145828247070e+00 6.041221618652343750e+00 9.427449703216552734e-01 9.407789111137390137e-01
3.911000000000000000e+03 2.387664604187011719e+01 8.154208183288574219e+00 -8.790214061737060547e-01 9.939029693603515625e+00 2.718002557754516602e+00 3.514437913894653320e+00
3.912000000000000000e+03 6.797532653808593750e+01 -2.120062112808227539e+00 -3.979502916336059570e+00 2.859475612640380859e+00 -3.360081911087036133e-01 -2.795928716659545898e-01
3.913000000000000000e+03 7.506523895263671875e+01 1.035739135742187500e+01 -5.083715319633483887e-01 6.996963500976562500e+00 1.946577548980712891e+00 -3.050869464874267578e+00
3.914000000000000000e+03 8.356820106506347656e+00 -3.932925224304199219e+00 -1.185439825057983398e-01 2.633706852793693542e-02 -2.766207419335842133e-02 -6.440643966197967529e-02
3.915000000000000000e+03 6.708493041992187500e+01 2.714260816574096680e+00 1.445739626884460449e+00 7.539315223693847656e+00 2.695516347885131836e+00 1.048809528350830078e+00
3.916000000000000000e+03 4.159652709960937500e+01 1.320907402038574219e+01 -1.542162775993347168e+00 4.695446193218231201e-01 -3.217854499816894531e-01 -9.421501308679580688e-02
3.917000000000000000e+03 7.711971282958984375e+01 2.136471509933471680e+00 -1.772544741630554199e+00 1.064042091369628906e+01 2.660362958908081055e+00 -1.575948357582092285e+00
3.918000000000000000e+03 7.682881164550781250e+01 -1.356221437454223633e+00 -9.795261025428771973e-01 8.597702026367187500e+00 2.285452842712402344e+00 1.070450067520141602e+00
3.919000000000000000e+03 7.708262634277343750e+01 -1.870422363281250000e+00 -5.254846811294555664e-01 9.145734786987304688e+00 2.586075067520141602e+00 1.204059720039367676e+00
3.920000000000000000e+03 6.538851165771484375e+01 1.522893714904785156e+01 -3.941802084445953369e-01 8.478948593139648438e+00 2.425430536270141602e+00 -2.164979219436645508e+00
3.921000000000000000e+03 6.385264205932617188e+01 4.736711025238037109e+00 3.484173417091369629e-01 4.503834724426269531e+00 1.455675601959228516e+00 1.562986612319946289e+00
3.922000000000000000e+03 6.326841735839843750e+01 5.155051231384277344e+00 5.274449586868286133e-01 3.446753740310668945e+00 1.192259550094604492e+00 1.464757561683654785e+00
3.923000000000000000e+03 2.984907388687133789e+00 -2.270586395263671875e+01 1.705737598240375519e-02 -4.799461960792541504e-01 -1.388666480779647827e-01 -5.315005406737327576e-02
3.924000000000000000e+03 4.255735397338867188e+01 -7.311603546142578125e+00 4.357339814305305481e-02 6.545069694519042969e+00 1.976593017578125000e+00 2.020671129226684570e+00
3.925000000000000000e+03 4.325635910034179688e+01 -7.563303470611572266e+00 -9.493639320135116577e-02 7.594106197357177734e+00 2.249751091003417969e+00 1.829438090324401855e+00
3.926000000000000000e+03 3.970941305160522461e+00 -3.049849510192871094e+01 6.600860040634870529e-03 -3.892709016799926758e-01 -1.148010119795799255e-01 -6.375795928761363029e-04
3.927000000000000000e+03 2.986091852188110352e+00 2.908966064453125000e+01 8.768026717007160187e-03 1.319095373153686523e+00 3.983590304851531982e-01 1.296846568584442139e-01
3.928000000000000000e+03 3.118605375289916992e+00 3.069681930541992188e+01 1.550537161529064178e-02 1.269075512886047363e+00 3.853742480278015137e-01 1.210054308176040649e-01
3.929000000000000000e+03 3.202008819580078125e+01 1.587006950378417969e+01 -1.237585425376892090e+00 -9.479134678840637207e-01 -6.556496620178222656e-01 4.011517465114593506e-01
3.930000000000000000e+03 4.491974639892578125e+01 -1.357392311096191406e+01 -5.630283951759338379e-01 3.639866352081298828e+00 9.230514168739318848e-01 1.105078577995300293e+00
3.931000000000000000e+03 7.153581237792968750e+01 -1.840767478942871094e+01 -4.770377576351165771e-01 6.068402290344238281e+00 1.677409291267395020e+00 2.216842174530029297e+00
3.932000000000000000e+03 7.230666351318359375e+01 -1.808716964721679688e+01 -8.768001794815063477e-01 7.466072082519531250e+00 1.976781487464904785e+00 1.769558310508728027e+00
3.933000000000000000e+03 7.734609985351562500e+01 -1.188724040985107422e+01 4.946552813053131104e-01 7.752917289733886719e+00 2.474271774291992188e+00 6.203588247299194336e-01
3.934000000000000000e+03 7.737398529052734375e+01 -1.265541648864746094e+01 5.240541696548461914e-01 7.652227401733398438e+00 2.452884435653686523e+00 3.932479321956634521e-01
3.935000000000000000e+03 5.869393539428710938e+01 -1.794350433349609375e+01 1.660654664039611816e+00 8.810436248779296875e+00 3.141327381134033203e+00 -4.530434906482696533e-01
3.936000000000000000e+03 5.736354827880859375e+01 -1.618915939331054688e+01 1.606243252754211426e+00 1.137809753417968750e+01 3.895302295684814453e+00 6.200162768363952637e-01
3.937000000000000000e+03 2.250339889526367188e+01 2.256124258041381836e+00 2.552644491195678711e+00 1.652071380615234375e+01 5.722007751464843750e+00 -1.165961146354675293e+00
3.938000000000000000e+03 7.662638092041015625e+01 2.901150321960449219e+01 -1.939599961042404175e-02 6.940687179565429688e+00 2.076387405395507812e+00 1.266386061906814575e-01
3.939000000000000000e+03 7.712815856933593750e+01 1.245233535766601562e+01 -3.030687868595123291e-01 7.501256942749023438e+00 2.159456491470336914e+00 -6.787932515144348145e-01
3.940000000000000000e+03 5.254832839965820312e+01 3.030873060226440430e+00 4.317651748657226562e+00 1.240977668762207031e+01 5.018228530883789062e+00 -6.430162787437438965e-01
3.941000000000000000e+03 4.855994033813476562e+01 5.621901035308837891e+00 2.509111642837524414e+00 6.104488849639892578e+00 2.584080219268798828e+00 2.820834159851074219e+00
3.942000000000000000e+03 4.915164184570312500e+01 5.109099864959716797e+00 2.573163986206054688e+00 7.032832622528076172e+00 2.881798982620239258e+00 2.273300886154174805e+00
3.943000000000000000e+03 2.240270042419433594e+01 -1.070594787597656250e+01 5.811737775802612305e-01 6.021220684051513672e-01 3.549887537956237793e-01 1.252395749092102051e+00
3.944000000000000000e+03 2.484234333038330078e+00 1.935113334655761719e+01 -7.322832196950912476e-02 1.530872225761413574e+00 4.372931420803070068e-01 -6.014110520482063293e-02
3.945000000000000000e+03 2.243641614913940430e+00 2.050597953796386719e+01 -5.062041431665420532e-02 1.589621424674987793e+00 4.617002904415130615e-01 -1.938500907272100449e-03
3.946000000000000000e+03 7.702656555175781250e+01 -2.209413337707519531e+01 -1.740386933088302612e-01 7.227213859558105469e+00 2.115952491760253906e+00 8.970411121845245361e-02
3.947000000000000000e+03 7.702943420410156250e+01 -2.294260787963867188e+01 -1.027709692716598511e-01 7.148453712463378906e+00 2.113704919815063477e+00 1.370641738176345825e-01
3.948000000000000000e+03 1.862030601501464844e+01 6.893172264099121094e+00 -1.143702387809753418e+00 -1.588638544082641602e+00 -8.197022676467895508e-01 -1.900405049324035645e+00
3.949000000000000000e+03 2.009668159484863281e+01 5.400778770446777344e+00 5.005998611450195312e+00 1.997954964637756348e+00 2.101186037063598633e+00 -1.803599148988723755e-01
3.950000000000000000e+03 4.176666259765625000e+01 -7.025214672088623047e+00 2.668688595294952393e-01 4.287422180175781250e+00 1.366287231445312500e+00 1.867154002189636230e+00
3.951000000000000000e+03 4.067497634887695312e+01 -7.919784069061279297e+00 -8.108267784118652344e-01 2.171718835830688477e+00 4.082676172256469727e-01 1.757373571395874023e+00
3.952000000000000000e+03 5.007155990600585938e+01 6.325132369995117188e+00 1.575176835060119629e+00 9.998420715332031250e+00 3.472079277038574219e+00 1.723574280738830566e+00
3.953000000000000000e+03 5.000497817993164062e+01 -1.932093811035156250e+01 -6.218039989471435547e-01 2.795375287532806396e-01 -1.026799455285072327e-01 -7.181164622306823730e-02
3.954000000000000000e+03 5.015343856811523438e+01 -2.017252349853515625e+01 -2.402600795030593872e-01 5.709380507469177246e-01 9.920338541269302368e-02 -1.805872321128845215e-01
3.955000000000000000e+03 2.978622198104858398e+00 -1.953059005737304688e+01 1.571300812065601349e-02 -4.287708401679992676e-01 -1.239173486828804016e-01 -8.317923545837402344e-02
3.956000000000000000e+03 2.974419116973876953e+00 -1.872362709045410156e+01 1.548899523913860321e-02 -4.098737537860870361e-01 -1.183154284954071045e-01 -9.037862718105316162e-02
3.957000000000000000e+03 3.100121688842773438e+01 -9.400276184082031250e+00 1.563552141189575195e+00 2.332015752792358398e+00 1.168670415878295898e+00 -2.221054792404174805e+00
3.958000000000000000e+03 7.426940155029296875e+01 -9.877936363220214844e+00 1.036715626716613770e+00 9.526160240173339844e+00 3.168862819671630859e+00 8.423551321029663086e-01
3.959000000000000000e+03 3.922021102905273438e+01 -4.111015319824218750e+00 1.261188149452209473e+00 -1.122723817825317383e+00 4.153929278254508972e-02 7.740011811256408691e-02
3.960000000000000000e+03 3.797467041015625000e+01 -2.785746574401855469e+00 8.979382514953613281e-01 -1.968351364135742188e+00 -3.211239278316497803e-01 -2.093476057052612305e-01
3.961000000000000000e+03 3.674792051315307617e+00 -2.870941925048828125e+01 9.604166261851787567e-03 -4.396800398826599121e-01 -1.290227621793746948e-01 -7.901667617261409760e-03
3.962000000000000000e+03 2.400754928588867188e+01 8.521817326545715332e-01 -1.563815116882324219e+00 8.038452148437500000e+00 1.942391037940979004e+00 -6.689118385314941406e+00
3.963000000000000000e+03 5.398684692382812500e+01 2.086072713136672974e-01 -1.133263111114501953e+00 1.078853893280029297e+01 2.896582841873168945e+00 -2.933581829071044922e+00
3.964000000000000000e+03 5.431029891967773438e+01 -4.314048886299133301e-01 -2.418526649475097656e+00 9.965147018432617188e+00 2.263986110687255859e+00 -3.906422376632690430e+00
3.965000000000000000e+03 7.718001556396484375e+01 2.226979827880859375e+01 3.054832108318805695e-02 6.756926536560058594e+00 2.036242485046386719e+00 1.372222006320953369e-01
3.966000000000000000e+03 3.104525089263916016e+00 3.231160736083984375e+01 1.841220259666442871e-02 1.232917428016662598e+00 3.753989040851593018e-01 1.086033135652542114e-01
3.967000000000000000e+03 3.030734777450561523e+00 3.303749084472656250e+01 1.619168370962142944e-02 1.220243811607360840e+00 3.709306418895721436e-01 1.000878736376762390e-01
3.968000000000000000e+03 6.572686767578125000e+01 1.653769111633300781e+01 -2.451350390911102295e-01 7.431094646453857422e+00 2.155787944793701172e+00 -1.261492013931274414e+00
3.969000000000000000e+03 2.854455757141113281e+01 1.272834014892578125e+01 -9.422076344490051270e-01 1.702383279800415039e+00 2.280526906251907349e-01 -7.361319065093994141e-01
3.970000000000000000e+03 6.203088760375976562e+01 -1.093228244781494141e+01 -1.197331994771957397e-01 8.050257682800292969e+00 2.379157543182373047e+00 4.993695318698883057e-01
3.971000000000000000e+03 2.858234024047851562e+01 -5.226954460144042969e+00 1.584199428558349609e+00 5.110004901885986328e+00 2.008261203765869141e+00 -3.893253505229949951e-01
3.972000000000000000e+03 2.779149770736694336e+00 1.006737422943115234e+01 2.536178939044475555e-02 4.479782283306121826e-01 1.420020163059234619e-01 -8.454959392547607422e-01
3.973000000000000000e+03 2.734786510467529297e+00 1.083704566955566406e+01 -6.142012774944305420e-02 5.943290591239929199e-01 1.598726809024810791e-01 -8.164713382720947266e-01
3.974000000000000000e+03 7.360203552246093750e+01 -1.260266017913818359e+01 1.268137812614440918e+00 1.139102840423583984e+01 3.797749757766723633e+00 1.010167837142944336e+00
3.975000000000000000e+03 2.891364574432373047e+00 8.440219879150390625e+00 2.567536234855651855e-01 9.208612143993377686e-02 1.046519204974174500e-01 -7.703511714935302734e-01
3.976000000000000000e+03 2.827738046646118164e+00 9.276070594787597656e+00 1.070354282855987549e-01 2.731652557849884033e-01 1.140602082014083862e-01 -8.397260904312133789e-01
3.977000000000000000e+03 2.788594484329223633e+00 -1.089384460449218750e+01 -7.322994992136955261e-03 -1.943684965372085571e-01 -6.050744652748107910e-02 -1.141695305705070496e-01
3.978000000000000000e+03 2.473199844360351562e+01 7.557673007249832153e-02 -7.861912250518798828e-02 5.194480419158935547e+00 1.534758329391479492e+00 -5.415750026702880859e+00
3.979000000000000000e+03 2.559597396850585938e+01 -6.417601704597473145e-01 1.277129769325256348e+00 4.101278781890869141e+00 1.613522648811340332e+00 -3.402968645095825195e+00
3.980000000000000000e+03 2.700896739959716797e+00 -9.318198204040527344e+00 -1.161039248108863831e-02 -1.497569978237152100e-01 -4.841021448373794556e-02 -1.024832502007484436e-01
3.981000000000000000e+03 2.656386852264404297e+00 -8.541288375854492188e+00 -1.177293621003627777e-02 -1.298213899135589600e-01 -4.247829690575599670e-02 -9.438352286815643311e-02
3.982000000000000000e+03 9.751891136169433594e+00 2.557434320449829102e+00 1.191254258155822754e+00 1.742032647132873535e+00 8.799860477447509766e-01 5.087205767631530762e-01
3.983000000000000000e+03 7.400376892089843750e+01 -9.455976486206054688e+00 9.403207898139953613e-01 9.527426719665527344e+00 3.140324115753173828e+00 8.143511414527893066e-01
3.984000000000000000e+03 3.072615242004394531e+01 1.327232360839843750e+00 -1.300846040248870850e-02 4.009979248046875000e+00 1.199091315269470215e+00 1.705414295196533203e+00
3.985000000000000000e+03 2.061289787292480469e+01 4.809082031250000000e+00 6.751899242401123047e+00 3.910707235336303711e+00 3.198781967163085938e+00 -1.479677259922027588e-01
3.986000000000000000e+03 3.142179727554321289e+00 3.151511955261230469e+01 1.454030536115169525e-02 1.250794172286987305e+00 3.796003162860870361e-01 1.160434633493423462e-01
3.987000000000000000e+03 4.127570343017578125e+01 -9.496444702148437500e+00 -1.711938977241516113e+00 4.103518962860107422e+00 7.174739837646484375e-01 2.018371582031250000e+00
3.988000000000000000e+03 7.706952667236328125e+01 -2.035458755493164062e+01 -2.635172009468078613e-01 7.427806377410888672e+00 2.149286746978759766e+00 -9.868799149990081787e-02
3.989000000000000000e+03 7.704177093505859375e+01 -2.123383903503417969e+01 -2.019289880990982056e-01 7.331663608551025391e+00 2.138920307159423828e+00 1.463556475937366486e-02
3.990000000000000000e+03 2.881857156753540039e+00 2.066422653198242188e+01 -7.898653298616409302e-02 1.497510910034179688e+00 4.255573153495788574e-01 4.873171914368867874e-03
3.991000000000000000e+03 2.780260086059570312e+00 2.123330688476562500e+01 -6.242299824953079224e-02 1.503900170326232910e+00 4.324431419372558594e-01 2.895678021013736725e-02
3.992000000000000000e+03 7.703769683837890625e+01 -3.141557693481445312e+01 3.057737275958061218e-02 6.687476158142089844e+00 2.015416145324707031e+00 1.076061129570007324e-01
3.993000000000000000e+03 7.736180114746093750e+01 -3.213788604736328125e+01 2.453061565756797791e-02 6.712424278259277344e+00 2.021086454391479492e+00 8.622062951326370239e-02
3.994000000000000000e+03 7.724719238281250000e+01 -1.025574111938476562e+01 4.273883998394012451e-01 8.071477890014648438e+00 2.549659967422485352e+00 1.105038881301879883e+00
3.995000000000000000e+03 7.730584716796875000e+01 -1.109516906738281250e+01 5.189149379730224609e-01 7.911733627319335938e+00 2.529194593429565430e+00 8.789581060409545898e-01
3.996000000000000000e+03 4.851067352294921875e+01 1.759480476379394531e+01 -6.029425263404846191e-01 3.281171798706054688e+00 8.034688234329223633e-01 -2.488011598587036133e+00
3.997000000000000000e+03 6.755925750732421875e+01 -1.710685348510742188e+01 -3.668572902679443359e-01 1.565538287162780762e+00 3.596042990684509277e-01 -3.815579712390899658e-01
3.998000000000000000e+03 6.805404663085937500e+01 -1.865342140197753906e+01 6.716387867927551270e-01 2.128423452377319336e+00 8.400186300277709961e-01 2.154747210443019867e-02
3.999000000000000000e+03 7.743410491943359375e+01 1.049563026428222656e+01 -5.184824466705322266e-01 8.705025672912597656e+00 2.455963134765625000e+00 -2.794446945190429688e-01
4.000000000000000000e+03 8.187613487243652344e+00 9.040671348571777344e+00 -4.279247522354125977e-01 2.006937265396118164e+00 4.737037718296051025e-01 -1.554201841354370117e+00
4.001000000000000000e+03 7.656893920898437500e+01 2.124633789062500000e+01 7.299000024795532227e-02 6.707075119018554688e+00 2.034019470214843750e+00 1.373878717422485352e-01
4.002000000000000000e+03 7.714073181152343750e+01 2.037134552001953125e+01 7.715608924627304077e-02 6.682609558105468750e+00 2.027929782867431641e+00 8.402483165264129639e-02
4.003000000000000000e+03 3.432490158081054688e+01 -1.486328983306884766e+01 8.898949027061462402e-01 2.158582925796508789e+00 9.145433306694030762e-01 -1.398117065429687500e+00
4.004000000000000000e+03 2.914363384246826172e+00 -2.110180091857910156e+01 1.737896911799907684e-02 -4.591737687587738037e-01 -1.325384378433227539e-01 -6.612833589315414429e-02
4.005000000000000000e+03 2.936939001083374023e+00 -2.031742858886718750e+01 1.695711724460124969e-02 -4.443144500255584717e-01 -1.282071918249130249e-01 -7.345871627330780029e-02
4.006000000000000000e+03 4.041594696044921875e+01 -2.336928844451904297e+00 9.047183990478515625e-01 3.097478449344635010e-01 3.643398582935333252e-01 2.249834127724170685e-02
4.007000000000000000e+03 4.247650527954101562e+01 -3.853000879287719727e+00 2.414820194244384766e+00 4.936986923217773438e+00 2.205542087554931641e+00 6.172665953636169434e-01
4.008000000000000000e+03 4.375724029541015625e+01 -3.752339601516723633e+00 2.812650203704833984e+00 9.960271835327148438e+00 3.831876754760742188e+00 1.225597500801086426e+00
4.009000000000000000e+03 2.725121498107910156e+01 -8.135029792785644531e+00 2.873943567276000977e+00 8.562559127807617188e+00 3.430950880050659180e+00 -2.251432895660400391e+00
4.010000000000000000e+03 7.718968963623046875e+01 4.847079813480377197e-01 -1.689150929450988770e+00 9.917390823364257812e+00 2.468471765518188477e+00 -1.102599576115608215e-01
4.011000000000000000e+03 7.672045898437500000e+01 -7.402156591415405273e-01 -1.257898211479187012e+00 8.509540557861328125e+00 2.175492763519287109e+00 9.322235584259033203e-01
4.012000000000000000e+03 2.514106369018554688e+01 1.036288356781005859e+01 -3.574365854263305664e+00 8.417915344238281250e+00 1.453064680099487305e+00 2.094152450561523438e+00
4.013000000000000000e+03 2.998509216308593750e+01 1.396363377571105957e+00 -9.207918643951416016e-01 2.779795646667480469e+00 5.577011108398437500e-01 6.000995039939880371e-01
4.014000000000000000e+03 2.904855728149414062e+01 2.431217432022094727e+00 -4.011946201324462891e+00 4.937300682067871094e-01 -1.055464863777160645e+00 -9.772930741310119629e-01
4.015000000000000000e+03 1.721939277648925781e+01 5.621830463409423828e+00 9.898383617401123047e-01 -1.484880685806274414e+00 -1.485126763582229614e-01 -1.083962082862854004e+00
4.016000000000000000e+03 1.397583580017089844e+01 -5.018777847290039062e+00 -2.922171652317047119e-01 9.129900485277175903e-02 -6.027544662356376648e-02 3.450461477041244507e-02
4.017000000000000000e+03 1.527631473541259766e+01 -4.113968372344970703e+00 -2.790728807449340820e-01 1.294662710279226303e-02 -7.983787357807159424e-02 1.058915778994560242e-01
4.018000000000000000e+03 2.147601890563964844e+01 3.751464128494262695e+00 7.631195068359375000e+00 8.266890525817871094e+00 4.769425868988037109e+00 2.606900967657566071e-02
4.019000000000000000e+03 2.259147262573242188e+01 1.502998709678649902e+00 -5.481776595115661621e-01 1.463523960113525391e+01 4.226118564605712891e+00 -2.691198587417602539e+00
4.020000000000000000e+03 5.243365859985351562e+01 1.091517448425292969e+01 2.649181842803955078e+00 1.410074615478515625e+01 5.024978637695312500e+00 1.274498343467712402e+00
4.021000000000000000e+03 6.288502120971679688e+01 -1.252912044525146484e+01 -4.630125463008880615e-01 6.595682144165039062e+00 1.839800834655761719e+00 -1.647257953882217407e-01
4.022000000000000000e+03 4.196375274658203125e+01 -1.762206435203552246e+00 1.262969672679901123e-01 3.365804910659790039e+00 1.047630548477172852e+00 5.157228112220764160e-01
4.023000000000000000e+03 4.188374710083007812e+01 -9.396544694900512695e-01 -8.251047134399414062e-01 2.803160190582275391e+00 5.934166312217712402e-01 7.290678620338439941e-01
4.024000000000000000e+03 5.195023727416992188e+01 8.039716720581054688e+00 1.746112704277038574e-01 1.400300121307373047e+01 4.253283500671386719e+00 3.628760874271392822e-01
4.025000000000000000e+03 4.253661727905273438e+01 -1.701630020141601562e+01 1.085467100143432617e+00 5.507713317871093750e+00 1.977954149246215820e+00 -4.848440289497375488e-01
4.026000000000000000e+03 3.994880676269531250e+01 -6.378002166748046875e+00 3.776573836803436279e-01 1.506440788507461548e-01 1.584904342889785767e-01 1.123995542526245117e+00
4.027000000000000000e+03 2.697445869445800781e+01 1.672472953796386719e+01 5.345615744590759277e-02 6.990834712982177734e+00 2.113287210464477539e+00 2.981152057647705078e+00
4.028000000000000000e+03 5.313065338134765625e+01 1.294966125488281250e+01 2.760649681091308594e+00 1.126302623748779297e+01 4.207102775573730469e+00 2.053998470306396484e+00
4.029000000000000000e+03 3.442755126953125000e+01 1.446759223937988281e+00 -1.470006071031093597e-02 -1.263889856636524200e-02 -8.201687596738338470e-03 1.574143648147583008e+00
4.030000000000000000e+03 3.354049682617187500e+01 1.255541443824768066e+00 6.336354017257690430e-01 3.992421627044677734e-01 3.098632693290710449e-01 1.896572589874267578e+00
4.031000000000000000e+03 7.279475402832031250e+01 -7.855982184410095215e-01 -1.526661038398742676e+00 2.133394002914428711e+00 1.820198893547058105e-01 -2.537814617156982422e+00
4.032000000000000000e+03 3.316986465454101562e+01 1.674394488334655762e+00 -3.129129111766815186e-02 8.370554447174072266e-01 2.417292445898056030e-01 2.118697404861450195e+00
4.033000000000000000e+03 2.291025733947753906e+01 8.235194206237792969e+00 -1.797247886657714844e+00 8.431091308593750000e+00 1.990153193473815918e+00 2.095019340515136719e+00
4.034000000000000000e+03 7.757375335693359375e+01 5.148065090179443359e+00 7.478571534156799316e-01 1.154694080352783203e+01 3.688439607620239258e+00 -2.457470655441284180e+00
4.035000000000000000e+03 1.437623691558837891e+01 -3.407697200775146484e+00 -2.264294773340225220e-01 3.137837350368499756e-02 -5.851532891392707825e-02 8.142895251512527466e-02
4.036000000000000000e+03 3.633753204345703125e+01 -7.328199744224548340e-01 2.330340892076492310e-01 -1.451991200447082520e+00 -3.656871318817138672e-01 3.418522328138351440e-02
4.037000000000000000e+03 3.945837020874023438e+01 -4.996283054351806641e+00 1.150887131690979004e+00 -7.576115727424621582e-01 1.179826855659484863e-01 4.809473454952239990e-01
4.038000000000000000e+03 3.880347061157226562e+01 -4.643916130065917969e+00 1.043059945106506348e+00 -1.543541073799133301e+00 -1.501443386077880859e-01 3.486556112766265869e-01
4.039000000000000000e+03 4.834305572509765625e+01 1.857690238952636719e+01 -7.750763893127441406e-01 3.445461988449096680e+00 8.011156916618347168e-01 -2.405193805694580078e+00
4.040000000000000000e+03 4.613790512084960938e+01 1.664792823791503906e+01 -1.372592926025390625e+00 2.241326868534088135e-01 -3.445380628108978271e-01 -6.685274243354797363e-01
4.041000000000000000e+03 9.160171508789062500e+00 8.499459266662597656e+00 -4.620103836059570312e-01 2.495255947113037109e+00 6.099736690521240234e-01 -1.382918715476989746e+00
4.042000000000000000e+03 5.142842864990234375e+01 1.658111953735351562e+01 -1.688722133636474609e+00 1.064622306823730469e+01 2.687250375747680664e+00 1.221845149993896484e-01
4.043000000000000000e+03 6.818811035156250000e+01 7.863063216209411621e-01 -1.301085352897644043e+00 7.122938156127929688e+00 1.746555805206298828e+00 -1.370158046483993530e-01
4.044000000000000000e+03 1.291021728515625000e+01 3.758982658386230469e+00 6.412878990173339844e+00 -1.550854802131652832e+00 1.458607316017150879e+00 -3.069108247756958008e+00
4.045000000000000000e+03 6.681846618652343750e+01 -1.743217277526855469e+01 7.973503321409225464e-02 2.278724908828735352e+00 7.075380086898803711e-01 -8.004384040832519531e-01
4.046000000000000000e+03 6.724102783203125000e+01 -1.646118736267089844e+01 -6.068757772445678711e-01 1.409604668617248535e+00 2.408186793327331543e-01 -4.258745908737182617e-01
4.047000000000000000e+03 3.525809097290039062e+01 6.424637794494628906e+00 -4.747804999351501465e-01 6.072266027331352234e-02 -1.242173463106155396e-01 2.057754546403884888e-01
4.048000000000000000e+03 2.324211692810058594e+01 -1.241223049163818359e+01 2.192625552415847778e-01 2.390072345733642578e+00 7.828004360198974609e-01 1.371823906898498535e+00
4.049000000000000000e+03 6.657724761962890625e+01 1.513897991180419922e+01 -1.857031732797622681e-01 9.301484107971191406e+00 2.734734296798706055e+00 -2.430867552757263184e-01
4.050000000000000000e+03 2.771346855163574219e+01 -7.590163230895996094e+00 3.097925662994384766e+00 7.812440872192382812e+00 3.273109912872314453e+00 -2.191021203994750977e+00
4.051000000000000000e+03 2.660321998596191406e+01 -7.499001979827880859e+00 3.239826917648315430e+00 1.179792308807373047e+01 4.511324882507324219e+00 -1.722014904022216797e+00
4.052000000000000000e+03 6.067266082763671875e+01 -6.709368228912353516e+00 1.191561341285705566e+00 8.596749305725097656e+00 2.936493158340454102e+00 9.738901853561401367e-01
4.053000000000000000e+03 7.044933319091796875e+01 -8.240237832069396973e-01 -3.138140439987182617e+00 5.519615173339843750e+00 7.144424915313720703e-01 -3.212342977523803711e+00
4.054000000000000000e+03 4.593516540527343750e+01 2.653949022293090820e+00 2.361799955368041992e+00 3.388042211532592773e+00 1.724952697753906250e+00 3.265067577362060547e+00
4.055000000000000000e+03 7.329945373535156250e+01 -7.133268356323242188e+00 -6.560737639665603638e-02 7.907363414764404297e+00 2.352526664733886719e+00 4.254328608512878418e-01
4.056000000000000000e+03 7.240792083740234375e+01 -6.015908718109130859e+00 -5.836973786354064941e-01 6.431757450103759766e+00 1.754418015480041504e+00 -4.033924937248229980e-01
4.057000000000000000e+03 2.265446281433105469e+01 9.965574264526367188e+00 -4.039559364318847656e+00 5.599427223205566406e+00 4.679603874683380127e-01 7.593168616294860840e-01
4.058000000000000000e+03 2.305587768554687500e+01 9.363512039184570312e+00 -3.576638221740722656e+00 7.242844581604003906e+00 1.099861979484558105e+00 1.699523448944091797e+00
4.059000000000000000e+03 3.833488082885742188e+01 6.773862838745117188e+00 -6.127828359603881836e-02 -4.810282588005065918e-02 -3.281433507800102234e-02 2.480706572532653809e-02
4.060000000000000000e+03 2.981397628784179688e+01 7.276743650436401367e-01 1.461995005607604980e+00 2.810229301452636719e+00 1.281667351722717285e+00 9.077529907226562500e-01
4.061000000000000000e+03 6.126745223999023438e+01 -5.096153736114501953e+00 1.775740146636962891e+00 8.951416969299316406e+00 3.218147039413452148e+00 1.052540183067321777e+00
4.062000000000000000e+03 6.129738616943359375e+01 -5.864361286163330078e+00 1.579794406890869141e+00 9.124156951904296875e+00 3.211185455322265625e+00 1.130097150802612305e+00
4.063000000000000000e+03 7.497847747802734375e+01 1.187709236145019531e+01 -2.026336081326007843e-02 6.226017475128173828e+00 1.861726284027099609e+00 -2.048325777053833008e+00
4.064000000000000000e+03 7.359432983398437500e+01 1.127609157562255859e+01 8.040710687637329102e-01 3.229458808898925781e+00 1.210058927536010742e+00 -2.098505735397338867e+00
4.065000000000000000e+03 1.664705657958984375e+01 -7.666112422943115234e+00 -4.815881252288818359e-01 1.652616411447525024e-01 -9.489794820547103882e-02 9.809036739170551300e-03
4.066000000000000000e+03 1.754984855651855469e+01 -7.714169979095458984e+00 -5.661233067512512207e-01 1.300035268068313599e-01 -1.308359354734420776e-01 6.846459209918975830e-02
4.067000000000000000e+03 2.654953765869140625e+01 1.732033538818359375e+01 -8.070425987243652344e-01 7.530958175659179688e+00 2.017174720764160156e+00 1.558293938636779785e+00
4.068000000000000000e+03 5.293086242675781250e+01 1.596687287092208862e-01 -7.680469155311584473e-01 1.017780685424804688e+01 2.822927951812744141e+00 -1.238763093948364258e+00
4.069000000000000000e+03 4.413231658935546875e+01 1.556729984283447266e+01 -1.882831335067749023e+00 6.731184124946594238e-01 -3.629138767719268799e-01 -2.384829074144363403e-01
4.070000000000000000e+03 4.441684341430664062e+01 1.620588684082031250e+01 -1.594732999801635742e+00 5.439722537994384766e-01 -3.152282238006591797e-01 -2.593043446540832520e-01
4.071000000000000000e+03 6.157381820678710938e+01 -9.088212013244628906e+00 4.041615426540374756e-01 9.025456428527832031e+00 2.828885555267333984e+00 7.866676449775695801e-01
4.072000000000000000e+03 4.857013702392578125e+01 -1.547661399841308594e+01 -1.104390740394592285e+00 -5.410894751548767090e-01 -4.936440587043762207e-01 8.283454179763793945e-01
4.073000000000000000e+03 3.365824127197265625e+01 1.606201362609863281e+01 -1.841670751571655273e+00 -1.323863029479980469e+00 -9.496601223945617676e-01 1.737250089645385742e-01
4.074000000000000000e+03 4.326610183715820312e+01 -6.070102691650390625e+00 1.890074253082275391e+00 8.974227905273437500e+00 3.259290695190429688e+00 1.799519300460815430e+00
4.075000000000000000e+03 5.431817245483398438e+01 -5.861913681030273438e+00 -1.574945807456970215e+00 5.042988777160644531e+00 1.040412902832031250e+00 -1.223377227783203125e+00
4.076000000000000000e+03 2.668978881835937500e+01 1.114549732208251953e+01 -2.721688032150268555e+00 5.957622528076171875e+00 9.707803726196289062e-01 5.658025145530700684e-01
4.077000000000000000e+03 7.807151031494140625e+01 1.890032887458801270e+00 -9.357245564460754395e-01 1.143712043762207031e+01 3.150418758392333984e+00 -1.581169009208679199e+00
4.078000000000000000e+03 4.120770454406738281e+00 2.605181694030761719e+00 1.096370723098516464e-02 -3.533291816711425781e-01 -1.027096360921859741e-01 8.310851454734802246e-01
4.079000000000000000e+03 5.205635547637939453e+00 3.159426689147949219e+01 3.540966659784317017e-02 1.126301407814025879e+00 3.485133349895477295e-01 1.506403088569641113e-01
4.080000000000000000e+03 7.466937255859375000e+01 -3.107106208801269531e+01 8.052863180637359619e-02 6.359628677368164062e+00 1.932047247886657715e+00 1.571585983037948608e-01
4.081000000000000000e+03 5.209189987182617188e+01 1.510222911834716797e+01 2.333624362945556641e-01 1.245243453979492188e+01 3.805739164352416992e+00 1.596972942352294922e+00
4.082000000000000000e+03 6.822956085205078125e+01 2.680692911148071289e+00 2.059281349182128906e+00 9.950399398803710938e+00 3.602904081344604492e+00 -8.336856216192245483e-02
4.083000000000000000e+03 6.763813781738281250e+01 2.136802673339843750e+00 8.887964487075805664e-01 7.759883880615234375e+00 2.594604015350341797e+00 8.963335156440734863e-01
4.084000000000000000e+03 2.103719711303710938e+00 -2.354702377319335938e+01 8.476263843476772308e-03 -5.820702910423278809e-01 -1.720782220363616943e-01 -3.480674326419830322e-02
4.085000000000000000e+03 7.793775558471679688e+00 7.035726547241210938e+00 1.654735445976257324e+00 1.801658987998962402e+00 1.036918282508850098e+00 -2.289599895477294922e+00
4.086000000000000000e+03 8.791318893432617188e+00 6.129388332366943359e+00 3.955000162124633789e+00 2.286883831024169922e+00 1.872565150260925293e+00 -3.132318735122680664e+00
4.087000000000000000e+03 6.964381694793701172e+00 4.408520221710205078e+00 2.912467479705810547e+00 -3.937885761260986328e-01 7.556036114692687988e-01 -7.421758025884628296e-02
4.088000000000000000e+03 2.205850791931152344e+01 9.436358451843261719e+00 -4.057478904724121094e+00 4.386478900909423828e+00 9.870006144046783447e-02 2.431182712316513062e-01
4.089000000000000000e+03 5.247193527221679688e+01 9.964947700500488281e+00 1.696483612060546875e+00 1.385745239257812500e+01 4.666180610656738281e+00 7.136744260787963867e-01
4.090000000000000000e+03 5.393407440185546875e+01 8.806114196777343750e+00 2.329906970262527466e-01 1.085289287567138672e+01 3.325765132904052734e+00 8.085866570472717285e-01
4.091000000000000000e+03 7.652742767333984375e+01 1.769368290901184082e+00 -2.446712255477905273e+00 9.484085083007812500e+00 2.111211776733398438e+00 -1.013528704643249512e+00
4.092000000000000000e+03 2.083216667175292969e+00 -4.406597614288330078e+00 -1.215470675379037857e-02 -4.229407384991645813e-02 -1.633463427424430847e-02 -3.943477571010589600e-02
4.093000000000000000e+03 1.199599933624267578e+01 -4.624145984649658203e+00 -2.193481624126434326e-01 8.865056931972503662e-02 -3.920928016304969788e-02 -1.819345541298389435e-02
4.094000000000000000e+03 1.111569595336914062e+01 -3.314170360565185547e+00 -1.662742197513580322e-01 4.826609045267105103e-02 -3.540243953466415405e-02 -1.019093301147222519e-02
4.095000000000000000e+03 4.979235839843750000e+01 -1.855481529235839844e+01 -9.081057906150817871e-01 1.151714324951171875e-01 -2.378803044557571411e-01 7.251583039760589600e-02
4.096000000000000000e+03 5.900093460083007812e+01 1.609033159911632538e-02 -2.697415351867675781e+00 1.422817587852478027e+00 -3.823793530464172363e-01 -7.653182744979858398e-01
4.097000000000000000e+03 2.645660018920898438e+01 2.037879973649978638e-01 8.682649135589599609e-01 1.036155581474304199e+00 5.713261961936950684e-01 -2.060919761657714844e+00
4.098000000000000000e+03 2.692952728271484375e+01 8.107492327690124512e-01 -9.684494137763977051e-01 -1.068761497735977173e-01 -3.225976526737213135e-01 -1.546390175819396973e+00
4.099000000000000000e+03 1.186046695709228516e+01 -2.635509252548217773e+00 -1.615450531244277954e-01 3.626926988363265991e-02 -3.758273646235466003e-02 2.039794623851776123e-02
4.100000000000000000e+03 3.555363464355468750e+01 -6.634368896484375000e-01 4.657037556171417236e-01 -1.039567947387695312e+00 -1.721592694520950317e-01 2.809863090515136719e-01
4.101000000000000000e+03 3.453664016723632812e+01 4.976361989974975586e-01 5.902297496795654297e-01 -3.706461191177368164e-01 6.587509065866470337e-02 1.215707063674926758e+00
4.102000000000000000e+03 2.859301185607910156e+01 -3.418385267257690430e+00 1.474471092224121094e+00 4.705598831176757812e+00 1.854020953178405762e+00 1.437200188636779785e+00
4.103000000000000000e+03 2.830626106262207031e+01 -4.496601581573486328e+00 1.718531847000122070e+00 5.668148994445800781e+00 2.216004133224487305e+00 2.862518429756164551e-01
4.104000000000000000e+03 2.610945510864257812e+01 1.246649646759033203e+01 -1.081682920455932617e+00 8.926626205444335938e+00 2.353482961654663086e+00 4.851740896701812744e-01
4.105000000000000000e+03 5.820655441284179688e+01 -1.941563636064529419e-01 -2.118731498718261719e+00 4.733063876628875732e-01 -4.936275482177734375e-01 -1.972701430320739746e+00
4.106000000000000000e+03 2.024544954299926758e+00 -2.512248229980468750e+01 8.612064644694328308e-03 -6.131636500358581543e-01 -1.813654750585556030e-01 -2.388311363756656647e-02
4.107000000000000000e+03 3.656597900390625000e+01 -1.774316978454589844e+01 1.634839415550231934e+00 2.011768341064453125e+00 1.093982338905334473e+00 -3.870936334133148193e-01
4.108000000000000000e+03 5.371418762207031250e+01 -2.222834777832031250e+01 4.183855950832366943e-01 2.552501916885375977e+00 8.912662863731384277e-01 1.900052905082702637e+00
4.109000000000000000e+03 5.691955566406250000e+01 -2.065444564819335938e+01 -1.194225430488586426e+00 7.822899341583251953e+00 1.988602161407470703e+00 5.198957920074462891e-01
4.110000000000000000e+03 7.593621826171875000e+01 2.812794876098632812e+01 -3.247528150677680969e-02 6.859358787536621094e+00 2.048065185546875000e+00 1.576047241687774658e-01
4.111000000000000000e+03 7.423980712890625000e+01 2.801578140258789062e+01 -5.331568792462348938e-02 6.729094505310058594e+00 2.002733707427978516e+00 1.796371787786483765e-01
4.112000000000000000e+03 3.699243927001953125e+01 1.477405929565429688e+01 -2.908775568008422852e+00 9.482756257057189941e-03 -8.697878122329711914e-01 6.389892846345901489e-02
4.113000000000000000e+03 3.620748519897460938e+01 1.650253105163574219e+01 -1.839471101760864258e+00 -4.933012723922729492e-01 -6.998317241668701172e-01 -2.550264298915863037e-01
4.114000000000000000e+03 5.805838394165039062e+01 -7.929960489273071289e-01 -8.298429846763610840e-01 1.345989823341369629e+00 1.548440456390380859e-01 -2.539334058761596680e+00
4.115000000000000000e+03 4.382641601562500000e+01 -2.539967559278011322e-02 -1.081986069679260254e+00 5.127877712249755859e+00 1.213767528533935547e+00 2.611210346221923828e+00
4.116000000000000000e+03 6.809912109375000000e+01 1.379199314117431641e+01 1.362644314765930176e+00 9.121582031250000000e+00 3.145267724990844727e+00 1.653307676315307617e+00
4.117000000000000000e+03 6.752796936035156250e+01 1.413484764099121094e+01 7.618905901908874512e-01 9.665090560913085938e+00 3.128094434738159180e+00 1.233513951301574707e+00
4.118000000000000000e+03 5.565181732177734375e+01 1.112793922424316406e+01 1.267904758453369141e+00 5.618679046630859375e+00 2.065975189208984375e+00 1.914954304695129395e+00
4.119000000000000000e+03 3.393824386596679688e+01 1.674884414672851562e+01 -1.334490537643432617e+00 -1.026412367820739746e+00 -7.082708477973937988e-01 2.573773562908172607e-01
4.120000000000000000e+03 4.364106750488281250e+01 -1.211572933197021484e+01 -1.152697920799255371e+00 5.429296493530273438e+00 1.282979488372802734e+00 1.991422176361083984e+00
4.121000000000000000e+03 4.264524841308593750e+01 -1.221945858001708984e+01 -8.711128234863281250e-01 5.953741550445556641e+00 1.524788618087768555e+00 2.127523422241210938e+00
4.122000000000000000e+03 2.045890808105468750e+01 -9.430245399475097656e+00 -5.800280570983886719e-01 -2.292195521295070648e-02 -1.808850020170211792e-01 1.045575663447380066e-01
4.123000000000000000e+03 4.159746170043945312e+01 -1.872555732727050781e+01 3.555159270763397217e-01 5.587134361267089844e+00 1.782795071601867676e+00 -2.333392053842544556e-01
4.124000000000000000e+03 3.222398376464843750e+01 -1.300236320495605469e+01 8.895094394683837891e-01 2.721275329589843750e+00 1.083235383033752441e+00 -1.693691253662109375e+00
4.125000000000000000e+03 4.755678176879882812e+01 2.192831993103027344e+00 2.486952543258666992e+00 3.653745412826538086e+00 1.842209339141845703e+00 3.355515480041503906e+00
4.126000000000000000e+03 4.809101486206054688e+01 2.765286684036254883e+00 2.844108581542968750e+00 4.178183555603027344e+00 2.106687784194946289e+00 3.071711301803588867e+00
4.127000000000000000e+03 7.619943237304687500e+01 1.862876713275909424e-01 -2.269934177398681641e+00 7.768120765686035156e+00 1.649455904960632324e+00 5.392561554908752441e-01
4.128000000000000000e+03 6.620336914062500000e+01 1.260970979928970337e-01 -1.305041074752807617e+00 3.797930479049682617e+00 7.478668093681335449e-01 2.980287551879882812e+00
4.129000000000000000e+03 6.068500137329101562e+01 -8.276774406433105469e+00 6.277395486831665039e-01 8.778594970703125000e+00 2.821900367736816406e+00 1.032727599143981934e+00
4.130000000000000000e+03 4.222809982299804688e+01 -1.816788864135742188e+01 6.262159943580627441e-01 5.214245319366455078e+00 1.752138495445251465e+00 -6.842151880264282227e-01
4.131000000000000000e+03 3.114565086364746094e+01 -1.190937805175781250e+01 1.100851774215698242e+00 3.051902294158935547e+00 1.245826244354248047e+00 -2.028856515884399414e+00
4.132000000000000000e+03 3.819913482666015625e+01 1.566103553771972656e+01 -2.214753150939941406e+00 3.271401524543762207e-01 -5.662838816642761230e-01 -1.362944692373275757e-01
4.133000000000000000e+03 6.897993469238281250e+01 -2.330697774887084961e+00 -3.690760135650634766e+00 3.991353988647460938e+00 9.017819911241531372e-02 -1.142498135566711426e+00
4.134000000000000000e+03 2.638379096984863281e+01 -3.891667127609252930e+00 2.628465175628662109e+00 8.681052207946777344e+00 3.392855167388916016e+00 -1.322152733802795410e+00
4.135000000000000000e+03 5.594467163085937500e+01 1.170490264892578125e+01 1.493407607078552246e+00 5.273719787597656250e+00 2.030138254165649414e+00 2.035701036453247070e+00
4.136000000000000000e+03 2.462190818786621094e+01 1.952244186401367188e+01 -1.724283814430236816e+00 3.999998092651367188e+00 6.827142834663391113e-01 -1.639307856559753418e+00
4.137000000000000000e+03 3.961848449707031250e+01 1.597324371337890625e+01 -1.872002482414245605e+00 6.214398145675659180e-01 -3.751688003540039062e-01 -1.075311452150344849e-01
4.138000000000000000e+03 3.711807250976562500e+01 7.604239940643310547e+00 -6.358745694160461426e-02 -5.426745489239692688e-02 -3.535647317767143250e-02 3.228862956166267395e-02
4.139000000000000000e+03 4.549876785278320312e+01 -1.389534473419189453e+01 -5.939599275588989258e-01 3.007701635360717773e+00 7.241224646568298340e-01 7.814916372299194336e-01
4.140000000000000000e+03 4.246035003662109375e+01 -4.772863864898681641e+00 2.822860002517700195e+00 5.223583221435546875e+00 2.413932800292968750e+00 1.096883773803710938e+00
4.141000000000000000e+03 4.329045867919921875e+01 -3.931720256805419922e+00 3.051436424255371094e+00 7.288125038146972656e+00 3.101868391036987305e+00 9.296665787696838379e-01
4.142000000000000000e+03 7.031121826171875000e+01 -3.954427957534790039e+00 -2.080203771591186523e+00 3.903963088989257812e+00 5.471277832984924316e-01 -1.255956768989562988e+00
4.143000000000000000e+03 5.479595184326171875e+01 -5.325759887695312500e+00 -1.755587339401245117e+00 5.600408077239990234e+00 1.153446197509765625e+00 -1.655283927917480469e+00
4.144000000000000000e+03 1.176254177093505859e+01 1.282639598846435547e+01 -1.292427539825439453e+00 4.125105142593383789e-01 -2.639751136302947998e-01 -4.597970843315124512e-01
4.145000000000000000e+03 6.907865142822265625e+01 1.000277709960937500e+01 4.377487003803253174e-01 7.880116462707519531e+00 2.495359659194946289e+00 7.735444307327270508e-01
4.146000000000000000e+03 7.023980712890625000e+01 1.019146728515625000e+01 2.064922749996185303e-01 4.884743213653564453e+00 1.527370691299438477e+00 1.230230450630187988e+00
4.147000000000000000e+03 5.654430770874023438e+01 -1.022098636627197266e+01 3.508800268173217773e-01 8.444743156433105469e+00 2.638686895370483398e+00 -3.705694973468780518e-01
4.148000000000000000e+03 7.129679107666015625e+01 -4.987236499786376953e+00 -1.130315184593200684e+00 4.790846347808837891e+00 1.098159313201904297e+00 -1.067985296249389648e+00
4.149000000000000000e+03 1.324494552612304688e+01 1.446308517456054688e+01 -1.391552448272705078e+00 1.166727743111550808e-03 -4.171157181262969971e-01 -4.380147457122802734e-01
4.150000000000000000e+03 1.811992287635803223e+00 1.719682121276855469e+01 -6.330159306526184082e-02 1.530948996543884277e+00 4.402942061424255371e-01 -1.615543514490127563e-01
4.151000000000000000e+03 1.255634498596191406e+01 -3.443893194198608398e+00 -1.994744837284088135e-01 5.759699270129203796e-02 -4.256324842572212219e-02 2.678865753114223480e-02
4.152000000000000000e+03 1.258974933624267578e+01 -2.641769886016845703e+00 -1.651476025581359863e-01 3.696935251355171204e-02 -3.845347464084625244e-02 3.549789264798164368e-02
4.153000000000000000e+03 2.022346305847167969e+01 6.725717544555664062e+00 1.209087491035461426e+00 2.366463899612426758e+00 1.072665452957153320e+00 -1.012489080429077148e+00
4.154000000000000000e+03 3.417259216308593750e+00 6.205124378204345703e+00 7.331433892250061035e-01 -3.061181008815765381e-01 1.281075775623321533e-01 -3.448475599288940430e-01
4.155000000000000000e+03 3.631926536560058594e+00 1.310663509368896484e+01 -2.728804945945739746e-01 1.079324364662170410e+00 2.419331669807434082e-01 -7.446306347846984863e-01
4.156000000000000000e+03 4.668912124633789062e+01 1.860713958740234375e+01 -5.025494098663330078e-01 1.707740187644958496e+00 3.615572452545166016e-01 -1.431224942207336426e+00
4.157000000000000000e+03 4.688862228393554688e+01 1.756250000000000000e+01 -2.222410291433334351e-01 9.986798167228698730e-01 2.329316288232803345e-01 -1.728045940399169922e+00
4.158000000000000000e+03 8.639030456542968750e+00 -4.664830684661865234e+00 -1.271842718124389648e-01 3.812091797590255737e-02 -2.671900391578674316e-02 -8.018047362565994263e-02
4.159000000000000000e+03 9.241513252258300781e+00 -4.358097553253173828e+00 -1.424839794635772705e-01 4.614154621958732605e-02 -2.890272811055183411e-02 -6.666693836450576782e-02
4.160000000000000000e+03 4.359325408935546875e+01 -1.148868370056152344e+01 -1.526495695114135742e+00 5.663450241088867188e+00 1.241086483001708984e+00 2.045223712921142578e+00
4.161000000000000000e+03 5.330460357666015625e+01 7.981814384460449219e+00 -9.005318582057952881e-02 1.269234275817871094e+01 3.780686855316162109e+00 3.500270545482635498e-01
4.162000000000000000e+03 7.677413177490234375e+01 -1.853828811645507812e+01 -2.363866865634918213e-01 7.646680831909179688e+00 2.223088264465332031e+00 -3.184808194637298584e-01
4.163000000000000000e+03 7.727301025390625000e+01 -9.377199172973632812e+00 3.880688250064849854e-01 8.249375343322753906e+00 2.591233253479003906e+00 1.313227176666259766e+00
4.164000000000000000e+03 5.459434509277343750e+00 4.617853641510009766e+00 1.642706751823425293e+00 -4.100868999958038330e-01 3.697859644889831543e-01 6.789179891347885132e-02
4.165000000000000000e+03 7.801972866058349609e+00 -4.187347888946533203e+00 -1.071263477206230164e-01 2.171666547656059265e-02 -2.562290430068969727e-02 -7.691480964422225952e-02
4.166000000000000000e+03 7.739836120605468750e+01 -2.463708400726318359e+00 -4.212135672569274902e-01 9.511589050292968750e+00 2.727112770080566406e+00 1.251361370086669922e+00
4.167000000000000000e+03 2.623842000961303711e+00 2.599920988082885742e+00 -5.411835759878158569e-02 -3.334535658359527588e-01 -1.162715703248977661e-01 5.952128767967224121e-01
4.168000000000000000e+03 3.300789833068847656e+00 3.283602714538574219e+00 2.375822663307189941e-01 -4.263143837451934814e-01 -5.661963671445846558e-02 6.352961659431457520e-01
4.169000000000000000e+03 3.456193685531616211e+00 -6.317060947418212891e+00 -2.620369568467140198e-02 -6.532476842403411865e-02 -2.745853923261165619e-02 -8.773355931043624878e-02
4.170000000000000000e+03 3.510146713256835938e+01 2.157647371292114258e+00 -4.388999342918395996e-01 -2.124994099140167236e-01 -1.954198032617568970e-01 1.444904208183288574e+00
4.171000000000000000e+03 3.598767089843750000e+01 3.073263406753540039e+00 -4.768910109996795654e-01 -5.332938432693481445e-01 -3.030554354190826416e-01 1.231732368469238281e+00
4.172000000000000000e+03 4.334503936767578125e+01 -2.181305646896362305e+00 -9.704039990901947021e-02 7.247989177703857422e+00 2.145284652709960938e+00 1.087956070899963379e+00
4.173000000000000000e+03 4.352175903320312500e+01 -2.744819641113281250e+00 6.603417396545410156e-01 8.215408325195312500e+00 2.662724971771240234e+00 7.383269667625427246e-01
4.174000000000000000e+03 3.696640777587890625e+01 -3.034049272537231445e+00 5.893449187278747559e-01 -2.030186414718627930e+00 -4.322524368762969971e-01 -1.195142883807420731e-02
4.175000000000000000e+03 4.372477340698242188e+01 1.491233444213867188e+01 -1.987663507461547852e+00 5.574747920036315918e-01 -4.290566146373748779e-01 -3.556576073169708252e-01
4.176000000000000000e+03 6.294823455810546875e+01 2.404437780380249023e+00 -1.832625150680541992e+00 4.329318523406982422e+00 7.490080595016479492e-01 2.227410078048706055e+00
4.177000000000000000e+03 2.918663787841796875e+01 8.666859865188598633e-01 3.564413636922836304e-02 1.727362871170043945e+00 5.289021134376525879e-01 4.198013246059417725e-01
4.178000000000000000e+03 2.841635322570800781e+01 4.321131706237792969e-01 1.253313541412353516e+00 1.121190071105957031e+00 7.123510837554931641e-01 3.672420680522918701e-01
4.179000000000000000e+03 1.485192394256591797e+01 -4.775112152099609375e+00 -3.133644163608551025e-01 6.265238672494888306e-02 -7.521361112594604492e-02 7.585181295871734619e-02
4.180000000000000000e+03 1.580112838745117188e+01 -5.647696495056152344e+00 -3.877488672733306885e-01 6.200313195586204529e-02 -9.772371500730514526e-02 9.970866888761520386e-02
4.181000000000000000e+03 2.748060417175292969e+01 1.280233001708984375e+01 -6.907951235771179199e-01 4.606381893157958984e+00 1.174676060676574707e+00 -1.385048031806945801e-01
4.182000000000000000e+03 6.750488281250000000e+01 4.939350605010986328e+00 1.711853861808776855e+00 1.000634098052978516e+01 3.515458583831787109e+00 -1.141776323318481445e+00
4.183000000000000000e+03 6.656085968017578125e+01 3.312421083450317383e+00 1.196679234504699707e+00 7.218406200408935547e+00 2.524525642395019531e+00 9.995097517967224121e-01
4.184000000000000000e+03 6.069821166992187500e+01 -7.468477725982666016e+00 9.407259225845336914e-01 8.873872756958007812e+00 2.944379568099975586e+00 1.092814803123474121e+00
4.185000000000000000e+03 6.736064910888671875e+01 -9.171277284622192383e-01 -2.943510055541992188e+00 3.530644416809082031e+00 1.761403083801269531e-01 8.962465822696685791e-02
4.186000000000000000e+03 5.893243026733398438e+01 -1.906494331359863281e+01 4.545278251171112061e-01 8.423155784606933594e+00 2.663305044174194336e+00 -7.881618738174438477e-01
4.187000000000000000e+03 5.752733230590820312e+01 -1.821398353576660156e+01 2.388570547103881836e+00 1.032713794708251953e+01 3.814712285995483398e+00 -3.248040378093719482e-02
4.188000000000000000e+03 2.792243766784667969e+01 -6.106105327606201172e+00 2.671355485916137695e+00 6.625424861907958984e+00 2.789034128189086914e+00 -1.233545660972595215e+00
4.189000000000000000e+03 7.460707855224609375e+01 -1.453465652465820312e+01 1.200634837150573730e+00 9.360569953918457031e+00 3.168361425399780273e+00 1.241427734494209290e-01
4.190000000000000000e+03 2.999932670593261719e+01 1.465802383422851562e+01 -3.875542283058166504e-01 -1.580657809972763062e-02 -1.210082396864891052e-01 3.312482237815856934e-01
4.191000000000000000e+03 3.653182601928710938e+01 4.929943084716796875e+00 -2.438657432794570923e-01 -3.301659524440765381e-01 -1.722095012664794922e-01 5.139198303222656250e-01
4.192000000000000000e+03 3.725802230834960938e+01 4.651182651519775391e+00 -3.415390849113464355e-02 -3.839729428291320801e-01 -1.254380494356155396e-01 3.171614706516265869e-01
4.193000000000000000e+03 6.912736511230468750e+01 -1.919951820373535156e+01 7.222422957420349121e-01 2.921334266662597656e+00 1.093072891235351562e+00 1.000635266304016113e+00
4.194000000000000000e+03 2.753859519958496094e+01 -3.230540752410888672e+00 2.177241802215576172e+00 5.864558219909667969e+00 2.412540197372436523e+00 5.796189904212951660e-01
4.195000000000000000e+03 3.228859424591064453e+00 1.870685386657714844e+01 -1.406638920307159424e-01 1.426373481750488281e+00 3.857128918170928955e-01 -1.172148808836936951e-01
4.196000000000000000e+03 7.656407165527343750e+01 7.511175274848937988e-01 -2.366812944412231445e+00 8.838280677795410156e+00 1.941440463066101074e+00 1.553755700588226318e-01
4.197000000000000000e+03 4.861511611938476562e+01 -1.643684387207031250e+01 -1.045669555664062500e+00 -1.412738412618637085e-01 -3.560830056667327881e-01 4.963948428630828857e-01
4.198000000000000000e+03 4.874024581909179688e+01 -1.732892799377441406e+01 -9.217050671577453613e-01 2.707645297050476074e-01 -1.952821612358093262e-01 1.423866003751754761e-01
4.199000000000000000e+03 7.703692626953125000e+01 9.830169677734375000e+00 -8.478611707687377930e-01 9.689657211303710938e+00 2.652539014816284180e+00 -2.678650915622711182e-01
4.200000000000000000e+03 3.338703632354736328e+00 2.403219413757324219e+01 -3.785061836242675781e-02 1.411369800567626953e+00 4.120557606220245361e-01 1.161253973841667175e-01
4.201000000000000000e+03 2.584234714508056641e+00 2.385028648376464844e+01 -1.613811403512954712e-02 1.507875323295593262e+00 4.475211799144744873e-01 9.191677719354629517e-02
4.202000000000000000e+03 2.587896728515625000e+01 5.224577188491821289e-01 2.217563390731811523e-01 1.565718531608581543e+00 5.362424850463867188e-01 -3.860703468322753906e+00
4.203000000000000000e+03 3.800866699218750000e+01 -1.749081230163574219e+01 2.194972276687622070e+00 1.956661701202392578e+00 1.245490193367004395e+00 3.563773930072784424e-01
4.204000000000000000e+03 7.737900543212890625e+01 1.796268844604492188e+01 1.503419876098632812e-01 6.660189151763916016e+00 2.043159246444702148e+00 -1.087405681610107422e-01
4.205000000000000000e+03 2.930428695678710938e+01 1.930989503860473633e+00 -2.973777532577514648e+00 1.112697958946228027e+00 -5.583238601684570312e-01 -1.686901450157165527e-01
4.206000000000000000e+03 2.934584617614746094e+00 -4.478271007537841797e+00 -2.244154177606105804e-02 -4.008510708808898926e-02 -1.875799521803855896e-02 -5.395456403493881226e-02
4.207000000000000000e+03 1.938325405120849609e+00 2.189214706420898438e+01 -2.302364818751811981e-02 1.634389638900756836e+00 4.834098219871520996e-01 4.231150075793266296e-02
4.208000000000000000e+03 7.156201171875000000e+01 -5.365120172500610352e-01 -2.118891954421997070e+00 3.765472412109375000e+00 4.939741790294647217e-01 -3.632995605468750000e+00
4.209000000000000000e+03 7.326814270019531250e+01 -1.176675915718078613e+00 -9.712733030319213867e-01 2.591985940933227539e+00 4.862138032913208008e-01 -1.493177294731140137e+00
4.210000000000000000e+03 7.686589050292968750e+01 -2.878012084960937500e+01 2.933310344815254211e-02 6.745738029479980469e+00 2.032521486282348633e+00 1.582191586494445801e-01
4.211000000000000000e+03 1.458271217346191406e+01 1.569995021820068359e+01 -1.418822526931762695e+00 -1.145184412598609924e-01 -4.600022733211517334e-01 -4.085858762264251709e-01
4.212000000000000000e+03 3.127215766906738281e+01 -8.285058975219726562e+00 1.244689822196960449e+00 1.408867359161376953e+00 7.960671186447143555e-01 -1.589582085609436035e+00
4.213000000000000000e+03 4.726888179779052734e+00 -4.549438476562500000e+00 -4.927185922861099243e-02 -2.332461439073085785e-02 -2.177894301712512970e-02 -7.726998627185821533e-02
4.214000000000000000e+03 1.440481376647949219e+01 -5.413969516754150391e+00 -3.291131854057312012e-01 1.072122529149055481e-01 -6.657028198242187500e-02 3.364279493689537048e-02
4.215000000000000000e+03 2.736400604248046875e+01 -6.145665645599365234e+00 3.057574033737182617e+00 8.556633949279785156e+00 3.484262228012084961e+00 -1.499774217605590820e+00
4.216000000000000000e+03 7.700312805175781250e+01 -1.676397895812988281e+01 -3.317972272634506226e-02 7.690329074859619141e+00 2.297144889831542969e+00 -4.892686307430267334e-01
4.217000000000000000e+03 7.740943908691406250e+01 -1.586319541931152344e+01 1.911543309688568115e-01 7.488304138183593750e+00 2.303837537765502930e+00 -3.942075371742248535e-01
4.218000000000000000e+03 6.831037139892578125e+01 2.338078320026397705e-01 -2.112843036651611328e+00 6.070217132568359375e+00 1.187212228775024414e+00 -4.177051782608032227e-01
4.219000000000000000e+03 3.102778625488281250e+01 1.573216152191162109e+01 -6.136689782142639160e-01 -4.943298101425170898e-01 -3.323996365070343018e-01 7.225207090377807617e-01
4.220000000000000000e+03 9.880414962768554688e+00 1.088760280609130859e+01 -1.115957379341125488e+00 1.336958289146423340e+00 6.630028039216995239e-02 -6.844339966773986816e-01
4.221000000000000000e+03 5.142530822753906250e+01 7.700213909149169922e+00 2.198539674282073975e-01 1.364382266998291016e+01 4.159102916717529297e+00 7.609870433807373047e-01
4.222000000000000000e+03 2.423486137390136719e+01 1.043737506866455078e+01 -3.852968454360961914e+00 8.553949356079101562e+00 1.410294413566589355e+00 2.233089208602905273e+00
4.223000000000000000e+03 7.371925354003906250e+01 -1.767805218696594238e+00 -8.865692615509033203e-01 3.524511337280273438e+00 7.913826107978820801e-01 -6.456340551376342773e-01
4.224000000000000000e+03 6.379880905151367188e+00 -4.318843841552734375e+00 -8.015304803848266602e-02 1.682661473751068115e-03 -2.354111522436141968e-02 -8.143316209316253662e-02
4.225000000000000000e+03 7.710494995117187500e+01 1.168120765686035156e+01 -4.587320685386657715e-01 7.939854621887207031e+00 2.244336605072021484e+00 -7.081209421157836914e-01
4.226000000000000000e+03 7.682132720947265625e+01 1.089565658569335938e+01 -8.707882761955261230e-01 8.614418029785156250e+00 2.323088884353637695e+00 -7.148208618164062500e-01
4.227000000000000000e+03 5.327658843994140625e+01 1.091002655029296875e+01 2.314049005508422852e+00 1.143115615844726562e+01 4.123561382293701172e+00 1.244322896003723145e+00
4.228000000000000000e+03 2.749128580093383789e+00 -1.010305595397949219e+01 -7.830360904335975647e-03 -1.724266260862350464e-01 -5.407709628343582153e-02 -1.085925623774528503e-01
4.229000000000000000e+03 6.705316162109375000e+01 -1.812154388427734375e+01 2.872968912124633789e-01 2.344933986663818359e+00 7.896692156791687012e-01 -6.241478323936462402e-01
4.230000000000000000e+03 7.761659240722656250e+01 -5.393292903900146484e+00 -8.666910231113433838e-02 9.213522911071777344e+00 2.738056182861328125e+00 1.479449868202209473e+00
4.231000000000000000e+03 3.130688428878784180e+00 2.005930137634277344e+01 -9.842275828123092651e-02 1.463914036750793457e+00 4.096473753452301025e-01 -3.557383269071578979e-02
4.232000000000000000e+03 4.154946899414062500e+01 -7.798659801483154297e+00 -5.873664021492004395e-01 4.157200813293457031e+00 1.070950388908386230e+00 1.914181470870971680e+00
4.233000000000000000e+03 4.220324707031250000e+01 -6.332987308502197266e+00 1.350355386734008789e+00 5.473327159881591797e+00 2.047104597091674805e+00 1.849028468132019043e+00
4.234000000000000000e+03 5.993819427490234375e+01 1.597834873199462891e+01 1.188116788864135742e+00 2.343595981597900391e+00 1.059513807296752930e+00 1.281275629997253418e+00
4.235000000000000000e+03 2.346397209167480469e+01 8.762956619262695312e+00 -2.577494382858276367e+00 8.795084953308105469e+00 1.865277171134948730e+00 2.287679672241210938e+00
4.236000000000000000e+03 7.648410797119140625e+01 1.976009941101074219e+01 1.410421282052993774e-01 6.651803493499755859e+00 2.037853717803955078e+00 7.093428820371627808e-02
4.237000000000000000e+03 2.499798774719238281e+01 9.268301963806152344e+00 -2.211216211318969727e+00 8.445377349853515625e+00 1.870248317718505859e+00 2.862739324569702148e+00
4.238000000000000000e+03 5.874750900268554688e+01 -1.378435039520263672e+01 7.448650002479553223e-01 9.585191726684570312e+00 3.099016904830932617e+00 4.895535111427307129e-01
4.239000000000000000e+03 4.700004577636718750e+01 1.670982718467712402e+00 2.028049945831298828e+00 3.442661762237548828e+00 1.641213417053222656e+00 3.723489522933959961e+00
4.240000000000000000e+03 3.533463287353515625e+01 5.912384033203125000e+00 -5.553868412971496582e-01 9.941621869802474976e-02 -1.367911845445632935e-01 3.459895849227905273e-01
4.241000000000000000e+03 3.482155990600585938e+01 6.088996887207031250e+00 -6.719458103179931641e-01 1.634535044431686401e-01 -1.525477021932601929e-01 2.491474449634552002e-01
4.242000000000000000e+03 3.459045410156250000e+01 -1.542245197296142578e+01 7.733269333839416504e-01 2.198855161666870117e+00 8.916546106338500977e-01 -1.325316786766052246e+00
4.243000000000000000e+03 3.547323989868164062e+01 -1.634362030029296875e+01 1.005742192268371582e+00 2.062666893005371094e+00 9.205226898193359375e-01 -1.108104228973388672e+00
4.244000000000000000e+03 7.285029602050781250e+01 -6.611081600189208984e+00 -3.256680369377136230e-01 7.275793075561523438e+00 2.085037469863891602e+00 2.947720885276794434e-02
4.245000000000000000e+03 3.139414405822753906e+01 2.235844850540161133e+00 -1.935676693916320801e+00 2.681439161300659180e+00 2.237287163734436035e-01 1.648177146911621094e+00
4.246000000000000000e+03 5.302880477905273438e+01 1.405641746520996094e+01 2.252497434616088867e+00 1.076656341552734375e+01 3.905718326568603516e+00 2.525998830795288086e+00
4.247000000000000000e+03 7.402619171142578125e+01 1.321334457397460938e+01 1.107009053230285645e+00 4.973996639251708984e+00 1.824301719665527344e+00 -1.180424094200134277e+00
4.248000000000000000e+03 7.332845306396484375e+01 1.221549224853515625e+01 1.377029418945312500e+00 3.761096000671386719e+00 1.541437625885009766e+00 -1.355991244316101074e+00
4.249000000000000000e+03 7.687801361083984375e+01 -3.057226562500000000e+01 3.084703534841537476e-02 6.696101665496826172e+00 2.018084526062011719e+00 1.269524693489074707e-01
4.250000000000000000e+03 5.342120742797851562e+01 -2.084043323993682861e-01 -1.479887366294860840e+00 1.025193214416503906e+01 2.631613492965698242e+00 -2.379655599594116211e+00
4.251000000000000000e+03 5.241353225708007812e+01 2.214027404785156250e+00 4.006297111511230469e+00 1.099767398834228516e+01 4.501191139221191406e+00 -3.942174911499023438e-01
4.252000000000000000e+03 5.917272567749023438e+01 -1.718662834167480469e+01 1.196829319000244141e+00 8.426613807678222656e+00 2.887032747268676758e+00 -4.866541922092437744e-01
4.253000000000000000e+03 4.330459976196289062e+01 -1.680557060241699219e+01 1.295205235481262207e+00 4.473695755004882812e+00 1.730670213699340820e+00 -4.634650349617004395e-01
4.254000000000000000e+03 2.869766807556152344e+01 1.562238502502441406e+01 1.502548575401306152e+00 2.244158267974853516e+00 1.124011993408203125e+00 1.871912956237792969e+00
4.255000000000000000e+03 2.749585151672363281e+01 1.623215293884277344e+01 1.415431141853332520e+00 4.956465721130371094e+00 1.911569118499755859e+00 2.996253490447998047e+00
4.256000000000000000e+03 4.442423629760742188e+01 -1.407883071899414062e+01 -1.374445110559463501e-01 4.042195796966552734e+00 1.171425461769104004e+00 1.074170947074890137e+00
4.257000000000000000e+03 5.388016891479492188e+01 -5.303058147430419922e+00 -2.256511449813842773e+00 4.947963237762451172e+00 8.074355125427246094e-01 -1.265964627265930176e+00
4.258000000000000000e+03 8.417108535766601562e+00 4.123999595642089844e+00 4.488398551940917969e+00 3.426672816276550293e-01 1.449319839477539062e+00 -3.930291160941123962e-02
4.259000000000000000e+03 8.526660919189453125e+00 4.825569152832031250e+00 5.211570739746093750e+00 1.196067214012145996e+00 1.922291398048400879e+00 -1.546417951583862305e+00
4.260000000000000000e+03 4.933578872680664062e+01 -1.215161561965942383e+00 -4.894214868545532227e-01 1.403499484062194824e+00 2.742234170436859131e-01 2.029789686203002930e+00
4.261000000000000000e+03 4.858666229248046875e+01 -7.087804675102233887e-01 4.618144035339355469e-01 1.611695766448974609e+00 6.220530867576599121e-01 3.118249177932739258e+00
4.262000000000000000e+03 1.674373817443847656e+01 -6.625171184539794922e+00 -4.914313256740570068e-01 8.135715126991271973e-02 -1.230222508311271667e-01 1.148226186633110046e-01
4.263000000000000000e+03 6.981638336181640625e+01 9.414416313171386719e+00 -8.260889649391174316e-01 6.000458240509033203e+00 1.552310705184936523e+00 8.753783702850341797e-01
4.264000000000000000e+03 4.436203765869140625e+01 -1.120729923248291016e+00 -1.369392752647399902e+00 6.763007164001464844e+00 1.618084311485290527e+00 3.331043720245361328e+00
4.265000000000000000e+03 1.819906044006347656e+01 -8.873878479003906250e+00 -5.392246842384338379e-01 1.893633157014846802e-01 -1.049584150314331055e-01 -1.916455477476119995e-02
4.266000000000000000e+03 6.693611907958984375e+01 1.620938301086425781e+01 -2.379723489284515381e-01 8.250037193298339844e+00 2.403619289398193359e+00 -1.760371476411819458e-01
4.267000000000000000e+03 6.702739715576171875e+01 1.458933734893798828e+01 1.528781950473785400e-01 9.917752265930175781e+00 3.021189212799072266e+00 5.405641794204711914e-01
4.268000000000000000e+03 3.266489791870117188e+01 3.166391372680664062e+00 -1.481483936309814453e+00 1.437428116798400879e+00 -1.321675442159175873e-02 1.640315175056457520e+00
4.269000000000000000e+03 4.081539154052734375e+00 3.065875625610351562e+01 2.046038955450057983e-02 1.209160089492797852e+00 3.688861727714538574e-01 1.426626741886138916e-01
4.270000000000000000e+03 8.046956062316894531e+00 8.424181938171386719e+00 5.822767689824104309e-02 2.106744527816772461e+00 6.494916677474975586e-01 -1.829220771789550781e+00
4.271000000000000000e+03 5.288604354858398438e+01 9.329079627990722656e+00 8.858945965766906738e-01 1.295564651489257812e+01 4.152462482452392578e+00 3.977589309215545654e-01
4.272000000000000000e+03 5.740498352050781250e+01 -6.610385179519653320e-01 -6.688438653945922852e-01 1.638840436935424805e+00 2.909989655017852783e-01 -4.019828319549560547e+00
4.273000000000000000e+03 1.335029888153076172e+01 -4.125184059143066406e+00 -2.464509606361389160e-01 7.218373566865921021e-02 -5.228016898036003113e-02 3.882962465286254883e-02
4.274000000000000000e+03 5.003749084472656250e+01 1.792296981811523438e+01 -1.745216608047485352e+00 6.530782222747802734e+00 1.435669779777526855e+00 -2.441215991973876953e+00
4.275000000000000000e+03 6.795194244384765625e+01 6.550313949584960938e+00 -8.763945847749710083e-02 1.134829902648925781e+01 3.378197669982910156e+00 -1.760969996452331543e+00
4.276000000000000000e+03 6.706339263916015625e+01 8.122316360473632812e+00 -5.136529803276062012e-01 1.210691356658935547e+01 3.477977991104125977e+00 -9.304397106170654297e-01
4.277000000000000000e+03 7.804449081420898438e+00 4.913279533386230469e+00 3.897611856460571289e+00 3.020511269569396973e-01 1.259898900985717773e+00 -8.821863532066345215e-01
4.278000000000000000e+03 5.107423782348632812e+01 3.235621929168701172e+00 3.651515245437622070e+00 8.468473434448242188e+00 3.635996818542480469e+00 6.731754541397094727e-01
4.279000000000000000e+03 7.411664581298828125e+01 -1.553135967254638672e+01 8.213599324226379395e-01 9.377756118774414062e+00 3.059734821319580078e+00 -5.714609101414680481e-02
4.280000000000000000e+03 3.881137847900390625e+01 -3.626641511917114258e+00 1.246471405029296875e+00 -1.480543017387390137e+00 -7.022149115800857544e-02 -7.266065478324890137e-02
4.281000000000000000e+03 2.746199417114257812e+01 3.447442352771759033e-01 7.451872229576110840e-01 3.303498327732086182e-01 3.226611018180847168e-01 -5.469130277633666992e-01
4.282000000000000000e+03 6.127164077758789062e+01 -1.140211200714111328e+01 -4.910433292388916016e-02 8.247126579284667969e+00 2.459406614303588867e+00 7.663660049438476562e-01
4.283000000000000000e+03 2.522829627990722656e+01 -1.256804561614990234e+01 -4.453636407852172852e-01 4.951070308685302734e+00 1.351712107658386230e+00 9.439827203750610352e-01
4.284000000000000000e+03 8.088577270507812500e+00 9.702139854431152344e+00 -5.942746400833129883e-01 1.944338321685791016e+00 4.050191342830657959e-01 -1.381972670555114746e+00
4.285000000000000000e+03 5.414218139648437500e+01 1.060798454284667969e+01 1.631365537643432617e+00 9.365406036376953125e+00 3.299031496047973633e+00 1.324411869049072266e+00
4.286000000000000000e+03 6.637011718750000000e+01 -1.898814964294433594e+01 5.399385690689086914e-01 3.165607929229736328e+00 1.111663937568664551e+00 -8.457382917404174805e-01
4.287000000000000000e+03 6.148133850097656250e+01 -1.262584114074707031e+01 -1.501380801200866699e-01 7.743875980377197266e+00 2.278121471405029297e+00 3.902992308139801025e-01
4.288000000000000000e+03 3.063936424255371094e+01 -1.210984516143798828e+01 8.912249803543090820e-01 3.398075342178344727e+00 1.286790132522583008e+00 -2.063300848007202148e+00
4.289000000000000000e+03 5.022537994384765625e+01 -2.111383247375488281e+01 2.035131603479385376e-01 7.701380848884582520e-01 2.920953631401062012e-01 -1.650118082761764526e-01
4.290000000000000000e+03 5.927862167358398438e+01 -1.267798042297363281e+01 4.031562805175781250e-01 9.042774200439453125e+00 2.833779335021972656e+00 6.650028228759765625e-01
4.291000000000000000e+03 5.810736846923828125e+01 -1.207583522796630859e+01 4.281843602657318115e-01 9.417070388793945312e+00 2.953576564788818359e+00 4.661527276039123535e-01
4.292000000000000000e+03 5.188148880004882812e+01 1.784797477722167969e+01 -1.725151777267456055e+00 8.831943511962890625e+00 2.132037639617919922e+00 7.680471986532211304e-02
4.293000000000000000e+03 4.157712936401367188e+01 1.667614364624023438e+01 -1.555060744285583496e+00 7.379292249679565430e-01 -2.451394647359848022e-01 -1.454052627086639404e-01
4.294000000000000000e+03 4.132860565185546875e+01 1.584242248535156250e+01 -1.743958473205566406e+00 7.703297138214111328e-01 -2.920886278152465820e-01 -8.594525605440139771e-02
4.295000000000000000e+03 4.912377929687500000e+01 4.003228664398193359e+00 3.065585136413574219e+00 6.031829833984375000e+00 2.729224443435668945e+00 2.249982357025146484e+00
4.296000000000000000e+03 5.115176010131835938e+01 4.902676105499267578e+00 2.479295492172241211e+00 1.039085960388183594e+01 3.861046552658081055e+00 2.263634651899337769e-01
4.297000000000000000e+03 1.671580123901367188e+01 1.660899734497070312e+01 -1.595125317573547363e+00 -3.145125508308410645e-01 -5.728913545608520508e-01 -5.209202766418457031e-01
4.298000000000000000e+03 2.914115905761718750e+01 1.486762237548828125e+01 7.277950048446655273e-01 1.337382316589355469e+00 6.195532083511352539e-01 1.011035323143005371e+00
4.299000000000000000e+03 2.830804252624511719e+01 1.418539333343505859e+01 1.189050793647766113e+00 2.698446512222290039e+00 1.166249155998229980e+00 6.697399020195007324e-01
4.300000000000000000e+03 6.325883102416992188e+01 -1.398941326141357422e+01 -3.934099972248077393e-01 5.722947120666503906e+00 1.598861098289489746e+00 -4.776735007762908936e-01
4.301000000000000000e+03 7.308174133300781250e+01 -1.779984092712402344e+01 -9.743137955665588379e-01 8.265160560607910156e+00 2.187253952026367188e+00 1.092237234115600586e+00
4.302000000000000000e+03 7.282844543457031250e+01 -1.695505332946777344e+01 -8.662106990814208984e-01 9.220349311828613281e+00 2.506241798400878906e+00 1.145936250686645508e+00
4.303000000000000000e+03 5.381406021118164062e+01 1.130537319183349609e+01 2.220290899276733398e+00 1.024201583862304688e+01 3.738692045211791992e+00 1.538427352905273438e+00
4.304000000000000000e+03 5.379822158813476562e+01 -2.113381576538085938e+01 9.980147331953048706e-02 1.922705531120300293e+00 6.067520976066589355e-01 2.242731094360351562e+00
4.305000000000000000e+03 3.290111541748046875e+01 2.139825344085693359e+00 -4.631576836109161377e-01 1.325948357582092285e+00 2.588371932506561279e-01 1.978358387947082520e+00
4.306000000000000000e+03 3.103822708129882812e+01 2.787923812866210938e+00 -2.653173685073852539e+00 2.055253982543945312e+00 -1.793759316205978394e-01 8.379054069519042969e-01
4.307000000000000000e+03 7.339179992675781250e+01 -6.232953548431396484e+00 -3.981324732303619385e-01 7.257999420166015625e+00 2.057960033416748047e+00 3.507249057292938232e-01
4.308000000000000000e+03 6.755512237548828125e+01 6.030117034912109375e+00 4.608166217803955078e-01 1.067314624786376953e+01 3.340188980102539062e+00 -1.345216870307922363e+00
4.309000000000000000e+03 2.871305465698242188e+01 -7.403418540954589844e+00 2.549006700515747070e+00 5.228613376617431641e+00 2.333286046981811523e+00 -2.144192457199096680e+00
4.310000000000000000e+03 6.645034790039062500e+01 7.864930152893066406e+00 -2.972328960895538330e-01 1.206463336944580078e+01 3.530220031738281250e+00 -9.188055247068405151e-02
4.311000000000000000e+03 4.315812683105468750e+01 -1.569263100624084473e+00 -9.205242395401000977e-01 6.237402439117431641e+00 1.595063567161560059e+00 1.408620357513427734e+00
4.312000000000000000e+03 2.854596614837646484e+00 -2.515161514282226562e+01 1.120384503155946732e-02 -5.129649043083190918e-01 -1.505283117294311523e-01 -3.029935061931610107e-02
4.313000000000000000e+03 4.221294784545898438e+01 -8.575448989868164062e+00 -1.182635426521301270e+00 5.702604293823242188e+00 1.355990648269653320e+00 2.178536415100097656e+00
4.314000000000000000e+03 6.579934692382812500e+01 5.058069705963134766e+00 7.317247986793518066e-01 7.646018505096435547e+00 2.513322830200195312e+00 4.980619847774505615e-01
4.315000000000000000e+03 6.608783721923828125e+01 5.555693149566650391e+00 4.702592492103576660e-01 8.799855232238769531e+00 2.781034231185913086e+00 -5.888716876506805420e-02
4.316000000000000000e+03 1.396617698669433594e+01 -3.892781496047973633e+00 -2.444549053907394409e-01 5.649022385478019714e-02 -5.638940259814262390e-02 5.862477049231529236e-02
4.317000000000000000e+03 1.327080821990966797e+01 -3.354384183883666992e+00 -2.044307440519332886e-01 5.145085230469703674e-02 -4.589396342635154724e-02 4.837314411997795105e-02
4.318000000000000000e+03 6.736000061035156250e+01 1.179951786994934082e+00 -4.131360054016113281e-01 6.251813888549804688e+00 1.751603364944458008e+00 1.134719848632812500e+00
4.319000000000000000e+03 2.578063011169433594e+01 1.959480476379394531e+01 -1.838758349418640137e+00 4.654757499694824219e+00 8.447996973991394043e-01 -4.695798084139823914e-02
4.320000000000000000e+03 2.524048423767089844e+01 1.885610198974609375e+01 -2.466772794723510742e+00 6.062353134155273438e+00 1.078674077987670898e+00 -9.007412791252136230e-01
4.321000000000000000e+03 2.236301040649414062e+01 1.953370666503906250e+01 -9.367759823799133301e-01 9.021496772766113281e-01 -1.038788724690675735e-02 -1.512489318847656250e+00
4.322000000000000000e+03 2.172364425659179688e+01 1.919329452514648438e+01 -7.973228096961975098e-01 3.866236805915832520e-01 -1.232097446918487549e-01 -1.197242021560668945e+00
4.323000000000000000e+03 2.548191833496093750e+01 -5.961600691080093384e-02 2.724323868751525879e-01 3.468885421752929688e+00 1.122395396232604980e+00 -3.939172267913818359e+00
4.324000000000000000e+03 4.749916458129882812e+01 -9.065608978271484375e-01 -3.101611137390136719e-01 2.152778148651123047e+00 5.527850985527038574e-01 4.737737178802490234e+00
4.325000000000000000e+03 1.905879020690917969e+01 5.709867954254150391e+00 3.396730184555053711e+00 -5.272026062011718750e-01 8.608582615852355957e-01 -4.293625950813293457e-01
4.326000000000000000e+03 6.451432800292968750e+01 1.835787200927734375e+01 3.860214054584503174e-01 5.460481643676757812e+00 1.753950953483581543e+00 -9.092695713043212891e-01
4.327000000000000000e+03 6.289667129516601562e+01 1.633050727844238281e+01 1.189030647277832031e+00 2.911275386810302734e+00 1.230091810226440430e+00 -9.893911480903625488e-01
4.328000000000000000e+03 6.198981475830078125e+01 -2.104429244995117188e+00 -8.225334286689758301e-01 8.231967926025390625e+00 2.222830295562744141e+00 1.084805011749267578e+00
4.329000000000000000e+03 4.550043106079101562e+01 -1.510641288757324219e+01 -1.393659859895706177e-01 2.608708381652832031e+00 7.408027052879333496e-01 3.172588944435119629e-01
4.330000000000000000e+03 4.616726684570312500e+01 -1.445267868041992188e+01 -6.027899384498596191e-01 1.942298650741577148e+00 4.018526375293731689e-01 4.750173985958099365e-01
4.331000000000000000e+03 7.591629028320312500e+01 -1.286316394805908203e+01 9.806647300720214844e-01 8.594686508178710938e+00 2.872605562210083008e+00 4.838589727878570557e-01
4.332000000000000000e+03 7.433789062500000000e+01 -1.177251434326171875e+01 1.264613986015319824e+00 1.013429927825927734e+01 3.419673919677734375e+00 7.972644567489624023e-01
4.333000000000000000e+03 7.087733459472656250e+01 -1.876722574234008789e+00 -2.722264051437377930e+00 4.606760501861572266e+00 5.653488636016845703e-01 -2.728368282318115234e+00
4.334000000000000000e+03 7.155152893066406250e+01 -1.215224385261535645e+00 -2.428489446640014648e+00 4.098325729370117188e+00 5.009508728981018066e-01 -3.084414482116699219e+00
4.335000000000000000e+03 5.460813522338867188e+01 -1.192831277847290039e+00 -2.694529294967651367e+00 8.166316986083984375e+00 1.641536355018615723e+00 -4.669989109039306641e+00
4.336000000000000000e+03 4.543426895141601562e+01 8.507251143455505371e-01 2.963118851184844971e-01 4.264883995056152344e+00 1.368358731269836426e+00 3.764695405960083008e+00
4.337000000000000000e+03 2.627544212341308594e+01 -1.164770030975341797e+01 -5.090357661247253418e-01 6.693955898284912109e+00 1.855476021766662598e+00 -9.060916304588317871e-02
4.338000000000000000e+03 2.747210693359375000e+01 -1.054891586303710938e+01 6.349147558212280273e-01 6.755368232727050781e+00 2.217084884643554688e+00 -1.990175247192382812e+00
4.339000000000000000e+03 2.835421943664550781e+01 -8.090088844299316406e+00 2.538165807723999023e+00 5.907406806945800781e+00 2.533671855926513672e+00 -2.555568695068359375e+00
4.340000000000000000e+03 2.102016067504882812e+01 1.886023712158203125e+01 -1.045718193054199219e+00 4.260960593819618225e-02 -3.009325861930847168e-01 -9.626433253288269043e-01
4.341000000000000000e+03 6.456941986083984375e+01 -1.654938316345214844e+01 -1.404991000890731812e-01 4.088046550750732422e+00 1.184264302253723145e+00 -1.192607045173645020e+00
4.342000000000000000e+03 6.153953170776367188e+01 9.483349919319152832e-01 -3.366406202316284180e+00 4.524043083190917969e+00 3.472910821437835693e-01 1.551235795021057129e+00
4.343000000000000000e+03 6.444461822509765625e+01 4.374997138977050781e+00 1.975520253181457520e-01 5.439032554626464844e+00 1.690975308418273926e+00 1.489802241325378418e+00
4.344000000000000000e+03 6.915097045898437500e+01 9.351386070251464844e+00 -2.089760005474090576e-01 8.516251564025878906e+00 2.492182731628417969e+00 1.879895776510238647e-01
4.345000000000000000e+03 3.514109420776367188e+01 8.040714859962463379e-01 1.337389051914215088e-01 -5.214130282402038574e-01 -1.163022443652153015e-01 1.005062580108642578e+00
4.346000000000000000e+03 2.665052175521850586e+00 -2.646691703796386719e+01 4.139408469200134277e-03 -5.553798675537109375e-01 -1.653721481561660767e-01 -2.369744330644607544e-02
4.347000000000000000e+03 6.472667694091796875e+01 -1.559359741210937500e+01 -3.689282238483428955e-01 3.896722316741943359e+00 1.058338165283203125e+00 -9.919515252113342285e-01
4.348000000000000000e+03 3.604875946044921875e+01 -1.575516128540039062e+01 1.181072473526000977e+00 1.746070265769958496e+00 8.781428337097167969e-01 -1.144068717956542969e+00
4.349000000000000000e+03 7.762928009033203125e+01 -3.936203241348266602e+00 -1.601517945528030396e-01 9.559831619262695312e+00 2.819904088973999023e+00 1.376354813575744629e+00
4.350000000000000000e+03 7.619155120849609375e+01 -4.869775772094726562e+00 -1.419782042503356934e-01 8.144095420837402344e+00 2.400635242462158203e+00 1.501338481903076172e+00
4.351000000000000000e+03 7.737667846679687500e+01 -1.420447063446044922e+01 4.531255066394805908e-01 7.531907558441162109e+00 2.395509958267211914e+00 -6.092408671975135803e-02
4.352000000000000000e+03 5.229062652587890625e+01 -3.561453580856323242e+00 -4.134324073791503906e+00 4.444435119628906250e+00 9.303331375122070312e-02 -1.229397654533386230e+00
4.353000000000000000e+03 5.271437454223632812e+01 -4.009301185607910156e+00 -3.997967958450317383e+00 4.752495765686035156e+00 2.263583987951278687e-01 -1.153441786766052246e+00
4.354000000000000000e+03 4.190513992309570312e+01 -9.102611541748046875e+00 -1.580742120742797852e+00 5.070155143737792969e+00 1.046823859214782715e+00 2.192420721054077148e+00
4.355000000000000000e+03 4.160610580444335938e+01 -8.529628753662109375e+00 -1.272915124893188477e+00 4.303870677947998047e+00 9.092866778373718262e-01 2.040135383605957031e+00
4.356000000000000000e+03 3.266325235366821289e+00 3.943076372146606445e+00 4.564765691757202148e-01 -5.015053153038024902e-01 -1.350861694663763046e-02 4.914236962795257568e-01
4.357000000000000000e+03 7.647414398193359375e+01 1.016054916381835938e+01 -7.324463725090026855e-01 9.362954139709472656e+00 2.589152336120605469e+00 -1.265694737434387207e+00
4.358000000000000000e+03 7.594558715820312500e+01 1.042607212066650391e+01 -9.691221117973327637e-01 8.640290260314941406e+00 2.301350355148315430e+00 -1.564919590950012207e+00
4.359000000000000000e+03 6.243025970458984375e+01 -1.510081768035888672e+00 -2.198020935058593750e+00 8.412401199340820312e+00 1.864314079284667969e+00 1.469750404357910156e+00
4.360000000000000000e+03 3.889480590820312500e+01 1.511211490631103516e+01 -2.143308162689208984e+00 5.199242830276489258e-01 -4.870151877403259277e-01 6.543570011854171753e-02
4.361000000000000000e+03 4.772442626953125000e+01 -1.646907234191894531e+01 -6.552688479423522949e-01 6.602628231048583984e-01 1.498202444054186344e-03 9.957319498062133789e-02
4.362000000000000000e+03 1.051878070831298828e+01 1.114852523803710938e+01 -1.154021382331848145e+00 1.046861648559570312e+00 -3.214792907238006592e-02 -4.974428713321685791e-01
4.363000000000000000e+03 6.835226440429687500e+01 -2.690439462661743164e+00 -4.018323421478271484e+00 3.198102235794067383e+00 -2.460662871599197388e-01 -5.525615811347961426e-01
4.364000000000000000e+03 2.697697257995605469e+01 -1.119096159934997559e+00 2.270471572875976562e+00 3.083119153976440430e+00 1.606077194213867188e+00 -4.284589290618896484e-01
4.365000000000000000e+03 6.828607940673828125e+01 -1.949075126647949219e+01 9.029370546340942383e-01 2.940013647079467773e+00 1.152885198593139648e+00 3.482662737369537354e-01
4.366000000000000000e+03 5.205006408691406250e+01 -3.029103755950927734e+00 -3.951254844665527344e+00 4.723726749420166016e+00 2.317415475845336914e-01 -1.135001063346862793e+00
4.367000000000000000e+03 3.808224487304687500e+01 -1.940187644958496094e+01 1.144371271133422852e+00 3.084755659103393555e+00 1.268738031387329102e+00 3.113960623741149902e-01
4.368000000000000000e+03 3.959285736083984375e+01 -1.844870376586914062e+01 1.576464295387268066e+00 4.114008903503417969e+00 1.707141876220703125e+00 1.074015974998474121e+00
4.369000000000000000e+03 7.651465606689453125e+01 1.209418296813964844e+01 -3.903051316738128662e-01 7.526063442230224609e+00 2.140727519989013672e+00 -1.063258647918701172e+00
4.370000000000000000e+03 7.687535095214843750e+01 2.685640144348144531e+01 -2.246839366853237152e-02 6.895154476165771484e+00 2.061805963516235352e+00 1.493318378925323486e-01
4.371000000000000000e+03 7.248577117919921875e+01 1.224950885772705078e+01 1.855490207672119141e+00 3.327621698379516602e+00 1.554933547973632812e+00 -4.651819467544555664e-01
4.372000000000000000e+03 2.742948150634765625e+01 -4.343363761901855469e+00 2.352088689804077148e+00 7.336448192596435547e+00 2.906561136245727539e+00 -1.164306104183197021e-01
4.373000000000000000e+03 2.792493247985839844e+01 -5.442456722259521484e+00 2.290365219116210938e+00 6.697521686553955078e+00 2.696366071701049805e+00 -7.401294112205505371e-01
4.374000000000000000e+03 5.019599151611328125e+01 -1.597083926200866699e+00 -1.797831296920776367e+00 2.421926259994506836e+00 1.872285306453704834e-01 6.173712015151977539e-01
4.375000000000000000e+03 5.530506515502929688e+01 -8.261202812194824219e+00 1.065555587410926819e-02 6.158013820648193359e+00 1.850600838661193848e+00 -1.117743253707885742e+00
4.376000000000000000e+03 7.161425781250000000e+01 1.162504482269287109e+01 1.904031872749328613e+00 3.271112442016601562e+00 1.552543282508850098e+00 5.232210159301757812e-01
4.377000000000000000e+03 7.048120117187500000e+01 1.101031875610351562e+01 1.428879141807556152e+00 4.401196956634521484e+00 1.749022841453552246e+00 1.328720808029174805e+00
4.378000000000000000e+03 1.417856407165527344e+01 -1.901453256607055664e+00 -1.222123354673385620e-01 3.074959153309464455e-03 -3.574121370911598206e-02 6.335096061229705811e-02
4.379000000000000000e+03 3.310726404190063477e+00 4.517268657684326172e+00 6.435731053352355957e-01 -5.003671050071716309e-01 4.296180233359336853e-02 2.962678968906402588e-01
4.380000000000000000e+03 5.155293273925781250e+01 -1.608352422714233398e+00 -2.535225868225097656e+00 5.200101852416992188e+00 7.994629144668579102e-01 -5.606226325035095215e-01
4.381000000000000000e+03 7.371295166015625000e+01 -9.934733390808105469e+00 1.244930982589721680e+00 1.011693763732910156e+01 3.408560514450073242e+00 4.879211485385894775e-01
4.382000000000000000e+03 5.251517868041992188e+01 8.368518829345703125e+00 2.224385291337966919e-01 1.364222526550292969e+01 4.159399032592773438e+00 1.288854628801345825e-01
4.383000000000000000e+03 5.181160736083984375e+01 9.604031562805175781e+00 1.510683655738830566e+00 1.513708496093750000e+01 4.994330406188964844e+00 6.805542111396789551e-01
4.384000000000000000e+03 7.786356353759765625e+01 -2.700747680664062500e+01 1.222753897309303284e-02 6.987082481384277344e+00 2.099792957305908203e+00 1.387411057949066162e-01
4.385000000000000000e+03 4.505833816528320312e+01 9.611750394105911255e-02 -4.957006871700286865e-01 5.119538784027099609e+00 1.387151479721069336e+00 3.987973690032958984e+00
4.386000000000000000e+03 7.741813659667968750e+01 1.648348808288574219e+01 1.839120090007781982e-01 6.690603733062744141e+00 2.062354803085327148e+00 -2.725889384746551514e-01
4.387000000000000000e+03 3.404347991943359375e+01 8.894413709640502930e-01 8.336612582206726074e-01 -2.896256744861602783e-02 2.414096146821975708e-01 1.379116892814636230e+00
4.388000000000000000e+03 6.864411163330078125e+01 3.249459266662597656e+00 2.977895498275756836e+00 1.168800830841064453e+01 4.399771213531494141e+00 -6.595704555511474609e-01
4.389000000000000000e+03 3.686317443847656250e+00 2.754109001159667969e+01 2.270279364893212914e-04 1.292661428451538086e+00 3.878665268421173096e-01 1.534236073493957520e-01
4.390000000000000000e+03 2.078484344482421875e+01 -1.175513935089111328e+01 4.041494429111480713e-01 5.246835947036743164e-01 2.786498963832855225e-01 3.633597195148468018e-01
4.391000000000000000e+03 6.223225402832031250e+01 1.424167394638061523e+00 -3.015318870544433594e+00 4.759719371795654297e+00 5.233200788497924805e-01 2.231673240661621094e+00
4.392000000000000000e+03 2.073822784423828125e+01 7.210818290710449219e+00 -2.121482491493225098e-01 3.642374277114868164e+00 1.029067754745483398e+00 -6.673189997673034668e-01
4.393000000000000000e+03 1.949012947082519531e+01 4.308698177337646484e+00 7.438176631927490234e+00 -2.467439323663711548e-01 2.157429695129394531e+00 1.924193203449249268e-01
4.394000000000000000e+03 2.767436981201171875e+01 1.344899463653564453e+01 6.406248807907104492e-01 4.288425922393798828e+00 1.478715181350708008e+00 -1.384278293699026108e-02
4.395000000000000000e+03 1.788121604919433594e+01 1.737629127502441406e+01 -1.576786398887634277e+00 -3.063691258430480957e-01 -5.649466514587402344e-01 -5.156546235084533691e-01
4.396000000000000000e+03 4.730057907104492188e+01 -1.613442802429199219e+01 -4.845097959041595459e-01 9.515325427055358887e-01 1.401068270206451416e-01 1.275269389152526855e-01
4.397000000000000000e+03 4.423860549926757812e+01 -1.568989181518554688e+01 8.382805585861206055e-01 3.720821857452392578e+00 1.367730736732482910e+00 2.374229282140731812e-01
4.398000000000000000e+03 4.297087478637695312e+01 -1.505001926422119141e+01 1.145268440246582031e+00 5.238543987274169922e+00 1.915143728256225586e+00 1.030634403228759766e+00
4.399000000000000000e+03 6.230687332153320312e+01 1.694447135925292969e+01 1.226687669754028320e+00 2.881709337234497070e+00 1.232519149780273438e+00 -4.271329343318939209e-01
4.400000000000000000e+03 6.052534484863281250e+01 1.648142623901367188e+01 1.291000127792358398e+00 2.428160667419433594e+00 1.115748167037963867e+00 8.566682338714599609e-01
4.401000000000000000e+03 4.893535232543945312e+01 -1.873492431640625000e+01 -5.667693614959716797e-01 6.380715370178222656e-01 2.139065414667129517e-02 -2.798770964145660400e-01
4.402000000000000000e+03 4.957284545898437500e+01 -1.786759757995605469e+01 -1.172130823135375977e+00 -1.314447540789842606e-02 -3.555825948715209961e-01 2.937791049480438232e-01
4.403000000000000000e+03 3.924700975418090820e+00 -2.352934074401855469e+01 2.301621437072753906e-02 -3.887289464473724365e-01 -1.097138226032257080e-01 -5.342088267207145691e-02
4.404000000000000000e+03 2.947972536087036133e+00 -2.189750289916992188e+01 1.389277912676334381e-02 -4.695315957069396973e-01 -1.366916447877883911e-01 -5.945552140474319458e-02
4.405000000000000000e+03 3.157132625579833984e+00 3.369117736816406250e+01 1.937852613627910614e-02 1.194911837577819824e+00 3.642871081829071045e-01 9.542644768953323364e-02
4.406000000000000000e+03 7.336006927490234375e+01 -3.112522315979003906e+01 1.134903803467750549e-01 6.185421466827392578e+00 1.889673590660095215e+00 1.647867262363433838e-01
4.407000000000000000e+03 6.343383789062500000e+00 3.147109031677246094e+01 4.815140739083290100e-02 1.060199975967407227e+00 3.325054049491882324e-01 1.581500619649887085e-01
4.408000000000000000e+03 7.597412872314453125e+01 2.542683219909667969e+01 -1.606422476470470428e-02 6.802730560302734375e+00 2.035999774932861328e+00 1.815892904996871948e-01
4.409000000000000000e+03 7.431329345703125000e+01 2.620844650268554688e+01 -4.213222116231918335e-02 6.722801685333251953e+00 2.004200696945190430e+00 1.983837783336639404e-01
4.410000000000000000e+03 5.576889038085937500e+01 -5.196877002716064453e+00 -1.144333124160766602e+00 5.844146251678466797e+00 1.409943938255310059e+00 -1.828860521316528320e+00
4.411000000000000000e+03 5.432586288452148438e+01 -4.911707401275634766e+00 -2.171663761138916016e+00 5.452245235443115234e+00 9.841744899749755859e-01 -1.791815519332885742e+00
4.412000000000000000e+03 5.078675460815429688e+01 -1.247565627098083496e+00 -1.688910484313964844e+00 3.897334575653076172e+00 6.625272631645202637e-01 3.704371452331542969e-01
4.413000000000000000e+03 5.144527816772460938e+01 -2.215591430664062500e+00 -3.258772850036621094e+00 4.481635093688964844e+00 3.668587505817413330e-01 -8.242104053497314453e-01
4.414000000000000000e+03 3.395125198364257812e+01 4.342577934265136719e+00 -1.186616420745849609e+00 5.499990582466125488e-01 -1.909851878881454468e-01 9.421848058700561523e-01
4.415000000000000000e+03 3.487326812744140625e+01 4.787910938262939453e+00 -7.879641652107238770e-01 2.050016373395919800e-01 -1.748887598514556885e-01 7.713189125061035156e-01
4.416000000000000000e+03 5.798946380615234375e+01 -1.339868068695068359e+00 -4.695616960525512695e-01 2.376471042633056641e+00 5.720728039741516113e-01 -2.910436868667602539e+00
4.417000000000000000e+03 5.740232849121093750e+01 -1.380199551582336426e+00 -7.317799329757690430e-01 2.821018218994140625e+00 6.267714500427246094e-01 -3.801928997039794922e+00
4.418000000000000000e+03 6.490649414062500000e+01 3.929894447326660156e+00 2.683758437633514404e-01 5.777950286865234375e+00 1.813897848129272461e+00 1.573214650154113770e+00
4.419000000000000000e+03 3.171252059936523438e+01 -1.166083431243896484e+01 1.184773802757263184e+00 2.654841423034667969e+00 1.151884555816650391e+00 -1.902082681655883789e+00
4.420000000000000000e+03 2.439208030700683594e+01 -6.927341818809509277e-01 1.159744933247566223e-01 7.092375278472900391e+00 2.162504911422729492e+00 -4.722257137298583984e+00
4.421000000000000000e+03 2.509385490417480469e+01 -1.108548641204833984e+00 1.198132872581481934e+00 6.261429786682128906e+00 2.237868785858154297e+00 -3.920768260955810547e+00
4.422000000000000000e+03 5.307867050170898438e+01 -7.792742848396301270e-01 -2.103572130203247070e+00 8.754481315612792969e+00 1.995272874832153320e+00 -1.922555208206176758e+00
4.423000000000000000e+03 5.368218231201171875e+01 -7.549074292182922363e-01 -2.347947597503662109e+00 9.116290092468261719e+00 2.030502796173095703e+00 -3.223733901977539062e+00
4.424000000000000000e+03 1.332174968719482422e+01 -2.614227771759033203e+00 -1.677095592021942139e-01 2.970677800476551056e-02 -4.140083491802215576e-02 5.305217579007148743e-02
4.425000000000000000e+03 2.343974113464355469e+01 2.143173813819885254e-01 -2.118009805679321289e+00 9.789021492004394531e+00 2.301303386688232422e+00 -5.501778125762939453e+00
4.426000000000000000e+03 7.332234191894531250e+01 -1.859659957885742188e+01 -7.656922936439514160e-01 7.826462745666503906e+00 2.118231058120727539e+00 1.025188088417053223e+00
4.427000000000000000e+03 1.022138881683349609e+01 1.185143947601318359e+01 -1.212398767471313477e+00 1.031667351722717285e+00 -5.421941727399826050e-02 -5.693966746330261230e-01
4.428000000000000000e+03 9.576940536499023438e+00 1.170861816406250000e+01 -1.139933586120605469e+00 1.267346382141113281e+00 3.822383284568786621e-02 -6.415028572082519531e-01
4.429000000000000000e+03 2.342359924316406250e+01 1.954961395263671875e+01 -1.063439369201660156e+00 1.856296896934509277e+00 2.378572523593902588e-01 -1.764267921447753906e+00
4.430000000000000000e+03 2.324841499328613281e+01 -6.579605340957641602e-01 -7.105476260185241699e-01 8.826492309570312500e+00 2.434783458709716797e+00 -4.855831623077392578e+00
4.431000000000000000e+03 4.202676391601562500e+01 -5.306148052215576172e+00 2.267417907714843750e+00 4.658953666687011719e+00 2.077911376953125000e+00 1.347597479820251465e+00
4.432000000000000000e+03 4.104996109008789062e+01 -6.554064273834228516e+00 6.433660387992858887e-01 2.761218070983886719e+00 1.021375179290771484e+00 1.541775822639465332e+00
4.433000000000000000e+03 3.670169830322265625e+01 1.624560737609863281e+01 -2.076658487319946289e+00 -3.394005000591278076e-01 -7.248176932334899902e-01 -3.331805169582366943e-01
4.434000000000000000e+03 7.398537445068359375e+01 -8.183644294738769531e+00 5.431871414184570312e-01 8.694213867187500000e+00 2.771220207214355469e+00 9.522839784622192383e-01
4.435000000000000000e+03 7.595912170410156250e+01 -8.528339385986328125e+00 4.418764114379882812e-01 8.520645141601562500e+00 2.688756704330444336e+00 1.522531032562255859e+00
4.436000000000000000e+03 4.846577644348144531e+00 2.967032051086425781e+01 2.132621780037879944e-02 1.173617959022521973e+00 3.584832549095153809e-01 1.631270200014114380e-01
4.437000000000000000e+03 5.063524723052978516e+00 3.055846023559570312e+01 2.979009784758090973e-02 1.144976139068603516e+00 3.524298965930938721e-01 1.573390364646911621e-01
4.438000000000000000e+03 2.567770576477050781e+01 -1.438292980194091797e+00 1.942591786384582520e+00 5.300131320953369141e+00 2.172816991806030273e+00 -2.556409597396850586e+00
4.439000000000000000e+03 2.980294418334960938e+01 -1.056721401214599609e+01 1.323735356330871582e+00 3.792370080947875977e+00 1.534831643104553223e+00 -2.556028842926025391e+00
4.440000000000000000e+03 2.802363777160644531e+01 -9.948658943176269531e+00 1.066138386726379395e+00 6.550555229187011719e+00 2.285008192062377930e+00 -2.649770736694335938e+00
4.441000000000000000e+03 4.761243343353271484e+00 -2.245256996154785156e+01 3.612332791090011597e-02 -3.025059998035430908e-01 -7.991480082273483276e-02 -7.245491445064544678e-02
4.442000000000000000e+03 3.749971866607666016e+00 8.596318244934082031e+00 3.088588416576385498e-01 3.057169318199157715e-01 1.843727231025695801e-01 -1.005282282829284668e+00
4.443000000000000000e+03 3.604002714157104492e+00 1.016188144683837891e+01 -1.874575018882751465e-02 6.293302774429321289e-01 1.831753551959991455e-01 -1.009234070777893066e+00
4.444000000000000000e+03 3.518388032913208008e+00 1.090847969055175781e+01 -8.016714453697204590e-02 7.619332671165466309e-01 2.045298367738723755e-01 -9.734050035476684570e-01
4.445000000000000000e+03 3.248659849166870117e+00 1.938294219970703125e+01 -1.184423267841339111e-01 1.440057635307312012e+00 3.964845836162567139e-01 -7.177612930536270142e-02
4.446000000000000000e+03 3.464267969131469727e+00 -9.358405113220214844e+00 -1.610282436013221741e-02 -1.301416158676147461e-01 -4.387332871556282043e-02 -1.225209459662437439e-01
4.447000000000000000e+03 7.656451416015625000e+01 -1.124882984161376953e+01 6.998788118362426758e-01 8.264356613159179688e+00 2.689270496368408203e+00 9.000423550605773926e-01
4.448000000000000000e+03 4.358300209045410156e+00 -2.078882026672363281e+01 3.158375993371009827e-02 -3.253703117370605469e-01 -8.813595771789550781e-02 -8.921257406473159790e-02
4.449000000000000000e+03 3.910844802856445312e+00 -1.955770492553710938e+01 2.615096233785152435e-02 -3.447751998901367188e-01 -9.558727592229843140e-02 -9.809134900569915771e-02
4.450000000000000000e+03 3.594418048858642578e+00 -1.093663120269775391e+01 -8.927334100008010864e-03 -1.662255674600601196e-01 -5.254587158560752869e-02 -1.373887509107589722e-01
4.451000000000000000e+03 7.622467803955078125e+01 -1.531096220016479492e+00 -8.933434486389160156e-01 7.667232990264892578e+00 2.032166957855224609e+00 1.148691534996032715e+00
4.452000000000000000e+03 7.645468139648437500e+01 -2.175418138504028320e+00 -6.310608386993408203e-01 7.974297046661376953e+00 2.202970743179321289e+00 1.255483984947204590e+00
4.453000000000000000e+03 3.401383399963378906e+00 2.094984626770019531e+01 -8.945206552743911743e-02 1.424850702285766602e+00 4.006195962429046631e-01 1.940529234707355499e-02
4.454000000000000000e+03 7.573504638671875000e+01 -1.074997520446777344e+01 8.917300701141357422e-01 8.772114753723144531e+00 2.899153470993041992e+00 1.056703686714172363e+00
4.455000000000000000e+03 1.734762954711914062e+01 -8.745108604431152344e+00 -4.658899605274200439e-01 2.090848386287689209e-01 -7.704152911901473999e-02 -5.540123581886291504e-02
4.456000000000000000e+03 1.768984603881835938e+01 -9.325286865234375000e+00 -4.196373820304870605e-01 2.288620918989181519e-01 -5.723258852958679199e-02 -7.227516174316406250e-02
4.457000000000000000e+03 7.527769470214843750e+01 2.326617813110351562e+01 1.891578361392021179e-02 6.730550289154052734e+00 2.024839878082275391e+00 2.001167237758636475e-01
4.458000000000000000e+03 7.539564514160156250e+01 2.218170166015625000e+01 5.293150618672370911e-02 6.707659721374511719e+00 2.028177261352539062e+00 1.994454115629196167e-01
4.459000000000000000e+03 6.955175018310546875e+01 -2.005794048309326172e+00 -3.523215055465698242e+00 4.822663307189941406e+00 3.898344635963439941e-01 -1.918640732765197754e+00
4.460000000000000000e+03 6.926214599609375000e+01 -1.443555474281311035e+00 -3.403132915496826172e+00 5.032377243041992188e+00 4.887732863426208496e-01 -1.804458022117614746e+00
4.461000000000000000e+03 2.718784141540527344e+01 -2.601896047592163086e+00 2.438125371932983398e+00 5.186119556427001953e+00 2.287273406982421875e+00 1.919628828763961792e-01
4.462000000000000000e+03 7.463259887695312500e+01 2.113237953186035156e+01 1.220823973417282104e-01 6.648310184478759766e+00 2.031117677688598633e+00 2.173401713371276855e-01
4.463000000000000000e+03 7.540116882324218750e+01 1.921138381958007812e+01 2.477829754352569580e-01 6.562812328338623047e+00 2.043178558349609375e+00 9.342415630817413330e-02
4.464000000000000000e+03 5.000163269042968750e+01 6.305891275405883789e-01 1.828851461410522461e+00 4.441227436065673828e+00 1.881023645401000977e+00 2.008087635040283203e+00
4.465000000000000000e+03 6.648117828369140625e+01 -5.393249392509460449e-01 -1.726894617080688477e+00 2.502455711364746094e+00 2.326683104038238525e-01 1.885897874832153320e+00
4.466000000000000000e+03 7.165281772613525391e+00 5.016483306884765625e+00 3.243745088577270508e+00 1.299592852592468262e-01 1.012111306190490723e+00 -8.398635983467102051e-01
4.467000000000000000e+03 5.025064945220947266e+00 4.244760036468505859e+00 1.326594352722167969e+00 -5.457251071929931641e-01 2.342607527971267700e-01 3.288341164588928223e-01
4.468000000000000000e+03 7.613236999511718750e+01 2.639686584472656250e+01 -2.105729095637798309e-02 6.831553459167480469e+00 2.043148756027221680e+00 1.746178865432739258e-01
4.469000000000000000e+03 4.747347259521484375e+01 1.176346182823181152e+00 1.786053776741027832e+00 3.305041551589965820e+00 1.527328610420227051e+00 3.764611959457397461e+00
4.470000000000000000e+03 6.407229614257812500e+01 7.295131683349609375e-01 -2.305951356887817383e+00 5.312248229980468750e+00 9.018890261650085449e-01 3.866594076156616211e+00
4.471000000000000000e+03 6.304751205444335938e+01 -1.920869648456573486e-01 -3.221048593521118164e+00 6.813324928283691406e+00 1.077682852745056152e+00 3.712700366973876953e+00
4.472000000000000000e+03 4.526123428344726562e+01 1.676773834228515625e+01 -1.285831093788146973e+00 5.819892287254333496e-01 -2.111525684595108032e-01 -3.972745537757873535e-01
4.473000000000000000e+03 5.217792510986328125e+01 5.646080493927001953e+00 1.404027819633483887e+00 1.290837574005126953e+01 4.293721199035644531e+00 -5.586820840835571289e-01
4.474000000000000000e+03 2.076685523986816406e+01 5.602272510528564453e+00 4.518227100372314453e+00 5.099749565124511719e+00 2.885392904281616211e+00 -4.504808485507965088e-01
4.475000000000000000e+03 4.325881958007812500e+01 -9.758213996887207031e+00 -1.586012840270996094e+00 6.475281238555908203e+00 1.466780543327331543e+00 2.094101190567016602e+00
4.476000000000000000e+03 4.390367889404296875e+01 -1.063823032379150391e+01 -1.641592144966125488e+00 6.010974884033203125e+00 1.310814738273620605e+00 1.911147475242614746e+00
4.477000000000000000e+03 4.087670803070068359e+00 -2.680657958984375000e+01 2.019277587532997131e-02 -3.836498260498046875e-01 -1.090371087193489075e-01 -2.476871386170387268e-02
4.478000000000000000e+03 4.570576858520507812e+01 -2.870668172836303711e-01 -6.344791650772094727e-01 4.633642673492431641e+00 1.199749112129211426e+00 4.685902595520019531e+00
4.479000000000000000e+03 4.709107589721679688e+01 -2.102938443422317505e-01 5.083785653114318848e-01 3.024370193481445312e+00 1.059824585914611816e+00 4.870482444763183594e+00
4.480000000000000000e+03 2.899479675292968750e+01 2.901430726051330566e-01 2.222376108169555664e+00 1.486735343933105469e+00 1.112733364105224609e+00 6.644298434257507324e-01
4.481000000000000000e+03 5.843820571899414062e+01 -1.140621280670166016e+01 4.170769453048706055e-01 9.009311676025390625e+00 2.827916622161865234e+00 6.419772505760192871e-01
4.482000000000000000e+03 5.761757659912109375e+01 -1.003025817871093750e+01 3.001019060611724854e-01 8.428763389587402344e+00 2.618659496307373047e+00 3.343647122383117676e-01
4.483000000000000000e+03 3.529559707641601562e+01 3.213232994079589844e+00 -6.396524906158447266e-01 -6.964036077260971069e-02 -2.127878665924072266e-01 1.343028306961059570e+00
4.484000000000000000e+03 7.093306732177734375e+01 -1.178610563278198242e+00 -2.482822418212890625e+00 4.558639526367187500e+00 6.227450966835021973e-01 -3.138204097747802734e+00
4.485000000000000000e+03 7.214796447753906250e+01 -1.789773464202880859e+00 -1.786310553550720215e+00 3.854001283645629883e+00 6.203072071075439453e-01 -2.385912656784057617e+00
4.486000000000000000e+03 4.258179187774658203e+00 4.592787265777587891e+00 1.037095546722412109e+00 -4.967266321182250977e-01 1.621106714010238647e-01 2.294393032789230347e-01
4.487000000000000000e+03 3.729157924652099609e+00 5.681788921356201172e+00 8.222369551658630371e-01 -3.797255754470825195e-01 1.327534168958663940e-01 -2.161103785037994385e-01
4.488000000000000000e+03 7.087483978271484375e+01 -3.572333335876464844e+00 -2.100466251373291016e+00 4.440569400787353516e+00 7.020309567451477051e-01 -1.476064085960388184e+00
4.489000000000000000e+03 7.696628570556640625e+01 -4.005582332611083984e+00 -1.140366420149803162e-01 8.801783561706542969e+00 2.606323957443237305e+00 1.510332584381103516e+00
4.490000000000000000e+03 2.027245330810546875e+01 7.869668006896972656e+00 -2.357932329177856445e+00 1.519906878471374512e+00 -2.514076530933380127e-01 -1.767627239227294922e+00
4.491000000000000000e+03 7.678266143798828125e+01 -6.885936260223388672e+00 1.264144033193588257e-01 8.612205505371093750e+00 2.621586084365844727e+00 1.665727138519287109e+00
4.492000000000000000e+03 7.668923950195312500e+01 -7.696931838989257812e+00 1.780007332563400269e-01 8.513126373291015625e+00 2.607338190078735352e+00 1.605033993721008301e+00
4.493000000000000000e+03 6.344321823120117188e+01 2.954516887664794922e+00 -1.146267890930175781e+00 4.495861530303955078e+00 1.004878044128417969e+00 2.092527627944946289e+00
4.494000000000000000e+03 4.331760025024414062e+01 -1.087568759918212891e+01 -1.698140025138854980e+00 5.983049392700195312e+00 1.285472750663757324e+00 2.216290712356567383e+00
4.495000000000000000e+03 7.694309234619140625e+01 -1.789449691772460938e+01 -1.996582150459289551e-01 7.676885604858398438e+00 2.243168354034423828e+00 -4.103734791278839111e-01
4.496000000000000000e+03 9.985792160034179688e+00 -5.430285453796386719e+00 -1.699709892272949219e-01 7.697070389986038208e-02 -2.790008671581745148e-02 -8.503102511167526245e-02
4.497000000000000000e+03 9.856088638305664062e+00 -4.136214256286621094e+00 -1.542571634054183960e-01 5.316085368394851685e-02 -3.032889217138290405e-02 -5.199299380183219910e-02
4.498000000000000000e+03 3.895326852798461914e+00 1.390380096435546875e+01 -3.039740920066833496e-01 1.163498878479003906e+00 2.578574419021606445e-01 -6.652653217315673828e-01
4.499000000000000000e+03 3.494827270507812500e+00 1.596997642517089844e+01 -2.252582460641860962e-01 1.290979266166687012e+00 3.197163045406341553e-01 -3.811505436897277832e-01
4.500000000000000000e+03 3.306586265563964844e+00 1.667296028137207031e+01 -1.959097087383270264e-01 1.341737985610961914e+00 3.437485098838806152e-01 -3.001048564910888672e-01
4.501000000000000000e+03 1.954814147949218750e+01 -9.606897354125976562e+00 -4.278295934200286865e-01 1.112047061324119568e-01 -9.498746693134307861e-02 -4.260405153036117554e-02
4.502000000000000000e+03 2.059435653686523438e+01 -1.059077167510986328e+01 1.534762084484100342e-01 1.038006991147994995e-01 7.718306779861450195e-02 1.061297133564949036e-01
4.503000000000000000e+03 4.035435485839843750e+01 1.509873390197753906e+01 -1.892793893814086914e+00 6.771782040596008301e-01 -3.646847009658813477e-01 9.260307066142559052e-03
4.504000000000000000e+03 6.788618469238281250e+01 7.618787765502929688e+00 -8.509381413459777832e-01 1.140330123901367188e+01 3.165708780288696289e+00 -1.458520174026489258e+00
4.505000000000000000e+03 7.658264160156250000e+01 -1.499278163909912109e+01 5.686306357383728027e-01 7.950101852416992188e+00 2.555619716644287109e+00 -2.468539625406265259e-01
4.506000000000000000e+03 2.605339622497558594e+01 -2.867942154407501221e-01 1.082938551902770996e+00 2.638583183288574219e+00 1.116456508636474609e+00 -2.885208368301391602e+00
4.507000000000000000e+03 7.610018920898437500e+01 -8.619403839111328125e-01 -1.434505224227905273e+00 7.419395446777343750e+00 1.795467019081115723e+00 1.021882176399230957e+00
4.508000000000000000e+03 7.482299804687500000e+01 -1.974933505058288574e+00 -8.032019734382629395e-01 5.221804618835449219e+00 1.325580716133117676e+00 6.102479100227355957e-01
4.509000000000000000e+03 5.146587371826171875e+01 6.333688735961914062e+00 9.864435791969299316e-01 1.240162754058837891e+01 4.016421318054199219e+00 1.133830919861793518e-01
4.510000000000000000e+03 7.018011474609375000e+01 -1.985483360290527344e+01 3.677956759929656982e-01 4.310008525848388672e+00 1.403341293334960938e+00 1.388122558593750000e+00
4.511000000000000000e+03 3.863956928253173828e+00 6.494994640350341797e+00 8.050372600555419922e-01 -2.148316204547882080e-01 1.770616769790649414e-01 -5.464712977409362793e-01
4.512000000000000000e+03 7.658910369873046875e+01 -9.279774665832519531e+00 4.501637816429138184e-01 8.371223449707031250e+00 2.646416187286376953e+00 1.421378493309020996e+00
4.513000000000000000e+03 5.318628692626953125e+01 1.408184885978698730e+00 2.995541810989379883e+00 1.283550262451171875e+01 4.749313354492187500e+00 -1.191191792488098145e+00
4.514000000000000000e+03 5.238476562500000000e+01 4.534502327442169189e-01 5.088080763816833496e-01 9.018551826477050781e+00 2.858207941055297852e+00 -1.524413675069808960e-01
4.515000000000000000e+03 4.651171493530273438e+01 1.084947466850280762e+00 1.175568819046020508e+00 3.603887796401977539e+00 1.433837056159973145e+00 3.924572467803955078e+00
4.516000000000000000e+03 3.437299251556396484e+00 1.163262271881103516e+01 -1.841134876012802124e-01 8.736585378646850586e-01 2.068635076284408569e-01 -8.954793214797973633e-01
4.517000000000000000e+03 3.467735528945922852e+00 1.235964298248291016e+01 -2.096251249313354492e-01 9.739702939987182617e-01 2.293035537004470825e-01 -8.211507797241210938e-01
4.518000000000000000e+03 3.684441804885864258e+00 -5.489772796630859375e+00 -3.281870111823081970e-02 -4.704957082867622375e-02 -2.396048232913017273e-02 -7.920483499765396118e-02
4.519000000000000000e+03 7.654141235351562500e+01 -1.920453453063964844e+01 -3.303442001342773438e-01 7.635343551635742188e+00 2.191499710083007812e+00 -1.904561668634414673e-01
4.520000000000000000e+03 7.670051574707031250e+01 -1.619781875610351562e+01 2.695948779582977295e-01 7.867591857910156250e+00 2.441155910491943359e+00 -4.583536088466644287e-01
4.521000000000000000e+03 3.213186025619506836e+00 1.735773849487304688e+01 -1.611110270023345947e-01 1.377021670341491699e+00 3.647731840610504150e-01 -2.309272736310958862e-01
4.522000000000000000e+03 3.191022634506225586e+00 1.803372383117675781e+01 -1.586197316646575928e-01 1.404768347740173340e+00 3.738445937633514404e-01 -1.774445623159408569e-01
4.523000000000000000e+03 1.533232402801513672e+01 -6.291616916656494141e+00 -4.033077657222747803e-01 1.311003118753433228e-01 -8.166223764419555664e-02 3.468337282538414001e-02
4.524000000000000000e+03 1.578923511505126953e+01 -7.720542430877685547e+00 -4.144660532474517822e-01 1.891932934522628784e-01 -6.758182495832443237e-02 -3.870844095945358276e-02
4.525000000000000000e+03 7.670273590087890625e+01 1.575717926025390625e+01 2.823170423507690430e-01 6.592235565185546875e+00 2.062365770339965820e+00 -4.416654407978057861e-01
4.526000000000000000e+03 7.670517730712890625e+01 1.498298454284667969e+01 2.174893468618392944e-01 6.662296772003173828e+00 2.063935756683349609e+00 -5.431172847747802734e-01
4.527000000000000000e+03 3.690231704711914062e+01 8.189015388488769531e+00 -5.695797130465507507e-02 -5.054057389497756958e-02 -3.224956244230270386e-02 -1.437036669813096523e-03
4.528000000000000000e+03 3.343934249877929688e+01 2.425640106201171875e+00 -6.968178153038024902e-01 7.925773262977600098e-01 2.872784622013568878e-02 1.863571166992187500e+00
4.529000000000000000e+03 5.137646484375000000e+01 5.684811592102050781e+00 1.643368840217590332e+00 1.155709648132324219e+01 3.960139513015747070e+00 6.444847583770751953e-02
4.530000000000000000e+03 5.104529190063476562e+01 4.051836013793945312e+00 3.344969511032104492e+00 9.170908927917480469e+00 3.754763364791870117e+00 3.427559733390808105e-01
4.531000000000000000e+03 3.600699186325073242e+00 -1.399803543090820312e+01 7.851889356970787048e-03 -2.479668557643890381e-01 -7.203448563814163208e-02 -1.404535174369812012e-01
4.532000000000000000e+03 5.316462326049804688e+01 8.630749702453613281e+00 2.376662343740463257e-01 1.263539886474609375e+01 3.861919641494750977e+00 3.526495695114135742e-01
4.533000000000000000e+03 7.481120300292968750e+01 -1.520123004913330078e+01 9.416268467903137207e-01 9.060801506042480469e+00 3.000728368759155273e+00 -5.618005245923995972e-02
4.534000000000000000e+03 3.341759443283081055e+00 -7.852250099182128906e+00 -2.075208537280559540e-02 -9.768698364496231079e-02 -3.553171828389167786e-02 -1.042543873190879822e-01
4.535000000000000000e+03 3.349874734878540039e+00 -7.098893642425537109e+00 -2.410604618489742279e-02 -8.095137029886245728e-02 -3.151722624897956848e-02 -9.573208540678024292e-02
4.536000000000000000e+03 7.631436920166015625e+01 1.392580986022949219e+01 1.338839083909988403e-01 6.724496364593505859e+00 2.057513952255249023e+00 -8.296609520912170410e-01
4.537000000000000000e+03 7.690715789794921875e+01 1.422030448913574219e+01 1.082419082522392273e-01 6.838515281677246094e+00 2.084027290344238281e+00 -6.784973144531250000e-01
4.538000000000000000e+03 7.685592174530029297e+00 7.908300399780273438e+00 6.056475639343261719e-01 1.929210424423217773e+00 7.604573965072631836e-01 -2.005896568298339844e+00
4.539000000000000000e+03 3.660313129425048828e+00 -1.626443290710449219e+01 1.487942412495613098e-02 -2.999700307846069336e-01 -8.552718162536621094e-02 -1.286029666662216187e-01
4.540000000000000000e+03 2.808043956756591797e+00 -1.476164150238037109e+01 7.767863105982542038e-03 -3.156595230102539062e-01 -9.236750006675720215e-02 -1.147470176219940186e-01
4.541000000000000000e+03 3.436410188674926758e+00 2.261276817321777344e+01 -5.987948179244995117e-02 1.414895653724670410e+00 4.065048396587371826e-01 8.276707679033279419e-02
4.542000000000000000e+03 5.818201065063476562e+01 -1.600988006591796875e+01 1.575905203819274902e+00 1.012256145477294922e+01 3.509540081024169922e+00 2.347830682992935181e-01
4.543000000000000000e+03 5.882991790771484375e+01 -1.557464885711669922e+01 1.310765743255615234e+00 9.391468048095703125e+00 3.210670232772827148e+00 1.383908689022064209e-01
4.544000000000000000e+03 5.791056442260742188e+01 -1.406718540191650391e+01 9.009698629379272461e-01 1.013423252105712891e+01 3.310560703277587891e+00 2.077303379774093628e-01
4.545000000000000000e+03 3.660768032073974609e+00 2.440134811401367188e+01 -3.566377609968185425e-02 1.355096817016601562e+00 3.958298861980438232e-01 1.284474730491638184e-01
4.546000000000000000e+03 3.638909578323364258e+00 -1.250702857971191406e+01 -5.900003598071634769e-04 -2.066175043582916260e-01 -6.216225028038024902e-02 -1.426772624254226685e-01
4.547000000000000000e+03 4.547267436981201172e+00 5.216657638549804688e+00 1.244952201843261719e+00 -3.692047894001007080e-01 2.627242207527160645e-01 -1.397944539785385132e-01
4.548000000000000000e+03 4.856961822509765625e+01 3.409482002258300781e+00 3.048487186431884766e+00 4.886582374572753906e+00 2.380520820617675781e+00 2.732208251953125000e+00
4.549000000000000000e+03 2.956770706176757812e+01 1.602010345458984375e+01 7.236273884773254395e-01 1.081497192382812500e+00 5.415373444557189941e-01 1.785076975822448730e+00
4.550000000000000000e+03 6.364227294921875000e+01 9.220818877220153809e-01 -2.378914356231689453e+00 5.350194454193115234e+00 8.913840651512145996e-01 3.584939241409301758e+00
4.551000000000000000e+03 4.295771408081054688e+01 1.531216526031494141e+01 -1.805870532989501953e+00 7.393189668655395508e-01 -3.199654519557952881e-01 -1.440132409334182739e-01
4.552000000000000000e+03 3.273880004882812500e+01 2.652332305908203125e+00 -1.182204961776733398e+00 1.290652751922607422e+00 3.253433853387832642e-02 1.714252829551696777e+00
4.553000000000000000e+03 6.767411804199218750e+01 3.217219829559326172e+00 2.141628503799438477e+00 8.745699882507324219e+00 3.266198635101318359e+00 2.450299263000488281e-01
4.554000000000000000e+03 6.673005676269531250e+01 1.043468952178955078e+00 -5.552600026130676270e-01 5.338872909545898438e+00 1.435083866119384766e+00 2.064597368240356445e+00
4.555000000000000000e+03 6.838385772705078125e+01 7.922555923461914062e+00 -8.098398447036743164e-01 1.096035957336425781e+01 3.045156002044677734e+00 -1.065685391426086426e+00
4.556000000000000000e+03 4.991854858398437500e+01 2.565660953521728516e+00 3.172168493270874023e+00 6.059351444244384766e+00 2.769455909729003906e+00 1.762809514999389648e+00
4.557000000000000000e+03 5.355082321166992188e+01 1.470444202423095703e+01 1.213996291160583496e+00 9.711779594421386719e+00 3.277732610702514648e+00 2.820994615554809570e+00
4.558000000000000000e+03 3.790495395660400391e+00 -1.784544563293457031e+01 2.119079604744911194e-02 -3.239941895008087158e-01 -9.084101766347885132e-02 -1.162395253777503967e-01
4.559000000000000000e+03 1.978127670288085938e+01 1.942838478088378906e+01 -8.848226070404052734e-01 -1.549519039690494537e-02 -2.700953483581542969e-01 -6.707770824432373047e-01
4.560000000000000000e+03 2.712222862243652344e+01 1.882180976867675781e+01 -1.532437205314636230e+00 5.002550601959228516e+00 1.041034102439880371e+00 1.626152038574218750e+00
4.561000000000000000e+03 7.667753601074218750e+01 1.801513671875000000e+01 2.167147099971771240e-01 6.588729858398437500e+00 2.041633367538452148e+00 -6.923247873783111572e-02
4.562000000000000000e+03 3.256741714477539062e+01 1.754948043823242188e+01 -5.665534734725952148e-01 -4.679590463638305664e-01 -3.103537559509277344e-01 9.913168549537658691e-01
4.563000000000000000e+03 3.146209144592285156e+01 1.627158737182617188e+01 -5.258660316467285156e-01 -5.781063437461853027e-01 -3.311917185783386230e-01 9.047524929046630859e-01
4.564000000000000000e+03 6.083493804931640625e+01 -1.002867794036865234e+01 1.730903238058090210e-01 8.596989631652832031e+00 2.631024122238159180e+00 9.932687878608703613e-01
4.565000000000000000e+03 7.621680450439453125e+01 2.456714057922363281e+01 -7.853317074477672577e-03 6.799035549163818359e+00 2.037354707717895508e+00 1.806355267763137817e-01
4.566000000000000000e+03 4.157170104980468750e+01 -5.900509834289550781e+00 1.539547562599182129e+00 3.560307264328002930e+00 1.529956459999084473e+00 1.451869726181030273e+00
4.567000000000000000e+03 5.268929290771484375e+01 -3.080367326736450195e+00 -3.838354110717773438e+00 5.699647903442382812e+00 5.583880543708801270e-01 -1.776272654533386230e+00
4.568000000000000000e+03 6.990474700927734375e+01 -1.165569543838500977e+00 -3.250944137573242188e+00 5.489912509918212891e+00 6.716904044151306152e-01 -2.596094369888305664e+00
4.569000000000000000e+03 7.157451629638671875e+01 -1.843306183815002441e+00 -1.938118934631347656e+00 4.124530792236328125e+00 6.559235453605651855e-01 -2.612140417098999023e+00
4.570000000000000000e+03 1.649507141113281250e+01 -8.672871589660644531e+00 -4.034261107444763184e-01 2.194347530603408813e-01 -5.519741028547286987e-02 -8.423995971679687500e-02
4.571000000000000000e+03 1.700830841064453125e+01 -8.190951347351074219e+00 -5.076026916503906250e-01 1.918044537305831909e-01 -9.473946690559387207e-02 -4.404690116643905640e-03
4.572000000000000000e+03 6.143589019775390625e+01 -2.676034688949584961e+00 6.296195089817047119e-02 7.842968940734863281e+00 2.371779203414916992e+00 2.984300851821899414e-01
4.573000000000000000e+03 1.388776493072509766e+01 -3.291616439819335938e+00 -2.110837101936340332e-01 3.767751902341842651e-02 -5.202185735106468201e-02 6.434161961078643799e-02
4.574000000000000000e+03 7.693101501464843750e+01 -2.790319824218750000e+01 3.008096665143966675e-02 6.792599201202392578e+00 2.046804189682006836e+00 1.743202954530715942e-01
4.575000000000000000e+03 5.923602676391601562e+01 -1.598382949829101562e+01 1.136439085006713867e+00 8.806659698486328125e+00 2.982929706573486328e+00 -1.006221547722816467e-01
4.576000000000000000e+03 2.908975028991699219e+01 -8.578478813171386719e+00 2.220873832702636719e+00 4.533370018005371094e+00 2.026273250579833984e+00 -2.602539539337158203e+00
4.577000000000000000e+03 2.941835403442382812e+01 -7.739370346069335938e+00 2.085100650787353516e+00 3.725028514862060547e+00 1.743038773536682129e+00 -2.242088794708251953e+00
4.578000000000000000e+03 5.291136550903320312e+01 1.045924186706542969e+01 2.013177871704101562e+00 1.246915245056152344e+01 4.344699382781982422e+00 7.465612888336181641e-01
4.579000000000000000e+03 3.887246704101562500e+01 1.579977226257324219e+01 -2.038565635681152344e+00 4.640716910362243652e-01 -4.723481833934783936e-01 -1.064428016543388367e-01
4.580000000000000000e+03 6.886222839355468750e+01 8.071532249450683594e+00 -1.279635310173034668e+00 9.890052795410156250e+00 2.583125352859497070e+00 -6.743041872978210449e-01
4.581000000000000000e+03 6.818570709228515625e+01 8.416315078735351562e+00 -7.165025472640991211e-01 1.072804260253906250e+01 3.003461837768554688e+00 -9.106000065803527832e-01
4.582000000000000000e+03 3.812863111495971680e+00 2.822204399108886719e+01 6.864197552204132080e-03 1.268803954124450684e+00 3.827004432678222656e-01 1.522023975849151611e-01
4.583000000000000000e+03 2.876882314682006836e+00 2.761438369750976562e+01 1.653070561587810516e-03 1.371804118156433105e+00 4.120371341705322266e-01 1.294886171817779541e-01
4.584000000000000000e+03 6.447881317138671875e+01 -1.749238204956054688e+01 1.261024773120880127e-01 4.255596160888671875e+00 1.314509630203247070e+00 -1.320797920227050781e+00
4.585000000000000000e+03 3.033111000061035156e+01 -1.159856319427490234e+01 1.027362346649169922e+00 3.620111227035522461e+00 1.394242048263549805e+00 -2.254198551177978516e+00
4.586000000000000000e+03 3.200400161743164062e+01 -1.231328487396240234e+01 1.079600572586059570e+00 2.717908143997192383e+00 1.139252662658691406e+00 -1.787230014801025391e+00
4.587000000000000000e+03 2.143185615539550781e+01 -1.217577648162841797e+01 5.689803957939147949e-01 8.859850764274597168e-01 4.364896416664123535e-01 7.907925844192504883e-01
4.588000000000000000e+03 4.826062774658203125e+01 -1.961795425415039062e+01 -1.611172109842300415e-01 1.190376996994018555e+00 3.087779283523559570e-01 -6.338598728179931641e-01
4.589000000000000000e+03 6.546125793457031250e+01 4.467688560485839844e+00 5.206273198127746582e-01 6.911617755889892578e+00 2.229673624038696289e+00 9.878934025764465332e-01
4.590000000000000000e+03 5.973351669311523438e+01 -9.724234938621520996e-01 -1.434218764305114746e+00 3.572499036788940430e+00 6.414840817451477051e-01 -2.746972441673278809e-01
4.591000000000000000e+03 2.648350715637207031e+01 -1.514420747756958008e+00 2.412785530090332031e+00 4.248742103576660156e+00 1.998458385467529297e+00 -1.246633172035217285e+00
4.592000000000000000e+03 2.683999061584472656e+01 -2.033696651458740234e+00 2.341816425323486328e+00 4.877195358276367188e+00 2.165703535079956055e+00 -2.330770194530487061e-01
4.593000000000000000e+03 4.962340927124023438e+01 1.955058670043945312e+01 -1.236091494560241699e+00 5.135370731353759766e+00 1.169783830642700195e+00 -1.788484215736389160e+00
4.594000000000000000e+03 2.848194694519042969e+01 1.490690326690673828e+01 1.253314375877380371e+00 2.404451608657836914e+00 1.097329854965209961e+00 1.128906130790710449e+00
4.595000000000000000e+03 2.964883232116699219e+01 1.515188598632812500e+01 3.806741535663604736e-01 4.011148512363433838e-01 2.345367074012756348e-01 9.549748301506042480e-01
4.596000000000000000e+03 7.596022033691406250e+01 -1.484593009948730469e+01 6.840146183967590332e-01 8.335614204406738281e+00 2.705888748168945312e+00 -1.300245970487594604e-01
4.597000000000000000e+03 7.598103332519531250e+01 -1.422542190551757812e+01 8.400263786315917969e-01 8.380098342895507812e+00 2.766037464141845703e+00 4.620814230293035507e-03
4.598000000000000000e+03 1.894598770141601562e+01 -9.113629341125488281e+00 -6.228399872779846191e-01 1.267042309045791626e-01 -1.488407254219055176e-01 5.587236955761909485e-03
4.599000000000000000e+03 1.504564094543457031e+01 1.680220985412597656e+01 -1.283802032470703125e+00 -7.943261414766311646e-02 -4.089703857898712158e-01 -3.094100654125213623e-01
4.600000000000000000e+03 1.579523086547851562e+01 1.698410606384277344e+01 -1.353972554206848145e+00 -1.796192079782485962e-01 -4.600775241851806641e-01 -3.617434799671173096e-01
4.601000000000000000e+03 6.377518463134765625e+01 1.762180900573730469e+01 7.678341269493103027e-01 4.590768814086914062e+00 1.607580900192260742e+00 -1.253068923950195312e+00
4.602000000000000000e+03 7.756949615478515625e+01 -3.207773208618164062e+00 -1.445525884628295898e-01 9.626065254211425781e+00 2.844453573226928711e+00 1.347827553749084473e+00
4.603000000000000000e+03 7.350594329833984375e+01 -8.426008224487304688e+00 6.441227793693542480e-01 8.937477111816406250e+00 2.874480009078979492e+00 5.846216678619384766e-01
4.604000000000000000e+03 2.796448326110839844e+01 -1.157981634140014648e+00 2.729296922683715820e+00 2.611489534378051758e+00 1.602235913276672363e+00 1.283794164657592773e+00
4.605000000000000000e+03 7.587647247314453125e+01 -1.215418148040771484e+01 9.669339060783386230e-01 8.641118049621582031e+00 2.882415533065795898e+00 6.805587410926818848e-01
4.606000000000000000e+03 7.502838897705078125e+01 -1.095961952209472656e+01 1.086593389511108398e+00 9.307812690734863281e+00 3.118321895599365234e+00 9.684267044067382812e-01
4.607000000000000000e+03 5.721215438842773438e+01 1.324155426025390625e+01 1.274003148078918457e+00 3.531305789947509766e+00 1.441592693328857422e+00 2.171491384506225586e+00
4.608000000000000000e+03 5.850662231445312500e+01 -1.977097892761230469e+01 1.851154714822769165e-01 8.018745422363281250e+00 2.461158514022827148e+00 -6.812515854835510254e-01
4.609000000000000000e+03 7.549417114257812500e+01 1.228146362304687500e+01 -1.112749613821506500e-02 6.624978065490722656e+00 1.984155178070068359e+00 -1.632436633110046387e+00
4.610000000000000000e+03 5.210308837890625000e+01 -2.327696800231933594e+00 -3.625630378723144531e+00 5.393180370330810547e+00 5.302649736404418945e-01 -1.301710128784179688e+00
4.611000000000000000e+03 1.067372608184814453e+01 -5.413609027862548828e+00 -1.880473345518112183e-01 8.586306869983673096e-02 -3.065527789294719696e-02 -7.324625551700592041e-02
4.612000000000000000e+03 2.689053916931152344e+01 -4.141453266143798828e+00 2.542597293853759766e+00 7.936310291290283203e+00 3.143672227859497070e+00 -6.032674312591552734e-01
4.613000000000000000e+03 7.646907806396484375e+01 -1.046579933166503906e+01 6.789070367813110352e-01 8.392407417297363281e+00 2.721394300460815430e+00 1.164250016212463379e+00
4.614000000000000000e+03 4.395122909545898438e+01 -1.469657993316650391e+01 4.386117458343505859e-01 4.356233119964599609e+00 1.438453435897827148e+00 9.619535207748413086e-01
4.615000000000000000e+03 4.385404968261718750e+01 -1.336702823638916016e+01 -4.395952522754669189e-01 4.970367431640625000e+00 1.359231710433959961e+00 1.510178327560424805e+00
4.616000000000000000e+03 6.971286773681640625e+01 1.231117248535156250e+01 2.157529592514038086e+00 6.296822071075439453e+00 2.536305427551269531e+00 1.521955609321594238e+00
4.617000000000000000e+03 7.041463470458984375e+01 1.195576858520507812e+01 2.046473979949951172e+00 5.027481555938720703e+00 2.122186660766601562e+00 1.378624558448791504e+00
4.618000000000000000e+03 4.662531280517578125e+01 7.085586339235305786e-02 3.362086713314056396e-01 3.520707130432128906e+00 1.157074689865112305e+00 4.492769718170166016e+00
4.619000000000000000e+03 6.163529205322265625e+01 -4.178372621536254883e-01 -2.885439157485961914e+00 6.213835239410400391e+00 9.985188841819763184e-01 1.527620911598205566e+00
4.620000000000000000e+03 6.174907302856445312e+01 2.960796952247619629e-01 -2.994032859802246094e+00 5.379425048828125000e+00 7.156175971031188965e-01 1.964445948600769043e+00
4.621000000000000000e+03 2.671438026428222656e+01 -1.243171405792236328e+01 -5.249019861221313477e-01 5.746765613555908203e+00 1.566559195518493652e+00 -7.300649285316467285e-01
4.622000000000000000e+03 2.856163406372070312e+01 -9.300407409667968750e+00 1.819708347320556641e+00 5.420820713043212891e+00 2.172158718109130859e+00 -2.934745550155639648e+00
4.623000000000000000e+03 5.370093536376953125e+01 1.646019935607910156e+01 -2.846033871173858643e-01 8.651241302490234375e+00 2.509991407394409180e+00 2.260780572891235352e+00
4.624000000000000000e+03 5.220382690429687500e+01 8.979990005493164062e+00 7.400548458099365234e-01 1.431425285339355469e+01 4.516292095184326172e+00 3.849003016948699951e-01
4.625000000000000000e+03 3.477316665649414062e+01 -1.642391204833984375e+01 8.918139338493347168e-01 2.212254762649536133e+00 9.312206506729125977e-01 -1.206005573272705078e+00
4.626000000000000000e+03 5.408371734619140625e+01 -4.044838428497314453e+00 -2.968386650085449219e+00 5.761922836303710938e+00 8.380608558654785156e-01 -2.201787710189819336e+00
4.627000000000000000e+03 5.368519210815429688e+01 -3.211131095886230469e+00 -3.308456420898437500e+00 6.196920871734619141e+00 8.665393590927124023e-01 -2.545294046401977539e+00
4.628000000000000000e+03 6.650637817382812500e+01 6.002199649810791016e+00 1.507044583559036255e-01 9.597158432006835938e+00 2.924358844757080078e+00 -5.466318130493164062e-01
4.629000000000000000e+03 7.614179229736328125e+01 1.896405601501464844e+01 2.233843654394149780e-01 6.572754383087158203e+00 2.038841724395751953e+00 3.951821103692054749e-02
4.630000000000000000e+03 2.187772369384765625e+01 7.100433349609375000e+00 4.408336877822875977e-01 7.534168720245361328e+00 2.392500638961791992e+00 1.025336623191833496e+00
4.631000000000000000e+03 4.554286575317382812e+01 -1.451461791992187500e+01 -3.699522018432617188e-01 2.713734149932861328e+00 7.031345367431640625e-01 6.158702373504638672e-01
4.632000000000000000e+03 4.579175567626953125e+01 -1.604511070251464844e+01 -5.689069256186485291e-02 2.330239534378051758e+00 6.820046305656433105e-01 -8.823352307081222534e-02
4.633000000000000000e+03 2.781852912902832031e+01 -2.184308528900146484e+00 2.390837192535400391e+00 4.204607963562011719e+00 1.978633522987365723e+00 1.371447443962097168e+00
4.634000000000000000e+03 1.482850646972656250e+01 -5.889378547668457031e+00 -3.540657460689544678e-01 1.137752085924148560e-01 -7.208716124296188354e-02 3.250798955559730530e-02
4.635000000000000000e+03 3.157881927490234375e+01 -1.385923194885253906e+01 6.822059154510498047e-01 3.018720865249633789e+00 1.110278010368347168e+00 -1.639178633689880371e+00
4.636000000000000000e+03 3.167390251159667969e+01 -1.463698482513427734e+01 5.854914784431457520e-01 3.025002717971801758e+00 1.083148241043090820e+00 -1.541075110435485840e+00
4.637000000000000000e+03 6.075504684448242188e+01 -9.136155128479003906e+00 4.765375554561614990e-01 8.742674827575683594e+00 2.765763521194458008e+00 1.074437022209167480e+00
4.638000000000000000e+03 4.282007980346679688e+01 -2.992315053939819336e+00 1.524612307548522949e+00 5.859582424163818359e+00 2.215258359909057617e+00 5.206860899925231934e-01
4.639000000000000000e+03 3.871554946899414062e+01 -1.995520591735839844e+01 1.015859365463256836e+00 3.489111185073852539e+00 1.351491093635559082e+00 4.167291522026062012e-01
4.640000000000000000e+03 5.324409484863281250e+01 1.687080383300781250e+01 -6.852768063545227051e-01 8.846686363220214844e+00 2.448422908782958984e+00 1.871667265892028809e+00
4.641000000000000000e+03 2.213739204406738281e+01 2.023417091369628906e+01 -7.640298604965209961e-01 9.917224645614624023e-01 6.830778717994689941e-02 -1.200086832046508789e+00
4.642000000000000000e+03 4.483176422119140625e+01 -1.607874679565429688e+01 3.398950099945068359e-01 3.171207189559936523e+00 1.053330659866333008e+00 -1.079597473144531250e-01
4.643000000000000000e+03 4.457782363891601562e+01 -1.516039562225341797e+01 3.297088146209716797e-01 3.597549676895141602e+00 1.178177595138549805e+00 5.394017100334167480e-01
4.644000000000000000e+03 1.384687232971191406e+01 1.542415809631347656e+01 -1.373504877090454102e+00 -2.778025344014167786e-02 -4.203855395317077637e-01 -3.608681261539459229e-01
4.645000000000000000e+03 2.671662569046020508e+00 2.536461257934570312e+01 -1.138515025377273560e-02 1.459883689880371094e+00 4.345495700836181641e-01 1.173457577824592590e-01
4.646000000000000000e+03 3.357711410522460938e+01 -1.675631141662597656e+01 7.329463958740234375e-01 2.511658906936645508e+00 9.733815789222717285e-01 -1.212326884269714355e+00
4.647000000000000000e+03 6.937115478515625000e+01 1.055895900726318359e+01 1.013536691665649414e+00 6.954181671142578125e+00 2.390315532684326172e+00 1.233158349990844727e+00
4.648000000000000000e+03 6.732753753662109375e+01 1.040251922607421875e+01 2.386357784271240234e+00 1.192070388793945312e+01 4.292118549346923828e+00 -1.213439181447029114e-01
4.649000000000000000e+03 4.279225921630859375e+01 -1.891755867004394531e+01 4.113056957721710205e-01 4.640823841094970703e+00 1.515638828277587891e+00 -5.963100790977478027e-01
4.650000000000000000e+03 4.214413452148437500e+01 -3.323163270950317383e+00 1.739266276359558105e+00 4.366623878479003906e+00 1.831767082214355469e+00 3.824875056743621826e-01
4.651000000000000000e+03 4.535406112670898438e+01 -1.049426436424255371e+00 -1.097169995307922363e+00 5.967913150787353516e+00 1.461223006248474121e+00 4.922359943389892578e+00
4.652000000000000000e+03 4.632252120971679688e+01 -6.209017038345336914e-01 -1.690070182085037231e-01 3.814216852188110352e+00 1.093562960624694824e+00 5.263193130493164062e+00
4.653000000000000000e+03 6.553609466552734375e+01 -1.663327217102050781e+01 -2.678935229778289795e-01 3.276777267456054688e+00 9.026651382446289062e-01 -1.100088953971862793e+00
4.654000000000000000e+03 2.901378440856933594e+01 1.625994110107421875e+01 8.945755958557128906e-01 2.278456211090087891e+00 9.519095420837402344e-01 2.293138980865478516e+00
4.655000000000000000e+03 2.845913887023925781e+01 1.650134849548339844e+01 7.416803836822509766e-01 3.196732997894287109e+00 1.181524038314819336e+00 2.655444622039794922e+00
4.656000000000000000e+03 3.421677017211914062e+01 1.745333290100097656e+01 -9.398270845413208008e-01 -8.743741512298583984e-01 -5.442603826522827148e-01 3.267452418804168701e-01
4.657000000000000000e+03 6.841977691650390625e+01 1.433736419677734375e+01 9.689855575561523438e-01 8.474094390869140625e+00 2.832924127578735352e+00 1.552990913391113281e+00
4.658000000000000000e+03 6.604308319091796875e+01 3.928238630294799805e+00 9.897301793098449707e-01 7.092143058776855469e+00 2.424561977386474609e+00 9.004615545272827148e-01
4.659000000000000000e+03 1.866628646850585938e+01 -1.044768619537353516e+01 -2.150600254535675049e-01 2.536100745201110840e-01 1.156501844525337219e-02 -7.372926175594329834e-02
4.660000000000000000e+03 1.938161849975585938e+01 -1.091873264312744141e+01 5.956619605422019958e-02 2.225866019725799561e-01 8.464583754539489746e-02 -1.540317945182323456e-02
4.661000000000000000e+03 7.738070487976074219e+00 6.187111377716064453e+00 2.974640130996704102e+00 1.378178834915161133e+00 1.305845737457275391e+00 -2.254894018173217773e+00
4.662000000000000000e+03 7.161146163940429688e+00 5.571066856384277344e+00 2.849076986312866211e+00 4.317388832569122314e-01 9.842447638511657715e-01 -1.234667778015136719e+00
4.663000000000000000e+03 5.847534179687500000e+01 -1.492514371871948242e+00 -3.797598779201507568e-01 2.706597805023193359e+00 6.980513930320739746e-01 -2.091585636138916016e+00
4.664000000000000000e+03 5.381101226806640625e+01 -4.689017295837402344e+00 -2.758783340454101562e+00 5.194948673248291016e+00 7.308495640754699707e-01 -1.632965445518493652e+00
4.665000000000000000e+03 4.455181503295898438e+01 -1.293156147003173828e+01 -9.727077484130859375e-01 4.354382991790771484e+00 1.014502525329589844e+00 1.432107925415039062e+00
4.666000000000000000e+03 3.333395004272460938e+01 2.861629486083984375e+00 -9.764272570610046387e-01 1.029128670692443848e+00 1.581041328608989716e-02 1.726958394050598145e+00
4.667000000000000000e+03 6.830048370361328125e+01 -1.193894267082214355e+00 -3.314510345458984375e+00 4.433083057403564453e+00 3.355717360973358154e-01 -9.220793843269348145e-01
4.668000000000000000e+03 4.410462951660156250e+01 -1.827004051208496094e+01 5.374175310134887695e-01 3.756572008132934570e+00 1.288196802139282227e+00 -8.530846834182739258e-01
4.669000000000000000e+03 5.882025909423828125e+01 -1.078157615661621094e+01 2.761520445346832275e-01 8.811907768249511719e+00 2.726418018341064453e+00 8.468732237815856934e-01
4.670000000000000000e+03 5.873574066162109375e+01 1.505231857299804688e+01 1.062040209770202637e+00 2.641075134277343750e+00 1.110934615135192871e+00 1.923046827316284180e+00
4.671000000000000000e+03 1.112467384338378906e+01 1.148782062530517578e+01 -1.182232379913330078e+00 5.783782601356506348e-01 -1.811562180519104004e-01 -4.829041957855224609e-01
4.672000000000000000e+03 2.551642608642578125e+01 1.101242065429687500e+01 -3.260926008224487305e+00 8.820795059204101562e+00 1.667960643768310547e+00 1.464719891548156738e+00
4.673000000000000000e+03 3.874308013916015625e+01 -2.834608793258666992e+00 1.128970146179199219e+00 -1.650750517845153809e+00 -1.565341055393218994e-01 -2.325386703014373779e-01
4.674000000000000000e+03 6.207084274291992188e+01 1.769329452514648438e+01 1.207375526428222656e+00 3.271060228347778320e+00 1.343530774116516113e+00 -1.435814797878265381e-01
4.675000000000000000e+03 6.130857086181640625e+01 1.766033363342285156e+01 1.234007000923156738e+00 3.217449426651000977e+00 1.335436940193176270e+00 2.684850990772247314e-01
4.676000000000000000e+03 2.771253013610839844e+01 1.837121200561523438e+01 -8.454481363296508789e-01 4.567608356475830078e+00 1.116648077964782715e+00 1.983432650566101074e+00
4.677000000000000000e+03 2.659348678588867188e+01 1.803809547424316406e+01 -1.269963979721069336e+00 6.410628318786621094e+00 1.542199373245239258e+00 1.337113976478576660e+00
4.678000000000000000e+03 5.216578292846679688e+01 1.429626107215881348e+00 2.734127998352050781e+00 9.257381439208984375e+00 3.597452878952026367e+00 3.093307614326477051e-01
4.679000000000000000e+03 5.169446945190429688e+01 2.379106998443603516e+00 3.750936031341552734e+00 8.921532630920410156e+00 3.801740407943725586e+00 5.011425614356994629e-01
4.680000000000000000e+03 1.238205623626708984e+01 1.390575790405273438e+01 -1.325238466262817383e+00 2.618269324302673340e-01 -3.190234601497650146e-01 -4.157002866268157959e-01
4.681000000000000000e+03 2.812301635742187500e+01 -7.020018577575683594e+00 2.841558218002319336e+00 6.538455963134765625e+00 2.814004421234130859e+00 -1.949870467185974121e+00
4.682000000000000000e+03 6.871762084960937500e+01 1.352363586425781250e+01 1.806877017021179199e+00 8.104825019836425781e+00 2.973510503768920898e+00 1.918924808502197266e+00
4.683000000000000000e+03 7.125968170166015625e+01 -4.106568813323974609e+00 -1.655351519584655762e+00 4.604710102081298828e+00 8.848075866699218750e-01 -1.337444186210632324e+00
4.684000000000000000e+03 7.078170776367187500e+01 -4.498662471771240234e+00 -1.614672422409057617e+00 4.235575675964355469e+00 7.862709760665893555e-01 -1.155471682548522949e+00
4.685000000000000000e+03 5.945269012451171875e+01 -4.801865100860595703e+00 1.126271605491638184e+00 6.486935138702392578e+00 2.283962011337280273e+00 -2.102900892496109009e-01
4.686000000000000000e+03 3.782244491577148438e+01 -2.123348712921142578e+00 6.542251706123352051e-01 -1.936276197433471680e+00 -3.846153318881988525e-01 -1.737060993909835815e-01
4.687000000000000000e+03 5.426556396484375000e+01 1.304566860198974609e+01 2.276931047439575195e+00 8.580869674682617188e+00 3.257340431213378906e+00 2.501836061477661133e+00
4.688000000000000000e+03 2.796084213256835938e+01 1.683701705932617188e+01 3.750171363353729248e-01 4.530802726745605469e+00 1.471745967864990234e+00 2.721843004226684570e+00
4.689000000000000000e+03 2.979108428955078125e+01 -9.203852653503417969e+00 1.788605451583862305e+00 3.494636297225952148e+00 1.584972500801086426e+00 -2.664831638336181641e+00
4.690000000000000000e+03 2.919462013244628906e+01 -9.923679351806640625e+00 1.455347537994384766e+00 4.718825340270996094e+00 1.852251887321472168e+00 -2.712716579437255859e+00
4.691000000000000000e+03 7.581499481201171875e+01 -2.981224632263183594e+01 5.547855049371719360e-02 6.552244186401367188e+00 1.982316851615905762e+00 1.678676754236221313e-01
4.692000000000000000e+03 6.433113098144531250e+01 -1.405299282073974609e+01 -5.905427336692810059e-01 4.305490493774414062e+00 1.114484310150146484e+00 -7.219156622886657715e-01
4.693000000000000000e+03 5.662330627441406250e+01 -6.967716693878173828e+00 -1.869135200977325439e-01 6.591282844543457031e+00 1.921310782432556152e+00 -6.858376860618591309e-01
4.694000000000000000e+03 5.571077346801757812e+01 -6.210422515869140625e+00 -7.987849712371826172e-01 5.920017242431640625e+00 1.536369800567626953e+00 -1.240262627601623535e+00
4.695000000000000000e+03 6.411400604248046875e+01 3.113460779190063477e+00 -6.380450725555419922e-01 4.906866073608398438e+00 1.280646324157714844e+00 2.070748805999755859e+00
4.696000000000000000e+03 4.105526351928710938e+01 -2.409093141555786133e+00 9.368875026702880859e-01 1.373222827911376953e+00 6.930330991744995117e-01 1.012055203318595886e-01
4.697000000000000000e+03 5.771358489990234375e+01 1.640465545654296875e+01 1.011767029762268066e+00 4.200650691986083984e+00 1.563725352287292480e+00 2.377695083618164062e+00
4.698000000000000000e+03 5.933956527709960938e+01 1.549666976928710938e+01 1.064969897270202637e+00 2.437705278396606445e+00 1.050802588462829590e+00 1.645060181617736816e+00
4.699000000000000000e+03 5.435832214355468750e+01 1.187466716766357422e+01 2.246285200119018555e+00 8.573607444763183594e+00 3.245967864990234375e+00 1.999863743782043457e+00
4.700000000000000000e+03 5.375671768188476562e+01 1.242783164978027344e+01 2.587548732757568359e+00 1.018819808959960938e+01 3.832724094390869141e+00 2.117610216140747070e+00
4.701000000000000000e+03 6.953572845458984375e+01 -5.223957896232604980e-01 -3.078047275543212891e+00 6.295854568481445312e+00 9.653421640396118164e-01 -2.278184413909912109e+00
4.702000000000000000e+03 6.860885620117187500e+01 -2.926791310310363770e-01 -2.640444517135620117e+00 5.899243831634521484e+00 9.776397347450256348e-01 -1.117784500122070312e+00
4.703000000000000000e+03 5.572310638427734375e+01 -1.358945608139038086e+00 -1.807451128959655762e+00 5.585587024688720703e+00 1.133440732955932617e+00 -5.371725082397460938e+00
4.704000000000000000e+03 5.810588073730468750e+01 -9.430992126464843750e+00 2.985232472419738770e-01 8.154028892517089844e+00 2.535765647888183594e+00 5.807435512542724609e-01
4.705000000000000000e+03 5.793576812744140625e+01 -7.898669242858886719e+00 2.746568322181701660e-01 7.476160526275634766e+00 2.325245141983032227e+00 2.276642322540283203e-01
4.706000000000000000e+03 6.593212890625000000e+01 2.776676416397094727e+00 5.474801659584045410e-01 6.209786415100097656e+00 2.027179956436157227e+00 1.880406498908996582e+00
4.707000000000000000e+03 3.399254608154296875e+01 1.678768396377563477e+00 -2.501540631055831909e-02 3.808654546737670898e-01 1.067550107836723328e-01 1.741925001144409180e+00
4.708000000000000000e+03 6.664315795898437500e+01 6.605405330657958984e+00 -8.573982864618301392e-02 1.047206878662109375e+01 3.115898609161376953e+00 -6.709772348403930664e-01
4.709000000000000000e+03 7.274732971191406250e+01 -1.338699817657470703e+00 -1.297330141067504883e+00 3.132186412811279297e+00 5.504568815231323242e-01 -2.067476987838745117e+00
4.710000000000000000e+03 7.317059326171875000e+01 -2.279838562011718750e+00 -9.548746943473815918e-01 4.052811622619628906e+00 9.293810725212097168e-01 -1.193745374679565430e+00
4.711000000000000000e+03 3.587179946899414062e+01 1.708197212219238281e+01 -1.489930272102355957e+00 -5.654007196426391602e-01 -6.165993213653564453e-01 -1.933926194906234741e-01
4.712000000000000000e+03 5.032758712768554688e+01 5.217866420745849609e+00 2.336826086044311523e+00 9.232252120971679688e+00 3.470723390579223633e+00 1.081278443336486816e+00
4.713000000000000000e+03 5.617985916137695312e+01 -2.003986597061157227e+00 -1.269343256950378418e+00 4.897583484649658203e+00 1.088472008705139160e+00 -4.511175155639648438e+00
4.714000000000000000e+03 6.752931213378906250e+01 5.887994766235351562e-01 -1.183365821838378906e+00 5.795467853546142578e+00 1.383630633354187012e+00 8.937687873840332031e-01
4.715000000000000000e+03 6.799655151367187500e+01 -6.120360493659973145e-01 -2.913833618164062500e+00 4.676251888275146484e+00 5.287254452705383301e-01 -2.766087055206298828e-01
4.716000000000000000e+03 5.102971267700195312e+01 2.489208936691284180e+00 3.594164371490478516e+00 7.758754253387451172e+00 3.405875444412231445e+00 8.499000668525695801e-01
4.717000000000000000e+03 5.230252075195312500e+01 7.445884227752685547e+00 4.749065265059471130e-02 1.346923828125000000e+01 4.055018424987792969e+00 6.048894673585891724e-02
4.718000000000000000e+03 4.992491912841796875e+01 -9.281045198440551758e-01 -6.426349878311157227e-01 2.463498592376708984e+00 5.462590456008911133e-01 1.445456266403198242e+00
4.719000000000000000e+03 5.094927597045898438e+01 6.483335971832275391e+00 1.083829760551452637e+00 1.178182411193847656e+01 3.859696149826049805e+00 7.223004698753356934e-01
4.720000000000000000e+03 5.210675430297851562e+01 6.448730468750000000e+00 5.756204724311828613e-01 1.314273071289062500e+01 4.115505218505859375e+00 -1.926819831132888794e-01
4.721000000000000000e+03 7.374913692474365234e+00 6.613360404968261719e+00 1.956609129905700684e+00 1.265569806098937988e+00 9.666537046432495117e-01 -2.147292852401733398e+00
4.722000000000000000e+03 7.692919921875000000e+01 -6.133703708648681641e+00 -5.660154670476913452e-02 8.691136360168457031e+00 2.590360403060913086e+00 1.597045421600341797e+00
4.723000000000000000e+03 3.791207313537597656e+00 4.466432094573974609e+00 8.427230715751647949e-01 -5.265139341354370117e-01 9.486273676156997681e-02 3.150623440742492676e-01
4.724000000000000000e+03 7.983983516693115234e+00 -4.905483245849609375e+00 -1.135060787200927734e-01 2.677756175398826599e-02 -2.601855434477329254e-02 -8.765603601932525635e-02
4.725000000000000000e+03 1.212738227844238281e+01 1.332767486572265625e+01 -1.333851218223571777e+00 2.502908706665039062e-01 -3.250680863857269287e-01 -4.320203363895416260e-01
4.726000000000000000e+03 1.099616718292236328e+01 1.291045475006103516e+01 -1.250838637351989746e+00 7.088951468467712402e-01 -1.625830382108688354e-01 -4.211253225803375244e-01
4.727000000000000000e+03 6.425431823730468750e+01 -1.507402515411376953e+01 -4.782920479774475098e-01 4.407046318054199219e+00 1.178626298904418945e+00 -8.474345207214355469e-01
4.728000000000000000e+03 6.065538787841796875e+01 -1.191313457489013672e+01 2.431850507855415344e-02 8.269001960754394531e+00 2.487996101379394531e+00 7.622931003570556641e-01
4.729000000000000000e+03 1.226826572418212891e+01 -5.290109634399414062e+00 -2.406477332115173340e-01 1.106819584965705872e-01 -3.898973390460014343e-02 -3.774026036262512207e-02
4.730000000000000000e+03 6.664830780029296875e+01 1.694405937194824219e+01 -2.931570708751678467e-01 7.572787761688232422e+00 2.183889150619506836e+00 -3.616732954978942871e-01
4.731000000000000000e+03 5.136623382568359375e+00 -2.776566696166992188e+01 2.034745365381240845e-02 -2.804380655288696289e-01 -7.802718132734298706e-02 -1.993824355304241180e-02
4.732000000000000000e+03 2.846438884735107422e+00 -2.704295349121093750e+01 6.733735091984272003e-03 -5.416239500045776367e-01 -1.604670733213424683e-01 -2.822760492563247681e-02
4.733000000000000000e+03 5.549819946289062500e+01 -2.251963806152343750e+01 -4.458175599575042725e-01 4.920773506164550781e+00 1.342486739158630371e+00 1.968932867050170898e+00
4.734000000000000000e+03 5.546413421630859375e+01 -2.163368606567382812e+01 -6.683543920516967773e-01 5.167392730712890625e+00 1.349711537361145020e+00 2.573575019836425781e+00
4.735000000000000000e+03 7.385585784912109375e+01 -2.865653610229492188e+01 1.204274296760559082e-01 6.252516746520996094e+00 1.911883234977722168e+00 2.377772182226181030e-01
4.736000000000000000e+03 4.957321166992187500e+00 -2.664445114135742188e+01 2.531695179641246796e-02 -2.908406555652618408e-01 -7.965710759162902832e-02 -2.193205431103706360e-02
4.737000000000000000e+03 7.263950347900390625e+01 -2.730301380157470703e+00 -1.340131878852844238e+00 4.510354042053222656e+00 9.510665535926818848e-01 -1.442687630653381348e+00
4.738000000000000000e+03 7.400415802001953125e+01 -3.466547966003417969e+00 -6.188794970512390137e-01 5.622422218322753906e+00 1.501062750816345215e+00 1.466239839792251587e-01
4.739000000000000000e+03 5.040666580200195312e+01 3.195872783660888672e+00 3.481790065765380859e+00 7.268918514251708984e+00 3.225212574005126953e+00 1.149089455604553223e+00
4.740000000000000000e+03 6.073667907714843750e+01 -9.701004028320312500e-01 -1.865284323692321777e+00 5.195932865142822266e+00 9.991945028305053711e-01 6.104200482368469238e-01
4.741000000000000000e+03 6.110910415649414062e+00 5.768895149230957031e+00 2.151477098464965820e+00 2.706464752554893494e-02 6.535624861717224121e-01 -9.534116983413696289e-01
4.742000000000000000e+03 5.234019279479980469e+00 5.485545635223388672e+00 1.667589545249938965e+00 -2.657964527606964111e-01 4.205379188060760498e-01 -4.066907763481140137e-01
4.743000000000000000e+03 3.420503234863281250e+01 2.395467281341552734e+00 -5.891082882881164551e-01 3.323747813701629639e-01 -7.702005654573440552e-02 1.670515418052673340e+00
4.744000000000000000e+03 3.383820724487304688e+01 2.783272981643676758e+00 -7.859204411506652832e-01 6.705805659294128418e-01 -3.460196033120155334e-02 1.578642249107360840e+00
4.745000000000000000e+03 7.174565887451171875e+01 -2.449437856674194336e+00 -1.929483294486999512e+00 4.399983882904052734e+00 7.411502599716186523e-01 -2.164490699768066406e+00
4.746000000000000000e+03 7.562337875366210938e+00 9.103154182434082031e+00 -1.750255972146987915e-01 1.871843099594116211e+00 5.090452432632446289e-01 -1.660005331039428711e+00
4.747000000000000000e+03 7.067926883697509766e+00 8.990658760070800781e+00 2.414639852941036224e-02 1.514795303344726562e+00 4.616824984550476074e-01 -1.651790380477905273e+00
4.748000000000000000e+03 7.297050476074218750e+01 -4.957450389862060547e+00 -7.937713265419006348e-01 6.155800342559814453e+00 1.608608603477478027e+00 -1.996998935937881470e-01
4.749000000000000000e+03 1.239836406707763672e+01 1.522457218170166016e+01 -1.234307169914245605e+00 2.873440384864807129e-01 -2.840889394283294678e-01 -2.869711518287658691e-01
4.750000000000000000e+03 5.975622177124023438e+01 -5.427642822265625000e+00 1.274952530860900879e+00 7.140921592712402344e+00 2.524762153625488281e+00 2.301275283098220825e-01
4.751000000000000000e+03 5.993327331542968750e+01 -6.099226951599121094e+00 1.260747313499450684e+00 7.623166561126708984e+00 2.665174245834350586e+00 6.292896866798400879e-01
4.752000000000000000e+03 6.482038879394531250e+01 1.807007431983947754e+00 -8.646728992462158203e-01 5.117183208465576172e+00 1.275753140449523926e+00 3.068494796752929688e+00
4.753000000000000000e+03 5.052217483520507812e+01 -5.930655002593994141e-01 -2.415223568677902222e-01 4.069313526153564453e+00 1.148337364196777344e+00 8.281743526458740234e-01
4.754000000000000000e+03 5.256910705566406250e+01 -4.672679305076599121e-01 -1.389459013938903809e+00 8.225439071655273438e+00 2.050794124603271484e+00 -1.305205345153808594e+00
4.755000000000000000e+03 5.863555908203125000e+01 -9.832844734191894531e+00 2.943220436573028564e-01 8.477551460266113281e+00 2.631562232971191406e+00 7.879294157028198242e-01
4.756000000000000000e+03 5.819718170166015625e+01 -1.042319488525390625e+01 3.327461183071136475e-01 8.610693931579589844e+00 2.683032035827636719e+00 6.150718331336975098e-01
4.757000000000000000e+03 7.172778320312500000e+01 -4.467858314514160156e+00 -1.367652058601379395e+00 5.129585266113281250e+00 1.128579974174499512e+00 -1.014861345291137695e+00
4.758000000000000000e+03 7.177361297607421875e+01 -3.885515689849853516e+00 -1.525481104850769043e+00 4.960043907165527344e+00 1.030368804931640625e+00 -1.174418091773986816e+00
4.759000000000000000e+03 9.501367568969726562e+00 1.243638420104980469e+01 -1.114834189414978027e+00 1.218758344650268555e+00 3.117726370692253113e-02 -6.005478501319885254e-01
4.760000000000000000e+03 1.116264057159423828e+01 1.360288429260253906e+01 -1.229377150535583496e+00 6.390382051467895508e-01 -1.771016716957092285e-01 -3.511661291122436523e-01
4.761000000000000000e+03 3.709572076797485352e+00 2.324777984619140625e+01 -5.513666197657585144e-02 1.372940301895141602e+00 3.953410983085632324e-01 1.027341932058334351e-01
4.762000000000000000e+03 1.388317489624023438e+01 -5.711670875549316406e+00 -3.151234090328216553e-01 1.304400861263275146e-01 -5.540499836206436157e-02 -5.876149516552686691e-03
4.763000000000000000e+03 4.045721817016601562e+01 1.601491165161132812e+01 -1.767938971519470215e+00 6.618857383728027344e-01 -3.318159580230712891e-01 -9.306681156158447266e-02
4.764000000000000000e+03 3.513582992553710938e+01 5.356522560119628906e+00 -7.026047110557556152e-01 1.437951773405075073e-01 -1.676428616046905518e-01 5.399369597434997559e-01
4.765000000000000000e+03 3.581943893432617188e+01 5.174311637878417969e+00 -4.138512015342712402e-01 -9.190344810485839844e-02 -1.517263948917388916e-01 5.716879963874816895e-01
4.766000000000000000e+03 1.377975845336914062e+01 -6.497352123260498047e+00 -3.170630037784576416e-01 1.504287868738174438e-01 -4.999026656150817871e-02 -3.649058565497398376e-02
4.767000000000000000e+03 3.883501052856445312e+00 2.027304649353027344e+01 -1.439042389392852783e-01 1.362604498863220215e+00 3.656100928783416748e-01 -2.372006885707378387e-02
4.768000000000000000e+03 8.535382270812988281e+00 1.053537845611572266e+01 -8.873371481895446777e-01 1.749579787254333496e+00 2.586728036403656006e-01 -1.061129450798034668e+00
4.769000000000000000e+03 5.766330718994140625e+01 -2.038774728775024414e+00 -2.867797017097473145e-01 3.643589019775390625e+00 1.007042765617370605e+00 -3.126384258270263672e+00
4.770000000000000000e+03 3.370134353637695312e+01 3.706879854202270508e+00 -1.306375741958618164e+00 8.317266702651977539e-01 -1.423947215080261230e-01 1.210188984870910645e+00
4.771000000000000000e+03 3.995211839675903320e+00 -7.232506275177001953e+00 -3.156897798180580139e-02 -7.062418013811111450e-02 -3.065794706344604492e-02 -1.088709235191345215e-01
4.772000000000000000e+03 7.529483032226562500e+01 -1.956643676757812500e+01 -4.912353157997131348e-01 7.690317630767822266e+00 2.159724712371826172e+00 1.755339652299880981e-01
4.773000000000000000e+03 3.720169305801391602e+00 -1.704362678527832031e+01 2.061745710670948029e-02 -3.145731687545776367e-01 -8.818671852350234985e-02 -1.236715093255043030e-01
4.774000000000000000e+03 7.612705230712890625e+01 1.100846004486083984e+01 -5.827549099922180176e-01 8.058184623718261719e+00 2.242629051208496094e+00 -1.578473687171936035e+00
4.775000000000000000e+03 7.015657806396484375e+01 -1.867215037345886230e+00 -2.993485212326049805e+00 4.847201824188232422e+00 5.561149716377258301e-01 -2.425234079360961914e+00
4.776000000000000000e+03 6.995182800292968750e+01 -2.454280138015747070e+00 -3.183839321136474609e+00 4.475199699401855469e+00 3.874081373214721680e-01 -1.886891126632690430e+00
4.777000000000000000e+03 3.391628980636596680e+00 -8.596324920654296875e+00 -1.997750625014305115e-02 -1.127360388636589050e-01 -3.981406241655349731e-02 -1.142574846744537354e-01
4.778000000000000000e+03 6.511486053466796875e+01 -4.436790943145751953e-02 -1.922924637794494629e+00 4.275403499603271484e+00 7.057437300682067871e-01 4.423140048980712891e+00
4.779000000000000000e+03 4.983358383178710938e+00 1.150938320159912109e+01 -3.179852068424224854e-01 1.124834179878234863e+00 2.420547157526016235e-01 -1.094823718070983887e+00
4.780000000000000000e+03 4.092185974121093750e+00 1.227044391632080078e+01 -2.956351339817047119e-01 1.046410799026489258e+00 2.252327054738998413e-01 -8.958836197853088379e-01
4.781000000000000000e+03 7.497376251220703125e+01 -9.129932403564453125e+00 6.907771229743957520e-01 8.884703636169433594e+00 2.872644186019897461e+00 1.255703926086425781e+00
4.782000000000000000e+03 7.597143554687500000e+01 -9.244495391845703125e+00 6.029676198959350586e-01 8.637429237365722656e+00 2.772119045257568359e+00 1.446656346321105957e+00
4.783000000000000000e+03 4.812163925170898438e+01 -1.888091850280761719e+01 -3.481538593769073486e-01 1.102815508842468262e+00 2.263984829187393188e-01 -5.221505761146545410e-01
4.784000000000000000e+03 4.157010555267333984e+00 6.964825153350830078e+00 8.571335673332214355e-01 -4.115849151276051998e-05 2.571277022361755371e-01 -7.757163047790527344e-01
4.785000000000000000e+03 3.580784559249877930e+00 7.376598358154296875e+00 5.631579160690307617e-01 -5.804526805877685547e-02 1.515337973833084106e-01 -7.289018034934997559e-01
4.786000000000000000e+03 4.388394546508789062e+01 -8.300752043724060059e-01 -1.511145710945129395e+00 6.171362400054931641e+00 1.398065090179443359e+00 2.623878717422485352e+00
4.787000000000000000e+03 5.659960174560546875e+01 -2.641814708709716797e+00 -9.698168635368347168e-01 4.728672981262207031e+00 1.127656817436218262e+00 -3.739665508270263672e+00
4.788000000000000000e+03 5.713344573974609375e+01 -2.314403057098388672e+00 -5.665250420570373535e-01 4.130135536193847656e+00 1.069083094596862793e+00 -3.531191825866699219e+00
4.789000000000000000e+03 6.448231506347656250e+01 4.204233735799789429e-02 -2.375055313110351562e+00 4.991701602935791016e+00 7.849938869476318359e-01 4.253594875335693359e+00
4.790000000000000000e+03 7.533855438232421875e+01 -2.392406082153320312e+01 -8.993142843246459961e-02 6.773294925689697266e+00 2.005009174346923828e+00 3.316200673580169678e-01
4.791000000000000000e+03 7.623668670654296875e+01 -2.464472007751464844e+01 -5.358442664146423340e-02 6.869664192199707031e+00 2.044823884963989258e+00 2.498802244663238525e-01
4.792000000000000000e+03 1.898154640197753906e+01 -9.726026535034179688e+00 -3.940016627311706543e-01 1.766313910484313965e-01 -6.521108001470565796e-02 -3.225103393197059631e-02
4.793000000000000000e+03 5.663109302520751953e+00 8.696418762207031250e+00 3.837080597877502441e-01 9.491760730743408203e-01 3.998652398586273193e-01 -1.498847246170043945e+00
4.794000000000000000e+03 4.530975818634033203e+00 8.822589874267578125e+00 3.618282973766326904e-01 6.075307726860046387e-01 2.908077239990234375e-01 -1.228115797042846680e+00
4.795000000000000000e+03 4.500023841857910156e+00 1.028397846221923828e+01 -6.674477458000183105e-02 8.908741474151611328e-01 2.472387999296188354e-01 -1.159359693527221680e+00
4.796000000000000000e+03 5.377005767822265625e+01 -2.415306806564331055e+00 -3.247289657592773438e+00 7.083868026733398438e+00 1.150973558425903320e+00 -3.091896772384643555e+00
4.797000000000000000e+03 4.741696357727050781e+00 -1.856526374816894531e+01 3.453856334090232849e-02 -2.639085650444030762e-01 -6.881099939346313477e-02 -1.230149418115615845e-01
4.798000000000000000e+03 3.623813867568969727e+00 -1.325863933563232422e+01 1.250287634320557117e-03 -2.258272171020507812e-01 -6.737308204174041748e-02 -1.424300074577331543e-01
4.799000000000000000e+03 3.593118429183959961e+00 -1.474453639984130859e+01 9.039824828505516052e-03 -2.668303251266479492e-01 -7.733715325593948364e-02 -1.367288827896118164e-01
4.800000000000000000e+03 4.751364517211914062e+01 -3.054067790508270264e-01 9.726283550262451172e-01 2.326578617095947266e+00 9.897620677947998047e-01 4.466241359710693359e+00
4.801000000000000000e+03 7.527185821533203125e+01 -2.209488296508789062e+01 -2.689110040664672852e-01 7.009561061859130859e+00 2.022195100784301758e+00 3.406434655189514160e-01
4.802000000000000000e+03 7.616228485107421875e+01 -2.297984313964843750e+01 -1.620616465806961060e-01 7.027022838592529297e+00 2.059488296508789062e+00 2.360436171293258667e-01
4.803000000000000000e+03 6.773022460937500000e+01 1.320228004455566406e+01 2.080890893936157227e+00 9.884138107299804688e+00 3.589508771896362305e+00 1.734202146530151367e+00
4.804000000000000000e+03 7.581181335449218750e+01 -2.445483684539794922e+00 -5.389558672904968262e-01 7.012900829315185547e+00 1.942183494567871094e+00 1.151579737663269043e+00
4.805000000000000000e+03 6.698602294921875000e+01 1.650485515594482422e+00 -7.458252459764480591e-02 6.319404125213623047e+00 1.873446583747863770e+00 1.684136748313903809e+00
4.806000000000000000e+03 2.798916625976562500e+01 8.573099970817565918e-01 -3.747015595436096191e-01 2.472031861543655396e-01 -3.824951127171516418e-02 -3.966762721538543701e-01
4.807000000000000000e+03 2.800294494628906250e+01 -1.244246587157249451e-01 2.015183448791503906e+00 1.222780227661132812e+00 9.713891148567199707e-01 1.763241440057754517e-01
4.808000000000000000e+03 5.775870132446289062e+01 -2.116820907592773438e+01 -8.116446733474731445e-01 7.950111389160156250e+00 2.141540050506591797e+00 5.003707408905029297e-01
4.809000000000000000e+03 3.523420715332031250e+01 4.045515060424804688e+00 -6.099185347557067871e-01 -3.461849689483642578e-02 -1.933611035346984863e-01 1.023194670677185059e+00
4.810000000000000000e+03 5.380566406250000000e+01 -1.514688372611999512e+00 -2.903407812118530273e+00 8.205798149108886719e+00 1.590717077255249023e+00 -3.299937248229980469e+00
4.811000000000000000e+03 4.252841567993164062e+01 -9.467610359191894531e+00 -1.652294874191284180e+00 5.977487564086914062e+00 1.297557830810546875e+00 2.269606113433837891e+00
4.812000000000000000e+03 5.812580871582031250e+01 1.464158153533935547e+01 1.031282782554626465e+00 3.037316799163818359e+00 1.220579862594604492e+00 2.189668893814086914e+00
4.813000000000000000e+03 6.767565155029296875e+01 8.265837669372558594e+00 -1.725576817989349365e-01 1.170685863494873047e+01 3.460290431976318359e+00 -1.155261039733886719e+00
4.814000000000000000e+03 4.161259174346923828e+00 2.470964431762695312e+01 -3.419138118624687195e-02 1.304088950157165527e+00 3.809692561626434326e-01 1.364663094282150269e-01
4.815000000000000000e+03 3.880581140518188477e+00 2.387238502502441406e+01 -5.149659514427185059e-02 1.337458252906799316e+00 3.857884705066680908e-01 1.204464584589004517e-01
4.816000000000000000e+03 3.615425109863281250e+00 -1.550023269653320312e+01 1.436383556574583054e-02 -2.854658663272857666e-01 -8.133061230182647705e-02 -1.331276446580886841e-01
4.817000000000000000e+03 7.443582916259765625e+01 -5.723781108856201172e+00 -3.170728385448455811e-01 7.429371833801269531e+00 2.133689641952514648e+00 9.533508419990539551e-01
4.818000000000000000e+03 7.379261016845703125e+01 -6.724023818969726562e+00 -1.473669707775115967e-01 7.748695850372314453e+00 2.280398607254028320e+00 7.317547798156738281e-01
4.819000000000000000e+03 7.661497497558593750e+01 1.724184799194335938e+01 2.641691863536834717e-01 6.572971820831298828e+00 2.051142454147338867e+00 -1.875276416540145874e-01
4.820000000000000000e+03 7.596080017089843750e+01 1.817718696594238281e+01 2.903011739253997803e-01 6.530642032623291016e+00 2.046283006668090820e+00 -5.357057228684425354e-02
4.821000000000000000e+03 7.666490936279296875e+01 -8.505799293518066406e+00 3.592918217182159424e-01 8.482383728027343750e+00 2.652502536773681641e+00 1.549655079841613770e+00
4.822000000000000000e+03 4.102352142333984375e+00 -6.546669006347656250e+00 -3.539443388581275940e-02 -5.797573924064636230e-02 -2.801105193793773651e-02 -9.981324523687362671e-02
4.823000000000000000e+03 4.821115493774414062e+01 2.051733779907226562e+01 -6.952885389328002930e-01 3.533577919006347656e+00 8.514868021011352539e-01 -1.636785387992858887e+00
4.824000000000000000e+03 3.479815292358398438e+01 3.675778865814208984e+00 -7.602533102035522461e-01 2.237786352634429932e-01 -1.609424054622650146e-01 1.228265166282653809e+00
4.825000000000000000e+03 7.664947509765625000e+01 -1.274812126159667969e+01 7.267371416091918945e-01 8.071771621704101562e+00 2.639552593231201172e+00 4.288817048072814941e-01
4.826000000000000000e+03 7.661428070068359375e+01 -1.200841617584228516e+01 7.552381157875061035e-01 8.195851325988769531e+00 2.685326814651489258e+00 6.922309398651123047e-01
4.827000000000000000e+03 1.052488422393798828e+01 1.269887638092041016e+01 -1.231788396835327148e+00 8.685938715934753418e-01 -1.089583411812782288e-01 -4.901165962219238281e-01
4.828000000000000000e+03 2.750709533691406250e+00 1.574670410156250000e+01 -1.663567870855331421e-01 1.318934559822082520e+00 3.457733392715454102e-01 -3.558925688266754150e-01
4.829000000000000000e+03 1.953820347785949707e+00 1.563205051422119141e+01 -8.953636139631271362e-02 1.361472129821777344e+00 3.815807104110717773e-01 -2.912897765636444092e-01
4.830000000000000000e+03 2.876649665832519531e+01 1.703519821166992188e+01 3.780490159988403320e-01 3.052133798599243164e+00 1.029054880142211914e+00 2.510357618331909180e+00
4.831000000000000000e+03 7.595346832275390625e+01 -1.355595779418945312e+01 9.260674118995666504e-01 8.444094657897949219e+00 2.811048507690429688e+00 2.492571920156478882e-01
4.832000000000000000e+03 7.541048431396484375e+01 -1.491461753845214844e+01 8.355776071548461914e-01 8.653184890747070312e+00 2.846628904342651367e+00 -1.447363793849945068e-01
4.833000000000000000e+03 7.549841308593750000e+01 -2.548949050903320312e+01 -6.415104493498802185e-03 6.666032791137695312e+00 1.997885346412658691e+00 2.947325706481933594e-01
4.834000000000000000e+03 7.622935485839843750e+01 -2.624682044982910156e+01 7.813091389834880829e-03 6.751014709472656250e+00 2.027648210525512695e+00 2.359320223331451416e-01
4.835000000000000000e+03 7.488645935058593750e+01 -2.881991958618164062e+01 7.899808883666992188e-02 6.425277709960937500e+00 1.951282739639282227e+00 2.153900861740112305e-01
4.836000000000000000e+03 5.219758605957031250e+01 -1.539525747299194336e+00 -2.502358913421630859e+00 6.470839977264404297e+00 1.190544247627258301e+00 -1.307125687599182129e+00
4.837000000000000000e+03 7.645286560058593750e+01 -3.735944986343383789e+00 -2.436980903148651123e-01 8.158146858215332031e+00 2.374334573745727539e+00 1.417582631111145020e+00
4.838000000000000000e+03 6.772945404052734375e+01 -1.754658669233322144e-02 -2.120829343795776367e+00 5.355678081512451172e+00 9.704545736312866211e-01 4.411936923861503601e-02
4.839000000000000000e+03 7.667279815673828125e+01 -1.347822570800781250e+01 7.167208790779113770e-01 8.007946968078613281e+00 2.617400407791137695e+00 1.940908581018447876e-01
4.840000000000000000e+03 7.512756347656250000e+01 -1.230997657775878906e+01 1.186306118965148926e+00 9.306515693664550781e+00 3.147846460342407227e+00 7.373017072677612305e-01
4.841000000000000000e+03 7.573159027099609375e+01 -1.735392570495605469e+01 -2.122719436883926392e-01 8.202876091003417969e+00 2.397181034088134766e+00 -3.070169687271118164e-01
4.842000000000000000e+03 7.707089996337890625e+01 -1.730248069763183594e+01 -4.714271053671836853e-02 7.612788677215576172e+00 2.269693851470947266e+00 -4.618101716041564941e-01
4.843000000000000000e+03 7.582513427734375000e+01 -1.143983554840087891e+01 9.485504627227783203e-01 8.749187469482421875e+00 2.909321308135986328e+00 9.195603728294372559e-01
4.844000000000000000e+03 7.519415283203125000e+01 -6.907289981842041016e+00 -7.890244945883750916e-03 8.119986534118652344e+00 2.433629035949707031e+00 1.452281117439270020e+00
4.845000000000000000e+03 7.325804901123046875e+01 1.314992713928222656e+01 1.527912497520446777e+00 4.476573467254638672e+00 1.801345825195312500e+00 -6.599329710006713867e-01
4.846000000000000000e+03 2.543118095397949219e+01 -1.409362697601318359e+01 -3.590615391731262207e-01 4.102585792541503906e+00 1.123057365417480469e+00 4.673953652381896973e-01
4.847000000000000000e+03 4.188970565795898438e+01 -2.733878612518310547e+00 1.202397584915161133e+00 3.398466110229492188e+00 1.380259037017822266e+00 2.962406575679779053e-01
4.848000000000000000e+03 5.999084472656250000e+01 -7.466017723083496094e+00 8.810998201370239258e-01 8.195247650146484375e+00 2.722904205322265625e+00 9.223158359527587891e-01
4.849000000000000000e+03 7.609283447265625000e+01 1.614040565490722656e+01 3.958742618560791016e-01 6.422167301177978516e+00 2.045412540435791016e+00 -3.614130318164825439e-01
4.850000000000000000e+03 5.679382705688476562e+01 1.395123767852783203e+01 1.319058060646057129e+00 4.426918983459472656e+00 1.723793148994445801e+00 2.589343786239624023e+00
4.851000000000000000e+03 5.561080169677734375e+01 -2.360231781005859375e+01 -3.597627282142639160e-01 4.743131160736083984e+00 1.315010547637939453e+00 1.518720507621765137e+00
4.852000000000000000e+03 5.699043655395507812e+01 -2.279113960266113281e+01 -8.873383998870849609e-01 6.439806461334228516e+00 1.665740489959716797e+00 1.062923669815063477e+00
4.853000000000000000e+03 6.029638671875000000e+01 -4.354200363159179688e+00 1.507024645805358887e+00 7.017106533050537109e+00 2.557239532470703125e+00 8.912683278322219849e-02
4.854000000000000000e+03 1.389338397979736328e+01 1.717631912231445312e+01 -1.108397006988525391e+00 1.258424222469329834e-01 -2.947663962841033936e-01 -1.901961565017700195e-01
4.855000000000000000e+03 4.031247615814208984e+00 5.140804290771484375e+00 1.010010838508605957e+00 -4.339502453804016113e-01 1.728181838989257812e-01 -3.682119771838188171e-02
4.856000000000000000e+03 6.319500350952148438e+01 -1.501103019714355469e+01 -1.998981535434722900e-01 5.478294372558593750e+00 1.583518862724304199e+00 -7.042188048362731934e-01
4.857000000000000000e+03 6.516107940673828125e+01 -1.610925292968750000e+01 -3.690856695175170898e-01 3.453009366989135742e+00 9.251770973205566406e-01 -9.802515506744384766e-01
4.858000000000000000e+03 7.160446166992187500e+01 1.242340564727783203e+01 1.954490423202514648e+00 3.989974260330200195e+00 1.783339381217956543e+00 5.583604574203491211e-01
4.859000000000000000e+03 7.075464630126953125e+01 1.264046001434326172e+01 2.122763395309448242e+00 4.894339084625244141e+00 2.105130672454833984e+00 1.137709379196166992e+00
4.860000000000000000e+03 5.935776901245117188e+01 -2.352036237716674805e+00 6.065450981259346008e-02 4.477838993072509766e+00 1.361548066139221191e+00 -1.123251438140869141e+00
4.861000000000000000e+03 4.976796150207519531e+00 1.531355857849121094e+01 -4.373722672462463379e-01 1.246007323265075684e+00 2.425905168056488037e-01 -5.162619352340698242e-01
4.862000000000000000e+03 4.133219718933105469e+00 1.627275276184082031e+01 -2.895643413066864014e-01 1.271874547004699707e+00 2.946930825710296631e-01 -3.807389438152313232e-01
4.863000000000000000e+03 6.532516479492187500e+01 1.848296928405761719e+01 1.337835937738418579e-01 6.066169738769531250e+00 1.859985947608947754e+00 -7.790457010269165039e-01
4.864000000000000000e+03 4.327314376831054688e+01 -1.272473144531250000e+01 -6.867880225181579590e-01 5.567916393280029297e+00 1.464338541030883789e+00 1.936376690864562988e+00
4.865000000000000000e+03 2.825206756591796875e+00 -1.553797626495361328e+01 7.396218832582235336e-03 -3.372345566749572754e-01 -9.895149618387222290e-02 -1.112883314490318298e-01
4.866000000000000000e+03 4.712599754333496094e+00 -2.567096138000488281e+01 2.610317431390285492e-02 -3.173364102840423584e-01 -8.736997097730636597e-02 -3.322334215044975281e-02
4.867000000000000000e+03 5.967941665649414062e+01 -1.206098937988281250e+01 2.789795398712158203e-01 8.666168212890625000e+00 2.683544397354125977e+00 8.279211521148681641e-01
4.868000000000000000e+03 5.908852767944335938e+01 -1.172245311737060547e+01 2.666663229465484619e-01 9.003444671630859375e+00 2.781033277511596680e+00 7.984057068824768066e-01
4.869000000000000000e+03 5.689353942871093750e+01 -5.847578048706054688e+00 -2.304900586605072021e-01 6.126292228698730469e+00 1.768740653991699219e+00 -1.125517010688781738e+00
4.870000000000000000e+03 4.896618270874023438e+01 1.952076339721679688e+01 -8.964948058128356934e-01 4.307460308074951172e+00 1.023289680480957031e+00 -2.025344848632812500e+00
4.871000000000000000e+03 5.434257507324218750e+01 1.903510475158691406e+01 -8.264254331588745117e-01 6.836530208587646484e+00 1.803031444549560547e+00 1.379189968109130859e+00
4.872000000000000000e+03 5.265874481201171875e+01 1.831500244140625000e+01 -1.490851044654846191e+00 8.190647125244140625e+00 2.009938955307006836e+00 6.021753549575805664e-01
4.873000000000000000e+03 4.517608642578125000e+01 -1.560601902008056641e+01 1.902572065591812134e-01 2.812296152114868164e+00 9.007659554481506348e-01 1.069771647453308105e-01
4.874000000000000000e+03 2.870037269592285156e+01 1.810259819030761719e+01 -2.770484983921051025e-01 3.197940587997436523e+00 8.762676119804382324e-01 2.294895887374877930e+00
4.875000000000000000e+03 2.110348939895629883e+00 2.684388160705566406e+01 2.602180931717157364e-03 1.473863124847412109e+00 4.429395794868469238e-01 1.014994084835052490e-01
4.876000000000000000e+03 4.497737884521484375e+01 -1.467683219909667969e+01 -4.383540526032447815e-02 3.304966211318969727e+00 9.783392548561096191e-01 6.490604877471923828e-01
4.877000000000000000e+03 4.673661804199218750e+01 -1.585607624053955078e+01 -4.502065479755401611e-01 1.319443225860595703e+00 2.607710063457489014e-01 6.004398688673973083e-02
4.878000000000000000e+03 2.033453369140625000e+01 -1.249058723449707031e+01 4.386751651763916016e-01 6.674679517745971680e-01 3.318429291248321533e-01 4.544768631458282471e-01
4.879000000000000000e+03 5.480138397216796875e+01 1.504938602447509766e+01 1.120320558547973633e+00 7.523981094360351562e+00 2.593290567398071289e+00 3.000279188156127930e+00
4.880000000000000000e+03 3.089505195617675781e+01 -1.549332141876220703e+01 3.466169238090515137e-01 3.259233951568603516e+00 1.081755280494689941e+00 -1.342795491218566895e+00
4.881000000000000000e+03 3.173640060424804688e+01 -1.638462257385253906e+01 4.574247300624847412e-01 2.964550256729125977e+00 1.026592493057250977e+00 -1.252933502197265625e+00
4.882000000000000000e+03 7.472955322265625000e+01 2.023814773559570312e+01 1.978191137313842773e-01 6.594743251800537109e+00 2.037768840789794922e+00 1.857342272996902466e-01
4.883000000000000000e+03 3.362249374389648438e+01 1.780432128906250000e+01 -7.063534855842590332e-01 -6.830478310585021973e-01 -4.168204069137573242e-01 6.074192523956298828e-01
4.884000000000000000e+03 5.905744934082031250e+01 -8.475842475891113281e+00 5.029640197753906250e-01 8.023559570312500000e+00 2.557956933975219727e+00 8.326050639152526855e-01
4.885000000000000000e+03 1.812061882019042969e+01 1.870577239990234375e+01 -1.087019443511962891e+00 -1.729018837213516235e-01 -3.779764175415039062e-01 -4.173456430435180664e-01
4.886000000000000000e+03 1.697587585449218750e+01 1.752832984924316406e+01 -1.362174987792968750e+00 -2.484627515077590942e-01 -4.831913411617279053e-01 -4.042514860630035400e-01
4.887000000000000000e+03 5.507071685791015625e+01 -1.904178023338317871e+00 -2.356593608856201172e+00 6.724950313568115234e+00 1.310507059097290039e+00 -4.561773300170898438e+00
4.888000000000000000e+03 5.541000366210937500e+01 1.204906177520751953e+01 1.832272648811340332e+00 6.287180900573730469e+00 2.435836076736450195e+00 2.251513719558715820e+00
4.889000000000000000e+03 3.175907897949218750e+01 -1.548460006713867188e+01 5.373491048812866211e-01 2.994605541229248047e+00 1.059586405754089355e+00 -1.384223461151123047e+00
4.890000000000000000e+03 3.673490142822265625e+01 1.683413505554199219e+01 -1.661470890045166016e+00 -2.597690522670745850e-01 -5.763719677925109863e-01 -2.691220343112945557e-01
4.891000000000000000e+03 6.892788696289062500e+01 1.566097640991210938e+01 5.961711406707763672e-01 7.529947280883789062e+00 2.437835454940795898e+00 1.081469774246215820e+00
4.892000000000000000e+03 6.919123077392578125e+01 1.496324920654296875e+01 8.963319063186645508e-01 7.493268489837646484e+00 2.516880035400390625e+00 1.407145857810974121e+00
4.893000000000000000e+03 5.553194427490234375e+01 1.388528633117675781e+01 1.678828120231628418e+00 6.162369728088378906e+00 2.352359294891357422e+00 2.862308740615844727e+00
4.894000000000000000e+03 5.482162094116210938e+01 1.367182826995849609e+01 1.841302990913391113e+00 7.530103206634521484e+00 2.811421871185302734e+00 2.844628334045410156e+00
4.895000000000000000e+03 4.476975250244140625e+01 -1.794221878051757812e+01 3.325944840908050537e-01 3.266875743865966797e+00 1.079841017723083496e+00 -8.299535512924194336e-01
4.896000000000000000e+03 4.447600555419921875e+01 -1.649463081359863281e+01 6.597695946693420410e-01 3.426316738128662109e+00 1.225825905799865723e+00 -2.396253496408462524e-01
4.897000000000000000e+03 5.118526077270507812e+01 1.949570274353027344e+01 -1.555213809013366699e+00 6.783985137939453125e+00 1.568631529808044434e+00 -9.174592494964599609e-01
4.898000000000000000e+03 5.050993728637695312e+01 1.907806587219238281e+01 -1.560894370079040527e+00 6.348022460937500000e+00 1.436138391494750977e+00 -1.581590771675109863e+00
4.899000000000000000e+03 4.663971900939941406e+00 2.823648071289062500e+01 9.357332251965999603e-03 1.204829096794128418e+00 3.642559051513671875e-01 1.656366735696792603e-01
4.900000000000000000e+03 1.278994560241699219e+01 -4.978976726531982422e+00 -2.563495635986328125e-01 1.025127544999122620e-01 -4.615103825926780701e-02 -5.107095930725336075e-03
4.901000000000000000e+03 1.330148220062255859e+01 -5.664378166198730469e+00 -2.937832772731781006e-01 1.289190202951431274e-01 -4.945927485823631287e-02 -1.890441961586475372e-02
4.902000000000000000e+03 5.022664260864257812e+01 3.902698278427124023e+00 3.145457983016967773e+00 7.797467708587646484e+00 3.282877683639526367e+00 1.255040764808654785e+00
4.903000000000000000e+03 1.001546478271484375e+01 -4.785861968994140625e+00 -1.684994548559188843e-01 6.635411083698272705e-02 -3.064360097050666809e-02 -6.221289560198783875e-02
4.904000000000000000e+03 1.166342258453369141e+01 -5.764964580535888672e+00 -2.242628633975982666e-01 1.107108891010284424e-01 -3.406559303402900696e-02 -6.330850720405578613e-02
4.905000000000000000e+03 4.194099044799804688e+01 -1.997259140014648438e+01 9.813557565212249756e-02 4.655508995056152344e+00 1.426093339920043945e+00 -5.167415738105773926e-01
4.906000000000000000e+03 4.393741130828857422e+00 -2.481669235229492188e+01 2.318794094026088715e-02 -3.398525118827819824e-01 -9.499936550855636597e-02 -3.958922252058982849e-02
4.907000000000000000e+03 4.114840316772460938e+01 -3.049112796783447266e+00 1.435422301292419434e+00 1.813919663429260254e+00 9.748026132583618164e-01 1.955873668193817139e-01
4.908000000000000000e+03 6.082379531860351562e+01 -1.252933788299560547e+01 9.005599468946456909e-02 8.174461364746093750e+00 2.479355096817016602e+00 6.525178551673889160e-01
4.909000000000000000e+03 6.066485595703125000e+01 -1.324032402038574219e+01 1.215037405490875244e-01 8.068086624145507812e+00 2.456877231597900391e+00 3.955095708370208740e-01
4.910000000000000000e+03 1.687748718261718750e+01 1.912971496582031250e+01 -9.236088395118713379e-01 -7.122965157032012939e-02 -2.984515428543090820e-01 -2.691670656204223633e-01
4.911000000000000000e+03 6.738602447509765625e+01 -1.983333015441894531e+01 7.928448915481567383e-01 3.096722602844238281e+00 1.166870236396789551e+00 -2.974502444267272949e-01
4.912000000000000000e+03 6.905754089355468750e+01 1.419344806671142578e+01 1.396610379219055176e+00 7.612197875976562500e+00 2.702642440795898438e+00 1.629340052604675293e+00
4.913000000000000000e+03 3.474802017211914062e+01 1.843878746032714844e+01 -6.381655335426330566e-01 -5.066819787025451660e-01 -3.434542715549468994e-01 3.784488737583160400e-01
4.914000000000000000e+03 6.377086639404296875e+00 7.358859539031982422e+00 1.220841288566589355e+00 8.057613968849182129e-01 6.079807877540588379e-01 -1.703492403030395508e+00
4.915000000000000000e+03 6.219367218017578125e+01 -1.341602897644042969e+01 -3.033560216426849365e-01 6.918073654174804688e+00 1.984415292739868164e+00 -1.029893979430198669e-01
4.916000000000000000e+03 2.750641441345214844e+01 1.961968994140625000e+01 -1.341419219970703125e+00 4.045202255249023438e+00 8.111349344253540039e-01 1.327230095863342285e+00
4.917000000000000000e+03 1.459307003021240234e+01 -7.649448394775390625e+00 -3.530229330062866211e-01 1.992034465074539185e-01 -4.614584892988204956e-02 -7.832317799329757690e-02
4.918000000000000000e+03 1.538155078887939453e+01 -7.310108184814453125e+00 -4.099229872226715088e-01 1.825773864984512329e-01 -6.820368766784667969e-02 -2.703321166336536407e-02
4.919000000000000000e+03 5.364957427978515625e+01 -2.331784057617187500e+01 2.658976018428802490e-01 2.928532838821411133e+00 9.583291411399841309e-01 1.446986794471740723e+00
4.920000000000000000e+03 5.458294296264648438e+01 -2.345436096191406250e+01 7.004836201667785645e-02 3.728780269622802734e+00 1.139648556709289551e+00 1.665642261505126953e+00
4.921000000000000000e+03 5.130217742919921875e+01 9.544019103050231934e-01 1.934236407279968262e+00 6.957422733306884766e+00 2.667497873306274414e+00 9.413309097290039062e-01
4.922000000000000000e+03 5.642130279541015625e+01 -6.077659606933593750e+00 -4.960041344165802002e-01 6.082939147949218750e+00 1.676080584526062012e+00 -1.177030205726623535e+00
4.923000000000000000e+03 5.958556175231933594e+00 -5.925081253051757812e+00 -6.892993301153182983e-02 -1.445797178894281387e-02 -2.501637302339076996e-02 -1.107095628976821899e-01
4.924000000000000000e+03 4.428354644775390625e+01 1.756498146057128906e+01 -1.069761633872985840e+00 7.959535717964172363e-01 -8.214239776134490967e-02 -3.402245938777923584e-01
4.925000000000000000e+03 4.381711959838867188e+01 1.660310173034667969e+01 -1.508177876472473145e+00 7.804102301597595215e-01 -2.183302789926528931e-01 -2.002945542335510254e-01
4.926000000000000000e+03 9.537442207336425781e+00 -6.108658313751220703e+00 -1.539668589830398560e-01 7.067626714706420898e-02 -2.498717606067657471e-02 -1.095428317785263062e-01
4.927000000000000000e+03 7.396929264068603516e+00 -5.805353641510009766e+00 -9.912802278995513916e-02 1.729502715170383453e-02 -2.454989962279796600e-02 -1.121594086289405823e-01
4.928000000000000000e+03 4.262078094482421875e+01 -1.997640991210937500e+01 1.483646333217620850e-01 4.386868476867675781e+00 1.360569834709167480e+00 -6.215846538543701172e-01
4.929000000000000000e+03 6.274987411499023438e+01 8.126372098922729492e-01 -2.992151975631713867e+00 5.568871974945068359e+00 7.730160355567932129e-01 2.965383291244506836e+00
4.930000000000000000e+03 6.060468292236328125e+01 1.755140495300292969e+01 1.226471066474914551e+00 3.127493858337402344e+00 1.306189537048339844e+00 8.314905762672424316e-01
4.931000000000000000e+03 1.319072723388671875e+01 1.682604408264160156e+01 -1.112722873687744141e+00 2.090991735458374023e-01 -2.710871100425720215e-01 -1.797053962945938110e-01
4.932000000000000000e+03 1.255895900726318359e+01 1.645767402648925781e+01 -1.101525306701660156e+00 3.301258087158203125e-01 -2.314198613166809082e-01 -1.845465153455734253e-01
4.933000000000000000e+03 3.465399169921875000e+01 4.208302974700927734e+00 -9.458357095718383789e-01 3.108817636966705322e-01 -1.904861927032470703e-01 9.915000200271606445e-01
4.934000000000000000e+03 6.277112579345703125e+01 1.748681068420410156e+01 1.071217656135559082e+00 3.685060024261474609e+00 1.426883339881896973e+00 -6.599023342132568359e-01
4.935000000000000000e+03 6.831862640380859375e+01 1.079061126708984375e+01 1.770304799079895020e+00 9.256461143493652344e+00 3.308029651641845703e+00 8.941320776939392090e-01
4.936000000000000000e+03 5.683618927001953125e+01 -7.511048316955566406e+00 -1.267829351127147675e-02 6.860257148742675781e+00 2.054273605346679688e+00 -3.985897302627563477e-01
4.937000000000000000e+03 5.737921905517578125e+01 -7.043968677520751953e+00 1.898897886276245117e-01 6.833356857299804688e+00 2.106973886489868164e+00 -2.800079882144927979e-01
4.938000000000000000e+03 5.861426162719726562e+01 -2.163042640686035156e+01 -7.567560076713562012e-01 7.142252922058105469e+00 1.915649056434631348e+00 -3.170766830444335938e-01
4.939000000000000000e+03 7.472696685791015625e+01 -1.770655632019042969e+01 -5.105975866317749023e-01 8.438387870788574219e+00 2.378337144851684570e+00 1.241301279515028000e-02
4.940000000000000000e+03 7.483866119384765625e+01 -9.732190132141113281e+00 9.728300571441650391e-01 9.161778450012207031e+00 3.040382623672485352e+00 1.107249021530151367e+00
4.941000000000000000e+03 7.558193969726562500e+01 -1.011695098876953125e+01 8.306647539138793945e-01 8.800621032714843750e+00 2.889385700225830078e+00 1.221315741539001465e+00
4.942000000000000000e+03 3.894476413726806641e+00 3.924870729446411133e+00 6.721540093421936035e-01 -5.013301968574523926e-01 5.124714970588684082e-02 5.220971703529357910e-01
4.943000000000000000e+03 4.856283950805664062e+01 1.615441918373107910e+00 2.479431152343750000e+00 3.980889558792114258e+00 1.938096284866333008e+00 3.102338075637817383e+00
4.944000000000000000e+03 1.270939731597900391e+01 -5.616835594177246094e+00 -2.626410126686096191e-01 1.251465827226638794e-01 -4.124833270907402039e-02 -3.796640783548355103e-02
4.945000000000000000e+03 3.106136894226074219e+01 1.680020523071289062e+01 -2.000300139188766479e-01 7.298757135868072510e-02 -3.811272978782653809e-02 1.431728839874267578e+00
4.946000000000000000e+03 7.562628173828125000e+01 1.356771087646484375e+01 3.040887117385864258e-01 6.379589557647705078e+00 2.005103349685668945e+00 -1.121487259864807129e+00
4.947000000000000000e+03 7.483682250976562500e+01 1.332145595550537109e+01 5.716435313224792480e-01 5.784069061279296875e+00 1.906713843345642090e+00 -1.268166542053222656e+00
4.948000000000000000e+03 3.490724945068359375e+01 1.751194381713867188e+01 -1.034081935882568359e+00 -8.457460403442382812e-01 -5.639483928680419922e-01 1.048366650938987732e-01
4.949000000000000000e+03 3.411473846435546875e+01 1.823043441772460938e+01 -6.087904572486877441e-01 -5.781332254409790039e-01 -3.560771048069000244e-01 4.792437553405761719e-01
4.950000000000000000e+03 4.248567199707031250e+01 1.640692710876464844e+01 -1.594552040100097656e+00 8.060309886932373047e-01 -2.365563064813613892e-01 -1.469949036836624146e-01
4.951000000000000000e+03 2.394270515441894531e+01 -1.292627716064453125e+01 8.925621956586837769e-02 3.256160497665405273e+00 1.003625035285949707e+00 1.277647495269775391e+00
4.952000000000000000e+03 2.205948257446289062e+01 -1.264901351928710938e+01 3.940583765506744385e-01 1.419192790985107422e+00 5.439753532409667969e-01 9.323383569717407227e-01
4.953000000000000000e+03 3.705040740966796875e+01 -1.843001556396484375e+01 1.573631763458251953e+00 2.233371257781982422e+00 1.142100930213928223e+00 -1.599109321832656860e-01
4.954000000000000000e+03 6.579395294189453125e+01 -1.864410781860351562e+01 4.131990075111389160e-01 3.487080574035644531e+00 1.170083880424499512e+00 -1.020276427268981934e+00
4.955000000000000000e+03 6.537718200683593750e+01 -1.810834121704101562e+01 2.871283590793609619e-01 3.624066114425659180e+00 1.173358321189880371e+00 -1.181744694709777832e+00
4.956000000000000000e+03 4.985437011718750000e+01 3.030700206756591797e+00 3.246229887008666992e+00 6.361755371093750000e+00 2.882395505905151367e+00 1.824988365173339844e+00
4.957000000000000000e+03 7.542163848876953125e+01 -7.779289722442626953e+00 2.467711567878723145e-01 8.420381546020507812e+00 2.600145816802978516e+00 1.525478005409240723e+00
4.958000000000000000e+03 5.522757339477539062e+01 -3.039227724075317383e+00 -2.119786977767944336e+00 6.090405464172363281e+00 1.191185593605041504e+00 -3.693783283233642578e+00
4.959000000000000000e+03 1.598062133789062500e+01 1.760727500915527344e+01 -1.212787151336669922e+00 -1.427967548370361328e-01 -4.066751599311828613e-01 -3.008680343627929688e-01
4.960000000000000000e+03 7.732659912109375000e+01 -6.201548576354980469e-01 -1.031241416931152344e+00 9.919505119323730469e+00 2.666479110717773438e+00 6.118031144142150879e-01
4.961000000000000000e+03 3.314181137084960938e+01 4.555208683013916016e+00 -1.750794649124145508e+00 8.670430183410644531e-01 -2.651254832744598389e-01 5.619379281997680664e-01
4.962000000000000000e+03 3.078834915161132812e+01 -1.316720199584960938e+01 6.836656928062438965e-01 3.329188108444213867e+00 1.203856110572814941e+00 -1.819718003273010254e+00
4.963000000000000000e+03 3.136694717407226562e+01 -1.249607658386230469e+01 9.169749617576599121e-01 3.003282308578491211e+00 1.176077246665954590e+00 -1.882075071334838867e+00
4.964000000000000000e+03 5.749144744873046875e+01 1.426413440704345703e+01 1.154756546020507812e+00 3.591478347778320312e+00 1.423870444297790527e+00 2.353346347808837891e+00
4.965000000000000000e+03 2.520299911499023438e+01 2.013143920898437500e+01 -1.953365087509155273e+00 4.262078762054443359e+00 6.926140785217285156e-01 -7.176338434219360352e-01
4.966000000000000000e+03 6.015591430664062500e+01 -5.724608302116394043e-01 -2.017569065093994141e+00 3.887697458267211914e+00 5.610385537147521973e-01 6.093669682741165161e-02
4.967000000000000000e+03 5.158262252807617188e+01 8.189205825328826904e-02 2.153201252222061157e-01 6.931142330169677734e+00 2.143938779830932617e+00 2.487202435731887817e-01
4.968000000000000000e+03 2.606186676025390625e+01 -1.071624994277954102e+00 1.794468998908996582e+00 4.404289722442626953e+00 1.859627604484558105e+00 -2.273506879806518555e+00
4.969000000000000000e+03 5.020386505126953125e+01 1.579466462135314941e-02 7.401900887489318848e-01 4.196578025817871094e+00 1.481030344963073730e+00 1.610937714576721191e+00
4.970000000000000000e+03 5.920167160034179688e+01 -1.019710063934326172e+01 3.306121528148651123e-01 8.532369613647460938e+00 2.658894538879394531e+00 9.712455272674560547e-01
4.971000000000000000e+03 6.058108901977539062e+01 -1.083119106292724609e+01 1.588759422302246094e-01 8.472225189208984375e+00 2.589330434799194336e+00 9.631425142288208008e-01
4.972000000000000000e+03 2.378971099853515625e+01 -1.267092347145080566e+00 9.198465347290039062e-01 8.338292121887207031e+00 2.777441740036010742e+00 -4.753765106201171875e+00
4.973000000000000000e+03 3.212767791748046875e+01 3.117917060852050781e+00 -2.150560140609741211e+00 1.857753753662109375e+00 -8.784193545579910278e-02 1.348725557327270508e+00
4.974000000000000000e+03 5.967723846435546875e+01 -1.647033309936523438e+01 1.237681031227111816e+00 8.248246192932128906e+00 2.845778226852416992e+00 -3.112061321735382080e-01
4.975000000000000000e+03 1.486899375915527344e+01 -8.428997039794921875e+00 -3.323193490505218506e-01 2.268236428499221802e-01 -3.164871037006378174e-02 -1.233872398734092712e-01
4.976000000000000000e+03 1.716430473327636719e+01 -9.793507575988769531e+00 -3.058378100395202637e-01 2.493874430656433105e-01 -1.693511568009853363e-02 -1.307871192693710327e-01
4.977000000000000000e+03 7.109354400634765625e+01 -2.630171775817871094e+00 -2.274312973022460938e+00 4.492594242095947266e+00 6.654843688011169434e-01 -2.054867744445800781e+00
4.978000000000000000e+03 3.567196846008300781e+00 4.906308650970458984e+00 7.565016150474548340e-01 -4.988735020160675049e-01 7.728843390941619873e-02 1.340311616659164429e-01
4.979000000000000000e+03 5.955929946899414062e+01 -9.668744087219238281e+00 3.269569873809814453e-01 8.507706642150878906e+00 2.650398969650268555e+00 1.006991386413574219e+00
4.980000000000000000e+03 6.003387832641601562e+01 -9.282003402709960938e+00 3.808243572711944580e-01 8.475204467773437500e+00 2.656808853149414062e+00 1.085559725761413574e+00
4.981000000000000000e+03 6.277601623535156250e+01 -8.670805096626281738e-01 -3.403322696685791016e+00 8.233893394470214844e+00 1.449171185493469238e+00 2.878787279129028320e+00
4.982000000000000000e+03 6.332534027099609375e+01 4.217380285263061523e-01 -3.012630224227905273e+00 6.005001544952392578e+00 8.977114558219909668e-01 3.814556837081909180e+00
4.983000000000000000e+03 6.874774932861328125e+01 1.200376510620117188e+01 2.339474201202392578e+00 8.194370269775390625e+00 3.160153388977050781e+00 1.507002830505371094e+00
4.984000000000000000e+03 7.000123596191406250e+01 1.294537162780761719e+01 2.071014165878295898e+00 6.090903282165527344e+00 2.448575258255004883e+00 1.610578417778015137e+00
4.985000000000000000e+03 6.640903949737548828e+00 8.666864395141601562e+00 2.851173579692840576e-01 1.390508890151977539e+00 5.026878714561462402e-01 -1.709213852882385254e+00
4.986000000000000000e+03 7.141070842742919922e+00 8.260972976684570312e+00 4.261144995689392090e-01 1.539194822311401367e+00 5.895928144454956055e-01 -1.874464631080627441e+00
4.987000000000000000e+03 5.280470848083496094e+00 2.864143943786621094e+01 1.649601012468338013e-02 1.149129748344421387e+00 3.496877253055572510e-01 1.738867014646530151e-01
4.988000000000000000e+03 7.455612182617187500e+01 -2.687378692626953125e+01 8.337890356779098511e-02 6.422194480895996094e+00 1.951671957969665527e+00 3.004308938980102539e-01
4.989000000000000000e+03 7.621642303466796875e+01 -1.570907878875732422e+01 3.304873406887054443e-01 8.103161811828613281e+00 2.530094623565673828e+00 -3.661523759365081787e-01
4.990000000000000000e+03 2.281487464904785156e+01 2.010691261291503906e+01 -9.854984879493713379e-01 1.525738954544067383e+00 1.620721668004989624e-01 -1.478154540061950684e+00
4.991000000000000000e+03 6.734156036376953125e+01 1.811079406738281250e+01 -1.664360016584396362e-01 7.139292240142822266e+00 2.091856956481933594e+00 -8.695462346076965332e-02
4.992000000000000000e+03 3.478993225097656250e+01 2.761694908142089844e+00 -5.034172534942626953e-01 7.732090353965759277e-02 -1.278288960456848145e-01 1.473102450370788574e+00
4.993000000000000000e+03 7.531614685058593750e+01 -2.702628707885742188e+01 4.946840181946754456e-02 6.547914981842041016e+00 1.979215025901794434e+00 2.562157511711120605e-01
4.994000000000000000e+03 3.446033096313476562e+01 -1.722039031982421875e+01 1.086258769035339355e+00 2.275639533996582031e+00 1.008569478988647461e+00 -1.058444738388061523e+00
4.995000000000000000e+03 6.086966323852539062e+01 -2.060169219970703125e+00 -4.776933789253234863e-01 6.195037364959716797e+00 1.715203166007995605e+00 1.755867600440979004e-01
4.996000000000000000e+03 1.222497820854187012e+00 -5.167819976806640625e+00 -4.385114647448062897e-03 -5.577749013900756836e-02 -1.804878003895282745e-02 -2.937804535031318665e-02
4.997000000000000000e+03 7.614179229736328125e+01 -1.674942207336425781e+01 -1.239322591572999954e-02 8.107950210571289062e+00 2.428667068481445312e+00 -4.528251588344573975e-01
4.998000000000000000e+03 3.536044836044311523e+00 -1.014075756072998047e+01 -1.469911169260740280e-02 -1.461920142173767090e-01 -4.826733842492103577e-02 -1.313422620296478271e-01
4.999000000000000000e+03 4.400145339965820312e+01 -1.673017120361328125e+01 7.901173830032348633e-01 3.917879581451416016e+00 1.412399053573608398e+00 -3.101642727851867676e-01
5.000000000000000000e+03 7.605091857910156250e+01 1.278044509887695312e+01 -1.239260658621788025e-01 6.971111297607421875e+00 2.054155588150024414e+00 -1.226111888885498047e+00
5.001000000000000000e+03 7.618135070800781250e+01 -2.122201347351074219e+01 -3.090377151966094971e-01 7.278226375579833984e+00 2.090756654739379883e+00 1.358059495687484741e-01
5.002000000000000000e+03 3.942045927047729492e+00 1.686451530456542969e+01 -2.520124614238739014e-01 1.303740501403808594e+00 3.155184090137481689e-01 -3.115434348583221436e-01
5.003000000000000000e+03 3.630647897720336914e+00 -1.173072528839111328e+01 -6.591954268515110016e-03 -1.850693225860595703e-01 -5.749838054180145264e-02 -1.415757238864898682e-01
5.004000000000000000e+03 2.869051170349121094e+01 -1.356807136535644531e+01 5.975652858614921570e-02 4.356480598449707031e+00 1.324871182441711426e+00 -1.387314200401306152e+00
5.005000000000000000e+03 7.104058837890625000e+01 -1.967702293395996094e+01 4.380681738257408142e-02 5.234821319580078125e+00 1.583588480949401855e+00 1.647672533988952637e+00
5.006000000000000000e+03 2.058246040344238281e+01 1.979380416870117188e+01 -6.971432566642761230e-01 1.226283758878707886e-01 -1.723544746637344360e-01 -8.616708517074584961e-01
5.007000000000000000e+03 5.387042617797851562e+01 1.711957550048828125e+01 -5.315864086151123047e-01 8.200651168823242188e+00 2.300719261169433594e+00 2.066242456436157227e+00
5.008000000000000000e+03 2.795965003967285156e+01 -1.384302616119384766e+01 -2.389290481805801392e-01 4.618811130523681641e+00 1.313964605331420898e+00 -1.133690834045410156e+00
5.009000000000000000e+03 2.796584892272949219e+01 -1.244642257690429688e+01 -1.171133220195770264e-01 5.283548355102539062e+00 1.549930572509765625e+00 -1.576092123985290527e+00
5.010000000000000000e+03 4.786528396606445312e+01 -1.813615036010742188e+01 -4.075171351432800293e-01 1.047867536544799805e+00 1.921051293611526489e-01 -4.185383319854736328e-01
5.011000000000000000e+03 7.141078948974609375e+01 2.512870788574218750e+01 -5.565843731164932251e-02 6.557549953460693359e+00 1.950567483901977539e+00 1.876642704010009766e-01
5.012000000000000000e+03 7.823215484619140625e+00 -2.762991333007812500e+01 4.500330239534378052e-02 3.257703408598899841e-02 2.327410131692886353e-02 -1.220966968685388565e-02
5.013000000000000000e+03 7.387970733642578125e+01 2.449907302856445312e+01 -2.161090448498725891e-02 6.688754081726074219e+00 2.000143051147460938e+00 2.173711657524108887e-01
5.014000000000000000e+03 6.220075225830078125e+01 -5.352247357368469238e-01 -2.883124828338623047e+00 6.930540084838867188e+00 1.214224576950073242e+00 2.123895406723022461e+00
5.015000000000000000e+03 8.966237068176269531e+00 1.277146625518798828e+01 -1.088351488113403320e+00 1.224623799324035645e+00 4.088171198964118958e-02 -6.323605775833129883e-01
5.016000000000000000e+03 7.246553039550781250e+01 1.405525207519531250e+01 1.646499752998352051e+00 4.987465381622314453e+00 1.990189552307128906e+00 1.417971551418304443e-01
5.017000000000000000e+03 4.745067977905273438e+01 -1.738526535034179688e+01 -4.377223849296569824e-01 1.117487311363220215e+00 2.039294838905334473e-01 -2.585469186305999756e-01
5.018000000000000000e+03 6.002300262451171875e+01 -1.490227127075195312e+01 6.912165880203247070e-01 8.274489402770996094e+00 2.689711809158325195e+00 5.189304426312446594e-02
5.019000000000000000e+03 2.136211395263671875e+01 -1.428617000579833984e+01 4.115839302539825439e-01 1.434489130973815918e+00 5.538219213485717773e-01 6.528605222702026367e-01
5.020000000000000000e+03 7.390157318115234375e+01 -4.402956962585449219e+00 -6.689717769622802734e-01 6.292831420898437500e+00 1.687157869338989258e+00 2.888204455375671387e-01
5.021000000000000000e+03 3.875717163085937500e+01 1.701911735534667969e+01 -1.636468291282653809e+00 3.687359392642974854e-01 -3.803197145462036133e-01 -2.338672876358032227e-01
5.022000000000000000e+03 6.664554595947265625e+00 5.315033435821533203e+00 2.681016683578491211e+00 -2.051446586847305298e-01 7.427616119384765625e-01 -7.881863117218017578e-01
5.023000000000000000e+03 5.524968338012695312e+01 -4.710620880126953125e+00 -1.671715378761291504e+00 5.782659053802490234e+00 1.233283162117004395e+00 -2.193900108337402344e+00
5.024000000000000000e+03 5.795505142211914062e+01 -2.319633483886718750e+01 -7.921801805496215820e-01 6.281383991241455078e+00 1.646761178970336914e+00 4.608538448810577393e-01
5.025000000000000000e+03 5.828365707397460938e+01 -2.239677238464355469e+01 -8.244121074676513672e-01 6.998615264892578125e+00 1.852261066436767578e+00 3.198285996913909912e-01
5.026000000000000000e+03 6.515219116210937500e+01 1.352634429931640625e+00 -1.066808581352233887e+00 5.123622894287109375e+00 1.217044353485107422e+00 3.252226114273071289e+00
5.027000000000000000e+03 6.525163269042968750e+01 6.938494443893432617e-01 -1.237450242042541504e+00 4.537137031555175781e+00 9.899060726165771484e-01 3.530249357223510742e+00
5.028000000000000000e+03 2.747808837890625000e+01 -1.446968460083007812e+01 -3.665898442268371582e-01 4.498406410217285156e+00 1.239544987678527832e+00 -6.847574114799499512e-01
5.029000000000000000e+03 2.821186637878417969e+01 -1.457655620574951172e+01 -9.646715968847274780e-02 4.110669136047363281e+00 1.204260587692260742e+00 -9.527034163475036621e-01
5.030000000000000000e+03 5.564006042480468750e+01 -2.467570066452026367e+00 -1.798649191856384277e+00 5.653226852416992188e+00 1.156373262405395508e+00 -4.238421916961669922e+00
5.031000000000000000e+03 7.229807281494140625e+01 -2.252274274826049805e+00 -1.409016966819763184e+00 4.104314804077148438e+00 8.085892796516418457e-01 -1.909369230270385742e+00
5.032000000000000000e+03 4.885195159912109375e+01 2.380641996860504150e-01 1.529774427413940430e+00 2.833379268646240234e+00 1.308946132659912109e+00 3.050685882568359375e+00
5.033000000000000000e+03 5.015799045562744141e+00 5.023495674133300781e+00 1.460794210433959961e+00 -4.586067199707031250e-01 3.006562590599060059e-01 -1.143631190061569214e-01
5.034000000000000000e+03 7.482872009277343750e+01 -7.544045925140380859e+00 2.661880552768707275e-01 8.385556221008300781e+00 2.595523357391357422e+00 1.314792633056640625e+00
5.035000000000000000e+03 7.467539215087890625e+01 -6.580120563507080078e+00 -9.402778744697570801e-02 7.958171367645263672e+00 2.359243154525756836e+00 1.191163897514343262e+00
5.036000000000000000e+03 4.730306148529052734e+00 8.214305877685546875e+00 4.913155436515808105e-01 4.773568212985992432e-01 2.906017005443572998e-01 -1.228914976119995117e+00
5.037000000000000000e+03 1.247346687316894531e+01 1.454749584197998047e+01 -1.299034595489501953e+00 2.761209309101104736e-01 -3.068741261959075928e-01 -3.387758433818817139e-01
5.038000000000000000e+03 4.462001800537109375e+00 9.486688613891601562e+00 8.395343273878097534e-02 7.413171529769897461e-01 2.475811839103698730e-01 -1.221556782722473145e+00
5.039000000000000000e+03 5.878773117065429688e+01 -3.483732461929321289e+00 6.074842214584350586e-01 5.080154418945312500e+00 1.706291556358337402e+00 -1.439798355102539062e+00
5.040000000000000000e+03 5.452083110809326172e+00 1.211650562286376953e+01 -4.823389351367950439e-01 1.250033259391784668e+00 2.303083091974258423e-01 -1.022222876548767090e+00
5.041000000000000000e+03 7.459339141845703125e+01 -3.095334768295288086e+00 -5.591956377029418945e-01 5.797353744506835938e+00 1.571447372436523438e+00 5.253735780715942383e-01
5.042000000000000000e+03 7.540611267089843750e+01 -2.036152648925781250e+01 -4.976102113723754883e-01 7.439566612243652344e+00 2.082587003707885742e+00 2.498339712619781494e-01
5.043000000000000000e+03 4.739591121673583984e+00 6.782382488250732422e+00 1.124571204185485840e+00 1.151909492909908295e-02 3.408270776271820068e-01 -8.787579536437988281e-01
5.044000000000000000e+03 1.659682846069335938e+01 1.808531951904296875e+01 -1.145384669303894043e+00 -1.309598833322525024e-01 -3.829033672809600830e-01 -3.129011094570159912e-01
5.045000000000000000e+03 7.528519439697265625e+01 -1.877528953552246094e+01 -5.694617629051208496e-01 7.960494041442871094e+00 2.217309713363647461e+00 4.752665385603904724e-02
5.046000000000000000e+03 4.339779376983642578e+00 1.288034725189208984e+01 -3.393183350563049316e-01 1.120091915130615234e+00 2.342320829629898071e-01 -8.439083695411682129e-01
5.047000000000000000e+03 1.317156219482421875e+01 -6.368083953857421875e+00 -2.898549437522888184e-01 1.517952382564544678e-01 -4.141791537404060364e-02 -5.531857535243034363e-02
5.048000000000000000e+03 1.411247634887695312e+01 -7.450059413909912109e+00 -3.202188611030578613e-01 1.788096874952316284e-01 -4.242275282740592957e-02 -7.648467272520065308e-02
5.049000000000000000e+03 2.977323150634765625e+01 -1.198417663574218750e+01 7.462569475173950195e-01 3.987220287322998047e+00 1.420043230056762695e+00 -2.089338779449462891e+00
5.050000000000000000e+03 2.920009803771972656e+01 -1.131776905059814453e+01 7.060683369636535645e-01 4.664403915405273438e+00 1.611141562461853027e+00 -2.363537073135375977e+00
5.051000000000000000e+03 7.422201538085937500e+01 -2.769598007202148438e+01 9.677496552467346191e-02 6.324945449829101562e+00 1.926516175270080566e+00 2.694900035858154297e-01
5.052000000000000000e+03 4.087127304077148438e+01 -4.264285564422607422e+00 1.841293573379516602e+00 1.558541417121887207e+00 1.019950509071350098e+00 3.595021665096282959e-01
5.053000000000000000e+03 4.645133018493652344e+00 1.657099342346191406e+01 -3.404136002063751221e-01 1.267111539840698242e+00 2.780093550682067871e-01 -3.611662387847900391e-01
5.054000000000000000e+03 5.254016876220703125e+01 2.031623458862304688e+01 -1.325004577636718750e+00 6.609964370727539062e+00 1.585487961769104004e+00 -7.780679967254400253e-03
5.055000000000000000e+03 5.370599746704101562e+01 2.044068908691406250e+01 -1.053341388702392578e+00 6.494185447692871094e+00 1.632253170013427734e+00 6.373064517974853516e-01
5.056000000000000000e+03 5.860150527954101562e+01 -8.911300659179687500e+00 3.629775643348693848e-01 8.139266014099121094e+00 2.550673007965087891e+00 7.388199567794799805e-01
5.057000000000000000e+03 5.062754631042480469e+00 2.748195457458496094e+01 1.659644840401597321e-05 1.176141977310180664e+00 3.528475761413574219e-01 1.715939491987228394e-01
5.058000000000000000e+03 5.360105991363525391e+00 -6.099857330322265625e+00 -5.669188499450683594e-02 -2.846025675535202026e-02 -2.554564364254474640e-02 -1.105525344610214233e-01
5.059000000000000000e+03 4.795912551879882812e+01 -2.510415613651275635e-01 5.119954943656921387e-01 2.370652675628662109e+00 8.647944331169128418e-01 3.957276821136474609e+00
5.060000000000000000e+03 4.024604034423828125e+01 -2.154580307006835938e+01 2.330697476863861084e-01 4.011491775512695312e+00 1.273368477821350098e+00 -6.440913677215576172e-02
5.061000000000000000e+03 5.654875564575195312e+01 -6.466951847076416016e+00 -3.324876129627227783e-01 6.275483608245849609e+00 1.782898783683776855e+00 -9.132148623466491699e-01
5.062000000000000000e+03 5.612901687622070312e+01 -6.472835063934326172e+00 -5.410609841346740723e-01 6.083923339843750000e+00 1.662858724594116211e+00 -1.048771023750305176e+00
5.063000000000000000e+03 8.758872032165527344e+00 9.789631843566894531e+00 -8.050092458724975586e-01 1.909824848175048828e+00 3.314446806907653809e-01 -1.158639073371887207e+00
5.064000000000000000e+03 2.295835876464843750e+01 -1.463193225860595703e+01 2.008441984653472900e-01 2.361648797988891602e+00 7.687479257583618164e-01 8.475837111473083496e-01
5.065000000000000000e+03 6.433440399169921875e+01 2.190269947052001953e+00 -1.081724047660827637e+00 5.041024684906005859e+00 1.187790274620056152e+00 2.854717016220092773e+00
5.066000000000000000e+03 6.839211273193359375e+01 1.290479183197021484e+01 2.266805410385131836e+00 8.771759033203125000e+00 3.311569213867187500e+00 1.738073587417602539e+00
5.067000000000000000e+03 7.597658538818359375e+01 1.476930999755859375e+01 3.800675570964813232e-01 6.408358573913574219e+00 2.036527872085571289e+00 -7.033176422119140625e-01
5.068000000000000000e+03 1.343968677520751953e+01 1.782509803771972656e+01 -9.879264831542968750e-01 2.145351469516754150e-01 -2.320174127817153931e-01 -1.156052201986312866e-01
5.069000000000000000e+03 7.612087249755859375e+01 -6.679578781127929688e+00 -8.784774690866470337e-03 8.400815963745117188e+00 2.517609357833862305e+00 1.623975992202758789e+00
5.070000000000000000e+03 5.849383544921875000e+01 -2.247926950454711914e+00 2.666787058115005493e-02 3.810778141021728516e+00 1.151233792304992676e+00 -2.130854368209838867e+00
5.071000000000000000e+03 5.983863067626953125e+01 -1.950782179832458496e+00 -3.679008781909942627e-01 4.637544155120849609e+00 1.280892968177795410e+00 -5.397544503211975098e-01
5.072000000000000000e+03 5.113634872436523438e+01 -3.251087069511413574e-01 -3.247689306735992432e-01 5.716524600982666016e+00 1.617526769638061523e+00 5.538764595985412598e-01
5.073000000000000000e+03 7.482844543457031250e+01 -2.558462905883789062e+01 3.138462826609611511e-02 6.524586677551269531e+00 1.966791391372680664e+00 3.425859808921813965e-01
5.074000000000000000e+03 6.432522583007812500e+01 1.924531555175781250e+01 3.790639340877532959e-01 5.408195018768310547e+00 1.736177682876586914e+00 -6.192618608474731445e-01
5.075000000000000000e+03 9.517574310302734375e+00 -5.015530586242675781e+00 -1.529681533575057983e-01 6.113619357347488403e-02 -2.754958719015121460e-02 -8.194346725940704346e-02
5.076000000000000000e+03 5.578594207763671875e+01 -3.404263257980346680e+00 -1.571529507637023926e+00 5.644263267517089844e+00 1.221820116043090820e+00 -3.339437007904052734e+00
5.077000000000000000e+03 5.635366439819335938e+01 -3.521900892257690430e+00 -1.054032206535339355e+00 5.326586723327636719e+00 1.281766295433044434e+00 -3.069565534591674805e+00
5.078000000000000000e+03 6.648997306823730469e+00 -5.846282005310058594e+00 -8.370075374841690063e-02 2.902942243963479996e-03 -2.423934265971183777e-02 -1.129121109843254089e-01
5.079000000000000000e+03 1.437766551971435547e+01 -8.311011314392089844e+00 -2.981470823287963867e-01 2.063196450471878052e-01 -2.754822559654712677e-02 -1.209166422486305237e-01
5.080000000000000000e+03 6.577630615234375000e+01 1.659849882125854492e+00 -4.168744981288909912e-01 5.432799339294433594e+00 1.504777550697326660e+00 2.718695402145385742e+00
5.081000000000000000e+03 7.506963348388671875e+01 -1.694026184082031250e+01 -2.078940570354461670e-01 8.560730934143066406e+00 2.505851030349731445e+00 -2.775325477123260498e-01
5.082000000000000000e+03 7.545822906494140625e+01 -1.802524566650390625e+01 -3.910797834396362305e-01 8.158256530761718750e+00 2.330152988433837891e+00 -1.748477816581726074e-01
5.083000000000000000e+03 2.497372627258300781e+01 2.213273048400878906e+01 -1.296274662017822266e+00 2.692067861557006836e+00 4.187380075454711914e-01 -4.895254075527191162e-01
5.084000000000000000e+03 3.540885162353515625e+01 1.862661552429199219e+01 -6.680446267127990723e-01 -4.358917176723480225e-01 -3.311809003353118896e-01 1.807610094547271729e-01
5.085000000000000000e+03 3.656326675415039062e+01 1.747401237487792969e+01 -1.354273915290832520e+00 -2.852768003940582275e-01 -4.918651878833770752e-01 -1.859500408172607422e-01
5.086000000000000000e+03 6.273460769653320312e+01 -1.704599189758300781e+01 3.361565172672271729e-01 5.614504814147949219e+00 1.785198450088500977e+00 -1.176801800727844238e+00
5.087000000000000000e+03 6.409512329101562500e+01 -1.815428161621093750e+01 2.708703577518463135e-01 4.520343303680419922e+00 1.437364101409912109e+00 -1.293930530548095703e+00
5.088000000000000000e+03 7.364186859130859375e+01 -1.929925918579101562e+01 -7.032217383384704590e-01 7.466226100921630859e+00 2.028901338577270508e+00 8.070023059844970703e-01
5.089000000000000000e+03 5.927801132202148438e+01 -8.015537261962890625e+00 5.953414440155029297e-01 7.937493324279785156e+00 2.559850454330444336e+00 7.973844408988952637e-01
5.090000000000000000e+03 2.619743347167968750e+01 -1.478111553192138672e+01 -4.544722735881805420e-01 4.268035411834716797e+00 1.144068837165832520e+00 -4.250113293528556824e-02
5.091000000000000000e+03 2.995238494873046875e+01 -1.479354000091552734e+01 2.015285640954971313e-01 3.657825469970703125e+00 1.157806277275085449e+00 -1.393220067024230957e+00
5.092000000000000000e+03 3.089185905456542969e+01 -1.631400489807128906e+01 3.567062616348266602e-01 3.162699460983276367e+00 1.055821776390075684e+00 -1.180233597755432129e+00
5.093000000000000000e+03 5.519303894042968750e+01 1.599869155883789062e+01 6.004992723464965820e-01 6.752427101135253906e+00 2.205878019332885742e+00 2.877920389175415039e+00
5.094000000000000000e+03 6.180451869964599609e+00 9.183169364929199219e+00 8.774789422750473022e-02 1.194309949874877930e+00 3.846173584461212158e-01 -1.530795693397521973e+00
5.095000000000000000e+03 1.229863643646240234e+01 1.591098785400390625e+01 -1.162979841232299805e+00 3.679533898830413818e-01 -2.385079264640808105e-01 -2.141399979591369629e-01
5.096000000000000000e+03 6.592693328857421875e+01 -1.969955444335937500e+01 6.499139666557312012e-01 3.594363689422607422e+00 1.273283362388610840e+00 -8.859594464302062988e-01
5.097000000000000000e+03 1.866671371459960938e+01 2.136964797973632812e+01 -5.145764946937561035e-01 2.013709992170333862e-01 -9.396165609359741211e-02 -4.925748407840728760e-01
5.098000000000000000e+03 1.730656051635742188e+01 1.845927810668945312e+01 -1.116729140281677246e+00 -1.884980201721191406e-01 -3.915681540966033936e-01 -3.489831089973449707e-01
5.099000000000000000e+03 7.876730442047119141e+00 1.035328102111816406e+01 -7.143024802207946777e-01 1.717740058898925781e+00 3.010312616825103760e-01 -1.241431832313537598e+00
5.100000000000000000e+03 3.009747695922851562e+01 1.751878547668457031e+01 1.432020589709281921e-02 1.232524633407592773e+00 3.740534484386444092e-01 2.071139812469482422e+00
5.101000000000000000e+03 2.884531402587890625e+01 1.753405189514160156e+01 -8.496996015310287476e-02 2.975279808044433594e+00 8.670929074287414551e-01 2.554311275482177734e+00
5.102000000000000000e+03 2.993251609802246094e+01 1.670183944702148438e+01 2.696398794651031494e-01 1.157803654670715332e+00 4.282330870628356934e-01 1.930450201034545898e+00
5.103000000000000000e+03 3.087519645690917969e+01 1.762439346313476562e+01 -1.144702881574630737e-01 5.771433115005493164e-01 1.388019025325775146e-01 1.715358853340148926e+00
5.104000000000000000e+03 6.132072448730468750e+01 -1.405794334411621094e+01 2.718978375196456909e-02 7.423305988311767578e+00 2.235148668289184570e+00 1.882455311715602875e-02
5.105000000000000000e+03 7.500998687744140625e+01 -5.888998031616210938e+00 -2.098626643419265747e-01 7.641495227813720703e+00 2.229489803314208984e+00 1.253721475601196289e+00
5.106000000000000000e+03 3.853683710098266602e+00 1.806181526184082031e+01 -1.923044621944427490e-01 1.342252492904663086e+00 3.449844419956207275e-01 -1.948718428611755371e-01
5.107000000000000000e+03 3.078709602355957031e+01 -1.467791080474853516e+01 4.330213665962219238e-01 3.339689493179321289e+00 1.131813287734985352e+00 -1.502650141716003418e+00
5.108000000000000000e+03 4.029783725738525391e+00 -7.918654441833496094e+00 -2.996944636106491089e-02 -8.234471082687377930e-02 -3.369424864649772644e-02 -1.201380640268325806e-01
5.109000000000000000e+03 6.105244159698486328e+00 -6.578259944915771484e+00 -7.110276073217391968e-02 -1.278069242835044861e-02 -2.516503632068634033e-02 -1.246699094772338867e-01
5.110000000000000000e+03 4.043338394165039062e+01 -4.889562129974365234e+00 1.595250248908996582e+00 6.277874708175659180e-01 6.669113039970397949e-01 5.394858121871948242e-01
5.111000000000000000e+03 6.782754516601562500e+01 1.164880466461181641e+01 2.771443605422973633e+00 1.006254196166992188e+01 3.850195646286010742e+00 1.109082341194152832e+00
5.112000000000000000e+03 1.897763061523437500e+01 -1.183415508270263672e+01 1.540091931819915771e-01 4.016014039516448975e-01 1.666831821203231812e-01 6.973484903573989868e-02
5.113000000000000000e+03 3.907019138336181641e+00 2.139254188537597656e+01 -1.000140607357025146e-01 1.373313903808593750e+00 3.819899559020996094e-01 3.426683694124221802e-02
5.114000000000000000e+03 4.467802524566650391e+00 2.188013076782226562e+01 -1.184889227151870728e-01 1.290876865386962891e+00 3.517163991928100586e-01 6.073515489697456360e-02
5.115000000000000000e+03 5.275318622589111328e+00 2.035616683959960938e+01 -2.160930335521697998e-01 1.218507647514343262e+00 3.007243573665618896e-01 -1.621346920728683472e-02
5.116000000000000000e+03 6.477537155151367188e+00 6.402265071868896484e+00 2.006267786026000977e+00 3.555710911750793457e-01 7.085516452789306641e-01 -1.414448142051696777e+00
5.117000000000000000e+03 7.124200344085693359e+00 6.133645534515380859e+00 2.800319433212280273e+00 4.696375131607055664e-01 9.809870719909667969e-01 -1.698001265525817871e+00
5.118000000000000000e+03 6.307580184936523438e+01 -1.624839782714843750e+01 5.506940931081771851e-02 5.486064434051513672e+00 1.662340164184570312e+00 -9.547512531280517578e-01
5.119000000000000000e+03 6.413665008544921875e+01 -1.607380485534667969e+01 -1.797381192445755005e-01 4.525508403778076172e+00 1.303731083869934082e+00 -1.011533737182617188e+00
5.120000000000000000e+03 5.713717269897460938e+01 1.488967990875244141e+01 1.167617559432983398e+00 4.131021022796630859e+00 1.589591622352600098e+00 2.589368820190429688e+00
5.121000000000000000e+03 4.716285228729248047e+00 2.500921249389648438e+01 -3.552414476871490479e-02 1.241041064262390137e+00 3.616550862789154053e-01 1.507179588079452515e-01
5.122000000000000000e+03 5.767454147338867188e+01 1.529544639587402344e+01 1.132482886314392090e+00 3.768247127532958984e+00 1.470219016075134277e+00 2.420774698257446289e+00
5.123000000000000000e+03 1.950738525390625000e+01 -1.391368198394775391e+01 4.295865893363952637e-01 8.005237579345703125e-01 3.690331280231475830e-01 3.424046039581298828e-01
5.124000000000000000e+03 5.024363994598388672e+00 -9.378293991088867188e+00 -3.262953832745552063e-02 -8.017828315496444702e-02 -3.384234756231307983e-02 -1.557684689760208130e-01
5.125000000000000000e+03 6.013597488403320312e+01 -1.583837604522705078e+01 7.838669419288635254e-01 7.891139030456542969e+00 2.602501869201660156e+00 -2.982767820358276367e-01
5.126000000000000000e+03 6.045855712890625000e+01 -1.524485015869140625e+01 7.177926898002624512e-01 7.787272453308105469e+00 2.551519632339477539e+00 -1.369516998529434204e-01
5.127000000000000000e+03 2.934613800048828125e+01 1.819022560119628906e+01 -3.223026692867279053e-01 2.407935380935668945e+00 6.256898045539855957e-01 2.340226173400878906e+00
5.128000000000000000e+03 4.902766227722167969e+00 -2.339364242553710938e+01 3.543306887149810791e-02 -2.911199629306793213e-01 -7.670606672763824463e-02 -5.662852898240089417e-02
5.129000000000000000e+03 7.448898315429687500e+01 -4.672112941741943359e+00 -4.185329377651214600e-01 6.864240169525146484e+00 1.933712124824523926e+00 8.414599895477294922e-01
5.130000000000000000e+03 6.325521469116210938e+01 1.303483963012695312e+00 -2.613575458526611328e+00 5.235073089599609375e+00 7.864493727684020996e-01 3.215906143188476562e+00
5.131000000000000000e+03 5.567965698242187500e+01 1.474702835083007812e+01 1.251104235649108887e+00 6.084244251251220703e+00 2.200604438781738281e+00 2.975818157196044922e+00
5.132000000000000000e+03 5.622148895263671875e+01 1.355184555053710938e+01 1.559881925582885742e+00 5.091892242431640625e+00 1.995532274246215820e+00 2.637198209762573242e+00
5.133000000000000000e+03 6.101951980590820312e+01 -1.546610832214355469e+01 4.700834155082702637e-01 7.269786357879638672e+00 2.321960926055908203e+00 -3.654868900775909424e-01
5.134000000000000000e+03 7.515830993652343750e+01 1.749982833862304688e+01 4.632652997970581055e-01 6.362017154693603516e+00 2.047584772109985352e+00 -4.367329180240631104e-02
5.135000000000000000e+03 7.369274902343750000e+01 -5.456288814544677734e+00 -4.999980628490447998e-01 6.901414871215820312e+00 1.920425057411193848e+00 4.115147888660430908e-01
5.136000000000000000e+03 2.115814781188964844e+01 2.105230712890625000e+01 -5.827360749244689941e-01 5.745373368263244629e-01 -2.459616633132100105e-03 -9.191039204597473145e-01
5.137000000000000000e+03 5.873874664306640625e+01 -8.104714393615722656e+00 4.760050177574157715e-01 7.860433578491210938e+00 2.500931739807128906e+00 6.659022569656372070e-01
5.138000000000000000e+03 5.730377197265625000e+01 -7.923940658569335938e+00 1.288540959358215332e-01 7.212294578552246094e+00 2.202344655990600586e+00 -1.189449205994606018e-01
5.139000000000000000e+03 4.643232727050781250e+01 2.080349349975585938e+01 -3.888396620750427246e-01 2.334176540374755859e+00 5.836010575294494629e-01 -1.267147064208984375e+00
5.140000000000000000e+03 1.630855178833007812e+01 -9.650953292846679688e+00 -2.879116833209991455e-01 2.533918321132659912e-01 -1.035595685243606567e-02 -1.505507975816726685e-01
5.141000000000000000e+03 1.660689735412597656e+01 -1.020456409454345703e+01 -2.372355014085769653e-01 2.680970430374145508e-01 9.258465841412544250e-03 -1.474823355674743652e-01
5.142000000000000000e+03 6.967045593261718750e+01 -2.178758621215820312e+01 6.020042896270751953e-01 4.620410442352294922e+00 1.566724419593811035e+00 7.080366015434265137e-01
5.143000000000000000e+03 2.199399757385253906e+01 -1.413200378417968750e+00 2.286037445068359375e+00 7.275513172149658203e+00 2.868465185165405273e+00 -4.486609458923339844e+00
5.144000000000000000e+03 6.389171981811523438e+01 1.737072169780731201e-01 -2.421539545059204102e+00 5.496407985687255859e+00 9.224605560302734375e-01 4.373792648315429688e+00
5.145000000000000000e+03 5.187007522583007812e+01 1.991847229003906250e+01 -1.543985843658447266e+00 6.808836460113525391e+00 1.579455256462097168e+00 -4.468852579593658447e-01
5.146000000000000000e+03 6.836093902587890625e+01 1.739670944213867188e+01 -1.908848644234240055e-03 7.355055332183837891e+00 2.205944061279296875e+00 4.179030656814575195e-01
5.147000000000000000e+03 3.242114639282226562e+01 -1.746707344055175781e+01 5.506270527839660645e-01 2.770839929580688477e+00 9.964401125907897949e-01 -1.076428294181823730e+00
5.148000000000000000e+03 4.413082122802734375e+00 2.638995742797851562e+01 -9.803449735045433044e-03 1.252676606178283691e+00 3.728619515895843506e-01 1.558103114366531372e-01
5.149000000000000000e+03 3.803201198577880859e+00 2.530627250671386719e+01 -1.698452979326248169e-02 1.332433819770812988e+00 3.946347832679748535e-01 1.398841738700866699e-01
5.150000000000000000e+03 5.628248596191406250e+01 -4.177500247955322266e+00 -9.599587321281433105e-01 5.532386302947998047e+00 1.371728301048278809e+00 -2.526646614074707031e+00
5.151000000000000000e+03 7.498252105712890625e+01 1.637477111816406250e+01 6.139140725135803223e-01 6.188352584838867188e+00 2.040680170059204102e+00 -2.111112177371978760e-01
5.152000000000000000e+03 7.668730163574218750e+01 1.647031211853027344e+01 2.722581923007965088e-01 6.573383808135986328e+00 2.053692579269409180e+00 -2.642529904842376709e-01
5.153000000000000000e+03 7.492844390869140625e+01 -3.795801639556884766e+00 -4.338368475437164307e-01 6.621567726135253906e+00 1.856319308280944824e+00 8.675622344017028809e-01
5.154000000000000000e+03 4.372577285766601562e+01 -2.058054351806640625e+01 8.617028594017028809e-02 3.739995002746582031e+00 1.147849559783935547e+00 -8.988100886344909668e-01
5.155000000000000000e+03 5.072948837280273438e+01 -2.402745246887207031e+01 6.438163518905639648e-01 2.030039072036743164e+00 8.021566867828369141e-01 2.167953550815582275e-01
5.156000000000000000e+03 6.380392456054687500e+01 1.708160161972045898e+00 -1.675693988800048828e+00 4.962944984436035156e+00 9.861752390861511230e-01 3.065862178802490234e+00
5.157000000000000000e+03 6.407520294189453125e+01 1.240226030349731445e+00 -1.913488149642944336e+00 5.118451595306396484e+00 9.614889621734619141e-01 3.588669300079345703e+00
5.158000000000000000e+03 8.204294204711914062e+00 -5.741247177124023438e+00 -1.200438886880874634e-01 3.838915750384330750e-02 -2.449641749262809753e-02 -1.096109747886657715e-01
5.159000000000000000e+03 6.278287124633789062e+01 1.883767890930175781e+01 8.996334075927734375e-01 4.240293502807617188e+00 1.541978120803833008e+00 -3.647176027297973633e-01
5.160000000000000000e+03 4.297088241577148438e+01 1.787723159790039062e+01 -1.125668168067932129e+00 8.455104231834411621e-01 -8.404733240604400635e-02 -2.660666704177856445e-01
5.161000000000000000e+03 4.390500068664550781e+00 -1.402249526977539062e+01 8.596656844019889832e-03 -2.030512094497680664e-01 -5.833636596798896790e-02 -1.593371629714965820e-01
5.162000000000000000e+03 5.750719070434570312e+01 -2.930754423141479492e+00 -2.309682220220565796e-01 4.553066730499267578e+00 1.296629548072814941e+00 -2.759636640548706055e+00
5.163000000000000000e+03 3.874143600463867188e+01 1.641580772399902344e+01 -1.872163414955139160e+00 4.183909893035888672e-01 -4.361317455768585205e-01 -1.986914724111557007e-01
5.164000000000000000e+03 7.621640777587890625e+01 -9.822693824768066406e+00 6.548945903778076172e-01 8.511168479919433594e+00 2.749818801879882812e+00 1.276511430740356445e+00
5.165000000000000000e+03 5.635671234130859375e+01 -4.792719364166259766e+00 -8.395381569862365723e-01 5.758664608001708984e+00 1.475737929344177246e+00 -2.011919975280761719e+00
5.166000000000000000e+03 4.953448867797851562e+01 1.614831447601318359e+00 2.628864765167236328e+00 4.768663406372070312e+00 2.219258546829223633e+00 2.441313743591308594e+00
5.167000000000000000e+03 5.072120666503906250e+01 1.131633043289184570e+00 2.273834228515625000e+00 6.171339035034179688e+00 2.533551931381225586e+00 1.378027081489562988e+00
5.168000000000000000e+03 3.934512329101562500e+01 1.668236732482910156e+01 -1.719459533691406250e+00 5.437457561492919922e-01 -3.527141511440277100e-01 -1.650584787130355835e-01
5.169000000000000000e+03 7.418909454345703125e+01 2.328623771667480469e+01 1.713508181273937225e-02 6.701542377471923828e+00 2.015603303909301758e+00 2.303853482007980347e-01
5.170000000000000000e+03 4.933235549926757812e+01 2.160162448883056641e+00 2.883460044860839844e+00 4.810104846954345703e+00 2.308069467544555664e+00 2.408340454101562500e+00
5.171000000000000000e+03 4.942511367797851562e+01 4.914338886737823486e-01 1.667207360267639160e+00 3.736355781555175781e+00 1.621068954467773438e+00 2.566745519638061523e+00
5.172000000000000000e+03 7.450563430786132812e+00 9.612404823303222656e+00 -4.032672643661499023e-01 1.715005397796630859e+00 3.935214579105377197e-01 -1.481947302818298340e+00
5.173000000000000000e+03 5.968699264526367188e+01 -1.945948600769042969e+01 4.140137732028961182e-01 7.350267887115478516e+00 2.329284429550170898e+00 -1.149248719215393066e+00
5.174000000000000000e+03 6.044347381591796875e+01 -1.983987808227539062e+01 1.160732954740524292e-01 7.041760921478271484e+00 2.147350311279296875e+00 -1.146235823631286621e+00
5.175000000000000000e+03 4.920884323120117188e+01 -2.032490921020507812e+01 -6.554902344942092896e-02 9.024132490158081055e-01 2.510592639446258545e-01 -4.738302230834960938e-01
5.176000000000000000e+03 5.043039703369140625e+01 2.542555332183837891e+00 3.373103618621826172e+00 6.705498695373535156e+00 3.023580789566040039e+00 1.461827516555786133e+00
5.177000000000000000e+03 7.439800262451171875e+01 2.212815666198730469e+01 6.479717791080474854e-02 6.671071529388427734e+00 2.020760536193847656e+00 2.193795889616012573e-01
5.178000000000000000e+03 1.056192684173583984e+01 1.368725299835205078e+01 -1.167159199714660645e+00 8.355090618133544922e-01 -9.949503839015960693e-02 -3.966574668884277344e-01
5.179000000000000000e+03 1.079917144775390625e+01 1.336068916320800781e+01 -1.225246906280517578e+00 7.267460823059082031e-01 -1.495502293109893799e-01 -4.419455528259277344e-01
5.180000000000000000e+03 6.982495117187500000e+01 1.671481132507324219e+01 5.418079495429992676e-01 6.904834747314453125e+00 2.233992815017700195e+00 8.120921254158020020e-01
5.181000000000000000e+03 6.835005187988281250e+01 1.669697761535644531e+01 8.824465423822402954e-02 7.685076236724853516e+00 2.331996202468872070e+00 5.386179685592651367e-01
5.182000000000000000e+03 4.646316909790039062e+01 -1.649848175048828125e+01 -1.873613148927688599e-01 1.692737460136413574e+00 4.516128301620483398e-01 -1.851326823234558105e-01
5.183000000000000000e+03 3.243774795532226562e+01 1.917907333374023438e+01 -2.821939587593078613e-01 1.646061688661575317e-01 -3.527634218335151672e-02 1.255071640014648438e+00
5.184000000000000000e+03 3.642318248748779297e+00 2.633786964416503906e+01 -9.747532196342945099e-03 1.331073760986328125e+00 3.963978588581085205e-01 1.480563730001449585e-01
5.185000000000000000e+03 5.832648849487304688e+01 1.676096343994140625e+01 9.904285073280334473e-01 3.861942291259765625e+00 1.455711245536804199e+00 2.043932676315307617e+00
5.186000000000000000e+03 4.540641021728515625e+01 -1.654823875427246094e+01 2.357484847307205200e-01 2.613911867141723633e+00 8.548980951309204102e-01 -2.806903123855590820e-01
5.187000000000000000e+03 3.941560745239257812e+01 -2.064002418518066406e+01 4.788444936275482178e-01 3.859430313110351562e+00 1.301482439041137695e+00 2.619281113147735596e-01
5.188000000000000000e+03 3.079510498046875000e+01 -1.258367824554443359e+01 8.015031814575195312e-01 3.342953920364379883e+00 1.243337154388427734e+00 -1.912500262260437012e+00
5.189000000000000000e+03 3.012309455871582031e+01 -1.300828838348388672e+01 5.724466443061828613e-01 3.690568685531616211e+00 1.278904676437377930e+00 -1.836650967597961426e+00
5.190000000000000000e+03 6.690887451171875000e+01 -2.115945243835449219e+01 7.889230847358703613e-01 3.801828145980834961e+00 1.377225399017333984e+00 -3.890606760978698730e-01
5.191000000000000000e+03 7.093476104736328125e+01 1.423624134063720703e+01 1.715849399566650391e+00 5.692331790924072266e+00 2.222454309463500977e+00 1.043280363082885742e+00
5.192000000000000000e+03 7.471363830566406250e+01 -2.987621498107910156e+01 8.777979761362075806e-02 6.385166168212890625e+00 1.941883802413940430e+00 1.898984909057617188e-01
5.193000000000000000e+03 3.586672210693359375e+01 -1.850298118591308594e+01 1.307244896888732910e+00 2.291304826736450195e+00 1.079564929008483887e+00 -5.404011011123657227e-01
5.194000000000000000e+03 7.160769653320312500e+01 2.399421310424804688e+01 -4.610188305377960205e-02 6.599524497985839844e+00 1.966026782989501953e+00 2.058884948492050171e-01
5.195000000000000000e+03 5.548807525634765625e+01 -2.479677963256835938e+01 -1.605038195848464966e-01 4.458975791931152344e+00 1.289541482925415039e+00 1.165461897850036621e+00
5.196000000000000000e+03 6.753368377685546875e+00 2.750208282470703125e+01 -2.433556132018566132e-03 1.041258215904235840e+00 3.116473853588104248e-01 1.816177368164062500e-01
5.197000000000000000e+03 5.411348819732666016e+00 6.733411788940429688e+00 1.419867396354675293e+00 1.116467267274856567e-01 4.594542384147644043e-01 -1.119805097579956055e+00
5.198000000000000000e+03 5.328624248504638672e+00 8.156064987182617188e+00 5.811392664909362793e-01 6.817502975463867188e-01 3.788668811321258545e-01 -1.385417819023132324e+00
5.199000000000000000e+03 5.870138168334960938e+00 7.774252414703369141e+00 8.596535325050354004e-01 7.715561985969543457e-01 4.893629252910614014e-01 -1.540049314498901367e+00
5.200000000000000000e+03 5.911014175415039062e+01 -5.780228614807128906e+00 9.522755146026611328e-01 6.850987434387207031e+00 2.340978860855102539e+00 6.213049218058586121e-02
5.201000000000000000e+03 5.928255081176757812e+01 -7.440550327301025391e+00 7.106361389160156250e-01 7.828129291534423828e+00 2.561629533767700195e+00 7.335239052772521973e-01
5.202000000000000000e+03 6.461156463623046875e+01 1.288994669914245605e+00 -1.488255262374877930e+00 4.976656436920166016e+00 1.046520352363586426e+00 3.401221990585327148e+00
5.203000000000000000e+03 1.260104942321777344e+01 -6.285097599029541016e+00 -2.608446776866912842e-01 1.350919306278228760e-01 -3.772582858800888062e-02 -6.379690766334533691e-02
5.204000000000000000e+03 5.010721969604492188e+01 1.290395021438598633e+00 2.452552795410156250e+00 5.038923740386962891e+00 2.247442960739135742e+00 1.938677787780761719e+00
5.205000000000000000e+03 6.010302352905273438e+01 -1.146460247039794922e+01 1.106249466538429260e-01 8.588461875915527344e+00 2.609725952148437500e+00 9.250127673149108887e-01
5.206000000000000000e+03 6.610605621337890625e+01 -2.170172500610351562e+01 6.844658851623535156e-01 4.265049934387207031e+00 1.484854698181152344e+00 -6.135762929916381836e-01
5.207000000000000000e+03 6.803912353515625000e+01 -2.150465583801269531e+01 7.694524526596069336e-01 3.966015577316284180e+00 1.420640468597412109e+00 9.794543683528900146e-02
5.208000000000000000e+03 1.826223754882812500e+01 -1.175021171569824219e+01 1.333981305360794067e-01 3.224054872989654541e-01 1.367410868406295776e-01 -2.686795219779014587e-02
5.209000000000000000e+03 4.394723892211914062e+01 -1.936265945434570312e+01 2.652083635330200195e-01 3.778465747833251953e+00 1.213102221488952637e+00 -9.108455777168273926e-01
5.210000000000000000e+03 7.021486663818359375e+01 1.359069347381591797e+01 1.949159741401672363e+00 5.989053249359130859e+00 2.381464004516601562e+00 1.467199206352233887e+00
5.211000000000000000e+03 3.133595466613769531e+01 1.955749320983886719e+01 -2.929269373416900635e-01 8.604977130889892578e-01 1.702712327241897583e-01 1.648672461509704590e+00
5.212000000000000000e+03 7.306282806396484375e+01 -5.643189907073974609e+00 -6.351921558380126953e-01 6.627616405487060547e+00 1.797727227210998535e+00 5.760740488767623901e-02
5.213000000000000000e+03 3.963433837890625000e+01 -5.862462043762207031e+00 7.031502723693847656e-01 -3.611373901367187500e-01 1.026038601994514465e-01 9.124598503112792969e-01
5.214000000000000000e+03 7.090068817138671875e+01 1.506783962249755859e+01 1.303653240203857422e+00 6.098756790161132812e+00 2.220723152160644531e+00 1.004673838615417480e+00
5.215000000000000000e+03 7.089858245849609375e+01 1.599646091461181641e+01 9.858715534210205078e-01 6.404294013977050781e+00 2.217049598693847656e+00 8.683176040649414062e-01
5.216000000000000000e+03 3.067555046081542969e+01 1.858123970031738281e+01 -2.448782324790954590e-01 1.094773411750793457e+00 2.549685537815093994e-01 1.921725034713745117e+00
5.217000000000000000e+03 2.993916130065917969e+01 1.835367202758789062e+01 -2.594158649444580078e-01 1.718464970588684082e+00 4.377147555351257324e-01 1.988428115844726562e+00
5.218000000000000000e+03 6.911478424072265625e+01 1.848934555053710938e+01 4.963472858071327209e-02 6.983600616455078125e+00 2.109970569610595703e+00 3.962860107421875000e-01
5.219000000000000000e+03 7.383126831054687500e+01 1.475340175628662109e+01 1.095104455947875977e+00 5.545216560363769531e+00 1.992096304893493652e+00 -3.547329604625701904e-01
5.220000000000000000e+03 7.279177093505859375e+01 -4.305658817291259766e+00 -1.046162366867065430e+00 5.586380481719970703e+00 1.362065434455871582e+00 -5.115494132041931152e-01
5.221000000000000000e+03 7.239429473876953125e+01 -3.675445079803466797e+00 -1.298044204711914062e+00 5.048707485198974609e+00 1.125198960304260254e+00 -1.068065881729125977e+00
5.222000000000000000e+03 4.220805740356445312e+01 -2.233603096008300781e+01 -8.970391936600208282e-03 3.853418588638305664e+00 1.153334379196166992e+00 -5.981799364089965820e-01
5.223000000000000000e+03 5.801506805419921875e+01 -2.585004091262817383e+00 -3.545292839407920837e-02 4.142565250396728516e+00 1.232133746147155762e+00 -2.547684431076049805e+00
5.224000000000000000e+03 5.929587173461914062e+01 -3.731649398803710938e+00 9.038773775100708008e-01 5.680097103118896484e+00 1.975192427635192871e+00 -8.615138530731201172e-01
5.225000000000000000e+03 6.120702362060546875e+01 -1.476289939880371094e+01 3.069394230842590332e-01 7.351236820220947266e+00 2.297452926635742188e+00 -1.574137210845947266e-01
5.226000000000000000e+03 6.053210830688476562e+01 -1.396856689453125000e+01 3.422956168651580811e-01 8.078392028808593750e+00 2.526206254959106445e+00 2.961709499359130859e-01
5.227000000000000000e+03 4.747193336486816406e+00 6.193891525268554688e+00 1.238859176635742188e+00 -1.485966444015502930e-01 3.270787596702575684e-01 -6.882266998291015625e-01
5.228000000000000000e+03 5.970787048339843750e+00 6.886921882629394531e+00 1.525225877761840820e+00 4.592093229293823242e-01 5.953305363655090332e-01 -1.408883571624755859e+00
5.229000000000000000e+03 5.779132843017578125e+01 -5.451601505279541016e+00 2.333451658487319946e-01 6.177975654602050781e+00 1.923396229743957520e+00 -9.264168143272399902e-01
5.230000000000000000e+03 5.732160186767578125e+01 -4.935654640197753906e+00 -1.129940226674079895e-01 5.801119327545166016e+00 1.706437587738037109e+00 -1.511937379837036133e+00
5.231000000000000000e+03 5.909078216552734375e+01 -9.298863410949707031e+00 3.453441560268402100e-01 8.312172889709472656e+00 2.597254991531372070e+00 9.212444424629211426e-01
5.232000000000000000e+03 4.944436073303222656e+00 1.253729343414306641e+01 -4.197486340999603271e-01 1.177705287933349609e+00 2.273869961500167847e-01 -9.410295486450195312e-01
5.233000000000000000e+03 5.519002914428710938e+00 7.299839019775390625e+00 1.022822141647338867e+00 4.158311188220977783e-01 4.315959513187408447e-01 -1.333050608634948730e+00
5.234000000000000000e+03 5.736879348754882812e+01 -3.905651569366455078e+00 -2.112222909927368164e-01 5.235677719116210938e+00 1.507336616516113281e+00 -2.219528436660766602e+00
5.235000000000000000e+03 7.596326446533203125e+01 -1.892463874816894531e+01 -3.893521428108215332e-01 7.801849842071533203e+00 2.223749399185180664e+00 -1.296624541282653809e-01
5.236000000000000000e+03 7.460613250732421875e+01 -1.850998878479003906e+01 -6.615793108940124512e-01 8.135492324829101562e+00 2.242173910140991211e+00 2.613176107406616211e-01
5.237000000000000000e+03 5.666855621337890625e+01 1.535477542877197266e+01 1.099251866340637207e+00 4.977114200592041016e+00 1.822909832000732422e+00 2.747083663940429688e+00
5.238000000000000000e+03 4.930881500244140625e+00 1.622279739379882812e+01 -3.951527476310729980e-01 1.253620266914367676e+00 2.575402855873107910e-01 -4.001000821590423584e-01
5.239000000000000000e+03 6.797234535217285156e+00 9.484964370727539062e+00 -1.251231729984283447e-01 1.524467110633850098e+00 4.198031723499298096e-01 -1.568374395370483398e+00
5.240000000000000000e+03 7.435634613037109375e+01 -4.048829078674316406e+00 -5.316753387451171875e-01 6.319415092468261719e+00 1.736321926116943359e+00 5.261383056640625000e-01
5.241000000000000000e+03 8.488285064697265625e+00 1.230286121368408203e+01 -1.015510082244873047e+00 1.375227212905883789e+00 1.079151555895805359e-01 -7.546155452728271484e-01
5.242000000000000000e+03 4.604325866699218750e+01 -1.708642578125000000e+01 -5.741402506828308105e-02 2.139563798904418945e+00 6.246449351310729980e-01 -4.334617555141448975e-01
5.243000000000000000e+03 4.492094993591308594e+00 1.703800964355468750e+01 -3.015373051166534424e-01 1.274834871292114258e+00 2.919892668724060059e-01 -3.106245994567871094e-01
5.244000000000000000e+03 5.095680713653564453e+00 1.672676467895507812e+01 -3.968019187450408936e-01 1.239238858222961426e+00 2.527310848236083984e-01 -3.375962376594543457e-01
5.245000000000000000e+03 7.447135925292968750e+01 1.720680236816406250e+01 5.704944729804992676e-01 6.274102210998535156e+00 2.053379058837890625e+00 1.823340728878974915e-02
5.246000000000000000e+03 6.187807846069335938e+01 -1.495307731628417969e+01 1.061432659626007080e-01 6.679962635040283203e+00 2.035831689834594727e+00 -4.138737320899963379e-01
5.247000000000000000e+03 5.317495822906494141e+00 1.841319656372070312e+01 -3.296446204185485840e-01 1.227583050727844238e+00 2.693815231323242188e-01 -1.699005365371704102e-01
5.248000000000000000e+03 5.165735721588134766e+00 -1.412793445587158203e+01 1.479662489145994186e-02 -1.637770086526870728e-01 -4.469411447644233704e-02 -1.765393018722534180e-01
5.249000000000000000e+03 7.329235076904296875e+01 2.037703514099121094e+01 1.821455061435699463e-01 6.605816841125488281e+00 2.036388635635375977e+00 2.720754444599151611e-01
5.250000000000000000e+03 7.555171203613281250e+01 -6.304362773895263672e+00 -3.078500181436538696e-02 8.124953269958496094e+00 2.428250551223754883e+00 1.522948384284973145e+00
5.251000000000000000e+03 1.039063549041748047e+01 1.448991298675537109e+01 -1.128272771835327148e+00 8.367206454277038574e-01 -8.746565133333206177e-02 -3.461128175258636475e-01
5.252000000000000000e+03 8.948688507080078125e+00 1.376137351989746094e+01 -1.056822657585144043e+00 1.124212741851806641e+00 2.021702378988265991e-02 -5.231902003288269043e-01
5.253000000000000000e+03 5.820102691650390625e+00 -9.382409095764160156e+00 -4.329960048198699951e-02 -5.198868364095687866e-02 -2.858648635447025299e-02 -1.694800406694412231e-01
5.254000000000000000e+03 4.701170921325683594e+00 -7.894368171691894531e+00 -4.035711288452148438e-02 -6.302694976329803467e-02 -3.101521916687488556e-02 -1.303658038377761841e-01
5.255000000000000000e+03 2.945766258239746094e+01 -1.559896659851074219e+01 5.514637008309364319e-02 3.652178764343261719e+00 1.112197518348693848e+00 -1.127899289131164551e+00
5.256000000000000000e+03 2.948140525817871094e+01 -1.614077949523925781e+01 1.139181181788444519e-01 3.472521305084228516e+00 1.075931787490844727e+00 -1.025942206382751465e+00
5.257000000000000000e+03 5.040245056152343750e+00 2.241760063171386719e+01 -1.321057826280593872e-01 1.220621585845947266e+00 3.265547454357147217e-01 8.792804926633834839e-02
5.258000000000000000e+03 6.169558715820312500e+01 1.954258918762207031e+01 8.895301222801208496e-01 4.209521770477294922e+00 1.529715538024902344e+00 1.714549660682678223e-01
5.259000000000000000e+03 6.095258331298828125e+01 1.925226211547851562e+01 9.632619619369506836e-01 3.982012033462524414e+00 1.483582139015197754e+00 4.869641065597534180e-01
5.260000000000000000e+03 4.646853256225585938e+01 -1.995226097106933594e+01 5.900305137038230896e-02 2.249196767807006836e+00 6.924599409103393555e-01 -9.508448243141174316e-01
5.261000000000000000e+03 4.526431274414062500e+01 -1.860869979858398438e+01 2.503900229930877686e-01 2.905847549438476562e+00 9.468712806701660156e-01 -9.160921573638916016e-01
5.262000000000000000e+03 5.356970310211181641e+00 -1.265734481811523438e+01 1.428649295121431351e-03 -1.277449876070022583e-01 -3.789490088820457458e-02 -1.829002052545547485e-01
5.263000000000000000e+03 2.962746620178222656e+01 -1.413757896423339844e+01 2.239336818456649780e-01 3.847517490386962891e+00 1.221435427665710449e+00 -1.475046157836914062e+00
5.264000000000000000e+03 4.834613418579101562e+01 2.149518203735351562e+01 -5.988104343414306641e-01 3.635319709777832031e+00 9.109527468681335449e-01 -1.386583089828491211e+00
5.265000000000000000e+03 2.944347572326660156e+01 -1.274593257904052734e+01 4.107078909873962402e-01 4.166199684143066406e+00 1.373072266578674316e+00 -1.913465857505798340e+00
5.266000000000000000e+03 2.867442131042480469e+01 -1.268196392059326172e+01 7.659359276294708252e-02 4.815145015716552734e+00 1.467521548271179199e+00 -1.665116429328918457e+00
5.267000000000000000e+03 3.362767791748046875e+01 -1.988225173950195312e+01 6.887183785438537598e-01 2.676979064941406250e+00 1.009709239006042480e+00 -5.756261348724365234e-01
5.268000000000000000e+03 6.453600311279296875e+01 -2.087371444702148438e+01 5.139039754867553711e-01 4.533160686492919922e+00 1.514119386672973633e+00 -1.082555532455444336e+00
5.269000000000000000e+03 2.107338905334472656e+01 -1.480577182769775391e+01 3.501921594142913818e-01 1.386710047721862793e+00 5.210706591606140137e-01 6.005720496177673340e-01
5.270000000000000000e+03 1.988329505920410156e+01 -1.512869262695312500e+01 3.766857087612152100e-01 1.071416616439819336e+00 4.344306886196136475e-01 3.812201321125030518e-01
5.271000000000000000e+03 4.910764312744140625e+01 1.209106206893920898e+00 2.378035545349121094e+00 3.955348730087280273e+00 1.900015234947204590e+00 2.740646362304687500e+00
5.272000000000000000e+03 2.223157310485839844e+01 -1.458053970336914062e+01 2.598534226417541504e-01 1.943220257759094238e+00 6.609221100807189941e-01 7.470130324363708496e-01
5.273000000000000000e+03 6.904650878906250000e+01 1.261762905120849609e+01 2.221549510955810547e+00 7.482511997222900391e+00 2.911218404769897461e+00 1.837871909141540527e+00
5.274000000000000000e+03 7.290768146514892578e+00 1.014983844757080078e+01 -5.113088488578796387e-01 1.702775359153747559e+00 3.574399352073669434e-01 -1.387812137603759766e+00
5.275000000000000000e+03 2.850727653503417969e+01 1.879820823669433594e+01 -7.832428812980651855e-01 3.327659368515014648e+00 7.633249163627624512e-01 2.173868656158447266e+00
5.276000000000000000e+03 1.473867607116699219e+01 -9.085036277770996094e+00 -2.696382403373718262e-01 2.228168249130249023e-01 -1.404642779380083084e-02 -1.462042182683944702e-01
5.277000000000000000e+03 1.488096332550048828e+01 1.875081825256347656e+01 -8.985496163368225098e-01 6.474024057388305664e-02 -2.501428127288818359e-01 -1.403600424528121948e-01
5.278000000000000000e+03 2.675604057312011719e+01 -1.389490699768066406e+01 -3.946303129196166992e-01 4.629230976104736328e+00 1.270380139350891113e+00 -4.456888437271118164e-01
5.279000000000000000e+03 5.426348686218261719e+00 -1.755965232849121094e+01 3.958032280206680298e-02 -2.000880688428878784e-01 -4.815232381224632263e-02 -1.458975523710250854e-01
5.280000000000000000e+03 6.468939208984375000e+01 -1.978730964660644531e+01 5.054534077644348145e-01 4.306084156036376953e+00 1.443461179733276367e+00 -1.223147511482238770e+00
5.281000000000000000e+03 7.347083282470703125e+01 -2.027614593505859375e+01 -4.470774233341217041e-01 6.951632499694824219e+00 1.951366543769836426e+00 8.495666980743408203e-01
5.282000000000000000e+03 7.400111389160156250e+01 -1.992613601684570312e+01 -5.765671730041503906e-01 7.328237533569335938e+00 2.025501012802124023e+00 7.383235096931457520e-01
5.283000000000000000e+03 1.422013187408447266e+01 -8.955815315246582031e+00 -2.664049565792083740e-01 2.278165817260742188e-01 -1.157651096582412720e-02 -1.564152389764785767e-01
5.284000000000000000e+03 1.158157444000244141e+01 1.769978332519531250e+01 -8.715410232543945312e-01 5.251075029373168945e-01 -1.039300486445426941e-01 -7.821910083293914795e-02
5.285000000000000000e+03 4.971665859222412109e+00 2.354285240173339844e+01 -8.149364590644836426e-02 1.228593468666076660e+00 3.441299200057983398e-01 1.230016574263572693e-01
5.286000000000000000e+03 5.531565856933593750e+01 1.318297100067138672e+01 1.849286317825317383e+00 6.452348232269287109e+00 2.490490436553955078e+00 2.706597566604614258e+00
5.287000000000000000e+03 5.197628498077392578e+00 -1.606218147277832031e+01 2.775580249726772308e-02 -1.935984939336776733e-01 -4.975280538201332092e-02 -1.596144884824752808e-01
5.288000000000000000e+03 5.558543777465820312e+01 -4.034512042999267578e+00 -1.662412166595458984e+00 5.802473545074462891e+00 1.242018461227416992e+00 -2.805969715118408203e+00
5.289000000000000000e+03 5.847058105468750000e+01 1.770416450500488281e+01 8.891431689262390137e-01 4.091074466705322266e+00 1.494065284729003906e+00 1.803052544593811035e+00
5.290000000000000000e+03 5.109873294830322266e+00 9.221049308776855469e+00 1.877745240926742554e-01 8.294411897659301758e-01 3.051647245883941650e-01 -1.342006683349609375e+00
5.291000000000000000e+03 5.653015136718750000e+00 9.722361564636230469e+00 -8.611163124442100525e-03 1.127542853355407715e+00 3.356795012950897217e-01 -1.402924537658691406e+00
5.292000000000000000e+03 1.605413246154785156e+01 -1.054665279388427734e+01 -1.556876748800277710e-01 2.716383337974548340e-01 3.478519991040229797e-02 -1.904623359441757202e-01
5.293000000000000000e+03 1.577392482757568359e+01 -1.008881092071533203e+01 -2.197145968675613403e-01 2.594614923000335693e-01 1.192407030612230301e-02 -1.621466577053070068e-01
5.294000000000000000e+03 1.089200019836425781e+01 1.405857563018798828e+01 -1.203221917152404785e+00 6.617568135261535645e-01 -1.624395400285720825e-01 -3.639584779739379883e-01
5.295000000000000000e+03 6.619943237304687500e+01 1.875229263305664062e+01 -5.520306155085563660e-02 6.480082035064697266e+00 1.927463769912719727e+00 -5.640640258789062500e-01
5.296000000000000000e+03 5.839599227905273438e+01 -3.062318801879882812e+00 3.114387989044189453e-01 4.627545833587646484e+00 1.481695413589477539e+00 -1.939022421836853027e+00
5.297000000000000000e+03 5.966611862182617188e+01 -1.382560062408447266e+01 5.256454348564147949e-01 8.595795631408691406e+00 2.736432075500488281e+00 3.937279284000396729e-01
5.298000000000000000e+03 2.040866661071777344e+01 2.271785163879394531e+01 -4.610048234462738037e-01 6.716424226760864258e-01 6.319127976894378662e-02 -6.867722272872924805e-01
5.299000000000000000e+03 1.306188488006591797e+01 -7.434791088104248047e+00 -2.745335102081298828e-01 1.729711443185806274e-01 -3.046870790421962738e-02 -1.042235121130943298e-01
5.300000000000000000e+03 1.360034942626953125e+01 -7.291472434997558594e+00 -3.054290115833282471e-01 1.825677603483200073e-01 -3.685837984085083008e-02 -9.038570523262023926e-02
5.301000000000000000e+03 1.792441177368164062e+01 2.226050376892089844e+01 -3.629514873027801514e-01 2.852647602558135986e-01 -2.330602146685123444e-02 -3.515290021896362305e-01
5.302000000000000000e+03 3.980239105224609375e+01 1.733530807495117188e+01 -1.491232037544250488e+00 5.701833963394165039e-01 -2.763145864009857178e-01 -2.005631476640701294e-01
5.303000000000000000e+03 4.741715240478515625e+01 1.952136307954788208e-01 8.314353227615356445e-01 3.129149675369262695e+00 1.188175439834594727e+00 4.093768119812011719e+00
5.304000000000000000e+03 9.647996902465820312e+00 -7.314296722412109375e+00 -1.484850943088531494e-01 8.424318581819534302e-02 -1.927257329225540161e-02 -1.456576138734817505e-01
5.305000000000000000e+03 6.352333450317382812e+01 -1.872488594055175781e+01 3.597220182418823242e-01 5.010023117065429688e+00 1.610923528671264648e+00 -1.403633713722229004e+00
5.306000000000000000e+03 7.421611022949218750e+01 -6.284691810607910156e+00 -2.272254973649978638e-01 7.631859779357910156e+00 2.221390247344970703e+00 9.721955657005310059e-01
5.307000000000000000e+03 5.413710117340087891e+00 6.073161602020263672e+00 1.581223368644714355e+00 -9.816507995128631592e-02 4.449174702167510986e-01 -8.139236569404602051e-01
5.308000000000000000e+03 6.878842926025390625e+01 -2.116546058654785156e+01 7.862294316291809082e-01 4.058071613311767578e+00 1.453290343284606934e+00 5.092934370040893555e-01
5.309000000000000000e+03 6.161105728149414062e+01 -1.954649162292480469e+01 2.846990525722503662e-01 6.285458564758300781e+00 1.971047282218933105e+00 -1.256720423698425293e+00
5.310000000000000000e+03 5.225845336914062500e+00 -1.100420188903808594e+01 -1.793477311730384827e-02 -1.024518907070159912e-01 -3.611600026488304138e-02 -1.744403690099716187e-01
5.311000000000000000e+03 1.129437828063964844e+01 1.665045547485351562e+01 -9.946177601814270020e-01 5.717347264289855957e-01 -1.268649101257324219e-01 -1.528200507164001465e-01
5.312000000000000000e+03 1.153684997558593750e+01 1.589241218566894531e+01 -1.107058405876159668e+00 5.000992417335510254e-01 -1.820877492427825928e-01 -2.120857536792755127e-01
5.313000000000000000e+03 2.739177894592285156e+01 2.036229515075683594e+01 -1.509626746177673340e+00 3.827713727951049805e+00 6.954261064529418945e-01 1.010152220726013184e+00
5.314000000000000000e+03 2.688636207580566406e+01 2.105382919311523438e+01 -1.472706675529479980e+00 3.448143005371093750e+00 5.926308631896972656e-01 6.676836609840393066e-01
5.315000000000000000e+03 4.708174514770507812e+01 -1.843155479431152344e+01 -1.987435519695281982e-01 1.589776873588562012e+00 4.173099696636199951e-01 -6.588887572288513184e-01
5.316000000000000000e+03 4.185799407958984375e+01 1.746164512634277344e+01 -1.365283250808715820e+00 8.090461492538452148e-01 -1.668711453676223755e-01 -1.959772557020187378e-01
5.317000000000000000e+03 7.439553070068359375e+01 -2.215997695922851562e+01 -2.326541244983673096e-01 6.834327697753906250e+00 1.980502128601074219e+00 5.120338201522827148e-01
5.318000000000000000e+03 5.140287780761718750e+01 -9.631265997886657715e-01 -1.360172867774963379e+00 5.512021541595458984e+00 1.245554685592651367e+00 -3.466739058494567871e-01
5.319000000000000000e+03 5.206385803222656250e+01 -8.131397366523742676e-01 -1.664787769317626953e+00 7.028729438781738281e+00 1.609182596206665039e+00 -6.632344126701354980e-01
5.320000000000000000e+03 7.035746765136718750e+01 -2.171796989440917969e+01 3.594523966312408447e-01 4.992668628692626953e+00 1.605636358261108398e+00 8.664588928222656250e-01
5.321000000000000000e+03 6.255822753906250000e+01 -1.515488624572753906e+01 -3.664436936378479004e-02 6.164220809936523438e+00 1.838273048400878906e+00 -6.144348382949829102e-01
5.322000000000000000e+03 1.220556831359863281e+01 -7.221476554870605469e+00 -2.412811517715454102e-01 1.535664200782775879e-01 -2.631442062556743622e-02 -1.140107214450836182e-01
5.323000000000000000e+03 5.834309005737304688e+01 -7.005190372467041016e+00 4.457264244556427002e-01 7.164754390716552734e+00 2.283144235610961914e+00 9.647452086210250854e-02
5.324000000000000000e+03 4.350478172302246094e+00 -1.472594928741455078e+01 1.551596634089946747e-02 -2.223774790763854980e-01 -6.205845251679420471e-02 -1.554572582244873047e-01
5.325000000000000000e+03 4.225994110107421875e+00 6.023503780364990234e+00 1.047541856765747070e+00 -1.950657963752746582e-01 2.557428181171417236e-01 -4.470454156398773193e-01
5.326000000000000000e+03 5.789778232574462891e+00 -1.921635818481445312e+01 5.142724886536598206e-02 -1.848875582218170166e-01 -4.003809019923210144e-02 -1.246740892529487610e-01
5.327000000000000000e+03 1.559558296203613281e+01 1.928611373901367188e+01 -8.385775685310363770e-01 3.808086365461349487e-02 -2.401490062475204468e-01 -1.601640731096267700e-01
5.328000000000000000e+03 8.896801948547363281e+00 1.153626632690429688e+01 -1.041734457015991211e+00 1.456445217132568359e+00 1.244132071733474731e-01 -7.960037589073181152e-01
5.329000000000000000e+03 4.068627834320068359e+00 7.903660774230957031e+00 5.674210190773010254e-01 2.422726750373840332e-01 2.429081052541732788e-01 -9.937039613723754883e-01
5.330000000000000000e+03 7.195065307617187500e+01 -2.093444061279296875e+01 -1.228825896978378296e-01 5.901946067810058594e+00 1.733718991279602051e+00 1.150622725486755371e+00
5.331000000000000000e+03 7.301927185058593750e+01 -1.965929222106933594e+01 -6.049130558967590332e-01 7.018053054809570312e+00 1.923942089080810547e+00 1.149377107620239258e+00
5.332000000000000000e+03 6.053717041015625000e+01 -1.465122318267822266e+01 4.326349198818206787e-01 7.854167938232421875e+00 2.486040830612182617e+00 7.870116829872131348e-02
5.333000000000000000e+03 5.712626647949218750e+01 -6.694117069244384766e+00 -8.214119821786880493e-02 6.576223373413085938e+00 1.948224663734436035e+00 -6.175991296768188477e-01
5.334000000000000000e+03 6.965656280517578125e+01 1.388764953613281250e+01 1.672093987464904785e+00 6.840836048126220703e+00 2.553879022598266602e+00 1.692633390426635742e+00
5.335000000000000000e+03 7.350130081176757812e+00 2.622259712219238281e+01 -3.197499737143516541e-02 9.907861948013305664e-01 2.876433730125427246e-01 1.782237589359283447e-01
5.336000000000000000e+03 7.335713958740234375e+01 -2.611380195617675781e+01 1.323690563440322876e-01 6.182871341705322266e+00 1.894572138786315918e+00 3.670651316642761230e-01
5.337000000000000000e+03 3.602369689941406250e+01 1.901586723327636719e+01 -6.734247803688049316e-01 -1.985291987657546997e-01 -2.615861892700195312e-01 9.888075292110443115e-02
5.338000000000000000e+03 6.460990142822265625e+01 6.856450438499450684e-01 -1.838387131690979004e+00 4.934510707855224609e+00 9.288370013236999512e-01 4.132782936096191406e+00
5.339000000000000000e+03 6.591194152832031250e+01 1.967446327209472656e+01 6.155923381447792053e-02 6.208707809448242188e+00 1.881080031394958496e+00 -4.320849180221557617e-01
5.340000000000000000e+03 3.928003311157226562e+01 1.850654983520507812e+01 -1.094935178756713867e+00 4.292679429054260254e-01 -1.997001469135284424e-01 -2.359579205513000488e-01
5.341000000000000000e+03 5.354667186737060547e+00 2.576083183288574219e+01 -2.820766903460025787e-02 1.160507321357727051e+00 3.396898806095123291e-01 1.660713255405426025e-01
5.342000000000000000e+03 3.216747665405273438e+01 -1.840955162048339844e+01 5.780001878738403320e-01 2.781409263610839844e+00 1.007822871208190918e+00 -8.741865158081054688e-01
5.343000000000000000e+03 6.141292953491210938e+01 -1.334511280059814453e+01 1.671281829476356506e-02 7.606347084045410156e+00 2.286917924880981445e+00 2.737021148204803467e-01
5.344000000000000000e+03 7.090646362304687500e+01 1.343752288818359375e+01 1.932414531707763672e+00 5.302976131439208984e+00 2.170617341995239258e+00 1.130886316299438477e+00
5.345000000000000000e+03 4.458645248413085938e+01 1.961221313476562500e+01 -4.156636893749237061e-01 1.252988338470458984e+00 2.511973977088928223e-01 -7.815889716148376465e-01
5.346000000000000000e+03 4.495652389526367188e+01 1.854998779296875000e+01 -6.095270514488220215e-01 9.872303009033203125e-01 1.133109778165817261e-01 -6.608517765998840332e-01
5.347000000000000000e+03 5.141923141479492188e+01 2.086153984069824219e+01 -1.268292427062988281e+00 5.922479152679443359e+00 1.396255970001220703e+00 -7.273443937301635742e-01
5.348000000000000000e+03 5.224335479736328125e+01 2.105078125000000000e+01 -1.283973097801208496e+00 6.132778167724609375e+00 1.454641580581665039e+00 -3.023258745670318604e-01
5.349000000000000000e+03 5.033703231811523438e+01 -2.311009788513183594e+01 6.802282333374023438e-01 1.539040446281433105e+00 6.657806038856506348e-01 2.504576370120048523e-02
5.350000000000000000e+03 4.816764450073242188e+01 -2.231803512573242188e+01 3.337428867816925049e-01 1.866552233695983887e+00 6.600885391235351562e-01 -6.678187847137451172e-01
5.351000000000000000e+03 5.327212142944335938e+01 -2.523282814025878906e+01 3.404708504676818848e-01 3.216964721679687500e+00 1.067230701446533203e+00 9.544894695281982422e-01
5.352000000000000000e+03 5.274467849731445312e+01 -2.443639755249023438e+01 4.734852313995361328e-01 2.713675498962402344e+00 9.561482071876525879e-01 8.672657608985900879e-01
5.353000000000000000e+03 5.796848678588867188e+01 -2.538699150085449219e+01 -4.672387242317199707e-01 5.450269699096679688e+00 1.494909286499023438e+00 5.206021070480346680e-01
5.354000000000000000e+03 5.792252731323242188e+01 -2.413325500488281250e+01 -6.495995521545410156e-01 5.973588466644287109e+00 1.597196578979492188e+00 4.702033996582031250e-01
5.355000000000000000e+03 8.652807235717773438e+00 -2.698034477233886719e+01 5.852154269814491272e-02 1.043288633227348328e-01 4.885512217879295349e-02 -3.404143499210476875e-03
5.356000000000000000e+03 6.980208587646484375e+01 2.334930229187011719e+01 -6.211959198117256165e-02 6.527032375335693359e+00 1.939473867416381836e+00 1.559001803398132324e-01
5.357000000000000000e+03 7.037925720214843750e+01 -2.746217155456542969e+01 2.883419692516326904e-01 5.638059616088867188e+00 1.777920365333557129e+00 2.077542096376419067e-01
5.358000000000000000e+03 8.890187263488769531e+00 2.857230758666992188e+01 2.439053729176521301e-02 8.937255740165710449e-01 2.754348218441009521e-01 1.641126573085784912e-01
5.359000000000000000e+03 2.393425369262695312e+01 2.366025924682617188e+01 -8.884429335594177246e-01 1.904720783233642578e+00 3.048833310604095459e-01 -5.247097611427307129e-01
5.360000000000000000e+03 6.482678890228271484e+00 -2.488882827758789062e+01 4.648381099104881287e-02 -1.452676504850387573e-01 -2.963514998555183411e-02 -4.701106250286102295e-02
5.361000000000000000e+03 7.070177459716796875e+01 2.227775192260742188e+01 -2.184585854411125183e-02 6.599098682403564453e+00 1.973175883293151855e+00 2.245737314224243164e-01
5.362000000000000000e+03 5.895367050170898438e+01 -4.326987743377685547e+00 9.234228730201721191e-01 5.833455562591552734e+00 2.027063608169555664e+00 -8.155143857002258301e-01
5.363000000000000000e+03 6.248587799072265625e+01 -1.791370391845703125e+01 3.686330914497375488e-01 5.795029640197753906e+00 1.849098801612854004e+00 -1.222823262214660645e+00
5.364000000000000000e+03 6.237773513793945312e+01 -1.594301128387451172e+01 1.945589631795883179e-01 6.047259330749511719e+00 1.872545361518859863e+00 -8.359300494194030762e-01
5.365000000000000000e+03 7.301864624023437500e+01 -2.074155807495117188e+01 -3.785009384155273438e-01 6.613956928253173828e+00 1.870636701583862305e+00 9.212977290153503418e-01
5.366000000000000000e+03 3.796786499023437500e+01 1.887392807006835938e+01 -9.372862577438354492e-01 2.178820818662643433e-01 -2.158212363719940186e-01 -1.925078928470611572e-01
5.367000000000000000e+03 5.597695541381835938e+01 1.569908332824707031e+01 8.861699104309082031e-01 5.979400157928466797e+00 2.059671163558959961e+00 2.818418502807617188e+00
5.368000000000000000e+03 2.412131881713867188e+01 -1.433810901641845703e+01 -6.578929722309112549e-02 3.180285215377807617e+00 9.343487620353698730e-01 8.076429963111877441e-01
5.369000000000000000e+03 6.057539749145507812e+01 -2.157612419128417969e+01 -1.148274838924407959e-01 6.524332046508789062e+00 1.922851324081420898e+00 -8.478777408599853516e-01
5.370000000000000000e+03 5.553028488159179688e+01 1.829529762268066406e+01 -1.619087606668472290e-01 6.220139980316162109e+00 1.817469358444213867e+00 2.009375572204589844e+00
5.371000000000000000e+03 4.140683364868164062e+01 1.850438308715820312e+01 -1.060539960861206055e+00 8.035437464714050293e-01 -7.709886878728866577e-02 -2.534179091453552246e-01
5.372000000000000000e+03 6.484902954101562500e+01 2.029522705078125000e+01 2.398903071880340576e-01 5.708304882049560547e+00 1.784458518028259277e+00 -3.900252580642700195e-01
5.373000000000000000e+03 6.556658935546875000e+01 2.050584602355957031e+01 1.248834654688835144e-01 5.921182155609130859e+00 1.813819646835327148e+00 -3.515917956829071045e-01
5.374000000000000000e+03 5.973851394653320312e+01 -2.925481796264648438e+00 6.234709620475769043e-01 5.275029182434082031e+00 1.769549965858459473e+00 -8.133189678192138672e-01
5.375000000000000000e+03 6.286747741699218750e+01 -1.933385086059570312e+01 3.602697551250457764e-01 5.452662467956542969e+00 1.743879675865173340e+00 -1.299933671951293945e+00
5.376000000000000000e+03 6.210811996459960938e+01 -1.878631591796875000e+01 4.560806155204772949e-01 5.875498771667480469e+00 1.899473905563354492e+00 -1.389826297760009766e+00
5.377000000000000000e+03 2.998987197875976562e+01 -1.696875000000000000e+01 2.042928040027618408e-01 3.246838808059692383e+00 1.035339474678039551e+00 -9.623702168464660645e-01
5.378000000000000000e+03 2.972035980224609375e+01 -1.772557258605957031e+01 1.116510033607482910e-01 3.220897912979125977e+00 9.997646212577819824e-01 -8.234778046607971191e-01
5.379000000000000000e+03 5.810223770141601562e+01 -6.401713848114013672e+00 4.279832243919372559e-01 6.661865711212158203e+00 2.126954793930053711e+00 -2.645304799079895020e-01
5.380000000000000000e+03 5.860073852539062500e+01 -6.161755084991455078e+00 6.666802763938903809e-01 6.867059707641601562e+00 2.260122060775756836e+00 -1.206189021468162537e-01
5.381000000000000000e+03 6.099794769287109375e+01 -3.067674338817596436e-01 -2.510688543319702148e+00 4.885944366455078125e+00 7.125766873359680176e-01 9.848697185516357422e-01
5.382000000000000000e+03 5.503701686859130859e+00 2.113528442382812500e+01 -1.970975548028945923e-01 1.186581850051879883e+00 2.968452870845794678e-01 3.492244705557823181e-02
5.383000000000000000e+03 2.987085723876953125e+01 2.056190681457519531e+01 -7.241516709327697754e-01 2.108612060546875000e+00 4.153381288051605225e-01 1.631637215614318848e+00
5.384000000000000000e+03 4.689423370361328125e+01 -1.937951660156250000e+01 -5.511904880404472351e-02 1.873830676078796387e+00 5.456134676933288574e-01 -8.808176517486572266e-01
5.385000000000000000e+03 4.641185379028320312e+01 -1.882562255859375000e+01 2.084679342806339264e-02 2.138610363006591797e+00 6.478371620178222656e-01 -8.410347700119018555e-01
5.386000000000000000e+03 7.495893478393554688e+00 1.269461727142333984e+01 -8.710038065910339355e-01 1.371694207191467285e+00 1.502071171998977661e-01 -8.310901522636413574e-01
5.387000000000000000e+03 1.707884025573730469e+01 2.031760215759277344e+01 -6.592424511909484863e-01 3.512248769402503967e-02 -1.872359812259674072e-01 -2.688677012920379639e-01
5.388000000000000000e+03 7.390005493164062500e+01 -2.656276893615722656e+01 8.750738948583602905e-02 6.287917137145996094e+00 1.912627339363098145e+00 3.373961746692657471e-01
5.389000000000000000e+03 7.289691925048828125e+01 -2.560538101196289062e+01 1.273206770420074463e-01 6.071413040161132812e+00 1.859620094299316406e+00 4.112018942832946777e-01
5.390000000000000000e+03 7.009996414184570312e+00 2.536307716369628906e+01 -5.858786404132843018e-02 1.019316911697387695e+00 2.882187366485595703e-01 1.654327362775802612e-01
5.391000000000000000e+03 9.325798034667968750e+00 1.331301784515380859e+01 -1.098292946815490723e+00 1.122485518455505371e+00 7.257790304720401764e-03 -5.116052031517028809e-01
5.392000000000000000e+03 1.002140045166015625e+01 1.339005947113037109e+01 -1.155732989311218262e+00 9.890218377113342285e-01 -5.001336336135864258e-02 -4.504690170288085938e-01
5.393000000000000000e+03 6.940735340118408203e+00 -1.976103973388671875e+01 7.018569111824035645e-02 -9.801623225212097168e-02 -8.349162526428699493e-03 -1.206181719899177551e-01
5.394000000000000000e+03 7.318133544921875000e+01 1.481663608551025391e+01 1.275314450263977051e+00 5.430377483367919922e+00 2.011707544326782227e+00 -6.454879045486450195e-02
5.395000000000000000e+03 1.371000194549560547e+01 -8.823105812072753906e+00 -2.418878227472305298e-01 2.039044946432113647e-01 -1.139499898999929428e-02 -1.518146842718124390e-01
5.396000000000000000e+03 4.326493453979492188e+01 2.005468750000000000e+01 -5.003425478935241699e-01 1.056757807731628418e+00 1.669245660305023193e-01 -5.522597432136535645e-01
5.397000000000000000e+03 4.378358078002929688e+01 1.923305892944335938e+01 -6.216380596160888672e-01 1.007510900497436523e+00 1.157618463039398193e-01 -5.044764280319213867e-01
5.398000000000000000e+03 4.331488037109375000e+01 -2.197024536132812500e+01 1.762648113071918488e-02 3.699746131896972656e+00 1.115211844444274902e+00 -8.165809512138366699e-01
5.399000000000000000e+03 2.411895370483398438e+01 -1.586167049407958984e+01 -5.945897102355957031e-02 2.880478382110595703e+00 8.463057875633239746e-01 5.182560086250305176e-01
5.400000000000000000e+03 6.294957351684570312e+01 -2.075489234924316406e+01 2.615054845809936523e-01 5.447690010070800781e+00 1.712758660316467285e+00 -1.218190193176269531e+00
5.401000000000000000e+03 7.027410125732421875e+01 1.736587524414062500e+01 4.314900934696197510e-01 6.837758064270019531e+00 2.180774450302124023e+00 6.818135976791381836e-01
5.402000000000000000e+03 7.007917785644531250e+01 1.598735618591308594e+01 7.534563541412353516e-01 6.858285427093505859e+00 2.283522605895996094e+00 1.033411145210266113e+00
5.403000000000000000e+03 7.266268157958984375e+01 -2.135226631164550781e+01 -1.814144253730773926e-01 6.386318206787109375e+00 1.861471176147460938e+00 9.451102614402770996e-01
5.404000000000000000e+03 5.585480690002441406e+00 1.111370658874511719e+01 -3.515073955059051514e-01 1.210033893585205078e+00 2.575579583644866943e-01 -1.177397370338439941e+00
5.405000000000000000e+03 5.364926815032958984e+00 1.037080383300781250e+01 -1.815653890371322632e-01 1.076071858406066895e+00 2.683519124984741211e-01 -1.291269898414611816e+00
5.406000000000000000e+03 6.485803222656250000e+01 -2.153352355957031250e+01 5.449106693267822266e-01 4.613255023956298828e+00 1.547449707984924316e+00 -9.363043904304504395e-01
5.407000000000000000e+03 6.527310943603515625e+01 -2.225206756591796875e+01 5.536620616912841797e-01 4.550168514251708984e+00 1.531149148941040039e+00 -7.827275395393371582e-01
5.408000000000000000e+03 6.953807067871093750e+01 1.783861923217773438e+01 2.048406153917312622e-01 7.010134696960449219e+00 2.164492607116699219e+00 5.473347306251525879e-01
5.409000000000000000e+03 6.915239715576171875e+01 1.720416450500488281e+01 1.931288242340087891e-01 7.244598865509033203e+00 2.231318235397338867e+00 6.441126465797424316e-01
5.410000000000000000e+03 5.354806900024414062e+00 2.660586166381835938e+01 -1.425625756382942200e-02 1.159690618515014648e+00 3.436302840709686279e-01 1.743091344833374023e-01
5.411000000000000000e+03 5.292283535003662109e+00 2.506897735595703125e+01 -4.301862046122550964e-02 1.177358865737915039e+00 3.403020799160003662e-01 1.587093919515609741e-01
5.412000000000000000e+03 7.437722778320312500e+01 1.869146728515625000e+01 3.730000257492065430e-01 6.466835021972656250e+00 2.051950693130493164e+00 1.500509232282638550e-01
5.413000000000000000e+03 4.132765197753906250e+01 2.068519020080566406e+01 -4.961785972118377686e-01 8.952643275260925293e-01 1.197257190942764282e-01 -3.322378695011138916e-01
5.414000000000000000e+03 4.241593933105468750e+01 1.990780067443847656e+01 -6.166920065879821777e-01 9.531460404396057129e-01 1.009362041950225830e-01 -3.942583501338958740e-01
5.415000000000000000e+03 7.105419158935546875e+01 -2.173557472229003906e+01 2.336896657943725586e-01 5.338373184204101562e+00 1.671618819236755371e+00 9.088528156280517578e-01
5.416000000000000000e+03 6.189227104187011719e+00 -1.735081291198730469e+01 5.043902993202209473e-02 -1.479464620351791382e-01 -2.925223112106323242e-02 -1.581719666719436646e-01
5.417000000000000000e+03 1.018727588653564453e+01 -6.684758663177490234e+00 -1.732043772935867310e-01 9.416535496711730957e-02 -2.371170744299888611e-02 -1.197292357683181763e-01
5.418000000000000000e+03 1.193969440460205078e+01 -8.287018775939941406e+00 -2.056022435426712036e-01 1.613066047430038452e-01 -1.328869536519050598e-02 -1.570171415805816650e-01
5.419000000000000000e+03 1.870514869689941406e+01 -1.270611286163330078e+01 3.076822757720947266e-01 4.680818617343902588e-01 2.327292412519454956e-01 8.172681927680969238e-02
5.420000000000000000e+03 4.551200485229492188e+01 1.978294181823730469e+01 -3.885165452957153320e-01 1.580902934074401855e+00 3.577159345149993896e-01 -1.000417947769165039e+00
5.421000000000000000e+03 4.643323135375976562e+01 2.188917350769042969e+01 -2.956150472164154053e-01 2.432933568954467773e+00 6.411955952644348145e-01 -1.169773936271667480e+00
5.422000000000000000e+03 1.364297580718994141e+01 1.887431716918945312e+01 -8.182148337364196777e-01 2.311571389436721802e-01 -1.761173158884048462e-01 -6.822378933429718018e-02
5.423000000000000000e+03 7.169871520996093750e+01 1.414502525329589844e+01 1.667215108871459961e+00 5.276935577392578125e+00 2.083245277404785156e+00 6.237242817878723145e-01
5.424000000000000000e+03 5.912382125854492188e+00 -1.590612506866455078e+01 3.582113236188888550e-02 -1.500702351331710815e-01 -3.427473083138465881e-02 -1.733702868223190308e-01
5.425000000000000000e+03 8.747509956359863281e+00 -7.685841083526611328e+00 -1.171425208449363708e-01 5.377679318189620972e-02 -1.900971867144107819e-02 -1.573309600353240967e-01
5.426000000000000000e+03 6.893732547760009766e+00 1.242629814147949219e+01 -7.509249448776245117e-01 1.380892515182495117e+00 1.889902800321578979e-01 -9.047189950942993164e-01
5.427000000000000000e+03 7.194112300872802734e+00 1.170237064361572266e+01 -7.675194740295410156e-01 1.456885695457458496e+00 2.068098634481430054e-01 -1.039106726646423340e+00
5.428000000000000000e+03 6.130895614624023438e+00 2.378135490417480469e+01 -1.031069085001945496e-01 1.107320785522460938e+00 3.012641668319702148e-01 1.345151215791702271e-01
5.429000000000000000e+03 5.459530353546142578e+00 2.181784057617187500e+01 -1.643443703651428223e-01 1.182748079299926758e+00 3.055211007595062256e-01 6.836052983999252319e-02
5.430000000000000000e+03 5.787586975097656250e+01 -4.423183917999267578e+00 2.943053543567657471e-01 5.577230930328369141e+00 1.761460900306701660e+00 -1.522863149642944336e+00
5.431000000000000000e+03 5.836066436767578125e+01 -4.880698204040527344e+00 5.693130493164062500e-01 5.993789672851562500e+00 1.968930721282958984e+00 -9.114547967910766602e-01
5.432000000000000000e+03 6.542725086212158203e+00 -8.653778076171875000e+00 -6.247676908969879150e-02 -1.694732159376144409e-02 -2.382722683250904083e-02 -1.687585413455963135e-01
5.433000000000000000e+03 3.374700164794921875e+01 2.073260879516601562e+01 -2.186445742845535278e-01 2.370696365833282471e-01 5.527515895664691925e-03 8.383529186248779297e-01
5.434000000000000000e+03 3.373941040039062500e+01 1.906027412414550781e+01 -3.708864450454711914e-01 -2.092531174421310425e-01 -1.740418672561645508e-01 7.761875391006469727e-01
5.435000000000000000e+03 6.675487995147705078e+00 -7.272949218750000000e+00 -7.749958336353302002e-02 -4.698527045547962189e-03 -2.465943247079849243e-02 -1.413211375474929810e-01
5.436000000000000000e+03 6.721750259399414062e+00 -6.579040527343750000e+00 -8.125863224267959595e-02 -1.037391833961009979e-03 -2.468880824744701385e-02 -1.267223954200744629e-01
5.437000000000000000e+03 6.354989242553710938e+01 1.908941841125488281e+01 6.679776906967163086e-01 4.801763057708740234e+00 1.640922307968139648e+00 -6.157353520393371582e-01
5.438000000000000000e+03 5.719472885131835938e+01 1.829813385009765625e+01 4.547836482524871826e-01 5.137541294097900391e+00 1.677697539329528809e+00 2.005106210708618164e+00
5.439000000000000000e+03 7.359005737304687500e+01 -2.411037254333496094e+01 -1.414792146533727646e-03 6.337526798248291016e+00 1.900833606719970703e+00 4.975377321243286133e-01
5.440000000000000000e+03 7.460293579101562500e+01 -2.492583084106445312e+01 -2.884673187509179115e-03 6.530816555023193359e+00 1.958379507064819336e+00 3.714098036289215088e-01
5.441000000000000000e+03 1.786339759826660156e+01 -1.329564476013183594e+01 2.894393801689147949e-01 4.638557732105255127e-01 2.259885519742965698e-01 2.615346945822238922e-02
5.442000000000000000e+03 1.869860267639160156e+01 2.290772056579589844e+01 -3.639058768749237061e-01 4.361784160137176514e-01 2.168176136910915375e-02 -4.641039967536926270e-01
5.443000000000000000e+03 6.334429740905761719e+00 1.090703010559082031e+01 -4.905705749988555908e-01 1.391066670417785645e+00 2.701488435268402100e-01 -1.254675745964050293e+00
5.444000000000000000e+03 6.514821052551269531e+00 1.155991077423095703e+01 -6.012260317802429199e-01 1.415403008460998535e+00 2.442530691623687744e-01 -1.104736447334289551e+00
5.445000000000000000e+03 3.107694816589355469e+01 -1.916097831726074219e+01 3.857826292514801025e-01 2.883400917053222656e+00 9.807550311088562012e-01 -7.207970023155212402e-01
5.446000000000000000e+03 1.287663269042968750e+01 -8.447965621948242188e+00 -2.360436767339706421e-01 1.896711140871047974e-01 -1.391177158802747726e-02 -1.516822278499603271e-01
5.447000000000000000e+03 4.424515151977539062e+01 -2.152980804443359375e+01 3.772627934813499451e-02 3.377384901046752930e+00 1.024533390998840332e+00 -1.003832936286926270e+00
5.448000000000000000e+03 4.447984695434570312e+01 -2.018807220458984375e+01 5.957897007465362549e-02 3.378173828125000000e+00 1.031325817108154297e+00 -1.072025656700134277e+00
5.449000000000000000e+03 1.370760822296142578e+01 1.998459625244140625e+01 -6.406491398811340332e-01 2.693622708320617676e-01 -1.113860607147216797e-01 -2.824123203754425049e-02
5.450000000000000000e+03 6.027243041992187500e+01 1.900183296203613281e+01 9.882901310920715332e-01 3.868577003479003906e+00 1.457060098648071289e+00 8.450620770454406738e-01
5.451000000000000000e+03 5.959409713745117188e+01 1.829064369201660156e+01 1.013952732086181641e+00 3.702294111251831055e+00 1.414874076843261719e+00 1.257989525794982910e+00
5.452000000000000000e+03 3.711251068115234375e+01 1.859452056884765625e+01 -9.678303003311157227e-01 -3.699327632784843445e-02 -3.014470636844635010e-01 -1.333622485399246216e-01
5.453000000000000000e+03 7.481125640869140625e+01 -2.618508911132812500e+01 4.221759364008903503e-02 6.493253707885742188e+00 1.960641384124755859e+00 3.044175803661346436e-01
5.454000000000000000e+03 1.167999172210693359e+01 1.517996501922607422e+01 -1.189573287963867188e+00 4.999088048934936523e-01 -2.068993300199508667e-01 -2.621910870075225830e-01
5.455000000000000000e+03 7.439052581787109375e+01 1.594007778167724609e+01 7.685550451278686523e-01 6.022395133972167969e+00 2.037285089492797852e+00 -1.723538786172866821e-01
5.456000000000000000e+03 6.147976875305175781e+00 -1.185729503631591797e+01 -1.136658526957035065e-02 -7.744371891021728516e-02 -2.664308995008468628e-02 -1.940587759017944336e-01
5.457000000000000000e+03 7.324300384521484375e+01 1.943890190124511719e+01 3.116782009601593018e-01 6.530755519866943359e+00 2.052730083465576172e+00 2.994253039360046387e-01
5.458000000000000000e+03 3.758048629760742188e+01 -2.008257675170898438e+01 1.070323467254638672e+00 3.063574314117431641e+00 1.240169405937194824e+00 1.872088909149169922e-01
5.459000000000000000e+03 5.039873123168945312e+00 -1.471636199951171875e+01 1.732396520674228668e-02 -1.836504787206649780e-01 -4.989795386791229248e-02 -1.689536124467849731e-01
5.460000000000000000e+03 6.417685985565185547e+00 -1.505159950256347656e+01 3.310650959610939026e-02 -1.126135438680648804e-01 -2.385211177170276642e-02 -1.878937482833862305e-01
5.461000000000000000e+03 1.571294116973876953e+01 2.048252677917480469e+01 -6.141894459724426270e-01 1.180691793560981750e-01 -1.488360762596130371e-01 -1.383160203695297241e-01
5.462000000000000000e+03 6.096471405029296875e+01 -1.724685287475585938e+01 7.865146994590759277e-01 6.971786022186279297e+00 2.327490329742431641e+00 -8.507782816886901855e-01
5.463000000000000000e+03 7.460137176513671875e+01 -1.965726280212402344e+01 -6.367893218994140625e-01 7.576293945312500000e+00 2.081851482391357422e+00 4.289935827255249023e-01
5.464000000000000000e+03 6.336874008178710938e+00 1.213947677612304688e+01 -6.678921580314636230e-01 1.365489006042480469e+00 2.092790305614471436e-01 -9.922267198562622070e-01
5.465000000000000000e+03 5.610675430297851562e+01 -2.970835924148559570e+00 -1.264287829399108887e+00 5.291786193847656250e+00 1.208249568939208984e+00 -3.659190654754638672e+00
5.466000000000000000e+03 7.053909301757812500e+00 -2.355192375183105469e+01 6.561335921287536621e-02 -9.115255624055862427e-02 -7.661758922040462494e-03 -6.019766256213188171e-02
5.467000000000000000e+03 5.834433555603027344e+00 -2.308229064941406250e+01 5.068821460008621216e-02 -1.971367448568344116e-01 -4.393456131219863892e-02 -6.728207319974899292e-02
5.468000000000000000e+03 5.143970966339111328e+00 1.422063922882080078e+01 -4.840944111347198486e-01 1.229811429977416992e+00 2.237150967121124268e-01 -6.775082945823669434e-01
5.469000000000000000e+03 7.251143646240234375e+01 2.055469322204589844e+01 1.622963398694992065e-01 6.624859809875488281e+00 2.036146879196166992e+00 3.065611720085144043e-01
5.470000000000000000e+03 7.230029296875000000e+01 2.162969589233398438e+01 6.360667198896408081e-02 6.634140014648437500e+00 2.009324073791503906e+00 2.716954350471496582e-01
5.471000000000000000e+03 5.976677703857421875e+01 -2.127478599548339844e+01 -4.199383854866027832e-01 6.984284400939941406e+00 1.969303727149963379e+00 -8.665229678153991699e-01
5.472000000000000000e+03 6.036293506622314453e+00 -1.101690483093261719e+01 -2.526851370930671692e-02 -6.719975918531417847e-02 -2.774048037827014923e-02 -1.888121217489242554e-01
5.473000000000000000e+03 5.426585674285888672e+00 1.598171997070312500e+01 -4.796790182590484619e-01 1.230352520942687988e+00 2.252020537853240967e-01 -4.301489591598510742e-01
5.474000000000000000e+03 5.634068012237548828e+00 1.493110847473144531e+01 -5.388596653938293457e-01 1.235046148300170898e+00 2.088559269905090332e-01 -5.706389546394348145e-01
5.475000000000000000e+03 6.954541778564453125e+01 -2.093392372131347656e+01 5.649982094764709473e-01 4.261124134063720703e+00 1.447836756706237793e+00 8.173586130142211914e-01
5.476000000000000000e+03 5.645391845703125000e+01 1.668070793151855469e+01 6.010085344314575195e-01 5.465559959411621094e+00 1.819970488548278809e+00 2.548634767532348633e+00
5.477000000000000000e+03 1.131688976287841797e+01 1.441373634338378906e+01 -1.215920090675354004e+00 6.176057457923889160e-01 -1.794943064451217651e-01 -3.159302175045013428e-01
5.478000000000000000e+03 2.158037567138671875e+01 -1.477800846099853516e+01 3.435108363628387451e-01 1.594767808914184570e+00 5.814836025238037109e-01 6.793909072875976562e-01
5.479000000000000000e+03 6.496721649169921875e+01 -2.353658676147460938e+01 4.118959605693817139e-01 4.884057044982910156e+00 1.588786005973815918e+00 -6.489126682281494141e-01
5.480000000000000000e+03 6.728953552246093750e+01 -2.196779251098632812e+01 7.520361542701721191e-01 4.208441257476806641e+00 1.488143324851989746e+00 -1.565672606229782104e-01
5.481000000000000000e+03 1.541061782836914062e+01 -1.173704242706298828e+01 -5.988883320242166519e-03 2.740566134452819824e-01 8.042031526565551758e-02 -1.808646768331527710e-01
5.482000000000000000e+03 1.686288261413574219e+01 -1.085771083831787109e+01 -1.068687438964843750e-01 2.934370338916778564e-01 5.597048997879028320e-02 -1.698687672615051270e-01
5.483000000000000000e+03 1.552615737915039062e+01 -9.611435890197753906e+00 -2.563064098358154297e-01 2.562743127346038818e-01 -9.629306987335439771e-06 -1.635047793388366699e-01
5.484000000000000000e+03 2.041159248352050781e+01 -1.419983577728271484e+01 4.197393357753753662e-01 1.065925478935241699e+00 4.456994533538818359e-01 4.583019316196441650e-01
5.485000000000000000e+03 1.520994663238525391e+01 -9.258471488952636719e+00 -2.936240732669830322e-01 2.449073940515518188e-01 -1.461500208824872971e-02 -1.484990119934082031e-01
5.486000000000000000e+03 6.569336700439453125e+01 -2.096883964538574219e+01 6.591625213623046875e-01 4.085329532623291016e+00 1.423347592353820801e+00 -8.257470726966857910e-01
5.487000000000000000e+03 7.341964721679687500e+01 -2.734846115112304688e+01 1.475438177585601807e-01 6.183940410614013672e+00 1.899445295333862305e+00 3.024658262729644775e-01
5.488000000000000000e+03 7.670256137847900391e+00 2.706887245178222656e+01 -1.007964834570884705e-02 9.694147109985351562e-01 2.878005206584930420e-01 1.756965816020965576e-01
5.489000000000000000e+03 6.515374660491943359e+00 2.893339920043945312e+01 2.244317717850208282e-02 1.050853729248046875e+00 3.219890594482421875e-01 1.801127642393112183e-01
5.490000000000000000e+03 4.926677322387695312e+01 -2.225031661987304688e+01 4.657845795154571533e-01 1.407381057739257812e+00 5.619497299194335938e-01 -4.096227288246154785e-01
5.491000000000000000e+03 4.648583602905273438e+01 -2.274836349487304688e+01 2.830031514167785645e-01 2.437515258789062500e+00 8.161554932594299316e-01 -8.717866539955139160e-01
5.492000000000000000e+03 5.414651870727539062e+01 2.152205467224121094e+01 -8.473980426788330078e-01 5.996448993682861328e+00 1.544715285301208496e+00 5.123645067214965820e-01
5.493000000000000000e+03 5.579606628417968750e+01 2.183488464355468750e+01 -4.830489158630371094e-01 5.661139965057373047e+00 1.553427219390869141e+00 8.241968750953674316e-01
5.494000000000000000e+03 4.910517120361328125e+01 2.119887733459472656e+01 -8.224326968193054199e-01 4.244097709655761719e+00 1.026499509811401367e+00 -1.461196303367614746e+00
5.495000000000000000e+03 4.966504669189453125e+01 2.023007011413574219e+01 -1.076792478561401367e+00 4.932482242584228516e+00 1.156706929206848145e+00 -1.659943938255310059e+00
5.496000000000000000e+03 2.800033569335937500e+01 2.448701286315917969e+01 -8.397046923637390137e-01 2.105991363525390625e+00 3.798860311508178711e-01 4.946478307247161865e-01
5.497000000000000000e+03 6.039852142333984375e+01 -2.234760284423828125e+01 -3.566488325595855713e-01 6.335126876831054688e+00 1.793543457984924316e+00 -7.594350576400756836e-01
5.498000000000000000e+03 5.017169570922851562e+01 1.981093978881835938e+01 -1.243299603462219238e+00 5.567412376403808594e+00 1.297233819961547852e+00 -1.530181288719177246e+00
5.499000000000000000e+03 6.755029296875000000e+01 2.411796951293945312e+01 -4.821739718317985535e-02 6.221668720245361328e+00 1.852035403251647949e+00 4.359272867441177368e-02
5.500000000000000000e+03 6.903073883056640625e+01 -2.795733261108398438e+01 2.934379279613494873e-01 5.462008476257324219e+00 1.726633906364440918e+00 9.315278381109237671e-02
5.501000000000000000e+03 7.098954010009765625e+01 -2.586028099060058594e+01 2.963262796401977539e-01 5.645394802093505859e+00 1.782516360282897949e+00 3.318049907684326172e-01
5.502000000000000000e+03 7.067356109619140625e+01 -2.492755889892578125e+01 3.047945201396942139e-01 5.486922264099121094e+00 1.737514972686767578e+00 3.774465620517730713e-01
5.503000000000000000e+03 7.001924133300781250e+01 2.136606597900390625e+01 -2.085742168128490448e-02 6.629764556884765625e+00 1.982672095298767090e+00 2.067206650972366333e-01
5.504000000000000000e+03 9.152473449707031250e+00 -2.575548362731933594e+01 7.248358428478240967e-02 1.353848278522491455e-01 6.236052140593528748e-02 -1.569564640522003174e-02
5.505000000000000000e+03 8.596635818481445312e+00 2.689072227478027344e+01 -2.029498480260372162e-02 9.026294946670532227e-01 2.647003531455993652e-01 1.691075712442398071e-01
5.506000000000000000e+03 9.372926712036132812e+00 2.548796463012695312e+01 -7.490706443786621094e-02 8.130260705947875977e-01 2.214357107877731323e-01 1.569610983133316040e-01
5.507000000000000000e+03 5.318330001831054688e+01 2.178709220886230469e+01 -1.079700946807861328e+00 5.973735332489013672e+00 1.468210339546203613e+00 8.054460585117340088e-02
5.508000000000000000e+03 3.880750656127929688e+01 -2.363865470886230469e+01 1.958852857351303101e-01 3.490897893905639648e+00 1.106034994125366211e+00 -1.633533835411071777e-01
5.509000000000000000e+03 9.840806961059570312e+00 1.558070278167724609e+01 -9.969690442085266113e-01 8.699525594711303711e-01 -3.810494020581245422e-02 -2.880028486251831055e-01
5.510000000000000000e+03 9.044795036315917969e+00 1.584749889373779297e+01 -9.062933921813964844e-01 9.762433767318725586e-01 2.098499238491058350e-02 -2.937534749507904053e-01
5.511000000000000000e+03 7.106431579589843750e+01 1.697084617614746094e+01 6.611902117729187012e-01 6.543255805969238281e+00 2.161333799362182617e+00 7.082522511482238770e-01
5.512000000000000000e+03 6.810377502441406250e+01 -2.327979850769042969e+01 6.288421750068664551e-01 4.638058662414550781e+00 1.580070257186889648e+00 1.030563265085220337e-01
5.513000000000000000e+03 6.912789916992187500e+01 -2.265669822692871094e+01 6.208261251449584961e-01 4.694481849670410156e+00 1.594592452049255371e+00 4.202236533164978027e-01
5.514000000000000000e+03 1.924986457824707031e+01 -1.448878288269042969e+01 3.769222497940063477e-01 8.380410075187683105e-01 3.644889593124389648e-01 2.738765180110931396e-01
5.515000000000000000e+03 2.187963485717773438e+01 -1.601198196411132812e+01 1.803103387355804443e-01 1.867449283599853516e+00 6.143279075622558594e-01 5.737053751945495605e-01
5.516000000000000000e+03 7.391236114501953125e+01 -2.541506767272949219e+01 5.055756494402885437e-02 6.331192970275878906e+00 1.914525151252746582e+00 4.040006399154663086e-01
5.517000000000000000e+03 7.247047424316406250e+01 1.960772514343261719e+01 2.561774849891662598e-01 6.585475444793701172e+00 2.052495718002319336e+00 3.469346463680267334e-01
5.518000000000000000e+03 1.684307861328125000e+01 -1.243259811401367188e+01 1.012579500675201416e-01 3.720679283142089844e-01 1.419977694749832153e-01 -1.055616363883018494e-01
5.519000000000000000e+03 1.517718410491943359e+01 -1.055377101898193359e+01 -1.352675408124923706e-01 2.642321288585662842e-01 3.868937864899635315e-02 -2.027596533298492432e-01
5.520000000000000000e+03 2.925356483459472656e+01 2.126164627075195312e+01 -9.066761732101440430e-01 2.437376022338867188e+00 4.592099785804748535e-01 1.365054011344909668e+00
5.521000000000000000e+03 2.826643943786621094e+01 2.072936058044433594e+01 -1.162629127502441406e+00 3.020252466201782227e+00 5.572870373725891113e-01 1.312410950660705566e+00
5.522000000000000000e+03 5.826664733886718750e+01 -5.810813903808593750e+00 4.726639389991760254e-01 6.515270709991455078e+00 2.096380472183227539e+00 -4.431031942367553711e-01
5.523000000000000000e+03 5.895405197143554688e+01 1.937900924682617188e+01 6.858485937118530273e-01 4.346182823181152344e+00 1.509609460830688477e+00 1.278312325477600098e+00
5.524000000000000000e+03 7.330594635009765625e+01 -2.174615669250488281e+01 -2.456574141979217529e-01 6.533601284027099609e+00 1.886383056640625000e+00 7.337404489517211914e-01
5.525000000000000000e+03 6.814347839355468750e+01 2.035628890991210938e+01 -7.122578471899032593e-02 6.670769214630126953e+00 1.979863047599792480e+00 4.224631935358047485e-02
5.526000000000000000e+03 7.171611022949218750e+01 1.584576129913330078e+01 1.079802989959716797e+00 6.038473606109619141e+00 2.135483026504516602e+00 6.345434188842773438e-01
5.527000000000000000e+03 7.168987274169921875e+01 1.499034309387207031e+01 1.411472201347351074e+00 5.709388256072998047e+00 2.136258125305175781e+00 6.594515442848205566e-01
5.528000000000000000e+03 4.607128143310546875e+00 -2.158927536010742188e+01 3.527441620826721191e-02 -3.034086525440216064e-01 -8.044027537107467651e-02 -7.872213423252105713e-02
5.529000000000000000e+03 1.810112380981445312e+01 -1.416348934173583984e+01 3.339045047760009766e-01 6.190207600593566895e-01 2.858775854110717773e-01 1.103261336684226990e-01
5.530000000000000000e+03 1.021617794036865234e+01 1.705098724365234375e+01 -8.713217377662658691e-01 7.543638348579406738e-01 -3.508736193180084229e-02 -1.458625644445419312e-01
5.531000000000000000e+03 1.053252792358398438e+01 1.639793777465820312e+01 -9.668903350830078125e-01 7.121232748031616211e-01 -7.643011957406997681e-02 -1.896896660327911377e-01
5.532000000000000000e+03 2.685223960876464844e+01 -1.621445274353027344e+01 -2.998288273811340332e-01 3.729938507080078125e+00 1.029032826423645020e+00 -2.865993380546569824e-01
5.533000000000000000e+03 2.849874687194824219e+01 -1.528963375091552734e+01 -1.087851822376251221e-01 3.903541564941406250e+00 1.138426899909973145e+00 -9.697884321212768555e-01
5.534000000000000000e+03 6.383731460571289062e+01 -2.204333496093750000e+01 3.481110334396362305e-01 5.007554531097412109e+00 1.606699705123901367e+00 -1.019677400588989258e+00
5.535000000000000000e+03 1.065447711944580078e+01 -7.355812072753906250e+00 -1.789108067750930786e-01 1.131556406617164612e-01 -1.972654648125171661e-02 -1.393405646085739136e-01
5.536000000000000000e+03 1.160664081573486328e+01 -7.611922740936279297e+00 -2.072077393531799316e-01 1.423416882753372192e-01 -1.945981569588184357e-02 -1.382946223020553589e-01
5.537000000000000000e+03 2.612326240539550781e+01 -1.642410850524902344e+01 -2.758017778396606445e-01 3.577178955078125000e+00 9.904131889343261719e-01 -4.186923056840896606e-02
5.538000000000000000e+03 1.230964851379394531e+01 -8.935138702392578125e+00 -1.859203875064849854e-01 1.750125885009765625e-01 -3.272336907684803009e-03 -1.810126751661300659e-01
5.539000000000000000e+03 7.374435901641845703e+00 -7.369043350219726562e+00 -9.045108407735824585e-02 1.353634707629680634e-02 -2.307442203164100647e-02 -1.470636278390884399e-01
5.540000000000000000e+03 8.085944175720214844e+00 -7.542852878570556641e+00 -1.067656576633453369e-01 3.911656141281127930e-02 -2.029472962021827698e-02 -1.554754227399826050e-01
5.541000000000000000e+03 2.345564079284667969e+01 -1.681939888000488281e+01 -2.425346989184617996e-03 2.497094154357910156e+00 7.484006881713867188e-01 4.509848058223724365e-01
5.542000000000000000e+03 4.031694793701171875e+01 1.980171012878417969e+01 -7.211351394653320312e-01 7.131929993629455566e-01 -2.382629550993442535e-03 -2.596206367015838623e-01
5.543000000000000000e+03 4.027575683593750000e+01 1.901565742492675781e+01 -9.241086840629577637e-01 6.488043665885925293e-01 -8.259129524230957031e-02 -2.335320562124252319e-01
5.544000000000000000e+03 1.643744468688964844e+01 2.104109382629394531e+01 -5.182555913925170898e-01 1.205145865678787231e-01 -1.193223074078559875e-01 -1.979420632123947144e-01
5.545000000000000000e+03 6.417723655700683594e+00 1.662036323547363281e+01 -5.614410042762756348e-01 1.171964883804321289e+00 1.831571608781814575e-01 -3.272666037082672119e-01
5.546000000000000000e+03 1.507066440582275391e+01 2.115666198730468750e+01 -4.926126897335052490e-01 2.016414850950241089e-01 -8.729135990142822266e-02 -8.619969338178634644e-02
5.547000000000000000e+03 6.374355792999267578e+00 1.453320217132568359e+01 -6.556096673011779785e-01 1.254930496215820312e+00 1.797962337732315063e-01 -6.132229566574096680e-01
5.548000000000000000e+03 6.203565979003906250e+01 -1.677459144592285156e+01 4.205837845802307129e-01 6.229627609252929688e+00 1.995063424110412598e+00 -9.267929196357727051e-01
5.549000000000000000e+03 6.247577285766601562e+01 1.980163002014160156e+01 7.779655456542968750e-01 4.479169845581054688e+00 1.577140569686889648e+00 -9.790533035993576050e-02
5.550000000000000000e+03 4.749631500244140625e+01 -1.964010810852050781e+01 -8.760047703981399536e-02 1.614247441291809082e+00 4.579941034317016602e-01 -7.781437039375305176e-01
5.551000000000000000e+03 5.797204589843750000e+01 1.807526016235351562e+01 7.369502186775207520e-01 4.428030014038085938e+00 1.549494028091430664e+00 1.886750817298889160e+00
5.552000000000000000e+03 6.900348186492919922e+00 2.027240943908691406e+01 -3.224783837795257568e-01 1.057513594627380371e+00 2.205105572938919067e-01 -6.529913283884525299e-03
5.553000000000000000e+03 7.422384643554687500e+01 -2.135654640197753906e+01 -3.271323442459106445e-01 6.912403583526611328e+00 1.975581407546997070e+00 5.400799512863159180e-01
5.554000000000000000e+03 7.366039276123046875e+01 -2.233172607421875000e+01 -1.751796752214431763e-01 6.564847469329833984e+00 1.916900396347045898e+00 6.446701288223266602e-01
5.555000000000000000e+03 7.384375762939453125e+01 1.672039985656738281e+01 7.559291720390319824e-01 6.099393367767333984e+00 2.056596755981445312e+00 6.916492432355880737e-02
5.556000000000000000e+03 7.325061798095703125e+01 1.562104511260986328e+01 1.027220249176025391e+00 5.799673557281494141e+00 2.048068046569824219e+00 5.423806235194206238e-02
5.557000000000000000e+03 6.621579647064208984e+00 -9.402451515197753906e+00 -5.240991711616516113e-02 -2.618994563817977905e-02 -2.357995882630348206e-02 -1.777576655149459839e-01
5.558000000000000000e+03 6.153838729858398438e+01 -2.115415382385253906e+01 7.401888072490692139e-02 6.175233364105224609e+00 1.874775648117065430e+00 -1.060354232788085938e+00
5.559000000000000000e+03 6.082765960693359375e+01 -2.087687110900878906e+01 -1.135962828993797302e-01 6.601243495941162109e+00 1.946294188499450684e+00 -1.143462300300598145e+00
5.560000000000000000e+03 1.069946098327636719e+01 1.566652202606201172e+01 -1.057775735855102539e+00 7.180712223052978516e-01 -1.019113510847091675e-01 -2.337785810232162476e-01
5.561000000000000000e+03 6.338476657867431641e+00 -1.438602733612060547e+01 2.374530583620071411e-02 -1.022169962525367737e-01 -2.354150637984275818e-02 -1.925334483385086060e-01
5.562000000000000000e+03 1.247919654846191406e+01 1.902758979797363281e+01 -7.450924515724182129e-01 3.854314684867858887e-01 -1.078982874751091003e-01 -2.814451977610588074e-02
5.563000000000000000e+03 1.321015930175781250e+01 -8.994089126586914062e+00 -2.177277505397796631e-01 1.995826959609985352e-01 -5.443514324724674225e-03 -1.728324592113494873e-01
5.564000000000000000e+03 6.843403339385986328e+00 2.224847412109375000e+01 -2.028824537992477417e-01 1.039747595787048340e+00 2.510595321655273438e-01 9.441638737916946411e-02
5.565000000000000000e+03 7.266247558593750000e+01 1.806933021545410156e+01 4.995974600315093994e-01 6.425250530242919922e+00 2.077454566955566406e+00 3.563403487205505371e-01
5.566000000000000000e+03 7.445746612548828125e+01 -2.311869812011718750e+01 -1.351643055677413940e-01 6.666050910949707031e+00 1.959265947341918945e+00 4.509044587612152100e-01
5.567000000000000000e+03 5.612996101379394531e+00 2.305221748352050781e+01 -1.213322207331657410e-01 1.158957004547119141e+00 3.112874627113342285e-01 1.131681278347969055e-01
5.568000000000000000e+03 6.784397602081298828e+00 2.337542915344238281e+01 -1.356239765882492065e-01 1.045121431350708008e+00 2.728492319583892822e-01 1.297787874937057495e-01
5.569000000000000000e+03 3.018455314636230469e+01 -1.891730880737304688e+01 1.744516640901565552e-01 3.027202129364013672e+00 9.604961276054382324e-01 -7.075784802436828613e-01
5.570000000000000000e+03 6.362134456634521484e+00 -1.811418914794921875e+01 5.576738342642784119e-02 -1.356800794601440430e-01 -2.397380955517292023e-02 -1.467702090740203857e-01
5.571000000000000000e+03 1.747574806213378906e+01 -1.245991325378417969e+01 1.754990220069885254e-01 3.621641397476196289e-01 1.612989455461502075e-01 -6.120336800813674927e-02
5.572000000000000000e+03 1.220714950561523438e+01 -1.010042572021484375e+01 -1.267973780632019043e-01 1.783928424119949341e-01 1.547863800078630447e-02 -2.122823297977447510e-01
5.573000000000000000e+03 2.794257164001464844e+01 -1.581822586059570312e+01 -2.086425721645355225e-01 3.891281366348266602e+00 1.104791641235351562e+00 -6.860650777816772461e-01
5.574000000000000000e+03 2.862156867980957031e+01 -1.633180999755859375e+01 -2.428655512630939484e-02 3.573138475418090820e+00 1.064655542373657227e+00 -8.295804262161254883e-01
5.575000000000000000e+03 7.032067108154296875e+01 -2.261506080627441406e+01 4.342640042304992676e-01 5.082076072692871094e+00 1.654902100563049316e+00 6.401158571243286133e-01
5.576000000000000000e+03 7.063968658447265625e+01 2.070023727416992188e+01 5.944390222430229187e-02 6.662481307983398438e+00 2.016577482223510742e+00 3.150987029075622559e-01
5.577000000000000000e+03 3.687117004394531250e+01 -2.031197357177734375e+01 9.797865152359008789e-01 2.887455463409423828e+00 1.160172581672668457e+00 5.698594450950622559e-02
5.578000000000000000e+03 6.956711578369140625e+01 -2.440437316894531250e+01 4.179523587226867676e-01 5.164002895355224609e+00 1.674586534500122070e+00 3.002614676952362061e-01
5.579000000000000000e+03 6.117099761962890625e+01 -2.021805953979492188e+01 2.484749406576156616e-01 6.341615200042724609e+00 1.977027058601379395e+00 -1.258515715599060059e+00
5.580000000000000000e+03 6.231550216674804688e+01 -2.006581687927246094e+01 3.360742032527923584e-01 5.738524913787841797e+00 1.822379708290100098e+00 -1.372715473175048828e+00
5.581000000000000000e+03 4.506274032592773438e+01 -2.104923820495605469e+01 1.142519861459732056e-01 3.057298183441162109e+00 9.514650702476501465e-01 -1.006751894950866699e+00
5.582000000000000000e+03 2.774768829345703125e+01 2.168073081970214844e+01 -1.290568232536315918e+00 3.031397581100463867e+00 5.222488045692443848e-01 8.263067603111267090e-01
5.583000000000000000e+03 6.390378952026367188e+01 2.099580574035644531e+01 3.710465431213378906e-01 5.290191650390625000e+00 1.698371410369873047e+00 -2.177709639072418213e-01
5.584000000000000000e+03 6.408972167968750000e+01 2.012580490112304688e+01 4.211282432079315186e-01 5.276075363159179688e+00 1.709161043167114258e+00 -4.079475104808807373e-01
5.585000000000000000e+03 5.834035110473632812e+01 2.117294692993164062e+01 2.012334614992141724e-01 4.994576454162597656e+00 1.558743000030517578e+00 9.969294071197509766e-01
5.586000000000000000e+03 4.401018142700195312e+01 -2.310335159301757812e+01 6.497117131948471069e-02 3.330846309661865234e+00 1.018745303153991699e+00 -8.778479099273681641e-01
5.587000000000000000e+03 1.018821048736572266e+01 -2.570843124389648438e+01 8.376438170671463013e-02 2.477555572986602783e-01 9.945598244667053223e-02 -2.152502071112394333e-03
5.588000000000000000e+03 1.709939575195312500e+01 2.308437728881835938e+01 -2.964489161968231201e-01 3.409282863140106201e-01 1.334380824118852615e-02 -2.577556967735290527e-01
5.589000000000000000e+03 5.003162765502929688e+01 2.204929924011230469e+01 -9.312675595283508301e-01 4.712828159332275391e+00 1.134468078613281250e+00 -1.090819239616394043e+00
5.590000000000000000e+03 6.580001068115234375e+01 2.566980552673339844e+01 -1.783562079071998596e-02 5.887507438659667969e+00 1.760901451110839844e+00 7.043232768774032593e-02
5.591000000000000000e+03 4.735134887695312500e+01 2.302330017089843750e+01 -4.121408760547637939e-01 3.081142902374267578e+00 8.007006049156188965e-01 -1.109918355941772461e+00
5.592000000000000000e+03 6.811483001708984375e+01 2.127506637573242188e+01 -5.367923527956008911e-02 6.487554550170898438e+00 1.930162549018859863e+00 3.784533217549324036e-02
5.593000000000000000e+03 4.578584671020507812e+01 -2.347800827026367188e+01 2.434251606464385986e-01 2.771948575973510742e+00 9.046121239662170410e-01 -8.923164010047912598e-01
5.594000000000000000e+03 4.852306747436523438e+01 2.327020835876464844e+01 -5.650637149810791016e-01 3.693930387496948242e+00 9.386600255966186523e-01 -1.104114055633544922e+00
5.595000000000000000e+03 1.873191452026367188e+01 2.579377555847167969e+01 -1.721297800540924072e-01 6.674678325653076172e-01 1.486014276742935181e-01 -3.031330406665802002e-01
5.596000000000000000e+03 9.398530006408691406e+00 1.420987796783447266e+01 -1.072996973991394043e+00 1.029720425605773926e+00 -1.298295613378286362e-02 -4.207373261451721191e-01
5.597000000000000000e+03 6.770199775695800781e+00 -1.640388298034667969e+01 5.221294984221458435e-02 -1.017392426729202271e-01 -1.485788915306329727e-02 -1.754063069820404053e-01
5.598000000000000000e+03 7.275416564941406250e+01 -2.403977966308593750e+01 9.306664764881134033e-02 6.085072994232177734e+00 1.853441953659057617e+00 5.508244037628173828e-01
5.599000000000000000e+03 7.023281860351562500e+01 -2.344408226013183594e+01 3.733007311820983887e-01 5.207422256469726562e+00 1.674216866493225098e+00 5.082763433456420898e-01
5.600000000000000000e+03 6.307100677490234375e+01 2.097688293457031250e+01 4.998748302459716797e-01 5.019804477691650391e+00 1.655903697013854980e+00 -1.058680862188339233e-01
5.601000000000000000e+03 6.302915954589843750e+01 2.202908325195312500e+01 3.636142909526824951e-01 5.184010028839111328e+00 1.664287328720092773e+00 1.508612465113401413e-02
5.602000000000000000e+03 7.216210937500000000e+01 1.749207687377929688e+01 6.144807934761047363e-01 6.391265869140625000e+00 2.101723909378051758e+00 4.691053926944732666e-01
5.603000000000000000e+03 7.255326843261718750e+01 1.643325042724609375e+01 9.118527173995971680e-01 6.056334972381591797e+00 2.090456247329711914e+00 3.682672977447509766e-01
5.604000000000000000e+03 1.269582748413085938e+01 1.986913108825683594e+01 -6.459846496582031250e-01 3.746188580989837646e-01 -8.140974491834640503e-02 -6.324585527181625366e-03
5.605000000000000000e+03 1.062692165374755859e+01 1.905302619934082031e+01 -6.539276838302612305e-01 6.628089547157287598e-01 2.664380939677357674e-03 -1.116783544421195984e-02
5.606000000000000000e+03 7.321648120880126953e+00 2.413495445251464844e+01 -1.167413741350173950e-01 9.910449981689453125e-01 2.622910737991333008e-01 1.465588510036468506e-01
5.607000000000000000e+03 1.788365364074707031e+01 -1.645759010314941406e+01 3.067596554756164551e-01 8.380641341209411621e-01 3.434471487998962402e-01 1.728393882513046265e-01
5.608000000000000000e+03 1.978509330749511719e+01 -1.591386890411376953e+01 3.573506474494934082e-01 1.168307304382324219e+00 4.576973915100097656e-01 4.055495262145996094e-01
5.609000000000000000e+03 6.774580478668212891e+00 1.540040874481201172e+01 -6.781775355339050293e-01 1.197496294975280762e+00 1.557956337928771973e-01 -4.654514789581298828e-01
5.610000000000000000e+03 3.063262367248535156e+01 2.110807800292968750e+01 -5.646721720695495605e-01 1.652532219886779785e+00 3.263579905033111572e-01 1.394938588142395020e+00
5.611000000000000000e+03 1.039464855194091797e+01 -8.396105766296386719e+00 -1.497472077608108521e-01 1.129716709256172180e-01 -1.103266235440969467e-02 -1.736283898353576660e-01
5.612000000000000000e+03 9.292186737060546875e+00 -7.915468692779541016e+00 -1.301971077919006348e-01 7.528866827487945557e-02 -1.647253334522247314e-02 -1.623919606208801270e-01
5.613000000000000000e+03 5.655864238739013672e+00 1.672027206420898438e+01 -4.592790603637695312e-01 1.223033666610717773e+00 2.291263639926910400e-01 -3.381240963935852051e-01
5.614000000000000000e+03 1.191179847717285156e+01 2.008140945434570312e+01 -5.929831266403198242e-01 4.797022640705108643e-01 -3.398426249623298645e-02 1.181882899254560471e-02
5.615000000000000000e+03 1.135972595214843750e+01 1.938995933532714844e+01 -6.498345136642456055e-01 5.549847483634948730e-01 -2.845492213964462280e-02 1.349264057353138924e-03
5.616000000000000000e+03 7.080407714843750000e+01 -2.354777336120605469e+01 3.096027374267578125e-01 5.400096893310546875e+00 1.712909936904907227e+00 5.536965727806091309e-01
5.617000000000000000e+03 7.305339050292968750e+01 -2.232903289794921875e+01 -1.083307862281799316e-01 6.360593795776367188e+00 1.875678896903991699e+00 7.174589037895202637e-01
5.618000000000000000e+03 7.293908691406250000e+01 -2.311393737792968750e+01 -1.949652098119258881e-02 6.190092086791992188e+00 1.851178646087646484e+00 6.689796447753906250e-01
5.619000000000000000e+03 2.053157615661621094e+01 -1.624070358276367188e+01 2.857070863246917725e-01 1.407169699668884277e+00 5.078630447387695312e-01 4.399850964546203613e-01
5.620000000000000000e+03 1.538931751251220703e+01 -1.257894420623779297e+01 5.995390936732292175e-02 3.234705030918121338e-01 1.150273233652114868e-01 -1.610052287578582764e-01
5.621000000000000000e+03 1.560453033447265625e+01 -1.101002788543701172e+01 -1.004005521535873413e-01 2.803300619125366211e-01 5.397885292768478394e-02 -1.774286031723022461e-01
5.622000000000000000e+03 6.723586559295654297e+00 -1.019253063201904297e+01 -4.405445232987403870e-02 -2.839467674493789673e-02 -2.173473872244358063e-02 -1.907311379909515381e-01
5.623000000000000000e+03 7.238532257080078125e+01 1.875721549987792969e+01 3.917728364467620850e-01 6.526234149932861328e+00 2.075402021408081055e+00 3.937087357044219971e-01
5.624000000000000000e+03 1.371827316284179688e+01 -1.009212017059326172e+01 -1.694944947957992554e-01 2.381118237972259521e-01 2.058520168066024780e-02 -1.986739188432693481e-01
5.625000000000000000e+03 6.898717498779296875e+01 -2.332844543457031250e+01 5.214937925338745117e-01 4.884522438049316406e+00 1.621804833412170410e+00 3.093592822551727295e-01
5.626000000000000000e+03 6.957462310791015625e+01 -2.349567985534667969e+01 5.248908400535583496e-01 4.992366313934326172e+00 1.655177116394042969e+00 3.920388221740722656e-01
5.627000000000000000e+03 6.335664749145507812e+00 -1.358525371551513672e+01 1.467781420797109604e-02 -9.536835551261901855e-02 -2.420716360211372375e-02 -1.958145052194595337e-01
5.628000000000000000e+03 1.757093429565429688e+01 -1.396640205383300781e+01 2.730256021022796631e-01 5.436781644821166992e-01 2.450111359357833862e-01 6.451009213924407959e-02
5.629000000000000000e+03 1.734438896179199219e+01 -1.313984775543212891e+01 2.172794640064239502e-01 4.441617429256439209e-01 1.984323710203170776e-01 -9.493789635598659515e-03
5.630000000000000000e+03 1.434551906585693359e+01 2.059377098083496094e+01 -5.751067399978637695e-01 2.483689337968826294e-01 -9.802134335041046143e-02 -4.433648288249969482e-02
5.631000000000000000e+03 1.300272369384765625e+01 2.097295951843261719e+01 -4.953935742378234863e-01 3.859364092350006104e-01 -3.283714875578880310e-02 2.306445501744747162e-02
5.632000000000000000e+03 7.204039001464843750e+01 -2.384788513183593750e+01 1.466984748840332031e-01 5.841518402099609375e+00 1.796465039253234863e+00 5.886307358741760254e-01
5.633000000000000000e+03 6.608950614929199219e+00 -1.570630168914794922e+01 3.941582515835762024e-02 -1.033491790294647217e-01 -1.918000541627407074e-02 -1.828462332487106323e-01
5.634000000000000000e+03 8.016815185546875000e+00 2.364565277099609375e+01 -1.516506969928741455e-01 9.196007251739501953e-01 2.303850203752517700e-01 1.397432386875152588e-01
5.635000000000000000e+03 6.575086212158203125e+01 -2.304100990295410156e+01 5.576182603836059570e-01 4.682316780090332031e+00 1.571980595588684082e+00 -5.537703633308410645e-01
5.636000000000000000e+03 1.576904678344726562e+01 2.171592140197753906e+01 -4.363267123699188232e-01 2.170445322990417480e-01 -6.578465551137924194e-02 -1.337030231952667236e-01
5.637000000000000000e+03 5.639820098876953125e+01 1.895022201538085938e+01 4.534659534692764282e-02 5.632444858551025391e+00 1.703337430953979492e+00 1.827098965644836426e+00
5.638000000000000000e+03 1.717177772521972656e+01 2.163014411926269531e+01 -4.564491808414459229e-01 1.830968409776687622e-01 -8.200570195913314819e-02 -2.774416506290435791e-01
5.639000000000000000e+03 7.769852638244628906e+00 1.411412048339843750e+01 -8.709275126457214355e-01 1.248583316802978516e+00 1.132967621088027954e-01 -5.740411877632141113e-01
5.640000000000000000e+03 8.532889366149902344e+00 1.331397724151611328e+01 -1.004236459732055664e+00 1.261720180511474609e+00 7.724509388208389282e-02 -5.990841388702392578e-01
5.641000000000000000e+03 4.092914581298828125e+01 1.974719619750976562e+01 -7.185396552085876465e-01 7.640661597251892090e-01 1.365795731544494629e-02 -2.704886198043823242e-01
5.642000000000000000e+03 4.165864944458007812e+01 1.912160301208496094e+01 -8.392317295074462891e-01 8.236576914787292480e-01 -4.672209732234477997e-03 -2.848753631114959717e-01
5.643000000000000000e+03 7.135795116424560547e+00 1.426009654998779297e+01 -7.901853322982788086e-01 1.245933294296264648e+00 1.367243975400924683e-01 -6.145477890968322754e-01
5.644000000000000000e+03 7.158596515655517578e+00 1.344660186767578125e+01 -7.910507917404174805e-01 1.308186888694763184e+00 1.551408469676971436e-01 -7.191126942634582520e-01
5.645000000000000000e+03 4.304990005493164062e+01 2.093112945556640625e+01 -3.717677593231201172e-01 1.188237190246582031e+00 2.449408173561096191e-01 -5.450872182846069336e-01
5.646000000000000000e+03 1.013271713256835938e+01 -7.804757595062255859e+00 -1.593251079320907593e-01 1.020614057779312134e-01 -1.717910915613174438e-02 -1.526969969272613525e-01
5.647000000000000000e+03 7.188404083251953125e+00 1.867737197875976562e+01 -4.745911061763763428e-01 1.060925006866455078e+00 1.759001612663269043e-01 -1.119173243641853333e-01
5.648000000000000000e+03 6.981817245483398438e+00 1.948976135253906250e+01 -4.050420820713043213e-01 1.062978744506835938e+00 1.973810046911239624e-01 -5.088203772902488708e-02
5.649000000000000000e+03 7.280950927734375000e+01 1.699946212768554688e+01 7.618394494056701660e-01 6.192275524139404297e+00 2.086234569549560547e+00 3.231595158576965332e-01
5.650000000000000000e+03 9.684141159057617188e+00 1.677060317993164062e+01 -8.597308397293090820e-01 8.286367058753967285e-01 -9.328239597380161285e-03 -1.770279556512832642e-01
5.651000000000000000e+03 8.090937614440917969e+00 1.468052482604980469e+01 -8.899785280227661133e-01 1.155019640922546387e+00 7.951232790946960449e-02 -4.920812547206878662e-01
5.652000000000000000e+03 8.804757118225097656e+00 -2.091595268249511719e+01 1.077928170561790466e-01 5.577806755900382996e-02 4.907126724720001221e-02 -9.138969331979751587e-02
5.653000000000000000e+03 7.376201629638671875e+00 -2.066424369812011719e+01 8.101586252450942993e-02 -6.675177067518234253e-02 4.279226530343294144e-03 -1.062344908714294434e-01
5.654000000000000000e+03 1.415931797027587891e+01 -1.042176055908203125e+01 -1.391336023807525635e-01 2.303266227245330811e-01 2.735790424048900604e-02 -2.062298059463500977e-01
5.655000000000000000e+03 1.329576301574707031e+01 -1.150381755828857422e+01 -4.531050473451614380e-02 2.227140367031097412e-01 5.322105810046195984e-02 -2.204325497150421143e-01
5.656000000000000000e+03 9.324810028076171875e+00 1.829883003234863281e+01 -6.729532480239868164e-01 8.463051319122314453e-01 5.200557410717010498e-02 -8.052872866392135620e-02
5.657000000000000000e+03 9.727793693542480469e+00 1.764869117736816406e+01 -7.674037814140319824e-01 8.030056953430175781e-01 1.068056840449571609e-02 -1.095819175243377686e-01
5.658000000000000000e+03 5.771991729736328125e+01 2.055301475524902344e+01 1.585056036710739136e-01 5.087974071502685547e+00 1.573943853378295898e+00 1.231822252273559570e+00
5.659000000000000000e+03 5.575170898437500000e+01 1.998952865600585938e+01 -3.660595715045928955e-01 5.976210117340087891e+00 1.683045148849487305e+00 1.404558420181274414e+00
5.660000000000000000e+03 2.669099235534667969e+01 -1.698850440979003906e+01 -1.640458106994628906e-01 3.381442546844482422e+00 9.652190804481506348e-01 -2.283323258161544800e-01
5.661000000000000000e+03 8.321893692016601562e+00 2.588887977600097656e+01 -5.162592604756355286e-02 9.054200649261474609e-01 2.561382353305816650e-01 1.631805598735809326e-01
5.662000000000000000e+03 6.983551025390625000e+01 1.851845169067382812e+01 1.669283956289291382e-01 6.879987239837646484e+00 2.114074707031250000e+00 4.692336022853851318e-01
5.663000000000000000e+03 2.928391456604003906e+01 -1.670992279052734375e+01 3.085109777748584747e-02 3.444786310195922852e+00 1.042691230773925781e+00 -8.912790417671203613e-01
5.664000000000000000e+03 4.635697555541992188e+01 2.294833946228027344e+01 -3.328169584274291992e-01 2.594062805175781250e+00 6.783737540245056152e-01 -1.065172195434570312e+00
5.665000000000000000e+03 6.696670532226562500e+01 -2.665637207031250000e+01 3.489447832107543945e-01 5.149054527282714844e+00 1.649399757385253906e+00 -1.193821802735328674e-01
5.666000000000000000e+03 1.274238204956054688e+01 2.691452026367187500e+01 -2.550746127963066101e-02 6.358018517494201660e-01 1.830883175134658813e-01 6.257844716310501099e-02
5.667000000000000000e+03 3.306818008422851562e+01 -2.087928199768066406e+01 5.420837998390197754e-01 2.768784523010253906e+00 9.932605028152465820e-01 -5.019199848175048828e-01
5.668000000000000000e+03 3.475209808349609375e+01 -2.328440666198730469e+01 4.002668261528015137e-01 2.961806297302246094e+00 1.008621931076049805e+00 -2.092915773391723633e-01
5.669000000000000000e+03 5.782370376586914062e+01 2.181984329223632812e+01 1.957114785909652710e-02 5.148591518402099609e+00 1.550448775291442871e+00 9.115050435066223145e-01
5.670000000000000000e+03 5.950713348388671875e+01 2.119067573547363281e+01 4.169302284717559814e-01 4.782743453979492188e+00 1.559902071952819824e+00 7.668602466583251953e-01
5.671000000000000000e+03 5.758141326904296875e+01 2.263186645507812500e+01 -1.260327696800231934e-01 5.215701103210449219e+00 1.526900410652160645e+00 7.494558095932006836e-01
5.672000000000000000e+03 2.024291992187500000e+01 2.548197555541992188e+01 -3.070915937423706055e-01 9.014098048210144043e-01 1.782954633235931396e-01 -4.216329455375671387e-01
5.673000000000000000e+03 6.286703491210937500e+01 -2.492484092712402344e+01 3.018970228731632233e-02 5.377684116363525391e+00 1.622362136840820312e+00 -5.810002684593200684e-01
5.674000000000000000e+03 3.084504318237304688e+01 2.261201858520507812e+01 -4.993469119071960449e-01 1.531279921531677246e+00 3.095799088478088379e-01 1.101002693176269531e+00
5.675000000000000000e+03 6.467017364501953125e+01 2.466089820861816406e+01 4.047625139355659485e-02 5.706499099731445312e+00 1.724092602729797363e+00 6.631027162075042725e-02
5.676000000000000000e+03 1.881466674804687500e+01 2.448425483703613281e+01 -2.653975188732147217e-01 6.136130690574645996e-01 1.044646576046943665e-01 -3.804960846900939941e-01
5.677000000000000000e+03 6.627329254150390625e+01 2.244743156433105469e+01 3.679804876446723938e-02 6.079227447509765625e+00 1.834807753562927246e+00 -9.050820767879486084e-02
5.678000000000000000e+03 2.911100387573242188e+01 2.647830772399902344e+01 -4.985390603542327881e-01 1.686867356300354004e+00 3.564984798431396484e-01 4.502879083156585693e-01
5.679000000000000000e+03 1.133167076110839844e+01 -8.712143898010253906e+00 -1.678040474653244019e-01 1.451219469308853149e-01 -6.804630160331726074e-03 -1.790734529495239258e-01
5.680000000000000000e+03 1.454431247711181641e+01 -1.352579116821289062e+01 1.094490960240364075e-01 3.198287785053253174e-01 1.287833601236343384e-01 -1.594481468200683594e-01
5.681000000000000000e+03 1.459086799621582031e+01 -1.177211093902587891e+01 -3.214350342750549316e-02 2.720218002796173096e-01 7.196348905563354492e-02 -2.023267447948455811e-01
5.682000000000000000e+03 8.662878036499023438e+00 2.307719993591308594e+01 -2.054298669099807739e-01 8.625488281250000000e-01 1.971356868743896484e-01 1.249995455145835876e-01
5.683000000000000000e+03 7.224587249755859375e+01 -2.295372009277343750e+01 8.901530504226684570e-02 5.946195125579833984e+00 1.810563206672668457e+00 6.974976062774658203e-01
5.684000000000000000e+03 2.763237380981445312e+01 -1.654276657104492188e+01 -1.746217608451843262e-01 3.649412393569946289e+00 1.042437195777893066e+00 -5.053036212921142578e-01
5.685000000000000000e+03 1.646344947814941406e+01 -1.407755565643310547e+01 2.556434273719787598e-01 4.364645183086395264e-01 2.076323926448822021e-01 -2.372370287775993347e-02
5.686000000000000000e+03 2.901486587524414062e+01 -1.733510780334472656e+01 6.342184543609619141e-02 3.306810140609741211e+00 1.011069536209106445e+00 -7.532677650451660156e-01
5.687000000000000000e+03 9.057314872741699219e+00 1.469981479644775391e+01 -1.002223253250122070e+00 1.036927819252014160e+00 1.041140127927064896e-02 -4.142593145370483398e-01
5.688000000000000000e+03 9.718268394470214844e+00 1.480857467651367188e+01 -1.047380208969116211e+00 9.136331677436828613e-01 -4.012409597635269165e-02 -3.445906043052673340e-01
5.689000000000000000e+03 7.825922012329101562e+00 -8.297528266906738281e+00 -8.945289999246597290e-02 2.571707218885421753e-02 -1.912074908614158630e-02 -1.704037487506866455e-01
5.690000000000000000e+03 8.846129417419433594e+00 -9.282424926757812500e+00 -9.271554648876190186e-02 6.018918007612228394e-02 -9.757910855114459991e-03 -1.967319399118423462e-01
5.691000000000000000e+03 7.266001129150390625e+01 -2.493844223022460938e+01 1.332852542400360107e-01 6.030394554138183594e+00 1.849103927612304688e+00 4.716684520244598389e-01
5.692000000000000000e+03 1.172087574005126953e+01 -9.405284881591796875e+00 -1.558834612369537354e-01 1.604788899421691895e-01 1.378628076054155827e-03 -1.897724121809005737e-01
5.693000000000000000e+03 7.176599884033203125e+01 1.969293212890625000e+01 2.260897457599639893e-01 6.628552436828613281e+00 2.056392669677734375e+00 3.722003400325775146e-01
5.694000000000000000e+03 7.095415496826171875e+01 -2.266408157348632812e+01 2.880436182022094727e-01 5.391074657440185547e+00 1.703735470771789551e+00 7.333508729934692383e-01
5.695000000000000000e+03 1.198749828338623047e+01 2.136442565917968750e+01 -4.343827068805694580e-01 5.151277184486389160e-01 2.422351576387882233e-02 6.131425127387046814e-02
5.696000000000000000e+03 7.928104877471923828e+00 -1.824523925781250000e+01 8.653962612152099609e-02 -2.861534245312213898e-02 1.737728342413902283e-02 -1.486773639917373657e-01
5.697000000000000000e+03 7.740480422973632812e+00 -1.763756179809570312e+01 7.575230300426483154e-02 -3.507529199123382568e-02 1.220310386270284653e-02 -1.589373648166656494e-01
5.698000000000000000e+03 2.132328796386718750e+01 -1.674709510803222656e+01 2.524704635143280029e-01 1.714670896530151367e+00 5.901424288749694824e-01 4.944871068000793457e-01
5.699000000000000000e+03 1.724526023864746094e+01 -1.571646118164062500e+01 3.258465826511383057e-01 6.444520950317382812e-01 2.910896241664886475e-01 1.091628372669219971e-01
5.700000000000000000e+03 7.140558624267578125e+01 -2.368048858642578125e+01 2.434662580490112305e-01 5.611796855926513672e+00 1.756578922271728516e+00 5.931560397148132324e-01
5.701000000000000000e+03 6.953804969787597656e+00 2.106220054626464844e+01 -2.636423408985137939e-01 1.048720479011535645e+00 2.355234473943710327e-01 3.818723186850547791e-02
5.702000000000000000e+03 1.908617019653320312e+01 -1.589015007019042969e+01 3.546485006809234619e-01 9.528307318687438965e-01 3.922437727451324463e-01 2.711873650550842285e-01
5.703000000000000000e+03 7.527102947235107422e+00 -1.018130302429199219e+01 -5.079403519630432129e-02 -7.794280536472797394e-04 -1.547203864902257919e-02 -1.980373561382293701e-01
5.704000000000000000e+03 6.972456932067871094e+00 -1.182715797424316406e+01 -1.666801236569881439e-02 -3.814128041267395020e-02 -1.644278690218925476e-02 -2.061928063631057739e-01
5.705000000000000000e+03 8.306779861450195312e+00 -1.670393371582031250e+01 7.602661103010177612e-02 4.011034965515136719e-03 2.401129342615604401e-02 -1.767182648181915283e-01
5.706000000000000000e+03 5.455810546875000000e+00 -2.131056404113769531e+01 4.722431302070617676e-02 -2.342723608016967773e-01 -5.611441284418106079e-02 -9.374679625034332275e-02
5.707000000000000000e+03 5.147000312805175781e+00 -2.040579986572265625e+01 4.454185441136360168e-02 -2.502247393131256104e-01 -6.170486286282539368e-02 -1.018190383911132812e-01
5.708000000000000000e+03 1.598070430755615234e+01 -1.524406051635742188e+01 2.704963684082031250e-01 4.712302088737487793e-01 2.225179672241210938e-01 -1.043724548071622849e-02
5.709000000000000000e+03 1.757926750183105469e+01 -1.460270881652832031e+01 3.394336402416229248e-01 5.825856328010559082e-01 2.766057848930358887e-01 1.012324020266532898e-01
5.710000000000000000e+03 1.266296386718750000e+01 2.163778686523437500e+01 -4.135693311691284180e-01 4.364199638366699219e-01 6.855187937617301941e-03 3.426701202988624573e-02
5.711000000000000000e+03 8.365677833557128906e+00 -1.017782020568847656e+01 -6.357825547456741333e-02 3.642357513308525085e-02 -8.146404288709163666e-03 -2.067100256681442261e-01
5.712000000000000000e+03 1.064114189147949219e+01 -9.114082336425781250e+00 -1.374915093183517456e-01 1.219843626022338867e-01 -4.652142524719238281e-03 -1.873937845230102539e-01
5.713000000000000000e+03 3.243603897094726562e+01 2.064427947998046875e+01 -2.619603872299194336e-01 6.658443808555603027e-01 1.211651936173439026e-01 1.228076457977294922e+00
5.714000000000000000e+03 6.132700729370117188e+01 -2.243551826477050781e+01 -1.292758435010910034e-01 6.114238262176513672e+00 1.795488715171813965e+00 -8.333640694618225098e-01
5.715000000000000000e+03 1.001934432983398438e+01 1.856552124023437500e+01 -6.928548812866210938e-01 7.315132617950439453e-01 1.159752532839775085e-02 -4.720439761877059937e-02
5.716000000000000000e+03 9.228140830993652344e+00 1.723003196716308594e+01 -7.681456208229064941e-01 8.802577853202819824e-01 3.363365679979324341e-02 -1.620706170797348022e-01
5.717000000000000000e+03 8.388213157653808594e+00 -8.743807792663574219e+00 -9.682882577180862427e-02 4.458191245794296265e-02 -1.567407324910163879e-02 -1.798619925975799561e-01
5.718000000000000000e+03 8.567915916442871094e+00 1.424164581298828125e+01 -9.745434522628784180e-01 1.170172929763793945e+00 5.868885293602943420e-02 -4.857806265354156494e-01
5.719000000000000000e+03 8.579895019531250000e+00 1.733766746520996094e+01 -7.196543812751770020e-01 9.669665098190307617e-01 7.419364154338836670e-02 -1.684460490942001343e-01
5.720000000000000000e+03 9.973250389099121094e+00 1.953808593750000000e+01 -5.621485710144042969e-01 7.245046496391296387e-01 4.870681464672088623e-02 1.189125329256057739e-02
5.721000000000000000e+03 1.377583980560302734e+01 -1.093716526031494141e+01 -9.108294546604156494e-02 2.457067072391510010e-01 4.638712853193283081e-02 -2.053192108869552612e-01
5.722000000000000000e+03 7.138435363769531250e+01 1.791629219055175781e+01 4.635867476463317871e-01 6.576026439666748047e+00 2.111884117126464844e+00 5.194041728973388672e-01
5.723000000000000000e+03 5.946400833129882812e+01 2.003033638000488281e+01 6.479598879814147949e-01 4.481167793273925781e+00 1.538738369941711426e+00 9.508878588676452637e-01
5.724000000000000000e+03 3.463121795654296875e+01 -2.038209915161132812e+01 7.883253693580627441e-01 2.698874950408935547e+00 1.046160101890563965e+00 -4.424554109573364258e-01
5.725000000000000000e+03 3.128923034667968750e+01 -2.092258262634277344e+01 3.255127668380737305e-01 2.820983409881591797e+00 9.439488649368286133e-01 -5.112834572792053223e-01
5.726000000000000000e+03 3.309003829956054688e+01 -2.342808532714843750e+01 3.270947635173797607e-01 2.869399547576904297e+00 9.589483141899108887e-01 -2.653946578502655029e-01
5.727000000000000000e+03 6.012574386596679688e+01 2.174863433837890625e+01 3.826247453689575195e-01 4.819262504577636719e+00 1.560566186904907227e+00 5.951186418533325195e-01
5.728000000000000000e+03 6.069344711303710938e+01 2.118595695495605469e+01 5.656162500381469727e-01 4.707685947418212891e+00 1.581990718841552734e+00 4.793128967285156250e-01
5.729000000000000000e+03 5.881867218017578125e+01 2.329228210449218750e+01 4.648606479167938232e-02 5.075018405914306641e+00 1.536451220512390137e+00 5.677370429039001465e-01
5.730000000000000000e+03 1.339038467407226562e+01 -2.506822776794433594e+01 1.125367134809494019e-01 5.967845916748046875e-01 2.127963900566101074e-01 3.600924834609031677e-02
5.731000000000000000e+03 6.129134750366210938e+01 2.049338340759277344e+01 6.960346698760986328e-01 4.491960048675537109e+00 1.556398391723632812e+00 3.506929278373718262e-01
5.732000000000000000e+03 6.299026870727539062e+01 2.310905265808105469e+01 2.482179850339889526e-01 5.311711788177490234e+00 1.667979001998901367e+00 8.631919324398040771e-02
5.733000000000000000e+03 6.444763946533203125e+01 2.260379409790039062e+01 1.883374750614166260e-01 5.564386844635009766e+00 1.725817322731018066e+00 -7.634110748767852783e-02
5.734000000000000000e+03 6.766606140136718750e+01 -2.491674041748046875e+01 4.797913730144500732e-01 4.931028366088867188e+00 1.623245954513549805e+00 -8.116280287504196167e-02
5.735000000000000000e+03 6.616592407226562500e+01 2.094138717651367188e+01 4.770650714635848999e-02 6.135370731353759766e+00 1.854923248291015625e+00 -2.266543060541152954e-01
5.736000000000000000e+03 6.673130035400390625e+01 2.010541343688964844e+01 -3.050883114337921143e-02 6.377369880676269531e+00 1.904058337211608887e+00 -2.353917211294174194e-01
5.737000000000000000e+03 1.399149322509765625e+01 2.432004928588867188e+01 -1.619877219200134277e-01 4.851321578025817871e-01 9.694332629442214966e-02 7.186731323599815369e-03
5.738000000000000000e+03 8.412390708923339844e+00 1.810523796081542969e+01 -6.332603693008422852e-01 9.447668194770812988e-01 9.345194697380065918e-02 -1.178341060876846313e-01
5.739000000000000000e+03 7.205597400665283203e+00 1.627019309997558594e+01 -6.587479710578918457e-01 1.148423552513122559e+00 1.469026803970336914e-01 -3.439929783344268799e-01
5.740000000000000000e+03 8.206988334655761719e+00 -9.397075653076171875e+00 -7.718210667371749878e-02 3.148529306054115295e-02 -1.370904408395290375e-02 -1.903076320886611938e-01
5.741000000000000000e+03 7.283848762512207031e+00 -8.652572631835937500e+00 -7.605658471584320068e-02 7.726397830992937088e-03 -2.049905620515346527e-02 -1.732228100299835205e-01
5.742000000000000000e+03 1.715515327453613281e+01 -1.710860443115234375e+01 3.163979947566986084e-01 7.636923193931579590e-01 3.240270912647247314e-01 1.385954022407531738e-01
5.743000000000000000e+03 1.838932800292968750e+01 -1.578391361236572266e+01 3.514023423194885254e-01 8.471876978874206543e-01 3.595770001411437988e-01 2.354516685009002686e-01
5.744000000000000000e+03 1.509729003906250000e+01 -1.540068149566650391e+01 2.185910195112228394e-01 4.383245408535003662e-01 1.970746666193008423e-01 -5.861449986696243286e-02
5.745000000000000000e+03 1.394611549377441406e+01 2.327068901062011719e+01 -2.583926618099212646e-01 4.122211337089538574e-01 4.614854604005813599e-02 -1.209000870585441589e-02
5.746000000000000000e+03 1.570230865478515625e+01 2.292425155639648438e+01 -2.968852221965789795e-01 3.157341778278350830e-01 5.654687527567148209e-03 -1.339196413755416870e-01
5.747000000000000000e+03 4.183419418334960938e+01 2.198234176635742188e+01 -2.625051438808441162e-01 1.140031218528747559e+00 2.632578313350677490e-01 -4.330891668796539307e-01
5.748000000000000000e+03 2.509291839599609375e+01 -1.812123107910156250e+01 -1.294693201780319214e-01 2.887793540954589844e+00 8.274973034858703613e-01 1.233114302158355713e-01
5.749000000000000000e+03 1.036949253082275391e+01 -1.030587196350097656e+01 -8.928161114454269409e-02 1.136952564120292664e-01 7.324092090129852295e-03 -2.117768973112106323e-01
5.750000000000000000e+03 8.591217994689941406e+00 1.525229930877685547e+01 -8.902487754821777344e-01 1.077304005622863770e+00 5.611658468842506409e-02 -3.773540556430816650e-01
5.751000000000000000e+03 1.387082862854003906e+01 -1.220888042449951172e+01 6.424039602279663086e-03 2.518594861030578613e-01 7.748505473136901855e-02 -1.975045949220657349e-01
5.752000000000000000e+03 9.801641464233398438e+00 -8.336110115051269531e+00 -1.329217553138732910e-01 9.082813560962677002e-02 -1.262808497995138168e-02 -1.737848967313766479e-01
5.753000000000000000e+03 8.386573791503906250e+00 1.634388160705566406e+01 -7.853025197982788086e-01 1.042123675346374512e+00 7.704634219408035278e-02 -2.876350283622741699e-01
5.754000000000000000e+03 1.479454135894775391e+01 -1.449358844757080078e+01 1.965499520301818848e-01 3.550392091274261475e-01 1.654767543077468872e-01 -1.056317910552024841e-01
5.755000000000000000e+03 1.519329071044921875e+01 -1.732203483581542969e+01 2.466687113046646118e-01 5.502523183822631836e-01 2.390763163566589355e-01 3.584571415558457375e-03
5.756000000000000000e+03 8.098477363586425781e+00 1.896849822998046875e+01 -5.198490023612976074e-01 9.617782831192016602e-01 1.325787901878356934e-01 -6.415630131959915161e-02
5.757000000000000000e+03 8.149051666259765625e+00 2.019220733642578125e+01 -4.103998839855194092e-01 9.369368553161621094e-01 1.579610854387283325e-01 6.639787927269935608e-03
5.758000000000000000e+03 9.278201103210449219e+00 2.247136497497558594e+01 -2.565276920795440674e-01 7.969396114349365234e-01 1.621235758066177368e-01 1.118080690503120422e-01
5.759000000000000000e+03 1.206546688079833984e+01 -1.129726886749267578e+01 -5.897087231278419495e-02 1.786670386791229248e-01 3.590885177254676819e-02 -2.260660231113433838e-01
5.760000000000000000e+03 9.852199554443359375e+00 2.185557365417480469e+01 -3.282234072685241699e-01 7.463579177856445312e-01 1.254403591156005859e-01 8.840163052082061768e-02
5.761000000000000000e+03 1.170324802398681641e+01 2.051790428161621094e+01 -5.050674676895141602e-01 5.378787517547607422e-01 9.843386709690093994e-03 4.403062909841537476e-02
5.762000000000000000e+03 8.730317115783691406e+00 2.000814247131347656e+01 -4.503710269927978516e-01 8.776429891586303711e-01 1.281815916299819946e-01 8.202198892831802368e-03
5.763000000000000000e+03 7.991661071777343750e+00 -1.252152824401855469e+01 -4.245095886290073395e-03 2.574044512584805489e-03 -5.013154004700481892e-04 -2.193187326192855835e-01
5.764000000000000000e+03 8.619855880737304688e+00 -1.416330814361572266e+01 3.755280375480651855e-02 2.531176619231700897e-02 1.885937154293060303e-02 -2.140173166990280151e-01
5.765000000000000000e+03 8.685145378112792969e+00 2.177058219909667969e+01 -2.988731861114501953e-01 8.666607141494750977e-01 1.703362464904785156e-01 8.676499128341674805e-02
5.766000000000000000e+03 7.361217498779296875e+00 2.169653320312500000e+01 -2.516675293445587158e-01 9.987165331840515137e-01 2.241146862506866455e-01 7.864528894424438477e-02
5.767000000000000000e+03 1.017853164672851562e+01 -1.149789047241210938e+01 -3.884565830230712891e-02 1.041003167629241943e-01 1.957639865577220917e-02 -2.244472056627273560e-01
5.768000000000000000e+03 1.155083656311035156e+01 -1.057587146759033203e+01 -9.422302246093750000e-02 1.584713310003280640e-01 1.927449181675910950e-02 -2.139707803726196289e-01
5.769000000000000000e+03 6.844789886474609375e+01 -2.383496093750000000e+01 5.331726670265197754e-01 4.838643550872802734e+00 1.611544966697692871e+00 1.117614209651947021e-01
5.770000000000000000e+03 1.162630367279052734e+01 2.204166984558105469e+01 -3.496488630771636963e-01 5.498657822608947754e-01 6.006506457924842834e-02 6.970836967229843140e-02
5.771000000000000000e+03 6.057765960693359375e+01 1.998477935791015625e+01 7.854281067848205566e-01 4.314753055572509766e+00 1.530054330825805664e+00 6.244132518768310547e-01
5.772000000000000000e+03 3.192259597778320312e+01 -1.935301971435546875e+01 4.302486479282379150e-01 2.826012372970581055e+00 9.768782854080200195e-01 -7.353478670120239258e-01
5.773000000000000000e+03 6.006286621093750000e+01 2.060189437866210938e+01 5.994808077812194824e-01 4.529225349426269531e+00 1.538611888885498047e+00 7.199456691741943359e-01
5.774000000000000000e+03 5.961647033691406250e+01 1.900507736206054688e+01 8.968763351440429688e-01 4.086527824401855469e+00 1.495021224021911621e+00 1.105670213699340820e+00
5.775000000000000000e+03 1.444075107574462891e+01 2.186920928955078125e+01 -4.048227071762084961e-01 3.080584108829498291e-01 -2.902928926050662994e-02 -4.012712836265563965e-02
5.776000000000000000e+03 3.218016433715820312e+01 -2.021222114562988281e+01 4.741823971271514893e-01 2.799296617507934570e+00 9.820437431335449219e-01 -5.797182917594909668e-01
5.777000000000000000e+03 5.843466949462890625e+01 1.871447372436523438e+01 7.297337055206298828e-01 4.452169895172119141e+00 1.554571151733398438e+00 1.635861515998840332e+00
5.778000000000000000e+03 6.545062541961669922e+00 -2.196741867065429688e+01 6.539374589920043945e-02 -1.311032921075820923e-01 -1.971286721527576447e-02 -8.709381520748138428e-02
5.779000000000000000e+03 6.442098236083984375e+01 -2.425171279907226562e+01 2.752279639244079590e-01 5.091991424560546875e+00 1.610165834426879883e+00 -6.109735965728759766e-01
5.780000000000000000e+03 3.203394317626953125e+01 -2.291013526916503906e+01 3.245328664779663086e-01 2.801561832427978516e+00 9.378284215927124023e-01 -3.190830647945404053e-01
5.781000000000000000e+03 6.042393112182617188e+01 2.305445098876953125e+01 2.522390186786651611e-01 5.014779567718505859e+00 1.580105543136596680e+00 4.239606857299804688e-01
5.782000000000000000e+03 4.325137710571289062e+01 2.331598663330078125e+01 -1.196325197815895081e-01 1.579090833663940430e+00 4.378375113010406494e-01 -6.219826936721801758e-01
5.783000000000000000e+03 4.302580642700195312e+01 2.201004409790039062e+01 -2.354667931795120239e-01 1.335785865783691406e+00 3.300957083702087402e-01 -5.992192029953002930e-01
5.784000000000000000e+03 3.391382980346679688e+01 2.218895530700683594e+01 -1.466192454099655151e-01 5.978400707244873047e-01 1.353662461042404175e-01 7.887835502624511719e-01
5.785000000000000000e+03 6.206132507324218750e+01 2.319310188293457031e+01 2.504287660121917725e-01 5.142856121063232422e+00 1.617985367774963379e+00 2.268282175064086914e-01
5.786000000000000000e+03 6.471826934814453125e+01 2.349253082275390625e+01 1.192072480916976929e-01 5.704434394836425781e+00 1.747092485427856445e+00 -9.750716388225555420e-03
5.787000000000000000e+03 6.271842956542968750e+01 -2.279216766357421875e+01 7.335409522056579590e-02 5.574961185455322266e+00 1.694494605064392090e+00 -9.231062531471252441e-01
5.788000000000000000e+03 1.175999259948730469e+01 -2.109977340698242188e+01 1.609468162059783936e-01 3.369375169277191162e-01 1.493653059005737305e-01 -4.140779748558998108e-02
5.789000000000000000e+03 1.386072635650634766e+01 -2.239609909057617188e+01 1.711081713438034058e-01 5.999438166618347168e-01 2.313155978918075562e-01 3.308736532926559448e-02
5.790000000000000000e+03 1.557357501983642578e+01 -1.795190238952636719e+01 2.630296647548675537e-01 6.025130748748779297e-01 2.596628069877624512e-01 3.797873854637145996e-02
5.791000000000000000e+03 1.792575836181640625e+01 -1.792215347290039062e+01 2.740102708339691162e-01 9.542511701583862305e-01 3.684784173965454102e-01 1.852887421846389771e-01
5.792000000000000000e+03 2.019824981689453125e+01 -1.853856086730957031e+01 2.348682582378387451e-01 1.459800720214843750e+00 5.084007382392883301e-01 3.195351064205169678e-01
5.793000000000000000e+03 1.876393127441406250e+01 -1.864543914794921875e+01 2.741046249866485596e-01 1.152501940727233887e+00 4.279819726943969727e-01 2.498557716608047485e-01
5.794000000000000000e+03 1.094925594329833984e+01 2.164845466613769531e+01 -3.816823661327362061e-01 6.280747652053833008e-01 7.391772419214248657e-02 8.029009401798248291e-02
5.795000000000000000e+03 9.327367782592773438e+00 2.130014801025390625e+01 -3.657605051994323730e-01 7.883357405662536621e-01 1.267725676298141479e-01 7.530603557825088501e-02
5.796000000000000000e+03 8.964612007141113281e+00 2.068472671508789062e+01 -4.058628678321838379e-01 8.427189588546752930e-01 1.310568302869796753e-01 4.485758766531944275e-02
5.797000000000000000e+03 8.321093559265136719e+00 2.098595237731933594e+01 -3.497833609580993652e-01 9.036430120468139648e-01 1.661579012870788574e-01 5.601973831653594971e-02
5.798000000000000000e+03 1.207650852203369141e+01 2.317802429199218750e+01 -2.450320124626159668e-01 5.409389138221740723e-01 8.877206593751907349e-02 6.924284994602203369e-02
5.799000000000000000e+03 6.861748504638671875e+01 -2.286562347412109375e+01 6.306268572807312012e-01 4.563712596893310547e+00 1.558301925659179688e+00 1.897127032279968262e-01
5.800000000000000000e+03 9.642940521240234375e+00 -1.075864315032958984e+01 -6.193673983216285706e-02 8.376092463731765747e-02 6.547255907207727432e-03 -2.215569466352462769e-01
5.801000000000000000e+03 9.529739379882812500e+00 2.037415504455566406e+01 -4.677341878414154053e-01 7.791395187377929688e-01 9.342159330844879150e-02 4.073617234826087952e-02
5.802000000000000000e+03 1.488795471191406250e+01 2.317375946044921875e+01 -2.619662284851074219e-01 3.706721663475036621e-01 3.261178359389305115e-02 -4.990826547145843506e-02
5.803000000000000000e+03 7.620554447174072266e+00 -1.096000480651855469e+01 -3.908695653080940247e-02 -5.579561693593859673e-04 -1.189347356557846069e-02 -2.078729867935180664e-01
5.804000000000000000e+03 9.043757438659667969e+00 -1.124728012084960938e+01 -4.277719557285308838e-02 5.667921155691146851e-02 4.170604050159454346e-03 -2.175644636154174805e-01
5.805000000000000000e+03 6.540293121337890625e+01 2.134304237365722656e+01 1.515099853277206421e-01 5.831479549407958984e+00 1.794896841049194336e+00 -2.244018018245697021e-01
5.806000000000000000e+03 1.124670410156250000e+01 2.283804321289062500e+01 -2.702144980430603027e-01 6.184773445129394531e-01 1.044788584113121033e-01 9.833039343357086182e-02
5.807000000000000000e+03 9.494296073913574219e+00 -1.685470199584960938e+01 1.000725924968719482e-01 7.901620119810104370e-02 5.372663959860801697e-02 -1.669443398714065552e-01
5.808000000000000000e+03 8.029888153076171875e+00 -1.521323204040527344e+01 4.967598989605903625e-02 -1.294841710478067398e-02 1.101827155798673630e-02 -1.994107663631439209e-01
5.809000000000000000e+03 1.634709548950195312e+01 -1.762544059753417969e+01 2.668031752109527588e-01 7.103968262672424316e-01 2.931599915027618408e-01 8.589899539947509766e-02
5.810000000000000000e+03 9.252359390258789062e+00 -1.758214950561523438e+01 1.052598133683204651e-01 6.511043757200241089e-02 5.111107602715492249e-02 -1.605648100376129150e-01
5.811000000000000000e+03 8.324515342712402344e+00 -1.777523612976074219e+01 8.741233497858047485e-02 4.374634940177202225e-03 2.753609046339988708e-02 -1.618938148021697998e-01
5.812000000000000000e+03 1.149520969390869141e+01 -1.955065155029296875e+01 1.619676500558853149e-01 2.758676111698150635e-01 1.313505768775939941e-01 -7.657395303249359131e-02
5.813000000000000000e+03 1.127368068695068359e+01 -1.830593299865722656e+01 1.607201695442199707e-01 2.361573874950408936e-01 1.190632656216621399e-01 -1.084958389401435852e-01
5.814000000000000000e+03 1.429176807403564453e+01 -1.564209079742431641e+01 2.051769196987152100e-01 3.680674731731414795e-01 1.719733178615570068e-01 -8.834628760814666748e-02
5.815000000000000000e+03 1.035214233398437500e+01 2.121256828308105469e+01 -4.006571471691131592e-01 6.820197105407714844e-01 8.440877497196197510e-02 6.430126726627349854e-02
5.816000000000000000e+03 2.810460662841796875e+01 -1.826746559143066406e+01 -8.080858737230300903e-02 3.240427732467651367e+00 9.478857517242431641e-01 -4.829691648483276367e-01
5.817000000000000000e+03 7.113478088378906250e+01 2.000330924987792969e+01 1.411417275667190552e-01 6.674699306488037109e+00 2.044752359390258789e+00 3.492758572101593018e-01
5.818000000000000000e+03 1.315710639953613281e+01 -1.279371452331542969e+01 3.501215204596519470e-02 2.359820008277893066e-01 8.129824697971343994e-02 -2.111689150333404541e-01
5.819000000000000000e+03 2.727405357360839844e+01 -1.816913604736328125e+01 -7.434013485908508301e-02 3.187935590744018555e+00 9.340786337852478027e-01 -3.107473552227020264e-01
5.820000000000000000e+03 3.082032775878906250e+01 -2.300964927673339844e+01 2.008447051048278809e-01 2.786367893218994141e+00 8.961637616157531738e-01 -3.207080960273742676e-01
5.821000000000000000e+03 1.418993854522705078e+01 -2.117785072326660156e+01 1.917825639247894287e-01 6.008234024047851562e-01 2.377817928791046143e-01 2.571656368672847748e-02
5.822000000000000000e+03 1.268960571289062500e+01 -1.400126361846923828e+01 8.971700072288513184e-02 2.381814569234848022e-01 9.836953878402709961e-02 -1.914592385292053223e-01
5.823000000000000000e+03 1.288107109069824219e+01 -1.494287872314453125e+01 1.435524374246597290e-01 2.586217522621154785e-01 1.206522583961486816e-01 -1.607872545719146729e-01
5.824000000000000000e+03 9.917206764221191406e+00 -1.795807075500488281e+01 1.248212531208992004e-01 1.209984719753265381e-01 7.374591380357742310e-02 -1.363979578018188477e-01
5.825000000000000000e+03 1.013151264190673828e+01 -1.709368515014648438e+01 1.207157671451568604e-01 1.225230768322944641e-01 7.297165691852569580e-02 -1.619798690080642700e-01
5.826000000000000000e+03 2.725505065917968750e+01 -1.919792938232421875e+01 -6.627158820629119873e-02 3.020792007446289062e+00 8.863561153411865234e-01 -2.735734283924102783e-01
5.827000000000000000e+03 1.016815662384033203e+01 -1.565744972229003906e+01 9.791906177997589111e-02 1.078612431883811951e-01 6.173409149050712585e-02 -1.875078380107879639e-01
5.828000000000000000e+03 1.066671371459960938e+01 -1.221784114837646484e+01 -1.069524139165878296e-02 1.283184140920639038e-01 3.528695181012153625e-02 -2.320271283388137817e-01
5.829000000000000000e+03 9.503094673156738281e+00 -1.193230247497558594e+01 -2.183052152395248413e-02 7.537216693162918091e-02 1.606249436736106873e-02 -2.281203567981719971e-01
5.830000000000000000e+03 9.917324066162109375e+00 -1.483104228973388672e+01 6.721938401460647583e-02 9.867110103368759155e-02 4.976714774966239929e-02 -2.051094174385070801e-01
5.831000000000000000e+03 9.511080741882324219e+00 -1.879826545715332031e+01 1.188904345035552979e-01 1.000745445489883423e-01 6.568949669599533081e-02 -1.318475455045700073e-01
5.832000000000000000e+03 1.489169311523437500e+01 -1.796921730041503906e+01 2.416812330484390259e-01 5.523728728294372559e-01 2.382162362337112427e-01 1.126538775861263275e-02
5.833000000000000000e+03 1.081452846527099609e+01 2.373173713684082031e+01 -1.883636713027954102e-01 6.586218476295471191e-01 1.410774588584899902e-01 1.113154441118240356e-01
5.834000000000000000e+03 9.154050827026367188e+00 -1.305382061004638672e+01 1.253575179725885391e-02 5.509937182068824768e-02 2.029053680598735809e-02 -2.242244333028793335e-01
5.835000000000000000e+03 1.452517414093017578e+01 -1.686161422729492188e+01 2.463175654411315918e-01 4.617352783679962158e-01 2.124158591032028198e-01 -2.748999558389186859e-02
5.836000000000000000e+03 1.360673236846923828e+01 -1.961591339111328125e+01 2.037080824375152588e-01 4.780575037002563477e-01 2.045296728610992432e-01 -1.898281276226043701e-02
5.837000000000000000e+03 1.305988311767578125e+01 2.253636360168457031e+01 -3.150117099285125732e-01 4.471309781074523926e-01 3.963578119874000549e-02 2.680541388690471649e-02
5.838000000000000000e+03 1.377279090881347656e+01 2.242329788208007812e+01 -3.236330151557922363e-01 3.785206675529479980e-01 1.646630279719829559e-02 8.038682863116264343e-03
5.839000000000000000e+03 1.752476882934570312e+01 -2.012293624877929688e+01 2.346433550119400024e-01 9.889693260192871094e-01 3.670837879180908203e-01 1.578347682952880859e-01
5.840000000000000000e+03 1.740134048461914062e+01 -1.872446632385253906e+01 2.770962715148925781e-01 9.149262309074401855e-01 3.576067388057708740e-01 1.681657582521438599e-01
5.841000000000000000e+03 2.633679008483886719e+01 -2.123071479797363281e+01 -8.589770644903182983e-03 2.663981676101684570e+00 7.966176271438598633e-01 -7.509271800518035889e-02
5.842000000000000000e+03 2.799692535400390625e+01 -2.227424621582031250e+01 4.628889635205268860e-02 2.708132982254028320e+00 8.263265490531921387e-01 -1.806756258010864258e-01
5.843000000000000000e+03 3.535068511962890625e+01 2.310707855224609375e+01 -5.809056758880615234e-02 6.446541547775268555e-01 1.759690791368484497e-01 4.484978914260864258e-01
5.844000000000000000e+03 3.833707046508789062e+01 2.142322158813476562e+01 -3.337359428405761719e-01 5.014538764953613281e-01 5.031538382172584534e-02 -4.442803189158439636e-02
5.845000000000000000e+03 1.758808517456054688e+01 -2.422167968750000000e+01 1.197452172636985779e-01 1.137338042259216309e+00 3.771249949932098389e-01 1.170336306095123291e-01
5.846000000000000000e+03 1.696403312683105469e+01 -2.178252601623535156e+01 1.867112815380096436e-01 9.901549220085144043e-01 3.530598580837249756e-01 1.254658102989196777e-01
5.847000000000000000e+03 4.024121856689453125e+01 2.245790863037109375e+01 -2.215365320444107056e-01 8.888857960700988770e-01 2.002047896385192871e-01 -2.514782845973968506e-01
5.848000000000000000e+03 3.876809310913085938e+01 1.915567207336425781e+01 -9.155309796333312988e-01 3.672343492507934570e-01 -1.644889861345291138e-01 -1.909211426973342896e-01
5.849000000000000000e+03 1.622153854370117188e+01 -2.068829917907714844e+01 2.215953767299652100e-01 8.558229207992553711e-01 3.232254981994628906e-01 1.158126592636108398e-01
5.850000000000000000e+03 1.604027938842773438e+01 -1.977831649780273438e+01 2.389054596424102783e-01 7.710730433464050293e-01 3.029935657978057861e-01 9.021357446908950806e-02
5.851000000000000000e+03 3.578697586059570312e+01 2.134725570678710938e+01 -1.974681019783020020e-01 2.830337285995483398e-01 2.566969022154808044e-02 3.674853742122650146e-01
5.852000000000000000e+03 3.435147094726562500e+01 2.131398200988769531e+01 -1.821253746747970581e-01 3.173110187053680420e-01 4.055568948388099670e-02 6.816895604133605957e-01
5.853000000000000000e+03 1.025336456298828125e+01 2.472195434570312500e+01 -1.244726032018661499e-01 7.430725097656250000e-01 1.855799704790115356e-01 1.315476298332214355e-01
5.854000000000000000e+03 1.162233924865722656e+01 -1.352342605590820312e+01 5.036360770463943481e-02 1.751639246940612793e-01 6.765826046466827393e-02 -2.158102542161941528e-01
5.855000000000000000e+03 1.373486137390136719e+01 -1.633953094482421875e+01 2.012910395860671997e-01 3.634488284587860107e-01 1.694219559431076050e-01 -1.002706885337829590e-01
5.856000000000000000e+03 1.479279232025146484e+01 -1.889211845397949219e+01 2.347853630781173706e-01 5.781277418136596680e-01 2.438739240169525146e-01 1.734168827533721924e-02
5.857000000000000000e+03 1.082028961181640625e+01 -1.890579414367675781e+01 1.450845897197723389e-01 2.032976448535919189e-01 1.045146733522415161e-01 -1.092214658856391907e-01
5.858000000000000000e+03 1.187903881072998047e+01 -1.246307563781738281e+01 5.334662273526191711e-03 1.789683848619461060e-01 5.529091507196426392e-02 -2.266793996095657349e-01
5.859000000000000000e+03 1.108914184570312500e+01 -1.401562786102294922e+01 6.404702365398406982e-02 1.528519988059997559e-01 6.506970524787902832e-02 -2.061300277709960938e-01
5.860000000000000000e+03 6.080321311950683594e+00 -2.010856056213378906e+01 6.037447974085807800e-02 -1.709650158882141113e-01 -3.317716345191001892e-02 -1.136254742741584778e-01
5.861000000000000000e+03 3.949159240722656250e+01 1.921877479553222656e+01 -8.997998833656311035e-01 5.306910276412963867e-01 -1.107326522469520569e-01 -2.236848026514053345e-01
5.862000000000000000e+03 6.768383026123046875e+01 -2.270907211303710938e+01 6.984626650810241699e-01 4.371876716613769531e+00 1.521101832389831543e+00 -4.397204890847206116e-02
5.863000000000000000e+03 6.769395446777343750e+01 -2.390848541259765625e+01 6.009551286697387695e-01 4.755699157714843750e+00 1.606996297836303711e+00 -3.926897421479225159e-02
5.864000000000000000e+03 1.895876693725585938e+01 -2.019129943847656250e+01 2.099705636501312256e-01 1.261380434036254883e+00 4.414052963256835938e-01 2.197825163602828979e-01
5.865000000000000000e+03 2.479866981506347656e+01 -2.129375648498535156e+01 -2.400800818577408791e-03 2.415082931518554688e+00 7.238045930862426758e-01 7.746497541666030884e-02
5.866000000000000000e+03 1.186534595489501953e+01 -1.575142669677734375e+01 1.343571245670318604e-01 2.115097045898437500e-01 1.037600487470626831e-01 -1.669627875089645386e-01
5.867000000000000000e+03 1.189517307281494141e+01 -1.491055965423583984e+01 1.061358377337455750e-01 2.136635929346084595e-01 9.593982994556427002e-02 -1.835456639528274536e-01
5.868000000000000000e+03 1.173808193206787109e+01 -1.662419128417968750e+01 1.503097563982009888e-01 2.315340340137481689e-01 1.145531386137008667e-01 -1.411508470773696899e-01
5.869000000000000000e+03 1.043435573577880859e+01 -1.343990230560302734e+01 3.729601576924324036e-02 1.175685599446296692e-01 4.645937308669090271e-02 -2.238892763853073120e-01
5.870000000000000000e+03 1.256332302093505859e+01 -1.689255523681640625e+01 1.791935414075851440e-01 2.956728935241699219e-01 1.424599289894104004e-01 -1.176857203245162964e-01
5.871000000000000000e+03 3.676090621948242188e+01 1.953480720520019531e+01 -6.170669794082641602e-01 4.031982272863388062e-02 -1.730241477489471436e-01 8.818778209388256073e-03
5.872000000000000000e+03 2.573373985290527344e+01 -1.965167808532714844e+01 -8.930869400501251221e-02 2.790107011795043945e+00 8.102394938468933105e-01 -2.274736575782299042e-02
5.873000000000000000e+03 2.531464195251464844e+01 -2.318503379821777344e+01 -3.781095147132873535e-03 2.374341011047363281e+00 7.111679911613464355e-01 1.547186449170112610e-02
5.874000000000000000e+03 1.195468139648437500e+01 -1.871577835083007812e+01 1.733229607343673706e-01 2.959481477737426758e-01 1.407813280820846558e-01 -9.032791852951049805e-02
5.875000000000000000e+03 1.338246440887451172e+01 -1.726110076904296875e+01 2.063332051038742065e-01 3.747364878654479980e-01 1.743209064006805420e-01 -7.242849469184875488e-02
5.876000000000000000e+03 2.306753921508789062e+01 -2.128316688537597656e+01 2.044404856860637665e-02 2.136020183563232422e+00 6.469392776489257812e-01 1.803482621908187866e-01
5.877000000000000000e+03 2.145736122131347656e+01 -2.109762001037597656e+01 9.074325114488601685e-02 1.802497029304504395e+00 5.679720640182495117e-01 2.397004514932632446e-01
5.878000000000000000e+03 2.053739166259765625e+01 -2.017070007324218750e+01 1.578198522329330444e-01 1.597333788871765137e+00 5.265461206436157227e-01 2.627909779548645020e-01
5.879000000000000000e+03 1.153164577484130859e+01 -1.749569702148437500e+01 1.592168807983398438e-01 2.314445078372955322e-01 1.171984151005744934e-01 -1.285070329904556274e-01
5.880000000000000000e+03 1.230384349822998047e+01 -2.015107917785644531e+01 1.739463359117507935e-01 3.678841292858123779e-01 1.625491380691528320e-01 -5.126913636922836304e-02
5.881000000000000000e+03 6.835459136962890625e+01 3.851486206054687500e+01 -1.195170208811759949e-01 6.140794754028320312e+00 1.806383252143859863e+00 4.668929427862167358e-02
5.882000000000000000e+03 1.166252899169921875e+01 -3.853128814697265625e+01 -1.211067661643028259e-02 5.072620511054992676e-01 1.485454142093658447e-01 1.410124450922012329e-02
5.883000000000000000e+03 3.795928573608398438e+01 4.419599533081054688e+00 -3.646729514002799988e-02 -4.023972451686859131e-01 -1.316593587398529053e-01 2.495472431182861328e-01
5.884000000000000000e+03 4.869941329956054688e+01 1.656548690795898438e+01 -9.162908792495727539e-01 3.176563978195190430e+00 6.780818700790405273e-01 -4.127385616302490234e+00
5.885000000000000000e+03 5.184786605834960938e+01 -1.870693778991699219e+01 -2.074235200881958008e+00 -6.751959323883056641e-01 -8.248293399810791016e-01 8.934712409973144531e-01
5.886000000000000000e+03 2.566439247131347656e+01 1.543003273010253906e+01 4.361118316650390625e+00 1.604110336303710938e+01 6.120666503906250000e+00 1.174831748008728027e+00
5.887000000000000000e+03 1.515973448753356934e+00 -4.045175552368164062e+01 -7.034485228359699249e-03 -6.649050116539001465e-01 -2.015818506479263306e-01 1.073463167995214462e-02
5.888000000000000000e+03 2.538014173507690430e+00 -3.962016677856445312e+01 6.123037543147802353e-03 -5.557739138603210449e-01 -1.648952662944793701e-01 6.954574026167392731e-03
5.889000000000000000e+03 5.437055110931396484e+00 -2.740594148635864258e+00 -5.984612926840782166e-02 -6.247371435165405273e-03 -1.982804946601390839e-02 -4.973416775465011597e-02
5.890000000000000000e+03 2.678772926330566406e+00 -4.121956634521484375e+01 -2.371668629348278046e-02 -5.470989942550659180e-01 -1.712446957826614380e-01 1.876467093825340271e-02
5.891000000000000000e+03 2.528565406799316406e+00 -4.039297485351562500e+01 7.643947843462228775e-03 -5.733962655067443848e-01 -1.697256863117218018e-01 1.067688595503568649e-02
5.892000000000000000e+03 5.154566574096679688e+01 1.023861026763916016e+01 2.317641973495483398e+00 1.651109504699707031e+01 5.648621082305908203e+00 1.395025730133056641e+00
5.893000000000000000e+03 4.339071273803710938e+01 -4.664825439453125000e+00 3.723971128463745117e+00 8.226449012756347656e+00 3.585126161575317383e+00 1.490583896636962891e+00
5.894000000000000000e+03 3.356154251098632812e+01 -6.434132456779479980e-01 1.216318368911743164e+00 -1.143236607313156128e-01 3.305984139442443848e-01 -1.626892834901809692e-01
5.895000000000000000e+03 8.766444206237792969e+00 7.034350395202636719e+00 1.373247861862182617e+00 3.145933866500854492e+00 1.355754494667053223e+00 -2.518767595291137695e+00
5.896000000000000000e+03 4.386205291748046875e+01 -6.392530441284179688e+00 1.261151790618896484e+00 1.026872634887695312e+01 3.458963632583618164e+00 1.232975721359252930e+00
5.897000000000000000e+03 2.197176742553710938e+01 1.489580035209655762e+00 -4.080407693982124329e-02 1.172438812255859375e+01 3.505075216293334961e+00 -1.159443497657775879e+00
5.898000000000000000e+03 4.182495880126953125e+01 -1.736815261840820312e+01 1.668786287307739258e+00 5.942106723785400391e+00 2.283267736434936523e+00 1.927323192358016968e-01
5.899000000000000000e+03 4.152201843261718750e+01 -1.461816120147705078e+01 1.063177466392517090e+00 8.539393424987792969e+00 2.880771160125732422e+00 2.083859443664550781e+00
5.900000000000000000e+03 1.272808074951171875e+01 2.264227867126464844e+00 1.819067120552062988e+00 4.910126626491546631e-01 6.930239200592041016e-01 -3.191535234451293945e+00
5.901000000000000000e+03 1.495212650299072266e+01 4.599555492401123047e+00 4.464999198913574219e+00 -3.574720144271850586e+00 2.670836746692657471e-01 -2.906161785125732422e+00
5.902000000000000000e+03 7.825579833984375000e+01 3.890691757202148438e+01 -1.678092521615326405e-03 7.272527217864990234e+00 2.181254625320434570e+00 3.230352699756622314e-02
5.903000000000000000e+03 4.148292541503906250e+01 -1.403990983963012695e+00 -2.189872860908508301e-01 2.133277177810668945e+00 5.742869377136230469e-01 3.763035535812377930e-01
5.904000000000000000e+03 6.969503021240234375e+01 7.759461879730224609e+00 -1.555856704711914062e+00 8.009545326232910156e+00 1.936106443405151367e+00 -2.848286032676696777e-01
5.905000000000000000e+03 7.357817077636718750e+01 -1.188649559020996094e+01 9.535729885101318359e-01 1.147492218017578125e+01 3.728548765182495117e+00 5.357993245124816895e-01
5.906000000000000000e+03 4.398107528686523438e+01 -1.620450401306152344e+01 8.450241684913635254e-01 3.937627553939819336e+00 1.434795498847961426e+00 -1.600613296031951904e-01
5.907000000000000000e+03 2.740709304809570312e+01 -1.627992033958435059e+00 2.824838876724243164e+00 3.365966558456420898e+00 1.857241630554199219e+00 4.851639866828918457e-01
5.908000000000000000e+03 4.160524749755859375e+01 -2.209634780883789062e+00 5.349032878875732422e-01 2.819243192672729492e+00 1.006243944168090820e+00 3.024177551269531250e-01
5.909000000000000000e+03 7.488437652587890625e+01 1.252810192108154297e+01 3.510970771312713623e-01 5.949879646301269531e+00 1.890293002128601074e+00 -1.726410150527954102e+00
5.910000000000000000e+03 3.000295066833496094e+01 2.121289014816284180e+00 -2.515128135681152344e+00 2.361296415328979492e+00 -4.614949598908424377e-02 3.612874448299407959e-01
5.911000000000000000e+03 5.789191055297851562e+01 -1.656136703491210938e+01 1.523923397064208984e+00 1.028514289855957031e+01 3.542720079421997070e+00 1.193283870816230774e-01
5.912000000000000000e+03 5.117910385131835938e+01 -2.098946380615234375e+01 1.672015488147735596e-01 5.355994105339050293e-01 2.108402848243713379e-01 2.201836705207824707e-01
5.913000000000000000e+03 5.934917449951171875e+01 -4.339887201786041260e-01 -1.986924290657043457e+00 2.375821113586425781e+00 1.166690438985824585e-01 -6.664240956306457520e-01
5.914000000000000000e+03 5.160337829589843750e+01 8.626348495483398438e+00 5.551595091819763184e-01 1.463863849639892578e+01 4.558139324188232422e+00 7.059894800186157227e-01
5.915000000000000000e+03 5.892420959472656250e+01 -1.868294358253479004e+00 -2.601233124732971191e-01 3.487000942230224609e+00 9.680632948875427246e-01 -1.530295848846435547e+00
5.916000000000000000e+03 5.982430267333984375e+01 8.360711336135864258e-01 -3.639373302459716797e+00 1.993219017982482910e+00 -4.938462972640991211e-01 -7.466483116149902344e-02
5.917000000000000000e+03 6.869795989990234375e+01 8.631250381469726562e+00 -8.098585009574890137e-01 1.003435420989990234e+01 2.767348766326904297e+00 -4.696930348873138428e-01
5.918000000000000000e+03 6.996557617187500000e+01 1.080634403228759766e+01 1.269498467445373535e+00 5.673133850097656250e+00 2.082789659500122070e+00 1.322562932968139648e+00
5.919000000000000000e+03 6.966498565673828125e+01 1.002293968200683594e+01 1.021515461616218090e-03 6.389750003814697266e+00 1.917231559753417969e+00 1.195392608642578125e+00
5.920000000000000000e+03 7.886598968505859375e+01 8.366224288940429688e+00 2.677651047706604004e-01 7.645687580108642578e+00 2.374035835266113281e+00 4.266379475593566895e-01
5.921000000000000000e+03 3.620033979415893555e+00 -3.467356109619140625e+01 6.008386146277189255e-03 -4.586036503314971924e-01 -1.357785761356353760e-01 1.475435099564492702e-03
5.922000000000000000e+03 7.130170822143554688e+00 -4.252664089202880859e+00 -9.510041773319244385e-02 1.143406145274639130e-02 -2.509990520775318146e-02 -7.840618491172790527e-02
5.923000000000000000e+03 7.082320213317871094e+00 -3.492607593536376953e+00 -9.159968793392181396e-02 9.284079074859619141e-03 -2.469468116760253906e-02 -6.391179561614990234e-02
5.924000000000000000e+03 7.779713439941406250e+01 2.686939048767089844e+01 -1.095754373818635941e-02 6.957476139068603516e+00 2.083955526351928711e+00 1.123582273721694946e-01
5.925000000000000000e+03 6.652770996093750000e+01 -1.682626914978027344e+01 -3.748151957988739014e-01 2.401778936386108398e+00 6.080890893936157227e-01 -8.416274785995483398e-01
5.926000000000000000e+03 2.758585548400878906e+01 1.426996231079101562e+01 1.846553564071655273e+00 4.411901473999023438e+00 1.877536535263061523e+00 7.659547328948974609e-01
5.927000000000000000e+03 3.920080184936523438e+00 3.651404953002929688e+01 2.533655799925327301e-02 1.134709358215332031e+00 3.480137884616851807e-01 7.384388893842697144e-02
5.928000000000000000e+03 7.607942962646484375e+01 -3.656934738159179688e+01 1.422525104135274887e-02 6.508965969085693359e+00 1.956957340240478516e+00 5.308022350072860718e-02
5.929000000000000000e+03 7.480140686035156250e+01 -3.656742858886718750e+01 3.637623041868209839e-02 6.347856044769287109e+00 1.915269732475280762e+00 5.138904973864555359e-02
5.930000000000000000e+03 2.220924186706542969e+01 6.143922805786132812e+00 3.184721946716308594e+00 1.121877765655517578e+01 4.321049690246582031e+00 1.938136696815490723e+00
5.931000000000000000e+03 3.535277175903320312e+01 -2.840028381347656250e+01 7.672605663537979126e-02 3.045534849166870117e+00 9.366782903671264648e-01 -1.952318251132965088e-01
5.932000000000000000e+03 5.318581771850585938e+01 7.881929278373718262e-01 5.560191869735717773e-01 1.117902278900146484e+01 3.520512580871582031e+00 -1.275252461433410645e+00
5.933000000000000000e+03 1.628259468078613281e+01 -6.120221138000488281e+00 -4.499036967754364014e-01 7.460824400186538696e-02 -1.125886365771293640e-01 1.079559847712516785e-01
5.934000000000000000e+03 4.938528823852539062e+01 -1.728446388244628906e+01 -1.203092932701110840e+00 -1.799488365650177002e-01 -4.149125516414642334e-01 5.298777222633361816e-01
5.935000000000000000e+03 7.386552429199218750e+01 -8.709888458251953125e+00 6.364809274673461914e-01 9.071993827819824219e+00 2.912542343139648438e+00 8.216683268547058105e-01
5.936000000000000000e+03 7.429809570312500000e+01 -1.047633934020996094e+01 1.126004815101623535e+00 9.824259757995605469e+00 3.285079479217529297e+00 7.997042536735534668e-01
5.937000000000000000e+03 4.977761840820312500e+01 4.562137126922607422e+00 2.827982902526855469e+00 7.566686630249023438e+00 3.118400812149047852e+00 1.661602854728698730e+00
5.938000000000000000e+03 3.378361463546752930e+00 -3.262963485717773438e+01 6.811838597059249878e-03 -4.774513840675354004e-01 -1.411918699741363525e-01 -1.104560797102749348e-03
5.939000000000000000e+03 6.787191009521484375e+01 8.868332862854003906e+00 -1.838669739663600922e-02 1.130636119842529297e+01 3.386392354965209961e+00 -6.087105274200439453e-01
5.940000000000000000e+03 7.757562255859375000e+01 3.977586269378662109e+00 3.162667155265808105e-01 1.106779193878173828e+01 3.415217399597167969e+00 -2.357453346252441406e+00
5.941000000000000000e+03 3.775881195068359375e+01 1.526313400268554688e+01 -2.424120187759399414e+00 2.529396712779998779e-01 -6.513541936874389648e-01 -4.706732183694839478e-02
5.942000000000000000e+03 9.216627120971679688e+00 1.069997787475585938e+01 -1.063217163085937500e+00 1.560212135314941406e+00 1.490985006093978882e-01 -8.187558054924011230e-01
5.943000000000000000e+03 6.761235046386718750e+01 9.865643501281738281e+00 1.185963749885559082e+00 1.157008075714111328e+01 3.826813220977783203e+00 3.794770315289497375e-02
5.944000000000000000e+03 7.799960327148437500e+01 2.153723144531250000e+01 1.570874266326427460e-02 6.749831676483154297e+00 2.029662132263183594e+00 9.355324506759643555e-02
5.945000000000000000e+03 7.397927093505859375e+01 -1.839741706848144531e+01 -8.543547987937927246e-01 8.087068557739257812e+00 2.169814109802246094e+00 5.765749812126159668e-01
5.946000000000000000e+03 7.751863861083984375e+01 3.063190269470214844e+01 -9.572206996381282806e-03 7.058020591735839844e+00 2.114534616470336914e+00 8.711270242929458618e-02
5.947000000000000000e+03 7.778112792968750000e+01 3.196376609802246094e+01 -5.972495768219232559e-03 7.107716083526611328e+00 2.130522966384887695e+00 7.647583633661270142e-02
5.948000000000000000e+03 7.733256530761718750e+01 3.384324264526367188e+01 -1.691211760044097900e-02 7.107271671295166016e+00 2.127107858657836914e+00 6.761223822832107544e-02
5.949000000000000000e+03 2.878859138488769531e+01 1.556200861930847168e+00 -1.973313450813293457e+00 5.876672863960266113e-01 -4.156938195228576660e-01 -2.487315386533737183e-01
5.950000000000000000e+03 3.694313812255859375e+01 -2.078220367431640625e+00 5.521433949470520020e-01 -1.852360844612121582e+00 -3.900652527809143066e-01 -6.043203920125961304e-02
5.951000000000000000e+03 2.019520950317382812e+01 4.047448158264160156e+00 7.183554172515869141e+00 2.418909072875976562e+00 2.880738973617553711e+00 1.334818452596664429e-01
5.952000000000000000e+03 2.934055328369140625e+01 1.418368935585021973e+00 -7.617070674896240234e-01 1.660039186477661133e+00 2.694996297359466553e-01 3.610674142837524414e-01
5.953000000000000000e+03 6.583856964111328125e+01 -1.718120574951171875e+01 -9.535745717585086823e-03 2.994485139846801758e+00 8.954848051071166992e-01 -1.027605175971984863e+00
5.954000000000000000e+03 6.762010955810546875e+01 1.504216289520263672e+01 2.957620918750762939e-01 8.874494552612304688e+00 2.751076936721801758e+00 8.493480682373046875e-01
5.955000000000000000e+03 5.186029911041259766e+00 -3.237522506713867188e+01 8.997412398457527161e-03 -2.536474168300628662e-01 -7.339499890804290771e-02 3.989115823060274124e-03
5.956000000000000000e+03 3.929342508316040039e+00 -3.165849494934082031e+01 1.043944526463747025e-02 -3.920900821685791016e-01 -1.144951879978179932e-01 -4.131114576011896133e-03
5.957000000000000000e+03 4.706550216674804688e+01 -1.524962425231933594e+01 -5.536555051803588867e-01 9.382412433624267578e-01 1.153757274150848389e-01 3.484781086444854736e-01
5.958000000000000000e+03 4.651082992553710938e+01 1.969679641723632812e+01 -2.822540998458862305e-01 2.012959241867065430e+00 5.192115902900695801e-01 -1.422613859176635742e+00
5.959000000000000000e+03 5.208397293090820312e+01 -1.753356456756591797e-01 -5.626407861709594727e-01 7.909315586090087891e+00 2.204002380371093750e+00 -3.260973691940307617e-01
5.960000000000000000e+03 5.886889266967773438e+01 -2.704181671142578125e+00 3.277522921562194824e-01 4.430270671844482422e+00 1.427406907081604004e+00 -1.641121268272399902e+00
5.961000000000000000e+03 6.806481933593750000e+01 1.470627546310424805e+00 -3.311983942985534668e-01 7.592420101165771484e+00 2.178366661071777344e+00 4.556248188018798828e-01
5.962000000000000000e+03 5.020424652099609375e+01 2.833774566650390625e+01 -3.588669598102569580e-01 3.932257652282714844e+00 1.072017192840576172e+00 -4.887388050556182861e-01
5.963000000000000000e+03 6.221474838256835938e+01 -2.883523178100585938e+01 -3.833539411425590515e-02 5.277361869812011719e+00 1.571707963943481445e+00 -8.552953600883483887e-02
5.964000000000000000e+03 3.634308624267578125e+01 1.822627258300781250e+01 -1.004508733749389648e+00 -2.212429344654083252e-01 -3.677255213260650635e-01 -1.014900431036949158e-01
5.965000000000000000e+03 2.210088539123535156e+01 2.116035842895507812e+01 -7.836490273475646973e-01 1.153780698776245117e+00 1.110394895076751709e-01 -1.099981427192687988e+00
5.966000000000000000e+03 3.309483718872070312e+01 3.864464521408081055e+00 -1.780302882194519043e+00 1.031125307083129883e+00 -2.247532755136489868e-01 1.006187915802001953e+00
5.967000000000000000e+03 4.100242996215820312e+01 -5.394478321075439453e+00 1.620454430580139160e+00 2.173115015029907227e+00 1.138070821762084961e+00 9.598976969718933105e-01
5.968000000000000000e+03 4.446494293212890625e+01 2.737351799011230469e+01 -5.996497930027544498e-04 2.291845321655273438e+00 6.873736977577209473e-01 -5.480071306228637695e-01
5.969000000000000000e+03 4.235062789916992188e+01 -7.957481384277343750e+00 -5.773903727531433105e-01 5.850744247436523438e+00 1.582006096839904785e+00 2.142912626266479492e+00
5.970000000000000000e+03 6.641980743408203125e+01 5.074356079101562500e+00 9.215006232261657715e-01 8.507455825805664062e+00 2.828686714172363281e+00 -1.914440691471099854e-01
5.971000000000000000e+03 2.696515274047851562e+01 1.230739116668701172e+01 -1.416089773178100586e+00 5.722254276275634766e+00 1.291849374771118164e+00 7.162826508283615112e-02
5.972000000000000000e+03 4.649707412719726562e+01 -1.492747306823730469e+01 -5.509697198867797852e-01 1.467336297035217285e+00 2.749099731445312500e-01 3.321504890918731689e-01
5.973000000000000000e+03 5.871436691284179688e+01 -1.617251014709472656e+01 1.210207343101501465e+00 9.279574394226074219e+00 3.146934509277343750e+00 1.004893146455287933e-02
5.974000000000000000e+03 7.777803802490234375e+01 -3.538313293457031250e+01 4.278096370398998260e-03 6.689115047454833984e+00 2.008018016815185547e+00 4.053306579589843750e-02
5.975000000000000000e+03 7.809982299804687500e+01 1.197758197784423828e+00 -1.142447948455810547e+00 1.140645122528076172e+01 3.079200983047485352e+00 -8.806903958320617676e-01
5.976000000000000000e+03 7.753716278076171875e+01 1.519831299781799316e+00 -1.619457602500915527e+00 1.068955039978027344e+01 2.721027851104736328e+00 -1.149134278297424316e+00
5.977000000000000000e+03 6.875640869140625000e+01 6.078345775604248047e-01 -1.630041122436523438e+00 7.114678859710693359e+00 1.645391345024108887e+00 -1.061975121498107910e+00
5.978000000000000000e+03 7.790286254882812500e+01 -3.384670257568359375e+01 3.390260972082614899e-03 6.721446514129638672e+00 2.017451047897338867e+00 4.934953525662422180e-02
5.979000000000000000e+03 6.054700088500976562e+01 -1.799639892578125000e+01 7.708912491798400879e-01 7.035385131835937500e+00 2.341882944107055664e+00 -1.141396403312683105e+00
5.980000000000000000e+03 3.737332534790039062e+01 1.696355056762695312e+01 -1.642632126808166504e+00 -4.188867658376693726e-02 -5.053562521934509277e-01 -2.700892984867095947e-01
5.981000000000000000e+03 3.982240295410156250e+01 -4.459657669067382812e+00 1.482951879501342773e+00 -2.554351091384887695e-01 3.682550191879272461e-01 3.045228123664855957e-01
5.982000000000000000e+03 4.002637481689453125e+01 -5.427884101867675781e+00 1.241333842277526855e+00 1.541506201028823853e-01 4.186453223228454590e-01 7.396231889724731445e-01
5.983000000000000000e+03 5.673550033569335938e+01 -2.386506080627441406e+01 -6.169377565383911133e-01 5.500459194183349609e+00 1.465056419372558594e+00 1.149354934692382812e+00
5.984000000000000000e+03 5.108058929443359375e+01 2.974961996078491211e-01 9.316805601119995117e-01 6.092183113098144531e+00 2.107159137725830078e+00 8.823274374008178711e-01
5.985000000000000000e+03 2.889299392700195312e+01 -5.959881782531738281e+00 1.762588620185852051e+00 4.578439235687255859e+00 1.902308344841003418e+00 -9.851179718971252441e-01
5.986000000000000000e+03 3.055916786193847656e+00 2.988550758361816406e+01 1.060359273105859756e-02 1.293037056922912598e+00 3.910921812057495117e-01 1.269492059946060181e-01
5.987000000000000000e+03 2.586799621582031250e+00 2.328833007812500000e+01 -2.847574837505817413e-02 1.514617681503295898e+00 4.458425641059875488e-01 8.342452347278594971e-02
5.988000000000000000e+03 4.287750244140625000e+01 -2.088613319396972656e+01 2.740369364619255066e-02 3.980363368988037109e+00 1.202330112457275391e+00 -8.204346299171447754e-01
5.989000000000000000e+03 5.306736373901367188e+01 1.964096260070800781e+01 -1.312157392501831055e+00 7.057153701782226562e+00 1.723498940467834473e+00 4.882964789867401123e-01
5.990000000000000000e+03 7.301930999755859375e+01 -3.295011758804321289e+00 -1.020736575126647949e+00 4.959065437316894531e+00 1.181498646736145020e+00 -8.252845406532287598e-01
5.991000000000000000e+03 2.733005285263061523e+00 6.786957263946533203e+00 4.414545297622680664e-01 -3.244917988777160645e-01 3.508881852030754089e-02 -4.026658535003662109e-01
5.992000000000000000e+03 7.458937072753906250e+01 -8.240084648132324219e+00 4.074675738811492920e-01 8.608541488647460938e+00 2.704802513122558594e+00 1.237104892730712891e+00
5.993000000000000000e+03 2.602973365783691406e+01 -1.809520602226257324e+00 2.018229484558105469e+00 5.653323173522949219e+00 2.301465749740600586e+00 -1.805589914321899414e+00
5.994000000000000000e+03 3.007262992858886719e+01 1.566676044464111328e+01 1.684097498655319214e-01 4.437344670295715332e-01 1.836432665586471558e-01 1.193524718284606934e+00
5.995000000000000000e+03 2.924422454833984375e+01 1.544557857513427734e+01 8.368305563926696777e-01 1.492612481117248535e+00 6.988329291343688965e-01 1.448154568672180176e+00
5.996000000000000000e+03 3.735246276855468750e+01 1.621024131774902344e+01 -2.120745658874511719e+00 1.471572672016918659e-03 -6.357822418212890625e-01 -3.051818311214447021e-01
5.997000000000000000e+03 6.068313980102539062e+01 2.455434799194335938e+01 8.116734772920608521e-02 5.196834564208984375e+00 1.583400607109069824e+00 2.984431087970733643e-01
5.998000000000000000e+03 4.542068099975585938e+01 -1.755334472656250000e+01 2.848835885524749756e-01 2.677742719650268555e+00 8.887879252433776855e-01 -6.634177565574645996e-01
5.999000000000000000e+03 1.884442901611328125e+01 -2.378779029846191406e+01 1.117336675524711609e-01 1.321837306022644043e+00 4.300712943077087402e-01 1.394283622503280640e-01
6.000000000000000000e+03 5.315906143188476562e+01 7.404293537139892578e+00 -2.100971341133117676e-01 1.311425876617431641e+01 3.871248483657836914e+00 1.560482531785964966e-01
6.001000000000000000e+03 2.509513473510742188e+01 -2.450842857360839844e+00 2.360770702362060547e+00 8.233991622924804688e+00 3.178428649902343750e+00 -3.629827737808227539e+00
6.002000000000000000e+03 2.563977050781250000e+01 -2.426972150802612305e+00 2.167826652526855469e+00 7.433452606201171875e+00 2.880383729934692383e+00 -2.331282854080200195e+00
6.003000000000000000e+03 4.649870872497558594e+00 -6.798085689544677734e+00 -4.206630587577819824e-02 -5.153571441769599915e-02 -2.808060683310031891e-02 -1.134698092937469482e-01
6.004000000000000000e+03 2.458055496215820312e+00 1.995974159240722656e+01 -6.833168119192123413e-02 1.544941067695617676e+00 4.429828226566314697e-01 -2.871680445969104767e-02
6.005000000000000000e+03 1.311911773681640625e+01 1.526167201995849609e+01 -1.308806419372558594e+00 1.482653617858886719e-01 -3.481623232364654541e-01 -3.206257522106170654e-01
6.006000000000000000e+03 7.735015106201171875e+01 1.864360427856445312e+01 1.251351982355117798e-01 6.661596775054931641e+00 2.036019563674926758e+00 -3.072056919336318970e-02
6.007000000000000000e+03 2.844326400756835938e+01 -6.390866756439208984e+00 2.384065866470336914e+00 5.801572799682617188e+00 2.455691576004028320e+00 -1.365944981575012207e+00
6.008000000000000000e+03 5.178895568847656250e+01 7.116466999053955078e+00 2.148524224758148193e-01 1.330821037292480469e+01 4.056918621063232422e+00 2.655323743820190430e-01
6.009000000000000000e+03 6.635313415527343750e+01 -1.831983566284179688e+01 4.111764430999755859e-01 2.988835573196411133e+00 1.020003557205200195e+00 -9.142823815345764160e-01
6.010000000000000000e+03 2.459912490844726562e+01 9.839184761047363281e+00 -3.375089645385742188e+00 8.853542327880859375e+00 1.643535852432250977e+00 2.353430271148681641e+00
6.011000000000000000e+03 2.363992309570312500e+01 9.900692939758300781e+00 -3.792294979095458984e+00 8.034960746765136719e+00 1.272799611091613770e+00 1.955340862274169922e+00
6.012000000000000000e+03 6.893419647216796875e+01 -8.597828745841979980e-01 -3.292305707931518555e+00 5.550896167755126953e+00 6.775770783424377441e-01 -1.437555551528930664e+00
6.013000000000000000e+03 2.763968086242675781e+01 -6.624136924743652344e+00 3.104181289672851562e+00 7.817441463470458984e+00 3.276486873626708984e+00 -1.705654025077819824e+00
6.014000000000000000e+03 3.388364076614379883e+00 -2.687180900573730469e+01 9.968585334718227386e-03 -4.562402367591857910e-01 -1.338814944028854370e-01 -1.717164367437362671e-02
6.015000000000000000e+03 2.838357543945312500e+01 1.731190490722656250e+01 1.525723487138748169e-01 3.495385885238647461e+00 1.094387531280517578e+00 2.539410114288330078e+00
6.016000000000000000e+03 2.776131248474121094e+01 -4.804328441619873047e+00 2.229311227798461914e+00 6.543923854827880859e+00 2.631970643997192383e+00 -2.542217969894409180e-01
6.017000000000000000e+03 5.429289627075195312e+01 -2.942868995666503906e+01 2.235998362302780151e-01 3.940205097198486328e+00 1.249141454696655273e+00 4.320486187934875488e-01
6.018000000000000000e+03 5.294694137573242188e+01 -2.776502609252929688e+01 3.787992000579833984e-01 3.409090757369995117e+00 1.136366963386535645e+00 4.987395107746124268e-01
6.019000000000000000e+03 3.425651550292968750e+01 3.273284196853637695e+00 -9.350327253341674805e-01 4.234578013420104980e-01 -1.534724682569503784e-01 1.414876818656921387e+00
6.020000000000000000e+03 2.241254997253417969e+01 -2.815513038635253906e+01 -2.850427525117993355e-03 1.834289669990539551e+00 5.494318008422851562e-01 7.760906219482421875e-02
6.021000000000000000e+03 6.384788894653320312e+01 2.559722185134887695e+00 -1.119655132293701172e+00 4.858137607574462891e+00 1.121544718742370605e+00 2.535556554794311523e+00
6.022000000000000000e+03 6.479862213134765625e+01 2.781930685043334961e+00 -2.401314228773117065e-01 5.377023696899414062e+00 1.541067600250244141e+00 2.348495244979858398e+00
6.023000000000000000e+03 5.796630477905273438e+01 2.845374679565429688e+01 -2.630583047866821289e-01 5.097908020019531250e+00 1.450454950332641602e+00 9.743987768888473511e-02
6.024000000000000000e+03 4.580852508544921875e+01 -1.929367256164550781e+01 6.468086689710617065e-02 2.602396011352539062e+00 8.001230955123901367e-01 -1.005769729614257812e+00
6.025000000000000000e+03 2.094793701171875000e+01 -1.285969257354736328e+01 4.167023003101348877e-01 9.547711610794067383e-01 4.114420413970947266e-01 5.462541580200195312e-01
6.026000000000000000e+03 4.700413703918457031e+00 4.746042728424072266e+00 1.245747089385986328e+00 -4.621582031250000000e-01 2.350766658782958984e-01 9.466891735792160034e-02
6.027000000000000000e+03 3.657941055297851562e+01 2.619628715515136719e+01 9.087850898504257202e-02 1.042398452758789062e+00 3.399830758571624756e-01 2.131194472312927246e-01
6.028000000000000000e+03 7.538967895507812500e+01 -9.511383056640625000e+00 7.608184814453125000e-01 8.758363723754882812e+00 2.855754613876342773e+00 1.326545000076293945e+00
6.029000000000000000e+03 7.675986480712890625e+01 1.318527889251708984e+01 -6.303776800632476807e-02 7.078204631805419922e+00 2.104550123214721680e+00 -7.909633517265319824e-01
6.030000000000000000e+03 4.584718322753906250e+01 -2.054275894165039062e+01 6.901594251394271851e-02 2.618395090103149414e+00 8.062233328819274902e-01 -1.070083022117614746e+00
6.031000000000000000e+03 5.773640060424804688e+01 -7.385859489440917969e+00 2.441503107547760010e-01 7.024047374725341797e+00 2.180459260940551758e+00 -3.700135275721549988e-02
6.032000000000000000e+03 5.697634124755859375e+01 -6.278985977172851562e+00 -2.099847495555877686e-01 6.498824119567871094e+00 1.886651754379272461e+00 -7.813214659690856934e-01
6.033000000000000000e+03 1.491412830352783203e+01 -6.966325283050537109e+00 -3.747411370277404785e-01 1.609871983528137207e-01 -6.412617862224578857e-02 -1.963848061859607697e-02
6.034000000000000000e+03 4.727845382690429688e+01 -2.117369842529296875e+01 1.364026814699172974e-01 1.985940694808959961e+00 6.367030143737792969e-01 -8.755296468734741211e-01
6.035000000000000000e+03 3.494853973388671875e+00 2.199955558776855469e+01 -7.380031794309616089e-02 1.414157986640930176e+00 4.021072983741760254e-01 5.683764815330505371e-02
6.036000000000000000e+03 7.633652496337890625e+01 -1.767498397827148438e+01 -1.930246204137802124e-01 7.900339603424072266e+00 2.312194347381591797e+00 -3.819313347339630127e-01
6.037000000000000000e+03 7.659687805175781250e+01 -1.712620353698730469e+01 -6.772188097238540649e-02 7.897936820983886719e+00 2.349064350128173828e+00 -4.475965201854705811e-01
6.038000000000000000e+03 7.145516967773437500e+01 -3.278865337371826172e+00 -1.885375261306762695e+00 4.633937835693359375e+00 8.245687484741210938e-01 -1.695093393325805664e+00
6.039000000000000000e+03 2.453668022155761719e+01 2.744515609741210938e+01 -4.665444791316986084e-01 1.489919900894165039e+00 3.070126175880432129e-01 -1.074950918555259705e-01
6.040000000000000000e+03 2.273777389526367188e+01 2.695306015014648438e+01 -4.227585494518280029e-01 1.301747441291809082e+00 2.636966705322265625e-01 -2.901708483695983887e-01
6.041000000000000000e+03 2.557564735412597656e+01 2.644047355651855469e+01 -6.359696984291076660e-01 1.747291564941406250e+00 3.333965837955474854e-01 -2.525035105645656586e-02
6.042000000000000000e+03 1.822818374633789062e+01 1.792229652404785156e+01 -1.384862184524536133e+00 -2.840541601181030273e-01 -5.006749033927917480e-01 -4.781075417995452881e-01
6.043000000000000000e+03 1.765395927429199219e+01 1.954715728759765625e+01 -8.232249617576599121e-01 -8.780281990766525269e-02 -2.733083367347717285e-01 -3.388098776340484619e-01
6.044000000000000000e+03 3.149329948425292969e+01 -1.314691829681396484e+01 8.024473786354064941e-01 3.047005414962768555e+00 1.154835820198059082e+00 -1.756164431571960449e+00
6.045000000000000000e+03 3.521661758422851562e+01 -1.936009407043457031e+01 1.047416806221008301e+00 2.504271984100341797e+00 1.065506577491760254e+00 -4.460099339485168457e-01
6.046000000000000000e+03 3.602813339233398438e+01 -1.994991683959960938e+01 1.012141108512878418e+00 2.693259716033935547e+00 1.111620187759399414e+00 -2.323816269636154175e-01
6.047000000000000000e+03 2.424903678894042969e+01 -1.748468399047851562e+01 -5.100957304239273071e-02 2.714596986770629883e+00 7.990762591361999512e-01 3.125036358833312988e-01
6.048000000000000000e+03 2.151126670837402344e+01 -1.329156494140625000e+01 5.162416100502014160e-01 1.311725616455078125e+00 5.483901500701904297e-01 7.783359885215759277e-01
6.049000000000000000e+03 6.403488922119140625e+01 -1.702918243408203125e+01 1.139010787010192871e-01 4.574021816253662109e+00 1.406376957893371582e+00 -1.161852121353149414e+00
6.050000000000000000e+03 1.161071777343750000e+01 1.360618400573730469e+01 -1.277142047882080078e+00 4.980632066726684570e-01 -2.337236404418945312e-01 -3.913280069828033447e-01
6.051000000000000000e+03 5.520924377441406250e+01 2.696671104431152344e+01 -4.207519292831420898e-01 4.994301795959472656e+00 1.372064948081970215e+00 3.025097213685512543e-02
6.052000000000000000e+03 4.536537170410156250e+00 7.352204799652099609e+00 8.461616039276123047e-01 1.468219012022018433e-01 2.978950440883636475e-01 -1.027212977409362793e+00
6.053000000000000000e+03 6.572264099121093750e+01 2.463419914245605469e+01 1.466619502753019333e-02 5.887247562408447266e+00 1.770574092864990234e+00 2.695800177752971649e-02
6.054000000000000000e+03 2.051211357116699219e+01 -1.353135776519775391e+01 4.690237045288085938e-01 9.684683084487915039e-01 4.312475919723510742e-01 5.340264439582824707e-01
6.055000000000000000e+03 5.628746414184570312e+01 -2.653074264526367188e+01 -1.418039798736572266e-01 4.621684074401855469e+00 1.343963980674743652e+00 7.483360171318054199e-01
6.056000000000000000e+03 5.148765945434570312e+01 -2.610906982421875000e+01 5.613259673118591309e-01 2.741851091384887695e+00 9.909530878067016602e-01 3.756625950336456299e-01
6.057000000000000000e+03 6.890553283691406250e+01 -2.663176536560058594e+01 3.670241236686706543e-01 5.334354400634765625e+00 1.710413575172424316e+00 9.955889731645584106e-02
6.058000000000000000e+03 6.166621017456054688e+01 2.471267509460449219e+01 1.075949147343635559e-01 5.292656898498535156e+00 1.620075583457946777e+00 2.141048312187194824e-01
6.059000000000000000e+03 7.438552093505859375e+01 1.487216663360595703e+01 8.667501807212829590e-01 5.777776241302490234e+00 1.993357896804809570e+00 -4.824555516242980957e-01
6.060000000000000000e+03 1.818663787841796875e+01 -2.250832939147949219e+01 1.552964299917221069e-01 1.202830076217651367e+00 4.074379503726959229e-01 1.562633663415908813e-01
6.061000000000000000e+03 1.722653007507324219e+01 -2.286596298217773438e+01 1.603002697229385376e-01 1.056601166725158691e+00 3.650704324245452881e-01 1.248704269528388977e-01
6.062000000000000000e+03 5.596199035644531250e+01 1.294906234741210938e+01 1.639382123947143555e+00 5.499983310699462891e+00 2.141809463500976562e+00 2.476613521575927734e+00
6.063000000000000000e+03 6.704105854034423828e+00 1.006954288482666016e+01 -3.218020200729370117e-01 1.432189941406250000e+00 3.331163823604583740e-01 -1.420953989028930664e+00
6.064000000000000000e+03 5.478888702392578125e+01 1.075848102569580078e+01 1.458540916442871094e+00 8.076117515563964844e+00 2.860397577285766602e+00 1.669675827026367188e+00
6.065000000000000000e+03 6.660026550292968750e+01 2.452413177490234375e+01 -2.002728916704654694e-02 6.051188468933105469e+00 1.809348344802856445e+00 4.468206688761711121e-02
6.066000000000000000e+03 1.534036159515380859e+01 -8.234437942504882812e+00 -3.691614568233489990e-01 2.151043862104415894e-01 -4.621712490916252136e-02 -8.535166829824447632e-02
6.067000000000000000e+03 4.794207382202148438e+01 2.957376241683959961e-01 1.577170372009277344e+00 2.690175771713256836e+00 1.280203819274902344e+00 3.929944276809692383e+00
6.068000000000000000e+03 1.599452209472656250e+01 -9.152441024780273438e+00 -3.358751237392425537e-01 2.426821440458297729e-01 -2.795789577066898346e-02 -1.193204149603843689e-01
6.069000000000000000e+03 4.801301956176757812e+01 9.073538780212402344e-01 1.653446912765502930e+00 3.365887880325317383e+00 1.505800485610961914e+00 3.635157823562622070e+00
6.070000000000000000e+03 3.022296524047851562e+01 2.184234809875488281e+01 -6.369040012359619141e-01 1.755839347839355469e+00 3.356806039810180664e-01 1.292290806770324707e+00
6.071000000000000000e+03 5.758399200439453125e+01 -6.494458198547363281e+00 1.560668796300888062e-01 6.668270111083984375e+00 2.047301054000854492e+00 -4.337745010852813721e-01
6.072000000000000000e+03 5.718769836425781250e+01 1.727072906494140625e+01 6.214861869812011719e-01 4.948665618896484375e+00 1.671045541763305664e+00 2.278387308120727539e+00
6.073000000000000000e+03 6.796917724609375000e+01 1.459958362579345703e+01 6.064671874046325684e-01 8.985834121704101562e+00 2.877690315246582031e+00 1.243565678596496582e+00
6.074000000000000000e+03 2.263716316223144531e+01 -1.635761642456054688e+01 1.433245092630386353e-01 2.185844659805297852e+00 6.987507343292236328e-01 5.610740184783935547e-01
6.075000000000000000e+03 7.143440246582031250e+01 2.975481224060058594e+01 -7.932560890913009644e-02 6.505838394165039062e+00 1.927953839302062988e+00 1.471468955278396606e-01
6.076000000000000000e+03 6.121191406250000000e+01 2.371547889709472656e+01 2.004956156015396118e-01 5.168681144714355469e+00 1.610753059387207031e+00 2.907217741012573242e-01
6.077000000000000000e+03 7.231013488769531250e+01 -4.815745830535888672e+00 -1.032263517379760742e+00 5.582914352416992188e+00 1.365195155143737793e+00 -6.823428273200988770e-01
6.078000000000000000e+03 7.822874069213867188e+00 -2.532945442199707031e+01 5.702529475092887878e-02 1.042101182974874973e-03 1.742021925747394562e-02 -3.583784401416778564e-02
6.079000000000000000e+03 6.844947814941406250e+00 -2.583241844177246094e+01 4.499899223446846008e-02 -9.421464055776596069e-02 -1.476469542831182480e-02 -3.555695340037345886e-02
6.080000000000000000e+03 4.860957336425781250e+01 9.423416256904602051e-01 1.979818463325500488e+00 3.267565011978149414e+00 1.574215054512023926e+00 3.341219902038574219e+00
6.081000000000000000e+03 3.706207275390625000e+01 2.496654129028320312e+01 3.817082569003105164e-02 9.397137165069580078e-01 2.933653593063354492e-01 1.571207344532012939e-01
6.082000000000000000e+03 4.949835968017578125e+01 2.687432289123535156e+00 3.156326293945312500e+00 5.330218791961669922e+00 2.545963525772094727e+00 2.240701436996459961e+00
6.083000000000000000e+03 1.502798652648925781e+01 -7.869155883789062500e+00 -3.583951294422149658e-01 1.928423941135406494e-01 -4.966581612825393677e-02 -7.138311862945556641e-02
6.084000000000000000e+03 7.574100494384765625e+01 -7.248370170593261719e+00 1.868902593851089478e-01 8.384964942932128906e+00 2.571556568145751953e+00 1.587143898010253906e+00
6.085000000000000000e+03 7.431504821777343750e+01 -2.050104331970214844e+01 -4.542173147201538086e-01 7.150939941406250000e+00 2.009016752243041992e+00 5.859062671661376953e-01
6.086000000000000000e+03 5.791414260864257812e+01 -3.466086864471435547e+00 1.231145113706588745e-01 4.889340400695800781e+00 1.503736495971679688e+00 -2.134193420410156250e+00
6.087000000000000000e+03 3.527720451354980469e+00 3.441586303710937500e+01 2.377559058368206024e-02 1.170051932334899902e+00 3.581482470035552979e-01 9.398845583200454712e-02
6.088000000000000000e+03 2.087832832336425781e+01 2.664495849609375000e+01 -2.881993055343627930e-01 9.957852363586425781e-01 2.122757732868194580e-01 -3.648332655429840088e-01
6.089000000000000000e+03 5.246485137939453125e+01 2.406539726257324219e+01 -8.000608086585998535e-01 5.138966083526611328e+00 1.301671624183654785e+00 -2.973314523696899414e-01
6.090000000000000000e+03 3.861766433715820312e+01 2.021372604370117188e+01 -5.943133831024169922e-01 4.209325611591339111e-01 -5.201424285769462585e-02 -1.578719615936279297e-01
6.091000000000000000e+03 5.886986160278320312e+01 -6.619161605834960938e+00 7.592095732688903809e-01 7.140279769897460938e+00 2.369846820831298828e+00 2.772692143917083740e-01
6.092000000000000000e+03 5.933342742919921875e+01 -6.289108276367187500e+00 1.027186989784240723e+00 7.290843963623046875e+00 2.495409250259399414e+00 3.478576242923736572e-01
6.093000000000000000e+03 3.593734264373779297e+00 2.695473480224609375e+01 -1.221149112097918987e-03 1.317185282707214355e+00 3.947892487049102783e-01 1.485005170106887817e-01
6.094000000000000000e+03 4.713042068481445312e+01 -2.205148887634277344e+01 2.482700496912002563e-01 2.154245615005493164e+00 7.207546830177307129e-01 -8.961031436920166016e-01
6.095000000000000000e+03 7.174039459228515625e+01 -2.187788963317871094e+01 1.108000800013542175e-01 5.722006320953369141e+00 1.749841928482055664e+00 9.260649085044860840e-01
6.096000000000000000e+03 7.478614044189453125e+01 -2.034846687316894531e+01 -4.342064261436462402e-01 7.351224899291992188e+00 2.075105428695678711e+00 4.077736437320709229e-01
6.097000000000000000e+03 6.332807922363281250e+01 -1.800419998168945312e+01 3.788490593433380127e-01 5.093483924865722656e+00 1.641699910163879395e+00 -1.318598985671997070e+00
6.098000000000000000e+03 4.526926422119140625e+01 2.306655883789062500e+01 -1.949534714221954346e-01 2.166480541229248047e+00 5.914581418037414551e-01 -9.224783182144165039e-01
6.099000000000000000e+03 3.872300386428833008e+00 1.746742057800292969e+01 -2.271309196949005127e-01 1.332981705665588379e+00 3.317552208900451660e-01 -2.398245781660079956e-01
6.100000000000000000e+03 4.159786224365234375e+01 1.986717033386230469e+01 -6.961653232574462891e-01 8.626476526260375977e-01 4.994469508528709412e-02 -3.545149564743041992e-01
6.101000000000000000e+03 3.549200057983398438e+01 2.039705657958984375e+01 -3.364714980125427246e-01 7.205893844366073608e-02 -7.932376861572265625e-02 3.632011413574218750e-01
6.102000000000000000e+03 3.084309387207031250e+01 -1.138261985778808594e+01 1.193897962570190430e+00 3.017582893371582031e+00 1.263444304466247559e+00 -2.139461517333984375e+00
6.103000000000000000e+03 5.220377349853515625e+01 2.197183990478515625e+01 -1.128898739814758301e+00 5.776886940002441406e+00 1.394396543502807617e+00 -3.388854265213012695e-01
6.104000000000000000e+03 7.997983932495117188e+00 2.934703445434570312e+01 3.529188781976699829e-02 9.598937630653381348e-01 2.985557019710540771e-01 1.733473241329193115e-01
6.105000000000000000e+03 4.288904571533203125e+01 -2.564156913757324219e+01 7.978413999080657959e-02 3.334167480468750000e+00 1.024185419082641602e+00 -5.985066294670104980e-01
6.106000000000000000e+03 4.990494155883789062e+01 -2.609056854248046875e+01 6.186931729316711426e-01 2.551542758941650391e+00 9.510707855224609375e-01 6.203653290867805481e-02
6.107000000000000000e+03 7.637892913818359375e+01 -5.492632389068603516e+00 -1.364674717187881470e-01 8.386754989624023438e+00 2.475086212158203125e+00 1.561017036437988281e+00
6.108000000000000000e+03 7.591082000732421875e+01 -5.776524066925048828e+00 -1.120587959885597229e-01 8.166038513183593750e+00 2.416193962097167969e+00 1.535414218902587891e+00
6.109000000000000000e+03 3.028953170776367188e+01 -1.243517589569091797e+01 7.055766582489013672e-01 3.594419956207275391e+00 1.289999008178710938e+00 -1.988277077674865723e+00
6.110000000000000000e+03 4.574749946594238281e+00 -7.335299491882324219e+00 -3.999855369329452515e-02 -5.980031564831733704e-02 -2.993966080248355865e-02 -1.174632385373115540e-01
6.111000000000000000e+03 4.133628845214843750e+00 -8.625559806823730469e+00 -2.687688916921615601e-02 -9.443143755197525024e-02 -3.639249876141548157e-02 -1.294236928224563599e-01
6.112000000000000000e+03 6.853066253662109375e+01 1.617628479003906250e+01 1.794341802597045898e-01 7.780703544616699219e+00 2.388041257858276367e+00 8.285552263259887695e-01
6.113000000000000000e+03 2.331514167785644531e+01 -2.308515548706054688e+01 1.469802670180797577e-02 2.092501878738403320e+00 6.321599483489990234e-01 1.159831210970878601e-01
6.114000000000000000e+03 6.022237396240234375e+01 -1.239900112152099609e+01 1.908532083034515381e-01 8.471220016479492188e+00 2.598621845245361328e+00 6.995645761489868164e-01
6.115000000000000000e+03 7.174126434326171875e+01 2.709433746337890625e+01 -6.558502465486526489e-02 6.554003715515136719e+00 1.946525573730468750e+00 1.775361597537994385e-01
6.116000000000000000e+03 7.266471099853515625e+01 2.631049919128417969e+01 -6.551366299390792847e-02 6.619151592254638672e+00 1.966091394424438477e+00 1.886020451784133911e-01
6.117000000000000000e+03 3.611788940429687500e+01 2.420193481445312500e+01 -1.006578374654054642e-02 7.980914115905761719e-01 2.364076822996139526e-01 3.432057201862335205e-01
6.118000000000000000e+03 1.931471824645996094e+01 -1.293849372863769531e+01 3.484880030155181885e-01 5.968814492225646973e-01 2.836108505725860596e-01 2.506188154220581055e-01
6.119000000000000000e+03 9.573786735534667969e+00 -2.648767662048339844e+01 7.448739558458328247e-02 2.045011669397354126e-01 8.369656652212142944e-02 7.738029235042631626e-04
6.120000000000000000e+03 8.439054489135742188e+00 -2.393083953857421875e+01 8.247133344411849976e-02 5.311587825417518616e-02 4.067616164684295654e-02 -4.504733160138130188e-02
6.121000000000000000e+03 6.460967254638671875e+01 2.116925239562988281e+01 2.408173829317092896e-01 5.572938919067382812e+00 1.744126915931701660e+00 -2.521746158599853516e-01
6.122000000000000000e+03 4.100336456298828125e+01 1.904533004760742188e+01 -9.283090829849243164e-01 7.488223910331726074e-01 -5.384602025151252747e-02 -2.955437600612640381e-01
6.123000000000000000e+03 3.931988906860351562e+01 2.187162590026855469e+01 -2.825640141963958740e-01 7.024692893028259277e-01 1.259715855121612549e-01 -1.809597462415695190e-01
6.124000000000000000e+03 1.980795097351074219e+01 -1.439346790313720703e+01 3.823470175266265869e-01 9.672161340713500977e-01 4.048689603805541992e-01 3.927932083606719971e-01
6.125000000000000000e+03 6.070639610290527344e+00 1.024479961395263672e+01 -2.667208611965179443e-01 1.359040498733520508e+00 3.276959061622619629e-01 -1.374743461608886719e+00
6.126000000000000000e+03 6.181922531127929688e+01 -1.206745052337646484e+01 -2.170736640691757202e-01 7.658563137054443359e+00 2.232446908950805664e+00 3.919517993927001953e-01
6.127000000000000000e+03 1.002810573577880859e+01 1.250012397766113281e+01 -1.161203622817993164e+00 1.038377165794372559e+00 -3.684794157743453979e-02 -5.073140263557434082e-01
6.128000000000000000e+03 1.517420482635498047e+01 -2.154280281066894531e+01 1.979837864637374878e-01 7.324464321136474609e-01 2.791290581226348877e-01 7.195117324590682983e-02
6.129000000000000000e+03 4.956187248229980469e+00 1.728513145446777344e+01 -3.497706353664398193e-01 1.247393846511840820e+00 2.692869603633880615e-01 -2.867898643016815186e-01
6.130000000000000000e+03 6.227982330322265625e+01 -2.124559974670410156e+01 1.303406804800033569e-01 5.655769824981689453e+00 1.735833168029785156e+00 -1.214935183525085449e+00
6.131000000000000000e+03 6.869789886474609375e+01 2.388479614257812500e+01 -6.007059663534164429e-02 6.368717670440673828e+00 1.892594099044799805e+00 1.073887348175048828e-01
6.132000000000000000e+03 5.357287979125976562e+01 2.357433891296386719e+01 -8.078743815422058105e-01 5.426904201507568359e+00 1.385708928108215332e+00 2.988565154373645782e-02
6.133000000000000000e+03 7.469911956787109375e+01 -2.096096611022949219e+01 -4.317457675933837891e-01 7.139726638793945312e+00 2.012394189834594727e+00 4.574301242828369141e-01
6.134000000000000000e+03 2.436368370056152344e+01 -2.024926376342773438e+01 -2.149120345711708069e-02 2.428905010223388672e+00 7.222241163253784180e-01 1.180369034409523010e-01
6.135000000000000000e+03 4.000107288360595703e+00 1.865429878234863281e+01 -2.219936996698379517e-01 1.337037324905395508e+00 3.345130980014801025e-01 -1.386253684759140015e-01
6.136000000000000000e+03 1.251119804382324219e+01 -7.857923030853271484e+00 -2.343935072422027588e-01 1.671193242073059082e-01 -2.018225565552711487e-02 -1.364028751850128174e-01
6.137000000000000000e+03 4.237982273101806641e+00 -9.381374359130859375e+00 -2.525797858834266663e-02 -1.048604249954223633e-01 -3.903552144765853882e-02 -1.411023586988449097e-01
6.138000000000000000e+03 5.123486042022705078e+00 -7.527420997619628906e+00 -4.762285575270652771e-02 -4.854325205087661743e-02 -2.884983271360397339e-02 -1.319077908992767334e-01
6.139000000000000000e+03 6.210533905029296875e+01 -2.202401542663574219e+01 1.260374784469604492e-01 5.717937946319580078e+00 1.753192543983459473e+00 -1.000120639801025391e+00
6.140000000000000000e+03 6.488914966583251953e+00 1.314873981475830078e+01 -7.128871679306030273e-01 1.314702987670898438e+00 1.805447489023208618e-01 -8.125757575035095215e-01
6.141000000000000000e+03 7.549308776855468750e+01 -5.267935752868652344e+00 -2.145070582628250122e-01 7.736670494079589844e+00 2.256649017333984375e+00 1.352291464805603027e+00
6.142000000000000000e+03 5.519938468933105469e+00 2.416550064086914062e+01 -7.713524997234344482e-02 1.161802649497985840e+00 3.254002332687377930e-01 1.432634145021438599e-01
6.143000000000000000e+03 1.617482376098632812e+01 -1.173606967926025391e+01 -1.141920499503612518e-02 3.146266341209411621e-01 9.096223115921020508e-02 -1.624257713556289673e-01
6.144000000000000000e+03 1.999271202087402344e+01 -1.710126686096191406e+01 3.023693859577178955e-01 1.323313832283020020e+00 4.877049624919891357e-01 3.657273054122924805e-01
6.145000000000000000e+03 1.865339660644531250e+01 -1.438716793060302734e+01 3.642725646495819092e-01 7.351844906806945801e-01 3.298371136188507080e-01 2.326395958662033081e-01
6.146000000000000000e+03 7.079518127441406250e+01 1.918475723266601562e+01 1.990832090377807617e-01 6.705286026000976562e+00 2.071310758590698242e+00 4.224630594253540039e-01
6.147000000000000000e+03 1.896639060974121094e+01 -1.367151737213134766e+01 3.705053329467773438e-01 6.567031145095825195e-01 3.081625401973724365e-01 1.891980171203613281e-01
6.148000000000000000e+03 1.615116882324218750e+01 -1.250105953216552734e+01 1.045117974281311035e-01 3.191395998001098633e-01 1.270954161882400513e-01 -1.273456662893295288e-01
6.149000000000000000e+03 1.401213359832763672e+01 -9.568167686462402344e+00 -1.987270861864089966e-01 2.187031209468841553e-01 5.992808844894170761e-03 -1.796507090330123901e-01
6.150000000000000000e+03 1.043655490875244141e+01 1.799570655822753906e+01 -7.643128633499145508e-01 7.006132602691650391e-01 -1.910987868905067444e-02 -7.268646359443664551e-02
6.151000000000000000e+03 1.088397789001464844e+01 1.735560798645019531e+01 -8.829173445701599121e-01 6.292074322700500488e-01 -7.611296325922012329e-02 -1.099888235330581665e-01
6.152000000000000000e+03 1.931435775756835938e+01 -1.655551528930664062e+01 3.065304756164550781e-01 1.121298551559448242e+00 4.283487200736999512e-01 3.175867795944213867e-01
6.153000000000000000e+03 1.570876979827880859e+01 -1.885415458679199219e+01 2.508866488933563232e-01 6.870343685150146484e-01 2.813763022422790527e-01 7.300011068582534790e-02
6.154000000000000000e+03 1.685857009887695312e+01 -1.939583015441894531e+01 2.361342459917068481e-01 8.836328387260437012e-01 3.359301090240478516e-01 1.329745203256607056e-01
6.155000000000000000e+03 1.016000080108642578e+01 1.389493751525878906e+01 -1.149102449417114258e+00 8.870679140090942383e-01 -7.861035317182540894e-02 -4.030174016952514648e-01
6.156000000000000000e+03 1.390876293182373047e+01 -1.859331321716308594e+01 2.162856310606002808e-01 4.760506749153137207e-01 2.077008932828903198e-01 -2.150904759764671326e-02
6.157000000000000000e+03 8.893401145935058594e+00 -8.332656860351562500e+00 -1.097583696246147156e-01 5.715074017643928528e-02 -1.578228920698165894e-02 -1.729853451251983643e-01
6.158000000000000000e+03 1.852731132507324219e+01 -1.509789466857910156e+01 3.557691276073455811e-01 7.719040513038635254e-01 3.383019566535949707e-01 2.047431617975234985e-01
6.159000000000000000e+03 1.621321678161621094e+01 -1.328760051727294922e+01 1.572702229022979736e-01 3.806442320346832275e-01 1.613743305206298828e-01 -1.028998345136642456e-01
6.160000000000000000e+03 8.858857154846191406e+00 1.679048347473144531e+01 -7.948309779167175293e-01 9.528676271438598633e-01 4.741099849343299866e-02 -2.118717283010482788e-01
6.161000000000000000e+03 5.715851974487304688e+01 2.135559082031250000e+01 -8.713418990373611450e-02 5.309714794158935547e+00 1.566774129867553711e+00 1.046640515327453613e+00
6.162000000000000000e+03 1.245855522155761719e+01 2.028769302368164062e+01 -5.594797134399414062e-01 4.444832503795623779e-01 -3.449894115328788757e-02 2.922029793262481689e-02
6.163000000000000000e+03 1.210333156585693359e+01 1.957761383056640625e+01 -6.597148776054382324e-01 4.624823927879333496e-01 -5.916975066065788269e-02 1.557883154600858688e-02
6.164000000000000000e+03 1.015074253082275391e+01 2.021880340576171875e+01 -5.151456594467163086e-01 6.969649195671081543e-01 5.454577505588531494e-02 2.676846459507942200e-02
6.165000000000000000e+03 1.325399398803710938e+01 -9.879420280456542969e+00 -1.613764315843582153e-01 2.069307565689086914e-01 1.366629544645547867e-02 -1.972104012966156006e-01
6.166000000000000000e+03 1.329836845397949219e+01 -1.044842147827148438e+01 -1.209085136651992798e-01 2.149470746517181396e-01 2.821156941354274750e-02 -2.182277143001556396e-01
6.167000000000000000e+03 6.045587539672851562e+00 -1.661473274230957031e+01 4.116990789771080017e-02 -1.472037285566329956e-01 -3.181014955043792725e-02 -1.652667969465255737e-01
6.168000000000000000e+03 1.228606414794921875e+01 2.078954505920410156e+01 -5.058352351188659668e-01 4.560898840427398682e-01 -1.492360141128301620e-02 2.781600877642631531e-02
6.169000000000000000e+03 1.129992294311523438e+01 2.005882072448730469e+01 -5.589253306388854980e-01 5.708582401275634766e-01 3.579864511266350746e-03 3.412858024239540100e-02
6.170000000000000000e+03 1.134948062896728516e+01 2.100596427917480469e+01 -4.580442905426025391e-01 5.616285204887390137e-01 3.107528015971183777e-02 5.122590065002441406e-02
6.171000000000000000e+03 5.343352317810058594e+00 -1.345477485656738281e+01 6.408681627362966537e-03 -1.426997631788253784e-01 -4.088732600212097168e-02 -1.800921708345413208e-01
6.172000000000000000e+03 1.355600357055664062e+01 -9.356618881225585938e+00 -2.134574949741363525e-01 2.207641005516052246e-01 2.191981533542275429e-03 -1.802738606929779053e-01
6.173000000000000000e+03 1.115203380584716797e+01 -1.290669155120849609e+01 2.403735555708408356e-02 1.507139801979064941e-01 5.242540314793586731e-02 -2.192913144826889038e-01
6.174000000000000000e+03 8.787175178527832031e+00 -1.228583335876464844e+01 -8.192680776119232178e-03 3.683031722903251648e-02 8.591291494667530060e-03 -2.206879705190658569e-01
6.175000000000000000e+03 8.480340957641601562e+00 -1.159424018859863281e+01 -2.703128382563591003e-02 3.043801151216030121e-02 1.022018608637154102e-03 -2.217167764902114868e-01
6.176000000000000000e+03 8.404057502746582031e+00 -1.092828083038330078e+01 -4.406236857175827026e-02 2.974781021475791931e-02 -4.294367507100105286e-03 -2.144948691129684448e-01
6.177000000000000000e+03 1.234884929656982422e+01 -1.318822383880615234e+01 5.032146722078323364e-02 2.023908644914627075e-01 7.581369578838348389e-02 -2.069779634475708008e-01
6.178000000000000000e+03 7.480421066284179688e+00 -1.618252182006835938e+01 5.507452040910720825e-02 -4.943674057722091675e-02 1.691333949565887451e-03 -1.828801333904266357e-01
6.179000000000000000e+03 8.197011947631835938e+00 -1.598326969146728516e+01 6.775848567485809326e-02 -1.312099862843751907e-02 1.639124564826488495e-02 -1.899743825197219849e-01
6.180000000000000000e+03 1.027363491058349609e+01 -1.634435462951660156e+01 1.108475327491760254e-01 1.320077925920486450e-01 7.285659760236740112e-02 -1.722947210073471069e-01
6.181000000000000000e+03 8.282001495361328125e+00 -1.332642841339111328e+01 1.982882432639598846e-02 8.242676034569740295e-03 8.421449922025203705e-03 -2.165057957172393799e-01
6.182000000000000000e+03 7.348731040954589844e+00 -1.352853202819824219e+01 1.594119518995285034e-02 -3.876920789480209351e-02 -6.848403718322515488e-03 -2.097912728786468506e-01
6.183000000000000000e+03 8.893197059631347656e+00 -1.664440727233886719e+01 9.156876057386398315e-02 3.674651682376861572e-02 3.849458321928977966e-02 -1.793500185012817383e-01
6.184000000000000000e+03 3.878360366821289062e+01 1.077974700927734375e+01 2.221307530999183655e-02 3.142627421766519547e-03 7.606710772961378098e-03 -7.651649415493011475e-03
6.185000000000000000e+03 3.957522964477539062e+01 1.056512928009033203e+01 1.222612243145704269e-02 -6.842957809567451477e-04 3.462548134848475456e-03 -6.888273637741804123e-03
6.186000000000000000e+03 4.090800857543945312e+01 1.034381008148193359e+01 2.676011994481086731e-03 -7.826104760169982910e-03 -1.545027829706668854e-03 -1.892772503197193146e-03
6.187000000000000000e+03 3.851947784423828125e+01 9.862163543701171875e+00 1.783311180770397186e-02 -2.451440319418907166e-03 4.614501260221004486e-03 -1.464559324085712433e-02
6.188000000000000000e+03 4.172409439086914062e+01 9.294953346252441406e+00 5.100641865283250809e-03 3.705210285261273384e-03 2.641755621880292892e-03 -2.180430805310606956e-03
6.189000000000000000e+03 4.155122756958007812e+01 1.012382030487060547e+01 1.671401783823966980e-03 3.602140583097934723e-03 1.582062686793506145e-03 -2.122742589563131332e-03
6.190000000000000000e+03 4.225697326660156250e+01 9.941902160644531250e+00 -1.608422957360744476e-03 8.349003473995253444e-05 -4.574798804242163897e-04 5.963165895082056522e-04
6.191000000000000000e+03 3.865528106689453125e+01 1.028447341918945312e+01 1.653062179684638977e-02 -3.289439715445041656e-03 3.972354810684919357e-03 -3.103180322796106339e-03
6.192000000000000000e+03 4.028055191040039062e+01 1.048345947265625000e+01 1.018631551414728165e-02 9.416579268872737885e-03 5.880868528038263321e-03 -1.788809895515441895e-03
6.193000000000000000e+03 3.979833984375000000e+01 9.753077507019042969e+00 1.068770885467529297e-02 9.690544568002223969e-03 6.113476119935512543e-03 -1.394587568938732147e-02
6.194000000000000000e+03 4.048064422607421875e+01 9.892707824707031250e+00 -3.242437029257416725e-03 6.667987443506717682e-03 1.027665100991725922e-03 -8.845313452184200287e-03
6.195000000000000000e+03 4.102310943603515625e+01 9.477449417114257812e+00 -4.619444254785776138e-03 2.287474693730473518e-03 -6.995908333919942379e-04 1.781032187864184380e-03
6.196000000000000000e+03 3.913888168334960938e+01 9.795186042785644531e+00 -3.017947310581803322e-03 -4.369338043034076691e-03 -2.216185675933957100e-03 -1.080738008022308350e-02
6.197000000000000000e+03 1.478255176544189453e+01 1.125994801521301270e+00 -3.289620280265808105e-01 -1.548426508903503418e+00 -5.632165670394897461e-01 -8.357561826705932617e-01
6.198000000000000000e+03 1.406890583038330078e+01 1.073610067367553711e+00 -8.724533319473266602e-01 -6.187511086463928223e-01 -4.473613202571868896e-01 -1.750675320625305176e+00
6.199000000000000000e+03 1.411068916320800781e+01 3.298048675060272217e-01 -1.086381316184997559e+00 -2.943180799484252930e-01 -4.142098128795623779e-01 -7.574043273925781250e-01
6.200000000000000000e+03 1.334397411346435547e+01 1.023863434791564941e+00 -1.400812387466430664e+00 1.479608118534088135e-01 -3.758554756641387939e-01 -1.827883005142211914e+00
6.201000000000000000e+03 1.484494400024414062e+01 3.804935514926910400e-01 -1.812807470560073853e-01 -2.790173590183258057e-01 -1.380894333124160767e-01 -2.271341681480407715e-01
6.202000000000000000e+03 1.336514949798583984e+01 2.817863523960113525e-01 -2.552649497985839844e+00 1.001263931393623352e-01 -7.357569336891174316e-01 -8.794353604316711426e-01
6.203000000000000000e+03 1.038163661956787109e+01 3.719484806060791016e-01 -7.135256290435791016e+00 1.008221600204706192e-02 -2.137552261352539062e+00 1.882487982511520386e-01
6.204000000000000000e+03 1.112833786010742188e+01 3.352923989295959473e-01 -6.585051059722900391e+00 2.282441109418869019e-01 -1.907042026519775391e+00 -5.427782610058784485e-02
6.205000000000000000e+03 1.187404060363769531e+01 3.023687005043029785e-01 -5.535598278045654297e+00 7.663609087467193604e-02 -1.637688636779785156e+00 -3.508499264717102051e-01
6.206000000000000000e+03 1.187335777282714844e+01 1.043116807937622070e+00 -2.995359897613525391e+00 7.136715054512023926e-01 -6.845064759254455566e-01 -1.453377842903137207e+00
6.207000000000000000e+03 1.261872673034667969e+01 2.733090519905090332e-01 -4.098032474517822266e+00 1.865878403186798096e-01 -1.173433303833007812e+00 -5.668164491653442383e-01
6.208000000000000000e+03 1.261125278472900391e+01 1.014356493949890137e+00 -2.136814355850219727e+00 3.580532968044281006e-01 -5.336282849311828613e-01 -1.941998243331909180e+00
6.209000000000000000e+03 1.039453697204589844e+01 1.112098097801208496e+00 -3.779407978057861328e+00 6.415100097656250000e-01 -9.413694143295288086e-01 -1.742534041404724121e-01
6.210000000000000000e+03 1.113444709777832031e+01 1.075741291046142578e+00 -3.553345203399658203e+00 5.907875299453735352e-01 -8.887673020362854004e-01 -8.547040820121765137e-01
6.211000000000000000e+03 9.623786926269531250e+00 3.900898993015289307e-01 -7.015386581420898438e+00 8.214708417654037476e-02 -2.079971790313720703e+00 2.972756028175354004e-01
6.212000000000000000e+03 8.869092941284179688e+00 1.130121707916259766e+00 -3.525217533111572266e+00 2.611408829689025879e-01 -9.792229533195495605e-01 9.713494181632995605e-01
6.213000000000000000e+03 9.639455795288085938e+00 1.130089879035949707e+00 -3.715420484542846680e+00 3.499196767807006836e-01 -1.009650230407714844e+00 5.979374647140502930e-01
6.214000000000000000e+03 6.556201934814453125e+00 1.130103111267089844e+00 -2.178730487823486328e+00 -1.360589414834976196e-01 -6.944368481636047363e-01 1.078369259834289551e+00
6.215000000000000000e+03 7.314821243286132812e+00 3.901119828224182129e-01 -4.416107654571533203e+00 4.540666996035724878e-04 -1.324696063995361328e+00 4.752162992954254150e-01
6.216000000000000000e+03 4.234930038452148438e+00 3.901281952857971191e-01 -1.381394743919372559e+00 -2.171401865780353546e-02 -4.209326505661010742e-01 2.498121261596679688e-01
6.217000000000000000e+03 5.005080699920654297e+00 3.903138041496276855e-01 -1.961611151695251465e+00 -3.537765890359878540e-02 -5.990966558456420898e-01 3.105979263782501221e-01
6.218000000000000000e+03 2.698928356170654297e+00 1.130043506622314453e+00 -4.527588486671447754e-01 -9.101602435111999512e-02 -1.631324738264083862e-01 4.164378345012664795e-01
6.219000000000000000e+03 2.694541215896606445e+00 3.900435268878936768e-01 -5.332078337669372559e-01 -2.395965158939361572e-02 -1.671502441167831421e-01 1.556209623813629150e-01
6.220000000000000000e+03 1.927357912063598633e+00 1.130177497863769531e+00 -2.644969820976257324e-01 -1.097801551222801208e-01 -1.122831404209136963e-01 2.968401014804840088e-01
6.221000000000000000e+03 1.924224138259887695e+00 3.901774585247039795e-01 -2.568625509738922119e-01 -2.143733575940132141e-02 -8.348996192216873169e-02 1.100667044520378113e-01
6.222000000000000000e+03 1.154332518577575684e+00 3.901924192905426025e-01 -8.546753227710723877e-02 -2.968247607350349426e-02 -3.454500064253807068e-02 5.527012795209884644e-02
6.223000000000000000e+03 3.854947686195373535e-01 1.130104899406433105e+00 -2.778425812721252441e-02 -7.780662178993225098e-02 -3.167726472020149231e-02 5.333895981311798096e-02
6.224000000000000000e+03 3.848679959774017334e-01 3.901049494743347168e-01 -1.388870086520910263e-02 -1.214486639946699142e-02 -7.810070179402828217e-03 1.343174092471599579e-02
6.225000000000000000e+03 3.464860916137695312e+00 3.899480998516082764e-01 -9.078362584114074707e-01 -2.240207791328430176e-02 -2.790715098381042480e-01 2.055480480194091797e-01
6.226000000000000000e+03 4.241824626922607422e+00 1.130128264427185059e+00 -9.681968092918395996e-01 -1.040583476424217224e-01 -3.216765522956848145e-01 6.622676253318786621e-01
6.227000000000000000e+03 5.775665760040283203e+00 3.902668058872222900e-01 -2.661629676818847656e+00 -1.839099079370498657e-02 -8.040061593055725098e-01 3.649650514125823975e-01
6.228000000000000000e+03 5.785067081451416016e+00 1.130266785621643066e+00 -1.718765377998352051e+00 -1.191577091813087463e-01 -5.513769388198852539e-01 9.489601254463195801e-01
6.229000000000000000e+03 6.545547008514404297e+00 3.901031017303466797e-01 -3.482847690582275391e+00 -4.440646618604660034e-02 -1.058176159858703613e+00 4.309269487857818604e-01
6.230000000000000000e+03 8.084894180297851562e+00 3.901273906230926514e-01 -5.388518333435058594e+00 -1.257870695553719997e-03 -1.616932868957519531e+00 4.762631654739379883e-01
6.231000000000000000e+03 7.326729297637939453e+00 1.130111932754516602e+00 -2.642572164535522461e+00 -3.915890306234359741e-02 -8.045192956924438477e-01 1.175044417381286621e+00
6.232000000000000000e+03 8.854677200317382812e+00 3.901217579841613770e-01 -6.301970481872558594e+00 4.505481943488121033e-02 -1.877074718475341797e+00 4.287516772747039795e-01
6.233000000000000000e+03 8.098055839538574219e+00 1.130127429962158203e+00 -3.131612300872802734e+00 3.220129758119583130e-02 -9.298232793807983398e-01 1.176560759544372559e+00
6.234000000000000000e+03 5.013228416442871094e+00 1.130313754081726074e+00 -1.315031766891479492e+00 -1.364595741033554077e-01 -4.354473948478698730e-01 7.893643975257873535e-01
6.235000000000000000e+03 3.470501661300659180e+00 1.129948139190673828e+00 -6.830123662948608398e-01 -1.106942147016525269e-01 -2.381119728088378906e-01 5.250513553619384766e-01
6.236000000000000000e+03 1.156212806701660156e+00 1.130192399024963379e+00 -1.190645247697830200e-01 -1.160785257816314697e-01 -7.054291665554046631e-02 1.727618575096130371e-01
6.237000000000000000e+03 8.742475509643554688e+00 -3.898988962173461914e-01 -1.154863834381103516e-01 1.434388803318142891e-03 -3.421559929847717285e-02 -5.164400208741426468e-03
6.238000000000000000e+03 9.575103759765625000e+00 -3.899109661579132080e-01 -1.229883134365081787e-01 1.448538037948310375e-03 -3.646193072199821472e-02 -1.761176157742738724e-03
6.239000000000000000e+03 7.909454822540283203e+00 -3.897540867328643799e-01 -1.023230627179145813e-01 9.967365622287616134e-05 -3.066701628267765045e-02 -6.783588789403438568e-03
6.240000000000000000e+03 6.233481884002685547e+00 -1.129504799842834473e+00 -6.968505680561065674e-02 5.623082397505640984e-04 -2.073682472109794617e-02 -2.350194565951824188e-02
6.241000000000000000e+03 5.410736083984375000e+00 -3.894227743148803711e-01 -5.010740831494331360e-02 3.073042898904532194e-04 -1.494003087282180786e-02 -7.922279648482799530e-03
6.242000000000000000e+03 4.578420639038085938e+00 -3.893613815307617188e-01 -3.340818732976913452e-02 -1.074501080438494682e-03 -1.034480612725019455e-02 -6.953174248337745667e-03
6.243000000000000000e+03 3.745855093002319336e+00 -3.893473148345947266e-01 -1.924715191125869751e-02 -2.075398952001705766e-04 -5.836407653987407684e-03 -5.646292120218276978e-03
6.244000000000000000e+03 2.913255691528320312e+00 -3.893557190895080566e-01 -8.507656864821910858e-03 -1.258762436918914318e-03 -2.929925685748457909e-03 -3.877725452184677124e-03
6.245000000000000000e+03 2.080705881118774414e+00 -3.893981575965881348e-01 -1.989502459764480591e-03 -6.016317056491971016e-04 -7.773402030579745770e-04 -1.912226201966404915e-03
6.246000000000000000e+03 1.248468995094299316e+00 -3.895468115806579590e-01 4.049607377965003252e-04 -8.151609217748045921e-04 -1.230600610142573714e-04 -1.858624746091663837e-04
6.247000000000000000e+03 4.162417650222778320e-01 -3.898310959339141846e-01 2.897020895034074783e-04 2.971732756122946739e-04 1.760626037139445543e-04 2.697772579267621040e-04
6.248000000000000000e+03 4.155627489089965820e-01 -1.129831075668334961e+00 -6.730159511789679527e-04 3.368919133208692074e-04 -1.008372055366635323e-04 -9.607599349692463875e-05
6.249000000000000000e+03 9.559487342834472656e+00 -1.129910945892333984e+00 -1.213650330901145935e-01 7.653690408915281296e-03 -3.411340340971946716e-02 -8.259112015366554260e-03
6.250000000000000000e+03 8.728217124938964844e+00 -1.129898905754089355e+00 -1.111867055296897888e-01 4.081380087882280350e-03 -3.213159739971160889e-02 -1.460291817784309387e-02
6.251000000000000000e+03 7.896553993225097656e+00 -1.129754066467285156e+00 -9.907135367393493652e-02 3.272283123806118965e-03 -2.873972244560718536e-02 -1.986777037382125854e-02
6.252000000000000000e+03 7.065107822418212891e+00 -1.129535436630249023e+00 -8.498532325029373169e-02 7.979455403983592987e-04 -2.525621280074119568e-02 -2.202895283699035645e-02
6.253000000000000000e+03 5.401909351348876953e+00 -1.129422783851623535e+00 -5.413334444165229797e-02 -1.877488684840500355e-03 -1.680324971675872803e-02 -2.226208895444869995e-02
6.254000000000000000e+03 4.570951938629150391e+00 -1.129361391067504883e+00 -3.983516618609428406e-02 -1.877474831417202950e-03 -1.251379214227199554e-02 -2.019035816192626953e-02
6.255000000000000000e+03 3.739744186401367188e+00 -1.129347324371337891e+00 -2.700932323932647705e-02 -3.744610119611024857e-03 -9.226180613040924072e-03 -1.638395711779594421e-02
6.256000000000000000e+03 2.908502817153930664e+00 -1.129355669021606445e+00 -1.668480411171913147e-02 -3.561935154721140862e-03 -6.074022036045789719e-03 -1.188381202518939972e-02
6.257000000000000000e+03 2.077311038970947266e+00 -1.129398226737976074e+00 -8.714919909834861755e-03 -4.388123750686645508e-03 -3.930913284420967102e-03 -6.763342767953872681e-03
6.258000000000000000e+03 7.076650142669677734e+00 -3.895354866981506348e-01 -8.593077212572097778e-02 7.998548680916428566e-04 -2.553927339613437653e-02 -7.945240475237369537e-03
6.259000000000000000e+03 6.243666648864746094e+00 -3.895047605037689209e-01 -6.803686171770095825e-02 -5.810083239339292049e-04 -2.058536000549793243e-02 -8.088338188827037811e-03
6.260000000000000000e+03 1.246432065963745117e+00 -1.129546880722045898e+00 -3.471531206741929054e-03 -2.888644812628626823e-03 -1.908052829094231129e-03 -2.177714603021740913e-03
6.261000000000000000e+03 1.112103080749511719e+01 -4.428110718727111816e-01 -1.287155002355575562e-01 1.025586156174540520e-03 -3.830697387456893921e-02 7.120463065803050995e-03
6.262000000000000000e+03 1.187371921539306641e+01 -4.752737879753112793e-01 -1.214935854077339172e-01 2.018927596509456635e-03 -3.584239631891250610e-02 1.080441474914550781e-02
6.263000000000000000e+03 1.111492252349853516e+01 -1.183259963989257812e+00 -1.284399330615997314e-01 9.447774849832057953e-03 -3.569764643907546997e-02 8.078362792730331421e-03
6.264000000000000000e+03 1.262644767761230469e+01 -5.069373250007629395e-01 -1.048653647303581238e-01 1.376261236146092415e-03 -3.104673139750957489e-02 1.552006602287292480e-02
6.265000000000000000e+03 1.035515594482421875e+01 -1.148333072662353516e+00 -1.273946166038513184e-01 7.642169483006000519e-03 -3.592573478817939758e-02 -6.668507121503353119e-04
6.266000000000000000e+03 1.036805534362792969e+01 -4.081833958625793457e-01 -1.275241076946258545e-01 2.809070749208331108e-03 -3.741450980305671692e-02 2.715300768613815308e-03
6.267000000000000000e+03 1.263392257690429688e+01 -1.248021602630615234e+00 -1.176175847649574280e-01 1.008888520300388336e-02 -3.225860744714736938e-02 3.108329884707927704e-02
6.268000000000000000e+03 1.187440204620361328e+01 -1.216021895408630371e+00 -1.255253702402114868e-01 8.113056421279907227e-03 -3.522369638085365295e-02 1.999050378799438477e-02
6.269000000000000000e+03 3.690422439575195312e+01 1.020223522186279297e+01 2.909002639353275299e-02 -4.467563237994909286e-03 7.386738900095224380e-03 1.060112658888101578e-02
6.270000000000000000e+03 3.796553421020507812e+01 1.098825454711914062e+01 1.894900761544704437e-02 -3.860766533762216568e-03 4.526472650468349457e-03 -1.065116375684738159e-03
6.271000000000000000e+03 3.791804885864257812e+01 1.050252246856689453e+01 2.680869214236736298e-02 -8.377595804631710052e-03 5.529328715056180954e-03 -1.727265422232449055e-03
6.272000000000000000e+03 3.733737182617187500e+01 1.076026248931884766e+01 1.792624033987522125e-02 -2.541515976190567017e-03 4.615417215973138809e-03 4.621868953108787537e-03
6.273000000000000000e+03 3.674065399169921875e+01 1.102671718597412109e+01 9.605074301362037659e-03 2.443575998768210411e-03 3.614594927057623863e-03 4.217546898871660233e-03
6.274000000000000000e+03 3.630093765258789062e+01 1.034548854827880859e+01 1.517511438578367233e-02 1.825172826647758484e-02 1.002805307507514954e-02 2.314796671271324158e-02
6.275000000000000000e+03 3.774382019042968750e+01 1.002957153320312500e+01 1.469131372869014740e-02 -1.584832742810249329e-02 -3.471039235591888428e-04 1.668613404035568237e-04
6.276000000000000000e+03 1.532617664337158203e+01 -1.230204224586486816e+00 -1.998087158426642418e-03 -4.440549761056900024e-02 -1.392107550054788589e-02 3.189335390925407410e-02
6.277000000000000000e+03 1.546412372589111328e+01 -1.145073413848876953e+00 7.939130999147891998e-03 -4.958534147590398788e-03 8.941790438257157803e-04 -1.683471258729696274e-03
6.278000000000000000e+03 1.425182247161865234e+01 -3.902684152126312256e-01 -3.178563341498374939e-02 -3.668258665129542351e-03 -1.063616760075092316e-02 1.256869733333587646e-02
6.279000000000000000e+03 1.512440299987792969e+01 -8.298792243003845215e-01 -1.553252805024385452e-02 -9.052930399775505066e-03 -7.375637535005807877e-03 1.207108609378337860e-02
6.280000000000000000e+03 1.499323558807373047e+01 -3.236857652664184570e-01 -3.270511049777269363e-03 -1.885245437733829021e-03 -1.546726911328732967e-03 2.452392596751451492e-03
6.281000000000000000e+03 1.343327617645263672e+01 -4.957430660724639893e-01 -7.065760344266891479e-02 6.262774113565683365e-04 -2.100939676165580750e-02 1.666291803121566772e-02
6.282000000000000000e+03 1.345798492431640625e+01 -1.237600922584533691e+00 -1.007214114069938660e-01 4.270967096090316772e-03 -2.893513441085815430e-02 4.293541610240936279e-02
6.283000000000000000e+03 1.458326053619384766e+01 -9.111518859863281250e-01 -4.009602591395378113e-02 -9.774371050298213959e-03 -1.496111880987882614e-02 2.894972078502178192e-02
6.284000000000000000e+03 1.425705051422119141e+01 -1.277629494667053223e+00 -8.001627027988433838e-02 -4.840080160647630692e-03 -2.545690350234508514e-02 5.127555876970291138e-02
6.285000000000000000e+03 1.492532062530517578e+01 -1.292750954627990723e+00 -4.615190997719764709e-02 -2.897117286920547485e-02 -2.253692410886287689e-02 5.225218832492828369e-02
