# el_label, x, y, sXX, sYY, sZZ, sXY
1.000000000000000000e+00 6.593791198730468750e+01 1.065830230712890625e+01 -1.112233549356460571e-01 -1.618623435497283936e-01 -8.192570507526397705e-02 2.127267718315124512e-01
2.000000000000000000e+00 6.681741333007812500e+01 1.055913448333740234e+01 -8.424417972564697266e-01 -1.185145676136016846e-01 -2.882869243621826172e-01 4.832762479782104492e-01
3.000000000000000000e+00 6.688762664794921875e+01 1.129618263244628906e+01 -1.461317896842956543e+00 -2.355333715677261353e-01 -5.090553760528564453e-01 1.130668997764587402e+00
4.000000000000000000e+00 6.545581054687500000e+01 1.128507900238037109e+01 -1.563581675291061401e-01 -6.848244667053222656e-01 -2.523548007011413574e-01 2.488702088594436646e-01
5.000000000000000000e+00 6.600998687744140625e+01 1.139511203765869141e+01 -9.480884671211242676e-01 -6.754670739173889160e-01 -4.870666563510894775e-01 9.157967567443847656e-01
6.000000000000000000e+00 7.729758453369140625e+01 8.481274604797363281e+00 -2.085667991638183594e+01 -2.097983121871948242e+00 -6.886399269104003906e+00 -2.770931720733642578e-01
7.000000000000000000e+00 7.709951019287109375e+01 8.500836372375488281e+00 -1.161275291442871094e+01 7.043166756629943848e-01 -3.272530794143676758e+00 2.429009914398193359e+00
8.000000000000000000e+00 7.690143585205078125e+01 8.520398139953613281e+00 -1.124529266357421875e+01 -9.361758828163146973e-01 -3.654440641403198242e+00 1.488201022148132324e+00
9.000000000000000000e+00 7.670336151123046875e+01 8.539958953857421875e+00 -1.030692386627197266e+01 1.723566353321075439e-01 -3.040369987487792969e+00 1.779338717460632324e+00
1.000000000000000000e+01 7.729756927490234375e+01 8.422796249389648438e+00 -3.624072551727294922e+00 -2.327574968338012695e+00 -1.785494208335876465e+00 -3.043358623981475830e-01
1.100000000000000000e+01 7.709947967529296875e+01 8.403371810913085938e+00 -7.522840023040771484e+00 -6.024596095085144043e-01 -2.437589883804321289e+00 8.733499050140380859e-01
1.200000000000000000e+01 7.690139007568359375e+01 8.383948326110839844e+00 -5.689035892486572266e+00 2.249459177255630493e-01 -1.639227032661437988e+00 1.790372967720031738e+00
1.300000000000000000e+01 7.670330047607421875e+01 8.364523887634277344e+00 -5.990616321563720703e+00 -6.030387878417968750e-01 -1.978096604347229004e+00 1.189272403717041016e+00
1.400000000000000000e+01 7.730894470214843750e+01 8.365435600280761719e+00 4.882523536682128906e+00 -7.754840254783630371e-01 1.232111930847167969e+00 4.846534252166748047e+00
1.500000000000000000e+01 7.711844635009765625e+01 8.307770729064941406e+00 1.146251037716865540e-01 -4.048936665058135986e-01 -8.708056807518005371e-02 2.849235296249389648e+00
1.600000000000000000e+01 7.692794036865234375e+01 8.250106811523437500e+00 -1.863082885742187500e+00 1.534154713153839111e-01 -5.129002332687377930e-01 2.361210346221923828e+00
1.700000000000000000e+01 7.673743438720703125e+01 8.192441940307617188e+00 -1.654521107673645020e+00 2.978371381759643555e-01 -4.070051908493041992e-01 2.466893196105957031e+00
1.800000000000000000e+01 7.733129119873046875e+01 8.311393737792968750e+00 9.785558700561523438e+00 3.621363162994384766e+00 4.022076606750488281e+00 1.017891311645507812e+01
1.900000000000000000e+01 7.715567779541015625e+01 8.217700958251953125e+00 3.955189228057861328e+00 1.673361063003540039e+00 1.688565015792846680e+00 6.481247901916503906e+00
2.000000000000000000e+01 7.698007202148437500e+01 8.124008178710937500e+00 2.120365619659423828e+00 1.785843014717102051e+00 1.171862602233886719e+00 4.923235893249511719e+00
2.100000000000000000e+01 7.680446624755859375e+01 8.030315399169921875e+00 1.074080228805541992e+00 1.263107895851135254e+00 7.011564373970031738e-01 3.827558040618896484e+00
2.200000000000000000e+01 7.736373138427734375e+01 8.262742996215820312e+00 1.065187263488769531e+01 9.658286094665527344e+00 6.093047618865966797e+00 1.496628284454345703e+01
2.300000000000000000e+01 7.720975494384765625e+01 8.136616706848144531e+00 5.754872322082519531e+00 6.262606620788574219e+00 3.605243682861328125e+00 1.007519531250000000e+01
2.400000000000000000e+01 7.705578613281250000e+01 8.010490417480468750e+00 3.686467409133911133e+00 4.573879241943359375e+00 2.478103876113891602e+00 7.589426994323730469e+00
2.500000000000000000e+01 7.690180969238281250e+01 7.884363651275634766e+00 2.568157434463500977e+00 4.274861335754394531e+00 2.052905797958374023e+00 6.255908012390136719e+00
2.600000000000000000e+01 7.740504455566406250e+01 8.221350669860839844e+00 9.180554389953613281e+00 1.791547966003417969e+01 8.128809928894042969e+00 1.790814781188964844e+01
2.700000000000000000e+01 7.727860260009765625e+01 8.067629814147949219e+00 5.309680461883544922e+00 1.159598350524902344e+01 5.071699142456054688e+00 1.263275814056396484e+01
2.800000000000000000e+01 7.715216827392578125e+01 7.913908481597900391e+00 3.542624473571777344e+00 9.507508277893066406e+00 3.915039777755737305e+00 9.835259437561035156e+00
2.900000000000000000e+01 7.702573394775390625e+01 7.760187149047851562e+00 2.814279556274414062e+00 7.674077987670898438e+00 3.146507263183593750e+00 8.066532135009765625e+00
3.000000000000000000e+01 7.745362854003906250e+01 8.188804626464843750e+00 6.112978935241699219e+00 2.609268760681152344e+01 9.661700248718261719e+00 1.867717170715332031e+01
3.100000000000000000e+01 7.735958099365234375e+01 8.013385772705078125e+00 3.730628013610839844e+00 1.831780242919921875e+01 6.614529132843017578e+00 1.341906929016113281e+01
3.200000000000000000e+01 7.726553344726562500e+01 7.837967872619628906e+00 2.248407840728759766e+00 1.438142490386962891e+01 4.988949775695800781e+00 1.107792091369628906e+01
3.300000000000000000e+01 7.717148590087890625e+01 7.662549495697021484e+00 1.461677074432373047e+00 1.285033416748046875e+01 4.293603420257568359e+00 8.783476829528808594e+00
3.400000000000000000e+01 7.750762939453125000e+01 8.166354179382324219e+00 3.280187368392944336e+00 3.427987670898437500e+01 1.126801872253417969e+01 1.660864830017089844e+01
3.500000000000000000e+01 7.744957733154296875e+01 7.975967884063720703e+00 1.445471167564392090e+00 2.432954597473144531e+01 7.732504844665527344e+00 1.289374160766601562e+01
3.600000000000000000e+01 7.739153289794921875e+01 7.785582065582275391e+00 6.198117733001708984e-01 1.996652030944824219e+01 6.175899505615234375e+00 1.033667182922363281e+01
3.700000000000000000e+01 7.733348083496093750e+01 7.595196247100830078e+00 -4.230412840843200684e-01 1.722553253173828125e+01 5.040747165679931641e+00 9.017049789428710938e+00
3.800000000000000000e+01 7.756496429443359375e+01 8.154859542846679688e+00 1.002038598060607910e+00 4.044542694091796875e+01 1.243423938751220703e+01 1.282151889801025391e+01
3.900000000000000000e+01 7.754514312744140625e+01 7.956809997558593750e+00 1.447132788598537445e-03 2.975556564331054688e+01 8.927103996276855469e+00 1.046058368682861328e+01
4.000000000000000000e+01 7.752532196044921875e+01 7.758760929107666016e+00 -1.334723472595214844e+00 2.473607254028320312e+01 7.020404815673828125e+00 8.782788276672363281e+00
4.100000000000000000e+01 7.750549316406250000e+01 7.560712337493896484e+00 -1.632722854614257812e+00 2.138974761962890625e+01 5.927107334136962891e+00 7.171445369720458984e+00
4.200000000000000000e+01 7.762344360351562500e+01 8.154761314392089844e+00 1.076230764389038086e+00 4.462008666992187500e+01 1.370889568328857422e+01 7.657717227935791016e+00
4.300000000000000000e+01 7.764260101318359375e+01 7.956647872924804688e+00 -1.050127148628234863e+00 3.352038192749023438e+01 9.741076469421386719e+00 7.156138420104980469e+00
4.400000000000000000e+01 7.766176605224609375e+01 7.758533477783203125e+00 -1.886278867721557617e+00 2.810696220397949219e+01 7.866205215454101562e+00 6.014926433563232422e+00
4.500000000000000000e+01 7.768093109130859375e+01 7.560419559478759766e+00 -2.916830539703369141e+00 2.530144691467285156e+01 6.715384960174560547e+00 5.128145694732666016e+00
4.600000000000000000e+01 7.768081665039062500e+01 8.166065216064453125e+00 2.026092052459716797e+00 4.596385955810546875e+01 1.439698600769042969e+01 2.483171224594116211e+00
4.700000000000000000e+01 7.773822784423828125e+01 7.975486755371093750e+00 2.637701034545898438e-01 3.569483566284179688e+01 1.078758144378662109e+01 3.334268569946289062e+00
4.800000000000000000e+01 7.779564666748046875e+01 7.784908294677734375e+00 -2.244008302688598633e+00 3.009834289550781250e+01 8.356300354003906250e+00 2.811579704284667969e+00
4.900000000000000000e+01 7.785305786132812500e+01 7.594329833984375000e+00 -2.141791343688964844e+00 2.615726661682128906e+01 7.204642772674560547e+00 2.687533855438232422e+00
5.000000000000000000e+01 7.773489379882812500e+01 8.188335418701171875e+00 6.010467529296875000e+00 4.575599670410156250e+01 1.552993869781494141e+01 -1.489016056060791016e+00
5.100000000000000000e+01 7.782835388183593750e+01 8.012604713439941406e+00 1.400959968566894531e+00 3.584145736694335938e+01 1.117272472381591797e+01 -6.875592470169067383e-01
5.200000000000000000e+01 7.792181396484375000e+01 7.836873531341552734e+00 3.456362783908843994e-01 3.054400634765625000e+01 9.266892433166503906e+00 1.471838206052780151e-01
5.300000000000000000e+01 7.801526641845703125e+01 7.661142349243164062e+00 -2.068598270416259766e+00 2.572522163391113281e+01 7.096986770629882812e+00 -9.168080687522888184e-01
5.400000000000000000e+01 7.778358459472656250e+01 8.220719337463378906e+00 1.042385482788085938e+01 4.321300125122070312e+01 1.609105682373046875e+01 -4.668245315551757812e+00
5.500000000000000000e+01 7.790950775146484375e+01 8.066577911376953125e+00 4.418182849884033203e+00 3.509076309204101562e+01 1.185268402099609375e+01 -2.962016820907592773e+00
5.600000000000000000e+01 7.803543090820312500e+01 7.912435531616210938e+00 2.600778102874755859e+00 2.906514358520507812e+01 9.499775886535644531e+00 -2.902365922927856445e+00
5.700000000000000000e+01 7.816134643554687500e+01 7.758293151855468750e+00 5.109388232231140137e-01 2.690146827697753906e+01 8.223722457885742188e+00 -2.770957231521606445e+00
5.800000000000000000e+01 7.782503509521484375e+01 8.261973381042480469e+00 1.380073165893554688e+01 4.034682464599609375e+01 1.624426651000976562e+01 -6.129343986511230469e+00
5.900000000000000000e+01 7.797858428955078125e+01 8.135334968566894531e+00 9.148330688476562500e+00 3.304817199707031250e+01 1.265895080566406250e+01 -4.049375057220458984e+00
6.000000000000000000e+01 7.813214111328125000e+01 8.008694648742675781e+00 4.409361362457275391e+00 2.752317619323730469e+01 9.579761505126953125e+00 -4.606930255889892578e+00
6.100000000000000000e+01 7.828569030761718750e+01 7.882055759429931641e+00 3.803142547607421875e+00 2.509644317626953125e+01 8.669875144958496094e+00 -2.842588901519775391e+00
6.200000000000000000e+01 7.785764312744140625e+01 8.310515403747558594e+00 1.927787780761718750e+01 3.908264160156250000e+01 1.750815582275390625e+01 -4.905752658843994141e+00
6.300000000000000000e+01 7.803293609619140625e+01 8.216238021850585938e+00 1.158412742614746094e+01 2.917340660095214844e+01 1.222726058959960938e+01 -5.099987506866455078e+00
6.400000000000000000e+01 7.820822906494140625e+01 8.121959686279296875e+00 8.613940238952636719e+00 2.706513404846191406e+01 1.070372200012207031e+01 -3.149779319763183594e+00
6.500000000000000000e+01 7.838352203369140625e+01 8.027681350708007812e+00 5.112166881561279297e+00 2.020572280883789062e+01 7.595366954803466797e+00 -3.949083805084228516e+00
6.600000000000000000e+01 7.788016510009765625e+01 8.364482879638671875e+00 2.125162506103515625e+01 3.463573837280273438e+01 1.676620864868164062e+01 -3.865275382995605469e+00
6.700000000000000000e+01 7.807047271728515625e+01 8.306183815002441406e+00 1.528376388549804688e+01 2.955785751342773438e+01 1.345248603820800781e+01 -3.129100799560546875e+00
6.800000000000000000e+01 7.826078033447265625e+01 8.247883796691894531e+00 1.096622371673583984e+01 2.230313110351562500e+01 9.980806350708007812e+00 -2.671128749847412109e+00
6.900000000000000000e+01 7.845108795166015625e+01 8.189583778381347656e+00 8.453055381774902344e+00 2.155587959289550781e+01 9.002680778503417969e+00 -2.361411094665527344e+00
7.000000000000000000e+01 7.789173126220703125e+01 8.421805381774902344e+00 2.389929962158203125e+01 3.576774215698242188e+01 1.790011215209960938e+01 -1.338109612464904785e+00
7.100000000000000000e+01 7.808975219726562500e+01 8.401721000671386719e+00 1.636803627014160156e+01 2.609957122802734375e+01 1.274028205871582031e+01 -1.012751102447509766e+00
7.200000000000000000e+01 7.828778076171875000e+01 8.381636619567871094e+00 1.311058235168457031e+01 2.323451995849609375e+01 1.090353107452392578e+01 -9.165825247764587402e-01
7.300000000000000000e+01 7.848580169677734375e+01 8.361551284790039062e+00 1.031209182739257812e+01 1.897079467773437500e+01 8.784866333007812500e+00 -6.724645495414733887e-01
7.400000000000000000e+01 7.789190673828125000e+01 8.480283737182617188e+00 2.346648788452148438e+01 3.386723327636718750e+01 1.720011520385742188e+01 1.541307091712951660e+00
7.500000000000000000e+01 7.809004211425781250e+01 8.499184608459472656e+00 1.735855865478515625e+01 2.774047851562500000e+01 1.352971172332763672e+01 1.461964964866638184e+00
7.600000000000000000e+01 7.828818511962890625e+01 8.518085479736328125e+00 1.272358131408691406e+01 2.179546165466308594e+01 1.035571289062500000e+01 1.259252429008483887e+00
7.700000000000000000e+01 7.848632812500000000e+01 8.536986351013183594e+00 1.059337902069091797e+01 2.016745567321777344e+01 9.228250503540039062e+00 1.044329285621643066e+00
7.800000000000000000e+01 7.788067626953125000e+01 8.537674903869628906e+00 2.304211044311523438e+01 3.638557434082031250e+01 1.782830619812011719e+01 3.829914331436157227e+00
7.900000000000000000e+01 7.807133483886718750e+01 8.594835281372070312e+00 1.555037975311279297e+01 2.737088775634765625e+01 1.287637996673583984e+01 4.031857967376708984e+00
8.000000000000000000e+01 7.826198577880859375e+01 8.651996612548828125e+00 1.186618328094482422e+01 2.447357177734375000e+01 1.090192604064941406e+01 3.212703943252563477e+00
8.100000000000000000e+01 7.845264434814453125e+01 8.709157943725585938e+00 8.493964195251464844e+00 1.981921195983886719e+01 8.493952751159667969e+00 2.891568660736083984e+00
8.200000000000000000e+01 7.785848236083984375e+01 8.591775894165039062e+00 1.987924194335937500e+01 3.731877136230468750e+01 1.715940475463867188e+01 6.059655666351318359e+00
8.300000000000000000e+01 7.803433990478515625e+01 8.685004234313964844e+00 1.360667991638183594e+01 3.049042892456054688e+01 1.322913265228271484e+01 5.247462272644042969e+00
8.400000000000000000e+01 7.821018981933593750e+01 8.778232574462890625e+00 9.059544563293457031e+00 2.526626014709472656e+01 1.029774093627929688e+01 5.063705921173095703e+00
8.500000000000000000e+01 7.838604736328125000e+01 8.871460914611816406e+00 6.524111747741699219e+00 2.318730163574218750e+01 8.913423538208007812e+00 4.162735939025878906e+00
8.600000000000000000e+01 7.782615661621093750e+01 8.640511512756347656e+00 1.690052413940429688e+01 4.072342300415039062e+01 1.728718376159667969e+01 6.547035694122314453e+00
8.700000000000000000e+01 7.798046875000000000e+01 8.766230583190917969e+00 9.702778816223144531e+00 3.232531356811523438e+01 1.260842800140380859e+01 5.837164402008056641e+00
8.800000000000000000e+01 7.813478088378906250e+01 8.891949653625488281e+00 6.603058338165283203e+00 2.798191261291503906e+01 1.037549114227294922e+01 5.160100460052490234e+00
8.900000000000000000e+01 7.828908538818359375e+01 9.017669677734375000e+00 4.006644725799560547e+00 2.474234390258789062e+01 8.624696731567382812e+00 5.170672893524169922e+00
9.000000000000000000e+01 7.778495788574218750e+01 8.682012557983398438e+00 1.225871181488037109e+01 4.336030960083007812e+01 1.668570709228515625e+01 5.936048030853271484e+00
9.100000000000000000e+01 7.791180419921875000e+01 8.835399627685546875e+00 6.439741611480712891e+00 3.499345016479492188e+01 1.242995834350585938e+01 4.583451271057128906e+00
9.200000000000000000e+01 7.803864288330078125e+01 8.988785743713378906e+00 3.347918510437011719e+00 2.946012687683105469e+01 9.842413902282714844e+00 4.191290855407714844e+00
9.300000000000000000e+01 7.816548919677734375e+01 9.142172813415527344e+00 1.978048920631408691e+00 2.623684692382812500e+01 8.464468955993652344e+00 4.138804435729980469e+00
9.400000000000000000e+01 7.773646545410156250e+01 8.714686393737792969e+00 8.186483383178710938e+00 4.594101333618164062e+01 1.623824882507324219e+01 3.445439100265502930e+00
9.500000000000000000e+01 7.783097076416015625e+01 8.889856338500976562e+00 3.148746728897094727e+00 3.631888961791992188e+01 1.184029102325439453e+01 2.067305088043212891e+00
9.600000000000000000e+01 7.792548370361328125e+01 9.065025329589843750e+00 7.420738935470581055e-01 3.075795936584472656e+01 9.450010299682617188e+00 1.825955867767333984e+00
9.700000000000000000e+01 7.801998901367187500e+01 9.240195274353027344e+00 -4.164113402366638184e-01 2.646176910400390625e+01 7.813607215881347656e+00 1.532279372215270996e+00
9.800000000000000000e+01 7.768252563476562500e+01 8.737279891967773438e+00 4.920106410980224609e+00 4.707032394409179688e+01 1.559712982177734375e+01 -5.935218334197998047e-01
9.900000000000000000e+01 7.774108123779296875e+01 8.927512168884277344e+00 7.227283120155334473e-01 3.647909545898437500e+01 1.116054725646972656e+01 -1.515116333961486816e+00
1.000000000000000000e+02 7.779962921142578125e+01 9.117743492126464844e+00 -8.073660731315612793e-01 3.045391464233398438e+01 8.893964767456054688e+00 -1.391275167465209961e+00
1.010000000000000000e+02 7.785817718505859375e+01 9.307975769042968750e+00 -2.906976938247680664e+00 2.675352096557617188e+01 7.153963088989257812e+00 -1.559681653976440430e+00
1.020000000000000000e+02 7.762522125244140625e+01 8.748926162719726562e+00 2.701951980590820312e+00 4.612569427490234375e+01 1.464829444885253906e+01 -5.794397354125976562e+00
1.030000000000000000e+02 7.764556121826171875e+01 8.946922302246093750e+00 1.776843219995498657e-01 3.468730163574218750e+01 1.045949554443359375e+01 -5.440562725067138672e+00
1.040000000000000000e+02 7.766590881347656250e+01 9.144918441772460938e+00 -1.916637301445007324e+00 2.883839225769042969e+01 8.076526641845703125e+00 -4.972925186157226562e+00
1.050000000000000000e+02 7.768625640869140625e+01 9.342914581298828125e+00 -2.952031850814819336e+00 2.550313949584960938e+01 6.765332221984863281e+00 -3.931338071823120117e+00
1.060000000000000000e+02 7.756674194335937500e+01 8.749177932739257812e+00 2.961232423782348633e+00 4.268345642089843750e+01 1.369340610504150391e+01 -1.091987991333007812e+01
1.070000000000000000e+02 7.754810333251953125e+01 8.947341918945312500e+00 4.843098223209381104e-01 3.093364334106445312e+01 9.425386428833007812e+00 -9.344671249389648438e+00
1.080000000000000000e+02 7.752945709228515625e+01 9.145505905151367188e+00 -1.128706812858581543e+00 2.560244560241699219e+01 7.342121601104736328e+00 -7.653461456298828125e+00
1.090000000000000000e+02 7.751082611083984375e+01 9.343669891357421875e+00 -2.181846380233764648e+00 2.212924575805664062e+01 5.984219551086425781e+00 -6.554009437561035156e+00
1.100000000000000000e+02 7.750933837890625000e+01 8.738026618957519531e+00 4.926981925964355469e+00 3.641468429565429688e+01 1.240249919891357422e+01 -1.549981212615966797e+01
1.110000000000000000e+02 7.745242309570312500e+01 8.928755760192871094e+00 2.169031381607055664e+00 2.560292625427246094e+01 8.331587791442871094e+00 -1.176949596405029297e+01
1.120000000000000000e+02 7.739551544189453125e+01 9.119484901428222656e+00 5.183066129684448242e-01 2.070716667175292969e+01 6.367641925811767578e+00 -9.682799339294433594e+00
1.130000000000000000e+02 7.733860778808593750e+01 9.310214042663574219e+00 -7.562053799629211426e-01 1.795847511291503906e+01 5.160681247711181641e+00 -8.078466415405273438e+00
1.140000000000000000e+02 7.745520019531250000e+01 8.715898513793945312e+00 8.067750930786132812e+00 2.814183235168457031e+01 1.086287498474121094e+01 -1.780722427368164062e+01
1.150000000000000000e+02 7.736220550537109375e+01 8.891876220703125000e+00 4.617219924926757812e+00 1.887141799926757812e+01 7.046591281890869141e+00 -1.270566177368164062e+01
1.160000000000000000e+02 7.726921081542968750e+01 9.067852973937988281e+00 2.261406421661376953e+00 1.520232486724853516e+01 5.239119529724121094e+00 -1.002237796783447266e+01
1.170000000000000000e+02 7.717621612548828125e+01 9.243830680847167969e+00 1.024366259574890137e+00 1.320393848419189453e+01 4.268491268157958984e+00 -8.369257926940917969e+00
1.180000000000000000e+02 7.740642547607421875e+01 8.683643341064453125e+00 1.190684413909912109e+01 1.842311668395996094e+01 9.098988533020019531e+00 -1.748466873168945312e+01
1.190000000000000000e+02 7.728090667724609375e+01 8.838117599487304688e+00 6.295436382293701172e+00 1.193194389343261719e+01 5.468214035034179688e+00 -1.135007190704345703e+01
1.200000000000000000e+02 7.715539550781250000e+01 8.992591857910156250e+00 3.782776832580566406e+00 9.788416862487792969e+00 4.071358203887939453e+00 -8.819041252136230469e+00
1.210000000000000000e+02 7.702987670898437500e+01 9.147066116333007812e+00 2.029415845870971680e+00 8.479587554931640625e+00 3.152700901031494141e+00 -7.247095584869384766e+00
1.220000000000000000e+02 7.736486816406250000e+01 8.642498970031738281e+00 1.358754444122314453e+01 8.875085830688476562e+00 6.738789081573486328e+00 -1.394830226898193359e+01
1.230000000000000000e+02 7.721165466308593750e+01 8.769543647766113281e+00 7.225481986999511719e+00 5.751156806945800781e+00 3.892991542816162109e+00 -8.128204345703125000e+00
1.240000000000000000e+02 7.705843353271484375e+01 8.896587371826171875e+00 3.390534639358520508e+00 5.305702209472656250e+00 2.608870983123779297e+00 -5.992858886718750000e+00
1.250000000000000000e+02 7.690521240234375000e+01 9.023632049560546875e+00 1.987369537353515625e+00 4.901915073394775391e+00 2.066785335540771484e+00 -5.322898387908935547e+00
1.260000000000000000e+02 7.733213043212890625e+01 8.594043731689453125e+00 1.308031749725341797e+01 3.355275988578796387e-01 4.024753570556640625e+00 -7.224477291107177734e+00
1.270000000000000000e+02 7.715708923339843750e+01 8.688783645629882812e+00 4.074895381927490234e+00 2.190885066986083984e+00 1.879734158515930176e+00 -3.593355655670166016e+00
1.280000000000000000e+02 7.698204803466796875e+01 8.783524513244628906e+00 2.430049419403076172e+00 2.697685718536376953e+00 1.538320541381835938e+00 -3.509338140487670898e+00
1.290000000000000000e+02 7.680699920654296875e+01 8.878264427185058594e+00 3.787585794925689697e-01 1.362282156944274902e+00 5.223122239112854004e-01 -2.334793567657470703e+00
1.300000000000000000e+02 7.730946350097656250e+01 8.540135383605957031e+00 2.217195510864257812e+00 -3.149895429611206055e+00 -2.798099815845489502e-01 7.406864166259765625e-01
1.310000000000000000e+02 7.711931610107421875e+01 8.598937034606933594e+00 1.630732417106628418e+00 1.813297271728515625e+00 1.033208847045898438e+00 -1.538396477699279785e+00
1.320000000000000000e+02 7.692916107177734375e+01 8.657739639282226562e+00 -8.844680786132812500e-01 -2.939646840095520020e-01 -3.535298109054565430e-01 -3.066551983356475830e-01
1.330000000000000000e+02 7.673900604248046875e+01 8.716541290283203125e+00 -2.021142244338989258e+00 4.171532690525054932e-01 -4.811967313289642334e-01 3.117524087429046631e-03
1.340000000000000000e+02 6.760595703125000000e+01 1.049300670623779297e+01 -1.695213317871093750e+00 -3.631842136383056641e-02 -5.194594860076904297e-01 5.628762245178222656e-01
1.350000000000000000e+02 6.824337768554687500e+01 1.046039772033691406e+01 -2.396633863449096680e+00 -9.261039644479751587e-02 -7.467732429504394531e-01 5.964962244033813477e-01
1.360000000000000000e+02 6.985227203369140625e+01 1.026789855957031250e+01 -4.434936046600341797e+00 -2.655166573822498322e-02 -1.338446259498596191e+00 7.305285334587097168e-01
1.370000000000000000e+02 6.885778045654296875e+01 1.040472316741943359e+01 -3.084934949874877930e+00 2.398498542606830597e-02 -9.182849526405334473e-01 6.234053969383239746e-01
1.380000000000000000e+02 7.010598754882812500e+01 1.046447849273681641e+01 -4.013655185699462891e+00 -3.004807233810424805e-01 -1.294240713119506836e+00 8.331988453865051270e-01
1.390000000000000000e+02 7.015493011474609375e+01 1.134038257598876953e+01 -2.735451936721801758e+00 -2.631162703037261963e-01 -8.995704650878906250e-01 1.109002113342285156e+00
1.400000000000000000e+02 6.996836090087890625e+01 1.118276023864746094e+01 -2.826027870178222656e+00 -2.013754248619079590e-01 -9.082209467887878418e-01 1.108169198036193848e+00
1.410000000000000000e+02 6.771601104736328125e+01 1.122771358489990234e+01 -1.917997241020202637e+00 -1.604201793670654297e-01 -6.235252022743225098e-01 1.231604099273681641e+00
1.420000000000000000e+02 6.913092803955078125e+01 1.112959575653076172e+01 -2.720471858978271484e+00 -1.769207268953323364e-01 -8.692177534103393555e-01 1.134975314140319824e+00
1.430000000000000000e+02 6.968095397949218750e+01 1.091566848754882812e+01 -3.100446462631225586e+00 -2.049696743488311768e-01 -9.916248321533203125e-01 1.128251910209655762e+00
1.440000000000000000e+02 7.011683654785156250e+01 1.071521568298339844e+01 -3.621675968170166016e+00 -3.862414956092834473e-01 -1.202375292778015137e+00 9.991300106048583984e-01
1.450000000000000000e+02 7.020975494384765625e+01 1.095396709442138672e+01 -3.128522157669067383e+00 -3.126109838485717773e-01 -1.032339930534362793e+00 9.984204173088073730e-01
1.460000000000000000e+02 7.025361633300781250e+01 1.113427448272705078e+01 -2.955480813980102539e+00 -3.471231162548065186e-01 -9.907811880111694336e-01 1.125039696693420410e+00
1.470000000000000000e+02 7.003294372558593750e+01 1.007425975799560547e+01 -4.805692195892333984e+00 -6.915850937366485596e-02 -1.462455153465270996e+00 6.701666116714477539e-01
1.480000000000000000e+02 6.944153594970703125e+01 1.031635856628417969e+01 -3.779602766036987305e+00 -1.161153241991996765e-01 -1.168715357780456543e+00 5.928529500961303711e-01
1.490000000000000000e+02 6.843497467041015625e+01 1.119018745422363281e+01 -2.379748344421386719e+00 -1.495640166103839874e-02 -7.184114456176757812e-01 1.203185439109802246e+00
1.500000000000000000e+02 7.013196563720703125e+01 1.027181243896484375e+01 -4.640547275543212891e+00 -2.432543486356735229e-01 -1.465140461921691895e+00 9.651758670806884766e-01
2.670000000000000000e+02 2.934214782714843750e+01 3.737624168395996094e+00 7.811642885208129883e-01 2.551045715808868408e-01 3.108806610107421875e-01 4.935453534126281738e-01
2.680000000000000000e+02 2.733142280578613281e+01 2.070922374725341797e+00 4.190075695514678955e-01 3.480471968650817871e-01 2.301164269447326660e-01 4.366765320301055908e-01
2.690000000000000000e+02 2.823957443237304688e+01 2.919417619705200195e+00 8.309286832809448242e-01 3.200390338897705078e-01 3.452903032302856445e-01 5.008256435394287109e-01
2.700000000000000000e+02 2.538853836059570312e+01 1.777582764625549316e+00 2.781678736209869385e-01 1.457531303167343140e-01 1.271762996912002563e-01 2.919984757900238037e-01
2.710000000000000000e+02 2.415411567687988281e+01 1.862975358963012695e+00 2.067314237356185913e-01 1.120364665985107422e-01 9.563037008047103882e-02 1.199927702546119690e-01
2.720000000000000000e+02 2.351937866210937500e+01 1.900090575218200684e+00 8.997153490781784058e-02 6.703733000904321671e-03 2.900257892906665802e-02 3.222271800041198730e-02
2.730000000000000000e+02 2.258390045166015625e+01 2.000370740890502930e+00 2.929620072245597839e-02 1.254529040306806564e-02 1.255244761705398560e-02 2.172015979886054993e-02
2.740000000000000000e+02 2.050221252441406250e+01 1.931074500083923340e+00 7.052316330373287201e-03 6.695352029055356979e-03 4.124300554394721985e-03 2.142077777534723282e-03
2.750000000000000000e+02 1.811579132080078125e+01 2.536797523498535156e+00 1.064089499413967133e-02 8.618898689746856689e-03 5.777938291430473328e-03 3.589720465242862701e-03
2.760000000000000000e+02 1.953331375122070312e+01 2.432148694992065430e+00 4.927922505885362625e-03 -6.865886040031909943e-03 -5.813890020363032818e-04 -4.945358727127313614e-03
2.770000000000000000e+02 2.041327667236328125e+01 7.686954736709594727e-01 1.117477659136056900e-02 6.590855307877063751e-03 5.329689476639032364e-03 1.145931985229253769e-02
2.780000000000000000e+02 2.243378829956054688e+01 2.543262904509902000e-03 -2.105487324297428131e-02 1.127975210547447205e-01 2.752279490232467651e-02 3.977765515446662903e-02
2.790000000000000000e+02 2.233262825012207031e+01 1.032032370567321777e+00 3.619483439251780510e-03 3.371893987059593201e-02 1.120152603834867477e-02 2.069669216871261597e-02
2.800000000000000000e+02 2.553214836120605469e+01 -2.051707029342651367e+00 -1.082382798194885254e-01 3.691837191581726074e-02 -2.139597199857234955e-02 -2.554960250854492188e-01
2.810000000000000000e+02 3.066477775573730469e+01 -5.648193836212158203e+00 2.515779137611389160e-01 7.405853271484375000e-01 2.976489663124084473e-01 -4.505381584167480469e-01
2.820000000000000000e+02 2.992237472534179688e+01 -2.931068897247314453e+00 -8.203786797821521759e-03 -8.050973415374755859e-01 -2.439903467893600464e-01 -4.202564060688018799e-01
2.830000000000000000e+02 2.935366249084472656e+01 -1.718063473701477051e+00 -6.365074515342712402e-01 -9.210374355316162109e-01 -4.672634601593017578e-01 -9.409657120704650879e-01
2.840000000000000000e+02 3.025317192077636719e+01 -8.338723778724670410e-01 -2.036192655563354492e+00 -1.956747412681579590e+00 -1.197882056236267090e+00 -1.133116722106933594e+00
2.850000000000000000e+02 2.934453010559082031e+01 1.095671355724334717e-01 -1.177890658378601074e+00 -9.015185385942459106e-02 -3.804127573966979980e-01 -2.155556529760360718e-02
2.860000000000000000e+02 3.192984962463378906e+01 -4.456497430801391602e-01 -2.591148376464843750e+00 -3.471774756908416748e-01 -8.814978003501892090e-01 -2.267404347658157349e-01
2.870000000000000000e+02 3.087871170043945312e+01 9.422434866428375244e-02 -2.390519857406616211e+00 -1.762737274169921875e+00 -1.245977163314819336e+00 -7.849361896514892578e-01
2.880000000000000000e+02 3.616148757934570312e+01 4.639843463897705078e+00 3.506564768031239510e-03 -2.080959267914295197e-02 -5.190908443182706833e-03 -9.020051360130310059e-02
2.890000000000000000e+02 3.812731933593750000e+01 4.166009426116943359e+00 -1.846689847297966480e-03 1.356732547283172607e-01 4.014796763658523560e-02 3.194557735696434975e-03
2.900000000000000000e+02 3.886902236938476562e+01 5.213135242462158203e+00 3.156339749693870544e-03 3.384988009929656982e-02 1.110186614096164703e-02 -1.466348418034613132e-03
2.910000000000000000e+02 3.962387466430664062e+01 6.287947654724121094e+00 -3.073498606681823730e-03 4.012116405647248030e-04 -8.016860811039805412e-04 3.337115282192826271e-03
2.920000000000000000e+02 3.720105361938476562e+01 5.399729728698730469e+00 -2.216665260493755341e-02 2.158397994935512543e-02 -1.748014765325933695e-04 -8.798646181821823120e-02
2.930000000000000000e+02 3.575901794433593750e+01 9.564826965332031250e+00 6.466045510023832321e-03 8.416135096922516823e-04 2.192297717556357384e-03 -4.200553812552243471e-04
2.940000000000000000e+02 3.362364578247070312e+01 7.280043601989746094e+00 1.140116900205612183e-01 2.094088122248649597e-02 4.048576951026916504e-02 3.104261681437492371e-02
2.950000000000000000e+02 3.793286895751953125e+01 7.880538940429687500e+00 9.297258220613002777e-03 8.587338030338287354e-03 5.365378689020872116e-03 -1.061892136931419373e-02
2.960000000000000000e+02 3.651523590087890625e+01 9.397785186767578125e+00 8.744564838707447052e-03 -2.354986034333705902e-03 1.916873734444379807e-03 8.420272497460246086e-04
2.970000000000000000e+02 3.442621231079101562e+01 -1.858400940895080566e+00 -1.469819992780685425e-01 7.938036918640136719e-01 1.940465122461318970e-01 -4.397712945938110352e-01
2.980000000000000000e+02 3.367449951171875000e+01 -6.891415268182754517e-02 -1.435886859893798828e+00 6.917957067489624023e-01 -2.232273370027542114e-01 -3.858813047409057617e-01
2.990000000000000000e+02 3.649734115600585938e+01 -6.788000464439392090e-01 -1.118548512458801270e+00 7.574946284294128418e-01 -1.083161756396293640e-01 -8.119420707225799561e-02
3.000000000000000000e+02 3.795812606811523438e+01 -3.503973782062530518e-01 -2.071929454803466797e+00 -1.639170944690704346e-02 -6.264963150024414062e-01 5.233203768730163574e-01
3.010000000000000000e+02 3.709964370727539062e+01 3.381958246231079102e+00 -8.006618171930313110e-02 1.186573132872581482e-01 1.157733798027038574e-02 -5.680391564965248108e-02
3.020000000000000000e+02 3.552891540527343750e+01 -2.908429622650146484e+00 3.215141892433166504e-01 1.116827011108398438e+00 4.315023720264434814e-01 -6.802230477333068848e-01
3.030000000000000000e+02 3.779877471923828125e+01 8.409655094146728516e-01 -9.756520986557006836e-01 -3.435544073581695557e-01 -3.957619369029998779e-01 6.776281595230102539e-01
3.040000000000000000e+02 3.640962219238281250e+01 -4.117672443389892578e+00 5.468716621398925781e-01 1.272118449211120605e+00 5.456970334053039551e-01 -9.227476119995117188e-01
3.050000000000000000e+02 3.952220535278320312e+01 -6.822711944580078125e+00 4.434946179389953613e-01 2.449184656143188477e-01 2.065239250659942627e-01 -5.721607804298400879e-01
3.060000000000000000e+02 3.940068435668945312e+01 -8.714921951293945312e+00 4.103388786315917969e-01 4.500080049037933350e-01 2.581040561199188232e-01 -5.822774171829223633e-01
3.070000000000000000e+02 4.075726699829101562e+01 -1.195369720458984375e+01 -1.720055704936385155e-03 -8.581924438476562500e-01 -2.579737305641174316e-01 -1.167250350117683411e-01
3.080000000000000000e+02 4.107005310058593750e+01 -1.472942829132080078e+01 -5.065563321113586426e-01 -2.141126155853271484e+00 -7.943047285079956055e-01 -4.498856663703918457e-01
3.090000000000000000e+02 4.131807327270507812e+01 -1.614837265014648438e+01 -1.041422843933105469e+00 -1.596748232841491699e+00 -7.914513349533081055e-01 -3.983297049999237061e-01
3.100000000000000000e+02 4.019719696044921875e+01 -1.651941490173339844e+01 -1.227154850959777832e+00 -1.305813789367675781e+00 -7.598905563354492188e-01 -8.305890560150146484e-01
3.110000000000000000e+02 4.377407836914062500e+01 -1.615891838073730469e+01 -4.580051600933074951e-01 -1.910070180892944336e-01 -1.947036534547805786e-01 -1.634755581617355347e-01
3.120000000000000000e+02 4.815604782104492188e+01 -1.631106948852539062e+01 -2.685539796948432922e-02 6.001967787742614746e-01 1.720024198293685913e-01 -2.672376930713653564e-01
3.130000000000000000e+02 5.021038436889648438e+01 -1.759029769897460938e+01 8.990090340375900269e-03 5.108616948127746582e-01 1.559555232524871826e-01 -2.963490188121795654e-01
3.140000000000000000e+02 5.299227523803710938e+01 -1.858590698242187500e+01 -3.035458624362945557e-01 2.622214257717132568e-01 -1.239733118563890457e-02 -1.891906112432479858e-01
3.150000000000000000e+02 4.082240295410156250e+01 -1.805746269226074219e+01 -2.887460589408874512e-02 -8.515687584877014160e-01 -2.641330063343048096e-01 -2.114439159631729126e-01
3.160000000000000000e+02 3.800768661499023438e+01 -1.609492874145507812e+01 -3.662609159946441650e-01 1.842464953660964966e-01 -5.460432916879653931e-02 -1.826803237199783325e-01
3.170000000000000000e+02 3.882592391967773438e+01 -1.738766670227050781e+01 -6.920042634010314941e-01 -1.607491821050643921e-01 -2.558260262012481689e-01 -5.567912459373474121e-01
3.180000000000000000e+02 3.428663635253906250e+01 -1.180593490600585938e+01 2.720435559749603271e-01 5.008670687675476074e-01 2.318731844425201416e-01 -3.931764662265777588e-01
3.190000000000000000e+02 3.335668182373046875e+01 -1.072215366363525391e+01 3.590418994426727295e-01 7.706408500671386719e-01 3.389048278331756592e-01 -4.281075596809387207e-01
3.200000000000000000e+02 2.864119148254394531e+01 -8.434093475341796875e+00 -2.957139909267425537e-01 -2.099516689777374268e-01 -1.516996920108795166e-01 -3.539715111255645752e-01
3.210000000000000000e+02 2.423311614990234375e+01 -1.000005245208740234e+01 -1.025626659393310547e+00 -7.160286903381347656e-01 -5.224966406822204590e-01 -7.151059508323669434e-01
3.220000000000000000e+02 2.630958938598632812e+01 -8.502833366394042969e+00 -8.967618346214294434e-01 -1.447664976119995117e+00 -7.033280134201049805e-01 -4.704684019088745117e-01
3.230000000000000000e+02 2.765337181091308594e+01 -1.570514202117919922e+01 -2.018428593873977661e-02 -2.498342096805572510e-01 -8.100555092096328735e-02 3.002789989113807678e-02
3.240000000000000000e+02 2.282908630371093750e+01 -1.558775520324707031e+01 -5.735332146286964417e-02 -3.463412225246429443e-01 -1.211083680391311646e-01 -2.214281857013702393e-01
3.250000000000000000e+02 2.110720062255859375e+01 -2.039653015136718750e+01 5.311828863341361284e-05 -2.275086790323257446e-01 -6.823666393756866455e-02 -1.682924330234527588e-01
3.260000000000000000e+02 2.296070289611816406e+01 -2.538627052307128906e+01 6.184127554297447205e-02 -2.028982341289520264e-01 -4.231708496809005737e-02 -1.412411928176879883e-01
3.270000000000000000e+02 2.297874450683593750e+01 -2.860067367553710938e+01 9.015992283821105957e-02 -2.028508484363555908e-01 -3.380728140473365784e-02 -1.342136263847351074e-01
3.280000000000000000e+02 2.275621032714843750e+01 -3.184564781188964844e+01 1.241765394806861877e-01 -2.100932598114013672e-01 -2.577501535415649414e-02 -1.155313253402709961e-01
3.290000000000000000e+02 2.245498275756835938e+01 -3.496201324462890625e+01 1.493072658777236938e-01 -2.179044336080551147e-01 -2.057914994657039642e-02 -8.986917138099670410e-02
3.300000000000000000e+02 2.238391494750976562e+01 -3.805458831787109375e+01 1.698988974094390869e-01 -2.257593870162963867e-01 -1.675814948976039886e-02 -5.134514719247817993e-02
3.310000000000000000e+02 2.247094917297363281e+01 -4.104301071166992188e+01 1.732204109430313110e-01 -2.273909896612167358e-01 -1.625117473304271698e-02 -1.554382313042879105e-02
3.320000000000000000e+02 2.725530052185058594e+01 -4.082013702392578125e+01 2.402883023023605347e-01 -2.289530336856842041e-01 3.400578862056136131e-03 -2.326108701527118683e-02
3.330000000000000000e+02 2.628124618530273438e+01 -3.779573822021484375e+01 2.165592908859252930e-01 -2.255823612213134766e-01 -2.706917934119701385e-03 -6.326533854007720947e-02
3.340000000000000000e+02 2.569739723205566406e+01 -3.509532165527343750e+01 1.786752492189407349e-01 -2.183284908533096313e-01 -1.189597509801387787e-02 -9.554566442966461182e-02
3.350000000000000000e+02 2.601083946228027344e+01 -3.222900772094726562e+01 1.538901031017303467e-01 -2.095297425985336304e-01 -1.669189333915710449e-02 -1.216384470462799072e-01
3.360000000000000000e+02 2.639877510070800781e+01 -2.915523147583007812e+01 1.112435609102249146e-01 -1.929679960012435913e-01 -2.451732754707336426e-02 -1.447524875402450562e-01
3.370000000000000000e+02 2.612989425659179688e+01 -2.114242744445800781e+01 1.051608286798000336e-02 -1.988977342844009399e-01 -5.651449784636497498e-02 -1.037884205579757690e-01
3.380000000000000000e+02 2.875645637512207031e+01 -1.793789100646972656e+01 -5.650391429662704468e-02 -1.093314066529273987e-01 -4.975059628486633301e-02 -1.842271070927381516e-03
3.390000000000000000e+02 2.898911476135253906e+01 -1.267175865173339844e+01 -6.130345910787582397e-02 -9.967967867851257324e-02 -4.829494282603263855e-02 1.577728539705276489e-01
3.400000000000000000e+02 3.138600921630859375e+01 -1.016765308380126953e+01 1.051191836595535278e-01 5.848898887634277344e-01 2.070027291774749756e-01 -1.337820589542388916e-01
3.410000000000000000e+02 3.254098510742187500e+01 -9.532504081726074219e+00 2.561404705047607422e-01 9.816430807113647461e-01 3.713350594043731689e-01 -5.074291825294494629e-01
3.420000000000000000e+02 3.119848632812500000e+01 -6.978870391845703125e+00 2.375657856464385986e-01 9.623442888259887695e-01 3.599730432033538818e-01 -5.279497504234313965e-01
3.430000000000000000e+02 2.558266258239746094e+01 -7.341040611267089844e+00 -2.659825086593627930e-01 -1.928416848182678223e+00 -6.583198308944702148e-01 -3.471372425556182861e-01
3.440000000000000000e+02 2.827199172973632812e+01 -6.242595672607421875e+00 1.297343075275421143e-01 -4.807619154453277588e-01 -1.053082868456840515e-01 -6.428600549697875977e-01
3.450000000000000000e+02 2.500775146484375000e+01 -9.231637954711914062e+00 -1.447024226188659668e+00 -1.493093252182006836e+00 -8.820352554321289062e-01 -6.571320295333862305e-01
3.460000000000000000e+02 4.664161682128906250e+01 -3.102514266967773438e+00 -2.205409288406372070e+00 -2.740583121776580811e-01 -7.438402771949768066e-01 -3.958729803562164307e-01
3.470000000000000000e+02 4.947069549560546875e+01 -3.668097019195556641e+00 -2.902130782604217529e-01 4.572411179542541504e-01 5.010841041803359985e-02 -4.474211037158966064e-01
3.480000000000000000e+02 4.841722869873046875e+01 -2.183201551437377930e+00 -1.261747241020202637e+00 3.173386752605438232e-01 -2.833225727081298828e-01 -6.567131280899047852e-01
3.490000000000000000e+02 5.363982009887695312e+01 6.389138698577880859e-01 -1.970059752464294434e+00 2.246785461902618408e-01 -5.236143469810485840e-01 6.581871211528778076e-02
3.500000000000000000e+02 5.399884033203125000e+01 3.483970880508422852e+00 -1.277573034167289734e-02 -2.133551985025405884e-03 -4.472784698009490967e-03 1.212522387504577637e-01
3.510000000000000000e+02 5.429643249511718750e+01 2.166805028915405273e+00 -1.104111433029174805e+00 -5.122849941253662109e-01 -4.849189221858978271e-01 6.993966102600097656e-01
3.520000000000000000e+02 4.876464843750000000e+01 7.856698513031005859e+00 3.013381175696849823e-02 3.590704873204231262e-02 1.981225796043872833e-02 5.144003406167030334e-02
3.530000000000000000e+02 4.864373397827148438e+01 6.158334732055664062e+00 -5.961715802550315857e-02 3.886740654706954956e-03 -1.671912521123886108e-02 1.921208575367927551e-02
3.540000000000000000e+02 4.789821624755859375e+01 6.866544246673583984e+00 5.550188943743705750e-02 6.510877609252929688e-02 3.618320077657699585e-02 4.246820509433746338e-02
3.550000000000000000e+02 4.520069122314453125e+01 3.794280529022216797e+00 -9.663351625204086304e-02 -3.251863270998001099e-02 -3.874564543366432190e-02 -4.321283847093582153e-02
3.560000000000000000e+02 4.745695877075195312e+01 -9.106071591377258301e-01 -1.108245372772216797e+00 9.187872521579265594e-03 -3.297172486782073975e-01 -6.184185743331909180e-01
3.570000000000000000e+02 4.866436767578125000e+01 -1.001085758209228516e+00 -1.109757423400878906e+00 3.456916809082031250e-01 -2.292197048664093018e-01 -6.474363207817077637e-01
3.580000000000000000e+02 4.875751495361328125e+01 2.551039159297943115e-01 -1.108887553215026855e+00 2.962212562561035156e-01 -2.437998801469802856e-01 -4.701383113861083984e-01
3.590000000000000000e+02 5.001977920532226562e+01 -1.032636523246765137e+00 -1.309594511985778809e+00 5.591406822204589844e-01 -2.251361310482025146e-01 -5.396137833595275879e-01
3.600000000000000000e+02 5.167179870605468750e+01 -5.662393093109130859e+00 6.558542847633361816e-01 8.166672587394714355e-01 4.417564570903778076e-01 -7.877943515777587891e-01
3.610000000000000000e+02 5.071960067749023438e+01 -4.524608612060546875e+00 3.896115124225616455e-01 7.441980838775634766e-01 3.401428759098052979e-01 -6.057730317115783691e-01
3.620000000000000000e+02 5.253881835937500000e+01 -6.762627601623535156e+00 6.959322690963745117e-01 7.940174341201782227e-01 4.469849169254302979e-01 -6.976934671401977539e-01
3.630000000000000000e+02 5.332076644897460938e+01 -7.900391578674316406e+00 3.980626761913299561e-01 5.282946228981018066e-01 2.779071927070617676e-01 -4.801374077796936035e-01
3.640000000000000000e+02 5.485501861572265625e+01 -1.030126476287841797e+01 1.443838328123092651e-01 9.077151864767074585e-02 7.054660469293594360e-02 -1.176662296056747437e-01
3.650000000000000000e+02 5.617481231689453125e+01 -1.736716079711914062e+01 -3.362435102462768555e-01 -6.556073427200317383e-01 -2.975552380084991455e-01 -3.667947053909301758e-01
3.660000000000000000e+02 5.699618911743164062e+01 -1.430361270904541016e+01 -8.623322471976280212e-03 1.824508979916572571e-02 2.886530011892318726e-03 -4.899119213223457336e-02
3.670000000000000000e+02 6.269045639038085938e+01 -1.721686935424804688e+01 -2.266000211238861084e-01 6.870036721229553223e-01 1.381210833787918091e-01 -1.843945235013961792e-01
3.680000000000000000e+02 6.440398406982421875e+01 -2.581207466125488281e+01 4.016792774200439453e-01 1.429299592971801758e+00 5.492936372756958008e-01 3.950493037700653076e-01
3.690000000000000000e+02 6.735255432128906250e+01 -2.675076484680175781e+01 3.752384483814239502e-01 2.147445201873779297e+00 7.568051218986511230e-01 5.946344137191772461e-01
3.700000000000000000e+02 7.087112426757812500e+01 -2.867895698547363281e+01 2.188752293586730957e-01 2.997133731842041016e+00 9.648026823997497559e-01 5.598729848861694336e-01
3.710000000000000000e+02 7.452199554443359375e+01 -3.398681259155273438e+01 9.467007964849472046e-02 3.679301261901855469e+00 1.132191419601440430e+00 2.571083903312683105e-01
3.720000000000000000e+02 7.924286651611328125e+01 -3.332128143310546875e+01 5.889141000807285309e-03 4.442492485046386719e+00 1.334514379501342773e+00 5.199523270130157471e-02
3.730000000000000000e+02 7.752749633789062500e+01 -3.434666442871093750e+01 2.114943787455558777e-02 4.149285793304443359e+00 1.251130580902099609e+00 1.439871191978454590e-01
3.740000000000000000e+02 7.930624389648437500e+01 -3.196094512939453125e+01 2.554218808654695749e-04 4.551228523254394531e+00 1.365445256233215332e+00 5.864043906331062317e-02
3.750000000000000000e+02 7.790579223632812500e+01 -3.173907279968261719e+01 8.192609064280986786e-03 4.357726097106933594e+00 1.309775590896606445e+00 1.532270163297653198e-01
3.760000000000000000e+02 7.403421020507812500e+01 -2.909323883056640625e+01 8.745207637548446655e-02 3.748564243316650391e+00 1.150804877281188965e+00 4.427473545074462891e-01
3.770000000000000000e+02 7.121699523925781250e+01 -2.516877174377441406e+01 1.654945164918899536e-01 3.153271675109863281e+00 9.956298470497131348e-01 7.410771250724792480e-01
3.780000000000000000e+02 6.823003387451171875e+01 -2.040352439880371094e+01 4.794354438781738281e-01 1.644948601722717285e+00 6.373152136802673340e-01 8.531211018562316895e-01
3.790000000000000000e+02 6.438920593261718750e+01 -1.678940010070800781e+01 -2.002642452716827393e-01 6.896048188209533691e-01 1.468021720647811890e-01 -1.921114474534988403e-01
3.800000000000000000e+02 6.081282043457031250e+01 -1.367198753356933594e+01 -2.304563224315643311e-01 5.277731418609619141e-01 8.919505029916763306e-02 -1.384621709585189819e-01
3.810000000000000000e+02 5.542783737182617188e+01 -1.169762516021728516e+01 5.277370661497116089e-02 3.112256061285734177e-03 1.676578819751739502e-02 -5.804442241787910461e-02
3.820000000000000000e+02 5.571366882324218750e+01 -1.317313385009765625e+01 3.331954404711723328e-02 -1.827388256788253784e-02 4.513698630034923553e-03 2.053744159638881683e-02
3.830000000000000000e+02 5.745605468750000000e+01 -1.703197479248046875e+01 -3.981308043003082275e-01 1.045911666005849838e-02 -1.163015067577362061e-01 -3.809072077274322510e-01
3.840000000000000000e+02 5.653382110595703125e+01 -1.886663436889648438e+01 -8.224822878837585449e-01 -3.691174983978271484e-01 -3.574799299240112305e-01 -2.774827182292938232e-01
3.850000000000000000e+02 5.867287063598632812e+01 -1.998922348022460938e+01 -3.325133919715881348e-01 2.982242405414581299e-01 -1.028674561530351639e-02 -5.542245134711265564e-02
3.860000000000000000e+02 5.394144439697265625e+01 -1.990503883361816406e+01 -5.586208105087280273e-01 3.757993876934051514e-02 -1.563122570514678955e-01 -4.348926246166229248e-01
3.870000000000000000e+02 5.902715682983398438e+01 -2.279814147949218750e+01 1.296385824680328369e-01 4.244360029697418213e-01 1.662223786115646362e-01 5.157476291060447693e-02
3.880000000000000000e+02 5.087296676635742188e+01 -2.088296318054199219e+01 -2.318212240934371948e-01 3.787418901920318604e-01 4.407620057463645935e-02 -3.140767514705657959e-01
3.890000000000000000e+02 4.995959854125976562e+01 -2.209545707702636719e+01 -1.756793260574340820e-01 3.146184980869293213e-01 4.168175160884857178e-02 -2.814070880413055420e-01
3.900000000000000000e+02 5.200255203247070312e+01 -2.731936454772949219e+01 2.579401731491088867e-01 2.096385657787322998e-01 1.402736157178878784e-01 -2.076140344142913818e-01
3.910000000000000000e+02 4.976550674438476562e+01 -2.985387992858886719e+01 3.684362173080444336e-01 1.802347004413604736e-01 1.646012812852859497e-01 -1.536917984485626221e-01
3.920000000000000000e+02 4.923361968994140625e+01 -3.307215499877929688e+01 4.730442762374877930e-01 1.783844530582427979e-01 1.954286098480224609e-01 -1.101524829864501953e-01
3.930000000000000000e+02 4.794880676269531250e+01 -3.657050704956054688e+01 5.306047797203063965e-01 1.346936672925949097e-01 1.995895355939865112e-01 -6.957127898931503296e-02
3.940000000000000000e+02 4.736734771728515625e+01 -4.043929672241210938e+01 5.553720593452453613e-01 1.189230158925056458e-01 2.022885233163833618e-01 -2.887966483831405640e-02
3.950000000000000000e+02 5.239317321777343750e+01 -4.080612564086914062e+01 6.065822243690490723e-01 4.246350526809692383e-01 3.093651831150054932e-01 -8.482998237013816833e-03
3.960000000000000000e+02 5.242315673828125000e+01 -3.744904327392578125e+01 5.873969197273254395e-01 4.075238406658172607e-01 2.984762191772460938e-01 -3.114429861307144165e-02
3.970000000000000000e+02 5.628097152709960938e+01 -3.495928192138671875e+01 5.767459273338317871e-01 7.250633239746093750e-01 3.905427753925323486e-01 2.025389485061168671e-02
3.980000000000000000e+02 5.430586624145507812e+01 -3.138992309570312500e+01 4.862051308155059814e-01 4.430484175682067871e-01 2.787760496139526367e-01 -5.104698985815048218e-02
3.990000000000000000e+02 5.384390258789062500e+01 -2.791108703613281250e+01 3.645130991935729980e-01 3.159008026123046875e-01 2.041241675615310669e-01 -1.376943886280059814e-01
4.000000000000000000e+02 5.380678176879882812e+01 -2.257152557373046875e+01 -5.546379461884498596e-02 9.896913915872573853e-02 1.305160392075777054e-02 -3.677676618099212646e-01
4.010000000000000000e+02 5.520376205444335938e+01 -2.383681678771972656e+01 1.919979602098464966e-01 1.244425848126411438e-01 9.493216127157211304e-02 -1.912924647331237793e-01
4.020000000000000000e+02 5.184431076049804688e+01 -2.198161506652832031e+01 -2.024081051349639893e-01 2.707084417343139648e-01 2.049010246992111206e-02 -3.640911281108856201e-01
4.030000000000000000e+02 4.934200286865234375e+01 -1.683969116210937500e+01 6.385951489210128784e-02 6.400452256202697754e-01 2.111714184284210205e-01 -3.053905069828033447e-01
4.040000000000000000e+02 5.007640457153320312e+01 -1.561098480224609375e+01 3.526757061481475830e-01 5.753458738327026367e-01 2.784064710140228271e-01 -4.879666566848754883e-01
4.050000000000000000e+02 4.652281188964843750e+01 -1.437501621246337891e+01 1.248585507273674011e-01 5.283785462379455566e-01 1.959711313247680664e-01 -3.392070531845092773e-01
4.060000000000000000e+02 4.350015258789062500e+01 -1.213432312011718750e+01 3.433084487915039062e-01 -5.631865262985229492e-01 -6.596340984106063843e-02 -6.630914807319641113e-01
4.070000000000000000e+02 4.792979049682617188e+01 -1.356515979766845703e+01 4.690399467945098877e-01 8.621209263801574707e-01 3.993482589721679688e-01 -6.660845279693603516e-01
4.080000000000000000e+02 4.525894165039062500e+01 -8.340363502502441406e+00 2.345688939094543457e-01 -1.574565172195434570e-01 2.313371747732162476e-02 -1.340935528278350830e-01
4.090000000000000000e+02 4.342830276489257812e+01 -5.176754474639892578e+00 -4.897972345352172852e-01 -8.477175235748291016e-01 -4.012544155120849609e-01 -4.008634686470031738e-01
4.100000000000000000e+02 4.492650985717773438e+01 -4.058598995208740234e+00 -1.347474217414855957e+00 -1.738259553909301758e+00 -9.257201552391052246e-01 -9.405615925788879395e-01
4.110000000000000000e+02 4.547181701660156250e+01 -2.858941316604614258e+00 -1.983192205429077148e+00 -1.177016258239746094e+00 -9.480625391006469727e-01 -5.539422631263732910e-01
4.120000000000000000e+02 6.559298706054687500e+01 -2.344942808151245117e+00 -3.280112445354461670e-01 -1.957495957612991333e-01 -1.571282595396041870e-01 9.802765250205993652e-01
4.130000000000000000e+02 6.810442352294921875e+01 -4.527521610260009766e+00 -6.411087512969970703e-01 -7.316218018531799316e-01 -4.118191599845886230e-01 7.208580970764160156e-01
4.140000000000000000e+02 6.671593475341796875e+01 -2.444707155227661133e+00 -5.622069835662841797e-01 -5.560402274131774902e-01 -3.354741632938385010e-01 5.491899251937866211e-01
4.150000000000000000e+02 6.724296569824218750e+01 -3.572741031646728516e+00 -8.260909318923950195e-01 -6.862543225288391113e-01 -4.537035822868347168e-01 6.617183089256286621e-01
4.160000000000000000e+02 7.065663909912109375e+01 -5.904968738555908203e+00 -4.144557714462280273e-01 3.445236086845397949e-01 -2.097964473068714142e-02 3.052443563938140869e-01
4.170000000000000000e+02 7.164708709716796875e+01 -8.648066520690917969e+00 -2.188590764999389648e-01 2.297365665435791016e+00 6.235519647598266602e-01 3.235021978616714478e-02
4.180000000000000000e+02 7.234086608886718750e+01 -1.136918067932128906e+01 3.482456505298614502e-02 5.952779769897460938e+00 1.796281218528747559e+00 2.611579000949859619e-01
4.190000000000000000e+02 7.249199676513671875e+01 -1.264244842529296875e+01 4.024381637573242188e-01 7.282279014587402344e+00 2.305415153503417969e+00 8.257994055747985840e-01
4.200000000000000000e+02 7.305390930175781250e+01 -1.373290348052978516e+01 1.196211099624633789e+00 7.207472801208496094e+00 2.521105051040649414e+00 1.475595593452453613e+00
4.210000000000000000e+02 7.206818389892578125e+01 -1.471868610382080078e+01 1.950538396835327148e+00 8.142923355102539062e+00 3.028038740158081055e+00 2.314687490463256836e+00
4.220000000000000000e+02 7.133795166015625000e+01 -1.572062206268310547e+01 1.801632642745971680e+00 4.661739826202392578e+00 1.939011812210083008e+00 2.658545970916748047e+00
4.230000000000000000e+02 7.167929840087890625e+01 -1.751269721984863281e+01 1.668786257505416870e-01 4.788801193237304688e+00 1.486703991889953613e+00 1.829667091369628906e+00
4.240000000000000000e+02 6.934804534912109375e+01 -1.613964462280273438e+01 -2.097888290882110596e-01 -1.422332674264907837e-01 -1.056066304445266724e-01 1.065170288085937500e+00
4.250000000000000000e+02 7.058052825927734375e+01 -1.679327011108398438e+01 7.646704912185668945e-01 2.380862474441528320e+00 9.436599016189575195e-01 2.033663988113403320e+00
4.260000000000000000e+02 7.008027648925781250e+01 -2.145202445983886719e+01 2.911200523376464844e-01 2.710798978805541992e+00 9.005756974220275879e-01 1.092766165733337402e+00
4.270000000000000000e+02 7.137545013427734375e+01 -2.105184173583984375e+01 5.946571752429008484e-02 3.407544612884521484e+00 1.040103077888488770e+00 1.073495030403137207e+00
4.280000000000000000e+02 7.063536834716796875e+01 -2.293362426757812500e+01 1.753109544515609741e-01 3.016230106353759766e+00 9.574623107910156250e-01 8.881798982620239258e-01
4.290000000000000000e+02 7.551437377929687500e+01 -2.507988739013671875e+01 4.921242129057645798e-03 4.377408504486083984e+00 1.314698934555053711e+00 4.196730852127075195e-01
4.300000000000000000e+02 7.808451080322265625e+01 -2.374508857727050781e+01 -2.022482268512248993e-02 5.073958396911621094e+00 1.516120076179504395e+00 1.719828695058822632e-01
4.310000000000000000e+02 7.931286621093750000e+01 -2.092499351501464844e+01 -2.581607364118099213e-02 5.518162250518798828e+00 1.647703766822814941e+00 1.922568865120410919e-02
4.320000000000000000e+02 7.794783782958984375e+01 -2.100474166870117188e+01 -3.150390833616256714e-02 5.292998790740966797e+00 1.578448534011840820e+00 1.226143464446067810e-01
4.330000000000000000e+02 7.928369140625000000e+01 -1.952947616577148438e+01 1.153678633272647858e-02 5.554107666015625000e+00 1.669693350791931152e+00 6.373533047735691071e-03
4.340000000000000000e+02 7.812459564208984375e+01 -1.541931915283203125e+01 1.792856752872467041e-01 5.850176811218261719e+00 1.808838844299316406e+00 2.612793743610382080e-01
4.350000000000000000e+02 7.394310760498046875e+01 -1.868241119384765625e+01 -5.222377367317676544e-03 5.041784763336181641e+00 1.510968804359436035e+00 7.007248401641845703e-01
4.360000000000000000e+02 7.549936676025390625e+01 -1.703306579589843750e+01 2.214973419904708862e-01 5.555117607116699219e+00 1.732984423637390137e+00 3.385435938835144043e-01
4.370000000000000000e+02 7.535330200195312500e+01 -2.142864799499511719e+01 -1.199965104460716248e-01 4.850016593933105469e+00 1.419006109237670898e+00 4.750680923461914062e-01
4.380000000000000000e+02 7.507972717285156250e+01 -2.031388664245605469e+01 -9.829574823379516602e-02 4.992233753204345703e+00 1.468181371688842773e+00 4.523781239986419678e-01
4.390000000000000000e+02 7.182553863525390625e+01 -2.239427757263183594e+01 1.207086965441703796e-01 3.493562459945678711e+00 1.084281325340270996e+00 9.589544534683227539e-01
4.400000000000000000e+02 6.900791931152343750e+01 -5.497837066650390625e+00 -7.406884431838989258e-01 -7.979771494865417480e-01 -4.615996778011322021e-01 7.371108531951904297e-01
4.410000000000000000e+02 6.756054687500000000e+01 -1.618173027038574219e+01 -3.557022809982299805e-01 1.885350942611694336e-01 -5.015015974640846252e-02 1.357290241867303848e-02
4.420000000000000000e+02 6.638068389892578125e+01 -1.334577941894531250e+01 -3.592074215412139893e-01 -1.216829475015401840e-02 -1.114127188920974731e-01 1.067686527967453003e-01
4.430000000000000000e+02 6.135827636718750000e+01 -1.178392505645751953e+01 -9.453890472650527954e-02 5.682676434516906738e-01 1.421186178922653198e-01 -2.950432337820529938e-02
4.440000000000000000e+02 5.881916046142578125e+01 -7.551620006561279297e+00 5.584654808044433594e-01 -4.146940261125564575e-02 1.550988256931304932e-01 2.034174650907516479e-01
4.450000000000000000e+02 5.753174591064453125e+01 -8.634453773498535156e+00 4.955090880393981934e-01 -1.064178198575973511e-01 1.167273744940757751e-01 -2.029692940413951874e-02
4.460000000000000000e+02 6.732705688476562500e+01 -1.424361705780029297e+01 -4.241486787796020508e-01 -1.007050424814224243e-01 -1.574561148881912231e-01 4.028191268444061279e-01
4.470000000000000000e+02 6.663202667236328125e+01 -1.529785633087158203e+01 -7.174761295318603516e-01 3.620467483997344971e-01 -1.066288277506828308e-01 8.681171387434005737e-02
4.480000000000000000e+02 6.296006393432617188e+01 -1.255974102020263672e+01 -2.180770188570022583e-01 6.648905873298645020e-01 1.340440660715103149e-01 -7.888691872358322144e-02
4.490000000000000000e+02 6.366445922851562500e+01 -9.606542587280273438e+00 1.029280424118041992e-01 9.543140530586242676e-01 3.171726465225219727e-01 -2.056736350059509277e-01
4.500000000000000000e+02 6.314447784423828125e+01 -5.424735069274902344e+00 8.568660169839859009e-02 2.190072298049926758e+00 6.827276945114135742e-01 3.041711151599884033e-01
4.510000000000000000e+02 6.229895019531250000e+01 -3.909297704696655273e+00 8.545140027999877930e-01 1.099177956581115723e+00 5.861076116561889648e-01 6.131259799003601074e-01
4.520000000000000000e+02 6.388134002685546875e+01 -2.888570070266723633e+00 1.213264822959899902e+00 2.263639450073242188e+00 1.043071269989013672e+00 1.316105127334594727e+00
4.530000000000000000e+02 6.425021362304687500e+01 -1.949553251266479492e+00 2.491760812699794769e-02 1.298932313919067383e+00 3.971549868583679199e-01 9.972408413887023926e-01
4.540000000000000000e+02 6.548683166503906250e+01 -1.137240767478942871e+00 -2.586937546730041504e-01 4.258836209774017334e-01 5.015696212649345398e-02 1.091465473175048828e+00
4.550000000000000000e+02 6.642736816406250000e+01 -1.988586634397506714e-01 -4.770084321498870850e-01 3.640194237232208252e-01 -3.389670327305793762e-02 8.100343942642211914e-01
4.560000000000000000e+02 6.651867675781250000e+01 -1.247465968132019043e+00 -1.396075189113616943e-01 -9.138672053813934326e-02 -6.929827481508255005e-02 7.392854690551757812e-01
4.570000000000000000e+02 7.121315765380859375e+01 1.553977489471435547e+00 -8.592044711112976074e-01 -2.657709643244743347e-02 -2.657344639301300049e-01 2.646861672401428223e-01
4.580000000000000000e+02 7.010173034667968750e+01 2.744743108749389648e+00 2.077299058437347412e-01 9.749367237091064453e-01 3.547999858856201172e-01 -4.301874041557312012e-01
4.590000000000000000e+02 6.945051574707031250e+01 3.888404369354248047e+00 2.935923635959625244e-01 2.666715145111083984e+00 8.880922794342041016e-01 -1.993489563465118408e-01
4.600000000000000000e+02 6.967903900146484375e+01 6.011307716369628906e+00 1.593124270439147949e-01 2.187506198883056641e+00 7.040455937385559082e-01 4.142128527164459229e-01
4.610000000000000000e+02 6.670375061035156250e+01 8.221750259399414062e+00 -8.788369297981262207e-01 4.365958273410797119e-02 -2.505531907081604004e-01 -8.926451206207275391e-01
4.620000000000000000e+02 6.375472259521484375e+01 6.673737525939941406e+00 -7.385856509208679199e-01 -1.200457930564880371e+00 -5.817130804061889648e-01 -9.455469250679016113e-01
4.630000000000000000e+02 6.213975906372070312e+01 4.428402423858642578e+00 -1.464608311653137207e+00 -1.488495826721191406e+00 -8.859312534332275391e-01 -1.287740707397460938e+00
4.640000000000000000e+02 6.284214401245117188e+01 2.535404920578002930e+00 -1.513319969177246094e+00 -3.630929887294769287e-01 -5.629239082336425781e-01 -4.532670974731445312e-01
4.650000000000000000e+02 5.739384841918945312e+01 8.072811961174011230e-01 -4.479030132293701172e+00 -1.067582726478576660e+00 -1.663983941078186035e+00 -1.038309216499328613e+00
4.660000000000000000e+02 5.881935882568359375e+01 1.563294291496276855e+00 -3.242520809173583984e+00 -1.174619555473327637e+00 -1.325142145156860352e+00 -1.710856318473815918e+00
4.670000000000000000e+02 5.645374679565429688e+01 -1.378191947937011719e+00 -1.347736001014709473e+00 -1.219883561134338379e+00 -7.702858448028564453e-01 -4.812770485877990723e-01
4.680000000000000000e+02 5.435386276245117188e+01 -2.769078314304351807e-02 -2.759894132614135742e+00 -8.263120055198669434e-02 -8.527575731277465820e-01 -3.302864432334899902e-01
4.690000000000000000e+02 5.437806320190429688e+01 -2.466456174850463867e+00 -7.047513723373413086e-01 -3.403750360012054443e-01 -3.135379254817962646e-01 -5.705407857894897461e-01
4.700000000000000000e+02 5.964100265502929688e+01 -6.283910274505615234e+00 6.045887470245361328e-01 -3.373605757951736450e-02 1.712558120489120483e-01 3.342197537422180176e-01
4.710000000000000000e+02 6.223830795288085938e+01 -9.882854461669921875e+00 7.388447970151901245e-02 7.169178724288940430e-01 2.372407019138336182e-01 5.261237546801567078e-02
4.720000000000000000e+02 6.535660552978515625e+01 8.427976608276367188e+00 -7.052279710769653320e-01 -2.871724963188171387e-01 -2.977201342582702637e-01 -7.396985888481140137e-01
4.730000000000000000e+02 5.404941940307617188e+01 4.830038070678710938e+00 -5.463545024394989014e-02 9.735124558210372925e-02 1.281473785638809204e-02 2.401796728372573853e-02
4.740000000000000000e+02 5.438106918334960938e+01 8.442584037780761719e+00 -2.048440044745802879e-03 6.479479838162660599e-03 1.329311984591186047e-03 -1.310997828841209412e-02
4.750000000000000000e+02 5.596144866943359375e+01 8.995937347412109375e+00 3.303044650238007307e-04 -7.406400516629219055e-03 -2.122828736901283264e-03 9.901705197989940643e-04
4.760000000000000000e+02 5.452490615844726562e+01 9.248127937316894531e+00 4.262989852577447891e-03 -2.523024333640933037e-03 5.219897138886153698e-04 -1.653456129133701324e-02
4.770000000000000000e+02 5.173765945434570312e+01 9.362812995910644531e+00 2.169833332300186157e-02 -1.562097389250993729e-02 1.823207712732255459e-03 -4.737940616905689240e-03
4.780000000000000000e+02 5.025270843505859375e+01 9.381546020507812500e+00 2.490107528865337372e-02 -7.491789758205413818e-03 5.222785286605358124e-03 1.606197282671928406e-02
4.790000000000000000e+02 5.505225372314453125e+01 6.767305374145507812e+00 7.660996634513139725e-03 7.446196675300598145e-02 2.463688887655735016e-02 1.748692011460661888e-04
4.800000000000000000e+02 5.585201644897460938e+01 7.778544425964355469e+00 -2.177632646635174751e-03 -3.008658299222588539e-03 -1.555887283757328987e-03 9.574705734848976135e-03
4.810000000000000000e+02 4.609315872192382812e+01 3.155067443847656250e+00 -2.119679152965545654e-01 -2.988261915743350983e-02 -7.255516201257705688e-02 -1.790839582681655884e-01
4.820000000000000000e+02 4.331285858154296875e+01 1.671605110168457031e+00 -3.278751075267791748e-01 -1.219809427857398987e-01 -1.349568068981170654e-01 -1.178084239363670349e-01
4.830000000000000000e+02 4.395629882812500000e+01 -9.210313558578491211e-01 -1.164201855659484863e+00 -2.600011527538299561e-01 -4.272609353065490723e-01 5.821145325899124146e-02
4.840000000000000000e+02 3.990021514892578125e+01 7.739106655120849609e+00 4.136854317039251328e-03 5.852913600392639637e-04 1.416643732227385044e-03 -3.726961789652705193e-03
4.850000000000000000e+02 4.047227859497070312e+01 8.638182640075683594e+00 -1.344530028291046619e-03 2.585930451459717005e-05 -3.956012369599193335e-04 1.152239274233579636e-03
4.860000000000000000e+02 3.743183517456054688e+01 9.170342445373535156e+00 4.455031361430883408e-03 -2.025909954681992531e-03 7.287365151569247246e-04 -3.103546565398573875e-03
4.870000000000000000e+02 3.469682693481445312e+01 8.088822364807128906e+00 3.859442099928855896e-02 -6.298637948930263519e-03 9.688735008239746094e-03 2.006726711988449097e-02
4.880000000000000000e+02 3.254628372192382812e+01 6.428079128265380859e+00 1.802282333374023438e-01 2.526740543544292450e-02 6.164868921041488647e-02 1.000571399927139282e-01
4.890000000000000000e+02 3.329646682739257812e+01 3.894405126571655273e+00 2.867440693080425262e-02 -1.341293901205062866e-01 -3.163649514317512512e-02 -2.184714376926422119e-01
4.900000000000000000e+02 3.041482162475585938e+01 4.633566379547119141e+00 6.342793107032775879e-01 1.353470832109451294e-01 2.308879196643829346e-01 3.279351592063903809e-01
4.910000000000000000e+02 2.294743919372558594e+01 -2.452469348907470703e+00 -5.388933233916759491e-03 1.342613548040390015e-01 3.866172954440116882e-02 -1.382168978452682495e-01
4.920000000000000000e+02 2.467122840881347656e+01 -2.648226737976074219e+00 -3.417692333459854126e-02 -8.382319658994674683e-02 -3.540003672242164612e-02 -1.147166043519973755e-01
4.930000000000000000e+02 2.464953231811523438e+01 -4.760054111480712891e+00 2.278442494571208954e-02 -2.253357321023941040e-01 -6.076539307832717896e-02 -1.884325444698333740e-01
4.940000000000000000e+02 2.175494194030761719e+01 -8.649149894714355469e+00 -1.959616094827651978e-01 -3.699602931737899780e-02 -6.988729536533355713e-02 -9.747478179633617401e-03
4.950000000000000000e+02 2.258575057983398438e+01 -1.064053726196289062e+01 -6.230306029319763184e-01 -2.085348218679428101e-01 -2.494696229696273804e-01 -4.432779252529144287e-01
4.960000000000000000e+02 2.301765632629394531e+01 -9.310444831848144531e+00 -7.013611197471618652e-01 1.459782756865024567e-02 -2.060289829969406128e-01 -3.538250550627708435e-02
4.970000000000000000e+02 1.941859626770019531e+01 -6.859650611877441406e+00 -2.095056883990764618e-02 5.329969804733991623e-03 -4.686179570853710175e-03 -3.695289045572280884e-02
4.980000000000000000e+02 1.843157958984375000e+01 -5.740483760833740234e+00 3.027928434312343597e-02 3.874783590435981750e-02 2.070813626050949097e-02 -1.037924923002719879e-02
4.990000000000000000e+02 1.472747039794921875e+01 -3.143374443054199219e+00 1.675306446850299835e-02 4.671105183660984039e-03 6.427250802516937256e-03 -9.610740467905998230e-03
5.000000000000000000e+02 1.184679031372070312e+01 -1.861813426017761230e+00 1.631845533847808838e-02 -7.688073441386222839e-03 2.589114243164658546e-03 -4.553181119263172150e-03
5.010000000000000000e+02 1.111097240447998047e+01 -1.813990831375122070e+00 1.628875732421875000e-02 1.240408862940967083e-03 5.258749704807996750e-03 -7.135474006645381451e-04
5.020000000000000000e+02 9.334991455078125000e+00 -6.900407314300537109e+00 -1.505816634744405746e-02 -1.212482713162899017e-02 -8.154897950589656830e-03 -1.019384362734854221e-03
5.030000000000000000e+02 9.748739242553710938e+00 -8.071979522705078125e+00 -3.067713789641857147e-02 -1.114705950021743774e-02 -1.254725921899080276e-02 -5.967408418655395508e-03
5.040000000000000000e+02 8.956285476684570312e+00 -1.228196716308593750e+01 -4.456759244203567505e-02 -2.594989351928234100e-02 -2.115524560213088989e-02 -3.504259511828422546e-02
5.050000000000000000e+02 5.156486511230468750e+00 -1.616530609130859375e+01 -1.589403487741947174e-02 -3.651331365108489990e-02 -1.572220399975776672e-02 -3.971180319786071777e-02
5.060000000000000000e+02 6.358075618743896484e+00 -2.238800430297851562e+01 -4.538885317742824554e-03 -9.970894455909729004e-02 -3.127434849739074707e-02 -7.224977761507034302e-02
5.070000000000000000e+02 4.853972434997558594e+00 -2.150857925415039062e+01 -4.375416785478591919e-03 -8.397004008293151855e-02 -2.650363743305206299e-02 -5.679814517498016357e-02
5.080000000000000000e+02 4.180902004241943359e+00 -2.766644859313964844e+01 5.351587198674678802e-03 -1.461450010538101196e-01 -4.223802685737609863e-02 -5.131608992815017700e-02
5.090000000000000000e+02 6.687974929809570312e+00 -3.650675964355468750e+01 1.983043365180492401e-02 -2.023745924234390259e-01 -5.476324632763862610e-02 -3.634433448314666748e-02
5.100000000000000000e+02 6.118035793304443359e+00 -3.926635742187500000e+01 2.092897891998291016e-02 -2.139939367771148682e-01 -5.791948735713958740e-02 -2.029250934720039368e-02
5.110000000000000000e+02 3.542069911956787109e+00 -4.163186264038085938e+01 6.075834389775991440e-03 -2.344844192266464233e-01 -6.852257996797561646e-02 -1.702398061752319336e-03
5.120000000000000000e+02 7.031960010528564453e+00 -4.131427383422851562e+01 2.722532302141189575e-02 -2.133810222148895264e-01 -5.584670975804328918e-02 -6.907558534294366837e-03
5.130000000000000000e+02 8.266713142395019531e+00 -3.773102951049804688e+01 2.847148850560188293e-02 -2.038246840238571167e-01 -5.260595679283142090e-02 -3.465098515152931213e-02
5.140000000000000000e+02 5.695617675781250000e+00 -3.210870361328125000e+01 9.632469154894351959e-03 -1.820689439773559570e-01 -5.173094198107719421e-02 -5.048693343997001648e-02
5.150000000000000000e+02 8.524195671081542969e+00 -2.804427909851074219e+01 1.635978184640407562e-02 -1.564703434705734253e-01 -4.203316569328308105e-02 -8.826243877410888672e-02
5.160000000000000000e+02 9.876469612121582031e+00 -2.316230583190917969e+01 -7.724408525973558426e-03 -1.243261843919754028e-01 -3.961517661809921265e-02 -1.079461723566055298e-01
5.170000000000000000e+02 8.790612220764160156e+00 -2.053947067260742188e+01 -1.855996996164321899e-02 -9.613449871540069580e-02 -3.440833836793899536e-02 -9.158132970333099365e-02
5.180000000000000000e+02 1.148218345642089844e+01 -1.621180152893066406e+01 -6.137507781386375427e-02 -6.029377132654190063e-02 -3.650065511465072632e-02 -9.558999538421630859e-02
5.190000000000000000e+02 1.302694225311279297e+01 -1.200531578063964844e+01 -8.943378925323486328e-02 -2.055403776466846466e-02 -3.299634903669357300e-02 -5.668992921710014343e-02
5.200000000000000000e+02 1.060854911804199219e+01 -8.742538452148437500e+00 -3.663090616464614868e-02 -1.430264674127101898e-02 -1.528006605803966522e-02 -8.722808212041854858e-03
5.210000000000000000e+02 1.236928176879882812e+01 -5.237431049346923828e+00 4.742695484310388565e-03 -1.350729074329137802e-02 -2.629378810524940491e-03 1.078648958355188370e-03
5.220000000000000000e+02 1.570124053955078125e+01 -2.042666912078857422e+00 9.341188706457614899e-03 1.903578639030456543e-02 8.513092994689941406e-03 -1.874667592346668243e-02
5.230000000000000000e+02 1.110205173492431641e+01 -2.880213022232055664e+00 1.024520210921764374e-02 -2.005741000175476074e-03 2.471838379278779030e-03 7.703984156250953674e-04
5.240000000000000000e+02 1.498445796966552734e+01 -2.045264482498168945e+00 1.368196308612823486e-02 1.764309010468423367e-03 4.633881617337465286e-03 -1.162136066704988480e-02
5.250000000000000000e+02 8.507516860961914062e+00 -1.828891396522521973e+00 1.445751078426837921e-02 2.363014755246695131e-05 4.344342276453971863e-03 3.709219861775636673e-03
5.260000000000000000e+02 7.910474300384521484e+00 -1.864069700241088867e+00 1.433573942631483078e-02 -3.043385222554206848e-03 3.387706354260444641e-03 5.116126965731382370e-03
5.270000000000000000e+02 5.025538444519042969e+00 -2.539391040802001953e+00 6.584808696061372757e-03 2.223042305558919907e-03 2.642355393618345261e-03 8.046475239098072052e-03
5.280000000000000000e+02 5.666527748107910156e+00 -3.007834434509277344e+00 6.113334558904170990e-03 1.817342563299462199e-04 1.888520666398108006e-03 7.172933779656887054e-03
5.290000000000000000e+02 1.911688327789306641e+00 -1.972782969474792480e+00 2.013511490076780319e-03 1.868667313829064369e-03 1.164653687737882137e-03 3.183063352480530739e-03
5.300000000000000000e+02 4.470600128173828125e+00 -2.106573343276977539e+00 9.189408272504806519e-03 2.095131640089675784e-04 2.819676417857408524e-03 7.544614374637603760e-03
5.310000000000000000e+02 5.752649307250976562e-01 -5.077066421508789062e+00 -8.304517541546374559e-05 1.130620203912258148e-02 3.366947174072265625e-03 2.461662981659173965e-03
5.320000000000000000e+02 1.547951698303222656e+00 -8.001645088195800781e+00 -9.582740021869540215e-04 1.499790139496326447e-02 4.211888182908296585e-03 3.904667682945728302e-03
5.330000000000000000e+02 3.762418508529663086e+00 -1.066629123687744141e+01 -8.110257796943187714e-03 -1.751387724652886391e-03 -2.958493772894144058e-03 -3.997887950390577316e-03
5.340000000000000000e+02 5.940351486206054688e+00 -7.366915702819824219e+00 -9.955774992704391479e-03 -4.069201182574033737e-03 -4.207492806017398834e-03 3.743782406672835350e-03
5.350000000000000000e+02 5.585076332092285156e+00 -5.171950340270996094e+00 -9.038416901603341103e-04 -9.426893666386604309e-04 -5.539593403227627277e-04 8.360337466001510620e-03
5.360000000000000000e+02 3.952932596206665039e+00 -1.817629098892211914e+00 7.995282299816608429e-03 -1.524929772131145000e-03 1.941105816513299942e-03 4.546573851257562637e-03
5.370000000000000000e+02 2.781866788864135742e+00 -2.524897098541259766e+00 3.395756008103489876e-03 1.551315886899828911e-03 1.484121545217931271e-03 5.310274660587310791e-03
5.380000000000000000e+02 5.239818096160888672e-01 -9.297530174255371094e+00 -2.181507734348997474e-04 2.582675963640213013e-02 7.682582829147577286e-03 8.531572530046105385e-04
5.390000000000000000e+02 1.622899174690246582e+00 -1.068133258819580078e+01 -1.718978746794164181e-03 1.544091105461120605e-02 4.116579424589872360e-03 -3.691597084980458021e-04
5.400000000000000000e+02 3.791555881500244141e+00 -1.184624481201171875e+01 -9.181730449199676514e-03 -5.563423037528991699e-03 -4.423546139150857925e-03 -9.248767979443073273e-03
5.410000000000000000e+02 3.725439786911010742e+00 -9.402903556823730469e+00 -7.206032983958721161e-03 1.181207597255706787e-03 -1.807447639293968678e-03 6.031047669239342213e-04
5.420000000000000000e+02 5.762340426445007324e-01 -1.209292221069335938e+01 -4.959789803251624107e-04 2.523768879473209381e-02 7.422512862831354141e-03 -1.262362231500446796e-03
5.430000000000000000e+02 1.885448098182678223e+00 -1.343216800689697266e+01 -3.215071046724915504e-03 4.919013939797878265e-03 5.111828795634210110e-04 -8.102273568511009216e-03
5.440000000000000000e+02 4.877351760864257812e+00 -1.751528930664062500e+01 -1.317032799124717712e-02 -4.706920683383941650e-02 -1.807186007499694824e-02 -4.390349984169006348e-02
5.450000000000000000e+02 6.515855193138122559e-01 -1.632748031616210938e+01 -8.020184468477964401e-04 2.650351496413350105e-03 5.544999148696660995e-04 -5.610498599708080292e-03
5.460000000000000000e+02 2.007951021194458008e+00 -1.764935684204101562e+01 -2.508471719920635223e-03 -2.505516260862350464e-02 -8.269090205430984497e-03 -1.928136125206947327e-02
5.470000000000000000e+02 2.083440542221069336e+00 -2.041960716247558594e+01 -2.484009368345141411e-03 -5.466243252158164978e-02 -1.714393310248851776e-02 -2.618455328047275543e-02
5.480000000000000000e+02 7.842099666595458984e-01 -2.762372207641601562e+01 5.918696988373994827e-04 -1.442862004041671753e-01 -4.310829937458038330e-02 -1.053381338715553284e-02
5.490000000000000000e+02 2.436505794525146484e+00 -2.762149238586425781e+01 1.426608068868517876e-03 -1.437726765871047974e-01 -4.270381852984428406e-02 -3.169639781117439270e-02
5.500000000000000000e+02 8.406251668930053711e-01 -3.453321456909179688e+01 6.269420264288783073e-04 -2.254701554775238037e-01 -6.745296716690063477e-02 -6.741624791175127029e-03
5.510000000000000000e+02 9.497908949851989746e-01 -3.591591644287109375e+01 -4.193283966742455959e-04 -2.361465543508529663e-01 -7.096976041793823242e-02 -6.820251699537038803e-03
5.520000000000000000e+02 1.132163166999816895e+00 -4.025873184204101562e+01 7.386988145299255848e-04 -2.561544775962829590e-01 -7.662473618984222412e-02 -2.645917236804962158e-03
5.530000000000000000e+02 1.037374258041381836e+00 -3.733903503417968750e+01 6.537629524245858192e-04 -2.454270571470260620e-01 -7.343199104070663452e-02 -6.424219347536563873e-03
5.540000000000000000e+02 3.544702529907226562e+00 -3.995449066162109375e+01 1.007213629782199860e-02 -2.303630113601684570e-01 -6.608726084232330322e-02 -7.982233539223670959e-03
5.550000000000000000e+02 1.337632083892822266e+01 -4.069686508178710938e+01 7.333627343177795410e-02 -2.104146629571914673e-01 -4.112351685762405396e-02 -1.584100723266601562e-02
5.560000000000000000e+02 1.017498493194580078e+01 -3.947922897338867188e+01 4.601079970598220825e-02 -2.067096084356307983e-01 -4.820964112877845764e-02 -2.305532619357109070e-02
5.570000000000000000e+02 1.195765209197998047e+01 -3.632288360595703125e+01 5.883529037237167358e-02 -2.023152858018875122e-01 -4.304400086402893066e-02 -5.283593386411666870e-02
5.580000000000000000e+02 1.299188804626464844e+01 -3.309580230712890625e+01 5.632445216178894043e-02 -1.937151551246643066e-01 -4.121721163392066956e-02 -8.151960372924804688e-02
5.590000000000000000e+02 1.411886692047119141e+01 -3.007000923156738281e+01 5.064738914370536804e-02 -1.875293701887130737e-01 -4.106459394097328186e-02 -1.057367250323295593e-01
5.600000000000000000e+02 1.191838455200195312e+01 -2.843146896362304688e+01 3.223819285631179810e-02 -1.718947440385818481e-01 -4.189696535468101501e-02 -1.050125882029533386e-01
5.610000000000000000e+02 1.323475170135498047e+01 -2.279059219360351562e+01 -7.879555225372314453e-03 -1.427466720342636108e-01 -4.518786817789077759e-02 -1.361791789531707764e-01
5.620000000000000000e+02 1.057530403137207031e+01 -1.943587875366210938e+01 -3.435637801885604858e-02 -9.499439597129821777e-02 -3.880523145198822021e-02 -1.078089848160743713e-01
5.630000000000000000e+02 1.344473743438720703e+01 -1.664698600769042969e+01 -7.253199070692062378e-02 -7.900972664356231689e-02 -4.546251520514488220e-02 -1.208230257034301758e-01
5.640000000000000000e+02 1.552264213562011719e+01 -1.378623199462890625e+01 -1.503411233425140381e-01 -5.498594790697097778e-02 -6.159811839461326599e-02 -1.250439733266830444e-01
5.650000000000000000e+02 1.411750411987304688e+01 -8.719528198242187500e+00 -7.172964513301849365e-02 -5.417630076408386230e-03 -2.314418368041515350e-02 -1.119863241910934448e-02
5.660000000000000000e+02 1.580669116973876953e+01 -6.918287754058837891e+00 -4.032636806368827820e-02 -5.744606722146272659e-03 -1.382129266858100891e-02 -1.517978613264858723e-03
5.670000000000000000e+02 1.652908515930175781e+01 -3.828739881515502930e+00 2.977683395147323608e-02 3.149037808179855347e-02 1.838016323745250702e-02 -1.333770621567964554e-02
5.680000000000000000e+02 1.485080623626708984e+01 -3.722597885131835938e+01 8.415595442056655884e-02 -2.087965905666351318e-01 -3.739219158887863159e-02 -5.238267406821250916e-02
5.690000000000000000e+02 1.589876747131347656e+01 -3.399224853515625000e+01 8.372196555137634277e-02 -2.055491358041763306e-01 -3.654814884066581726e-02 -8.347041159868240356e-02
5.700000000000000000e+02 1.680023956298828125e+01 -3.105481910705566406e+01 7.538408786058425903e-02 -2.003917545080184937e-01 -3.750229999423027039e-02 -1.076813116669654846e-01
5.710000000000000000e+02 1.552276992797851562e+01 -2.754883384704589844e+01 4.735716059803962708e-02 -1.853567808866500854e-01 -4.139988496899604797e-02 -1.266058087348937988e-01
5.720000000000000000e+02 1.617909812927246094e+01 -2.235197639465332031e+01 -3.987980540841817856e-03 -1.686495691537857056e-01 -5.179126560688018799e-02 -1.583039313554763794e-01
5.730000000000000000e+02 1.562762832641601562e+01 -1.872046852111816406e+01 -5.484690889716148376e-02 -1.286707967519760132e-01 -5.505531281232833862e-02 -1.627184599637985229e-01
5.740000000000000000e+02 1.807956314086914062e+01 -1.658462333679199219e+01 -1.001037582755088806e-01 -1.615026593208312988e-01 -7.848192751407623291e-02 -2.009536772966384888e-01
5.750000000000000000e+02 2.050899505615234375e+01 -1.306825923919677734e+01 -2.249536812305450439e-01 -1.717383712530136108e-01 -1.190076172351837158e-01 -2.541791498661041260e-01
5.760000000000000000e+02 1.885049629211425781e+01 -9.356211662292480469e+00 -1.756689548492431641e-01 4.593563452363014221e-02 -3.891999647021293640e-02 -2.249868959188461304e-02
5.770000000000000000e+02 1.975132751464843750e+01 -1.107102870941162109e+01 -3.182077705860137939e-01 1.084973942488431931e-02 -9.220740199089050293e-02 -1.203526407480239868e-01
5.780000000000000000e+02 1.781058120727539062e+01 -4.096741867065429688e+01 1.209641396999359131e-01 -2.189694195985794067e-01 -2.940158732235431671e-02 -1.475426461547613144e-02
5.790000000000000000e+02 1.844586753845214844e+01 -3.782214736938476562e+01 1.202785596251487732e-01 -2.177679240703582764e-01 -2.924680709838867188e-02 -5.016780272126197815e-02
5.800000000000000000e+02 1.908615112304687500e+01 -3.463456726074218750e+01 1.164347156882286072e-01 -2.146149277687072754e-01 -2.945406176149845123e-02 -8.440389484167098999e-02
5.810000000000000000e+02 1.967323303222656250e+01 -3.159761810302734375e+01 9.973666816949844360e-02 -2.085759788751602173e-01 -3.265179321169853210e-02 -1.122023016214370728e-01
5.820000000000000000e+02 1.894363594055175781e+01 -2.672769165039062500e+01 5.843356251716613770e-02 -2.001804858446121216e-01 -4.252407699823379517e-02 -1.401164084672927856e-01
5.830000000000000000e+02 1.825120353698730469e+01 -2.031394767761230469e+01 -1.542113255709409714e-02 -1.912671476602554321e-01 -6.200648471713066101e-02 -1.784472018480300903e-01
5.840000000000000000e+02 2.180590438842773438e+01 -1.356238269805908203e+01 -2.059674710035324097e-01 -2.895692586898803711e-01 -1.486610174179077148e-01 -3.069823384284973145e-01
5.850000000000000000e+02 2.140104103088378906e+01 -1.514152908325195312e+01 -9.608913958072662354e-02 -2.836795151233673096e-01 -1.139305904507637024e-01 -2.455671280622482300e-01
5.860000000000000000e+02 2.862154006958007812e+01 -3.599712753295898438e+01 2.288641184568405151e-01 -2.175661623477935791e-01 3.389386693015694618e-03 -8.945329487323760986e-02
5.870000000000000000e+02 2.926569747924804688e+01 -3.295238494873046875e+01 2.009527832269668579e-01 -2.050959765911102295e-01 -1.242955448105931282e-03 -1.306192576885223389e-01
5.880000000000000000e+02 2.969647789001464844e+01 -2.998234558105468750e+01 1.483091413974761963e-01 -1.821141242980957031e-01 -1.014149468392133713e-02 -1.645445078611373901e-01
5.890000000000000000e+02 3.022462081909179688e+01 -2.721963310241699219e+01 7.878158241510391235e-02 -1.548086702823638916e-01 -2.280812710523605347e-02 -1.794263571500778198e-01
5.900000000000000000e+02 3.031140708923339844e+01 -2.459441566467285156e+01 5.924195051193237305e-03 -1.158343255519866943e-01 -3.297303989529609680e-02 -1.700817346572875977e-01
5.910000000000000000e+02 3.019074821472167969e+01 -2.012977790832519531e+01 -9.171532094478607178e-02 -3.959747403860092163e-02 -3.939383849501609802e-02 -7.972773164510726929e-02
5.920000000000000000e+02 3.224628448486328125e+01 -1.140493297576904297e+01 7.886736094951629639e-02 5.619497299194335938e-01 1.922451257705688477e-01 -1.682217717170715332e-01
5.930000000000000000e+02 3.223617935180664062e+01 -4.068346786499023438e+01 3.104791343212127686e-01 -2.136904597282409668e-01 2.903660386800765991e-02 -2.914265543222427368e-02
5.940000000000000000e+02 3.225390625000000000e+01 -3.707786941528320312e+01 2.922956645488739014e-01 -2.122230231761932373e-01 2.402179501950740814e-02 -8.347602933645248413e-02
5.950000000000000000e+02 3.263436126708984375e+01 -3.367863082885742188e+01 2.534613311290740967e-01 -1.965506374835968018e-01 1.707320846617221832e-02 -1.413222700357437134e-01
5.960000000000000000e+02 3.288649368286132812e+01 -3.064171028137207031e+01 1.919834464788436890e-01 -1.802715957164764404e-01 3.513553878292441368e-03 -1.792698204517364502e-01
5.970000000000000000e+02 3.339583587646484375e+01 -2.792538261413574219e+01 1.145348176360130310e-01 -1.492891758680343628e-01 -1.042630989104509354e-02 -2.147645950317382812e-01
5.980000000000000000e+02 3.424910736083984375e+01 -2.369846534729003906e+01 -5.106328427791595459e-02 -8.878935873508453369e-02 -4.195579141378402710e-02 -2.685609459877014160e-01
5.990000000000000000e+02 3.397908020019531250e+01 -2.185908699035644531e+01 -1.303146034479141235e-01 -3.629451384767889977e-03 -4.018321633338928223e-02 -2.401778697967529297e-01
6.000000000000000000e+02 3.716716766357421875e+01 -1.867990875244140625e+01 -3.212610781192779541e-01 2.506519854068756104e-02 -8.885876089334487915e-02 -3.987051546573638916e-01
6.010000000000000000e+02 3.723808288574218750e+01 -4.071757125854492188e+01 3.980173468589782715e-01 -1.747446656227111816e-01 6.698179990053176880e-02 -3.154779598116874695e-02
6.020000000000000000e+02 3.666938018798828125e+01 -3.720341491699218750e+01 3.684796988964080811e-01 -1.729902327060699463e-01 5.864684283733367920e-02 -9.022450447082519531e-02
6.030000000000000000e+02 3.612795639038085938e+01 -3.390150070190429688e+01 3.099864125251770020e-01 -1.747588217258453369e-01 4.056827351450920105e-02 -1.458121091127395630e-01
6.040000000000000000e+02 3.594086837768554688e+01 -3.096367835998535156e+01 2.317730784416198730e-01 -1.696500927209854126e-01 1.863689534366130829e-02 -1.914789974689483643e-01
6.050000000000000000e+02 3.747575378417968750e+01 -2.782120895385742188e+01 1.680157482624053955e-01 -1.738084256649017334e-01 -1.737806829623878002e-03 -2.306527346372604370e-01
6.060000000000000000e+02 3.641124725341796875e+01 -2.566774368286132812e+01 6.577950716018676758e-02 -1.620937883853912354e-01 -2.889428287744522095e-02 -2.728660702705383301e-01
6.070000000000000000e+02 3.544996261596679688e+01 -1.967246055603027344e+01 -2.536267936229705811e-01 6.576191633939743042e-02 -5.635945871472358704e-02 -3.007017672061920166e-01
6.080000000000000000e+02 4.094983673095703125e+01 -3.657757568359375000e+01 4.319635927677154541e-01 -9.904699027538299561e-02 9.987498074769973755e-02 -9.572830796241760254e-02
6.090000000000000000e+02 3.922613906860351562e+01 -3.334884262084960938e+01 3.359450101852416992e-01 -1.406256407499313354e-01 5.859581008553504944e-02 -1.546485424041748047e-01
6.100000000000000000e+02 3.940826034545898438e+01 -2.975543403625488281e+01 2.580772340297698975e-01 -1.532665938138961792e-01 3.144319355487823486e-02 -1.992386281490325928e-01
6.110000000000000000e+02 3.927194976806640625e+01 -2.648756980895996094e+01 1.443526297807693481e-01 -1.826977282762527466e-01 -1.150352880358695984e-02 -2.464868724346160889e-01
6.120000000000000000e+02 4.166803741455078125e+01 -1.938296318054199219e+01 -1.966202408075332642e-01 -5.353475213050842285e-01 -2.195903211832046509e-01 -1.966863423585891724e-01
6.130000000000000000e+02 4.222912597656250000e+01 -4.043170547485351562e+01 4.879627823829650879e-01 -5.971790477633476257e-02 1.284734606742858887e-01 -3.384801372885704041e-02
6.140000000000000000e+02 4.155851745605468750e+01 -3.190711212158203125e+01 3.338630795478820801e-01 -1.162916123867034912e-01 6.527143716812133789e-02 -1.631366461515426636e-01
6.150000000000000000e+02 4.327204132080078125e+01 -2.990656661987304688e+01 3.030915856361389160e-01 -6.247218698263168335e-02 7.218582183122634888e-02 -1.720333099365234375e-01
6.160000000000000000e+02 4.109849166870117188e+01 -2.799391937255859375e+01 2.139908373355865479e-01 -1.572299003601074219e-01 1.702827960252761841e-02 -2.033478319644927979e-01
6.170000000000000000e+02 4.406252288818359375e+01 -2.361612319946289062e+01 6.968475133180618286e-02 -1.046578735113143921e-01 -1.049193646758794785e-02 -1.257038861513137817e-01
6.180000000000000000e+02 4.266456604003906250e+01 -2.064971351623535156e+01 3.510966198518872261e-04 -3.005990982055664062e-01 -9.007440507411956787e-02 -8.119875192642211914e-02
6.190000000000000000e+02 4.413930511474609375e+01 -3.457648468017578125e+01 4.417002201080322266e-01 -2.019967697560787201e-02 1.264501661062240601e-01 -1.181079894304275513e-01
6.200000000000000000e+02 4.589841842651367188e+01 -3.173022079467773438e+01 3.863998651504516602e-01 3.284105286002159119e-02 1.257722675800323486e-01 -1.515249460935592651e-01
6.210000000000000000e+02 4.697434616088867188e+01 -2.903947257995605469e+01 2.999216020107269287e-01 7.220764458179473877e-02 1.116387695074081421e-01 -1.724488437175750732e-01
6.220000000000000000e+02 4.758323287963867188e+01 -2.642347526550292969e+01 1.341168582439422607e-01 1.209823563694953918e-01 7.652976363897323608e-02 -1.887927353382110596e-01
6.230000000000000000e+02 4.762746810913085938e+01 -2.404298973083496094e+01 -1.105556171387434006e-02 1.630854606628417969e-01 4.560896754264831543e-02 -1.760970354080200195e-01
6.240000000000000000e+02 4.682074737548828125e+01 -2.133233261108398438e+01 -1.324405372142791748e-01 1.838266402482986450e-01 1.541582681238651276e-02 -9.322550892829895020e-02
6.250000000000000000e+02 4.792472839355468750e+01 -2.229673194885253906e+01 -1.551572084426879883e-01 2.201969474554061890e-01 1.951192319393157959e-02 -1.557964682579040527e-01
6.260000000000000000e+02 5.664720153808593750e+01 -3.778374481201171875e+01 5.980410575866699219e-01 7.851658463478088379e-01 4.149620532989501953e-01 1.106994878500699997e-02
6.270000000000000000e+02 5.894248199462890625e+01 -3.449158477783203125e+01 5.612745881080627441e-01 9.647784233093261719e-01 4.578159153461456299e-01 1.122519895434379578e-01
6.280000000000000000e+02 5.859400558471679688e+01 -3.066444778442382812e+01 5.008575916290283203e-01 7.574321031570434570e-01 3.774869143962860107e-01 9.538289904594421387e-02
6.290000000000000000e+02 5.683923339843750000e+01 -2.668551063537597656e+01 3.923977017402648926e-01 4.348905682563781738e-01 2.481864839792251587e-01 -1.784920133650302887e-02
6.300000000000000000e+02 5.722745895385742188e+01 -4.091822814941406250e+01 6.160613298416137695e-01 8.437290787696838379e-01 4.379371404647827148e-01 1.764501212164759636e-03
6.310000000000000000e+02 6.072204589843750000e+01 -3.728223800659179688e+01 5.449761748313903809e-01 1.301765561103820801e+00 5.540225505828857422e-01 1.081726402044296265e-01
6.320000000000000000e+02 6.269593811035156250e+01 -3.103113746643066406e+01 4.865517318248748779e-01 1.369838237762451172e+00 5.569170117378234863e-01 2.353231757879257202e-01
6.330000000000000000e+02 6.258164215087890625e+01 -2.290257835388183594e+01 2.447207719087600708e-01 9.206601381301879883e-01 3.496142625808715820e-01 2.054727822542190552e-01
6.340000000000000000e+02 6.107725524902343750e+01 -2.017567443847656250e+01 -1.153059452772140503e-01 6.555080413818359375e-01 1.620606333017349243e-01 -1.409718487411737442e-02
6.350000000000000000e+02 6.213629531860351562e+01 -4.070233535766601562e+01 5.229254961013793945e-01 1.544771790504455566e+00 6.203091740608215332e-01 5.025514587759971619e-02
6.360000000000000000e+02 6.355636978149414062e+01 -3.545998764038085938e+01 4.887780547142028809e-01 1.661817789077758789e+00 6.451787948608398438e-01 1.716028451919555664e-01
6.370000000000000000e+02 6.501876068115234375e+01 -3.303736495971679688e+01 4.330443739891052246e-01 1.911772727966308594e+00 7.034451365470886230e-01 3.083668351173400879e-01
6.380000000000000000e+02 6.578958129882812500e+01 -2.439787864685058594e+01 3.901042044162750244e-01 1.554788827896118164e+00 5.834679007530212402e-01 5.027211904525756836e-01
6.390000000000000000e+02 6.733909606933593750e+01 -4.069036102294921875e+01 3.658177554607391357e-01 2.320967197418212891e+00 8.060355186462402344e-01 7.284858822822570801e-02
6.400000000000000000e+02 6.774683380126953125e+01 -3.430266189575195312e+01 3.518904447555541992e-01 2.358246326446533203e+00 8.130410313606262207e-01 3.523123562335968018e-01
6.410000000000000000e+02 6.622138214111328125e+01 -3.103539466857910156e+01 3.977493345737457275e-01 2.035865068435668945e+00 7.300843000411987305e-01 4.226238429546356201e-01
6.420000000000000000e+02 6.757381439208984375e+01 -2.809143447875976562e+01 3.536508381366729736e-01 2.256409883499145508e+00 7.830182313919067383e-01 5.652372241020202637e-01
6.430000000000000000e+02 7.092170715332031250e+01 -3.709419250488281250e+01 2.239996492862701416e-01 2.963929414749145508e+00 9.563786983489990234e-01 1.757153421640396118e-01
6.440000000000000000e+02 7.042069244384765625e+01 -3.459687805175781250e+01 2.590167522430419922e-01 2.803504467010498047e+00 9.187564253807067871e-01 2.849431335926055908e-01
6.450000000000000000e+02 7.044630432128906250e+01 -3.243959808349609375e+01 2.516916394233703613e-01 2.860269069671630859e+00 9.335882067680358887e-01 3.983294367790222168e-01
6.460000000000000000e+02 7.241320037841796875e+01 -4.121370315551757812e+01 1.669361740350723267e-01 3.205283403396606445e+00 1.011665821075439453e+00 5.502851307392120361e-02
6.470000000000000000e+02 7.553188323974609375e+01 -3.509140014648437500e+01 7.602515816688537598e-02 3.791622877120971680e+00 1.160294413566589355e+00 2.064835578203201294e-01
6.480000000000000000e+02 7.634057617187500000e+01 -4.161542129516601562e+01 3.988680243492126465e-02 3.870349407196044922e+00 1.173070788383483887e+00 -1.799966790713369846e-03
6.490000000000000000e+02 7.623952484130859375e+01 -3.995120620727539062e+01 4.901723936200141907e-02 3.800653934478759766e+00 1.154901385307312012e+00 2.881978824734687805e-02
6.500000000000000000e+02 7.897101593017578125e+01 -3.745616912841796875e+01 1.426627207547426224e-02 4.218772888183593750e+00 1.269911646842956543e+00 3.053379990160465240e-02
6.510000000000000000e+02 7.657266998291015625e+01 -3.843796157836914062e+01 4.706730693578720093e-02 3.828696489334106445e+00 1.162729144096374512e+00 8.395764976739883423e-02
6.520000000000000000e+02 7.894696044921875000e+01 -4.174849319458007812e+01 2.036994323134422302e-02 4.138061523437500000e+00 1.247529387474060059e+00 1.530691329389810562e-02
6.530000000000000000e+02 7.936519622802734375e+01 -2.921939468383789062e+01 7.590158376842737198e-03 4.802234172821044922e+00 1.442947268486022949e+00 5.766756087541580200e-02
6.540000000000000000e+02 7.809190368652343750e+01 -2.779198837280273438e+01 4.923202097415924072e-03 4.702141284942626953e+00 1.412119388580322266e+00 1.777078658342361450e-01
6.550000000000000000e+02 7.544556427001953125e+01 -2.769918251037597656e+01 4.758474975824356079e-02 4.125360012054443359e+00 1.251883387565612793e+00 3.918221294879913330e-01
6.560000000000000000e+02 7.936816406250000000e+01 -2.508584022521972656e+01 -2.335919067263603210e-03 5.216249465942382812e+00 1.564174056053161621e+00 5.832507088780403137e-02
6.570000000000000000e+02 7.936628723144531250e+01 -1.535905075073242188e+01 3.764942660927772522e-02 5.762531280517578125e+00 1.740054249763488770e+00 9.708680957555770874e-02
6.580000000000000000e+02 7.360602569580078125e+01 -1.090371036529541016e+01 1.868672072887420654e-01 5.962423801422119141e+00 1.844787359237670898e+00 1.173522949218750000e+00
6.590000000000000000e+02 7.934950256347656250e+01 -1.259663009643554688e+01 3.802074491977691650e-02 6.601187705993652344e+00 1.991762518882751465e+00 2.757942974567413330e-01
6.600000000000000000e+02 7.802925109863281250e+01 -1.135905551910400391e+01 5.924138054251670837e-02 6.932103157043457031e+00 2.097403287887573242e+00 9.292539954185485840e-01
6.610000000000000000e+02 7.340586853027343750e+01 -8.396605491638183594e+00 -4.691341221332550049e-01 4.531103134155273438e+00 1.218590736389160156e+00 9.951220750808715820e-01
6.620000000000000000e+02 7.153084564208984375e+01 -6.857231140136718750e+00 -5.295879840850830078e-01 1.576217174530029297e+00 3.139887750148773193e-01 1.870085000991821289e-01
6.630000000000000000e+02 7.934037780761718750e+01 -9.824938774108886719e+00 1.220090687274932861e-02 8.048077583312988281e+00 2.418083429336547852e+00 3.713536560535430908e-01
6.640000000000000000e+02 7.805394744873046875e+01 -5.550846099853515625e+00 -4.483789205551147461e-02 8.845809936523437500e+00 2.640291452407836914e+00 8.314220905303955078e-01
6.650000000000000000e+02 7.587091064453125000e+01 -4.690188884735107422e+00 -1.483414322137832642e-01 6.464455604553222656e+00 1.894834280014038086e+00 1.125011086463928223e+00
6.660000000000000000e+02 7.935710144042968750e+01 -5.581603050231933594e+00 -2.564098499715328217e-02 1.036315536499023438e+01 3.101254463195800781e+00 3.144758045673370361e-01
6.670000000000000000e+02 7.829978942871093750e+01 -4.119727134704589844e+00 -5.331185832619667053e-02 9.643278121948242188e+00 2.876989841461181641e+00 7.140119075775146484e-01
6.680000000000000000e+02 7.506758117675781250e+01 1.109783887863159180e+00 -6.497469544410705566e-01 5.114217758178710938e+00 1.339341282844543457e+00 1.734101891517639160e+00
6.690000000000000000e+02 7.948211669921875000e+01 -2.800400972366333008e+00 -2.619864791631698608e-02 1.176335525512695312e+01 3.521147012710571289e+00 1.993911564350128174e-01
6.700000000000000000e+02 7.442263031005859375e+01 1.791648387908935547e+00 3.333521485328674316e-01 1.878976345062255859e+00 6.636985540390014648e-01 1.141495227813720703e+00
6.710000000000000000e+02 7.446253204345703125e+01 1.064416289329528809e+00 -6.951639652252197266e-01 3.102748632431030273e+00 7.222753763198852539e-01 1.463766694068908691e+00
6.720000000000000000e+02 7.945143890380859375e+01 1.399753570556640625e+00 2.879625931382179260e-02 1.289708042144775391e+01 3.877763032913208008e+00 -8.013553917407989502e-03
6.730000000000000000e+02 7.581221771240234375e+01 5.194224357604980469e+00 4.821961000561714172e-02 8.571872711181640625e+00 2.586027622222900391e+00 7.442923188209533691e-01
6.740000000000000000e+02 7.952056121826171875e+01 4.203905582427978516e+00 -6.500636786222457886e-02 1.341210842132568359e+01 4.004130840301513672e+00 -1.874551549553871155e-02
6.750000000000000000e+02 7.960457611083984375e+01 5.530308246612548828e+00 -8.012393862009048462e-02 1.323102188110351562e+01 3.945269346237182617e+00 -2.638053596019744873e-01
6.760000000000000000e+02 7.719454193115234375e+01 6.827250957489013672e+00 -1.028309941291809082e+00 1.264892292022705078e+01 3.486183881759643555e+00 5.395394325256347656e+00
6.770000000000000000e+02 7.700846862792968750e+01 6.910347461700439453e+00 -5.230575203895568848e-01 1.097608375549316406e+01 3.135907888412475586e+00 5.100466251373291016e+00
6.780000000000000000e+02 7.913175201416015625e+01 9.392731666564941406e+00 -2.259106487035751343e-01 1.160498237609863281e+01 3.413721323013305664e+00 3.817494153976440430e+00
6.790000000000000000e+02 7.837651062011718750e+01 9.974286079406738281e+00 -3.349553585052490234e+00 1.950169944763183594e+01 4.845643997192382812e+00 1.839603543281555176e+00
6.800000000000000000e+02 7.788278961181640625e+01 1.140707206726074219e+01 -2.176122188568115234e+00 1.393624591827392578e+01 3.528037071228027344e+00 -1.311093926429748535e+00
6.810000000000000000e+02 7.638986206054687500e+01 1.664869308471679688e+01 2.864415049552917480e-01 7.125565528869628906e+00 2.223602056503295898e+00 -1.747382521629333496e+00
6.820000000000000000e+02 7.241838073730468750e+01 1.931361198425292969e+01 4.429720342159271240e-01 3.156605482101440430e+00 1.079873204231262207e+00 -1.346479535102844238e+00
6.830000000000000000e+02 6.686334991455078125e+01 2.507555580139160156e+01 6.788440942764282227e-01 1.268384575843811035e+00 5.841686129570007324e-01 -6.296592354774475098e-01
6.840000000000000000e+02 6.103488159179687500e+01 3.226622772216796875e+01 7.688401937484741211e-01 7.566255331039428711e-01 4.576397240161895752e-01 -1.233356446027755737e-01
6.850000000000000000e+02 5.622172927856445312e+01 3.471117019653320312e+01 7.697476148605346680e-01 2.829754054546356201e-01 3.158169090747833252e-01 8.822293579578399658e-02
6.860000000000000000e+02 5.430291366577148438e+01 3.735346603393554688e+01 7.969141006469726562e-01 1.567708402872085571e-01 2.861054837703704834e-01 8.336888998746871948e-02
6.870000000000000000e+02 5.285807418823242188e+01 4.069698715209960938e+01 8.082124590873718262e-01 7.877735793590545654e-02 2.660969495773315430e-01 3.656138107180595398e-02
6.880000000000000000e+02 4.782966232299804688e+01 4.054179763793945312e+01 6.946883797645568848e-01 -1.611396074295043945e-01 1.600646376609802246e-01 5.536551401019096375e-02
6.890000000000000000e+02 4.277548217773437500e+01 4.065757369995117188e+01 5.395713448524475098e-01 -2.785542905330657959e-01 7.830511033535003662e-02 5.744719877839088440e-02
6.900000000000000000e+02 4.333692932128906250e+01 3.708356094360351562e+01 5.099968314170837402e-01 -2.613059282302856445e-01 7.460726052522659302e-02 1.544513404369354248e-01
6.910000000000000000e+02 4.389761734008789062e+01 3.374818420410156250e+01 4.291757047176361084e-01 -2.472012490034103394e-01 5.459233373403549194e-02 2.552814185619354248e-01
6.920000000000000000e+02 4.171848678588867188e+01 3.034302711486816406e+01 2.239130586385726929e-01 -2.300982922315597534e-01 -1.855566981248557568e-03 3.298057317733764648e-01
6.930000000000000000e+02 4.180948638916015625e+01 2.268117332458496094e+01 -2.835112214088439941e-01 -8.954348415136337280e-02 -1.119164153933525085e-01 3.893421888351440430e-01
6.940000000000000000e+02 4.453724288940429688e+01 2.002288818359375000e+01 -5.760120153427124023e-01 -1.030354946851730347e-01 -2.037142515182495117e-01 4.325420558452606201e-01
6.950000000000000000e+02 4.257497024536132812e+01 1.718827056884765625e+01 -7.197477817535400391e-01 9.569352865219116211e-02 -1.872162818908691406e-01 2.055191248655319214e-01
6.960000000000000000e+02 3.850643539428710938e+01 1.374232196807861328e+01 -3.314609527587890625e-01 3.937377035617828369e-02 -8.762615174055099487e-02 7.808913290500640869e-02
6.970000000000000000e+02 4.417075347900390625e+01 1.315798759460449219e+01 -2.784533500671386719e-01 9.118632413446903229e-03 -8.080042153596878052e-02 -9.010608494281768799e-02
6.980000000000000000e+02 4.472927856445312500e+01 1.503118991851806641e+01 -7.078273892402648926e-01 7.420906424522399902e-02 -1.900854855775833130e-01 -1.114854365587234497e-01
6.990000000000000000e+02 4.402146530151367188e+01 1.194688034057617188e+01 -8.920843154191970825e-02 -1.759350858628749847e-02 -3.204058110713958740e-02 -5.158007517457008362e-02
7.000000000000000000e+02 7.952712249755859375e+01 1.539698028564453125e+01 6.412386428564786911e-03 1.275006008148193359e+01 3.826941728591918945e+00 -3.516413271427154541e-01
7.010000000000000000e+02 7.949841308593750000e+01 1.675152206420898438e+01 -1.581572182476520538e-02 1.161055278778076172e+01 3.478420972824096680e+00 -3.602549433708190918e-01
7.020000000000000000e+02 7.005541229248046875e+01 2.336881446838378906e+01 5.810167193412780762e-01 2.262505292892456055e+00 8.530566096305847168e-01 -1.041831016540527344e+00
7.030000000000000000e+02 6.663655090332031250e+01 2.694630432128906250e+01 6.939789652824401855e-01 1.440559029579162598e+00 6.403614282608032227e-01 -5.977423191070556641e-01
7.040000000000000000e+02 6.402799987792968750e+01 3.174952697753906250e+01 7.607088685035705566e-01 1.248580574989318848e+00 6.027868390083312988e-01 -3.198360204696655273e-01
7.050000000000000000e+02 5.830511474609375000e+01 3.316807174682617188e+01 7.591532468795776367e-01 4.636292755603790283e-01 3.668347597122192383e-01 2.290944010019302368e-02
7.060000000000000000e+02 5.812733078002929688e+01 3.815526199340820312e+01 8.539872765541076660e-01 6.021912097930908203e-01 4.368535578250885010e-01 -1.227601245045661926e-02
7.070000000000000000e+02 7.855803680419921875e+01 1.552265453338623047e+01 3.729610890150070190e-02 1.104640769958496094e+01 3.325111150741577148e+00 -1.095532059669494629e+00
7.080000000000000000e+02 7.811347198486328125e+01 2.070899772644042969e+01 7.880933582782745361e-02 8.020980834960937500e+00 2.429936885833740234e+00 -8.429116010665893555e-01
7.090000000000000000e+02 7.500318145751953125e+01 2.428142356872558594e+01 2.871893644332885742e-01 5.084778785705566406e+00 1.611590504646301270e+00 -1.148927450180053711e+00
7.100000000000000000e+02 7.058019256591796875e+01 2.661823272705078125e+01 5.814112424850463867e-01 2.864424228668212891e+00 1.033750653266906738e+00 -1.009545922279357910e+00
7.110000000000000000e+02 6.688400268554687500e+01 3.153990554809570312e+01 6.991198062896728516e-01 1.905256748199462891e+00 7.813129425048828125e-01 -5.191501975059509277e-01
7.120000000000000000e+02 6.460139465332031250e+01 3.466343688964843750e+01 7.396581172943115234e-01 1.552032828330993652e+00 6.875072717666625977e-01 -2.937609255313873291e-01
7.130000000000000000e+02 6.194778823852539062e+01 3.814936065673828125e+01 8.057259917259216309e-01 1.223473548889160156e+00 6.087598204612731934e-01 -1.024162173271179199e-01
7.140000000000000000e+02 5.765589904785156250e+01 4.106022644042968750e+01 8.678695559501647949e-01 5.810065865516662598e-01 4.346628487110137939e-01 -5.567280575633049011e-03
7.150000000000000000e+02 7.937829589843750000e+01 2.084774017333984375e+01 2.396560646593570709e-02 8.947637557983398438e+00 2.691481113433837891e+00 -3.027491867542266846e-01
7.160000000000000000e+02 7.930369567871093750e+01 2.361412429809570312e+01 1.249317079782485962e-02 7.712566852569580078e+00 2.317517995834350586e+00 -2.617300748825073242e-01
7.170000000000000000e+02 7.418842315673828125e+01 2.698116302490234375e+01 3.033788204193115234e-01 4.519834518432617188e+00 1.446964025497436523e+00 -9.736582040786743164e-01
7.180000000000000000e+02 7.185232543945312500e+01 3.052822875976562500e+01 4.321645498275756836e-01 3.426276445388793945e+00 1.157532334327697754e+00 -7.580338716506958008e-01
7.190000000000000000e+02 6.735072326660156250e+01 3.407490539550781250e+01 6.537702679634094238e-01 2.164859771728515625e+00 8.455890417098999023e-01 -4.542704820632934570e-01
7.200000000000000000e+02 6.544129943847656250e+01 3.764487075805664062e+01 6.998648047447204590e-01 1.883712410926818848e+00 7.750731706619262695e-01 -2.323437631130218506e-01
7.210000000000000000e+02 6.230508041381835938e+01 4.107392120361328125e+01 8.030590415000915527e-01 1.303503632545471191e+00 6.319687962532043457e-01 -3.000288456678390503e-02
7.220000000000000000e+02 7.801628875732421875e+01 2.205860710144042969e+01 7.992976158857345581e-02 7.489462375640869141e+00 2.270817518234252930e+00 -7.868179678916931152e-01
7.230000000000000000e+02 7.917700195312500000e+01 2.781583213806152344e+01 8.478941395878791809e-03 6.396935462951660156e+00 1.921624302864074707e+00 -2.055912762880325317e-01
7.240000000000000000e+02 6.983979797363281250e+01 3.354022598266601562e+01 5.244756937026977539e-01 2.854768037796020508e+00 1.013773083686828613e+00 -5.391870737075805664e-01
7.250000000000000000e+02 6.827252197265625000e+01 3.673202896118164062e+01 5.660802125930786133e-01 2.475389957427978516e+00 9.124410748481750488e-01 -3.169271349906921387e-01
7.260000000000000000e+02 6.672422027587890625e+01 4.083183288574218750e+01 6.069938540458679199e-01 2.268599033355712891e+00 8.626778125762939453e-01 -7.873642444610595703e-02
7.270000000000000000e+02 7.764775848388671875e+01 2.625628471374511719e+01 7.313825935125350952e-02 6.155686378479003906e+00 1.868647456169128418e+00 -6.135942339897155762e-01
7.280000000000000000e+02 7.912799072265625000e+01 3.205049896240234375e+01 4.262013826519250870e-03 5.555480957031250000e+00 1.667922854423522949e+00 -1.468359380960464478e-01
7.290000000000000000e+02 7.524340820312500000e+01 3.323361206054687500e+01 1.651972234249114990e-01 4.446853160858154297e+00 1.383615136146545410e+00 -4.646221399307250977e-01
7.300000000000000000e+02 7.045621490478515625e+01 3.562758255004882812e+01 4.332516193389892578e-01 3.068937301635742188e+00 1.050656676292419434e+00 -3.702282011508941650e-01
7.310000000000000000e+02 7.197192382812500000e+01 3.754350280761718750e+01 3.297615647315979004e-01 3.477828979492187500e+00 1.142277240753173828e+00 -3.444930911064147949e-01
7.320000000000000000e+02 7.915464782714843750e+01 3.062290382385253906e+01 -1.604713470442220569e-04 5.803454875946044922e+00 1.740988254547119141e+00 -1.503930836915969849e-01
7.330000000000000000e+02 7.360632324218750000e+01 3.585860824584960938e+01 2.455207556486129761e-01 3.935598611831665039e+00 1.254335761070251465e+00 -4.274234175682067871e-01
7.340000000000000000e+02 6.996812438964843750e+01 3.954256439208984375e+01 4.511318802833557129e-01 2.967717647552490234e+00 1.025654792785644531e+00 -1.492242366075515747e-01
7.350000000000000000e+02 7.722536468505859375e+01 3.347080993652343750e+01 7.285777479410171509e-02 4.962423324584960938e+00 1.510584354400634766e+00 -3.202146887779235840e-01
7.360000000000000000e+02 7.918482208251953125e+01 3.744924926757812500e+01 -1.567389629781246185e-02 4.967525482177734375e+00 1.485555529594421387e+00 -4.994941130280494690e-02
7.370000000000000000e+02 7.303645324707031250e+01 4.125815200805664062e+01 2.713437378406524658e-01 3.618424654006958008e+00 1.166930556297302246e+00 -8.658709377050399780e-02
7.380000000000000000e+02 7.518959808349609375e+01 3.738549804687500000e+01 1.486769616603851318e-01 4.249345779418945312e+00 1.319406867027282715e+00 -2.550418376922607422e-01
7.390000000000000000e+02 7.892510986328125000e+01 4.027476119995117188e+01 -2.505317889153957367e-02 4.868640422821044922e+00 1.453076124191284180e+00 -3.287116810679435730e-02
7.400000000000000000e+02 7.650125122070312500e+01 4.160983657836914062e+01 5.569258704781532288e-02 4.491502285003662109e+00 1.364158391952514648e+00 5.019075702875852585e-03
7.410000000000000000e+02 7.662019348144531250e+01 3.988766860961914062e+01 8.255856484174728394e-02 4.425609111785888672e+00 1.352450370788574219e+00 -5.877663940191268921e-02
7.420000000000000000e+02 3.892171096801757812e+01 3.652892303466796875e+01 3.733366131782531738e-01 -2.791980504989624023e-01 2.824157476425170898e-02 1.581370979547500610e-01
7.430000000000000000e+02 4.054227447509765625e+01 3.317836380004882812e+01 3.155329227447509766e-01 -2.576024830341339111e-01 1.737913303077220917e-02 2.588506340980529785e-01
7.440000000000000000e+02 3.947158432006835938e+01 2.933688735961914062e+01 1.320215463638305664e-01 -2.110767513513565063e-01 -2.371655963361263275e-02 3.180581033229827881e-01
7.450000000000000000e+02 3.927141952514648438e+01 2.597471427917480469e+01 -3.965796157717704773e-02 -1.544720530509948730e-01 -5.823900178074836731e-02 3.432515859603881836e-01
7.460000000000000000e+02 3.941831970214843750e+01 2.303903388977050781e+01 -2.304294407367706299e-01 -8.104190230369567871e-02 -9.344140440225601196e-02 3.245750665664672852e-01
7.470000000000000000e+02 3.852264785766601562e+01 1.960061645507812500e+01 -3.850981891155242920e-01 5.731204058974981308e-03 -1.138100922107696533e-01 2.057148367166519165e-01
7.480000000000000000e+02 4.038470840454101562e+01 1.629767036437988281e+01 -5.093761086463928223e-01 9.572364389896392822e-02 -1.240957304835319519e-01 1.107277572154998779e-01
7.490000000000000000e+02 3.665033721923828125e+01 1.373097801208496094e+01 -4.655155241489410400e-01 -2.743423543870449066e-02 -1.478849351406097412e-01 1.643904894590377808e-01
7.500000000000000000e+02 3.841848373413085938e+01 1.304781532287597656e+01 -2.505593299865722656e-01 2.571197040379047394e-02 -6.745421141386032104e-02 7.351926714181900024e-02
7.510000000000000000e+02 3.773905563354492188e+01 4.042223358154296875e+01 3.898711800575256348e-01 -2.856453657150268555e-01 3.126774728298187256e-02 5.445175245404243469e-02
7.520000000000000000e+02 3.780155181884765625e+01 3.183336639404296875e+01 2.187053859233856201e-01 -2.344586402177810669e-01 -4.725976381450891495e-03 2.548671066761016846e-01
7.530000000000000000e+02 3.575893020629882812e+01 2.998409271240234375e+01 1.156473457813262939e-01 -1.978360861539840698e-01 -2.465661987662315369e-02 2.500629723072052002e-01
7.540000000000000000e+02 3.609100341796875000e+01 2.627341270446777344e+01 -3.002739883959293365e-02 -1.426829546689987183e-01 -5.181310698390007019e-02 2.801730632781982422e-01
7.550000000000000000e+02 3.779355239868164062e+01 2.448750686645507812e+01 -1.249572113156318665e-01 -1.103462949395179749e-01 -7.059105485677719116e-02 3.072331547737121582e-01
7.560000000000000000e+02 3.703761291503906250e+01 2.161598968505859375e+01 -2.415003329515457153e-01 -5.647017061710357666e-02 -8.939114958047866821e-02 2.464541941881179810e-01
7.570000000000000000e+02 3.593686676025390625e+01 1.664925193786621094e+01 -3.915601670742034912e-01 -5.135750398039817810e-02 -1.328753083944320679e-01 8.320806175470352173e-02
7.580000000000000000e+02 3.570295715332031250e+01 1.384437274932861328e+01 -4.925786852836608887e-01 -1.256946772336959839e-01 -1.854820102453231812e-01 1.855101138353347778e-01
7.590000000000000000e+02 3.634495925903320312e+01 1.436448955535888672e+01 -4.427496790885925293e-01 -3.340398147702217102e-02 -1.428460925817489624e-01 5.535925924777984619e-02
7.600000000000000000e+02 3.709450149536132812e+01 1.321782875061035156e+01 -2.496738731861114502e-01 -3.627943247556686401e-02 -8.578599244356155396e-02 1.342112571001052856e-01
7.610000000000000000e+02 3.258902359008789062e+01 4.047874832153320312e+01 2.804317772388458252e-01 -2.594198882579803467e-01 6.303566507995128632e-03 4.640487581491470337e-02
7.620000000000000000e+02 3.550139236450195312e+01 3.465508270263671875e+01 2.549145221710205078e-01 -2.486397773027420044e-01 1.882421318441629410e-03 1.720372289419174194e-01
7.630000000000000000e+02 3.343405151367187500e+01 3.197508430480957031e+01 1.432452201843261719e-01 -2.048217654228210449e-01 -1.847296580672264099e-02 1.976645588874816895e-01
7.640000000000000000e+02 3.195491218566894531e+01 2.946688842773437500e+01 6.123920530080795288e-02 -1.664769053459167480e-01 -3.157131001353263855e-02 2.058285176753997803e-01
7.650000000000000000e+02 3.419044876098632812e+01 2.800658607482910156e+01 2.924468182027339935e-02 -1.587599664926528931e-01 -3.885458409786224365e-02 2.438535243272781372e-01
7.660000000000000000e+02 3.471548080444335938e+01 2.483938789367675781e+01 -9.142957627773284912e-02 -1.104111075401306152e-01 -6.055220589041709900e-02 2.572708427906036377e-01
7.670000000000000000e+02 3.387841033935546875e+01 2.340391159057617188e+01 -1.368146240711212158e-01 -8.840587735176086426e-02 -6.756614893674850464e-02 2.273871451616287231e-01
7.680000000000000000e+02 3.207814407348632812e+01 1.631192398071289062e+01 -3.091592788696289062e-01 -2.253975905478000641e-02 -9.950970858335494995e-02 1.263936460018157959e-01
7.690000000000000000e+02 3.109500122070312500e+01 1.314494228363037109e+01 -1.034580841660499573e-01 -1.526359282433986664e-02 -3.561650216579437256e-02 -2.325591631233692169e-02
7.700000000000000000e+02 3.363658523559570312e+01 1.458883476257324219e+01 -4.933006167411804199e-01 -5.704936757683753967e-02 -1.651050001382827759e-01 3.728025406599044800e-02
7.710000000000000000e+02 3.191012573242187500e+01 3.675149154663085938e+01 2.296429872512817383e-01 -2.382928580045700073e-01 -2.594959223642945290e-03 1.120965629816055298e-01
7.720000000000000000e+02 3.052532005310058594e+01 3.353781509399414062e+01 1.471760869026184082e-01 -2.004133611917495728e-01 -1.597118377685546875e-02 1.549414694309234619e-01
7.730000000000000000e+02 2.938381576538085938e+01 3.063713073730468750e+01 7.182741910219192505e-02 -1.627579182386398315e-01 -2.727914787828922272e-02 1.696730554103851318e-01
7.740000000000000000e+02 2.805519294738769531e+01 2.543159103393554688e+01 -5.329433083534240723e-02 -9.816361963748931885e-02 -4.543738439679145813e-02 1.649294793605804443e-01
7.750000000000000000e+02 3.027132987976074219e+01 2.483615684509277344e+01 -7.378602772951126099e-02 -9.822987020015716553e-02 -5.160477012395858765e-02 1.916273236274719238e-01
7.760000000000000000e+02 2.774117469787597656e+01 1.940905380249023438e+01 -1.830661147832870483e-01 -2.185040526092052460e-02 -6.147495657205581665e-02 1.121832728385925293e-01
7.770000000000000000e+02 2.974443244934082031e+01 1.564759349822998047e+01 -2.230467796325683594e-01 1.056012976914644241e-02 -6.374599784612655640e-02 7.822591066360473633e-02
7.780000000000000000e+02 2.925731277465820312e+01 1.341561508178710938e+01 -9.858462214469909668e-02 -1.088603027164936066e-02 -3.284119442105293274e-02 2.971424488350749016e-03
7.790000000000000000e+02 2.771364402770996094e+01 1.047599983215332031e+01 -1.237019803375005722e-02 -1.611210964620113373e-02 -8.544692769646644592e-03 -2.159802801907062531e-02
7.800000000000000000e+02 2.884478378295898438e+01 1.142772293090820312e+01 -2.290190942585468292e-02 -2.138678170740604401e-02 -1.328660733997821808e-02 -8.991112001240253448e-03
7.810000000000000000e+02 2.758600807189941406e+01 4.084066772460937500e+01 1.815433055162429810e-01 -2.127608358860015869e-01 -9.365257807075977325e-03 2.287649549543857574e-02
7.820000000000000000e+02 2.755350303649902344e+01 3.757827377319335938e+01 1.693528890609741211e-01 -2.047598361968994141e-01 -1.062208693474531174e-02 7.121241092681884766e-02
7.830000000000000000e+02 2.721049308776855469e+01 3.445353698730468750e+01 1.295620352029800415e-01 -1.843038350343704224e-01 -1.642253622412681580e-02 1.151551604270935059e-01
7.840000000000000000e+02 2.664048576354980469e+01 3.153554725646972656e+01 7.226113229990005493e-02 -1.534878313541412354e-01 -2.436801046133041382e-02 1.398673951625823975e-01
7.850000000000000000e+02 2.433612251281738281e+01 2.662382316589355469e+01 -2.062335237860679626e-02 -9.764155745506286621e-02 -3.547947108745574951e-02 1.346638202667236328e-01
7.860000000000000000e+02 2.636626052856445312e+01 2.188599014282226562e+01 -1.126609221100807190e-01 -6.588267534971237183e-02 -5.356308072805404663e-02 1.274555027484893799e-01
7.870000000000000000e+02 2.551730537414550781e+01 1.643737030029296875e+01 -2.056732177734375000e-01 -2.805789001286029816e-02 -7.011932879686355591e-02 1.007748171687126160e-01
7.880000000000000000e+02 2.691048622131347656e+01 1.521749114990234375e+01 -1.231229826807975769e-01 -1.417598221451044083e-02 -4.118968918919563293e-02 9.048500657081604004e-02
7.890000000000000000e+02 2.543198394775390625e+01 1.500384521484375000e+01 -3.190933912992477417e-02 4.162180703133344650e-03 -8.324147202074527740e-03 6.666220724582672119e-02
7.900000000000000000e+02 2.450680923461914062e+01 1.308068466186523438e+01 1.915052533149719238e-02 5.083226412534713745e-02 2.099483646452426910e-02 1.851858384907245636e-02
7.910000000000000000e+02 2.556683731079101562e+01 1.384189987182617188e+01 -2.218745416030287743e-03 2.446163073182106018e-02 6.672865711152553558e-03 2.654364332556724548e-02
7.920000000000000000e+02 2.354388236999511719e+01 1.205470085144042969e+01 1.184711046516895294e-02 1.823711022734642029e-02 9.025266394019126892e-03 1.863534189760684967e-02
7.930000000000000000e+02 2.107231140136718750e+01 1.026241588592529297e+01 7.921688258647918701e-03 6.448143161833286285e-03 4.310949705541133881e-03 7.577961310744285583e-03
7.940000000000000000e+02 1.967165565490722656e+01 6.144343376159667969e+00 -1.271746307611465454e-02 -2.917146193794906139e-04 -3.902753349393606186e-03 -5.255332682281732559e-03
7.950000000000000000e+02 2.192603683471679688e+01 5.959105491638183594e+00 -1.341050304472446442e-02 3.838725155219435692e-03 -2.871533390134572983e-03 -8.068624883890151978e-03
7.960000000000000000e+02 2.044637870788574219e+01 6.109765052795410156e+00 -1.228829752653837204e-02 2.223081653937697411e-03 -3.019564785063266754e-03 -3.928746096789836884e-03
7.970000000000000000e+02 2.368961334228515625e+01 5.863682270050048828e+00 -1.016647182404994965e-02 -6.243375595659017563e-03 -4.922954365611076355e-03 -9.825396351516246796e-03
7.980000000000000000e+02 2.404737091064453125e+01 7.934129714965820312e+00 -1.400872506201267242e-02 -4.535299260169267654e-03 -5.563207436352968216e-03 -9.314692579209804535e-03
7.990000000000000000e+02 2.663710403442382812e+01 9.456903457641601562e+00 -2.206601388752460480e-02 -1.734531484544277191e-02 -1.182339899241924286e-02 -1.679166592657566071e-02
8.000000000000000000e+02 2.339464950561523438e+01 3.770105743408203125e+01 1.128043830394744873e-01 -1.664236485958099365e-01 -1.608577929437160492e-02 5.249171704053878784e-02
8.010000000000000000e+02 2.391844749450683594e+01 3.470016098022460938e+01 9.473825246095657349e-02 -1.563952118158340454e-01 -1.849708706140518188e-02 8.920849859714508057e-02
8.020000000000000000e+02 2.197240829467773438e+01 3.178016662597656250e+01 4.951987043023109436e-02 -1.231320351362228394e-01 -2.208364941179752350e-02 9.851817786693572998e-02
8.030000000000000000e+02 2.199201393127441406e+01 2.813709449768066406e+01 3.257886273786425591e-03 -9.834769368171691895e-02 -2.852694317698478699e-02 1.168236657977104187e-01
8.040000000000000000e+02 2.119942855834960938e+01 2.058786010742187500e+01 -9.980389475822448730e-02 -3.182173147797584534e-02 -3.948768600821495056e-02 8.821798861026763916e-02
8.050000000000000000e+02 2.282778930664062500e+01 1.837359809875488281e+01 -1.489828526973724365e-01 -5.407567694783210754e-02 -6.091755628585815430e-02 8.936870843172073364e-02
8.060000000000000000e+02 2.029494476318359375e+01 1.580004119873046875e+01 -4.868813976645469666e-02 -4.084849730134010315e-03 -1.583189703524112701e-02 1.593883032910525799e-03
8.070000000000000000e+02 1.627444648742675781e+01 1.373602581024169922e+01 3.433037316426634789e-03 8.424120955169200897e-03 3.557147458195686340e-03 8.116446435451507568e-03
8.080000000000000000e+02 1.333425045013427734e+01 1.257906341552734375e+01 5.548655521124601364e-03 5.774123128503561020e-03 3.396833548322319984e-03 7.056545931845903397e-03
8.090000000000000000e+02 9.154883384704589844e+00 1.217312049865722656e+01 4.318389575928449631e-03 -8.846445125527679920e-04 1.030123559758067131e-03 1.326715806499123573e-03
8.100000000000000000e+02 4.454313755035400391e+00 1.381921005249023438e+01 2.145794569514691830e-04 -4.278441891074180603e-03 -1.219158759340643883e-03 -3.509378002490848303e-04
8.110000000000000000e+02 6.639773845672607422e-01 1.356537055969238281e+01 5.879508080397499725e-06 -2.396026160567998886e-03 -7.170439930632710457e-04 -3.198186750523746014e-04
8.120000000000000000e+02 2.014022827148437500e+00 1.509158134460449219e+01 -2.006364375120028853e-04 -3.020462812855839729e-03 -9.663297678343951702e-04 -8.037795196287333965e-04
8.130000000000000000e+02 6.159015297889709473e-01 9.318075180053710938e+00 1.060316717484965920e-04 -2.482060110196471214e-03 -7.128085126169025898e-04 3.061536990571767092e-04
8.140000000000000000e+02 1.919421911239624023e+00 1.077331352233886719e+01 6.266995333135128021e-04 -2.959998557344079018e-03 -6.999897304922342300e-04 2.726542879827320576e-04
8.150000000000000000e+02 6.024669408798217773e-01 6.476801395416259766e+00 -5.443286136141978204e-05 -7.287548505701124668e-04 -2.349563146708533168e-04 3.615689347498118877e-04
8.160000000000000000e+02 4.675690174102783203e+00 3.677270889282226562e+00 -1.948769087903201580e-03 -7.371752872131764889e-05 -6.067460053600370884e-04 -1.849176624091342092e-04
8.170000000000000000e+02 6.539607524871826172e+00 6.137850284576416016e+00 -8.570347912609577179e-03 -1.852532732300460339e-03 -3.126864321529865265e-03 6.781648378819227219e-03
8.180000000000000000e+02 5.752464294433593750e+00 6.514445304870605469e+00 -1.325728604570031166e-03 -4.625955480150878429e-04 -5.364972166717052460e-04 5.642633419483900070e-03
8.190000000000000000e+02 8.397655487060546875e+00 6.603086948394775391e+00 -4.506377037614583969e-03 -6.854831706732511520e-03 -3.408362623304128647e-03 9.521158412098884583e-03
8.200000000000000000e+02 9.209011077880859375e+00 6.706688880920410156e+00 1.122565567493438721e-02 -6.039713509380817413e-03 1.555782742798328400e-03 3.993288148194551468e-03
8.210000000000000000e+02 1.305299091339111328e+01 1.063653373718261719e+01 1.143156643956899643e-02 9.980080649256706238e-03 6.423493847250938416e-03 1.081132702529430389e-02
8.220000000000000000e+02 1.108633613586425781e+01 8.704059600830078125e+00 8.225121535360813141e-03 1.154056750237941742e-02 5.929706618189811707e-03 8.489394560456275940e-03
8.230000000000000000e+02 1.203511619567871094e+01 9.659525871276855469e+00 1.060413010418415070e-02 1.020740903913974762e-02 6.243461742997169495e-03 9.959170594811439514e-03
8.240000000000000000e+02 1.514319133758544922e+01 1.264754867553710938e+01 9.831658564507961273e-03 8.852075785398483276e-03 5.605120211839675903e-03 1.103124953806400299e-02
8.250000000000000000e+02 2.278176498413085938e+01 4.088746261596679688e+01 1.179160624742507935e-01 -1.673108041286468506e-01 -1.481842249631881714e-02 1.741964556276798248e-02
8.260000000000000000e+02 1.947603607177734375e+01 3.708754348754882812e+01 7.050462812185287476e-02 -1.290156394243240356e-01 -1.755330525338649750e-02 4.673099145293235779e-02
8.270000000000000000e+02 2.106637382507324219e+01 3.418385314941406250e+01 6.480918824672698975e-02 -1.312845200300216675e-01 -1.994260214269161224e-02 7.726906985044479370e-02
8.280000000000000000e+02 1.759693527221679688e+01 3.107984542846679688e+01 2.052110619843006134e-02 -8.911130577325820923e-02 -2.057706005871295929e-02 7.176826894283294678e-02
8.290000000000000000e+02 1.840395164489746094e+01 2.755042457580566406e+01 -7.713477127254009247e-03 -7.113115489482879639e-02 -2.365338988602161407e-02 8.816346526145935059e-02
8.300000000000000000e+02 2.182162475585937500e+01 2.230362892150878906e+01 -7.203138619661331177e-02 -5.350787192583084106e-02 -3.766177594661712646e-02 1.025207489728927612e-01
8.310000000000000000e+02 1.704337120056152344e+01 2.033177375793457031e+01 -5.992468819022178650e-02 -6.277248263359069824e-03 -1.986058056354522705e-02 4.637419432401657104e-02
8.320000000000000000e+02 1.896883392333984375e+01 1.520926666259765625e+01 -1.925260387361049652e-02 8.557798340916633606e-03 -3.208441659808158875e-03 6.230803555808961391e-04
8.330000000000000000e+02 1.715666580200195312e+01 1.665722274780273438e+01 -4.102063179016113281e-02 9.508779272437095642e-03 -9.453555569052696228e-03 1.052995678037405014e-02
8.340000000000000000e+02 1.799693107604980469e+01 4.059909820556640625e+01 6.919073313474655151e-02 -1.253546774387359619e-01 -1.684918068349361420e-02 1.520659308880567551e-02
8.350000000000000000e+02 1.543466854095458984e+01 3.270716857910156250e+01 2.210463583469390869e-02 -8.331558108329772949e-02 -1.836328208446502686e-02 5.602042749524116516e-02
8.360000000000000000e+02 1.631694984436035156e+01 2.904514503479003906e+01 2.010899828746914864e-03 -7.005564123392105103e-02 -2.041342109441757202e-02 7.017016410827636719e-02
8.370000000000000000e+02 1.627707290649414062e+01 2.388656616210937500e+01 -4.000553116202354431e-02 -3.243149071931838989e-02 -2.173110656440258026e-02 6.886176764965057373e-02
8.380000000000000000e+02 1.568783760070800781e+01 2.212037658691406250e+01 -4.486315697431564331e-02 -1.750259846448898315e-02 -1.870972663164138794e-02 5.072200670838356018e-02
8.390000000000000000e+02 1.572318363189697266e+01 1.857101440429687500e+01 -4.836991801857948303e-02 3.697385312989354134e-03 -1.340175978839397430e-02 2.398551627993583679e-02
8.400000000000000000e+02 1.436751461029052734e+01 1.860712051391601562e+01 -3.626786172389984131e-02 -7.610603934153914452e-04 -1.110867597162723541e-02 2.197384089231491089e-02
8.410000000000000000e+02 1.324848842620849609e+01 4.044296264648437500e+01 3.767728805541992188e-02 -9.396148473024368286e-02 -1.688526012003421783e-02 1.248784177005290985e-02
8.420000000000000000e+02 1.298384380340576172e+01 3.385176086425781250e+01 1.991150155663490295e-02 -7.715390622615814209e-02 -1.717272028326988220e-02 4.305920749902725220e-02
8.430000000000000000e+02 1.229780864715576172e+01 3.146666717529296875e+01 8.913391269743442535e-03 -6.412943452596664429e-02 -1.656481437385082245e-02 4.577609896659851074e-02
8.440000000000000000e+02 1.082098197937011719e+01 2.772783088684082031e+01 -6.716967094689607620e-03 -4.213451221585273743e-02 -1.465544383972883224e-02 4.131267592310905457e-02
8.450000000000000000e+02 1.256620788574218750e+01 2.478581237792968750e+01 -2.172130905091762543e-02 -3.112994320690631866e-02 -1.585537567734718323e-02 4.575853422284126282e-02
8.460000000000000000e+02 1.144453430175781250e+01 1.969679641723632812e+01 -2.290382981300354004e-02 -7.456566207110881805e-03 -9.108118712902069092e-03 1.887887716293334961e-02
8.470000000000000000e+02 1.282132816314697266e+01 1.587238979339599609e+01 -1.576890610158443451e-02 1.807061140425503254e-03 -4.188553430140018463e-03 6.130104884505271912e-03
8.480000000000000000e+02 1.170913887023925781e+01 1.842213439941406250e+01 -2.148471400141716003e-02 -4.838248714804649353e-03 -7.896889001131057739e-03 1.441008318215608597e-02
8.490000000000000000e+02 1.041131687164306641e+01 3.691035842895507812e+01 2.072176337242126465e-02 -7.554554939270019531e-02 -1.644713617861270905e-02 2.094933576881885529e-02
8.500000000000000000e+02 1.045704841613769531e+01 3.430175399780273438e+01 1.562857814133167267e-02 -6.884510815143585205e-02 -1.596495881676673889e-02 3.191863372921943665e-02
8.510000000000000000e+02 9.866317749023437500e+00 3.002439117431640625e+01 1.271000131964683533e-03 -4.989764839410781860e-02 -1.458799466490745544e-02 3.717676550149917603e-02
8.520000000000000000e+02 7.871224880218505859e+00 2.560714149475097656e+01 -8.744339458644390106e-03 -2.804532833397388458e-02 -1.103689987212419510e-02 2.615283057093620300e-02
8.530000000000000000e+02 8.526043891906738281e+00 2.310006713867187500e+01 -1.314089726656675339e-02 -1.888821274042129517e-02 -9.608732536435127258e-03 2.172509953379631042e-02
8.540000000000000000e+02 9.712182044982910156e+00 2.049709129333496094e+01 -1.636861823499202728e-02 -1.109665632247924805e-02 -8.239582180976867676e-03 1.696285232901573181e-02
8.550000000000000000e+02 8.336756706237792969e+00 1.583588504791259766e+01 -4.902036860585212708e-03 -4.824576433748006821e-03 -2.917984034866094589e-03 3.110102145001292229e-03
8.560000000000000000e+02 1.040929603576660156e+01 1.598943519592285156e+01 -9.690626524388790131e-03 -2.492288826033473015e-03 -3.654874628409743309e-03 4.664462059736251831e-03
8.570000000000000000e+02 9.657170295715332031e+00 3.981157684326171875e+01 1.910261623561382294e-02 -7.429613918066024780e-02 -1.655805669724941254e-02 9.702042676508426666e-03
8.580000000000000000e+02 6.050642490386962891e+00 3.414894485473632812e+01 4.933319054543972015e-03 -5.331125855445861816e-02 -1.451338175684213638e-02 1.882970519363880157e-02
8.590000000000000000e+02 6.682975769042968750e+00 3.024049186706542969e+01 1.127196475863456726e-03 -4.340831935405731201e-02 -1.268433686345815659e-02 2.453292720019817352e-02
8.600000000000000000e+02 5.113879203796386719e+00 2.882884597778320312e+01 -9.887951891869306564e-04 -3.493866696953773499e-02 -1.077823899686336517e-02 1.913846656680107117e-02
8.610000000000000000e+02 5.756573677062988281e+00 2.210120773315429688e+01 -6.350760813802480698e-03 -1.448579970747232437e-02 -6.250968202948570251e-03 1.134933717548847198e-02
8.620000000000000000e+02 5.601580619812011719e+00 2.100827407836914062e+01 -6.346836686134338379e-03 -1.232856325805187225e-02 -5.602620076388120651e-03 9.160086512565612793e-03
8.630000000000000000e+02 5.987074375152587891e+00 1.625524902343750000e+01 -3.023929428309202194e-03 -5.860375706106424332e-03 -2.665291540324687958e-03 1.585563295520842075e-03
8.640000000000000000e+02 6.240923881530761719e+00 1.915135002136230469e+01 -6.667284294962882996e-03 -9.191852994263172150e-03 -4.757741466164588928e-03 6.325090304017066956e-03
8.650000000000000000e+02 3.478167533874511719e+00 4.154423141479492188e+01 2.865780377760529518e-03 -6.183043122291564941e-02 -1.768939569592475891e-02 8.475445793010294437e-04
8.660000000000000000e+02 3.115414142608642578e+00 3.997304153442382812e+01 3.669781843200325966e-03 -6.145587190985679626e-02 -1.733582653105258942e-02 3.582258243113756180e-03
8.670000000000000000e+02 2.691481828689575195e+00 3.869519805908203125e+01 7.899577612988650799e-04 -5.860495194792747498e-02 -1.734449900686740875e-02 5.119844805449247360e-03
8.680000000000000000e+02 2.513877630233764648e+00 3.323490905761718750e+01 3.244490071665495634e-04 -4.495387524366378784e-02 -1.338882744312286377e-02 9.376986883580684662e-03
8.690000000000000000e+02 2.355120658874511719e+00 3.179331779479980469e+01 4.190064209979027510e-04 -3.993400931358337402e-02 -1.185450050979852676e-02 9.226560592651367188e-03
8.700000000000000000e+02 2.108227252960205078e+00 2.759616470336914062e+01 -7.247134926728904247e-04 -2.423204481601715088e-02 -7.487027440220117569e-03 7.982250303030014038e-03
8.710000000000000000e+02 1.997896313667297363e+00 2.483409690856933594e+01 -9.949700906872749329e-04 -1.503114309161901474e-02 -4.807834047824144363e-03 5.999018903821706772e-03
8.720000000000000000e+02 1.942295074462890625e+00 2.069015502929687500e+01 -9.124112548306584358e-04 -5.927830003201961517e-03 -2.052072435617446899e-03 2.318216254934668541e-03
8.730000000000000000e+02 2.052963018417358398e+00 1.791273880004882812e+01 -6.340353866107761860e-04 -3.538900986313819885e-03 -1.251880894415080547e-03 1.834603608585894108e-04
8.740000000000000000e+02 6.745609641075134277e-01 1.780541992187500000e+01 -7.728495256742462516e-05 -5.997014814056456089e-04 -2.030959440162405372e-04 -4.268999691703356802e-05
8.750000000000000000e+02 9.961428642272949219e-01 4.175785064697265625e+01 6.216266192495822906e-04 -6.348733603954315186e-02 -1.885971426963806152e-02 4.778381262440234423e-04
8.760000000000000000e+02 1.843930244445800781e+00 7.986160755157470703e+00 1.516572519904002547e-04 -1.853078952990472317e-03 -5.104265292175114155e-04 1.149403979070484638e-03
8.770000000000000000e+02 5.097695589065551758e-01 3.548769474029541016e+00 -6.306202703854069114e-05 2.488928439561277628e-04 5.574924216489307582e-05 3.977623782702721655e-05
8.780000000000000000e+02 3.358947277069091797e+00 1.862218976020812988e+00 -1.326898200204595923e-04 1.832760244724340737e-05 -3.430866490816697478e-05 6.548817327711731195e-05
8.790000000000000000e+02 1.398189544677734375e+00 3.184656858444213867e+00 -1.118443469749763608e-04 5.230142778600566089e-05 -1.786287430149968714e-05 -8.899647946236655116e-05
8.800000000000000000e+02 2.622023105621337891e+00 1.868873476982116699e+00 9.175753075396642089e-05 -2.153939276468008757e-04 -3.709091834025457501e-05 -3.003660094691440463e-05
8.810000000000000000e+02 2.310574340820312500e+01 1.687999725341796875e+01 -2.420643270015716553e-01 -4.785110056400299072e-02 -8.697462826967239380e-02 3.643175959587097168e-02
8.820000000000000000e+02 2.440144348144531250e+01 1.667511367797851562e+01 -2.587826251983642578e-01 -1.055008098483085632e-01 -1.092850267887115479e-01 1.017280369997024536e-01
8.830000000000000000e+02 1.984413146972656250e+01 9.495841979980468750e+00 5.825445987284183502e-03 5.715358536690473557e-03 3.462241264060139656e-03 5.666814744472503662e-03
8.840000000000000000e+02 1.886482620239257812e+01 6.222264289855957031e+00 -1.074447669088840485e-02 2.926601329818367958e-03 -2.345362445339560509e-03 -1.722893328405916691e-03
8.850000000000000000e+02 1.732597160339355469e+01 6.170291900634765625e+00 -7.040344644337892532e-03 5.284092389047145844e-03 -5.268757231533527374e-04 -3.182602347806096077e-03
8.860000000000000000e+02 4.643476104736328125e+01 1.446988868713378906e+01 -6.844293475151062012e-01 -8.627051115036010742e-02 -2.312099635601043701e-01 -3.130204975605010986e-01
8.870000000000000000e+02 5.020042800903320312e+01 1.507781505584716797e+01 -1.760323166847229004e+00 -6.066936850547790527e-01 -7.101050615310668945e-01 6.004660725593566895e-01
8.880000000000000000e+02 4.772632217407226562e+01 1.533630561828613281e+01 -1.931027650833129883e+00 -3.321320414543151855e-01 -6.789479255676269531e-01 -5.273649469017982483e-02
8.890000000000000000e+02 5.084255599975585938e+01 1.353158950805664062e+01 -6.729378104209899902e-01 -3.146564066410064697e-01 -2.962782680988311768e-01 5.478175878524780273e-01
8.900000000000000000e+02 5.193321228027343750e+01 1.450938129425048828e+01 -1.165962338447570801e+00 3.343783784657716751e-03 -3.487855792045593262e-01 5.175681710243225098e-01
8.910000000000000000e+02 5.340674209594726562e+01 1.315883064270019531e+01 -8.620763421058654785e-01 3.292457386851310730e-02 -2.487455457448959351e-01 3.458338975906372070e-01
8.920000000000000000e+02 5.355328369140625000e+01 1.647818374633789062e+01 -1.313307046890258789e+00 1.666061878204345703e-01 -3.440102338790893555e-01 4.060598313808441162e-01
8.930000000000000000e+02 5.415029525756835938e+01 1.913063621520996094e+01 -9.217075109481811523e-01 2.453729882836341858e-02 -2.691510617733001709e-01 4.358958005905151367e-01
8.940000000000000000e+02 5.383269882202148438e+01 2.667076873779296875e+01 2.294082641601562500e-01 -8.080220967531204224e-02 4.458181560039520264e-02 3.544117808341979980e-01
8.950000000000000000e+02 5.136741638183593750e+01 2.878631782531738281e+01 3.628886640071868896e-01 -1.452185660600662231e-01 6.530103087425231934e-02 3.411951959133148193e-01
8.960000000000000000e+02 5.446970367431640625e+01 3.290559768676757812e+01 6.729887723922729492e-01 1.149344742298126221e-01 2.363769710063934326e-01 1.742716580629348755e-01
8.970000000000000000e+02 5.165927505493164062e+01 3.525832748413085938e+01 6.881488561630249023e-01 -3.632972389459609985e-02 1.955457329750061035e-01 1.645258665084838867e-01
8.980000000000000000e+02 5.177509689331054688e+01 1.338492584228515625e+01 -7.191568017005920410e-01 -9.606391936540603638e-02 -2.445662170648574829e-01 4.553262889385223389e-01
8.990000000000000000e+02 5.569670104980468750e+01 1.293364906311035156e+01 -1.001772522926330566e+00 1.496669501066207886e-01 -2.556316852569580078e-01 1.813451051712036133e-01
9.000000000000000000e+02 5.814290237426757812e+01 1.582978248596191406e+01 -1.699809670448303223e+00 2.470576465129852295e-01 -4.358256161212921143e-01 4.477442800998687744e-01
9.010000000000000000e+02 5.683189010620117188e+01 2.222338294982910156e+01 -3.269804716110229492e-01 -3.724083676934242249e-02 -1.092663928866386414e-01 4.964144825935363770e-01
9.020000000000000000e+02 5.782869720458984375e+01 2.493272399902343750e+01 2.165662050247192383e-01 3.821374475955963135e-02 7.643398642539978027e-02 3.235505223274230957e-01
9.030000000000000000e+02 5.561902236938476562e+01 2.874851036071777344e+01 4.640557765960693359e-01 6.863161921501159668e-02 1.598062217235565186e-01 2.471816986799240112e-01
9.040000000000000000e+02 5.707796096801757812e+01 3.104276084899902344e+01 6.686358451843261719e-01 2.576557695865631104e-01 2.778874933719635010e-01 1.211955249309539795e-01
9.050000000000000000e+02 5.723901748657226562e+01 1.273363304138183594e+01 -1.114037632942199707e+00 2.004830241203308105e-01 -2.740663886070251465e-01 2.908606454730033875e-02
9.060000000000000000e+02 6.035371398925781250e+01 1.259843730926513672e+01 -1.267766356468200684e+00 -2.950026392936706543e-01 -4.688307046890258789e-01 -4.626231491565704346e-01
9.070000000000000000e+02 6.229925537109375000e+01 1.383372974395751953e+01 -4.591466426849365234e+00 -6.751857399940490723e-01 -1.579995632171630859e+00 -2.863081991672515869e-01
9.080000000000000000e+02 6.525270080566406250e+01 1.297849464416503906e+01 -3.015257835388183594e+00 -2.181995391845703125e+00 -1.559175968170166016e+00 2.085193634033203125e+00
9.090000000000000000e+02 6.610894775390625000e+01 1.211323928833007812e+01 -1.403587341308593750e+00 -8.548818230628967285e-01 -6.775407791137695312e-01 1.334446191787719727e+00
9.100000000000000000e+02 7.791563415527343750e+01 1.078750801086425781e+01 -2.693699598312377930e+00 1.482302856445312500e+01 3.638798713684082031e+00 -1.332694649696350098e+00
9.110000000000000000e+02 7.130535888671875000e+01 1.192165470123291016e+01 -1.931358933448791504e+00 -3.191575780510902405e-02 -5.889824032783508301e-01 7.446113228797912598e-01
9.120000000000000000e+02 6.911331176757812500e+01 1.605558967590332031e+01 -9.097788929939270020e-01 7.106203436851501465e-01 -5.974757298827171326e-02 -1.273938268423080444e-01
9.130000000000000000e+02 6.647964477539062500e+01 1.844314002990722656e+01 -2.441742122173309326e-01 -1.074941549450159073e-02 -7.647708803415298462e-02 -2.466503232717514038e-01
9.140000000000000000e+02 6.443470764160156250e+01 2.265890502929687500e+01 3.707661628723144531e-01 2.827183604240417480e-01 1.960453540086746216e-01 -1.816924363374710083e-01
9.150000000000000000e+02 6.078695297241210938e+01 2.608524513244628906e+01 4.839876890182495117e-01 2.633754014968872070e-01 2.242089360952377319e-01 1.026059538125991821e-01
9.160000000000000000e+02 5.993733596801757812e+01 2.413576698303222656e+01 2.355796098709106445e-01 6.876895576715469360e-02 9.130457043647766113e-02 2.698300182819366455e-01
9.170000000000000000e+02 6.171130752563476562e+01 2.267590713500976562e+01 1.715717464685440063e-01 7.099981885403394699e-03 5.360151827335357666e-02 2.448755502700805664e-01
9.180000000000000000e+02 6.235141372680664062e+01 1.777816009521484375e+01 -1.032399654388427734e+00 -6.015425324440002441e-01 -4.901826381683349609e-01 7.578319311141967773e-01
9.190000000000000000e+02 6.623779296875000000e+01 1.272844219207763672e+01 -2.713816881179809570e+00 -1.048130631446838379e+00 -1.128584265708923340e+00 2.167187213897705078e+00
9.200000000000000000e+02 6.854496002197265625e+01 1.257974910736083984e+01 -2.142278909683227539e+00 1.145999804139137268e-01 -6.083037257194519043e-01 1.359424710273742676e+00
9.210000000000000000e+02 7.046530914306640625e+01 1.167546272277832031e+01 -2.397774696350097656e+00 -1.679784506559371948e-01 -7.697259187698364258e-01 1.016254544258117676e+00
9.220000000000000000e+02 7.858524322509765625e+01 1.058790016174316406e+01 -1.830065727233886719e+00 1.715863609313964844e+01 4.598570823669433594e+00 2.143065214157104492e+00
9.230000000000000000e+02 7.952037811279296875e+01 8.451633453369140625e+00 1.732009887695312500e+00 6.051355361938476562e+00 2.335009574890136719e+00 7.603278011083602905e-02
9.240000000000000000e+02 7.923114013671875000e+01 7.564970493316650391e+00 1.285947710275650024e-01 1.060487842559814453e+01 3.220041990280151367e+00 -2.730927467346191406e+00
9.250000000000000000e+02 7.887535858154296875e+01 6.449541091918945312e+00 -1.146329164505004883e+00 1.520398330688476562e+01 4.217296123504638672e+00 -2.263417959213256836e+00
9.260000000000000000e+02 7.862823486328125000e+01 7.040624618530273438e+00 -1.709050655364990234e+00 1.802303695678710938e+01 4.894196033477783203e+00 -2.611325740814208984e+00
9.270000000000000000e+02 4.116447448730468750e+01 -2.035894870758056641e+00 -1.110566973686218262e+00 -2.680047750473022461e-01 -4.135715365409851074e-01 3.735100924968719482e-01
9.280000000000000000e+02 3.959980392456054688e+01 -3.790925741195678711e+00 -2.468678653240203857e-01 -1.697068363428115845e-01 -1.249724105000495911e-01 -4.558272659778594971e-02
9.290000000000000000e+02 4.223750686645507812e+01 7.425843477249145508e-01 -5.443446636199951172e-01 -8.787894248962402344e-02 -1.896670907735824585e-01 -2.793684899806976318e-01
9.300000000000000000e+02 5.711597061157226562e+01 -2.559736728668212891e+00 -5.450546741485595703e-01 -9.739643931388854980e-01 -4.557057023048400879e-01 -2.561422884464263916e-01
9.310000000000000000e+02 5.599576187133789062e+01 -3.295120000839233398e+00 -2.583482861518859863e-01 -8.314015865325927734e-01 -3.269249796867370605e-01 -3.774071037769317627e-01
9.320000000000000000e+02 6.200052642822265625e+01 -5.290624141693115234e+00 5.194841027259826660e-01 1.211644053459167480e+00 5.193384289741516113e-01 6.909119486808776855e-01
9.330000000000000000e+02 6.319222259521484375e+01 -6.868838787078857422e+00 1.235300749540328979e-01 1.589022874832153320e+00 5.137658715248107910e-01 8.146028965711593628e-02
9.340000000000000000e+02 2.498563194274902344e+01 5.307464599609375000e-01 -8.868566900491714478e-02 2.022878527641296387e-01 3.408065438270568848e-02 2.212898582220077515e-01
9.350000000000000000e+02 5.988401412963867188e+01 -3.497932195663452148e+00 2.397910803556442261e-01 -3.518736660480499268e-01 -3.362477570772171021e-02 2.092191576957702637e-01
9.360000000000000000e+02 6.296194839477539062e+01 5.610002994537353516e+00 -8.786471486091613770e-01 -1.387743115425109863e+00 -6.799170970916748047e-01 -1.089486718177795410e+00
9.370000000000000000e+02 6.981167602539062500e+01 -4.954786777496337891e+00 -3.128692507743835449e-01 -1.887543350458145142e-01 -1.504870802164077759e-01 3.539249897003173828e-01
9.380000000000000000e+02 7.143981933593750000e+01 -3.828397989273071289e+00 4.318168386816978455e-02 1.171649694442749023e+00 3.644494414329528809e-01 1.123390048742294312e-01
9.390000000000000000e+02 7.491564941406250000e+01 -4.329907894134521484e+00 -3.198334947228431702e-02 5.165988922119140625e+00 1.540201663970947266e+00 1.071046113967895508e+00
9.400000000000000000e+02 5.997566223144531250e+01 2.508457899093627930e+00 -2.479664564132690430e+00 -1.182652354240417480e+00 -1.098695039749145508e+00 -1.666924715042114258e+00
9.410000000000000000e+02 6.168787002563476562e+01 -7.294138073921203613e-01 -1.076673388481140137e+00 3.290898501873016357e-01 -2.242750823497772217e-01 -1.365619599819183350e-01
9.420000000000000000e+02 5.334647369384765625e+01 -6.173120498657226562e+00 5.332316756248474121e-01 2.396136224269866943e-01 2.318535745143890381e-01 -4.793888628482818604e-01
9.430000000000000000e+02 5.782467269897460938e+01 -3.697932243347167969e+00 1.030820906162261963e-01 -7.275172472000122070e-01 -1.873305439949035645e-01 -4.512955620884895325e-02
9.440000000000000000e+02 7.460208129882812500e+01 -5.989685535430908203e+00 -2.337221801280975342e-01 5.104631900787353516e+00 1.461272954940795898e+00 1.011767387390136719e+00
9.450000000000000000e+02 6.336694717407226562e+01 -4.012373447418212891e+00 7.872545123100280762e-01 3.155774354934692383e+00 1.182908654212951660e+00 1.102785825729370117e+00
9.460000000000000000e+02 4.575199890136718750e+01 -9.638710021972656250e+00 2.762171328067779541e-01 4.291943311691284180e-01 2.116234451532363892e-01 -4.911438822746276855e-01
9.470000000000000000e+02 3.865072250366210938e+01 -7.668951034545898438e+00 5.825660824775695801e-01 9.520446658134460449e-01 4.603832066059112549e-01 -7.147531509399414062e-01
9.480000000000000000e+02 4.238455200195312500e+01 -1.470452404022216797e+01 -5.307397842407226562e-01 -7.026326656341552734e-01 -3.700117170810699463e-01 -4.386064410209655762e-01
9.490000000000000000e+02 4.673968124389648438e+01 -1.603564071655273438e+01 -9.143228828907012939e-02 5.047950148582458496e-01 1.240088269114494324e-01 -2.222052961587905884e-01
9.500000000000000000e+02 4.225416946411132812e+01 -1.335279846191406250e+01 -9.110286086797714233e-02 -1.021248340606689453e+00 -3.337053656578063965e-01 -5.405808091163635254e-01
9.510000000000000000e+02 3.475373077392578125e+01 -1.472906684875488281e+01 3.382839635014533997e-02 3.208923339843750000e-01 1.064162179827690125e-01 -1.340581029653549194e-01
9.520000000000000000e+02 2.671271133422851562e+01 -1.920704460144042969e+01 -8.270060643553733826e-03 -1.974781602621078491e-01 -6.172446534037590027e-02 -7.133985310792922974e-02
9.530000000000000000e+02 2.368455505371093750e+01 -1.769870376586914062e+01 6.438073469325900078e-04 -2.964990735054016113e-01 -8.875658363103866577e-02 -1.503926813602447510e-01
9.540000000000000000e+02 2.817905235290527344e+01 -1.408712673187255859e+01 -4.246268793940544128e-02 -2.897001802921295166e-01 -9.964886307716369629e-02 1.060617640614509583e-01
9.550000000000000000e+02 3.091638755798339844e+01 -1.548716640472412109e+01 -1.081063151359558105e-01 8.309093862771987915e-02 -7.504611741751432419e-03 5.251488089561462402e-02
9.560000000000000000e+02 1.996423339843750000e+01 -1.471184635162353516e+01 -1.683350503444671631e-01 -1.926289200782775879e-01 -1.082891970872879028e-01 -2.484046816825866699e-01
9.570000000000000000e+02 1.619339561462402344e+01 -1.527181339263916016e+01 -1.186158657073974609e-01 -9.049750864505767822e-02 -6.273401528596878052e-02 -1.554968804121017456e-01
9.580000000000000000e+02 7.770135879516601562e+00 -1.806026268005371094e+01 -2.716049551963806152e-02 -6.856404989957809448e-02 -2.871736325323581696e-02 -7.290983200073242188e-02
9.590000000000000000e+02 7.713716030120849609e+00 -1.486113452911376953e+01 -3.498547896742820740e-02 -3.843346610665321350e-02 -2.202568203210830688e-02 -5.173609778285026550e-02
9.600000000000000000e+02 1.166611194610595703e+01 -1.249724006652832031e+01 -8.077014982700347900e-02 -3.033142164349555969e-02 -3.333047032356262207e-02 -5.474301800131797791e-02
9.610000000000000000e+02 1.528790378570556641e+01 -1.057217979431152344e+01 -1.224322840571403503e-01 2.114823088049888611e-03 -3.609523922204971313e-02 -4.235351085662841797e-02
9.620000000000000000e+02 7.842483997344970703e+00 -8.655659675598144531e+00 -2.346349880099296570e-02 -1.099554728716611862e-02 -1.033771410584449768e-02 -3.436204278841614723e-03
9.630000000000000000e+02 1.268364143371582031e+01 -1.084965038299560547e+01 -8.998316526412963867e-02 -2.076300047338008881e-02 -3.322384878993034363e-02 -3.846136853098869324e-02
9.640000000000000000e+02 3.521538162231445312e+01 -1.286675834655761719e+01 2.675470411777496338e-01 3.976692855358123779e-01 1.995649039745330811e-01 -2.893756031990051270e-01
9.650000000000000000e+02 6.166549301147460938e+01 -1.650882148742675781e+01 -3.071372807025909424e-01 6.267469525337219238e-01 9.588290005922317505e-02 -2.212575376033782959e-01
9.660000000000000000e+02 5.853839111328125000e+01 -1.662240791320800781e+01 -3.186340928077697754e-01 2.174778133630752563e-01 -3.034688346087932587e-02 -2.471896111965179443e-01
9.670000000000000000e+02 1.045861625671386719e+01 -2.118296051025390625e+01 -1.861278153955936432e-02 -1.086764261126518250e-01 -3.818676248192787170e-02 -1.103996112942695618e-01
9.680000000000000000e+02 4.767819404602050781e+00 -2.019607543945312500e+01 -9.814933873713016510e-03 -6.979264318943023682e-02 -2.388227358460426331e-02 -5.397223681211471558e-02
9.690000000000000000e+02 1.222813415527343750e+01 -1.743835830688476562e+01 -5.948273837566375732e-02 -8.189708739519119263e-02 -4.241394624114036560e-02 -1.145137101411819458e-01
9.700000000000000000e+02 1.403769969940185547e+01 -1.796581077575683594e+01 -6.290624290704727173e-02 -1.025650575757026672e-01 -4.964138939976692200e-02 -1.419900059700012207e-01
9.710000000000000000e+02 1.961368942260742188e+01 -1.842532348632812500e+01 -4.144077003002166748e-02 -2.133340984582901001e-01 -7.643245905637741089e-02 -1.927570551633834839e-01
9.720000000000000000e+02 2.456838035583496094e+01 -2.044411087036132812e+01 1.495641842484474182e-02 -2.366538345813751221e-01 -6.650922447443008423e-02 -1.227883994579315186e-01
9.730000000000000000e+02 2.283353805541992188e+01 -2.040541839599609375e+01 1.828435249626636505e-02 -2.396528869867324829e-01 -6.641055643558502197e-02 -1.481019705533981323e-01
9.740000000000000000e+02 3.215873336791992188e+01 -1.857474136352539062e+01 -1.822882145643234253e-01 1.075977236032485962e-01 -2.240714430809020996e-02 -8.228474855422973633e-02
9.750000000000000000e+02 6.535015106201171875e+01 -2.124393081665039062e+01 3.207536041736602783e-01 1.156908988952636719e+00 4.432987570762634277e-01 3.482383489608764648e-01
9.760000000000000000e+02 6.309983825683593750e+01 -1.934870338439941406e+01 -2.194614708423614502e-02 7.809095382690429688e-01 2.276890128850936890e-01 -4.009754583239555359e-02
9.770000000000000000e+02 7.480026245117187500e+01 -1.043980884552001953e+01 1.730096191167831421e-01 5.852689743041992188e+00 1.807709813117980957e+00 1.552207589149475098e+00
9.780000000000000000e+02 7.391748046875000000e+01 -1.463250827789306641e+01 1.528335690498352051e+00 5.847024440765380859e+00 2.212608098983764648e+00 1.104249000549316406e+00
9.790000000000000000e+02 7.393460083007812500e+01 -1.201208972930908203e+01 5.733876824378967285e-01 6.042170524597167969e+00 1.984667420387268066e+00 1.525044560432434082e+00
9.800000000000000000e+02 6.375411987304687500e+01 4.869292259216308594e+00 -1.038234233856201172e+00 -8.332304358482360840e-01 -5.614393949508666992e-01 -8.406748175621032715e-01
9.810000000000000000e+02 6.459412384033203125e+01 4.217028617858886719e+00 -9.631955623626708984e-01 -2.920229136943817139e-01 -3.765655457973480225e-01 -4.201582670211791992e-01
9.820000000000000000e+02 4.876835632324218750e+01 2.925634384155273438e+00 -5.742237567901611328e-01 7.742968946695327759e-02 -1.490382254123687744e-01 -1.573410034179687500e-01
9.830000000000000000e+02 5.139736175537109375e+01 2.721393108367919922e+00 -8.727563619613647461e-01 1.932481974363327026e-01 -2.038524448871612549e-01 1.006018668413162231e-01
9.840000000000000000e+02 4.608675384521484375e+01 4.852087974548339844e+00 -2.122432179749011993e-02 3.729300200939178467e-02 4.820604342967271805e-03 -2.209183573722839355e-02
9.850000000000000000e+02 1.656001091003417969e+01 -7.815762996673583984e+00 -6.272669881582260132e-02 -4.816995002329349518e-03 -2.026310749351978302e-02 3.400078741833567619e-03
9.860000000000000000e+02 9.285161018371582031e+00 -5.159605979919433594e+00 -2.093781949952244759e-03 -7.638534530997276306e-03 -2.919695107266306877e-03 5.762875080108642578e-03
9.870000000000000000e+02 1.130327224731445312e+01 -5.057863712310791016e+00 -5.110318888910114765e-04 -1.318785734474658966e-02 -4.109666682779788971e-03 -3.656048094853758812e-03
9.880000000000000000e+02 9.111253738403320312e+00 -1.807012319564819336e+00 1.672472432255744934e-02 -5.095970816910266876e-03 3.488626098260283470e-03 2.302923239767551422e-03
9.890000000000000000e+02 8.546589851379394531e+00 -2.492764854431152344e+01 5.129009019583463669e-03 -1.337503045797348022e-01 -3.858638554811477661e-02 -9.362617135047912598e-02
9.900000000000000000e+02 5.137989521026611328e+00 -2.284553527832031250e+01 -6.273030303418636322e-03 -9.703473746776580811e-02 -3.099233098328113556e-02 -6.285874545574188232e-02
9.910000000000000000e+02 1.355061626434326172e+01 -2.010132789611816406e+01 -3.655747696757316589e-02 -1.222604140639305115e-01 -4.764536768198013306e-02 -1.429215669631958008e-01
9.920000000000000000e+02 1.461153602600097656e+01 -2.136132240295410156e+01 -1.534298248589038849e-02 -1.450580805540084839e-01 -4.812031611800193787e-02 -1.473877280950546265e-01
9.930000000000000000e+02 1.908605957031250000e+01 -2.171281623840332031e+01 5.961825605481863022e-03 -1.962010711431503296e-01 -5.707177519798278809e-02 -1.654352992773056030e-01
9.940000000000000000e+02 2.725211715698242188e+01 -2.654590797424316406e+01 6.941566616296768188e-02 -1.710193157196044922e-01 -3.048109635710716248e-02 -1.485707759857177734e-01
9.950000000000000000e+02 3.010352516174316406e+01 -2.219256591796875000e+01 -5.292028561234474182e-02 -7.881734520196914673e-02 -3.952128812670707703e-02 -1.311617195606231689e-01
9.960000000000000000e+02 3.199906730651855469e+01 -2.024164199829101562e+01 -1.408515721559524536e-01 1.987136900424957275e-02 -3.629406169056892395e-02 -1.339598894119262695e-01
9.970000000000000000e+02 3.792792892456054688e+01 -2.333629608154296875e+01 -4.955539479851722717e-03 -1.950795352458953857e-01 -6.001052260398864746e-02 -3.415243923664093018e-01
9.980000000000000000e+02 6.756812286376953125e+01 -2.380392646789550781e+01 3.879452645778656006e-01 1.932258844375610352e+00 6.960611939430236816e-01 6.797528862953186035e-01
9.990000000000000000e+02 7.552764892578125000e+01 -2.261986923217773438e+01 -6.554853916168212891e-02 4.667468070983886719e+00 1.380575895309448242e+00 4.430060386657714844e-01
1.000000000000000000e+03 6.615949630737304688e+00 -2.915216636657714844e+01 1.220444776117801666e-02 -1.616141200065612793e-01 -4.482290148735046387e-02 -6.740710884332656860e-02
1.001000000000000000e+03 1.685492134094238281e+01 -2.543141174316406250e+01 3.306908905506134033e-02 -1.852041184902191162e-01 -4.564050957560539246e-02 -1.436475813388824463e-01
1.002000000000000000e+03 3.407658004760742188e+01 -2.562753868103027344e+01 4.299737140536308289e-02 -1.339354962110519409e-01 -2.728143706917762756e-02 -2.400130927562713623e-01
1.003000000000000000e+03 4.273553848266601562e+01 -2.622389984130859375e+01 1.694577783346176147e-01 -1.078059673309326172e-01 1.849554292857646942e-02 -1.773622781038284302e-01
1.004000000000000000e+03 4.904102325439453125e+01 -2.350546646118164062e+01 -5.101737380027770996e-02 2.507056295871734619e-01 5.990647897124290466e-02 -2.119737118482589722e-01
1.005000000000000000e+03 5.604796600341796875e+01 -2.907036209106445312e+01 4.527747929096221924e-01 4.726867973804473877e-01 2.776384651660919189e-01 -1.688505895435810089e-02
1.006000000000000000e+03 5.243883514404296875e+01 -2.523033714294433594e+01 1.618072986602783203e-01 2.059381008148193359e-01 1.103236228227615356e-01 -2.594803273677825928e-01
1.007000000000000000e+03 5.736806488037109375e+01 -2.245915985107421875e+01 7.401429861783981323e-02 1.614238619804382324e-01 7.063145190477371216e-02 -5.718282982707023621e-02
1.008000000000000000e+03 6.066024017333984375e+01 -2.297683715820312500e+01 1.792941093444824219e-01 6.853659152984619141e-01 2.593980133533477783e-01 1.147218868136405945e-01
1.009000000000000000e+03 7.274289703369140625e+01 -2.512048721313476562e+01 1.020296886563301086e-01 3.651428937911987305e+00 1.126037597656250000e+00 6.581165194511413574e-01
1.010000000000000000e+03 2.243649482727050781e+00 -2.325854110717773438e+01 -1.368430792354047298e-03 -8.972404152154922485e-02 -2.732774242758750916e-02 -3.096554428339004517e-02
1.011000000000000000e+03 8.109656333923339844e+00 -3.291241836547851562e+01 2.255477942526340485e-02 -1.845165342092514038e-01 -4.858852550387382507e-02 -6.134238094091415405e-02
1.012000000000000000e+03 1.764508438110351562e+01 -2.858669662475585938e+01 6.356604397296905518e-02 -1.960162669420242310e-01 -3.973506763577461243e-02 -1.260778307914733887e-01
1.013000000000000000e+03 1.999044609069824219e+01 -2.878207206726074219e+01 7.917824387550354004e-02 -2.040130645036697388e-01 -3.745044767856597900e-02 -1.279755681753158569e-01
1.014000000000000000e+03 5.698015594482421875e+01 -3.272367858886718750e+01 5.348856449127197266e-01 6.933684349060058594e-01 3.684762418270111084e-01 4.549737274646759033e-02
1.015000000000000000e+03 5.234455490112304688e+01 -2.951522254943847656e+01 4.031806290149688721e-01 2.828601896762847900e-01 2.058122456073760986e-01 -1.309331804513931274e-01
1.016000000000000000e+03 6.443682861328125000e+01 -2.935794258117675781e+01 4.292021393775939941e-01 1.613932847976684570e+00 6.129404902458190918e-01 3.691573441028594971e-01
1.017000000000000000e+03 7.419360351562500000e+01 -3.072036170959472656e+01 9.438084810972213745e-02 3.708593845367431641e+00 1.140892386436462402e+00 3.641133904457092285e-01
1.018000000000000000e+03 2.211745738983154297e+00 -2.901819419860839844e+01 2.084498759359121323e-03 -1.597838252782821655e-01 -4.730979725718498230e-02 -2.857536822557449341e-02
1.019000000000000000e+03 9.656775474548339844e+00 -3.543148803710937500e+01 3.903068602085113525e-02 -1.982854753732681274e-01 -4.777643829584121704e-02 -5.188797786831855774e-02
1.020000000000000000e+03 6.452674865722656250e+00 -3.366968536376953125e+01 1.561556756496429443e-02 -1.899234950542449951e-01 -5.229237675666809082e-02 -4.843693971633911133e-02
1.021000000000000000e+03 5.293399047851562500e+01 -3.415864562988281250e+01 5.410875082015991211e-01 4.042942225933074951e-01 2.836145162582397461e-01 -5.654567480087280273e-02
1.022000000000000000e+03 6.094807052612304688e+01 -3.287739562988281250e+01 5.329589247703552246e-01 1.163603067398071289e+00 5.089685916900634766e-01 1.785719990730285645e-01
1.023000000000000000e+03 6.831214904785156250e+01 -3.202805709838867188e+01 3.390598893165588379e-01 2.436851024627685547e+00 8.327732682228088379e-01 4.185114204883575439e-01
1.024000000000000000e+03 1.936335921287536621e+00 -3.032213592529296875e+01 2.034945879131555557e-03 -1.761982291936874390e-01 -5.224898457527160645e-02 -2.209148928523063660e-02
1.025000000000000000e+03 2.835771560668945312e+00 -3.537759017944335938e+01 3.374520456418395042e-03 -2.149198502302169800e-01 -6.346359848976135254e-02 -2.153876423835754395e-02
1.026000000000000000e+03 6.732653808593750000e+01 -3.722602081298828125e+01 3.631648421287536621e-01 2.325731754302978516e+00 8.066689968109130859e-01 2.140171676874160767e-01
1.027000000000000000e+03 7.309738922119140625e+01 -3.909085464477539062e+01 1.578618437051773071e-01 3.285248517990112305e+00 1.032933115959167480e+00 1.252622455358505249e-01
1.028000000000000000e+03 6.853047180175781250e+01 1.187891292572021484e+01 -2.254893064498901367e+00 -8.660008758306503296e-02 -7.024479508399963379e-01 1.370371341705322266e+00
1.029000000000000000e+03 6.433583068847656250e+01 1.388511753082275391e+01 -5.390902519226074219e+00 -1.738199472427368164e+00 -2.138730525970458984e+00 1.611324310302734375e+00
1.030000000000000000e+03 6.417865753173828125e+01 1.598432922363281250e+01 -1.832860589027404785e+00 -1.512548327445983887e+00 -1.003622651100158691e+00 6.002323627471923828e-01
1.031000000000000000e+03 6.082751464843750000e+01 2.106480789184570312e+01 -2.427864521741867065e-01 -1.505705416202545166e-01 -1.180071011185646057e-01 4.948927462100982666e-01
1.032000000000000000e+03 6.066173553466796875e+01 1.765530204772949219e+01 -1.230232954025268555e+00 -2.903057634830474854e-01 -4.561616182327270508e-01 8.139858245849609375e-01
1.033000000000000000e+03 5.999731445312500000e+01 1.668519592285156250e+01 -1.656242966651916504e+00 -5.981649085879325867e-02 -5.148178339004516602e-01 8.592926263809204102e-01
1.034000000000000000e+03 6.129598236083984375e+01 1.320691299438476562e+01 -2.086700916290283203e+00 -2.217937707901000977e-01 -6.925483942031860352e-01 -8.478011488914489746e-01
1.035000000000000000e+03 5.953014373779296875e+01 1.241378593444824219e+01 -1.102654457092285156e+00 4.595868289470672607e-02 -3.170087337493896484e-01 -3.164672553539276123e-01
1.036000000000000000e+03 6.768051910400390625e+01 1.578958129882812500e+01 -1.500335812568664551e+00 1.803232282400131226e-01 -3.960037529468536377e-01 5.440974608063697815e-02
1.037000000000000000e+03 6.846016693115234375e+01 1.527553749084472656e+01 -1.279883980751037598e+00 4.266470372676849365e-01 -2.559710741043090820e-01 3.068366944789886475e-01
1.038000000000000000e+03 5.935257339477539062e+01 1.582821655273437500e+01 -1.893157720565795898e+00 1.174242123961448669e-01 -5.327200889587402344e-01 5.550047755241394043e-01
1.039000000000000000e+03 5.275823593139648438e+01 1.667698478698730469e+01 -1.329289436340332031e+00 1.121114045381546021e-01 -3.651534318923950195e-01 3.610850572586059570e-01
1.040000000000000000e+03 5.045090103149414062e+01 1.661171150207519531e+01 -1.552649974822998047e+00 -3.678152859210968018e-01 -5.761395692825317383e-01 1.852571666240692139e-01
1.041000000000000000e+03 4.701551437377929688e+01 1.667348670959472656e+01 -1.267142653465270996e+00 -2.236284613609313965e-01 -4.472313225269317627e-01 4.783287346363067627e-01
1.042000000000000000e+03 4.148089599609375000e+01 1.711616325378417969e+01 -5.888359546661376953e-01 1.064844205975532532e-01 -1.447054594755172729e-01 1.479710638523101807e-01
1.043000000000000000e+03 4.911082839965820312e+01 1.545504760742187500e+01 -2.313854455947875977e+00 -7.568895816802978516e-01 -9.212232232093811035e-01 6.146113872528076172e-01
1.044000000000000000e+03 7.540980529785156250e+01 1.648735618591308594e+01 3.209860026836395264e-01 5.794784545898437500e+00 1.834731101989746094e+00 -1.718879461288452148e+00
1.045000000000000000e+03 7.025306701660156250e+01 1.588525295257568359e+01 -5.625604987144470215e-01 1.120285034179687500e+00 1.673173457384109497e-01 -2.674106061458587646e-01
1.046000000000000000e+03 6.423528289794921875e+01 1.901942062377929688e+01 -3.801245391368865967e-01 -4.597609937191009521e-01 -2.519656717777252197e-01 1.541011780500411987e-01
1.047000000000000000e+03 6.319360351562500000e+01 1.877719116210937500e+01 -5.597026348114013672e-01 -6.353000402450561523e-01 -3.585008084774017334e-01 4.817723929882049561e-01
1.048000000000000000e+03 5.678439331054687500e+01 1.866410064697265625e+01 -1.018272995948791504e+00 1.118880286812782288e-01 -2.719154953956604004e-01 5.818699002265930176e-01
1.049000000000000000e+03 5.288485336303710938e+01 1.848243331909179688e+01 -9.846227169036865234e-01 -2.718490175902843475e-02 -3.035422861576080322e-01 3.255082666873931885e-01
1.050000000000000000e+03 4.781306076049804688e+01 2.251298713684082031e+01 -2.969658374786376953e-01 -2.678723335266113281e-01 -1.694514602422714233e-01 4.645718634128570557e-01
1.051000000000000000e+03 4.311405563354492188e+01 2.082251358032226562e+01 -4.632232189178466797e-01 -6.199836730957031250e-02 -1.575664728879928589e-01 4.038445651531219482e-01
1.052000000000000000e+03 4.662245178222656250e+01 1.893657112121582031e+01 -7.522466182708740234e-01 -2.083889991044998169e-01 -2.881906926631927490e-01 4.777899980545043945e-01
1.053000000000000000e+03 4.991998672485351562e+01 1.883898353576660156e+01 -8.063346743583679199e-01 -3.650566041469573975e-01 -3.514173924922943115e-01 3.858991861343383789e-01
1.054000000000000000e+03 3.580228042602539062e+01 1.811568450927734375e+01 -3.299719095230102539e-01 -5.102277547121047974e-02 -1.142984032630920410e-01 1.423452049493789673e-01
1.055000000000000000e+03 3.334031677246093750e+01 1.627021598815917969e+01 -3.065046072006225586e-01 -5.853288993239402771e-02 -1.095112487673759460e-01 1.357176750898361206e-01
1.056000000000000000e+03 2.940252494812011719e+01 1.711493873596191406e+01 -2.131708860397338867e-01 5.469570867717266083e-03 -6.231039389967918396e-02 1.100217401981353760e-01
1.057000000000000000e+03 7.270713806152343750e+01 2.166621208190917969e+01 5.027617812156677246e-01 3.594304800033569336e+00 1.229120016098022461e+00 -1.368504285812377930e+00
1.058000000000000000e+03 6.705821990966796875e+01 1.980093193054199219e+01 1.211751699447631836e-01 3.924668729305267334e-01 1.540926098823547363e-01 -4.801381528377532959e-01
1.059000000000000000e+03 5.725415039062500000e+01 1.990098190307617188e+01 -7.360892295837402344e-01 2.631982788443565369e-02 -2.129308283329010010e-01 6.058500409126281738e-01
1.060000000000000000e+03 5.555730056762695312e+01 2.427014160156250000e+01 -8.349508047103881836e-03 -5.614453554153442383e-02 -1.934821344912052155e-02 4.097743928432464600e-01
1.061000000000000000e+03 4.873960113525390625e+01 2.453470230102539062e+01 -9.168907254934310913e-02 -2.574003934860229492e-01 -1.047268435359001160e-01 4.508752226829528809e-01
1.062000000000000000e+03 4.349972152709960938e+01 2.246817588806152344e+01 -3.041403591632843018e-01 -1.366260051727294922e-01 -1.322299093008041382e-01 4.345026910305023193e-01
1.063000000000000000e+03 4.600054168701171875e+01 2.343191146850585938e+01 -2.245661914348602295e-01 -2.351546138525009155e-01 -1.379162371158599854e-01 4.780050218105316162e-01
1.064000000000000000e+03 4.942844772338867188e+01 2.148828887939453125e+01 -4.351818263530731201e-01 -2.952102124691009521e-01 -2.191176116466522217e-01 4.355805218219757080e-01
1.065000000000000000e+03 4.128990936279296875e+01 2.031855201721191406e+01 -4.680231213569641113e-01 -1.165214367210865021e-02 -1.439025849103927612e-01 3.501393496990203857e-01
1.066000000000000000e+03 3.542221069335937500e+01 2.328370094299316406e+01 -1.579916626214981079e-01 -8.657464385032653809e-02 -7.336989045143127441e-02 2.551676630973815918e-01
1.067000000000000000e+03 3.171920585632324219e+01 2.195357704162597656e+01 -1.599711924791336060e-01 -6.546600162982940674e-02 -6.763115525245666504e-02 1.880947351455688477e-01
1.068000000000000000e+03 2.898853683471679688e+01 2.077729034423828125e+01 -1.703850030899047852e-01 -4.225437343120574951e-02 -6.379181146621704102e-02 1.476032584905624390e-01
1.069000000000000000e+03 2.423568725585937500e+01 1.915692901611328125e+01 -1.378288120031356812e-01 -6.421293318271636963e-02 -6.061252206563949585e-02 8.476445078849792480e-02
1.070000000000000000e+03 2.108936500549316406e+01 1.922875976562500000e+01 -1.062963530421257019e-01 -2.607739716768264771e-02 -3.971212729811668396e-02 8.159817755222320557e-02
1.071000000000000000e+03 1.845612907409667969e+01 1.879058647155761719e+01 -7.639685273170471191e-02 4.010991193354129791e-03 -2.171575836837291718e-02 3.886567428708076477e-02
1.072000000000000000e+03 1.708683776855468750e+01 2.185740280151367188e+01 -5.645288527011871338e-02 -2.034824714064598083e-02 -2.304033935070037842e-02 6.551761925220489502e-02
1.073000000000000000e+03 8.411408424377441406e+00 2.037732887268066406e+01 -1.320744957774877548e-02 -1.135000307112932205e-02 -7.367235608398914337e-03 1.331796776503324509e-02
1.074000000000000000e+03 4.489543437957763672e+00 2.214860725402832031e+01 -4.257801920175552368e-03 -1.353286299854516983e-02 -5.337199661880731583e-03 8.899255655705928802e-03
1.075000000000000000e+03 6.467472314834594727e-01 2.061713600158691406e+01 -2.402312966296449304e-04 -1.780147315002977848e-03 -6.061135791242122650e-04 7.033481379039585590e-04
1.076000000000000000e+03 6.419515228271484375e+01 2.511120223999023438e+01 6.327404975891113281e-01 6.256097555160522461e-01 3.775050640106201172e-01 -2.918687760829925537e-01
1.077000000000000000e+03 5.835224533081054688e+01 2.724595451354980469e+01 4.198381006717681885e-01 1.370538622140884399e-01 1.670675873756408691e-01 1.977477669715881348e-01
1.078000000000000000e+03 4.739704895019531250e+01 3.060116004943847656e+01 3.720822334289550781e-01 -2.174637317657470703e-01 4.638555273413658142e-02 3.327706456184387207e-01
1.079000000000000000e+03 4.460934066772460938e+01 2.608036804199218750e+01 5.964609328657388687e-03 -2.219394594430923462e-01 -6.479245424270629883e-02 4.333894848823547363e-01
1.080000000000000000e+03 4.474090957641601562e+01 2.820926284790039062e+01 1.653377711772918701e-01 -2.266787588596343994e-01 -1.840229332447052002e-02 3.950349688529968262e-01
1.081000000000000000e+03 4.729278182983398438e+01 2.787337303161621094e+01 1.942908465862274170e-01 -2.393096238374710083e-01 -1.350563578307628632e-02 4.015261232852935791e-01
1.082000000000000000e+03 4.070024490356445312e+01 2.198429107666015625e+01 -3.021659851074218750e-01 -6.384939700365066528e-02 -1.098046153783798218e-01 3.557628095149993896e-01
1.083000000000000000e+03 3.299707031250000000e+01 2.606431770324707031e+01 -3.987354040145874023e-02 -1.264140456914901733e-01 -4.988627508282661438e-02 2.329061180353164673e-01
1.084000000000000000e+03 2.479734802246093750e+01 2.355431365966796875e+01 -6.888819485902786255e-02 -7.701657712459564209e-02 -4.377143085002899170e-02 1.260545104742050171e-01
1.085000000000000000e+03 1.904958152770996094e+01 2.432179641723632812e+01 -4.148494079709053040e-02 -5.037888884544372559e-02 -2.755914814770221710e-02 9.110677242279052734e-02
1.086000000000000000e+03 1.767575645446777344e+01 2.312800979614257812e+01 -5.151283740997314453e-02 -2.991879545152187347e-02 -2.442949078977108002e-02 7.057634741067886353e-02
1.087000000000000000e+03 1.347912025451660156e+01 2.356358718872070312e+01 -2.871949598193168640e-02 -2.443652413785457611e-02 -1.594680547714233398e-02 4.647738859057426453e-02
1.088000000000000000e+03 4.740490436553955078e+00 2.474673461914062500e+01 -4.336438607424497604e-03 -2.053538337349891663e-02 -7.461546454578638077e-03 1.394906546920537949e-02
1.089000000000000000e+03 6.486905813217163086e-01 2.342898178100585938e+01 -2.802701201289892197e-04 -6.774039007723331451e-03 -2.116292715072631836e-03 1.601590425707399845e-03
1.090000000000000000e+03 7.564636230468750000e+01 2.909953498840332031e+01 1.817325800657272339e-01 4.922338008880615234e+00 1.531221151351928711e+00 -7.447081804275512695e-01
1.091000000000000000e+03 6.871377563476562500e+01 2.694093513488769531e+01 6.778465509414672852e-01 2.133620500564575195e+00 8.434401750564575195e-01 -8.226382136344909668e-01
1.092000000000000000e+03 6.455169677734375000e+01 2.689682388305664062e+01 6.769683957099914551e-01 8.751118183135986328e-01 4.656240940093994141e-01 -3.694261312484741211e-01
1.093000000000000000e+03 5.981603622436523438e+01 2.964381790161132812e+01 6.852252483367919922e-01 4.510112404823303223e-01 3.408709466457366943e-01 -1.116414088755846024e-02
1.094000000000000000e+03 5.299967575073242188e+01 3.077012825012207031e+01 5.373030304908752441e-01 -3.363646566867828369e-02 1.510999649763107300e-01 2.628069221973419189e-01
1.095000000000000000e+03 5.039077758789062500e+01 3.253822326660156250e+01 5.362859964370727539e-01 -1.414943486452102661e-01 1.184374988079071045e-01 2.561315894126892090e-01
1.096000000000000000e+03 4.442345046997070312e+01 3.076110649108886719e+01 2.939481735229492188e-01 -2.449197918176651001e-01 1.470850873738527298e-02 3.382090926170349121e-01
1.097000000000000000e+03 2.841660881042480469e+01 2.792879486083984375e+01 5.184749606996774673e-03 -1.275392323732376099e-01 -3.670634701848030090e-02 1.721633821725845337e-01
1.098000000000000000e+03 2.575892448425292969e+01 2.887495040893554688e+01 1.701076515018939972e-02 -1.223333626985549927e-01 -3.159677982330322266e-02 1.450511217117309570e-01
1.099000000000000000e+03 2.336555099487304688e+01 3.007338333129882812e+01 3.105875663459300995e-02 -1.193155497312545776e-01 -2.647703699767589569e-02 1.191219910979270935e-01
1.100000000000000000e+03 1.971274948120117188e+01 2.958248901367187500e+01 1.742132939398288727e-02 -9.506855159997940063e-02 -2.329416759312152863e-02 9.154058247804641724e-02
1.101000000000000000e+03 9.106242179870605469e+00 2.482758712768554688e+01 -1.212968397885560989e-02 -2.592660672962665558e-02 -1.141688693314790726e-02 2.914315089583396912e-02
1.102000000000000000e+03 6.983290910720825195e-01 2.763947677612304688e+01 -2.972733273054473102e-05 -2.066849917173385620e-02 -6.209468003362417221e-03 2.753857756033539772e-03
1.103000000000000000e+03 7.455664062500000000e+01 3.103201675415039062e+01 2.366052269935607910e-01 4.397217750549316406e+00 1.390146851539611816e+00 -6.937415599822998047e-01
1.104000000000000000e+03 4.736626815795898438e+01 3.356002426147460938e+01 5.104207992553710938e-01 -2.004072070121765137e-01 9.300407022237777710e-02 2.481562644243240356e-01
1.105000000000000000e+03 2.408087921142578125e+01 3.210809326171875000e+01 6.578883528709411621e-02 -1.422758549451828003e-01 -2.294610626995563507e-02 1.157689914107322693e-01
1.106000000000000000e+03 8.211788177490234375e+00 3.210865020751953125e+01 5.407901946455240250e-03 -5.330252647399902344e-02 -1.436838787049055099e-02 2.870369143784046173e-02
1.107000000000000000e+03 7.524055242538452148e-01 3.045525360107421875e+01 4.552870814222842455e-05 -3.243722021579742432e-02 -9.717508219182491302e-03 3.201677463948726654e-03
1.108000000000000000e+03 6.159808731079101562e+01 3.518118667602539062e+01 8.007250428199768066e-01 1.046822547912597656e+00 5.542643070220947266e-01 -1.535327583551406860e-01
1.109000000000000000e+03 5.863585662841796875e+01 3.544413757324218750e+01 8.134998083114624023e-01 5.872920751571655273e-01 4.202375710010528564e-01 -1.442737411707639694e-02
1.110000000000000000e+03 4.783209991455078125e+01 3.683662033081054688e+01 6.320683956146240234e-01 -1.734201610088348389e-01 1.375944614410400391e-01 1.563335508108139038e-01
1.111000000000000000e+03 1.901864242553710938e+01 3.290724563598632812e+01 4.415317997336387634e-02 -1.109389364719390869e-01 -2.003572694957256317e-02 7.448872923851013184e-02
1.112000000000000000e+03 5.455904960632324219e+00 3.578477096557617188e+01 4.734811838716268539e-03 -5.591567233204841614e-02 -1.535425800830125809e-02 1.488929521292448044e-02
1.113000000000000000e+03 8.829051852226257324e-01 3.472307586669921875e+01 3.934855340048670769e-05 -4.947914183139801025e-02 -1.483193878084421158e-02 3.098165150731801987e-03
1.114000000000000000e+03 1.366045475006103516e+01 3.677305984497070312e+01 3.427514433860778809e-02 -9.104976058006286621e-02 -1.703238487243652344e-02 3.259177878499031067e-02
1.115000000000000000e+03 7.639604568481445312e+00 3.656592178344726562e+01 9.661546908318996429e-03 -6.237216293811798096e-02 -1.581318490207195282e-02 1.689125038683414459e-02
1.116000000000000000e+03 8.571001887321472168e-01 3.750967025756835938e+01 -7.146482239477336407e-04 -5.794581398367881775e-02 -1.759813912212848663e-02 2.416073810309171677e-03
1.117000000000000000e+03 3.250561237335205078e+00 1.372900962829589844e+01 2.584256872069090605e-04 -3.800289938226342201e-03 -1.062559313140809536e-03 -9.453442762605845928e-04
1.118000000000000000e+03 3.819393634796142578e+00 8.894691467285156250e+00 1.407976960763335228e-03 -2.810937352478504181e-03 -4.208881291560828686e-04 2.203105483204126358e-03
1.119000000000000000e+03 9.358341217041015625e+00 9.389688491821289062e+00 5.169500131160020828e-03 1.292053144425153732e-03 1.938465982675552368e-03 1.965282717719674110e-03
1.120000000000000000e+03 7.667735099792480469e+00 9.982268333435058594e+00 3.703280584886670113e-03 -3.270618151873350143e-03 1.297987328143790364e-04 1.860927557572722435e-03
1.121000000000000000e+03 9.392116546630859375e+00 1.380255985260009766e+01 -1.630712213227525353e-04 -2.027472946792840958e-03 -6.571632693521678448e-04 1.623819814994931221e-03
1.122000000000000000e+03 1.257111358642578125e+01 1.345270729064941406e+01 2.462453208863735199e-03 3.082212060689926147e-03 1.663399627432227135e-03 3.873997833579778671e-03
1.123000000000000000e+03 6.425931453704833984e+00 9.728703498840332031e+00 5.049055442214012146e-03 -4.172856453806161880e-03 2.628596557769924402e-04 1.127020455896854401e-03
1.124000000000000000e+03 2.342455673217773438e+01 9.123953819274902344e+00 -1.083789300173521042e-02 8.966153487563133240e-03 -5.615216796286404133e-04 7.316152332350611687e-04
1.125000000000000000e+03 6.545217132568359375e+01 -1.254721260070800781e+01 -1.271711736917495728e-01 3.063035607337951660e-01 5.373971909284591675e-02 -1.290023978799581528e-02
1.126000000000000000e+03 3.718703460693359375e+01 -5.318642616271972656e+00 6.574705839157104492e-01 1.314764499664306641e+00 5.916705131530761719e-01 -8.614484667778015137e-01
1.127000000000000000e+03 3.791848754882812500e+01 -6.521073818206787109e+00 5.397296547889709473e-01 1.128724217414855957e+00 5.005361437797546387e-01 -8.761773705482482910e-01
1.128000000000000000e+03 4.063627624511718750e+01 -9.276723861694335938e+00 4.734591841697692871e-01 -4.180271551012992859e-02 1.294969320297241211e-01 -5.260484814643859863e-01
1.129000000000000000e+03 4.045151138305664062e+01 -1.064605808258056641e+01 3.895072638988494873e-01 -1.885294169187545776e-01 6.029335409402847290e-02 -2.934755980968475342e-01
1.130000000000000000e+03 4.096592330932617188e+01 -1.333535957336425781e+01 1.337606459856033325e-01 -1.430186390876770020e+00 -3.889276981353759766e-01 -1.008465047925710678e-02
1.131000000000000000e+03 3.705667495727539062e+01 -1.503882694244384766e+01 1.318815499544143677e-01 2.670720517635345459e-01 1.196860820055007935e-01 -1.829959005117416382e-01
1.132000000000000000e+03 3.184340476989746094e+01 -8.268330574035644531e+00 2.750199437141418457e-01 1.041732788085937500e+00 3.950258195400238037e-01 -5.157278180122375488e-01
1.133000000000000000e+03 3.024443244934082031e+01 -4.275773048400878906e+00 1.329243481159210205e-01 1.840931624174118042e-01 9.510525315999984741e-02 -3.587536811828613281e-01
1.134000000000000000e+03 4.801014709472656250e+01 -3.297783851623535156e+00 -1.033420562744140625e+00 1.964465826749801636e-01 -2.510921955108642578e-01 -4.368321225047111511e-02
1.135000000000000000e+03 5.406588745117187500e+01 -9.077565193176269531e+00 2.509663999080657959e-01 2.366615831851959229e-01 1.462883949279785156e-01 -2.696672379970550537e-01
1.136000000000000000e+03 5.608990478515625000e+01 -1.598438930511474609e+01 7.276669144630432129e-02 -2.033259719610214233e-01 -3.916778415441513062e-02 -1.468277256935834885e-02
1.137000000000000000e+03 5.106424331665039062e+01 -1.656620216369628906e+01 2.793317437171936035e-01 5.074704885482788086e-01 2.360406666994094849e-01 -3.606285452842712402e-01
1.138000000000000000e+03 4.895977783203125000e+01 -1.470157432556152344e+01 4.545752704143524170e-01 7.786759138107299805e-01 3.699753582477569580e-01 -5.460624098777770996e-01
1.139000000000000000e+03 4.627260589599609375e+01 -1.095985126495361328e+01 5.179139375686645508e-01 8.792843222618103027e-01 4.191594719886779785e-01 -6.450127363204956055e-01
1.140000000000000000e+03 4.476247787475585938e+01 -6.972643852233886719e+00 -6.405877321958541870e-02 -8.110742568969726562e-01 -2.625399231910705566e-01 -1.298660933971405029e-01
1.141000000000000000e+03 6.991084289550781250e+01 -6.494570255279541016e+00 -6.627306342124938965e-01 -6.129685640335083008e-01 -3.827097713947296143e-01 7.169478535652160645e-01
1.142000000000000000e+03 7.080590820312500000e+01 -7.522769451141357422e+00 -5.765754580497741699e-01 2.362899109721183777e-02 -1.658839434385299683e-01 4.136548936367034912e-01
1.143000000000000000e+03 7.216130065917968750e+01 -9.975909233093261719e+00 8.978389948606491089e-02 4.647876739501953125e+00 1.421298265457153320e+00 1.163409650325775146e-01
1.144000000000000000e+03 6.427545928955078125e+01 -1.228022384643554688e+01 -1.379549801349639893e-01 5.169624090194702148e-01 1.137022301554679871e-01 -9.395458549261093140e-02
1.145000000000000000e+03 6.413203430175781250e+01 -1.086926174163818359e+01 1.840334944427013397e-02 6.450988650321960449e-01 1.990506649017333984e-01 -1.766074299812316895e-01
1.146000000000000000e+03 6.338843917846679688e+01 -8.261084556579589844e+00 6.569537520408630371e-02 1.181314706802368164e+00 3.741030395030975342e-01 -1.415486484766006470e-01
1.147000000000000000e+03 7.068445587158203125e+01 8.204715728759765625e+00 4.372074007987976074e-01 1.048495531082153320e+00 4.457108676433563232e-01 4.274698197841644287e-01
1.148000000000000000e+03 7.033442687988281250e+01 8.241173744201660156e+00 1.160138025879859924e-01 8.072217106819152832e-01 2.769706547260284424e-01 4.564168304204940796e-02
1.149000000000000000e+03 6.961922454833984375e+01 8.209197044372558594e+00 -6.471036076545715332e-01 4.249635040760040283e-01 -6.664203107357025146e-02 -4.044485092163085938e-01
1.150000000000000000e+03 6.997207641601562500e+01 6.863344192504882812e+00 4.122650325298309326e-01 1.745120644569396973e+00 6.472157239913940430e-01 6.026154756546020508e-01
1.151000000000000000e+03 6.821363067626953125e+01 8.252725601196289062e+00 -9.965392947196960449e-01 1.827749460935592651e-01 -2.441293001174926758e-01 -8.096804022789001465e-01
1.152000000000000000e+03 6.747293853759765625e+01 8.244228363037109375e+00 -9.565962553024291992e-01 7.883657515048980713e-02 -2.633278965950012207e-01 -8.883394002914428711e-01
1.153000000000000000e+03 6.462180328369140625e+01 8.373040199279785156e+00 -5.742671489715576172e-01 -9.214859604835510254e-01 -4.487259089946746826e-01 -7.589595913887023926e-01
1.154000000000000000e+03 5.386298370361328125e+01 6.022378444671630859e+00 -1.344246789813041687e-03 2.402533032000064850e-02 6.804325152188539505e-03 -1.406930014491081238e-02
1.155000000000000000e+03 5.664067840576171875e+01 8.802862167358398438e+00 1.954969018697738647e-03 8.200635202229022980e-03 3.046681173145771027e-03 -2.886038273572921753e-03
1.156000000000000000e+03 5.525493621826171875e+01 9.164462089538574219e+00 -5.119076929986476898e-03 2.268410660326480865e-02 5.269508808851242065e-03 -4.418737255036830902e-03
1.157000000000000000e+03 5.312537384033203125e+01 9.407339096069335938e+00 1.174902077764272690e-02 -6.675728596746921539e-03 1.521987724117934704e-03 -1.577196456491947174e-02
1.158000000000000000e+03 5.380735397338867188e+01 9.325665473937988281e+00 3.747501643374562263e-03 2.672009402886033058e-03 1.925853313878178596e-03 -8.760011754930019379e-03
1.159000000000000000e+03 5.244208145141601562e+01 9.406344413757324219e+00 1.588664203882217407e-02 -9.647798724472522736e-03 1.871653250418603420e-03 -3.841816447675228119e-03
1.160000000000000000e+03 4.699767684936523438e+01 5.860970973968505859e+00 -1.450476609170436859e-02 4.800522699952125549e-02 1.005013752728700638e-02 4.968864843249320984e-02
1.161000000000000000e+03 4.430036163330078125e+01 2.707368850708007812e+00 -8.944436907768249512e-02 -6.765151023864746094e-02 -4.712876677513122559e-02 -1.152055859565734863e-01
1.162000000000000000e+03 4.110244369506835938e+01 8.423237800598144531e+00 -1.611068844795227051e-03 -4.013738129287958145e-03 -1.687442068941891193e-03 8.610499207861721516e-04
1.163000000000000000e+03 3.981389617919921875e+01 8.826878547668457031e+00 2.800457878038287163e-03 2.843255642801523209e-03 1.693114056251943111e-03 -1.215242664329707623e-03
1.164000000000000000e+03 3.908469009399414062e+01 8.943298339843750000e+00 2.576196799054741859e-03 -1.244796148966997862e-04 7.355151465162634850e-04 3.834876697510480881e-04
1.165000000000000000e+03 3.831169128417968750e+01 9.054557800292968750e+00 2.323246560990810394e-03 5.315525922924280167e-03 2.291631652042269707e-03 -2.368806162849068642e-03
1.166000000000000000e+03 3.237384414672851562e+01 4.708104133605957031e+00 2.984708249568939209e-01 -1.288597732782363892e-01 5.088331922888755798e-02 -5.153115093708038330e-02
1.167000000000000000e+03 3.019798469543457031e+01 8.690624833106994629e-01 -7.785004377365112305e-01 -1.098737120628356934e+00 -5.631712675094604492e-01 1.136453123763203621e-03
1.168000000000000000e+03 2.623680496215820312e+01 2.469388246536254883e+00 7.627217769622802734e-01 8.942726999521255493e-02 2.556447088718414307e-01 3.237928450107574463e-01
1.169000000000000000e+03 2.599406051635742188e+01 7.489932179450988770e-01 -2.662280499935150146e-01 3.092620670795440674e-01 1.291020307689905167e-02 1.952400356531143188e-01
1.170000000000000000e+03 2.082558250427246094e+01 2.387986660003662109e+00 3.105849958956241608e-03 -2.816461957991123199e-03 8.681636973051354289e-05 2.612634096294641495e-03
1.171000000000000000e+03 1.978202056884765625e+01 1.669832229614257812e+00 -1.077420450747013092e-02 -1.254514092579483986e-03 -3.608615603297948837e-03 -1.557664247229695320e-03
1.172000000000000000e+03 1.890512275695800781e+01 1.896931171417236328e+00 -6.577129010111093521e-03 -1.238594949245452881e-02 -5.688923411071300507e-03 -4.345702473074197769e-03
1.173000000000000000e+03 1.881447792053222656e+01 2.511712551116943359e+00 3.572976216673851013e-03 -8.950985968112945557e-03 -1.613402855582535267e-03 2.110546454787254333e-03
1.174000000000000000e+03 2.130244636535644531e+01 -2.767414450645446777e-01 -2.163654379546642303e-02 5.133841186761856079e-03 -4.950810689479112625e-03 -1.234113238751888275e-02
1.175000000000000000e+03 2.387293243408203125e+01 -3.528231620788574219e+00 1.304112374782562256e-01 1.661017090082168579e-01 8.895388245582580566e-02 -8.845401555299758911e-02
1.176000000000000000e+03 2.052402114868164062e+01 -7.877791404724121094e+00 -4.645151272416114807e-02 5.454065278172492981e-02 2.426742576062679291e-03 1.460763905197381973e-02
1.177000000000000000e+03 1.746718597412109375e+01 -4.734559059143066406e+00 1.396244298666715622e-02 8.916805498301982880e-03 6.863774266093969345e-03 -3.490726649761199951e-02
1.178000000000000000e+03 1.336206436157226562e+01 -1.983503580093383789e+00 1.573080010712146759e-02 -8.367509581148624420e-03 2.208986785262823105e-03 -9.248396381735801697e-03
1.179000000000000000e+03 1.259077167510986328e+01 -1.930681824684143066e+00 1.640808954834938049e-02 7.707329350523650646e-04 5.153646692633628845e-03 -5.123405251652002335e-03
1.180000000000000000e+03 1.038461303710937500e+01 -1.790397286415100098e+00 1.701271347701549530e-02 -5.866568069905042648e-03 3.343843622133135796e-03 -3.656491753645241261e-04
1.181000000000000000e+03 9.719524383544921875e+00 -1.791148304939270020e+00 1.561679784208536148e-02 5.495572113431990147e-04 4.849906545132398605e-03 2.643475774675607681e-03
1.182000000000000000e+03 8.675305366516113281e+00 -2.472323656082153320e+00 1.248852536082267761e-02 -5.196721293032169342e-03 2.187541453167796135e-03 3.609246108680963516e-03
1.183000000000000000e+03 6.776076793670654297e+00 -2.137371778488159180e+00 1.379192806780338287e-02 -1.153803197667002678e-03 3.791437484323978424e-03 3.752939403057098389e-03
1.184000000000000000e+03 1.687382459640502930e+00 -5.368736743927001953e+00 -5.706993397325277328e-05 8.984120562672615051e-03 2.678115153685212135e-03 5.925775971263647079e-03
1.185000000000000000e+03 1.174834132194519043e+00 -2.104398727416992188e+00 1.016134046949446201e-03 2.419340657070279121e-03 1.030642422847449780e-03 2.149721374735236168e-03
1.186000000000000000e+03 3.985151648521423340e-01 -2.187671899795532227e+00 2.734200970735400915e-04 1.766878529451787472e-03 6.120895850472152233e-04 6.835103849880397320e-04
1.187000000000000000e+03 1.032576560974121094e+00 -4.174712753295898438e+01 1.530778128653764725e-03 -2.584173381328582764e-01 -7.706596702337265015e-02 -1.151494681835174561e-03
1.188000000000000000e+03 1.105696558952331543e+00 -3.879215240478515625e+01 2.182402880862355232e-03 -2.520647048950195312e-01 -7.496468722820281982e-02 -4.265345633029937744e-03
1.189000000000000000e+03 7.305446267127990723e-01 -3.317277145385742188e+01 -6.582727655768394470e-04 -2.130967378616333008e-01 -6.412649899721145630e-02 -6.974180229008197784e-03
1.190000000000000000e+03 6.609079837799072266e-01 -3.180138206481933594e+01 1.225024461746215820e-03 -1.983253508806228638e-01 -5.913009867072105408e-02 -7.266939617693424225e-03
1.191000000000000000e+03 7.250263690948486328e-01 -2.901717948913574219e+01 7.892503053881227970e-04 -1.624458432197570801e-01 -4.849697649478912354e-02 -9.256129153072834015e-03
1.192000000000000000e+03 7.963147163391113281e-01 -2.621049690246582031e+01 3.029688086826354265e-04 -1.249806210398674011e-01 -3.740329667925834656e-02 -1.133541576564311981e-02
1.193000000000000000e+03 2.147975921630859375e+00 -2.183217620849609375e+01 -1.143933390267193317e-03 -7.202026993036270142e-02 -2.194926142692565918e-02 -2.860076911747455597e-02
1.194000000000000000e+03 2.045662641525268555e+00 -1.902326583862304688e+01 -2.408545464277267456e-03 -3.845589980483055115e-02 -1.225933339446783066e-02 -2.282897755503654480e-02
1.195000000000000000e+03 1.706221342086791992e+00 -1.203761577606201172e+01 -2.360661048442125320e-03 1.233384385704994202e-02 2.991955028846859932e-03 -3.359177615493535995e-03
1.196000000000000000e+03 1.557834982872009277e+00 -6.690061569213867188e+00 -7.652348722331225872e-04 1.263789366930723190e-02 3.561797784641385078e-03 5.043337121605873108e-03
1.197000000000000000e+03 2.193319797515869141e+00 -2.866338253021240234e+00 2.412054687738418579e-03 2.662552753463387489e-03 1.522382255643606186e-03 5.413606762886047363e-03
1.198000000000000000e+03 7.898202514648437500e+01 4.175187301635742188e+01 3.153906390070915222e-02 4.832878112792968750e+00 1.459325075149536133e+00 -2.370704896748065948e-02
1.199000000000000000e+03 7.902186584472656250e+01 3.883966064453125000e+01 3.135136887431144714e-02 4.909948825836181641e+00 1.482390046119689941e+00 -2.820978313684463501e-02
1.200000000000000000e+03 7.706893920898437500e+01 3.832769012451171875e+01 6.285648792982101440e-02 4.525108337402343750e+00 1.376389503479003906e+00 -1.396863907575607300e-01
1.201000000000000000e+03 7.926303863525390625e+01 3.490501403808593750e+01 2.320873551070690155e-02 5.195445537567138672e+00 1.565596222877502441e+00 -7.144655287265777588e-02
1.202000000000000000e+03 7.916130828857421875e+01 2.921471214294433594e+01 2.893753536045551300e-02 6.076505184173583984e+00 1.831632733345031738e+00 -1.729047149419784546e-01
1.203000000000000000e+03 7.750925445556640625e+01 2.769110870361328125e+01 8.045491576194763184e-02 5.847109794616699219e+00 1.778269410133361816e+00 -5.469498038291931152e-01
1.204000000000000000e+03 7.779640197753906250e+01 2.483730888366699219e+01 7.899774610996246338e-02 6.555970191955566406e+00 1.990490317344665527e+00 -6.691892743110656738e-01
1.205000000000000000e+03 7.941757965087890625e+01 1.947901916503906250e+01 -1.168652158230543137e-02 9.707775115966796875e+00 2.908826589584350586e+00 -3.209832608699798584e-01
1.206000000000000000e+03 7.835611724853515625e+01 1.808229637145996094e+01 6.455630809068679810e-02 9.356290817260742188e+00 2.826254129409790039e+00 -9.750367403030395508e-01
1.207000000000000000e+03 7.948788452148437500e+01 1.271079730987548828e+01 -1.086851581931114197e-01 1.486161518096923828e+01 4.425879001617431641e+00 -1.496353596448898315e-01
1.208000000000000000e+03 7.949421691894531250e+01 1.010235118865966797e+01 -7.255766391754150391e-01 1.113443088531494141e+01 3.122656345367431641e+00 1.888356328010559082e+00
1.209000000000000000e+03 7.879282379150390625e+01 5.543922424316406250e+00 -1.043786525726318359e+00 1.358390712738037109e+01 3.762036085128784180e+00 -6.552254557609558105e-01
1.210000000000000000e+03 7.776219177246093750e+01 4.690296173095703125e+00 -4.688149988651275635e-01 1.210628509521484375e+01 3.491240978240966797e+00 1.009217023849487305e+00
1.211000000000000000e+03 7.944400024414062500e+01 -3.703874349594116211e-02 -6.198628991842269897e-02 1.273156452178955078e+01 3.800873279571533203e+00 2.800900489091873169e-02
1.212000000000000000e+03 7.840323638916015625e+01 -3.046715557575225830e-01 -1.887193024158477783e-01 1.106701755523681641e+01 3.263489246368408203e+00 3.794873654842376709e-01
1.213000000000000000e+03 7.932878112792968750e+01 -6.997510910034179688e+00 -9.044980630278587341e-03 9.641151428222656250e+00 2.889631986618041992e+00 3.496134877204895020e-01
1.214000000000000000e+03 7.805901336669921875e+01 -8.523281097412109375e+00 -2.656060829758644104e-02 7.889560699462890625e+00 2.358900070190429688e+00 9.603123664855957031e-01
1.215000000000000000e+03 7.802758789062500000e+01 -1.269687461853027344e+01 2.107255458831787109e-01 6.432573795318603516e+00 1.992989778518676758e+00 7.654154300689697266e-01
1.216000000000000000e+03 7.934818267822265625e+01 -1.674974250793457031e+01 2.966830320656299591e-02 5.614668846130371094e+00 1.693301200866699219e+00 2.196785248816013336e-02
1.217000000000000000e+03 7.807614135742187500e+01 -1.675803375244140625e+01 7.355005294084548950e-02 5.689732074737548828e+00 1.728984594345092773e+00 1.273479610681533813e-01
1.218000000000000000e+03 7.936080932617187500e+01 -2.370449066162109375e+01 -9.066766127943992615e-03 5.339543819427490234e+00 1.599143028259277344e+00 4.547753930091857910e-02
1.219000000000000000e+03 7.936983489990234375e+01 -2.646537971496582031e+01 1.887464779429137707e-03 5.079435348510742188e+00 1.524396777153015137e+00 5.847530812025070190e-02
1.220000000000000000e+03 7.808441162109375000e+01 -2.912946510314941406e+01 6.990796420723199844e-03 4.590579509735107422e+00 1.379271030426025391e+00 1.733469367027282715e-01
1.221000000000000000e+03 7.679165649414062500e+01 -3.028739547729492188e+01 2.742503024637699127e-02 4.279191493988037109e+00 1.291984915733337402e+00 2.493400573730468750e-01
1.222000000000000000e+03 7.771203613281250000e+01 -3.301962661743164062e+01 1.886550709605216980e-02 4.257647514343261719e+00 1.282953977584838867e+00 1.542316824197769165e-01
1.223000000000000000e+03 7.907837677001953125e+01 -3.607055282592773438e+01 5.579988006502389908e-03 4.272259235382080078e+00 1.283351659774780273e+00 4.641346260905265808e-02
1.224000000000000000e+03 7.694560241699218750e+01 -3.701253128051757812e+01 4.730293154716491699e-02 3.944508075714111328e+00 1.197543263435363770e+00 1.081974580883979797e-01
1.225000000000000000e+03 7.882792663574218750e+01 -4.028334426879882812e+01 -1.023334171622991562e-02 4.161063671112060547e+00 1.245249032974243164e+00 2.407064288854598999e-02
1.226000000000000000e+03 3.925453126430511475e-01 2.170708656311035156e+00 -3.820367510343203321e-06 1.936332555487751961e-04 5.694386709365062416e-05 -8.537226676708087325e-05
1.227000000000000000e+03 5.965058803558349609e-01 5.008624553680419922e+00 -7.596574141643941402e-05 -5.344412784324958920e-05 -3.882296005031093955e-05 2.031432231888175011e-04
1.228000000000000000e+03 1.811659812927246094e+00 6.533065795898437500e+00 -1.985533599508926272e-04 -1.026193145662546158e-03 -3.674239269457757473e-04 1.164782210253179073e-03
1.229000000000000000e+03 1.828628540039062500e+00 9.388463973999023438e+00 3.064127813559025526e-04 -2.569443080574274063e-03 -6.789090693928301334e-04 8.649917435832321644e-04
1.230000000000000000e+03 6.556705236434936523e-01 1.214184761047363281e+01 1.424439396942034364e-04 -2.889541676267981529e-03 -8.241292671300470829e-04 -1.516390620963647962e-04
1.231000000000000000e+03 1.967633128166198730e+00 1.220537185668945312e+01 3.263411927036941051e-04 -3.114706836640834808e-03 -8.365096291527152061e-04 -2.645127242431044579e-04
1.232000000000000000e+03 6.791788339614868164e-01 1.640162658691406250e+01 -1.529525034129619598e-04 -9.615349117666482925e-04 -3.343462303746491671e-04 -2.890529867727309465e-04
1.233000000000000000e+03 6.598015427589416504e-01 1.920875549316406250e+01 -1.924855314427986741e-04 -7.850891561247408390e-04 -2.932724019046872854e-04 2.346222026972100139e-04
1.234000000000000000e+03 6.426552534103393555e-01 2.202428054809570312e+01 -1.480781793361529708e-04 -3.783742664381861687e-03 -1.179546234197914600e-03 1.133750658482313156e-03
1.235000000000000000e+03 6.612880229949951172e-01 2.483274078369140625e+01 -9.185352246277034283e-05 -1.066826749593019485e-02 -3.228036221116781235e-03 2.005988499149680138e-03
1.236000000000000000e+03 6.783586740493774414e-01 2.623615837097167969e+01 -2.991796645801514387e-04 -1.534568518400192261e-02 -4.693459719419479370e-03 2.420100849121809006e-03
1.237000000000000000e+03 7.219797372817993164e-01 2.904497528076171875e+01 -2.376602351432666183e-04 -2.643995359539985657e-02 -8.003284223377704620e-03 3.026677761226892471e-03
1.238000000000000000e+03 2.171920776367187500e+00 2.898343467712402344e+01 -1.897352194646373391e-04 -2.935985662043094635e-02 -8.864877745509147644e-03 8.680397644639015198e-03
1.239000000000000000e+03 8.434440493583679199e-01 3.330007934570312500e+01 2.413929905742406845e-04 -4.427156224846839905e-02 -1.320905052125453949e-02 3.327544312924146652e-03
1.240000000000000000e+03 8.658491969108581543e-01 3.612222671508789062e+01 7.993517210707068443e-04 -5.386010929942131042e-02 -1.591822691261768341e-02 2.437140094116330147e-03
1.241000000000000000e+03 2.540930032730102539e+00 3.741147994995117188e+01 1.974118640646338463e-03 -5.705867707729339600e-02 -1.652536727488040924e-02 5.270188208669424057e-03
1.242000000000000000e+03 9.967159628868103027e-01 4.031219863891601562e+01 -3.674951149150729179e-04 -6.270668655633926392e-02 -1.892225444316864014e-02 7.014519069343805313e-04
1.243000000000000000e+03 4.128968715667724609e+00 1.856598496437072754e+00 1.544256747365579940e-06 -2.586798800621181726e-04 -7.714069215580821037e-05 -1.347611832898110151e-04
1.244000000000000000e+03 4.176595687866210938e+00 2.567357778549194336e+00 -3.119165485259145498e-04 3.713892510859295726e-05 -8.243328193202614784e-05 1.767572393873706460e-04
1.245000000000000000e+03 1.898210525512695312e+00 1.933875322341918945e+00 -3.795676457230001688e-05 -2.259938446513842791e-05 -1.816684380173683167e-05 -1.767112553352490067e-04
1.246000000000000000e+03 1.161522388458251953e+00 2.061707258224487305e+00 -1.091157082555582747e-05 6.083604603190906346e-05 1.497734228905756027e-05 -4.421867197379469872e-05
1.247000000000000000e+03 2.656674385070800781e+00 2.556980848312377930e+00 -3.830386849585920572e-04 -5.162676097825169563e-05 -1.303996396018192172e-04 -1.647080935072153807e-04
1.248000000000000000e+03 5.186900615692138672e+00 4.211699485778808594e+00 -1.389496261253952980e-03 2.772602601908147335e-04 -3.336708177812397480e-04 1.578710362082347274e-05
1.249000000000000000e+03 5.681274414062500000e+00 4.803414821624755859e+00 -5.036350339651107788e-03 4.315456608310341835e-04 -1.381441368721425533e-03 1.230856403708457947e-03
1.250000000000000000e+03 6.130148887634277344e+00 5.443160533905029297e+00 -4.604867659509181976e-03 1.497050165198743343e-03 -9.323452832177281380e-04 1.878581824712455273e-03
1.251000000000000000e+03 1.021312141418457031e+01 6.762499809265136719e+00 1.894109765999019146e-03 2.143399976193904877e-02 6.998432800173759460e-03 2.499610185623168945e-03
1.252000000000000000e+03 8.120340347290039062e+00 7.341466426849365234e+00 9.538609534502029419e-03 -6.715429946780204773e-03 8.469538297504186630e-04 6.947880145162343979e-03
1.253000000000000000e+03 1.408825111389160156e+01 1.162836647033691406e+01 1.261422876268625259e-02 1.009913627058267593e-02 6.814009509980678558e-03 1.059737149626016617e-02
1.254000000000000000e+03 1.758959388732910156e+01 1.460542011260986328e+01 -6.461502984166145325e-03 4.536433145403862000e-03 -5.775208701379597187e-04 7.479201536625623703e-03
1.255000000000000000e+03 2.164626312255859375e+01 1.637501335144042969e+01 -9.894035756587982178e-02 1.127652730792760849e-02 -2.629914879798889160e-02 -1.265911292284727097e-02
1.256000000000000000e+03 1.767195892333984375e+01 7.877923965454101562e+00 2.345256274566054344e-03 3.375798696652054787e-03 1.716316561214625835e-03 5.213745869696140289e-03
1.257000000000000000e+03 1.609425354003906250e+01 6.888959884643554688e+00 1.350799947977066040e-02 2.228709170594811440e-03 4.721012432128190994e-03 3.401405643671751022e-03
1.258000000000000000e+03 1.518008422851562500e+01 6.308796405792236328e+00 2.111616078764200211e-03 4.928147420287132263e-03 2.111929003149271011e-03 9.648095816373825073e-03
1.259000000000000000e+03 1.806030273437500000e+01 6.199847698211669922e+00 -8.197698742151260376e-03 -4.958611447364091873e-03 -3.946892917156219482e-03 -3.745606634765863419e-03
1.260000000000000000e+03 1.659271049499511719e+01 6.248867511749267578e+00 -1.065297145396471024e-02 -2.798457629978656769e-03 -4.035428632050752640e-03 -5.949108395725488663e-03
1.261000000000000000e+03 1.581482887268066406e+01 6.253301620483398438e+00 3.964206203818321228e-03 1.038892660290002823e-03 1.500929589383304119e-03 7.464713882654905319e-03
1.262000000000000000e+03 1.840202140808105469e+01 7.394659519195556641e+00 3.954549320042133331e-03 8.649683149997144938e-05 1.212313887663185596e-03 1.868993858806788921e-03
1.263000000000000000e+03 2.122844314575195312e+01 6.087462902069091797e+00 -1.391924917697906494e-02 3.433964448049664497e-03 -3.145585535094141960e-03 -5.607496015727519989e-03
1.264000000000000000e+03 2.486606407165527344e+01 7.341824531555175781e+00 -1.748677529394626617e-02 -1.310517452657222748e-02 -9.177585132420063019e-03 -1.461741793900728226e-02
1.265000000000000000e+03 2.998756408691406250e+01 1.228625679016113281e+01 -4.125092178583145142e-02 -2.871453296393156052e-03 -1.323671266436576843e-02 -1.815031468868255615e-02
1.266000000000000000e+03 3.229991912841796875e+01 1.400121307373046875e+01 -2.612506151199340820e-01 -1.233042124658823013e-02 -8.207430690526962280e-02 -3.064786270260810852e-02
1.267000000000000000e+03 3.665476226806640625e+01 1.325083160400390625e+01 -2.061888724565505981e-01 -6.033962592482566833e-02 -7.995855063199996948e-02 1.216461285948753357e-01
1.268000000000000000e+03 3.774127578735351562e+01 1.313877296447753906e+01 -2.631624042987823486e-01 1.615841314196586609e-02 -7.410119473934173584e-02 9.068072587251663208e-02
1.269000000000000000e+03 3.991123580932617188e+01 1.279181385040283203e+01 -2.381286174058914185e-01 4.072954878211021423e-02 -5.921971797943115234e-02 3.017625585198402405e-02
1.270000000000000000e+03 4.070909500122070312e+01 1.268085861206054688e+01 -2.430677711963653564e-01 3.053525649011135101e-02 -6.375975161790847778e-02 1.351945661008358002e-02
1.271000000000000000e+03 4.236597061157226562e+01 1.235908889770507812e+01 -2.108420282602310181e-01 2.539516240358352661e-02 -5.563405901193618774e-02 -3.138532117009162903e-02
1.272000000000000000e+03 4.310977935791015625e+01 1.212449932098388672e+01 -1.657942831516265869e-01 -1.118038687855005264e-02 -5.309240147471427917e-02 -5.843090638518333435e-02
1.273000000000000000e+03 4.532265090942382812e+01 1.358995819091796875e+01 -3.554468750953674316e-01 -7.330243289470672607e-02 -1.286247968673706055e-01 -1.250897794961929321e-01
1.274000000000000000e+03 5.263269805908203125e+01 1.325780105590820312e+01 -7.938293814659118652e-01 4.081829637289047241e-02 -2.259033173322677612e-01 4.020280241966247559e-01
1.275000000000000000e+03 5.350255966186523438e+01 1.402693748474121094e+01 -1.039825201034545898e+00 1.382141113281250000e-01 -2.704833149909973145e-01 4.075283408164978027e-01
1.276000000000000000e+03 5.417187118530273438e+01 1.308133602142333984e+01 -8.917938470840454102e-01 1.182902902364730835e-01 -2.320510596036911011e-01 3.148079216480255127e-01
1.277000000000000000e+03 5.493194198608398438e+01 1.301619243621826172e+01 -9.359701275825500488e-01 5.145442485809326172e-02 -2.653546929359436035e-01 1.990060210227966309e-01
1.278000000000000000e+03 5.801232147216796875e+01 1.263747787475585938e+01 -1.109055399894714355e+00 1.579312831163406372e-01 -2.853372395038604736e-01 -1.558439433574676514e-01
1.279000000000000000e+03 5.878121185302734375e+01 1.254525089263916016e+01 -1.083856463432312012e+00 1.072316914796829224e-01 -2.929874360561370850e-01 -1.293717622756958008e-01
1.280000000000000000e+03 6.695223236083984375e+01 1.202058982849121094e+01 -1.881969451904296875e+00 -4.650630354881286621e-01 -7.041097283363342285e-01 1.618535995483398438e+00
1.281000000000000000e+03 6.998188018798828125e+01 1.173933601379394531e+01 -2.384929895401000977e+00 -2.130462527275085449e-01 -7.793928384780883789e-01 1.125252008438110352e+00
1.282000000000000000e+03 7.062539672851562500e+01 1.270906448364257812e+01 -1.503315687179565430e+00 9.613665938377380371e-02 -4.221537113189697266e-01 7.621544599533081055e-01
1.283000000000000000e+03 7.072679138183593750e+01 1.161026191711425781e+01 -2.373921155929565430e+00 -1.899507790803909302e-01 -7.691615819931030273e-01 9.688342809677124023e-01
1.284000000000000000e+03 7.429950714111328125e+01 1.083689498901367188e+01 -1.854952096939086914e+00 9.675225615501403809e-01 -2.662288546562194824e-01 -3.944743275642395020e-01
1.285000000000000000e+03 7.449697113037109375e+01 1.079577922821044922e+01 -1.748362421989440918e+00 1.122312068939208984e+00 -1.878150999546051025e-01 -5.507624149322509766e-01
1.286000000000000000e+03 7.527484893798828125e+01 1.058403491973876953e+01 -1.177128314971923828e+00 2.316123962402343750e+00 3.416987359523773193e-01 -1.596631288528442383e+00
1.287000000000000000e+03 7.547048187255859375e+01 1.056467628479003906e+01 -1.108035206794738770e+00 2.772093534469604492e+00 4.992175102233886719e-01 -1.927978038787841797e+00
1.288000000000000000e+03 7.669834899902343750e+01 1.056511306762695312e+01 -1.418146133422851562e+00 8.865664482116699219e+00 2.234255552291870117e+00 -4.129645824432373047e+00
1.289000000000000000e+03 7.762985992431640625e+01 1.012665176391601562e+01 -3.119081974029541016e+00 1.697369194030761719e+01 4.156383037567138672e+00 -2.940907478332519531e+00
1.290000000000000000e+03 7.608594512939453125e+01 6.494739532470703125e+00 3.634200990200042725e-01 6.123167037963867188e+00 1.945976138114929199e+00 1.933288693428039551e+00
1.291000000000000000e+03 7.569972229003906250e+01 7.218082904815673828e+00 1.170606970787048340e+00 1.785537242889404297e+00 8.868432641029357910e-01 -8.992859721183776855e-02
1.292000000000000000e+03 7.569040679931640625e+01 7.053347587585449219e+00 -1.576003432273864746e-01 2.759339094161987305e+00 7.805216312408447266e-01 4.249218404293060303e-01
1.293000000000000000e+03 7.554808044433593750e+01 7.198269367218017578e+00 1.185680925846099854e-01 1.737470388412475586e+00 5.568115115165710449e-01 -5.174569487571716309e-01
1.294000000000000000e+03 7.574389648437500000e+01 6.007387638092041016e+00 1.280708461999893188e-01 6.276812553405761719e+00 1.921465039253234863e+00 9.003649353981018066e-01
1.295000000000000000e+03 7.582383728027343750e+01 4.358793258666992188e+00 4.756085276603698730e-01 1.140532493591308594e+01 3.564279794692993164e+00 1.022475719451904297e+00
1.296000000000000000e+03 7.652929687500000000e+01 1.745451211929321289e+00 -1.781634688377380371e-01 9.226786613464355469e+00 2.714586973190307617e+00 7.100132107734680176e-01
1.297000000000000000e+03 7.536482238769531250e+01 2.674392461776733398e+00 1.651498317718505859e+00 7.674758911132812500e+00 2.797877073287963867e+00 2.621266841888427734e+00
1.298000000000000000e+03 7.409457397460937500e+01 1.484746336936950684e+00 -6.008883118629455566e-01 1.074672222137451172e+00 1.421351879835128784e-01 6.018419861793518066e-01
1.299000000000000000e+03 6.957058715820312500e+01 3.441047668457031250e+00 3.639944195747375488e-01 2.266167640686035156e+00 7.890486121177673340e-01 -4.255824983119964600e-01
1.300000000000000000e+03 7.018232727050781250e+01 7.844755649566650391e+00 4.114151298999786377e-01 7.998805642127990723e-01 3.633886873722076416e-01 2.999777793884277344e-01
1.301000000000000000e+03 7.633194732666015625e+01 5.697312355041503906e+00 -3.093405067920684814e-01 9.366074562072753906e+00 2.717020273208618164e+00 2.079141139984130859e+00
1.302000000000000000e+03 7.621006011962890625e+01 7.027604579925537109e+00 9.376043677330017090e-01 4.674126625061035156e+00 1.683519363403320312e+00 2.265136241912841797e+00
1.303000000000000000e+03 7.682680511474609375e+01 6.931930065155029297e+00 1.936335414648056030e-01 1.012891197204589844e+01 3.096763610839843750e+00 4.963945388793945312e+00
1.304000000000000000e+03 7.602117156982421875e+01 7.098911762237548828e+00 7.403540611267089844e-01 3.323965787887573242e+00 1.219295978546142578e+00 1.024227023124694824e+00
1.305000000000000000e+03 7.667788696289062500e+01 6.640312671661376953e+00 1.380736678838729858e-01 9.316263198852539062e+00 2.836301088333129883e+00 3.696827650070190430e+00
1.306000000000000000e+03 7.703707885742187500e+01 6.657171726226806641e+00 -1.004112482070922852e+00 1.228281974792480469e+01 3.383612155914306641e+00 4.895925998687744141e+00
1.307000000000000000e+03 3.641022872924804688e+01 1.332737064361572266e+01 -2.662916481494903564e-01 -1.259148269891738892e-01 -1.176619380712509155e-01 1.744357794523239136e-01
1.308000000000000000e+03 7.086637878417968750e+01 8.126570701599121094e+00 7.930306196212768555e-01 1.177809357643127441e+00 5.912519693374633789e-01 9.732627868652343750e-01
1.309000000000000000e+03 7.051840209960937500e+01 8.243170738220214844e+00 -4.019372537732124329e-02 4.158052802085876465e-01 1.126834601163864136e-01 -2.868597023189067841e-02
1.310000000000000000e+03 7.009700012207031250e+01 8.210692405700683594e+00 -5.125662088394165039e-01 4.953560531139373779e-01 -5.163047928363084793e-03 -1.197504177689552307e-01
1.311000000000000000e+03 6.893003845214843750e+01 8.243630409240722656e+00 -9.553577899932861328e-01 1.922407746315002441e-01 -2.289351075887680054e-01 -6.930207014083862305e-01
1.312000000000000000e+03 7.069699859619140625e+01 7.852080345153808594e+00 1.010857701301574707e+00 1.528531789779663086e+00 7.618168592453002930e-01 9.964599013328552246e-01
1.313000000000000000e+03 2.318206977844238281e+01 5.900520324707031250e+00 -1.084977481514215469e-02 5.021912511438131332e-04 -3.104275092482566833e-03 -7.757993880659341812e-03
1.314000000000000000e+03 2.410848999023437500e+01 5.849545001983642578e+00 -7.770544383674860001e-03 -1.298752892762422562e-02 -6.227422039955854416e-03 -9.396777488291263580e-03
1.315000000000000000e+03 6.927323913574218750e+01 1.180679130554199219e+01 -2.331753492355346680e+00 -5.209539830684661865e-02 -7.151547074317932129e-01 1.294214129447937012e+00
1.316000000000000000e+03 7.116733551025390625e+01 1.149046897888183594e+01 -2.530246019363403320e+00 -2.115408778190612793e-01 -8.225361108779907227e-01 8.607239127159118652e-01
1.317000000000000000e+03 7.149951171875000000e+01 1.167160606384277344e+01 -2.162441968917846680e+00 -3.684372454881668091e-02 -6.597856879234313965e-01 7.158314585685729980e-01
1.318000000000000000e+03 7.173011779785156250e+01 1.135145664215087891e+01 -2.566595554351806641e+00 -1.169056072831153870e-01 -8.050503730773925781e-01 7.640545964241027832e-01
1.319000000000000000e+03 7.193200683593750000e+01 1.131102275848388672e+01 -2.557950496673583984e+00 -8.953671902418136597e-02 -7.942461371421813965e-01 7.063647508621215820e-01
1.320000000000000000e+03 7.213236999511718750e+01 1.125729084014892578e+01 -2.527447700500488281e+00 -1.865495927631855011e-02 -7.638308405876159668e-01 6.839377880096435547e-01
1.321000000000000000e+03 7.251844024658203125e+01 1.114146518707275391e+01 -2.532362222671508789e+00 5.112909898161888123e-02 -7.443699240684509277e-01 5.854977369308471680e-01
1.322000000000000000e+03 7.290744018554687500e+01 1.107649135589599609e+01 -2.447299718856811523e+00 1.568931043148040771e-01 -6.871219873428344727e-01 4.351807832717895508e-01
1.323000000000000000e+03 7.349603271484375000e+01 1.101759052276611328e+01 -2.159910440444946289e+00 3.966290354728698730e-01 -5.289844274520874023e-01 1.429871171712875366e-01
1.324000000000000000e+03 7.527270507812500000e+01 1.082337856292724609e+01 -1.089124321937561035e+00 2.728038549423217773e+00 4.916743040084838867e-01 -1.721183419227600098e+00
1.325000000000000000e+03 7.469628906250000000e+01 1.074684047698974609e+01 -1.646580576896667480e+00 1.363261699676513672e+00 -8.499567955732345581e-02 -7.579894661903381348e-01
1.326000000000000000e+03 7.566963195800781250e+01 1.052772045135498047e+01 -1.109640121459960938e+00 3.319193601608276367e+00 6.628660559654235840e-01 -2.224227428436279297e+00
1.327000000000000000e+03 7.668375396728515625e+01 1.031797218322753906e+01 -1.179639816284179688e+00 8.483938217163085938e+00 2.191289663314819336e+00 -4.411506652832031250e+00
1.328000000000000000e+03 7.706831359863281250e+01 1.020110988616943359e+01 -1.951518297195434570e+00 1.239732837677001953e+01 3.133743047714233398e+00 -4.555346965789794922e+00
1.329000000000000000e+03 7.687780761718750000e+01 1.026517868041992188e+01 -1.252316355705261230e+00 9.643370628356933594e+00 2.517316102981567383e+00 -4.330978870391845703e+00
1.330000000000000000e+03 7.740153503417968750e+01 1.016262245178222656e+01 -2.562404394149780273e+00 1.535693836212158203e+01 3.838360309600830078e+00 -3.700304031372070312e+00
1.331000000000000000e+03 7.378518676757812500e+01 1.132772159576416016e+01 -1.539330124855041504e+00 8.881753087043762207e-01 -1.953464448451995850e-01 -3.104382455348968506e-01
1.332000000000000000e+03 7.095622253417968750e+01 1.155336189270019531e+01 -2.427189826965332031e+00 -1.774233728647232056e-01 -7.813839912414550781e-01 9.306771755218505859e-01
1.333000000000000000e+03 3.578109741210937500e+01 8.671533584594726562e+00 2.788971364498138428e-02 2.058210084214806557e-03 8.984377607703208923e-03 -4.028581548482179642e-03
1.334000000000000000e+03 3.671307754516601562e+01 6.595477104187011719e+00 4.914971813559532166e-02 -5.453098099678754807e-03 1.310898642987012863e-02 -3.673156723380088806e-02
1.335000000000000000e+03 6.939842987060546875e+01 2.678540468215942383e+00 -2.110756486654281616e-01 1.546619057655334473e+00 4.006630182266235352e-01 -1.404874928994104266e-04
1.336000000000000000e+03 6.982805633544921875e+01 3.067561149597167969e+00 2.800239026546478271e-01 1.525072813034057617e+00 5.415289998054504395e-01 -5.601962804794311523e-01
1.337000000000000000e+03 7.197252655029296875e+01 1.089915752410888672e+00 -2.446585893630981445e+00 -1.795254498720169067e-01 -7.878334522247314453e-01 2.123041599988937378e-01
1.338000000000000000e+03 7.328430175781250000e+01 1.126544833183288574e+00 -2.287108421325683594e+00 1.354226022958755493e-01 -6.455057859420776367e-01 -1.785728633403778076e-01
1.339000000000000000e+03 6.892754364013671875e+01 4.757378101348876953e+00 1.893121153116226196e-01 1.859907627105712891e+00 6.147658824920654297e-01 -1.122425310313701630e-02
1.340000000000000000e+03 7.154765319824218750e+01 1.261698246002197266e+00 -1.714369416236877441e+00 -1.672228425741195679e-01 -5.644776821136474609e-01 2.974584400653839111e-01
1.341000000000000000e+03 7.243087005615234375e+01 1.049713492393493652e+00 -3.010573387145996094e+00 -1.238616034388542175e-01 -9.403305053710937500e-01 3.112340718507766724e-02
1.342000000000000000e+03 7.382271575927734375e+01 6.071571707725524902e-01 -7.797365188598632812e-01 1.658711552619934082e+00 2.636925280094146729e-01 1.113830566406250000e+00
1.343000000000000000e+03 7.854114532470703125e+01 2.736729145050048828e+00 1.355461478233337402e-01 1.195921134948730469e+01 3.628427028656005859e+00 1.096800565719604492e-01
1.344000000000000000e+03 7.579587554931640625e+01 3.935809135437011719e+00 8.756278753280639648e-01 1.217991924285888672e+01 3.916664123535156250e+00 1.746327877044677734e+00
1.345000000000000000e+03 7.571961212158203125e+01 6.404315471649169922e+00 1.763639599084854126e-02 5.090353488922119141e+00 1.532397031784057617e+00 8.122656941413879395e-01
1.346000000000000000e+03 7.560617065429687500e+01 3.067023038864135742e+00 1.426402449607849121e+00 9.720046997070312500e+00 3.343934774398803711e+00 2.713713407516479492e+00
1.347000000000000000e+03 7.504038238525390625e+01 2.362731933593750000e+00 1.460060596466064453e+00 5.058728218078613281e+00 1.955636620521545410e+00 2.408342361450195312e+00
1.348000000000000000e+03 7.370835113525390625e+01 1.247870206832885742e+00 -1.389990448951721191e+00 6.602360010147094727e-01 -2.189263254404067993e-01 1.639198064804077148e-01
1.349000000000000000e+03 7.473282623291015625e+01 2.075020313262939453e+00 1.035130620002746582e+00 3.163612365722656250e+00 1.259622931480407715e+00 1.807601809501647949e+00
1.350000000000000000e+03 7.540231323242187500e+01 1.953098535537719727e+00 1.135024577379226685e-01 6.855298519134521484e+00 2.090640306472778320e+00 1.768561005592346191e+00
1.351000000000000000e+03 6.946890258789062500e+01 4.345326900482177734e+00 1.089082583785057068e-01 2.735767126083374023e+00 8.534026145935058594e-01 2.400440908968448639e-02
1.352000000000000000e+03 7.505802917480468750e+01 1.702574133872985840e+00 -3.174110129475593567e-02 5.078940391540527344e+00 1.514159798622131348e+00 1.756208300590515137e+00
1.353000000000000000e+03 7.475121307373046875e+01 1.418361425399780273e+00 -4.243273138999938965e-01 3.860075950622558594e+00 1.030724644660949707e+00 1.590207457542419434e+00
1.354000000000000000e+03 7.092831420898437500e+01 1.855099916458129883e+00 -3.506740033626556396e-01 1.486528366804122925e-01 -6.060634925961494446e-02 6.191918253898620605e-02
1.355000000000000000e+03 7.582617950439453125e+01 4.778284072875976562e+00 -7.797016203403472900e-02 9.980703353881835938e+00 2.970819950103759766e+00 7.560677528381347656e-01
1.356000000000000000e+03 6.957324218750000000e+01 7.251894474029541016e+00 1.554262489080429077e-01 1.114117383956909180e+00 3.808631002902984619e-01 5.703694373369216919e-02
1.357000000000000000e+03 7.022795104980468750e+01 7.218240737915039062e+00 5.077735185623168945e-01 1.565352559089660645e+00 6.219378113746643066e-01 7.907903194427490234e-01
1.358000000000000000e+03 7.045816802978515625e+01 7.557811737060546875e+00 5.733219981193542480e-01 1.573567390441894531e+00 6.440668106079101562e-01 9.416415095329284668e-01
1.359000000000000000e+03 7.578033447265625000e+01 5.604146003723144531e+00 -1.769857406616210938e-01 7.382451534271240234e+00 2.161639690399169922e+00 7.945564389228820801e-01
1.360000000000000000e+03 6.954719543457031250e+01 5.174298286437988281e+00 9.228080511093139648e-02 2.503281593322753906e+00 7.786687016487121582e-01 2.565676271915435791e-01
1.361000000000000000e+03 6.950278472900390625e+01 4.763544559478759766e+00 1.010844707489013672e-01 2.625691890716552734e+00 8.180329203605651855e-01 1.583877652883529663e-01
1.362000000000000000e+03 7.038086700439453125e+01 2.445014238357543945e+00 6.733457744121551514e-02 5.991445779800415039e-01 1.999437510967254639e-01 -2.876435816287994385e-01
1.363000000000000000e+03 7.065638732910156250e+01 2.151701450347900391e+00 -7.474117726087570190e-02 3.763651847839355469e-01 9.048719704151153564e-02 -1.107259392738342285e-01
1.364000000000000000e+03 7.644105529785156250e+01 4.771942615509033203e+00 1.383753269910812378e-01 1.054199600219726562e+01 3.204111337661743164e+00 1.867831468582153320e+00
1.365000000000000000e+03 5.191192245483398438e+01 8.509971618652343750e+00 1.631758920848369598e-02 -1.706230081617832184e-02 -2.234130952274426818e-04 -7.856928743422031403e-03
1.366000000000000000e+03 4.956501007080078125e+01 9.458772659301757812e+00 2.756438031792640686e-02 3.490486741065979004e-02 1.874077320098876953e-02 2.833755128085613251e-02
1.367000000000000000e+03 6.552696990966796875e+01 7.716969966888427734e+00 -7.310290932655334473e-01 -2.660948932170867920e-01 -2.991372048854827881e-01 -8.555756211280822754e-01
1.368000000000000000e+03 9.254558563232421875e+00 -2.416728258132934570e+00 1.212903670966625214e-02 -9.545478387735784054e-04 3.352346597239375114e-03 3.872248344123363495e-03
1.369000000000000000e+03 7.328604221343994141e+00 -1.920746445655822754e+00 1.435800455510616302e-02 -2.356657991185784340e-03 3.600403899326920509e-03 5.447822622954845428e-03
1.370000000000000000e+03 8.112021446228027344e+00 -2.559983015060424805e+00 1.096414960920810699e-02 -1.666254829615354538e-03 2.789368387311697006e-03 5.284961313009262085e-03
1.371000000000000000e+03 7.569824218750000000e+00 -2.693139553070068359e+00 1.053246669471263885e-02 -3.131417557597160339e-03 2.220314694568514824e-03 4.536732565611600876e-03
1.372000000000000000e+03 6.213830947875976562e+00 -2.442264318466186523e+00 9.425830096006393433e-03 1.751621603034436703e-03 3.353235544636845589e-03 6.789234466850757599e-03
1.373000000000000000e+03 5.098575973510742188e+01 9.298068046569824219e+00 2.528140135109424591e-02 -1.473715715110301971e-02 3.163273446261882782e-03 1.000187266618013382e-02
1.374000000000000000e+03 5.114146804809570312e+01 8.296767234802246094e+00 3.390410915017127991e-02 -3.118404746055603027e-02 8.160183206200599670e-04 -6.611296441406011581e-03
1.375000000000000000e+03 2.161235427856445312e+01 2.178706169128417969e+00 1.273745670914649963e-02 7.949354127049446106e-03 6.206043064594268799e-03 2.310728654265403748e-03
1.376000000000000000e+03 2.253635215759277344e+01 5.848556041717529297e+00 -1.034296862781047821e-02 -1.412017154507339001e-03 -3.526495536789298058e-03 -6.915825419127941132e-03
1.377000000000000000e+03 2.237856292724609375e+01 6.475765705108642578e+00 -1.441022567451000214e-02 3.533980925567448139e-04 -4.217048175632953644e-03 -9.114311076700687408e-03
1.378000000000000000e+03 2.409586906433105469e+01 6.592161178588867188e+00 -1.421791315078735352e-02 -1.206044480204582214e-02 -7.883507758378982544e-03 -1.147997286170721054e-02
1.379000000000000000e+03 6.600405120849609375e+01 8.334401130676269531e+00 -8.188363909721374512e-01 -1.388973444700241089e-01 -2.873201072216033936e-01 -7.969739437103271484e-01
1.380000000000000000e+03 6.767676544189453125e+01 6.976375102996826172e+00 -3.318899273872375488e-01 2.798981964588165283e-01 -1.559751853346824646e-02 -7.169874906539916992e-01
1.381000000000000000e+03 6.594850158691406250e+01 7.033861160278320312e+00 -6.553067564964294434e-01 -2.192656844854354858e-01 -2.623717486858367920e-01 -8.345327377319335938e-01
1.382000000000000000e+03 3.716563034057617188e+01 1.382873439788818359e+01 -3.970858454704284668e-01 1.824875175952911377e-02 -1.136511266231536865e-01 9.053517878055572510e-02
1.383000000000000000e+03 3.781544494628906250e+01 1.380521488189697266e+01 -3.351189792156219482e-01 2.882561087608337402e-02 -9.188801050186157227e-02 8.514414727687835693e-02
1.384000000000000000e+03 3.914063644409179688e+01 1.292819309234619141e+01 -2.446026951074600220e-01 2.710778824985027313e-02 -6.524846702814102173e-02 5.807346850633621216e-02
1.385000000000000000e+03 2.610392570495605469e+01 1.652071714401245117e+00 1.903145760297775269e-01 3.052543401718139648e-01 1.486706733703613281e-01 3.494803607463836670e-01
1.386000000000000000e+03 2.474623870849609375e+01 1.122413754463195801e+00 3.414335101842880249e-02 2.064223587512969971e-01 7.216971367597579956e-02 2.162608951330184937e-01
1.387000000000000000e+03 2.415618705749511719e+01 1.025143384933471680e+00 5.433641746640205383e-02 7.239732146263122559e-02 3.802012279629707336e-02 1.445638984441757202e-01
1.388000000000000000e+03 3.941509008407592773e+00 -2.459704875946044922e+00 6.669428199529647827e-03 7.941032527014613152e-04 2.239059424027800560e-03 7.610750850290060043e-03
1.389000000000000000e+03 5.225361347198486328e+00 -3.897127151489257812e+00 3.125354414805769920e-03 7.946919649839401245e-04 1.176013844087719917e-03 8.937571197748184204e-03
1.390000000000000000e+03 2.616215229034423828e+00 -1.861071944236755371e+00 3.684723982587456703e-03 7.753060199320316315e-04 1.338009024038910866e-03 4.305524285882711411e-03
1.391000000000000000e+03 3.329272508621215820e+00 -2.420151948928833008e+00 4.988834261894226074e-03 2.452246553730219603e-04 1.570217660628259182e-03 6.223855074495077133e-03
1.392000000000000000e+03 3.301998376846313477e+00 -1.815108418464660645e+00 5.299015436321496964e-03 3.084100317209959030e-04 1.682227593846619129e-03 4.261616151779890060e-03
1.393000000000000000e+03 5.255340933799743652e-01 -3.606248140335083008e+00 4.998712101951241493e-04 6.259893532842397690e-03 2.027929527685046196e-03 1.979398075491189957e-03
1.394000000000000000e+03 6.892950439453125000e+01 7.698249340057373047e+00 -3.418434858322143555e-01 4.096500873565673828e-01 2.034198306500911713e-02 -5.121983289718627930e-01
1.395000000000000000e+03 6.902593994140625000e+01 7.133937358856201172e+00 1.949671469628810883e-02 7.889845967292785645e-01 2.425443828105926514e-01 -2.281936854124069214e-01
1.396000000000000000e+03 6.675188446044921875e+01 7.408487796783447266e+00 -6.405677199363708496e-01 1.284639816731214523e-02 -1.883164048194885254e-01 -8.723249435424804688e-01
1.397000000000000000e+03 6.902050018310546875e+01 5.627972602844238281e+00 1.412783861160278320e-01 1.662806391716003418e+00 5.412254333496093750e-01 5.664008110761642456e-02
1.398000000000000000e+03 5.342678451538085938e+01 7.097057819366455078e+00 -1.365237496793270111e-02 -4.071457777172327042e-03 -5.317149683833122253e-03 -2.713442966341972351e-02
1.399000000000000000e+03 5.262399291992187500e+01 8.701489448547363281e+00 1.451687794178724289e-02 -1.179404091089963913e-02 8.168509812094271183e-04 -1.274002250283956528e-02
1.400000000000000000e+03 2.060878038406372070e+00 2.717590808868408203e+00 -1.247559848707169294e-04 -2.154859394067898393e-04 -1.020725758280605078e-04 5.656549910781905055e-05
1.401000000000000000e+03 3.343919992446899414e+00 2.581506490707397461e+00 8.843759860610589385e-05 -3.433773235883563757e-04 -7.648191967746242881e-05 -1.825488106987904757e-05
1.402000000000000000e+03 5.425561141967773438e+01 1.391086101531982422e+01 -1.053308725357055664e+00 1.159125491976737976e-01 -2.812188267707824707e-01 3.350945413112640381e-01
1.403000000000000000e+03 5.500285339355468750e+01 1.382831382751464844e+01 -1.112499594688415527e+00 1.880739927291870117e-01 -2.773276865482330322e-01 3.149562478065490723e-01
1.404000000000000000e+03 5.274224853515625000e+01 1.422910881042480469e+01 -1.064950942993164062e+00 5.749541148543357849e-02 -3.022366762161254883e-01 4.654011130332946777e-01
1.405000000000000000e+03 6.861051177978515625e+01 1.332831573486328125e+01 -1.938385844230651855e+00 1.779988557100296021e-01 -5.281161069869995117e-01 1.056951880455017090e+00
1.406000000000000000e+03 6.777445220947265625e+01 1.194378948211669922e+01 -2.248922348022460938e+00 5.970751494169235229e-02 -6.567644476890563965e-01 1.502078533172607422e+00
1.407000000000000000e+03 7.174409484863281250e+01 1.175261306762695312e+01 -2.028676986694335938e+00 1.004573702812194824e-02 -6.055893898010253906e-01 6.174429655075073242e-01
1.408000000000000000e+03 6.925578308105468750e+01 1.246704864501953125e+01 -2.013875961303710938e+00 1.963360555237159133e-04 -6.041039228439331055e-01 1.180976152420043945e+00
1.409000000000000000e+03 1.416215419769287109e+01 -2.014091968536376953e+00 1.703245379030704498e-02 1.983822789043188095e-03 5.704883020371198654e-03 -8.635209873318672180e-03
1.410000000000000000e+03 1.045751476287841797e+01 -2.346395969390869141e+00 1.313251629471778870e-02 -4.779436858370900154e-04 3.796371631324291229e-03 1.895167864859104156e-03
1.411000000000000000e+03 1.176423454284667969e+01 -2.421346187591552734e+00 1.415359880775213242e-02 -8.724482613615691662e-04 3.984345123171806335e-03 -1.830911380238831043e-03
1.412000000000000000e+03 1.110505962371826172e+01 -2.348161935806274414e+00 1.431785151362419128e-02 -8.032539859414100647e-03 1.885593519546091557e-03 -2.896429738029837608e-03
1.413000000000000000e+03 1.907863235473632812e+01 6.979763984680175781e+00 -7.512937299907207489e-03 2.525804738979786634e-04 -2.178107155486941338e-03 -4.198130220174789429e-03
1.414000000000000000e+03 2.027173423767089844e+01 8.704325675964355469e+00 2.808863064274191856e-03 2.740106079727411270e-03 1.664690789766609669e-03 2.173846587538719177e-03
1.415000000000000000e+03 2.195021438598632812e+01 7.178701400756835938e+00 -1.336312294006347656e-02 6.811801344156265259e-03 -1.965396571904420853e-03 -4.650841467082500458e-03
1.416000000000000000e+03 7.763647460937500000e+01 6.716083526611328125e+00 -2.417479991912841797e+00 1.667602348327636719e+01 4.277563095092773438e+00 2.798220396041870117e+00
1.417000000000000000e+03 7.959909820556640625e+01 6.746172904968261719e+00 -4.146408736705780029e-01 1.027140617370605469e+01 2.957029581069946289e+00 -1.311156868934631348e+00
1.418000000000000000e+03 7.826804351806640625e+01 6.525418281555175781e+00 -2.549760580062866211e+00 1.717366027832031250e+01 4.387169837951660156e+00 -1.258619278669357300e-01
1.419000000000000000e+03 7.948754882812500000e+01 1.135541915893554688e+01 -1.847319751977920532e-01 1.481718540191650391e+01 4.389736175537109375e+00 2.522231340408325195e-01
1.420000000000000000e+03 7.776668548583984375e+01 1.038940143585205078e+01 -2.955276727676391602e+00 1.634146499633789062e+01 4.015856266021728516e+00 -1.549614548683166504e+00
1.421000000000000000e+03 5.646701812744140625e+01 1.283254909515380859e+01 -1.036916494369506836e+00 1.306563019752502441e-01 -2.718780636787414551e-01 2.591560408473014832e-02
1.422000000000000000e+03 5.575434875488281250e+01 1.374131488800048828e+01 -1.140307545661926270e+00 1.667048037052154541e-01 -2.920808196067810059e-01 1.847832351922988892e-01
1.423000000000000000e+03 5.726805114746093750e+01 1.357195186614990234e+01 -1.309253215789794922e+00 2.440324574708938599e-01 -3.195662200450897217e-01 4.254354909062385559e-02
1.424000000000000000e+03 5.650888442993164062e+01 1.365128326416015625e+01 -1.243253350257873535e+00 2.388153374195098877e-01 -3.013314306735992432e-01 2.034704983234405518e-01
1.425000000000000000e+03 5.878938293457031250e+01 1.345239257812500000e+01 -1.563985466957092285e+00 2.530809640884399414e-01 -3.932713568210601807e-01 -2.049251645803451538e-01
1.426000000000000000e+03 5.803571319580078125e+01 1.350680637359619141e+01 -1.473935484886169434e+00 2.740779817104339600e-01 -3.599572181701660156e-01 6.140507012605667114e-02
1.427000000000000000e+03 3.996259689331054688e+01 1.357093906402587891e+01 -3.145650923252105713e-01 4.242105782032012939e-02 -8.164320886135101318e-02 4.437221214175224304e-02
1.428000000000000000e+03 4.162844467163085938e+01 1.368532657623291016e+01 -3.604654669761657715e-01 4.585613310337066650e-02 -9.438280016183853149e-02 5.816186778247356415e-03
1.429000000000000000e+03 4.157215881347656250e+01 1.259983634948730469e+01 -2.363191395998001099e-01 3.640494123101234436e-02 -5.997425690293312073e-02 -1.459966320544481277e-02
1.430000000000000000e+03 4.074753189086914062e+01 1.356405735015869141e+01 -3.200564980506896973e-01 6.782446056604385376e-02 -7.566960901021957397e-02 1.610107347369194031e-02
1.431000000000000000e+03 4.304744720458984375e+01 1.299410820007324219e+01 -2.992867231369018555e-01 1.583687774837017059e-02 -8.503495156764984131e-02 -4.050755873322486877e-02
1.432000000000000000e+03 4.059662628173828125e+01 1.436046695709228516e+01 -4.100784361362457275e-01 6.411840021610260010e-02 -1.037880107760429382e-01 3.991847485303878784e-02
1.433000000000000000e+03 1.425803852081298828e+01 -4.166708469390869141e+00 8.157413452863693237e-03 -1.173209119588136673e-02 -1.072403159923851490e-03 -1.168558932840824127e-02
1.434000000000000000e+03 1.244188404083251953e+01 -2.568446636199951172e+00 1.309166662395000458e-02 -9.550791233777999878e-03 1.062262686900794506e-03 -6.820761132985353470e-03
1.435000000000000000e+03 1.698291206359863281e+01 7.019727706909179688e+00 1.287969294935464859e-02 4.994473420083522797e-03 5.362249910831451416e-03 4.083923064172267914e-03
1.436000000000000000e+03 7.683631896972656250e+00 6.651588439941406250e+00 -4.832138773053884506e-03 -3.985930234193801880e-03 -2.645420609042048454e-03 8.060421794652938843e-03
1.437000000000000000e+03 3.763610363006591797e+00 5.971659183502197266e+00 -2.335128374397754669e-03 -1.018582377582788467e-03 -1.006113248877227306e-03 1.534584793262183666e-03
1.438000000000000000e+03 4.248786449432373047e+00 4.502779483795166016e+00 -4.215164517518132925e-04 8.971102215582504869e-05 -9.954163397196680307e-05 7.987226708792150021e-04
1.439000000000000000e+03 6.920193672180175781e+00 7.016270637512207031e+00 1.586182275786995888e-03 -3.612820757552981377e-03 -6.079914746806025505e-04 7.076691370457410812e-03
1.440000000000000000e+03 6.027482032775878906e+00 7.411695957183837891e+00 -8.660275489091873169e-04 -3.313620574772357941e-03 -1.253894413821399212e-03 4.256195854395627975e-03
1.441000000000000000e+03 1.742085337638854980e+00 5.098588943481445312e+00 -4.508463025558739901e-04 -1.982252579182386398e-04 -1.947214768733829260e-04 5.485237343236804008e-04
1.442000000000000000e+03 3.995521783828735352e+00 3.407375574111938477e+00 -2.333718875888735056e-04 -2.087699976982548833e-04 -1.326425699517130852e-04 -7.909513442427851260e-06
1.443000000000000000e+03 6.010759735107421875e+01 1.358084297180175781e+01 -1.929833650588989258e+00 1.814853996038436890e-01 -5.245044827461242676e-01 -3.093526363372802734e-01
1.444000000000000000e+03 6.607884216308593750e+01 1.358128070831298828e+01 -3.638050079345703125e+00 -3.834055066108703613e-01 -1.206436634063720703e+00 1.311086654663085938e+00
1.445000000000000000e+03 6.779566192626953125e+01 1.268469715118408203e+01 -2.273809194564819336e+00 1.358155626803636551e-02 -6.780683398246765137e-01 1.372725725173950195e+00
1.446000000000000000e+03 6.700716400146484375e+01 1.275441837310791016e+01 -2.776473283767700195e+00 -2.504117600619792938e-02 -8.404543399810791016e-01 1.644062399864196777e+00
1.447000000000000000e+03 2.339429855346679688e+01 9.882629513740539551e-01 3.538305312395095825e-02 1.027860492467880249e-01 4.145073145627975464e-02 1.317797005176544189e-01
1.448000000000000000e+03 5.018896102905273438e+01 1.361167812347412109e+01 -3.705074489116668701e-01 -8.513844013214111328e-01 -3.665675520896911621e-01 4.990272223949432373e-01
1.449000000000000000e+03 2.656233406066894531e+01 -1.350443172454833984e+01 -2.721681632101535797e-02 -4.891908466815948486e-01 -1.549222916364669800e-01 6.472208071500062943e-03
1.450000000000000000e+03 2.675239181518554688e+01 -1.070650863647460938e+01 -2.826984226703643799e-01 -6.658685207366943359e-01 -2.845700979232788086e-01 1.001032441854476929e-01
1.451000000000000000e+03 6.162977600097656250e+01 1.488734054565429688e+01 -2.842690706253051758e+00 -3.522682189941406250e-01 -9.584876894950866699e-01 9.514789581298828125e-01
1.452000000000000000e+03 6.081639099121093750e+01 1.415332031250000000e+01 -3.095691204071044922e+00 1.548801660537719727e-01 -8.822432756423950195e-01 2.563273161649703979e-02
1.453000000000000000e+03 6.828092193603515625e+01 -1.521489334106445312e+01 -1.064925193786621094e+00 -4.744703173637390137e-01 -4.618186652660369873e-01 4.515469074249267578e-01
1.454000000000000000e+03 6.679882049560546875e+01 -1.710258865356445312e+01 1.702465564012527466e-01 5.438000559806823730e-01 2.142139822244644165e-01 1.135879233479499817e-01
1.455000000000000000e+03 3.821825027465820312e+01 -1.404016613960266113e+00 -1.143083572387695312e+00 2.302091941237449646e-02 -3.360188007354736328e-01 -2.567810714244842529e-01
1.456000000000000000e+03 4.113657760620117188e+01 -1.011957079172134399e-01 -1.879722237586975098e+00 -2.115622013807296753e-01 -6.273853182792663574e-01 -2.250073552131652832e-01
1.457000000000000000e+03 3.915390777587890625e+01 -4.355157613754272461e-01 -2.749921083450317383e+00 -7.728595137596130371e-01 -1.056834220886230469e+00 5.888986587524414062e-01
1.458000000000000000e+03 5.514315795898437500e+01 -1.917008209228515625e+01 -9.669896364212036133e-01 -4.848949909210205078e-01 -4.355653822422027588e-01 -3.997605443000793457e-01
1.459000000000000000e+03 2.507077980041503906e+01 1.776768875122070312e+01 -2.059995383024215698e-01 -4.882465675473213196e-02 -7.644725590944290161e-02 4.223726317286491394e-02
1.460000000000000000e+03 6.261475372314453125e+01 -2.727024555206298828e+00 2.609168887138366699e-01 1.182018995285034180e+00 4.328807592391967773e-01 1.642626971006393433e-01
1.461000000000000000e+03 6.543946075439453125e+01 -1.671514660120010376e-02 -7.480341792106628418e-01 4.889150261878967285e-01 -7.773574441671371460e-02 7.800793051719665527e-01
1.462000000000000000e+03 7.239584350585937500e+01 -1.647201156616210938e+01 1.591664701700210571e-01 5.913324832916259766e+00 1.821747303009033203e+00 1.071328520774841309e+00
1.463000000000000000e+03 3.758289718627929688e+01 2.072189807891845703e+00 -6.442499905824661255e-02 1.859727054834365845e-01 3.646431490778923035e-02 1.478754729032516479e-01
1.464000000000000000e+03 3.686388015747070312e+01 -2.035920858383178711e+00 -7.397205829620361328e-01 6.455328464508056641e-01 -2.825631015002727509e-02 -1.819157898426055908e-01
1.465000000000000000e+03 2.760294151306152344e+01 -1.296605229377746582e+00 -5.671558976173400879e-01 -5.830227956175804138e-02 -1.876374632120132446e-01 -5.636484622955322266e-01
1.466000000000000000e+03 3.316296386718750000e+01 -1.069220423698425293e+00 -4.109045565128326416e-01 3.625951707363128662e-01 -1.449281442910432816e-02 1.866697669029235840e-01
1.467000000000000000e+03 3.287316894531250000e+01 1.436064481735229492e+00 -8.812463879585266113e-01 2.675626613199710846e-02 -2.563470304012298584e-01 -6.425933837890625000e-01
1.468000000000000000e+03 7.455450439453125000e+01 -9.351431846618652344e+00 -1.718981564044952393e-01 5.844160556793212891e+00 1.701678752899169922e+00 1.432788968086242676e+00
1.469000000000000000e+03 6.215250778198242188e+01 -8.473542213439941406e+00 1.492355167865753174e-01 9.332596063613891602e-01 3.247485458850860596e-01 1.135186403989791870e-01
1.470000000000000000e+03 6.263851547241210938e+01 -1.127190589904785156e+01 -9.153898805379867554e-02 6.723667383193969727e-01 1.742483228445053101e-01 -1.503323949873447418e-02
1.471000000000000000e+03 6.306980514526367188e+01 -1.377524280548095703e+01 -3.326879143714904785e-01 6.205012202262878418e-01 8.634398132562637329e-02 -1.046784743666648865e-01
1.472000000000000000e+03 6.489354705810546875e+01 -1.398187351226806641e+01 -4.886152148246765137e-01 5.292993783950805664e-01 1.220524776726961136e-02 -6.888787448406219482e-02
1.473000000000000000e+03 3.633065795898437500e+01 1.772629499435424805e+00 -6.803888678550720215e-01 4.143583402037620544e-02 -1.916859000921249390e-01 2.599171400070190430e-01
1.474000000000000000e+03 6.573725128173828125e+01 -1.454926681518554688e+01 -4.036743938922882080e-01 4.449869096279144287e-01 1.239375676959753036e-02 1.947350427508354187e-02
1.475000000000000000e+03 6.204293823242187500e+01 -7.216206550598144531e+00 2.456505000591278076e-01 1.033404350280761719e+00 3.837164342403411865e-01 2.960681617259979248e-01
1.476000000000000000e+03 6.900964355468750000e+01 -4.010973930358886719e+00 -4.136755168437957764e-01 -3.765951693058013916e-01 -2.370812147855758667e-01 3.603088855743408203e-01
1.477000000000000000e+03 5.586391067504882812e+01 7.771448493003845215e-01 -4.156494140625000000e+00 -8.564001917839050293e-01 -1.503868341445922852e+00 2.773980498313903809e-01
1.478000000000000000e+03 5.461701202392578125e+01 9.873778223991394043e-01 -2.632021903991699219e+00 -3.972019255161285400e-01 -9.087671041488647461e-01 4.786469638347625732e-01
1.479000000000000000e+03 4.012093734741210938e+01 -1.256563067436218262e+00 -1.836190700531005859e+00 -5.600174069404602051e-01 -7.188624739646911621e-01 3.359908759593963623e-01
1.480000000000000000e+03 4.640002822875976562e+01 -7.355749607086181641e-01 -9.800699949264526367e-01 -2.791202962398529053e-01 -3.777571022510528564e-01 -5.348042845726013184e-01
1.481000000000000000e+03 4.517324447631835938e+01 2.010988950729370117e+00 -4.132569730281829834e-01 -1.466193348169326782e-01 -1.679628938436508179e-01 -2.467772215604782104e-01
1.482000000000000000e+03 3.888123703002929688e+01 7.897097587585449219e+00 3.353608539327979088e-03 1.258749328553676605e-02 4.782330710440874100e-03 -4.456853028386831284e-03
1.483000000000000000e+03 4.037784576416015625e+01 7.356499195098876953e+00 1.095547922886908054e-03 2.089406596496701241e-03 9.554863790981471539e-04 -3.976986743509769440e-03
1.484000000000000000e+03 4.952818298339843750e+01 6.996189594268798828e+00 3.062924183905124664e-02 -2.447748742997646332e-02 1.845526159740984440e-03 6.558855064213275909e-03
1.485000000000000000e+03 4.199312210083007812e+01 -1.054027557373046875e+00 -1.477141141891479492e+00 -8.025236427783966064e-02 -4.672180414199829102e-01 3.546215593814849854e-01
1.486000000000000000e+03 4.304944229125976562e+01 -1.786403357982635498e-01 -1.259535789489746094e+00 -8.967255055904388428e-02 -4.047625064849853516e-01 -1.464776098728179932e-01
1.487000000000000000e+03 4.779296875000000000e+01 5.226919651031494141e+00 -9.998194128274917603e-02 2.282892540097236633e-02 -2.314590476453304291e-02 -3.264917805790901184e-02
1.488000000000000000e+03 4.696790695190429688e+01 4.218360424041748047e+00 -2.150691300630569458e-01 1.091980189085006714e-02 -6.124479696154594421e-02 -7.261398434638977051e-02
1.489000000000000000e+03 5.220229721069335938e+01 6.753667831420898438e+00 -5.231109913438558578e-03 -3.709883242845535278e-02 -1.269898284226655960e-02 -3.361470624804496765e-02
1.490000000000000000e+03 4.966689300537109375e+01 8.591805458068847656e+00 4.434558004140853882e-02 1.480863336473703384e-02 1.774626411497592926e-02 2.047938294708728790e-02
1.491000000000000000e+03 3.466061019897460938e+01 1.646572303771972656e+01 -3.319634497165679932e-01 -9.148673713207244873e-02 -1.270350515842437744e-01 9.656635671854019165e-02
1.492000000000000000e+03 3.153788185119628906e+01 1.511769866943359375e+01 -3.098886311054229736e-01 1.543416734784841537e-02 -8.833633363246917725e-02 6.329245120286941528e-02
1.493000000000000000e+03 3.034119415283203125e+01 1.430514240264892578e+01 -1.884355545043945312e-01 1.706954278051853180e-02 -5.140980333089828491e-02 6.683641113340854645e-03
1.494000000000000000e+03 2.853191947937011719e+01 -6.601961851119995117e-01 -1.473515510559082031e+00 -1.369932442903518677e-01 -4.831525981426239014e-01 -5.307225584983825684e-01
1.495000000000000000e+03 5.161743164062500000e+01 -2.328999280929565430e+00 -9.642666578292846680e-01 5.341070294380187988e-01 -1.290478855371475220e-01 -4.870333373546600342e-01
1.496000000000000000e+03 4.711156463623046875e+01 -1.993578076362609863e+00 -1.179180502891540527e+00 -2.239870876073837280e-01 -4.209502637386322021e-01 -6.503006219863891602e-01
1.497000000000000000e+03 4.597949218750000000e+01 -1.748275876045227051e+00 -1.174419879913330078e+00 -5.499290227890014648e-01 -5.173046588897705078e-01 -4.515571594238281250e-01
1.498000000000000000e+03 2.568147087097167969e+01 8.403326988220214844e+00 -1.702640578150749207e-02 -1.539392583072185516e-02 -9.726098738610744476e-03 -1.786590553820133209e-02
1.499000000000000000e+03 2.451383972167968750e+01 8.986239433288574219e+00 -1.841906644403934479e-02 -5.785964895039796829e-04 -5.699298810213804245e-03 -1.113950181752443314e-02
1.500000000000000000e+03 2.468528175354003906e+01 1.127234268188476562e+01 -7.565248291939496994e-03 1.997184008359909058e-02 3.721977816894650459e-03 -4.449913743883371353e-03
1.501000000000000000e+03 7.726902008056640625e+01 -3.567067337036132812e+01 3.015616536140441895e-02 4.051124572753906250e+00 1.224384307861328125e+00 1.226580664515495300e-01
1.502000000000000000e+03 7.916967773437500000e+01 -3.469216537475585938e+01 -2.424259204417467117e-03 4.350804328918457031e+00 1.304514050483703613e+00 5.019174888730049133e-02
1.503000000000000000e+03 7.934854888916015625e+01 -3.059441184997558594e+01 -4.258926492184400558e-03 4.674494266510009766e+00 1.401070594787597656e+00 5.512770265340805054e-02
1.504000000000000000e+03 7.809832000732421875e+01 -2.509518814086914062e+01 -7.125228643417358398e-03 4.943535327911376953e+00 1.480923056602478027e+00 1.732963919639587402e-01
1.505000000000000000e+03 7.934267425537109375e+01 -2.231834411621093750e+01 5.188195500522851944e-03 5.443908691406250000e+00 1.634729146957397461e+00 4.206289723515510559e-02
1.506000000000000000e+03 7.887039184570312500e+01 -3.886123657226562500e+01 5.355393514037132263e-03 4.187679767608642578e+00 1.257910609245300293e+00 1.939094066619873047e-02
1.507000000000000000e+03 7.936920166015625000e+01 -2.784350967407226562e+01 -4.641245119273662567e-03 4.939456939697265625e+00 1.480444788932800293e+00 6.185664981603622437e-02
1.508000000000000000e+03 7.804541015625000000e+01 -3.045289421081542969e+01 1.045043487101793289e-02 4.467430114746093750e+00 1.343364119529724121e+00 1.669275611639022827e-01
1.509000000000000000e+03 7.809740447998046875e+01 -2.644432067871093750e+01 -4.522836301475763321e-03 4.821648597717285156e+00 1.445137739181518555e+00 1.847832202911376953e-01
1.510000000000000000e+03 7.691287994384765625e+01 3.492647933959960938e+01 8.159902691841125488e-02 4.785916328430175781e+00 1.460254549980163574e+00 -2.860876321792602539e-01
1.511000000000000000e+03 7.936742401123046875e+01 3.614951705932617188e+01 4.874696023762226105e-03 5.054190158843994141e+00 1.517719388008117676e+00 -3.502038866281509399e-02
1.512000000000000000e+03 7.803915405273437500e+01 -2.238495826721191406e+01 -2.816826291382312775e-02 5.186408996582031250e+00 1.547472119331359863e+00 1.326907724142074585e-01
1.513000000000000000e+03 7.677659606933593750e+01 -2.905479431152343750e+01 2.203479222953319550e-02 4.345678329467773438e+00 1.310313940048217773e+00 2.692586779594421387e-01
1.514000000000000000e+03 7.953281402587890625e+01 1.405292606353759766e+01 -7.832237519323825836e-03 1.397284793853759766e+01 4.189504623413085938e+00 -3.514955639839172363e-01
1.515000000000000000e+03 7.762120056152343750e+01 1.453087997436523438e+01 -3.067588806152343750e-02 9.797030448913574219e+00 2.929906368255615234e+00 -1.646192193031311035e+00
1.516000000000000000e+03 7.945960235595703125e+01 1.811397743225097656e+01 2.816422469913959503e-02 1.058672904968261719e+01 3.184468030929565430e+00 -3.420260846614837646e-01
1.517000000000000000e+03 7.847336578369140625e+01 1.678672790527343750e+01 6.497947126626968384e-02 1.014771938323974609e+01 3.063809871673583984e+00 -1.012255549430847168e+00
1.518000000000000000e+03 7.934164428710937500e+01 2.222539520263671875e+01 6.305014831013977528e-04 8.288532257080078125e+00 2.486748933792114258e+00 -2.774009108543395996e-01
1.519000000000000000e+03 7.822780609130859375e+01 1.938927841186523438e+01 8.862586319446563721e-02 8.628949165344238281e+00 2.615272521972656250e+00 -9.230632185935974121e-01
1.520000000000000000e+03 7.926137542724609375e+01 2.501131248474121094e+01 8.978906087577342987e-03 7.208763122558593750e+00 2.165322542190551758e+00 -2.407110482454299927e-01
1.521000000000000000e+03 7.791820526123046875e+01 2.343793869018554688e+01 6.582520157098770142e-02 7.000470161437988281e+00 2.119888544082641602e+00 -7.205335497856140137e-01
1.522000000000000000e+03 7.921524810791015625e+01 2.641354560852050781e+01 1.059969142079353333e-02 6.774176597595214844e+00 2.035432815551757812e+00 -2.221291959285736084e-01
1.523000000000000000e+03 7.748879241943359375e+01 3.054773139953613281e+01 5.965776368975639343e-02 5.352307319641113281e+00 1.623589515686035156e+00 -4.397414922714233398e-01
1.524000000000000000e+03 7.746554565429687500e+01 2.912124061584472656e+01 7.116397470235824585e-02 5.603543281555175781e+00 1.702412247657775879e+00 -4.977319240570068359e-01
1.525000000000000000e+03 7.908631896972656250e+01 3.352238082885742188e+01 3.504915907979011536e-02 5.344962120056152344e+00 1.614003419876098633e+00 -1.168347448110580444e-01
1.526000000000000000e+03 7.848691558837890625e+01 1.317120265960693359e+01 -2.859788835048675537e-01 1.249625682830810547e+01 3.663083314895629883e+00 -9.979746341705322266e-01
1.527000000000000000e+03 7.929975891113281250e+01 -1.813857841491699219e+01 -1.364731229841709137e-02 5.575147628784179688e+00 1.668450117111206055e+00 3.559101140126585960e-03
1.528000000000000000e+03 7.662277984619140625e+01 -2.118177413940429688e+01 -6.344582140445709229e-02 5.093572616577148438e+00 1.509038090705871582e+00 2.453221082687377930e-01
1.529000000000000000e+03 7.935321807861328125e+01 -1.397327804565429688e+01 4.457972198724746704e-02 6.091798305511474609e+00 1.840913414955139160e+00 1.879426538944244385e-01
1.530000000000000000e+03 7.934594726562500000e+01 -1.121826076507568359e+01 2.011807449162006378e-02 7.285211563110351562e+00 2.191598892211914062e+00 3.375326693058013916e-01
1.531000000000000000e+03 7.803100585937500000e+01 -1.405450534820556641e+01 2.111254781484603882e-01 6.096982479095458984e+00 1.892432332038879395e+00 5.262908339500427246e-01
1.532000000000000000e+03 7.934002685546875000e+01 -8.415006637573242188e+00 -1.169237308204174042e-02 8.858885765075683594e+00 2.654157876968383789e+00 3.702437877655029297e-01
1.533000000000000000e+03 7.679572296142578125e+01 -1.173037433624267578e+01 3.123390376567840576e-01 6.368218421936035156e+00 2.004167318344116211e+00 1.169782280921936035e+00
1.534000000000000000e+03 7.942641448974609375e+01 -4.178649902343750000e+00 -2.227863483130931854e-02 1.108054065704345703e+01 3.317478656768798828e+00 2.607093453407287598e-01
1.535000000000000000e+03 7.797067260742187500e+01 -7.056111335754394531e+00 -6.905032694339752197e-02 8.338123321533203125e+00 2.480721950531005859e+00 9.141163825988769531e-01
1.536000000000000000e+03 7.950165557861328125e+01 -1.438183903694152832e+00 -1.600891165435314178e-02 1.235882186889648438e+01 3.702843904495239258e+00 1.421354711055755615e-01
1.537000000000000000e+03 7.722883605957031250e+01 -3.934494495391845703e+00 -5.376718193292617798e-02 8.303022384643554688e+00 2.474776506423950195e+00 9.627518653869628906e-01
1.538000000000000000e+03 7.948767852783203125e+01 2.816328048706054688e+00 9.521296247839927673e-03 1.316150951385498047e+01 3.951309204101562500e+00 4.933435469865798950e-02
1.539000000000000000e+03 7.700485229492187500e+01 4.269264221191406250e+00 3.546320199966430664e-01 1.097612667083740234e+01 3.399227619171142578e+00 1.496479272842407227e+00
1.540000000000000000e+03 7.740775299072265625e+01 3.198617172241210938e+01 6.012201681733131409e-02 5.141447067260742188e+00 1.560470700263977051e+00 -3.523617088794708252e-01
1.541000000000000000e+03 7.822134399414062500e+01 3.562011718750000000e+01 1.592158898711204529e-02 4.977099418640136719e+00 1.497906327247619629e+00 -1.888923794031143188e-01
1.542000000000000000e+03 7.852063751220703125e+01 -1.546428918838500977e+00 -8.128869533538818359e-02 1.087086391448974609e+01 3.236872673034667969e+00 4.965967535972595215e-01
1.543000000000000000e+03 7.785782623291015625e+01 -1.813262367248535156e+01 1.950093731284141541e-02 5.541460514068603516e+00 1.668288469314575195e+00 7.902297377586364746e-02
1.544000000000000000e+03 4.458938598632812500e+01 -5.458475112915039062e+00 5.597166344523429871e-02 -1.410605669021606445e+00 -4.063901901245117188e-01 -1.635936945676803589e-01
1.545000000000000000e+03 2.574929237365722656e+01 -4.418808937072753906e+00 2.314233481884002686e-01 -4.985369741916656494e-01 -8.013408631086349487e-02 -2.832345366477966309e-01
1.546000000000000000e+03 2.517260742187500000e+01 -6.071746826171875000e+00 1.704268753528594971e-01 -8.071199059486389160e-01 -1.910079121589660645e-01 6.397285312414169312e-02
1.547000000000000000e+03 5.702413177490234375e+01 -9.991560935974121094e+00 2.668660581111907959e-01 3.669747337698936462e-02 9.106906503438949585e-02 -7.216554880142211914e-02
1.548000000000000000e+03 5.583168029785156250e+01 -9.295324325561523438e+00 3.814749419689178467e-01 -5.894470959901809692e-02 9.675907343626022339e-02 -1.695359498262405396e-01
1.549000000000000000e+03 5.594100570678710938e+01 -1.458479785919189453e+01 -6.397441774606704712e-02 -1.030039712786674500e-01 -5.009351670742034912e-02 -5.091308429837226868e-02
1.550000000000000000e+03 5.783024215698242188e+01 -1.163594913482666016e+01 8.796109259128570557e-02 1.420427113771438599e-01 6.900113821029663086e-02 -6.582135707139968872e-02
1.551000000000000000e+03 4.469989776611328125e+01 -9.862360954284667969e+00 5.696462988853454590e-01 -8.842001855373382568e-02 1.443678885698318481e-01 -5.071957707405090332e-01
1.552000000000000000e+03 4.491430282592773438e+01 -1.110790538787841797e+01 5.173624753952026367e-01 -4.745512455701828003e-02 1.409722119569778442e-01 -6.257036924362182617e-01
1.553000000000000000e+03 5.677476501464843750e+01 -1.292257881164550781e+01 -1.977090723812580109e-02 4.408457502722740173e-02 7.294100243598222733e-03 -7.552792131900787354e-02
1.554000000000000000e+03 5.263824462890625000e+01 -5.076459884643554688e+00 4.454876184463500977e-01 3.765828013420104980e-01 2.466211169958114624e-01 -4.763053059577941895e-01
1.555000000000000000e+03 5.194132232666015625e+01 -3.805271148681640625e+00 -2.843528985977172852e-01 5.374844074249267578e-01 7.593945413827896118e-02 -4.454690217971801758e-01
1.556000000000000000e+03 4.420289230346679688e+01 -8.785275459289550781e+00 4.142625033855438232e-01 -4.574638605117797852e-01 -1.296040881425142288e-02 -5.801955461502075195e-01
1.557000000000000000e+03 5.721518707275390625e+01 -1.567630863189697266e+01 -8.896220475435256958e-02 -1.964264810085296631e-01 -8.561660349369049072e-02 -2.440948635339736938e-01
1.558000000000000000e+03 4.703000640869140625e+01 -1.225317668914794922e+01 5.488705039024353027e-01 9.064747691154479980e-01 4.366035759449005127e-01 -7.063811421394348145e-01
1.559000000000000000e+03 5.411917495727539062e+01 -7.189568042755126953e+00 6.350308060646057129e-01 9.156072884798049927e-02 2.179774641990661621e-01 -4.178579449653625488e-01
1.560000000000000000e+03 5.099893569946289062e+01 -1.867255973815917969e+01 -2.273607999086380005e-01 5.228533744812011719e-01 8.864777535200119019e-02 -2.149437814950942993e-01
1.561000000000000000e+03 4.481493377685546875e+01 -1.338954067230224609e+01 1.269714087247848511e-01 -2.225670218467712402e-02 3.141441196203231812e-02 -4.262441992759704590e-01
1.562000000000000000e+03 5.492449569702148438e+01 -8.245834350585937500e+00 4.611690044403076172e-01 1.174653507769107819e-02 1.418746560811996460e-01 -3.321149349212646484e-01
1.563000000000000000e+03 5.200941085815429688e+01 -1.758564186096191406e+01 1.376387774944305420e-01 3.592143952846527100e-01 1.490559577941894531e-01 -2.832924127578735352e-01
1.564000000000000000e+03 3.550537872314453125e+01 -1.597973918914794922e+01 -2.152940928936004639e-01 2.566128969192504883e-01 1.239563897252082825e-02 -1.006380617618560791e-01
1.565000000000000000e+03 2.050857305526733398e+00 2.621519279479980469e+01 -6.067048525437712669e-04 -1.943624578416347504e-02 -6.012884899973869324e-03 7.034873589873313904e-03
1.566000000000000000e+03 7.925406098365783691e-01 3.187301254272460938e+01 -2.113779773935675621e-04 -3.846895694732666016e-02 -1.160410046577453613e-02 3.362546674907207489e-03
1.567000000000000000e+03 2.735148191452026367e+00 3.474758911132812500e+01 1.298783929087221622e-03 -4.963622987270355225e-02 -1.450123358517885208e-02 9.003861807286739349e-03
1.568000000000000000e+03 9.077653288841247559e-01 3.890694046020507812e+01 1.639411086216568947e-03 -6.108941882848739624e-02 -1.783500239253044128e-02 1.535272924229502678e-03
1.569000000000000000e+03 3.064621210098266602e+00 -3.684457778930664062e+01 3.730328287929296494e-03 -2.203992158174514771e-01 -6.500066816806793213e-02 -1.901639997959136963e-02
1.570000000000000000e+03 2.512521028518676758e+00 -3.403585052490234375e+01 1.744877663441002369e-03 -2.078479975461959839e-01 -6.183093786239624023e-02 -2.203528583049774170e-02
1.571000000000000000e+03 1.954417824745178223e+00 2.345320320129394531e+01 -8.392081363126635551e-04 -1.124666910618543625e-02 -3.625763347372412682e-03 4.722002893686294556e-03
1.572000000000000000e+03 2.248551607131958008e+00 3.037920951843261719e+01 -1.983057009056210518e-04 -3.471817821264266968e-02 -1.047494541853666306e-02 9.164579212665557861e-03
1.573000000000000000e+03 6.619976758956909180e-01 -3.040891456604003906e+01 -1.188640162581577897e-04 -1.809596866369247437e-01 -5.432356521487236023e-02 -8.647421374917030334e-03
1.574000000000000000e+03 5.196666121482849121e-01 -6.514885425567626953e+00 -1.871588174253702164e-04 1.746629551053047180e-02 5.183740984648466110e-03 2.115974202752113342e-03
1.575000000000000000e+03 2.130403518676757812e+00 -4.288509845733642578e+00 1.019618357531726360e-03 5.658320151269435883e-03 2.003381494432687759e-03 6.465577054768800735e-03
1.576000000000000000e+03 5.429915785789489746e-01 -1.069172286987304688e+01 -4.593156336341053247e-04 2.691834606230258942e-02 7.937708869576454163e-03 -4.282622467144392431e-05
1.577000000000000000e+03 1.577857971191406250e+00 -9.335719108581542969e+00 -1.530242967419326305e-03 1.617962680757045746e-02 4.394815303385257721e-03 2.020914107561111450e-03
1.578000000000000000e+03 6.243322491645812988e-01 -1.350089550018310547e+01 -6.733733462169766426e-04 2.058116719126701355e-02 5.972337909042835236e-03 -2.648566151037812233e-03
1.579000000000000000e+03 6.646234989166259766e-01 -1.772668647766113281e+01 -3.282534889876842499e-04 -1.074357610195875168e-02 -3.321548923850059509e-03 -6.810830906033515930e-03
1.580000000000000000e+03 1.943673133850097656e+00 -1.629294586181640625e+01 -2.608105773106217384e-03 -1.383946184068918228e-02 -4.934270400553941727e-03 -1.591573469340801239e-02
1.581000000000000000e+03 6.793279647827148438e-01 -1.912595558166503906e+01 -6.469859508797526360e-04 -2.624307572841644287e-02 -8.067018352448940277e-03 -7.855942472815513611e-03
1.582000000000000000e+03 6.964330673217773438e-01 -2.053394317626953125e+01 -5.479931132867932320e-04 -4.376680031418800354e-02 -1.329443790018558502e-02 -9.081322699785232544e-03
1.583000000000000000e+03 7.198179364204406738e-01 -2.194917678833007812e+01 -6.094916025176644325e-04 -6.320796906948089600e-02 -1.914523728191852570e-02 -1.024452038109302521e-02
1.584000000000000000e+03 7.499108314514160156e-01 -2.336860275268554688e+01 -2.704059006646275520e-04 -8.380980044603347778e-02 -2.522406168282032013e-02 -1.107324380427598953e-02
1.585000000000000000e+03 2.420228958129882812e+00 -2.614707374572753906e+01 1.198694691993296146e-03 -1.262504309415817261e-01 -3.751552104949951172e-02 -3.299285098910331726e-02
1.586000000000000000e+03 2.164040565490722656e+00 -3.281042098999023438e+01 2.791007980704307556e-03 -1.995346397161483765e-01 -5.902309343218803406e-02 -2.132092602550983429e-02
1.587000000000000000e+03 2.060317516326904297e+00 1.651588058471679688e+01 -4.363880725577473640e-04 -3.176973899826407433e-03 -1.084008603356778622e-03 -3.760048421099781990e-04
1.588000000000000000e+03 6.722401380538940430e-01 1.498758506774902344e+01 5.152225276106037199e-05 -1.664438517764210701e-03 -4.838749009650200605e-04 -3.760763211175799370e-04
1.589000000000000000e+03 6.379632353782653809e-01 1.072593784332275391e+01 8.334809535881504416e-05 -2.944011008366942406e-03 -8.581988513469696045e-04 9.014338138513267040e-05
1.590000000000000000e+03 6.128606796264648438e-01 7.903835773468017578e+00 2.306339411006774753e-06 -1.622932846657931805e-03 -4.861879569943994284e-04 4.242911818437278271e-04
1.591000000000000000e+03 1.991090416908264160e+00 1.929807472229003906e+01 -1.006292877718806267e-03 -4.368072375655174255e-03 -1.612309599295258522e-03 1.239945297129452229e-03
1.592000000000000000e+03 1.931729793548583984e+00 2.207455825805664062e+01 -1.039726543240249157e-03 -8.199809119105339050e-03 -2.771860919892787933e-03 3.571799490600824356e-03
1.593000000000000000e+03 3.296966791152954102e+00 -3.837626266479492188e+01 7.328349165618419647e-03 -2.263750731945037842e-01 -6.571401655673980713e-02 -1.563884317874908447e-02
1.594000000000000000e+03 1.937133193016052246e+00 -3.159587287902832031e+01 9.680420043878257275e-04 -1.885019987821578979e-01 -5.626018717885017395e-02 -2.126477099955081940e-02
1.595000000000000000e+03 2.347192287445068359e+00 -2.469375038146972656e+01 -4.883760993834584951e-05 -1.079973503947257996e-01 -3.241385519504547119e-02 -3.296461328864097595e-02
1.596000000000000000e+03 7.794877886772155762e-01 -2.478903198242187500e+01 -1.691855723038315773e-04 -1.046363040804862976e-01 -3.144164755940437317e-02 -1.147283148020505905e-02
1.597000000000000000e+03 1.954710364341735840e+00 -1.488060855865478516e+01 -3.224949119612574577e-03 -3.467150963842868805e-03 -2.007630188018083572e-03 -1.232210453599691391e-02
1.598000000000000000e+03 6.479911208152770996e-01 -1.491593360900878906e+01 -6.180861964821815491e-04 1.325973495841026306e-02 3.792494535446166992e-03 -4.051926545798778534e-03
1.599000000000000000e+03 2.575919628143310547e+00 -6.887011051177978516e+00 -1.684278598986566067e-03 7.834426127374172211e-03 1.845044200308620930e-03 6.579069886356592178e-03
1.600000000000000000e+03 5.128648281097412109e-01 -7.907184600830078125e+00 -2.572405501268804073e-04 2.255347557365894318e-02 6.688870489597320557e-03 1.506376895122230053e-03
1.601000000000000000e+03 1.458623290061950684e+00 -3.331524848937988281e+00 9.825105080381035805e-04 4.699145443737506866e-03 1.704496680758893490e-03 4.323604516685009003e-03
1.602000000000000000e+03 1.980109453201293945e+00 1.365314960479736328e+01 3.610675339587032795e-04 -3.118641674518585205e-03 -8.272722479887306690e-04 -6.990664987824857235e-04
1.603000000000000000e+03 3.138735961914062500e+01 3.783713102340698242e+00 3.509463071823120117e-01 -2.496628910303115845e-01 3.038502112030982971e-02 -1.246755793690681458e-01
1.604000000000000000e+03 3.530728530883789062e+01 7.133353710174560547e+00 8.162280172109603882e-02 -2.033422514796257019e-02 1.838657259941101074e-02 -2.650982514023780823e-02
1.605000000000000000e+03 3.147923278808593750e+01 5.541792869567871094e+00 3.771448731422424316e-01 9.014759212732315063e-02 1.401877403259277344e-01 1.571310609579086304e-01
1.606000000000000000e+03 3.435581970214843750e+01 6.416700839996337891e+00 1.043035015463829041e-01 -4.922478273510932922e-02 1.652361452579498291e-02 -5.864935461431741714e-03
1.607000000000000000e+03 2.355194473266601562e+01 -1.259820461273193359e+01 -2.110911756753921509e-01 -5.032673478126525879e-01 -2.143075615167617798e-01 -3.509598076343536377e-01
1.608000000000000000e+03 2.700901031494140625e+01 -2.912788629531860352e+00 -6.194766238331794739e-02 -2.885804176330566406e-01 -1.051584258675575256e-01 -5.868102312088012695e-01
1.609000000000000000e+03 2.869690895080566406e+01 -3.491571426391601562e+00 -2.466193959116935730e-02 -4.368823468685150146e-01 -1.384632885456085205e-01 -8.735629916191101074e-01
1.610000000000000000e+03 3.273991775512695312e+01 -1.400745868682861328e+01 -1.453221961855888367e-02 3.705793023109436035e-01 1.068141236901283264e-01 -4.378451034426689148e-02
1.611000000000000000e+03 2.123734855651855469e+01 1.372585773468017578e+00 9.451235644519329071e-03 2.472622552886605263e-03 3.577157389372587204e-03 7.291194051504135132e-03
1.612000000000000000e+03 2.209247207641601562e+01 -1.396242141723632812e+00 2.499430812895298004e-02 1.223460957407951355e-01 4.420212283730506897e-02 2.298512496054172516e-03
1.613000000000000000e+03 1.503990650177001953e+01 -6.193680763244628906e+00 -1.475974102504551411e-03 -8.487137965857982635e-03 -2.988933585584163666e-03 2.014794386923313141e-03
1.614000000000000000e+03 2.371716690063476562e+01 -1.794401168823242188e+00 -1.089418083429336548e-01 1.933863312005996704e-01 2.533335797488689423e-02 -2.671155706048011780e-02
1.615000000000000000e+03 2.387628555297851562e+01 -8.940383791923522949e-01 -1.024633869528770447e-01 1.861182004213333130e-01 2.509644441306591034e-02 2.061993815004825592e-02
1.616000000000000000e+03 2.004545402526855469e+01 -9.465831756591796875e+00 -2.500192821025848389e-01 -1.675037108361721039e-02 -8.003089576959609985e-02 -3.969186544418334961e-02
1.617000000000000000e+03 5.121664047241210938e+01 3.974515438079833984e+00 -3.731426596641540527e-01 -6.885550916194915771e-02 -1.325994431972503662e-01 1.617648750543594360e-01
1.618000000000000000e+03 3.502768325805664062e+01 -5.918916463851928711e-01 -8.516703844070434570e-01 8.686376214027404785e-01 5.090156104415655136e-03 2.535313740372657776e-02
1.619000000000000000e+03 3.895649719238281250e+01 -2.446512699127197266e+00 -5.778155922889709473e-01 -1.992302089929580688e-01 -2.331137508153915405e-01 4.390536621212959290e-02
1.620000000000000000e+03 3.761641311645507812e+01 -3.282202959060668945e+00 1.221543410792946815e-03 5.564607977867126465e-01 1.673046946525573730e-01 -3.530768752098083496e-01
1.621000000000000000e+03 4.209798049926757812e+01 -1.073657703399658203e+01 4.674468040466308594e-01 -6.928542256355285645e-01 -6.762222200632095337e-02 -6.738477945327758789e-01
1.622000000000000000e+03 2.758828163146972656e+01 -7.418492317199707031e+00 -9.860622882843017578e-02 -4.767875671386718750e-01 -1.726181358098983765e-01 -5.536530017852783203e-01
1.623000000000000000e+03 2.991742706298828125e+01 -7.574193000793457031e+00 1.434875428676605225e-01 2.927754521369934082e-01 1.308788955211639404e-01 -4.158489704132080078e-01
1.624000000000000000e+03 2.914424514770507812e+01 -4.732889175415039062e+00 2.927042245864868164e-01 -3.951206505298614502e-01 -3.072492592036724091e-02 -6.376191377639770508e-01
1.625000000000000000e+03 4.088781356811523438e+01 -6.765440464019775391e+00 3.970544636249542236e-01 -2.200470417737960815e-01 5.310222506523132324e-02 -5.235060453414916992e-01
1.626000000000000000e+03 3.401007461547851562e+01 -1.353888034820556641e+01 6.062825769186019897e-02 3.830454647541046143e-01 1.331021189689636230e-01 -1.992600858211517334e-01
1.627000000000000000e+03 3.613205718994140625e+01 -1.395105552673339844e+01 1.695266664028167725e-01 3.050813078880310059e-01 1.423823982477188110e-01 -2.654148638248443604e-01
1.628000000000000000e+03 3.630014038085937500e+01 -1.725483512878417969e+01 -3.950505554676055908e-01 2.297766953706741333e-01 -4.958216100931167603e-02 -2.715197205543518066e-01
1.629000000000000000e+03 3.068671798706054688e+01 -8.876217842102050781e+00 -1.035401318222284317e-02 5.543125271797180176e-01 1.631875485181808472e-01 -2.841299474239349365e-01
1.630000000000000000e+03 4.112749481201171875e+01 -7.868941307067871094e+00 5.447030067443847656e-01 -2.799636721611022949e-01 7.942179590463638306e-02 -6.335377097129821777e-01
1.631000000000000000e+03 6.088155364990234375e+01 -1.289612412452697754e+00 -9.036738872528076172e-01 -5.461482703685760498e-02 -2.874866127967834473e-01 -6.394121795892715454e-02
1.632000000000000000e+03 6.112306976318359375e+01 3.381718158721923828e+00 -2.023906707763671875e+00 -1.322306632995605469e+00 -1.003864049911499023e+00 -1.489831805229187012e+00
1.633000000000000000e+03 5.817964935302734375e+01 -1.954822421073913574e+00 -6.594597101211547852e-01 -9.056466817855834961e-01 -4.695319235324859619e-01 -1.795837283134460449e-01
1.634000000000000000e+03 5.256855773925781250e+01 4.398359775543212891e+00 -9.594216942787170410e-02 -9.801425039768218994e-02 -5.818692594766616821e-02 2.592936903238296509e-02
1.635000000000000000e+03 5.451980590820312500e+01 7.601132392883300781e+00 -1.045289449393749237e-02 1.691288687288761139e-02 1.937997876666486263e-03 -2.783297374844551086e-02
1.636000000000000000e+03 5.359653091430664062e+01 8.587946891784667969e+00 4.187249112874269485e-03 4.099450074136257172e-03 2.486009616404771805e-03 -2.379491552710533142e-02
1.637000000000000000e+03 6.407469940185546875e+01 3.309424400329589844e+00 -1.060160875320434570e+00 -2.289147824048995972e-01 -3.867227137088775635e-01 -2.379210889339447021e-01
1.638000000000000000e+03 6.073041152954101562e+01 1.644460201263427734e+00 -2.296248674392700195e+00 -7.269845008850097656e-01 -9.069699048995971680e-01 -1.171144366264343262e+00
1.639000000000000000e+03 6.174438095092773438e+01 2.269227981567382812e+00 -1.853534221649169922e+00 -5.973753333091735840e-01 -7.352728843688964844e-01 -8.173055648803710938e-01
1.640000000000000000e+03 6.445046997070312500e+01 5.777363777160644531e+00 -7.444173097610473633e-01 -7.064458727836608887e-01 -4.352589547634124756e-01 -7.914826869964599609e-01
1.641000000000000000e+03 6.635934448242187500e+01 6.345847129821777344e+00 -4.574215710163116455e-01 -6.331358104944229126e-02 -1.562205404043197632e-01 -7.089427709579467773e-01
1.642000000000000000e+03 6.464515686035156250e+01 7.345980167388916016e+00 -7.301048040390014648e-01 -8.420864939689636230e-01 -4.716573953628540039e-01 -8.363657593727111816e-01
1.643000000000000000e+03 2.136936187744140625e+01 1.783184242248535156e+01 -1.530114412307739258e-01 5.447843577712774277e-04 -4.573999717831611633e-02 5.565375089645385742e-02
1.644000000000000000e+03 1.517912197113037109e+01 1.495238971710205078e+01 -1.394795533269643784e-02 5.833989940583705902e-03 -2.434189664199948311e-03 5.657185800373554230e-03
1.645000000000000000e+03 1.427711391448974609e+01 1.364828586578369141e+01 3.915420733392238617e-03 5.376516841351985931e-03 2.787581179291009903e-03 5.574307870119810104e-03
1.646000000000000000e+03 1.859790039062500000e+01 1.701573944091796875e+01 -6.351785361766815186e-02 6.741462275385856628e-03 -1.703291758894920349e-02 1.909953355789184570e-02
1.647000000000000000e+03 1.036558723449707031e+01 9.986927032470703125e+00 7.747995667159557343e-03 5.831791553646326065e-03 4.073936026543378830e-03 3.985112067312002182e-03
1.648000000000000000e+03 1.234866905212402344e+01 1.161914825439453125e+01 8.871350437402725220e-03 6.049196701496839523e-03 4.476164001971483231e-03 6.326754111796617508e-03
1.649000000000000000e+03 1.997918128967285156e+01 1.740108871459960938e+01 -8.779706060886383057e-02 1.257913187146186829e-02 -2.256537973880767822e-02 1.888022758066654205e-02
1.650000000000000000e+03 2.549528694152832031e+01 1.220754337310791016e+01 -7.475113496184349060e-03 4.064009059220552444e-03 -1.023331307806074619e-03 -6.062873173505067825e-03
1.651000000000000000e+03 2.676242828369140625e+01 1.397834205627441406e+01 -4.707492887973785400e-02 -1.969983428716659546e-02 -2.003243006765842438e-02 3.390604257583618164e-02
1.652000000000000000e+03 6.582903289794921875e+01 1.656467628479003906e+01 -1.300386190414428711e+00 -5.235410332679748535e-01 -5.471781492233276367e-01 1.560639441013336182e-01
1.653000000000000000e+03 6.330450057983398438e+01 1.474220657348632812e+01 -4.078279495239257812e+00 -1.434355497360229492e+00 -1.653790473937988281e+00 7.654523849487304688e-01
1.654000000000000000e+03 2.248611450195312500e+01 8.352467536926269531e+00 -9.359301999211311340e-03 9.577758610248565674e-03 6.553674757014960051e-05 2.108971093548461795e-04
1.655000000000000000e+03 2.317065048217773438e+01 1.004116630554199219e+01 -3.179821651428937912e-03 6.494164932519197464e-03 9.943030308932065964e-04 1.753654680214822292e-03
1.656000000000000000e+03 1.871378517150878906e+01 8.704571723937988281e+00 7.645441219210624695e-03 3.509338712319731712e-03 3.346434095874428749e-03 4.182566888630390167e-03
1.657000000000000000e+03 2.237358856201171875e+01 1.108610439300537109e+01 9.738507680594921112e-03 1.570226065814495087e-02 7.632230874150991440e-03 9.587966836988925934e-03
1.658000000000000000e+03 4.582000732421875000e+01 1.574331951141357422e+01 -1.270086050033569336e+00 9.024927020072937012e-02 -3.539510369300842285e-01 5.329545587301254272e-02
1.659000000000000000e+03 4.368598556518554688e+01 1.451915359497070312e+01 -5.675401091575622559e-01 4.675033316016197205e-02 -1.562369316816329956e-01 -5.228460580110549927e-02
1.660000000000000000e+03 7.641378784179687500e+01 6.959324359893798828e+00 9.543140530586242676e-01 6.009600162506103516e+00 2.089174270629882812e+00 3.172014236450195312e+00
1.661000000000000000e+03 7.700609588623046875e+01 6.325180530548095703e+00 -1.170556068420410156e+00 1.239015007019042969e+01 3.365878105163574219e+00 3.518216848373413086e+00
1.662000000000000000e+03 7.640907287597656250e+01 6.587769031524658203e+00 4.363771900534629822e-02 7.244919776916503906e+00 2.186567306518554688e+00 2.973674058914184570e+00
1.663000000000000000e+03 7.586653137207031250e+01 1.048305797576904297e+01 -1.033496022224426270e+00 3.943271160125732422e+00 8.729325532913208008e-01 -2.620039463043212891e+00
1.664000000000000000e+03 7.552089691162109375e+01 1.086804389953613281e+01 -9.809864759445190430e-01 3.551165342330932617e+00 7.710536122322082520e-01 -2.144113063812255859e+00
1.665000000000000000e+03 7.289998626708984375e+01 1.132036972045898438e+01 -2.088027954101562500e+00 2.339694797992706299e-01 -5.562175512313842773e-01 3.567614853382110596e-01
1.666000000000000000e+03 7.329179382324218750e+01 1.102525424957275391e+01 -2.262145280838012695e+00 3.333707749843597412e-01 -5.786323547363281250e-01 2.446729987859725952e-01
1.667000000000000000e+03 7.497685241699218750e+01 1.101326656341552734e+01 -1.105249881744384766e+00 2.226011753082275391e+00 3.362285494804382324e-01 -1.418435454368591309e+00
1.668000000000000000e+03 7.490783691406250000e+01 1.070590400695800781e+01 -1.451626420021057129e+00 1.737045526504516602e+00 8.562570810317993164e-02 -1.054399609565734863e+00
1.669000000000000000e+03 7.648541259765625000e+01 1.036900424957275391e+01 -1.027491450309753418e+00 7.171579360961914062e+00 1.843226313591003418e+00 -3.822604417800903320e+00
1.670000000000000000e+03 7.135538482666015625e+01 1.140638351440429688e+01 -2.520589351654052734e+00 -1.399272978305816650e-01 -7.981550097465515137e-01 8.519318699836730957e-01
1.671000000000000000e+03 7.606874847412109375e+01 1.044375419616699219e+01 -9.210925102233886719e-01 4.748243331909179688e+00 1.148145318031311035e+00 -3.077728033065795898e+00
1.672000000000000000e+03 7.370297241210937500e+01 1.096268463134765625e+01 -2.077759504318237305e+00 5.356180667877197266e-01 -4.626424610614776611e-01 4.744330421090126038e-02
1.673000000000000000e+03 7.704956817626953125e+01 5.236030578613281250e+00 -5.147665143013000488e-01 1.122144222259521484e+01 3.212002754211425781e+00 2.125842332839965820e+00
1.674000000000000000e+03 7.643532562255859375e+01 5.243510723114013672e+00 -4.148162603378295898e-01 1.023983764648437500e+01 2.947506427764892578e+00 1.970342159271240234e+00
1.675000000000000000e+03 7.617862701416015625e+01 6.101082324981689453e+00 -2.630205750465393066e-01 7.755107879638671875e+00 2.247626066207885742e+00 2.021567106246948242e+00
1.676000000000000000e+03 7.054369354248046875e+01 8.041717529296875000e+00 3.587798178195953369e-01 9.303984642028808594e-01 3.867534995079040527e-01 4.816549718379974365e-01
1.677000000000000000e+03 6.960497283935546875e+01 5.588695049285888672e+00 1.353270113468170166e-01 2.373287439346313477e+00 7.525843381881713867e-01 3.408838212490081787e-01
1.678000000000000000e+03 7.642166900634765625e+01 4.316740036010742188e+00 7.034054994583129883e-01 1.055195045471191406e+01 3.376606702804565430e+00 1.860398769378662109e+00
1.679000000000000000e+03 6.950768280029296875e+01 7.715470314025878906e+00 -1.433309018611907959e-01 6.364506483078002930e-01 1.479359269142150879e-01 -2.329600006341934204e-01
1.680000000000000000e+03 6.909414672851562500e+01 6.587515830993652344e+00 1.919172406196594238e-01 1.160389423370361328e+00 4.056920111179351807e-01 -3.264773264527320862e-02
1.681000000000000000e+03 6.977458953857421875e+01 6.454997062683105469e+00 3.099690675735473633e-01 1.960360050201416016e+00 6.810986995697021484e-01 4.872813820838928223e-01
1.682000000000000000e+03 6.858543395996093750e+01 3.332008838653564453e+00 5.884961038827896118e-02 1.283201694488525391e+00 4.026153981685638428e-01 2.289086729288101196e-01
1.683000000000000000e+03 6.753061676025390625e+01 7.571144104003906250e+00 -5.860140919685363770e-01 1.723500043153762817e-01 -1.240992173552513123e-01 -8.537352085113525391e-01
1.684000000000000000e+03 6.825514984130859375e+01 7.655659198760986328e+00 -5.224859118461608887e-01 2.724644839763641357e-01 -7.500641793012619019e-02 -7.403101325035095215e-01
1.685000000000000000e+03 7.532877349853515625e+01 1.351218819618225098e+00 -5.406353473663330078e-01 6.228621482849121094e+00 1.706395864486694336e+00 1.590819239616394043e+00
1.686000000000000000e+03 7.600795745849609375e+01 6.832324981689453125e+00 3.510705828666687012e-01 4.635160446166992188e+00 1.495869398117065430e+00 1.657470226287841797e+00
1.687000000000000000e+03 7.537687683105468750e+01 8.269968032836914062e-01 -6.659147143363952637e-01 6.160341262817382812e+00 1.648327946662902832e+00 1.627888560295104980e+00
1.688000000000000000e+03 7.565619659423828125e+01 1.524147748947143555e+00 -4.784636795520782471e-01 7.365772247314453125e+00 2.066192626953125000e+00 1.339721202850341797e+00
1.689000000000000000e+03 6.972758483886718750e+01 2.368205308914184570e+00 -2.854097783565521240e-01 1.181955575942993164e+00 2.689637541770935059e-01 -1.421147584915161133e-01
1.690000000000000000e+03 7.605897521972656250e+01 1.652312397956848145e+00 -2.720334827899932861e-01 8.293297767639160156e+00 2.406379461288452148e+00 1.009700298309326172e+00
1.691000000000000000e+03 7.580889892578125000e+01 2.192133188247680664e+00 1.429340541362762451e-01 8.381568908691406250e+00 2.557350873947143555e+00 1.295816063880920410e+00
1.692000000000000000e+03 7.572563171386718750e+01 3.509359836578369141e+00 1.224818825721740723e+00 1.153660869598388672e+01 3.828428268432617188e+00 2.423882961273193359e+00
1.693000000000000000e+03 7.640010070800781250e+01 3.859033823013305664e+00 1.253664493560791016e+00 1.030331325531005859e+01 3.467093467712402344e+00 1.496745824813842773e+00
1.694000000000000000e+03 7.062193298339843750e+01 1.556289792060852051e+00 -7.057323455810546875e-01 5.334731340408325195e-01 -5.167777463793754578e-02 1.406023558229207993e-02
1.695000000000000000e+03 7.636189270019531250e+01 2.313444852828979492e+00 2.164837121963500977e-01 9.284663200378417969e+00 2.850344181060791016e+00 8.238670825958251953e-01
1.696000000000000000e+03 7.286254119873046875e+01 1.058950543403625488e+00 -2.963844060897827148e+00 -1.617568135261535645e-01 -9.376802444458007812e-01 -1.851334124803543091e-01
1.697000000000000000e+03 7.484131622314453125e+01 8.248162865638732910e-01 -6.254655122756958008e-01 4.537398815155029297e+00 1.173579931259155273e+00 1.707207441329956055e+00
1.698000000000000000e+03 7.636326599121093750e+01 3.387608528137207031e+00 1.311888694763183594e+00 1.003361797332763672e+01 3.403652191162109375e+00 1.260793685913085938e+00
1.699000000000000000e+03 7.630960845947265625e+01 2.878286123275756836e+00 8.600852489471435547e-01 9.620818138122558594e+00 3.144271135330200195e+00 9.578897953033447266e-01
1.700000000000000000e+03 7.143414306640625000e+01 3.871350884437561035e-01 -1.035462498664855957e+00 2.061894237995147705e-01 -2.487819045782089233e-01 -4.464714229106903076e-01
1.701000000000000000e+03 7.241446685791015625e+01 5.750299096107482910e-01 -1.448286652565002441e+00 -2.180777043104171753e-01 -4.999093115329742432e-01 -7.121299207210540771e-02
1.702000000000000000e+03 7.334292602539062500e+01 5.717666745185852051e-01 -1.026296257972717285e+00 6.099118590354919434e-01 -1.249153241515159607e-01 6.684495210647583008e-01
1.703000000000000000e+03 6.904930877685546875e+01 3.033024311065673828e+00 -3.925198689103126526e-02 1.530974507331848145e+00 4.475167691707611084e-01 2.122124880552291870e-01
1.704000000000000000e+03 7.115244293212890625e+01 8.283871412277221680e-01 -1.289248228073120117e+00 3.685050606727600098e-01 -2.762229740619659424e-01 -3.263414502143859863e-01
1.705000000000000000e+03 7.192605590820312500e+01 5.703571438789367676e-01 -1.310852169990539551e+00 -8.002760261297225952e-02 -4.172639250755310059e-01 -2.954043149948120117e-01
1.706000000000000000e+03 6.881189727783203125e+01 3.862001657485961914e+00 3.275639116764068604e-01 1.523053765296936035e+00 5.551853179931640625e-01 4.034284874796867371e-02
1.707000000000000000e+03 8.617773056030273438e+00 -3.811644792556762695e+00 4.231490194797515869e-03 -3.023289376869797707e-03 3.624601813498884439e-04 6.320927292108535767e-03
1.708000000000000000e+03 8.874490737915039062e+00 -3.086432695388793945e+00 7.969675585627555847e-03 -2.087705768644809723e-03 1.764590968377888203e-03 5.011033266782760620e-03
1.709000000000000000e+03 7.016129970550537109e+00 -2.898854970932006836e+00 7.413936778903007507e-03 -6.449220818467438221e-04 2.030704403296113014e-03 6.178554613143205643e-03
1.710000000000000000e+03 8.349169731140136719e+00 -3.199331045150756836e+00 8.678019978106021881e-03 -5.413799546658992767e-03 9.792660130187869072e-04 3.662253962829709053e-03
1.711000000000000000e+03 9.422278404235839844e+00 -3.022637367248535156e+00 9.737284854054450989e-03 -7.289665285497903824e-03 7.342858589254319668e-04 1.995738130062818527e-03
1.712000000000000000e+03 9.842678070068359375e+00 -2.376075506210327148e+00 1.386714726686477661e-02 -6.911053787916898727e-03 2.086827997118234634e-03 4.814623680431395769e-04
1.713000000000000000e+03 7.857582092285156250e+01 1.151308917999267578e+01 -1.257296919822692871e+00 1.372965908050537109e+01 3.741708755493164062e+00 6.197090148925781250e-01
1.714000000000000000e+03 7.709306335449218750e+01 1.042227268218994141e+01 -2.002248764038085938e+00 1.205662250518798828e+01 3.016312122344970703e+00 -3.839427232742309570e+00
1.715000000000000000e+03 3.708441543579101562e+01 1.453236579895019531e+01 -3.895615935325622559e-01 1.300866948440670967e-03 -1.164782121777534485e-01 6.577473133802413940e-02
1.716000000000000000e+03 2.324551391601562500e+01 8.287833213806152344e+00 -1.510051544755697250e-02 4.254888743162155151e-03 -3.253687871620059013e-03 -7.837691344320774078e-03
1.717000000000000000e+03 3.854213333129882812e+01 1.449196720123291016e+01 -3.810372650623321533e-01 6.336303055286407471e-02 -9.530226886272430420e-02 5.785182118415832520e-02
1.718000000000000000e+03 3.705068206787109375e+01 1.538085174560546875e+01 -4.431483745574951172e-01 -1.584696816280484200e-03 -1.334199160337448120e-01 7.555872946977615356e-02
1.719000000000000000e+03 7.304681777954101562e+00 -3.574999094009399414e+00 6.336809601634740829e-03 -3.123579779639840126e-03 9.639690397307276726e-04 6.166418548673391342e-03
1.720000000000000000e+03 3.443067789077758789e+00 -4.024369716644287109e+00 2.119789132848381996e-03 2.831398043781518936e-03 1.485356129705905914e-03 8.367202244699001312e-03
1.721000000000000000e+03 6.700698089599609375e+01 6.745005607604980469e+00 -4.076074361801147461e-01 1.074926033616065979e-01 -9.003445506095886230e-02 -7.436954975128173828e-01
1.722000000000000000e+03 6.635690307617187500e+01 5.243260383605957031e+00 -3.581261038780212402e-01 4.991285502910614014e-02 -9.246397763490676880e-02 -4.452858269214630127e-01
1.723000000000000000e+03 5.301226425170898438e+01 7.991116523742675781e+00 5.571762099862098694e-03 -1.976326107978820801e-02 -4.257449414581060410e-03 -2.219980023801326752e-02
1.724000000000000000e+03 2.499084711074829102e+00 3.184189796447753906e+00 -1.605237775947898626e-04 3.224680767743848264e-05 -3.848308915621601045e-05 9.529775707051157951e-05
1.725000000000000000e+03 6.990061187744140625e+01 7.542937278747558594e+00 1.908916980028152466e-01 1.059000134468078613e+00 3.749675452709197998e-01 2.700901031494140625e-01
1.726000000000000000e+03 1.967108917236328125e+01 7.511865139007568359e+00 -5.964530282653868198e-04 2.109334745910018682e-04 -1.156558646471239626e-04 -1.987003954127430916e-03
1.727000000000000000e+03 5.435390090942382812e+01 1.475786113739013672e+01 -1.214103698730468750e+00 2.022873908281326294e-01 -3.035448789596557617e-01 4.031336009502410889e-01
1.728000000000000000e+03 5.365327835083007812e+01 1.483147144317626953e+01 -1.182863354682922363e+00 1.513091623783111572e-01 -3.094662725925445557e-01 4.257857799530029297e-01
1.729000000000000000e+03 6.940224456787109375e+01 1.386791610717773438e+01 -1.439603090286254883e+00 3.347643911838531494e-01 -3.314516246318817139e-01 6.817795634269714355e-01
1.730000000000000000e+03 1.161105251312255859e+01 -2.963916778564453125e+00 1.004683785140514374e-02 -9.167222306132316589e-03 2.638847508933395147e-04 -4.397538490593433380e-03
1.731000000000000000e+03 1.281706619262695312e+01 -3.497735023498535156e+00 8.219903334975242615e-03 -1.080739218741655350e-02 -7.762469467706978321e-04 -7.503325585275888443e-03
1.732000000000000000e+03 1.054688453674316406e+01 -2.927590608596801758e+00 1.132826693356037140e-02 -8.378515951335430145e-03 8.849250734783709049e-04 -1.559477415867149830e-03
1.733000000000000000e+03 2.060304260253906250e+01 6.925430774688720703e+00 -1.132047455757856369e-02 3.132322104647755623e-03 -2.456445945426821709e-03 -6.842168979346752167e-03
1.734000000000000000e+03 2.158641052246093750e+01 8.106938362121582031e+00 -7.595823146402835846e-03 4.115513525903224945e-03 -1.044092816300690174e-03 -4.001535009592771530e-03
1.735000000000000000e+03 2.057034873962402344e+01 7.811365604400634766e+00 -5.914505571126937866e-03 7.007423322647809982e-03 3.278754011262208223e-04 1.147275092080235481e-03
1.736000000000000000e+03 6.928509521484375000e+01 1.317199039459228516e+01 -1.726620078086853027e+00 2.309381663799285889e-01 -4.487046003341674805e-01 1.037283182144165039e+00
1.737000000000000000e+03 6.269095897674560547e+00 -3.549840211868286133e+00 5.346208810806274414e-03 -1.141583052230998874e-04 1.569615094922482967e-03 7.938357070088386536e-03
1.738000000000000000e+03 5.869675827026367188e+01 1.526262378692626953e+01 -1.695007085800170898e+00 2.433914989233016968e-01 -4.354846775531768799e-01 4.691172242164611816e-01
1.739000000000000000e+03 5.804674911499023438e+01 1.436058712005615234e+01 -1.610153794288635254e+00 3.245982229709625244e-01 -3.856666684150695801e-01 1.523363888263702393e-01
1.740000000000000000e+03 5.729056167602539062e+01 1.440675258636474609e+01 -1.486660361289978027e+00 2.935668528079986572e-01 -3.579280376434326172e-01 2.868883907794952393e-01
1.741000000000000000e+03 5.582563018798828125e+01 1.458830738067626953e+01 -1.326883077621459961e+00 2.694198489189147949e-01 -3.172389864921569824e-01 3.475490808486938477e-01
1.742000000000000000e+03 5.947639083862304688e+01 1.338945770263671875e+01 -1.581772208213806152e+00 5.559549480676651001e-02 -4.578529894351959229e-01 -1.339576691389083862e-01
1.743000000000000000e+03 5.884060668945312500e+01 1.438634109497070312e+01 -1.993482112884521484e+00 3.354599773883819580e-01 -4.974066317081451416e-01 2.917601466178894043e-01
1.744000000000000000e+03 4.129191970825195312e+01 1.467831802368164062e+01 -4.220925867557525635e-01 8.582380414009094238e-02 -1.008806377649307251e-01 1.426037121564149857e-02
1.745000000000000000e+03 4.263467788696289062e+01 1.403981971740722656e+01 -4.011982381343841553e-01 7.030309736728668213e-02 -9.926854819059371948e-02 -3.612735122442245483e-02
1.746000000000000000e+03 4.013290786743164062e+01 1.499919891357421875e+01 -4.291269779205322266e-01 7.646947354078292847e-02 -1.057972535490989685e-01 5.733921751379966736e-02
1.747000000000000000e+03 3.921778869628906250e+01 1.365809345245361328e+01 -3.180467188358306885e-01 5.917027592658996582e-02 -7.766292989253997803e-02 4.976449906826019287e-02
1.748000000000000000e+03 3.995505523681640625e+01 1.432019233703613281e+01 -3.854784667491912842e-01 8.148273080587387085e-02 -9.119872003793716431e-02 3.923220932483673096e-02
1.749000000000000000e+03 1.392275524139404297e+01 -2.937849998474121094e+00 1.362768560647964478e-02 -9.133262559771537781e-03 1.348326914012432098e-03 -1.084097847342491150e-02
1.750000000000000000e+03 2.740612983703613281e+00 5.202366828918457031e+00 -1.044270233251154423e-03 -5.875151837244629860e-04 -4.895356250926852226e-04 6.696470081806182861e-04
1.751000000000000000e+03 1.773076438903808594e+01 6.725587844848632812e+00 -6.440024357289075851e-03 -6.123253260739147663e-04 -2.115704817697405815e-03 -2.758236834779381752e-03
1.752000000000000000e+03 6.703268432617187500e+01 1.361617946624755859e+01 -2.586884498596191406e+00 -3.115856647491455078e-02 -7.854129076004028320e-01 9.768351316452026367e-01
1.753000000000000000e+03 5.508592987060546875e+01 1.468470478057861328e+01 -1.216793894767761230e+00 2.014924585819244385e-01 -3.045904338359832764e-01 3.378994166851043701e-01
1.754000000000000000e+03 8.269722938537597656e+00 8.840053558349609375e+00 1.007378473877906799e-02 -1.855843118391931057e-03 2.465382451191544533e-03 2.690349239856004715e-03
1.755000000000000000e+03 6.314984798431396484e+00 8.523022651672363281e+00 3.769841045141220093e-03 -3.987735603004693985e-03 -6.536828732350841165e-05 4.974506795406341553e-03
1.756000000000000000e+03 8.928856849670410156e+00 7.781519889831542969e+00 3.761271713301539421e-03 -4.950885340804234147e-05 1.113528851419687271e-03 1.204115687869489193e-03
1.757000000000000000e+03 5.220581531524658203e+00 5.280906200408935547e+00 -2.111481036990880966e-03 1.268214546144008636e-04 -5.953978397883474827e-04 8.688236121088266373e-04
1.758000000000000000e+03 4.745498180389404297e+00 4.857135772705078125e+00 -4.260621499270200729e-03 4.326033231336623430e-04 -1.148405484855175018e-03 1.181975938379764557e-03
1.759000000000000000e+03 5.542206764221191406e+00 5.800468444824218750e+00 -6.073026452213525772e-03 -1.336561253992840648e-04 -1.862004748545587063e-03 3.368735546246170998e-03
1.760000000000000000e+03 2.905017852783203125e+00 4.203164100646972656e+00 -4.931006697006523609e-04 -6.053266406524926424e-05 -1.660899870330467820e-04 4.507289559114724398e-04
1.761000000000000000e+03 4.553960323333740234e+00 -3.481055021286010742e+00 4.055672790855169296e-03 1.000782358460128307e-03 1.516936579719185829e-03 8.585474453866481781e-03
1.762000000000000000e+03 2.479115867614746094e+01 -6.558376550674438477e-01 -1.909691542387008667e-01 1.247205138206481934e-01 -1.987459324300289154e-02 -1.278821658343076706e-02
1.763000000000000000e+03 1.216318416595458984e+01 -3.212044954299926758e+00 1.327888946980237961e-02 -4.755385685712099075e-03 2.557051368057727814e-03 -1.463060500100255013e-03
1.764000000000000000e+03 1.236250209808349609e+01 -4.172739028930664062e+00 1.053089555352926254e-02 -9.419700130820274353e-03 3.333587083034217358e-04 7.251190836541354656e-04
1.765000000000000000e+03 2.436495971679687500e+01 2.287411987781524658e-01 -1.554108858108520508e-01 2.357648164033889771e-01 2.410618215799331665e-02 1.583847552537918091e-01
1.766000000000000000e+03 5.106049728393554688e+01 1.482179164886474609e+01 -1.378587961196899414e+00 -1.919854432344436646e-01 -4.711720347404479980e-01 5.268219113349914551e-01
1.767000000000000000e+03 5.959989547729492188e+01 1.421362018585205078e+01 -2.324274778366088867e+00 3.577968776226043701e-01 -5.899433493614196777e-01 -1.010429672896862030e-02
1.768000000000000000e+03 5.881645679473876953e+00 -4.327495574951171875e+00 1.177442143671214581e-03 -1.232321839779615402e-03 -1.646391865506302565e-05 7.914299145340919495e-03
1.769000000000000000e+03 6.085386276245117188e+01 1.582855892181396484e+01 -2.017942905426025391e+00 -2.563321292400360107e-01 -6.822825074195861816e-01 7.362782359123229980e-01
1.770000000000000000e+03 3.191468715667724609e+00 3.343536138534545898e+00 -7.375305867753922939e-04 -2.582368906587362289e-04 -2.987302432302385569e-04 -3.229113281122408807e-05
1.771000000000000000e+03 3.656153917312622070e+00 4.318054199218750000e+00 -1.965894596651196480e-03 -1.897031324915587902e-04 -6.466793129220604897e-04 4.097874334547668695e-04
1.772000000000000000e+03 2.448840713500976562e+01 1.018064594268798828e+01 -8.559600450098514557e-03 1.017758995294570923e-02 4.853967984672635794e-04 -1.998608233407139778e-03
1.773000000000000000e+03 7.748056793212890625e+01 6.151196956634521484e+00 -1.851842164993286133e+00 1.374263191223144531e+01 3.567236900329589844e+00 2.432147741317749023e+00
1.774000000000000000e+03 7.719537353515625000e+01 5.677886486053466797e+00 -1.066762804985046387e+00 1.231821918487548828e+01 3.375436782836914062e+00 2.299421310424804688e+00
1.775000000000000000e+03 6.517596435546875000e+01 6.473368167877197266e+00 -6.813815236091613770e-01 -4.952187538146972656e-01 -3.529800772666931152e-01 -7.868512868881225586e-01
1.776000000000000000e+03 5.035429382324218750e+01 7.776983261108398438e+00 1.225080247968435287e-02 -2.675463818013668060e-02 -4.351150710135698318e-03 1.166007015854120255e-02
1.777000000000000000e+03 5.112696075439453125e+01 6.999654293060302734e+00 4.837297834455966949e-03 -6.409587711095809937e-02 -1.777757517993450165e-02 -3.060966497287154198e-03
1.778000000000000000e+03 3.839642763137817383e+00 -3.206858158111572266e+00 3.524814965203404427e-03 1.512634451501071453e-03 1.511234790086746216e-03 7.941137067973613739e-03
1.779000000000000000e+03 3.960002517700195312e+01 -1.886636924743652344e+01 -2.402189075946807861e-01 -6.737665534019470215e-01 -2.741956412792205811e-01 -5.696591734886169434e-01
1.780000000000000000e+03 3.337722396850585938e+01 1.970083236694335938e+01 -2.372747957706451416e-01 -5.260445177555084229e-02 -8.696377277374267578e-02 1.813110858201980591e-01
1.781000000000000000e+03 3.193535614013671875e+01 1.796094894409179688e+01 -2.524553537368774414e-01 -3.297290951013565063e-02 -8.562847971916198730e-02 1.483282297849655151e-01
1.782000000000000000e+03 6.170749664306640625e+01 1.046489238739013672e+00 -1.790045142173767090e+00 -2.073625847697257996e-02 -5.432344079017639160e-01 -3.488130569458007812e-01
1.783000000000000000e+03 6.283945465087890625e+01 -1.724112868309020996e+00 -4.257437884807586670e-01 1.394091963768005371e+00 2.905044555664062500e-01 2.731941044330596924e-01
1.784000000000000000e+03 4.983841705322265625e+01 -1.965709304809570312e+01 -3.091466426849365234e-01 4.859432578086853027e-01 5.303898081183433533e-02 -2.456827610731124878e-01
1.785000000000000000e+03 4.761542510986328125e+01 1.714075356721878052e-01 -8.744739890098571777e-01 7.448653876781463623e-02 -2.399962395429611206e-01 -5.365263223648071289e-01
1.786000000000000000e+03 7.501181793212890625e+01 -1.391373729705810547e+01 9.571213722229003906e-01 6.013732910156250000e+00 2.091256380081176758e+00 1.111041307449340820e+00
1.787000000000000000e+03 7.629142761230468750e+01 -1.083253383636474609e+01 1.270846426486968994e-01 6.548825740814208984e+00 2.002773046493530273e+00 1.420232653617858887e+00
1.788000000000000000e+03 2.568197631835937500e+01 1.048481273651123047e+01 -7.089599501341581345e-03 -9.756472893059253693e-03 -5.053821951150894165e-03 -1.532228663563728333e-02
1.789000000000000000e+03 2.662130355834960938e+01 1.143447875976562500e+01 -1.498725078999996185e-02 -1.116018928587436676e-02 -7.844232022762298584e-03 -1.274559181183576584e-02
1.790000000000000000e+03 6.744935607910156250e+01 -1.186543226242065430e+00 -3.794778585433959961e-01 -9.991529583930969238e-02 -1.438179463148117065e-01 3.380480110645294189e-01
1.791000000000000000e+03 4.782275009155273438e+01 -1.816985511779785156e+01 -2.297527045011520386e-01 4.759734869003295898e-01 7.386624068021774292e-02 -1.163207367062568665e-01
1.792000000000000000e+03 4.918047332763671875e+01 -1.823610305786132812e+01 -2.027039378881454468e-01 5.470362305641174316e-01 1.032996922731399536e-01 -1.622234731912612915e-01
1.793000000000000000e+03 7.143416595458984375e+01 -5.262801170349121094e+00 -2.239182889461517334e-01 1.327892780303955078e+00 3.311923444271087646e-01 1.696561723947525024e-01
1.794000000000000000e+03 7.064280700683593750e+01 -4.395020961761474609e+00 -1.288560330867767334e-01 5.318334698677062988e-01 1.208932250738143921e-01 1.660752594470977783e-01
1.795000000000000000e+03 2.842753410339355469e+01 1.088088512420654297e+00 -5.575742125511169434e-01 1.660019042901694775e-03 -1.667742580175399780e-01 6.351204216480255127e-02
1.796000000000000000e+03 4.701506805419921875e+01 2.554883956909179688e+00 -4.879689514636993408e-01 -2.173889661207795143e-03 -1.470428556203842163e-01 -2.697785496711730957e-01
1.797000000000000000e+03 3.589105987548828125e+01 2.828960180282592773e+00 -2.156334817409515381e-01 2.991737611591815948e-02 -5.571483075618743896e-02 -2.103942818939685822e-02
1.798000000000000000e+03 3.816197586059570312e+01 6.177958965301513672e+00 -3.512773429974913597e-03 5.321340262889862061e-02 1.491018850356340408e-02 -1.252851728349924088e-02
1.799000000000000000e+03 2.523200416564941406e+01 -1.169956398010253906e+01 -1.621154546737670898e-01 -8.349542617797851562e-01 -2.991209030151367188e-01 -2.460999488830566406e-01
1.800000000000000000e+03 4.019035720825195312e+01 -7.579271316528320312e+00 6.283085346221923828e-01 2.565107680857181549e-02 1.961878687143325806e-01 -5.850355029106140137e-01
1.801000000000000000e+03 4.115413665771484375e+01 -4.873584747314453125e+00 -1.377820074558258057e-01 -3.101845085620880127e-01 -1.343899518251419067e-01 -1.846397221088409424e-01
1.802000000000000000e+03 4.495148849487304688e+01 -1.400580286979675293e+00 -1.123437523841857910e+00 -7.306522727012634277e-01 -5.562269091606140137e-01 -1.974894255399703979e-01
1.803000000000000000e+03 1.708122444152832031e+01 1.861161041259765625e+01 -6.167718395590782166e-02 1.659428700804710388e-03 -1.800532639026641846e-02 3.446989879012107849e-02
1.804000000000000000e+03 6.853039550781250000e+01 -1.721421623229980469e+01 6.005775928497314453e-01 5.920889377593994141e-01 3.577999472618103027e-01 6.813444495201110840e-01
1.805000000000000000e+03 7.308055877685546875e+01 -1.550647354125976562e+01 1.093091130256652832e+00 5.580027580261230469e+00 2.001935482025146484e+00 6.474755406379699707e-01
1.806000000000000000e+03 4.792842864990234375e+01 3.613948583602905273e+00 -3.470888137817382812e-01 3.830686211585998535e-02 -9.263458847999572754e-02 -1.407943069934844971e-01
1.807000000000000000e+03 5.190966796875000000e+01 -1.978797721862792969e+01 -4.063650667667388916e-01 4.082316458225250244e-01 5.599703872576355934e-04 -3.825213313102722168e-01
1.808000000000000000e+03 5.477917480468750000e+01 -2.139578056335449219e+01 -5.882944911718368530e-02 -2.238232940435409546e-01 -8.479582518339157104e-02 -3.812929093837738037e-01
1.809000000000000000e+03 6.402547454833984375e+01 -1.371232509613037109e+01 -3.704466223716735840e-01 5.985433459281921387e-01 6.842900812625885010e-02 -3.531010821461677551e-02
1.810000000000000000e+03 7.244173431396484375e+01 -7.808578014373779297e+00 -6.369227170944213867e-01 3.472628355026245117e+00 8.507117033004760742e-01 5.613136291503906250e-01
1.811000000000000000e+03 5.718292999267578125e+01 -2.058070755004882812e+01 -1.989855915307998657e-01 6.083787232637405396e-02 -4.144431650638580322e-02 1.111168321222066879e-02
1.812000000000000000e+03 2.684317588806152344e+01 1.682678413391113281e+01 -1.973246484994888306e-01 1.518448907881975174e-02 -5.464205145835876465e-02 8.376760780811309814e-02
1.813000000000000000e+03 3.492321014404296875e+01 1.499299907684326172e+01 -5.025770664215087891e-01 -1.187146902084350586e-01 -1.863875240087509155e-01 9.656448662281036377e-02
1.814000000000000000e+03 2.545052719116210938e+01 -1.039409351348876953e+01 -2.914500832557678223e-01 -1.453597187995910645e+00 -5.235141515731811523e-01 -2.037919908761978149e-01
1.815000000000000000e+03 2.131045532226562500e+01 -1.003510284423828125e+01 -4.516855180263519287e-01 5.479224026203155518e-02 -1.190679818391799927e-01 -7.915427535772323608e-02
1.816000000000000000e+03 3.129526710510253906e+01 -1.238778018951416016e+01 -4.917965270578861237e-03 3.514147698879241943e-01 1.039490401744842529e-01 1.402892451733350754e-02
1.817000000000000000e+03 3.391680908203125000e+01 -1.671813201904296875e+01 -2.257941663265228271e-01 2.773951888084411621e-01 1.548030879348516464e-02 -1.140360608696937561e-01
1.818000000000000000e+03 1.095907688140869141e+01 1.355383968353271484e+01 4.719613934867084026e-04 9.652706648921594024e-05 1.705465401755645871e-04 2.351124072447419167e-03
1.819000000000000000e+03 5.361330032348632812e+01 -1.023369312286376953e+00 -1.597097158432006836e+00 5.768413096666336060e-02 -4.618239104747772217e-01 -6.086983084678649902e-01
1.820000000000000000e+03 7.648924255371093750e+01 -3.137207221984863281e+01 3.099960461258888245e-02 4.128463745117187500e+00 1.247839093208312988e+00 2.547841668128967285e-01
1.821000000000000000e+03 7.609922790527343750e+01 -3.258756256103515625e+01 4.589325934648513794e-02 4.018581390380859375e+00 1.219342470169067383e+00 2.393140047788619995e-01
1.822000000000000000e+03 7.538681793212890625e+01 2.025710105895996094e+01 3.479221463203430176e-01 5.692165851593017578e+00 1.812026381492614746e+00 -1.471330642700195312e+00
1.823000000000000000e+03 7.722116088867187500e+01 1.797853088378906250e+01 1.781233400106430054e-01 7.959712982177734375e+00 2.441350936889648438e+00 -1.404988646507263184e+00
1.824000000000000000e+03 7.678041076660156250e+01 -2.774261665344238281e+01 9.693861939013004303e-03 4.438969135284423828e+00 1.334598898887634277e+00 2.843733429908752441e-01
1.825000000000000000e+03 7.502255249023437500e+01 -3.632890319824218750e+01 8.942721784114837646e-02 3.689945459365844727e+00 1.133811831474304199e+00 1.879139542579650879e-01
1.826000000000000000e+03 7.439270782470703125e+01 -3.764912796020507812e+01 1.139249056577682495e-01 3.528067111968994141e+00 1.092597603797912598e+00 1.652766615152359009e-01
1.827000000000000000e+03 7.681598663330078125e+01 -2.379652786254882812e+01 -3.110829554498195648e-02 4.802177429199218750e+00 1.431320786476135254e+00 2.890312969684600830e-01
1.828000000000000000e+03 7.681609344482421875e+01 -2.510023307800292969e+01 -1.709583215415477753e-02 4.674962997436523438e+00 1.397360205650329590e+00 3.079843819141387939e-01
1.829000000000000000e+03 7.679943847656250000e+01 -2.641638565063476562e+01 8.246590383350849152e-03 4.543493270874023438e+00 1.365522027015686035e+00 2.936550080776214600e-01
1.830000000000000000e+03 7.676232910156250000e+01 -2.249123382568359375e+01 -6.714855134487152100e-02 4.953480720520019531e+00 1.465899586677551270e+00 2.856008112430572510e-01
1.831000000000000000e+03 7.637268829345703125e+01 2.459410285949707031e+01 1.679095625877380371e-01 5.848004817962646484e+00 1.804774284362792969e+00 -9.653245210647583008e-01
1.832000000000000000e+03 7.655613708496093750e+01 2.321729087829589844e+01 1.814814358949661255e-01 6.186279773712158203e+00 1.910328388214111328e+00 -1.050666809082031250e+00
1.833000000000000000e+03 7.742302703857421875e+01 1.675834655761718750e+01 1.816513240337371826e-01 8.646001815795898438e+00 2.648296117782592773e+00 -1.506439685821533203e+00
1.834000000000000000e+03 7.755944824218750000e+01 1.559835052490234375e+01 1.127591803669929504e-01 9.236739158630371094e+00 2.804849386215209961e+00 -1.551616311073303223e+00
1.835000000000000000e+03 7.858221435546875000e+01 1.430637741088867188e+01 -4.846176505088806152e-02 1.182747268676757812e+01 3.533703088760375977e+00 -1.052273154258728027e+00
1.836000000000000000e+03 7.573655700683593750e+01 2.751977348327636719e+01 1.960745006799697876e-01 5.127425670623779297e+00 1.597050070762634277e+00 -8.419748544692993164e-01
1.837000000000000000e+03 7.610957336425781250e+01 2.600195884704589844e+01 1.809721589088439941e-01 5.504692554473876953e+00 1.705699443817138672e+00 -9.088946580886840820e-01
1.838000000000000000e+03 7.591547393798828125e+01 3.051959419250488281e+01 1.624637097120285034e-01 4.852625846862792969e+00 1.504526972770690918e+00 -6.076866984367370605e-01
1.839000000000000000e+03 7.736645507812500000e+01 1.295683860778808594e+01 -4.164026379585266113e-01 1.002382850646972656e+01 2.882227659225463867e+00 -1.727002382278442383e+00
1.840000000000000000e+03 7.691687774658203125e+01 -1.663863945007324219e+01 1.901140064001083374e-01 5.701004028320312500e+00 1.767335414886474609e+00 2.145432978868484497e-01
1.841000000000000000e+03 7.695642089843750000e+01 -1.551939964294433594e+01 3.429204523563385010e-01 5.791752815246582031e+00 1.840402007102966309e+00 4.001609086990356445e-01
1.842000000000000000e+03 7.672499084472656250e+01 -1.433673191070556641e+01 4.820376038551330566e-01 5.975791931152343750e+00 1.937348842620849609e+00 7.099323868751525879e-01
1.843000000000000000e+03 7.609098815917968750e+01 -6.255324363708496094e+00 -1.638852953910827637e-01 6.798837661743164062e+00 1.990485668182373047e+00 1.182631611824035645e+00
1.844000000000000000e+03 7.664310455322265625e+01 -7.364723205566406250e+00 -1.482589840888977051e-01 7.150146007537841797e+00 2.100566148757934570e+00 1.217740535736083984e+00
1.845000000000000000e+03 7.686695861816406250e+01 -5.213217735290527344e+00 -8.523956686258316040e-02 7.643846035003662109e+00 2.267581939697265625e+00 1.059994816780090332e+00
1.846000000000000000e+03 7.625157165527343750e+01 5.443311929702758789e-01 -4.789603948593139648e-01 8.128901481628417969e+00 2.294982194900512695e+00 1.096025347709655762e+00
1.847000000000000000e+03 7.667831420898437500e+01 2.184959983825683594e+01 1.893078982830047607e-01 6.536668777465820312e+00 2.017792940139770508e+00 -1.151294231414794922e+00
1.848000000000000000e+03 7.698371124267578125e+01 1.922582054138183594e+01 1.975663602352142334e-01 7.418437957763671875e+00 2.284801244735717773e+00 -1.332842230796813965e+00
1.849000000000000000e+03 7.858734130859375000e+01 4.447813987731933594e+00 -2.439299076795578003e-01 1.275835037231445312e+01 3.754326105117797852e+00 4.791886210441589355e-01
1.850000000000000000e+03 7.759120941162109375e+01 -1.602942228317260742e+00 -1.973715871572494507e-01 9.378975868225097656e+00 2.754481315612792969e+00 8.375229835510253906e-01
1.851000000000000000e+03 7.845052337646484375e+01 -2.797089338302612305e+00 -6.161016225814819336e-02 1.035786342620849609e+01 3.088876008987426758e+00 6.025215983390808105e-01
1.852000000000000000e+03 7.685254669189453125e+01 -8.679452896118164062e+00 -5.971656367182731628e-02 7.168151855468750000e+00 2.132530689239501953e+00 1.261990070343017578e+00
1.853000000000000000e+03 7.802047729492187500e+01 -9.960069656372070312e+00 3.083434142172336578e-02 7.385679721832275391e+00 2.224954366683959961e+00 9.598531723022460938e-01
1.854000000000000000e+03 7.686926269531250000e+01 -9.919196128845214844e+00 7.933430373668670654e-02 6.807558059692382812e+00 2.066067695617675781e+00 1.303806066513061523e+00
1.855000000000000000e+03 7.621926116943359375e+01 -1.326939964294433594e+01 5.608106255531311035e-01 6.013609409332275391e+00 1.972326040267944336e+00 1.070461630821228027e+00
1.856000000000000000e+03 7.652371215820312500e+01 -1.776261901855468750e+01 4.051044955849647522e-02 5.509374618530273438e+00 1.664965629577636719e+00 2.601485848426818848e-01
1.857000000000000000e+03 7.779883575439453125e+01 -1.957487106323242188e+01 -3.524544090032577515e-02 5.427227973937988281e+00 1.617594838142395020e+00 9.198020398616790771e-02
1.858000000000000000e+03 7.635839080810546875e+01 -1.986234855651855469e+01 -6.094735860824584961e-02 5.222881793975830078e+00 1.548580288887023926e+00 2.742064893245697021e-01
1.859000000000000000e+03 7.845894622802734375e+01 1.606965780258178711e+00 -3.768397495150566101e-02 1.175972461700439453e+01 3.516612291336059570e+00 1.301712393760681152e-01
1.860000000000000000e+03 7.741014099121093750e+01 -2.701556444168090820e+00 -9.321690350770950317e-02 8.829660415649414062e+00 2.620933055877685547e+00 9.430375099182128906e-01
1.861000000000000000e+03 6.620388031005859375e+01 1.482032775878906250e+01 -2.677957296371459961e+00 -3.898033499717712402e-01 -9.203281998634338379e-01 2.835414707660675049e-01
1.862000000000000000e+03 4.863989257812500000e+01 4.634768962860107422e+00 -2.901792228221893311e-01 4.100611433386802673e-02 -7.475193589925765991e-02 -2.853621914982795715e-02
1.863000000000000000e+03 3.647210311889648438e+01 6.392963528633117676e-01 -1.275657892227172852e+00 6.801486015319824219e-01 -1.786527782678604126e-01 4.508486688137054443e-01
1.864000000000000000e+03 4.231361007690429688e+01 -2.129342317581176758e+00 -1.193757653236389160e+00 -2.046203017234802246e-01 -4.195133745670318604e-01 1.977952122688293457e-01
1.865000000000000000e+03 4.480147171020507812e+01 1.088187694549560547e-01 -8.649312257766723633e-01 -3.248178958892822266e-01 -3.569247424602508545e-01 -3.252005577087402344e-01
1.866000000000000000e+03 3.727718114852905273e+00 3.027568626403808594e+01 8.769901614869013429e-05 -3.677616268396377563e-02 -1.100653875619173050e-02 1.429932285100221634e-02
1.867000000000000000e+03 3.859126567840576172e+00 3.165456390380859375e+01 6.057843565940856934e-04 -4.195020720362663269e-02 -1.240332704037427902e-02 1.465316582471132278e-02
1.868000000000000000e+03 3.272747755050659180e+00 2.345894241333007812e+01 -2.431895351037383080e-03 -1.450724620372056961e-02 -5.081742536276578903e-03 8.032306097447872162e-03
1.869000000000000000e+03 3.359240293502807617e+00 2.481087303161621094e+01 -2.042273757979273796e-03 -1.829590462148189545e-02 -6.101453211158514023e-03 9.770583361387252808e-03
1.870000000000000000e+03 4.106328964233398438e+00 3.694945907592773438e+01 3.800033126026391983e-03 -5.751181393861770630e-02 -1.611353456974029541e-02 1.026454567909240723e-02
1.871000000000000000e+03 3.548292398452758789e+00 2.753404998779296875e+01 -1.164905028417706490e-03 -2.729190699756145477e-02 -8.537043817341327667e-03 1.291955169290304184e-02
1.872000000000000000e+03 3.634378910064697266e+00 2.890145874023437500e+01 -8.877763757482171059e-04 -3.211394697427749634e-02 -9.900517761707305908e-03 1.381398644298315048e-02
1.873000000000000000e+03 4.070537567138671875e+00 -2.604137992858886719e+01 1.377049949951469898e-03 -1.271749436855316162e-01 -3.773937001824378967e-02 -5.279973149299621582e-02
1.874000000000000000e+03 3.051665306091308594e+00 -3.134102630615234375e+01 2.403904683887958527e-03 -1.806904822587966919e-01 -5.348597466945648193e-02 -3.134797140955924988e-02
1.875000000000000000e+03 3.218924283981323242e+00 2.212240791320800781e+01 -2.251901198178529739e-03 -1.133834943175315857e-02 -4.077075049281120300e-03 6.074413657188415527e-03
1.876000000000000000e+03 2.686882495880126953e+00 -5.787167549133300781e+00 -7.085105753503739834e-04 6.344849709421396255e-03 1.690901699475944042e-03 7.614895235747098923e-03
1.877000000000000000e+03 2.694844961166381836e+00 -1.065608978271484375e+01 -4.683625418692827225e-03 6.224567070603370667e-03 4.622825072146952152e-04 -1.769938156940042973e-03
1.878000000000000000e+03 2.648126840591430664e+00 -9.365303039550781250e+00 -3.572732675820589066e-03 7.953021675348281860e-03 1.314086606726050377e-03 2.059121383354067802e-03
1.879000000000000000e+03 3.034031391143798828e+00 -1.309883594512939453e+01 -7.215597201138734818e-03 -3.597638569772243500e-03 -3.243970684707164764e-03 -1.142171863466501236e-02
1.880000000000000000e+03 2.781586885452270508e+00 -1.190926551818847656e+01 -4.660808946937322617e-03 2.541777445003390312e-03 -6.357094971463084221e-04 -5.686636082828044891e-03
1.881000000000000000e+03 4.786278247833251953e+00 -1.888336944580078125e+01 -9.628883562982082367e-03 -5.725993588566780090e-02 -2.006664499640464783e-02 -4.800566658377647400e-02
1.882000000000000000e+03 3.208271265029907227e+00 -1.622027397155761719e+01 -7.107021287083625793e-03 -2.402486465871334076e-02 -9.339565411210060120e-03 -2.549920976161956787e-02
1.883000000000000000e+03 3.323596000671386719e+00 1.514897346496582031e+01 -4.242131835781037807e-04 -4.039944149553775787e-03 -1.339247217401862144e-03 -4.990472225472331047e-04
1.884000000000000000e+03 5.650531291961669922e+00 1.736409568786621094e+01 -4.245727322995662689e-03 -6.441277917474508286e-03 -3.206101479008793831e-03 2.272247103974223137e-03
1.885000000000000000e+03 3.517686843872070312e+00 1.805846023559570312e+01 -2.156596165150403976e-03 -5.780715029686689377e-03 -2.381193451583385468e-03 1.380657893605530262e-03
1.886000000000000000e+03 4.362807750701904297e+00 8.036523818969726562e+00 8.219692972488701344e-05 -3.059324342757463455e-03 -8.931382326409220695e-04 2.596867037937045097e-03
1.887000000000000000e+03 2.966255903244018555e+00 8.242457389831542969e+00 -3.757088052225299180e-06 -2.003531670197844505e-03 -6.021866574883460999e-04 1.936192624270915985e-03
1.888000000000000000e+03 3.446873664855957031e+00 -2.029536247253417969e+01 -4.009707365185022354e-03 -6.302104890346527100e-02 -2.010922692716121674e-02 -4.007603973150253296e-02
1.889000000000000000e+03 3.420201778411865234e+00 -1.891773605346679688e+01 -6.627167109400033951e-03 -4.958561062812805176e-02 -1.686383225023746490e-02 -3.692692890763282776e-02
1.890000000000000000e+03 3.719663619995117188e+00 -2.310068511962890625e+01 -1.355223008431494236e-03 -9.571834653615951538e-02 -2.912207134068012238e-02 -4.838905110955238342e-02
1.891000000000000000e+03 3.539464712142944336e+00 -2.168578147888183594e+01 -4.560012836009263992e-03 -7.797696441411972046e-02 -2.476109378039836884e-02 -4.457601532340049744e-02
1.892000000000000000e+03 4.754075050354003906e+00 -3.468289566040039062e+01 7.446153555065393448e-03 -1.987922936677932739e-01 -5.740384012460708618e-02 -3.584914654493331909e-02
1.893000000000000000e+03 3.012091159820556641e+00 -4.838365554809570312e+00 5.554225062951445580e-04 4.813180770725011826e-03 1.610580948181450367e-03 8.178324438631534576e-03
1.894000000000000000e+03 3.934999704360961914e+00 -2.454098701477050781e+01 -7.677542744204401970e-04 -1.113646849989891052e-01 -3.363973274827003479e-02 -5.020622164011001587e-02
1.895000000000000000e+03 3.721997976303100586e+00 -1.399394607543945312e+01 -9.258261881768703461e-03 -1.504265610128641129e-02 -7.290275301784276962e-03 -1.893493346869945526e-02
1.896000000000000000e+03 2.605422496795654297e+00 -8.085342407226562500e+00 -2.659767633303999901e-03 8.516536094248294830e-03 1.757030491717159748e-03 4.630635958164930344e-03
1.897000000000000000e+03 2.902284145355224609e+00 6.345861434936523438e+00 -7.542149978689849377e-04 -7.298307027667760849e-04 -4.452136927284300327e-04 1.750466763041913509e-03
1.898000000000000000e+03 3.245913028717041016e+00 1.073553180694580078e+01 8.577819098718464375e-04 -3.379169851541519165e-03 -7.564164116047322750e-04 6.888069328851997852e-04
1.899000000000000000e+03 3.284163236618041992e+00 1.225802707672119141e+01 1.409405609592795372e-03 -3.842802019789814949e-03 -7.300188881345093250e-04 -1.350959355477243662e-04
1.900000000000000000e+03 3.157228231430053711e+00 -1.503892612457275391e+01 -6.314055528491735458e-03 -1.446675136685371399e-02 -6.234242115169763565e-03 -1.925587095320224762e-02
1.901000000000000000e+03 2.981950521469116211e+00 9.389215469360351562e+00 1.252321642823517323e-03 -2.975491108372807503e-03 -5.169508513063192368e-04 1.176596735604107380e-03
1.902000000000000000e+03 3.327216625213623047e+00 1.943933677673339844e+01 -2.209699479863047600e-03 -7.069517858326435089e-03 -2.783765085041522980e-03 2.808015095070004463e-03
1.903000000000000000e+03 3.225919246673583984e+00 2.078812599182128906e+01 -2.426724648103117943e-03 -8.881046436727046967e-03 -3.392331302165985107e-03 4.436946008354425430e-03
1.904000000000000000e+03 3.507442712783813477e+00 1.660581588745117188e+01 -1.163615961559116840e-03 -4.867433104664087296e-03 -1.809314708225429058e-03 1.146615104516968131e-04
1.905000000000000000e+03 6.574837493896484375e+01 5.778484344482421875e+00 -5.316577553749084473e-01 -2.227230519056320190e-01 -2.263142466545104980e-01 -6.305573582649230957e-01
1.906000000000000000e+03 2.871410942077636719e+01 -1.055490112304687500e+01 -1.361574530601501465e-01 -1.614537984132766724e-01 -8.928337693214416504e-02 6.441017240285873413e-02
1.907000000000000000e+03 1.665610694885253906e+01 -5.865248203277587891e+00 1.122200209647417068e-02 5.966068711131811142e-03 5.156421568244695663e-03 -9.207667317241430283e-04
1.908000000000000000e+03 1.751212310791015625e+01 -6.832662105560302734e+00 -3.216587007045745850e-02 2.298546954989433289e-03 -8.960196748375892639e-03 -1.009642053395509720e-02
1.909000000000000000e+03 2.144733619689941406e+01 9.193912506103515625e+00 -7.840920588932931423e-04 1.181831303983926773e-02 3.310266416519880295e-03 5.511509254574775696e-03
1.910000000000000000e+03 1.002495956420898438e+01 8.098992347717285156e+00 9.660042822360992432e-03 1.121571846306324005e-02 6.262728478759527206e-03 5.093687679618597031e-03
1.911000000000000000e+03 6.074564361572265625e+01 -1.034875679016113281e+01 1.028351709246635437e-01 4.851092994213104248e-01 1.763833314180374146e-01 7.975824177265167236e-02
1.912000000000000000e+03 4.927562713623046875e+01 1.716220474243164062e+01 -1.117138981819152832e+00 -5.655955076217651367e-01 -5.048203468322753906e-01 2.327666133642196655e-01
1.913000000000000000e+03 4.794757843017578125e+01 1.802052879333496094e+01 -8.771097660064697266e-01 -4.581294655799865723e-01 -4.005717635154724121e-01 4.802200794219970703e-01
1.914000000000000000e+03 5.489669036865234375e+01 -4.118322372436523438e+00 -1.572234183549880981e-02 -3.666579723358154297e-01 -1.147140935063362122e-01 -3.979212939739227295e-01
1.915000000000000000e+03 5.328696060180664062e+01 -3.482346773147583008e+00 -3.713734745979309082e-01 5.693763494491577148e-02 -9.433075785636901855e-02 -4.865073263645172119e-01
1.916000000000000000e+03 2.576091003417968750e+01 -3.184154987335205078e+00 -6.323082745075225830e-02 -2.543146312236785889e-01 -9.526363760232925415e-02 -3.580824732780456543e-01
1.917000000000000000e+03 2.612248229980468750e+01 -7.982535362243652344e-01 -2.892011702060699463e-01 1.847202032804489136e-01 -3.134429454803466797e-02 -1.246058717370033264e-01
1.918000000000000000e+03 4.358352279663085938e+01 -9.695164680480957031e+00 5.507523417472839355e-01 -5.140017271041870117e-01 1.102518290281295776e-02 -6.782669425010681152e-01
1.919000000000000000e+03 4.350496292114257812e+01 -1.092565536499023438e+01 5.616365671157836914e-01 -4.576480686664581299e-01 3.119654767215251923e-02 -5.880397558212280273e-01
1.920000000000000000e+03 3.636260986328125000e+01 7.720808982849121094e+00 2.050342038273811340e-02 -1.310031488537788391e-02 2.220931462943553925e-03 -6.950932554900646210e-03
1.921000000000000000e+03 6.922396087646484375e+01 -2.618302822113037109e+00 -2.154465466737747192e-01 -5.569007247686386108e-02 -8.134098351001739502e-02 5.626657977700233459e-02
1.922000000000000000e+03 1.981474494934082031e+01 1.901992225646972656e+01 -1.096687093377113342e-01 -1.389302546158432961e-03 -3.331740200519561768e-02 6.265533715486526489e-02
1.923000000000000000e+03 6.857012939453125000e+01 6.510404944419860840e-01 -6.233607530593872070e-01 6.686652898788452148e-01 1.359135191887617111e-02 1.781255304813385010e-01
1.924000000000000000e+03 6.830296325683593750e+01 -3.087287902832031250e+00 -3.816040456295013428e-01 -3.153133392333984375e-01 -2.090752124786376953e-01 2.601617574691772461e-01
1.925000000000000000e+03 3.043175125122070312e+01 2.795651912689208984e+00 2.902898490428924561e-01 -4.143585264682769775e-01 -3.722060471773147583e-02 -5.817827209830284119e-02
1.926000000000000000e+03 3.165276145935058594e+01 2.022071123123168945e+00 -3.470231890678405762e-01 -6.000062227249145508e-01 -2.841088175773620605e-01 -5.662140846252441406e-01
1.927000000000000000e+03 4.236772537231445312e+01 -7.930895328521728516e+00 4.610885083675384521e-01 -4.777613580226898193e-01 -5.001856945455074310e-03 -6.000010967254638672e-01
1.928000000000000000e+03 4.224890136718750000e+01 -9.397424697875976562e+00 6.499337553977966309e-01 -6.065412759780883789e-01 1.301773358136415482e-02 -6.040530800819396973e-01
1.929000000000000000e+03 5.833146286010742188e+01 -1.533462047576904297e+01 -2.074989676475524902e-01 1.814562678337097168e-01 -7.812811993062496185e-03 -2.444067001342773438e-01
1.930000000000000000e+03 5.984333801269531250e+01 6.660041809082031250e-01 -2.503482580184936523e+00 -6.037253737449645996e-01 -9.321624040603637695e-01 -8.160121440887451172e-01
1.931000000000000000e+03 5.810125732421875000e+01 -1.396583175659179688e+01 -5.563381686806678772e-02 9.827572852373123169e-02 1.279257331043481827e-02 -1.444173604249954224e-01
1.932000000000000000e+03 5.777368545532226562e+01 -1.274828529357910156e+01 1.971346512436866760e-02 1.568652838468551636e-01 5.297362059354782104e-02 -6.116556376218795776e-02
1.933000000000000000e+03 5.213995361328125000e+01 7.709922313690185547e+00 8.710091933608055115e-03 -2.468368224799633026e-02 -4.792077001184225082e-03 -1.500444952398538589e-02
1.934000000000000000e+03 5.232599258422851562e+01 5.607800960540771484e+00 -8.585536479949951172e-02 -4.068420827388763428e-02 -3.796187415719032288e-02 -4.162547993473708630e-04
1.935000000000000000e+03 6.308725357055664062e+01 3.772325277328491211e+00 -1.441588282585144043e+00 -6.880443692207336426e-01 -6.388897895812988281e-01 -7.479737997055053711e-01
1.936000000000000000e+03 2.944339752197265625e+01 -6.147869110107421875e+00 2.145309150218963623e-01 -3.868768457323312759e-03 6.319864094257354736e-02 -5.357097983360290527e-01
1.937000000000000000e+03 7.458467102050781250e+01 1.116131114959716797e+01 -1.214451074600219727e+00 1.676630496978759766e+00 1.386538147926330566e-01 -9.374610781669616699e-01
1.938000000000000000e+03 7.574539947509765625e+01 1.082707405090332031e+01 -8.775687217712402344e-01 4.194319725036621094e+00 9.950252771377563477e-01 -2.521429538726806641e+00
1.939000000000000000e+03 7.593842315673828125e+01 1.075408840179443359e+01 -8.400207757949829102e-01 4.747033596038818359e+00 1.172103881835937500e+00 -2.893708944320678711e+00
1.940000000000000000e+03 7.292207336425781250e+01 1.173848438262939453e+01 -1.588247299194335938e+00 5.378230810165405273e-01 -3.151272833347320557e-01 8.120486885309219360e-02
1.941000000000000000e+03 7.335323333740234375e+01 1.154294204711914062e+01 -1.554840326309204102e+00 7.016294598579406738e-01 -2.559632658958435059e-01 -9.997975081205368042e-02
1.942000000000000000e+03 7.628646087646484375e+01 1.042258167266845703e+01 -9.188898205757141113e-01 5.927803993225097656e+00 1.502674221992492676e+00 -3.460062980651855469e+00
1.943000000000000000e+03 7.612934875488281250e+01 1.070445537567138672e+01 -9.501414895057678223e-01 5.413376331329345703e+00 1.338970422744750977e+00 -3.112850666046142578e+00
1.944000000000000000e+03 7.304203796386718750e+01 1.142962265014648438e+01 -1.830028295516967773e+00 4.217003881931304932e-01 -4.224983751773834229e-01 1.558792442083358765e-01
1.945000000000000000e+03 7.629938507080078125e+01 1.112572479248046875e+01 -1.153390765190124512e+00 7.105006694793701172e+00 1.785484671592712402e+00 -3.099822759628295898e+00
1.946000000000000000e+03 7.270804595947265625e+01 1.109613513946533203e+01 -2.504530429840087891e+00 7.341558486223220825e-02 -7.293344736099243164e-01 5.042763948440551758e-01
1.947000000000000000e+03 7.271492004394531250e+01 1.151175594329833984e+01 -1.919626474380493164e+00 2.608160972595214844e-01 -4.976431131362915039e-01 2.941329479217529297e-01
1.948000000000000000e+03 7.240949249267578125e+01 1.149334144592285156e+01 -2.042956113815307617e+00 1.545788347721099854e-01 -5.665131807327270508e-01 4.560403227806091309e-01
1.949000000000000000e+03 7.410218811035156250e+01 1.087307929992675781e+01 -1.931694626808166504e+00 8.243852257728576660e-01 -3.321928083896636963e-01 -2.493831217288970947e-01
1.950000000000000000e+03 7.076148986816406250e+01 1.206808090209960938e+01 -1.970679759979248047e+00 -3.998243063688278198e-02 -6.031986474990844727e-01 8.749793171882629395e-01
1.951000000000000000e+03 7.094371795654296875e+01 1.238935279846191406e+01 -1.676113724708557129e+00 6.666249036788940430e-02 -4.828353524208068848e-01 7.218430638313293457e-01
1.952000000000000000e+03 7.741615295410156250e+01 1.082478046417236328e+01 -2.399345874786376953e+00 1.333320140838623047e+01 3.280156612396240234e+00 -2.650711536407470703e+00
1.953000000000000000e+03 7.010646820068359375e+01 1.467547774314880371e+00 -7.917197346687316895e-01 8.614194393157958984e-01 2.090992033481597900e-02 -7.065216451883316040e-02
1.954000000000000000e+03 7.806998443603515625e+01 5.816189289093017578e+00 -1.729044079780578613e+00 1.457869434356689453e+01 3.854894876480102539e+00 1.041988134384155273e+00
1.955000000000000000e+03 6.840516662597656250e+01 5.187273502349853516e+00 1.287856847047805786e-01 1.185076713562011719e+00 3.941587209701538086e-01 -1.194409802556037903e-01
1.956000000000000000e+03 6.906363677978515625e+01 6.090539455413818359e+00 1.876583993434906006e-01 1.479646444320678711e+00 5.001914501190185547e-01 6.351763755083084106e-02
1.957000000000000000e+03 6.835061645507812500e+01 7.087378978729248047e+00 -1.680586636066436768e-01 4.874327778816223145e-01 9.581223130226135254e-02 -5.586780905723571777e-01
1.958000000000000000e+03 7.086235809326171875e+01 1.220504164695739746e+00 -1.161950826644897461e+00 4.649981856346130371e-01 -2.090857923030853271e-01 -5.981625244021415710e-02
1.959000000000000000e+03 7.691851806640625000e+01 -1.214986562728881836e+00 -2.687709331512451172e-01 8.365732192993164062e+00 2.429088354110717773e+00 1.002521872520446777e+00
1.960000000000000000e+03 7.512002563476562500e+01 5.485242009162902832e-01 -5.995154976844787598e-01 5.417934894561767578e+00 1.445525765419006348e+00 1.662001729011535645e+00
1.961000000000000000e+03 7.431113433837890625e+01 5.581260323524475098e-01 -5.942562818527221680e-01 2.919354200363159180e+00 6.975293755531311035e-01 1.462911248207092285e+00
1.962000000000000000e+03 7.475514221191406250e+01 4.637639522552490234e-01 -5.121389031410217285e-01 4.356525421142578125e+00 1.153315901756286621e+00 1.631012916564941406e+00
1.963000000000000000e+03 7.578784942626953125e+01 1.093131184577941895e+00 -5.923329591751098633e-01 7.376346111297607422e+00 2.035203933715820312e+00 1.262608170509338379e+00
1.964000000000000000e+03 6.749881744384765625e+01 3.553728818893432617e+00 -1.414296180009841919e-01 6.963855028152465820e-01 1.664867550134658813e-01 2.045765966176986694e-01
1.965000000000000000e+03 6.888774871826171875e+01 4.335498809814453125e+00 2.576544284820556641e-01 1.836769819259643555e+00 6.283273100852966309e-01 -7.705612480640411377e-02
1.966000000000000000e+03 7.554324340820312500e+01 -3.777053654193878174e-01 -4.220243394374847412e-01 6.163937568664550781e+00 1.722573995590209961e+00 1.463970422744750977e+00
1.967000000000000000e+03 7.702079010009765625e+01 3.339915275573730469e+00 8.548032641410827637e-01 1.037557411193847656e+01 3.369113206863403320e+00 8.135865926742553711e-01
1.968000000000000000e+03 6.902245330810546875e+01 2.217821121215820312e+00 -4.403763711452484131e-01 1.203940749168395996e+00 2.290693223476409912e-01 2.429202795028686523e-01
1.969000000000000000e+03 7.064082336425781250e+01 4.828049242496490479e-01 -9.048113822937011719e-01 5.651223063468933105e-01 -1.019067242741584778e-01 -4.007675349712371826e-01
1.970000000000000000e+03 7.700627136230468750e+01 2.830083608627319336e+00 5.180013775825500488e-01 1.013119125366210938e+01 3.194757699966430664e+00 5.464383363723754883e-01
1.971000000000000000e+03 7.287767028808593750e+01 5.635946989059448242e-01 -1.251163959503173828e+00 5.893129482865333557e-02 -3.576698005199432373e-01 2.375118732452392578e-01
1.972000000000000000e+03 7.432775878906250000e+01 -4.908405989408493042e-02 -3.962803781032562256e-01 3.288286209106445312e+00 8.676018118858337402e-01 1.480017304420471191e+00
1.973000000000000000e+03 6.805023956298828125e+01 3.532891511917114258e+00 5.318959243595600128e-03 9.698148965835571289e-01 2.925401628017425537e-01 2.310924082994461060e-01
1.974000000000000000e+03 7.382617950439453125e+01 -3.366401791572570801e-02 -3.048337996006011963e-01 2.171639919281005859e+00 5.600418448448181152e-01 1.240017056465148926e+00
1.975000000000000000e+03 7.105384063720703125e+01 -8.555197715759277344e-01 -2.506455779075622559e-01 4.356231093406677246e-01 5.549325421452522278e-02 -3.768227994441986084e-01
1.976000000000000000e+03 7.285206604003906250e+01 5.320913344621658325e-02 -4.844280481338500977e-01 4.454970955848693848e-01 -1.167928799986839294e-02 3.908939361572265625e-01
1.977000000000000000e+03 7.099607086181640625e+01 1.858800463378429413e-02 -7.296289205551147461e-01 4.210268557071685791e-01 -9.258062392473220825e-02 -4.732964336872100830e-01
1.978000000000000000e+03 7.166181945800781250e+01 -1.899275742471218109e-02 -6.555989384651184082e-01 1.970445215702056885e-01 -1.375663280487060547e-01 -3.930222094058990479e-01
1.979000000000000000e+03 6.864685821533203125e+01 2.533808708190917969e+00 -3.059794902801513672e-01 1.148233652114868164e+00 2.526762485504150391e-01 3.163980543613433838e-01
1.980000000000000000e+03 9.083498001098632812e+00 -3.662286758422851562e+00 7.545225322246551514e-03 -8.128494955599308014e-03 -1.749808434396982193e-04 2.726009814068675041e-03
1.981000000000000000e+03 6.990843200683593750e+01 1.237906169891357422e+01 -1.903681159019470215e+00 4.106288775801658630e-02 -5.587854981422424316e-01 1.086086273193359375e+00
1.982000000000000000e+03 7.042196655273437500e+01 1.224260234832763672e+01 -1.898301243782043457e+00 -9.558641910552978516e-02 -5.981662869453430176e-01 9.193470478057861328e-01
1.983000000000000000e+03 9.587056159973144531e+00 -3.650319099426269531e+00 6.650153081864118576e-03 -4.161690361797809601e-03 7.465388625860214233e-04 4.670419730246067047e-03
1.984000000000000000e+03 9.979239463806152344e+00 -2.975381135940551758e+00 9.829905815422534943e-03 -2.530287951231002808e-03 2.189885359257459641e-03 3.435016376897692680e-03
1.985000000000000000e+03 7.335169315338134766e+00 -4.455794811248779297e+00 1.325017772614955902e-03 -3.100954927504062653e-03 -5.327811231836676598e-04 7.311489433050155640e-03
1.986000000000000000e+03 2.043480157852172852e+00 3.942592620849609375e+00 -3.855827089864760637e-04 -3.297893563285470009e-04 -2.146116312360391021e-04 1.535742776468396187e-04
1.987000000000000000e+03 2.353001976013183594e+01 8.425773680210113525e-02 -8.714359998703002930e-02 1.191508919000625610e-01 9.602189064025878906e-03 6.813657283782958984e-02
1.988000000000000000e+03 2.736299037933349609e+00 -3.562040090560913086e+00 2.062388695776462555e-03 3.113528713583946228e-03 1.552775269374251366e-03 6.951687857508659363e-03
1.989000000000000000e+03 4.879096984863281250e+00 -4.787271499633789062e+00 -3.613891385612078011e-05 4.224407894071191549e-04 1.158905579359270632e-04 8.648637682199478149e-03
1.990000000000000000e+03 5.441609573364257812e+01 1.660769081115722656e+01 -1.321787238121032715e+00 2.136979401111602783e-01 -3.324267864227294922e-01 4.370941221714019775e-01
1.991000000000000000e+03 5.361784362792968750e+01 1.560118293762207031e+01 -1.315023899078369141e+00 1.863732635974884033e-01 -3.385951817035675049e-01 4.310512244701385498e-01
1.992000000000000000e+03 6.721688842773437500e+01 1.464185237884521484e+01 -2.146929025650024414e+00 6.380588165484368801e-04 -6.438872814178466797e-01 6.568163633346557617e-01
1.993000000000000000e+03 6.805701446533203125e+01 1.437864303588867188e+01 -1.878334045410156250e+00 2.329332679510116577e-01 -4.936202168464660645e-01 6.530424356460571289e-01
1.994000000000000000e+03 6.786330413818359375e+01 1.349570560455322266e+01 -2.237675666809082031e+00 1.692009270191192627e-01 -6.205424070358276367e-01 1.158629775047302246e+00
1.995000000000000000e+03 6.798682403564453125e+01 5.669641017913818359e+00 5.315012857317924500e-02 7.199068069458007812e-01 2.319170832633972168e-01 -2.975846230983734131e-01
1.996000000000000000e+03 3.849309158325195312e+01 1.529476165771484375e+01 -4.449758231639862061e-01 4.490843415260314941e-02 -1.200202107429504395e-01 7.794808596372604370e-02
1.997000000000000000e+03 3.925634384155273438e+01 1.444495868682861328e+01 -3.820990920066833496e-01 5.578177422285079956e-02 -9.789519757032394409e-02 6.679710745811462402e-02
1.998000000000000000e+03 6.849146270751953125e+01 6.096453666687011719e+00 1.053147912025451660e-01 9.297126531600952148e-01 3.105082213878631592e-01 -2.282640039920806885e-01
1.999000000000000000e+03 3.782332229614257812e+01 1.451697635650634766e+01 -4.116806685924530029e-01 3.478110581636428833e-02 -1.130698621273040771e-01 7.666298002004623413e-02
2.000000000000000000e+03 1.127524566650390625e+01 -4.424870014190673828e+00 8.798644877970218658e-03 -9.988158009946346283e-03 -3.568538813851773739e-04 4.284966271370649338e-03
2.001000000000000000e+03 1.172111225128173828e+01 -3.809501647949218750e+00 2.448674757033586502e-03 -7.938835769891738892e-03 -1.647048164159059525e-03 -3.351268125697970390e-03
2.002000000000000000e+03 5.517376327514648438e+01 1.559556579589843750e+01 -1.355746865272521973e+00 2.584462761878967285e-01 -3.291901648044586182e-01 4.144756495952606201e-01
2.003000000000000000e+03 6.680789184570312500e+01 5.815532207489013672e+00 -2.827035486698150635e-01 1.292115002870559692e-01 -4.604761302471160889e-02 -5.370746254920959473e-01
2.004000000000000000e+03 6.798964691162109375e+01 6.048264503479003906e+00 -9.783325716853141785e-03 6.303333640098571777e-01 1.861650049686431885e-01 -4.093922078609466553e-01
2.005000000000000000e+03 5.801972579956054688e+01 1.514783287048339844e+01 -1.690834403038024902e+00 2.965955734252929688e-01 -4.182716310024261475e-01 4.325824975967407227e-01
2.006000000000000000e+03 7.661581420898437500e+01 1.082461643218994141e+01 -1.353504538536071777e+00 8.561057090759277344e+00 2.162265777587890625e+00 -3.429233074188232422e+00
2.007000000000000000e+03 5.663932037353515625e+01 1.533405685424804688e+01 -1.502372384071350098e+00 3.155579566955566406e-01 -3.560443520545959473e-01 4.566438794136047363e-01
2.008000000000000000e+03 5.655817413330078125e+01 1.448670673370361328e+01 -1.352584600448608398e+00 2.594801187515258789e-01 -3.279313445091247559e-01 2.063160836696624756e-01
2.009000000000000000e+03 1.055226135253906250e+01 -4.143796443939208984e+00 -1.279219053685665131e-03 -6.599964573979377747e-03 -2.363755134865641594e-03 3.659820358734577894e-04
2.010000000000000000e+03 1.068493080139160156e+01 -3.534378051757812500e+00 8.327385410666465759e-03 -5.370444618165493011e-03 8.870823075994849205e-04 1.920222770422697067e-03
2.011000000000000000e+03 4.070459365844726562e+01 1.548691463470458984e+01 -5.301279425621032715e-01 1.023813411593437195e-01 -1.283239871263504028e-01 6.307080388069152832e-02
2.012000000000000000e+03 4.210707473754882812e+01 1.523449993133544922e+01 -5.699866414070129395e-01 9.245099872350692749e-02 -1.432607024908065796e-01 4.406326264142990112e-02
2.013000000000000000e+03 5.033979415893554688e+01 6.142594814300537109e+00 -7.319211959838867188e-02 -4.089478403329849243e-02 -3.422607108950614929e-02 -7.983480580151081085e-03
2.014000000000000000e+03 7.834547042846679688e+00 -3.351949214935302734e+00 6.400418933480978012e-03 -2.266505965963006020e-03 1.240173936821520329e-03 6.329648196697235107e-03
2.015000000000000000e+03 8.758856773376464844e+00 1.052622890472412109e+01 7.577539421617984772e-03 -2.317895123269408941e-04 2.203725045546889305e-03 1.894495915621519089e-03
2.016000000000000000e+03 3.929746246337890625e+01 1.534636211395263672e+01 -4.452686905860900879e-01 8.426158875226974487e-02 -1.083021312952041626e-01 5.782417953014373779e-02
2.017000000000000000e+03 4.168776988983154297e+00 -4.398735523223876953e+00 1.329778344370424747e-03 1.928430632688105106e-03 9.774626232683658600e-04 9.159544482827186584e-03
2.018000000000000000e+03 5.593238449096679688e+01 1.547187709808349609e+01 -1.323050975799560547e+00 2.513454854488372803e-01 -3.215116560459136963e-01 3.704103231430053711e-01
2.019000000000000000e+03 1.299594974517822266e+01 -4.599461555480957031e+00 -1.432266552001237869e-03 -1.191803067922592163e-02 -4.005089402198791504e-03 -6.392210721969604492e-03
2.020000000000000000e+03 6.988169860839843750e+01 1.307352352142333984e+01 -1.572499871253967285e+00 1.410904228687286377e-01 -4.294228553771972656e-01 8.597325682640075684e-01
2.021000000000000000e+03 6.878049468994140625e+01 1.410167789459228516e+01 -1.601611137390136719e+00 3.700931370258331299e-01 -3.694553971290588379e-01 7.736477851867675781e-01
2.022000000000000000e+03 3.553416728973388672e+00 7.296823501586914062e+00 2.782037190627306700e-04 -1.915925880894064903e-03 -4.913166631013154984e-04 2.190019935369491577e-03
2.023000000000000000e+03 5.088850021362304688e+00 7.596367835998535156e+00 7.848570821806788445e-04 -1.567111699841916561e-03 -2.346763794776052237e-04 5.033710040152072906e-03
2.024000000000000000e+03 1.363127517700195312e+01 -5.081458091735839844e+00 8.841909468173980713e-03 -9.606429375708103180e-03 -2.293558209203183651e-04 2.808247460052371025e-03
2.025000000000000000e+03 1.352372074127197266e+01 -3.814224004745483398e+00 1.379428524523973465e-02 -4.682249389588832855e-03 2.733610803261399269e-03 -2.778535941615700722e-03
2.026000000000000000e+03 6.100522613525390625e+01 4.178946465253829956e-02 -1.401521682739257812e+00 -4.712687060236930847e-02 -4.345945715904235840e-01 -2.508809566497802734e-01
2.027000000000000000e+03 6.424198150634765625e+01 -8.935832977294921875e-01 -8.042082190513610840e-01 8.193501830101013184e-01 4.542585927993059158e-03 8.682439923286437988e-01
2.028000000000000000e+03 1.430615901947021484e+01 -5.604438781738281250e+00 -1.738137565553188324e-02 -9.804349392652511597e-03 -8.155717514455318451e-03 -5.713140591979026794e-03
2.029000000000000000e+03 1.501719093322753906e+01 -4.569131851196289062e+00 2.050886861979961395e-02 2.045136876404285431e-03 6.766201928257942200e-03 4.708103660959750414e-04
2.030000000000000000e+03 7.758164978027343750e+01 1.202815914154052734e+01 -1.504215836524963379e+00 1.155305194854736328e+01 3.014650821685791016e+00 -1.451129436492919922e+00
2.031000000000000000e+03 4.445721817016601562e+01 -2.523120880126953125e+00 -1.415430426597595215e+00 -7.115877866744995117e-01 -6.381054520606994629e-01 -1.059492602944374084e-01
2.032000000000000000e+03 6.173731231689453125e+01 -1.624704241752624512e+00 -4.848861098289489746e-01 4.126822650432586670e-01 -2.166115120053291321e-02 5.941335856914520264e-02
2.033000000000000000e+03 6.112189483642578125e+01 -3.753645181655883789e+00 3.994821012020111084e-01 3.102797567844390869e-01 2.129285633563995361e-01 3.508578538894653320e-01
2.034000000000000000e+03 3.908675765991210938e+01 6.974272727966308594e+00 -6.119677796959877014e-03 6.187311373651027679e-03 2.029001370829064399e-05 9.926759048539679497e-06
2.035000000000000000e+03 7.461733245849609375e+01 -1.539290142059326172e+01 6.994657516479492188e-01 5.779227256774902344e+00 1.943607926368713379e+00 5.477560162544250488e-01
2.036000000000000000e+03 3.529945850372314453e+00 5.149775505065917969e+00 -4.270065110176801682e-04 -1.640103873796761036e-04 -1.773050753399729729e-04 1.292094704695045948e-03
2.037000000000000000e+03 2.220115470886230469e+01 -1.205845260620117188e+01 -2.940925061702728271e-01 -3.067786991596221924e-01 -1.802613586187362671e-01 -3.403959870338439941e-01
2.038000000000000000e+03 7.756389617919921875e+01 1.362367630004882812e+01 -3.215214312076568604e-01 9.820226669311523438e+00 2.849611520767211914e+00 -1.658340096473693848e+00
2.039000000000000000e+03 7.811032867431640625e+01 1.240825748443603516e+01 -7.797254920005798340e-01 1.206905460357666016e+01 3.386798620223999023e+00 -1.040382385253906250e+00
2.040000000000000000e+03 3.523460388183593750e+01 6.914099454879760742e-01 -1.242761731147766113e+00 6.440305709838867188e-01 -1.796193271875381470e-01 -1.065558418631553650e-01
2.041000000000000000e+03 3.417914962768554688e+01 3.084695816040039062e+00 -2.226916253566741943e-01 -4.716473072767257690e-02 -8.095690608024597168e-02 -2.425030320882797241e-01
2.042000000000000000e+03 7.398233795166015625e+01 -7.486774444580078125e+00 -5.116439461708068848e-01 4.857065200805664062e+00 1.303626298904418945e+00 9.780337214469909668e-01
2.043000000000000000e+03 7.224633026123046875e+01 -6.091552734375000000e+00 -4.418422579765319824e-01 2.568665266036987305e+00 6.380469202995300293e-01 4.060094952583312988e-01
2.044000000000000000e+03 4.547658538818359375e+01 -4.485774338245391846e-01 -9.193711280822753906e-01 -3.517255783081054688e-01 -3.813289999961853027e-01 -3.472004234790802002e-01
2.045000000000000000e+03 7.523085021972656250e+01 -3.390520811080932617e+00 -1.264060102403163910e-02 5.504650592803955078e+00 1.647603034973144531e+00 1.138182640075683594e+00
2.046000000000000000e+03 7.812271118164062500e+01 3.584880828857421875e+00 2.858000993728637695e-01 1.194267082214355469e+01 3.668541193008422852e+00 4.811654388904571533e-01
2.047000000000000000e+03 7.752729797363281250e+01 4.063463211059570312e+00 3.751500248908996582e-01 1.115877628326416016e+01 3.460177898406982422e+00 9.719147086143493652e-01
2.048000000000000000e+03 7.467916870117187500e+01 -1.934732818603515625e+01 -9.609250724315643311e-02 5.078553676605224609e+00 1.494738340377807617e+00 5.546706914901733398e-01
2.049000000000000000e+03 4.594404220581054688e+00 2.342407608032226562e+01 -4.177368246018886566e-03 -1.658464968204498291e-02 -6.228605750948190689e-03 1.106886100023984909e-02
2.050000000000000000e+03 2.093037223815917969e+01 -1.152936172485351562e+01 -3.988393843173980713e-01 -1.068150550127029419e-01 -1.516963243484497070e-01 -2.967909872531890869e-01
2.051000000000000000e+03 6.947315979003906250e+01 -5.671606063842773438e-01 -4.749721586704254150e-01 3.944878876209259033e-01 -2.414528839290142059e-02 -1.852521598339080811e-01
2.052000000000000000e+03 6.827876281738281250e+01 2.074949502944946289e+00 -4.690597951412200928e-01 9.404534697532653809e-01 1.414180994033813477e-01 3.987889885902404785e-01
2.053000000000000000e+03 7.587739562988281250e+01 -1.001140117645263672e+01 1.197939272969961166e-02 6.498229026794433594e+00 1.953062534332275391e+00 1.436456203460693359e+00
2.054000000000000000e+03 7.728282928466796875e+01 1.386096000671386719e+00 -2.574235498905181885e-01 1.007994651794433594e+01 2.946756839752197266e+00 4.539148509502410889e-01
2.055000000000000000e+03 7.789102935791015625e+01 7.001604437828063965e-01 -1.377221941947937012e-01 1.077632427215576172e+01 3.191580533981323242e+00 3.896248042583465576e-01
2.056000000000000000e+03 4.003078079223632812e+01 -5.255621910095214844e+00 1.562198400497436523e-01 -3.903044760227203369e-02 3.515681996941566467e-02 -3.105010688304901123e-01
2.057000000000000000e+03 6.516777038574218750e+01 5.062727928161621094e+00 -7.076570391654968262e-01 -3.125760853290557861e-01 -3.060699403285980225e-01 -5.677442550659179688e-01
2.058000000000000000e+03 5.211384582519531250e+01 9.452353715896606445e-01 -1.415632009506225586e+00 3.868793249130249023e-01 -3.086257874965667725e-01 2.023865282535552979e-02
2.059000000000000000e+03 5.470882797241210938e+01 -1.503038167953491211e+00 -1.347895860671997070e+00 -4.398540556430816650e-01 -5.363249778747558594e-01 -5.226888656616210938e-01
2.060000000000000000e+03 5.546926498413085938e+01 -5.009543299674987793e-01 -2.164969682693481445e+00 -7.674239873886108398e-01 -8.797180652618408203e-01 -6.944658160209655762e-01
2.061000000000000000e+03 6.159372329711914062e+01 1.675331306457519531e+01 -1.686092972755432129e+00 -4.822628796100616455e-01 -6.505067348480224609e-01 9.220517873764038086e-01
2.062000000000000000e+03 7.563751220703125000e+01 -1.234708404541015625e+01 4.688429534435272217e-01 6.216297626495361328e+00 2.005542278289794922e+00 1.386249423027038574e+00
2.063000000000000000e+03 4.989868545532226562e+01 3.570710182189941406e+00 -5.221235156059265137e-01 1.069979518651962280e-01 -1.245376691222190857e-01 -2.761862613260746002e-02
2.064000000000000000e+03 3.009228467941284180e+00 -3.034577369689941406e+01 2.438047202304005623e-03 -1.727567166090011597e-01 -5.109560117125511169e-02 -3.225797042250633240e-02
2.065000000000000000e+03 4.143478393554687500e+00 -3.323900604248046875e+01 6.849797908216714859e-03 -1.923928260803222656e-01 -5.566291138529777527e-02 -3.623345494270324707e-02
2.066000000000000000e+03 5.140834045410156250e+01 1.611410140991210938e+01 -1.502556204795837402e+00 -8.510599285364151001e-02 -4.762986600399017334e-01 3.449841737747192383e-01
2.067000000000000000e+03 2.685826492309570312e+01 6.294367313385009766e-01 -9.981440007686614990e-02 1.053725630044937134e-01 1.667450065724551678e-03 1.188381612300872803e-01
2.068000000000000000e+03 2.940147209167480469e+01 1.887272357940673828e+00 -1.966544389724731445e-01 -2.543369531631469727e-01 -1.352974176406860352e-01 7.520916312932968140e-02
2.069000000000000000e+03 3.700611114501953125e+00 -8.106849670410156250e+00 -4.691085312515497208e-03 2.689518965780735016e-03 -6.004698225297033787e-04 4.569800570607185364e-03
2.070000000000000000e+03 6.777607727050781250e+01 -2.146628141403198242e+00 -3.665521144866943359e-01 -2.392062544822692871e-01 -1.817275136709213257e-01 2.860420346260070801e-01
2.071000000000000000e+03 6.866733551025390625e+01 -1.803808808326721191e+00 -3.057606518268585205e-01 4.415572620928287506e-03 -9.040352702140808105e-02 3.426297008991241455e-02
2.072000000000000000e+03 7.224594879150390625e+01 -4.580856800079345703e+00 -1.069554612040519714e-01 2.243628025054931641e+00 6.410018205642700195e-01 3.598072230815887451e-01
2.073000000000000000e+03 5.104515457153320312e+01 1.807346916198730469e+01 -9.690485000610351562e-01 -2.903794944286346436e-01 -3.778283894062042236e-01 2.267940044403076172e-01
2.074000000000000000e+03 7.351947021484375000e+01 -1.714087486267089844e+01 3.636250793933868408e-01 5.326797485351562500e+00 1.707126736640930176e+00 7.798879146575927734e-01
2.075000000000000000e+03 5.206522941589355469e+00 3.020485877990722656e+01 2.066270099021494389e-04 -4.006168991327285767e-02 -1.195651851594448090e-02 1.918621733784675598e-02
2.076000000000000000e+03 7.517176055908203125e+01 -1.142805099487304688e+01 4.161904454231262207e-01 6.040512084960937500e+00 1.937010765075683594e+00 1.355664491653442383e+00
2.077000000000000000e+03 4.513573837280273438e+01 1.696189308166503906e+01 -9.371747970581054688e-01 2.581457607448101044e-03 -2.803779840469360352e-01 3.708119392395019531e-01
2.078000000000000000e+03 4.307451248168945312e+01 1.582849597930908203e+01 -6.545870900154113770e-01 1.197911053895950317e-01 -1.604387909173965454e-01 5.386815220117568970e-02
2.079000000000000000e+03 4.608351135253906250e+01 1.774408912658691406e+01 -8.906220793724060059e-01 -1.547924131155014038e-01 -3.136243522167205811e-01 4.037257730960845947e-01
2.080000000000000000e+03 6.376578521728515625e+01 2.436034917831420898e+00 -1.189043164253234863e+00 -1.520072370767593384e-01 -4.023151099681854248e-01 -1.092749312520027161e-01
2.081000000000000000e+03 3.341539382934570312e+01 2.306433200836181641e+00 -5.330603122711181641e-01 -6.151467561721801758e-03 -1.617635339498519897e-01 -4.353910684585571289e-01
2.082000000000000000e+03 2.251496887207031250e+01 9.268072128295898438e+00 -5.772969219833612442e-03 7.391341030597686768e-03 4.855116421822458506e-04 -1.372537808492779732e-03
2.083000000000000000e+03 7.516917419433593750e+01 1.746179389953613281e+01 4.030594229698181152e-01 5.643358707427978516e+00 1.813925385475158691e+00 -1.680089712142944336e+00
2.084000000000000000e+03 4.668371200561523438e+01 1.933689564466476440e-01 -7.948958873748779297e-01 -1.259259581565856934e-01 -2.762465476989746094e-01 -5.048478841781616211e-01
2.085000000000000000e+03 1.581326198577880859e+01 -5.104959011077880859e+00 -4.615394864231348038e-03 -6.694554816931486130e-03 -3.392984857782721519e-03 -1.351549569517374039e-02
2.086000000000000000e+03 1.842397117614746094e+01 2.046294593811035156e+01 -7.873755693435668945e-02 -1.238164119422435760e-02 -2.733575925230979919e-02 6.688904017210006714e-02
2.087000000000000000e+03 7.182701873779296875e+01 -6.395621895790100098e-01 -1.573982387781143188e-01 4.141747653484344482e-01 7.703296095132827759e-02 -1.900779008865356445e-01
2.088000000000000000e+03 4.593799114227294922e+00 -1.463378810882568359e+01 -1.319788955152034760e-02 -2.368810586631298065e-02 -1.106579788029193878e-02 -2.751370519399642944e-02
2.089000000000000000e+03 3.455141448974609375e+01 1.800899124145507812e+01 -2.962623536586761475e-01 -5.196661129593849182e-02 -1.044686883687973022e-01 1.572544723749160767e-01
2.090000000000000000e+03 5.116688919067382812e+01 3.747436106204986572e-01 -1.506972074508666992e+00 5.080036520957946777e-01 -2.996905446052551270e-01 -2.277854382991790771e-01
2.091000000000000000e+03 7.438947296142578125e+01 -2.274437713623046875e+01 -7.866480201482772827e-02 4.393198966979980469e+00 1.294360160827636719e+00 6.226206421852111816e-01
2.092000000000000000e+03 4.958932399749755859e+00 1.145837402343750000e+01 1.572879380546510220e-03 -3.872968256473541260e-03 -6.900266744196414948e-04 1.165003399364650249e-03
2.093000000000000000e+03 5.936732292175292969e+00 1.182863044738769531e+01 3.571835812181234360e-03 -4.485763143748044968e-03 -2.741781354416161776e-04 -5.733678117394447327e-04
2.094000000000000000e+03 7.597853088378906250e+01 -3.393622207641601562e+01 5.170806869864463806e-02 3.936238288879394531e+00 1.196383953094482422e+00 2.232144623994827271e-01
2.095000000000000000e+03 7.404121398925781250e+01 -1.616226768493652344e+01 4.516457319259643555e-01 5.850207328796386719e+00 1.890555858612060547e+00 7.246460914611816406e-01
2.096000000000000000e+03 7.321038055419921875e+01 2.507350540161132812e+01 4.430989325046539307e-01 4.008997917175292969e+00 1.335628986358642578e+00 -1.180391311645507812e+00
2.097000000000000000e+03 7.464640808105468750e+01 -5.163789749145507812e+00 -1.564632058143615723e-01 4.954029083251953125e+00 1.439269661903381348e+00 9.734911322593688965e-01
2.098000000000000000e+03 7.637290954589843750e+01 -2.656004428863525391e+00 -1.295511424541473389e-01 7.245892524719238281e+00 2.134902238845825195e+00 1.110688924789428711e+00
2.099000000000000000e+03 7.755265045166015625e+01 -6.963484287261962891e-01 -2.772799730300903320e-01 9.717671394348144531e+00 2.832117319107055664e+00 7.644029259681701660e-01
2.100000000000000000e+03 2.756251907348632812e+01 -4.051088333129882812e+00 5.065529793500900269e-02 -5.361744165420532227e-01 -1.456557363271713257e-01 -7.104621529579162598e-01
2.101000000000000000e+03 4.359259033203125000e+01 -7.568492889404296875e+00 3.249392211437225342e-01 -6.507987976074218750e-01 -9.775787591934204102e-02 -4.285106658935546875e-01
2.102000000000000000e+03 7.655586242675781250e+01 1.558842754364013672e+01 1.866782158613204956e-01 7.578795909881591797e+00 2.329642295837402344e+00 -1.830719828605651855e+00
2.103000000000000000e+03 3.337473678588867188e+01 5.581495761871337891e+00 1.887353509664535522e-01 -6.759659200906753540e-02 3.634162992238998413e-02 -2.462358027696609497e-02
2.104000000000000000e+03 6.116711425781250000e+01 -8.008590698242187500e+00 3.061023950576782227e-01 5.569814443588256836e-01 2.589251399040222168e-01 2.439480721950531006e-01
2.105000000000000000e+03 5.285293960571289062e+01 -2.103737449645996094e+01 -2.171362638473510742e-01 2.010231167078018188e-01 -4.833947867155075073e-03 -4.336445927619934082e-01
2.106000000000000000e+03 4.653818130493164062e+01 -1.767340850830078125e+01 -2.914444804191589355e-01 3.072682023048400879e-01 4.747117403894662857e-03 -5.423919111490249634e-02
2.107000000000000000e+03 4.109453201293945312e+00 3.303187942504882812e+01 1.989447046071290970e-03 -4.680935665965080261e-02 -1.344597339630126953e-02 1.390117127448320389e-02
2.108000000000000000e+03 4.608642578125000000e+00 1.969086456298828125e+01 -4.192957654595375061e-03 -8.955014869570732117e-03 -3.944391850382089615e-03 4.875485785305500031e-03
2.109000000000000000e+03 2.783547973632812500e+01 -1.160657596588134766e+01 -1.714426428079605103e-01 -3.807637989521026611e-01 -1.656619310379028320e-01 6.074836105108261108e-02
2.110000000000000000e+03 4.214345550537109375e+01 -1.201006317138671875e+01 3.579931855201721191e-01 -6.729541420936584473e-01 -9.448829293251037598e-02 -4.986990094184875488e-01
2.111000000000000000e+03 5.573995590209960938e+01 -7.359764575958251953e+00 6.092875599861145020e-01 -3.110674023628234863e-01 8.946605026721954346e-02 -2.399580329656600952e-01
2.112000000000000000e+03 5.493803024291992188e+01 -6.291061878204345703e+00 5.507088899612426758e-01 -2.113827019929885864e-01 1.017978563904762268e-01 -3.067846596240997314e-01
2.113000000000000000e+03 4.485024261474609375e+01 -1.228951072692871094e+01 4.054331481456756592e-01 9.388852119445800781e-02 1.497965008020401001e-01 -5.132581591606140137e-01
2.114000000000000000e+03 6.285954666137695312e+01 -6.383472681045532227e-01 -9.945130944252014160e-01 8.660656213760375977e-01 -3.853423148393630981e-02 2.588020265102386475e-01
2.115000000000000000e+03 2.637998771667480469e+01 1.845042991638183594e+01 -1.975480914115905762e-01 -2.522606588900089264e-02 -6.683224439620971680e-02 8.694406598806381226e-02
2.116000000000000000e+03 4.228934860229492188e+01 -3.436595678329467773e+00 -9.273223876953125000e-01 -3.731666505336761475e-01 -3.901467025279998779e-01 5.556881055235862732e-02
2.117000000000000000e+03 2.674147033691406250e+01 -4.822065353393554688e+00 1.633958369493484497e-01 -6.307363510131835938e-01 -1.402021497488021851e-01 -7.193642258644104004e-01
2.118000000000000000e+03 5.905900573730468750e+01 -1.778755950927734375e+01 -3.604536056518554688e-01 3.272288143634796143e-01 -9.967435151338577271e-03 -2.390086799860000610e-01
2.119000000000000000e+03 5.791202926635742188e+01 -1.842983818054199219e+01 -4.693993926048278809e-01 2.150713205337524414e-01 -7.629841566085815430e-02 -2.070278227329254150e-01
2.120000000000000000e+03 3.321854019165039062e+01 -1.247231769561767578e+01 1.155057698488235474e-01 5.137716531753540039e-01 1.887832283973693848e-01 -1.818334609270095825e-01
2.121000000000000000e+03 3.607154846191406250e+01 1.536333560943603516e+01 -3.935019969940185547e-01 -4.139678180217742920e-02 -1.304696351289749146e-01 7.383373379707336426e-02
2.122000000000000000e+03 5.093306350708007812e+01 5.130943775177001953e+00 -1.302448660135269165e-01 -7.068891823291778564e-02 -6.028013303875923157e-02 3.416462801396846771e-03
2.123000000000000000e+03 4.933961486816406250e+01 5.447585582733154297e+00 -8.629075437784194946e-02 -4.711025580763816833e-02 -4.002030193805694580e-02 -1.155853969976305962e-03
2.124000000000000000e+03 1.164564418792724609e+01 1.259435462951660156e+01 2.860262291505932808e-03 2.823272952809929848e-03 1.705060596577823162e-03 3.983397968113422394e-03
2.125000000000000000e+03 6.760565185546875000e+01 5.846902847290039062e+00 -7.799874991178512573e-02 4.720765948295593262e-01 1.182233542203903198e-01 -4.311691820621490479e-01
2.126000000000000000e+03 4.617847824096679688e+01 1.470080614089965820e+00 -5.103974342346191406e-01 -1.010014787316322327e-01 -1.834196746349334717e-01 -3.351417779922485352e-01
2.127000000000000000e+03 7.250934600830078125e+01 1.177746868133544922e+01 -1.728086948394775391e+00 2.611023485660552979e-01 -4.400953650474548340e-01 2.622286081314086914e-01
2.128000000000000000e+03 7.478263854980468750e+01 1.106805038452148438e+01 -1.170668482780456543e+00 1.993752956390380859e+00 2.469253391027450562e-01 -1.115726709365844727e+00
2.129000000000000000e+03 7.621770477294921875e+01 1.090693569183349609e+01 -9.908310174942016602e-01 6.538259506225585938e+00 1.664228558540344238e+00 -3.322758913040161133e+00
2.130000000000000000e+03 7.522064208984375000e+01 1.109554481506347656e+01 -9.611434340476989746e-01 2.948622226715087891e+00 5.962436199188232422e-01 -1.741848945617675781e+00
2.131000000000000000e+03 7.518746948242187500e+01 1.155680847167968750e+01 -7.377535104751586914e-01 3.471955299377441406e+00 8.202605843544006348e-01 -1.798604130744934082e+00
2.132000000000000000e+03 7.701461791992187500e+01 1.070559787750244141e+01 -1.827713727951049805e+00 1.053285694122314453e+01 2.611542940139770508e+00 -3.510612010955810547e+00
2.133000000000000000e+03 6.939456939697265625e+01 1.940306901931762695e+00 -5.426341295242309570e-01 1.171015262603759766e+00 1.885143220424652100e-01 8.862766623497009277e-02
2.134000000000000000e+03 6.951304626464843750e+01 1.262115120887756348e+00 -7.597548365592956543e-01 9.681320190429687500e-01 6.251315772533416748e-02 -2.164754457771778107e-02
2.135000000000000000e+03 6.847404479980468750e+01 5.641541004180908203e+00 1.265114992856979370e-01 1.128118515014648438e+00 3.763889968395233154e-01 -1.497631967067718506e-01
2.136000000000000000e+03 7.706893920898437500e+01 4.739663124084472656e+00 -8.542878925800323486e-02 1.115419673919677734e+01 3.320630550384521484e+00 1.974985957145690918e+00
2.137000000000000000e+03 7.763940429687500000e+01 5.318522453308105469e+00 -1.068044543266296387e+00 1.293495178222656250e+01 3.560072183609008789e+00 1.388661146163940430e+00
2.138000000000000000e+03 6.844351959228515625e+01 6.570243835449218750e+00 -3.099460154771804810e-03 7.030052542686462402e-01 2.099717408418655396e-01 -3.856522440910339355e-01
2.139000000000000000e+03 6.784624481201171875e+01 6.467838287353515625e+00 -1.216273531317710876e-01 4.580606222152709961e-01 1.009299755096435547e-01 -5.338935852050781250e-01
2.140000000000000000e+03 6.593485260009765625e+01 4.482304573059082031e+00 -5.312613844871520996e-01 4.617361351847648621e-02 -1.455263346433639526e-01 -2.399255037307739258e-01
2.141000000000000000e+03 6.834678649902343750e+01 4.715672016143798828e+00 2.098448872566223145e-01 1.197563648223876953e+00 4.222225546836853027e-01 -6.593340635299682617e-02
2.142000000000000000e+03 7.603086090087890625e+01 7.162798196077346802e-03 -5.035433173179626465e-01 7.371115207672119141e+00 2.060271501541137695e+00 1.270376563072204590e+00
2.143000000000000000e+03 7.621174621582031250e+01 1.115282893180847168e+00 -5.731984376907348633e-01 8.263880729675292969e+00 2.307204484939575195e+00 1.056928992271423340e+00
2.144000000000000000e+03 6.938098144531250000e+01 -3.113429248332977295e-02 -6.344202160835266113e-01 5.369969010353088379e-01 -2.922699227929115295e-02 -1.543048024177551270e-01
2.145000000000000000e+03 7.483252716064453125e+01 -1.888715475797653198e-02 -4.533876180648803711e-01 4.500900745391845703e+00 1.214254021644592285e+00 1.641233563423156738e+00
2.146000000000000000e+03 7.755331420898437500e+01 3.056146144866943359e+00 4.602986276149749756e-01 1.067669010162353516e+01 3.341096639633178711e+00 4.877435266971588135e-01
2.147000000000000000e+03 8.935460090637207031e+00 -4.434117794036865234e+00 1.809809007681906223e-03 -8.228639140725135803e-03 -1.925649121403694153e-03 2.142938319593667984e-03
2.148000000000000000e+03 9.440340042114257812e+00 -4.157751083374023438e+00 -5.253399722278118134e-04 -3.680933732539415359e-03 -1.261882134713232517e-03 3.984322771430015564e-03
2.149000000000000000e+03 7.018180084228515625e+01 8.769498020410537720e-02 -7.305524349212646484e-01 5.682112574577331543e-01 -4.870235547423362732e-02 -3.684518337249755859e-01
2.150000000000000000e+03 7.042156982421875000e+01 9.806790351867675781e-01 -9.709506034851074219e-01 7.087363004684448242e-01 -7.866427302360534668e-02 -2.404115349054336548e-01
2.151000000000000000e+03 7.655655860900878906e+00 -4.116004943847656250e+00 2.093739341944456100e-03 -3.491141600534319878e-03 -4.192206542938947678e-04 6.652240641415119171e-03
2.152000000000000000e+03 7.814526081085205078e+00 -5.218738555908203125e+00 -2.884672489017248154e-03 -4.594621714204549789e-03 -2.243788214400410652e-03 6.492226384580135345e-03
2.153000000000000000e+03 6.867279815673828125e+01 1.695593118667602539e+00 -5.608134269714355469e-01 9.828380942344665527e-01 1.266074031591415405e-01 2.907386124134063721e-01
2.154000000000000000e+03 6.911198425292968750e+01 1.451808094978332520e+00 -6.559460163116455078e-01 9.532126784324645996e-01 8.918000012636184692e-02 1.519238352775573730e-01
2.155000000000000000e+03 7.768518829345703125e+01 2.009646892547607422e+00 2.447183616459369659e-02 1.066932964324951172e+01 3.208140373229980469e+00 3.057390153408050537e-01
2.156000000000000000e+03 6.730040740966796875e+01 5.444548606872558594e+00 -8.714209496974945068e-02 3.722422122955322266e-01 8.553003519773483276e-02 -3.816051483154296875e-01
2.157000000000000000e+03 7.333184051513671875e+01 -3.099046414718031883e-03 -3.138619363307952881e-01 1.169449806213378906e+00 2.566763460636138916e-01 8.565373420715332031e-01
2.158000000000000000e+03 7.584353637695312500e+01 -9.807893037796020508e-01 -3.579637110233306885e-01 6.642871856689453125e+00 1.885472416877746582e+00 1.321749925613403320e+00
2.159000000000000000e+03 6.823306274414062500e+01 2.840731620788574219e+00 -2.473388910293579102e-01 1.026269316673278809e+00 2.336791157722473145e-01 3.764836788177490234e-01
2.160000000000000000e+03 6.821434783935546875e+01 4.020518779754638672e+00 1.466964781284332275e-01 1.085832595825195312e+00 3.697586953639984131e-01 1.220714524388313293e-01
2.161000000000000000e+03 7.438497161865234375e+01 -6.763677000999450684e-01 -1.251155287027359009e-01 3.637536287307739258e+00 1.053726196289062500e+00 1.414135217666625977e+00
2.162000000000000000e+03 7.059891510009765625e+01 -4.103268384933471680e-01 -5.086064934730529785e-01 4.582398533821105957e-01 -1.510998699814081192e-02 -4.390423595905303955e-01
2.163000000000000000e+03 7.200179290771484375e+01 1.310248374938964844e-01 -7.149029970169067383e-01 6.736940145492553711e-02 -1.942600756883621216e-01 -3.098424971103668213e-01
2.164000000000000000e+03 7.313297271728515625e+01 -1.172736525535583496e+00 1.479294747114181519e-01 1.754070878028869629e+00 5.706000924110412598e-01 6.803269386291503906e-01
2.165000000000000000e+03 7.136974334716796875e+01 -3.750865757465362549e-01 -4.428777694702148438e-01 3.089429736137390137e-01 -4.018044099211692810e-02 -4.147199094295501709e-01
2.166000000000000000e+03 7.275631713867187500e+01 -4.585444927215576172e-01 -3.751150891184806824e-02 8.154602646827697754e-01 2.333846241235733032e-01 3.888951241970062256e-01
2.167000000000000000e+03 7.240608215332031250e+01 1.121713966131210327e-01 -6.056164503097534180e-01 1.141816899180412292e-01 -1.474304199218750000e-01 -3.715380653738975525e-02
2.168000000000000000e+03 6.910839080810546875e+01 1.484102439880371094e+01 -1.247036814689636230e+00 4.994566738605499268e-01 -2.242740541696548462e-01 3.264742195606231689e-01
2.169000000000000000e+03 6.776555633544921875e+01 3.127061128616333008e+00 -1.902259290218353271e-01 8.314969539642333984e-01 1.923813223838806152e-01 3.169313669204711914e-01
2.170000000000000000e+03 7.657498931884765625e+01 1.113839340209960938e+01 -1.274899840354919434e+00 7.898791790008544922e+00 1.987167477607727051e+00 -3.204945802688598633e+00
2.171000000000000000e+03 1.125204372406005859e+01 -3.393274784088134766e+00 1.154003944247961044e-02 -8.767173625528812408e-03 8.318599429912865162e-04 -1.309923478402197361e-03
2.172000000000000000e+03 1.012450313568115234e+01 -3.611118555068969727e+00 7.645704317837953568e-03 -1.052165124565362930e-02 -8.627839852124452591e-04 9.559448226355016232e-04
2.173000000000000000e+03 7.712025451660156250e+01 8.456096053123474121e-02 -4.069125354290008545e-01 9.269966125488281250e+00 2.658915996551513672e+00 7.635505795478820801e-01
2.174000000000000000e+03 7.672756195068359375e+01 1.135894536972045898e+00 -3.863257169723510742e-01 9.077153205871582031e+00 2.607248306274414062e+00 6.896374225616455078e-01
2.175000000000000000e+03 3.935047912597656250e+01 1.642084693908691406e+01 -4.809412658214569092e-01 6.642819941043853760e-02 -1.243539154529571533e-01 1.127883791923522949e-01
2.176000000000000000e+03 3.820134162902832031e+00 -5.248318672180175781e+00 -5.171119701117277145e-04 2.968777436763048172e-03 7.354996050707995892e-04 8.539773523807525635e-03
2.177000000000000000e+03 6.521546840667724609e+00 -4.718233108520507812e+00 3.667498240247368813e-04 -1.943613635376095772e-03 -4.730591608677059412e-04 7.736295927315950394e-03
2.178000000000000000e+03 7.096472167968750000e+01 1.305465126037597656e+01 -1.184342026710510254e+00 3.736243247985839844e-01 -2.432153224945068359e-01 4.947281479835510254e-01
2.179000000000000000e+03 6.729955291748046875e+01 6.225227832794189453e+00 -2.074036598205566406e-01 2.622085809707641602e-01 1.644147746264934540e-02 -5.962481498718261719e-01
2.180000000000000000e+03 7.667982482910156250e+01 1.322301197052001953e+01 -3.479683697223663330e-01 7.963928699493408203e+00 2.284788131713867188e+00 -2.130494356155395508e+00
2.181000000000000000e+03 1.188416481018066406e+01 -4.729631423950195312e+00 -4.809471312910318375e-03 -9.770944714546203613e-03 -4.374125041067600250e-03 -3.171467920765280724e-03
2.182000000000000000e+03 3.782093048095703125e+01 1.522082424163818359e+01 -4.091410636901855469e-01 5.318197607994079590e-02 -1.067877337336540222e-01 5.294925346970558167e-02
2.183000000000000000e+03 4.344067573547363281e+00 5.498291969299316406e+00 -5.989965284243226051e-04 4.119219011045061052e-05 -1.673413062235340476e-04 2.076921053230762482e-03
2.184000000000000000e+03 4.914299964904785156e+00 5.863928318023681641e+00 -3.567548235878348351e-03 5.044615827500820160e-04 -9.189259726554155350e-04 3.662450704723596573e-03
2.185000000000000000e+03 5.647135162353515625e+01 1.743865966796875000e+01 -1.250289797782897949e+00 2.040946781635284424e-01 -3.138585388660430908e-01 5.687064528465270996e-01
2.186000000000000000e+03 5.732471084594726562e+01 1.523488807678222656e+01 -1.565232753753662109e+00 3.083588182926177979e-01 -3.770621716976165771e-01 2.871221899986267090e-01
2.187000000000000000e+03 8.122051239013671875e+00 -3.953855991363525391e+00 4.433282651007175446e-03 -5.559294950217008591e-03 -3.378037363290786743e-04 4.242873284965753555e-03
2.188000000000000000e+03 6.841562271118164062e+00 -4.029463291168212891e+00 2.487017307430505753e-03 -3.149896860122680664e-03 -1.988638541661202908e-04 6.636448204517364502e-03
2.189000000000000000e+03 4.861659526824951172e+00 6.679984092712402344e+00 -1.441781176254153252e-03 -2.231871476396918297e-03 -1.102095819078385830e-03 2.663495251908898354e-03
2.190000000000000000e+03 6.991419982910156250e+01 1.370455455780029297e+01 -1.243637323379516602e+00 4.455282986164093018e-01 -2.394327223300933838e-01 6.754102706909179688e-01
2.191000000000000000e+03 8.240510940551757812e+00 1.160133075714111328e+01 3.028669860213994980e-03 -2.844481263309717178e-03 5.525658343685790896e-05 4.135547205805778503e-04
2.192000000000000000e+03 5.919051361083984375e+01 -1.332748508453369141e+01 -9.867909550666809082e-02 3.075168728828430176e-01 6.265132874250411987e-02 -1.251897811889648438e-01
2.193000000000000000e+03 2.668635177612304688e+01 -6.535226345062255859e+00 -4.150726646184921265e-02 -8.970140218734741211e-01 -2.815563976764678955e-01 -7.640448212623596191e-01
2.194000000000000000e+03 2.553763389587402344e+01 -3.904199600219726562e-02 -4.061420857906341553e-01 2.118854373693466187e-01 -5.827699229121208191e-02 1.000144612044095993e-02
2.195000000000000000e+03 7.366423034667968750e+01 -5.923088550567626953e+00 -2.890149354934692383e-01 4.212490558624267578e+00 1.177042603492736816e+00 7.640418410301208496e-01
2.196000000000000000e+03 7.621170043945312500e+01 -3.684280157089233398e+00 6.038628052920103073e-04 6.950019359588623047e+00 2.085186958312988281e+00 1.094503402709960938e+00
2.197000000000000000e+03 7.648108673095703125e+01 -5.016267299652099609e-01 -4.304407536983489990e-01 7.878874778747558594e+00 2.234530210494995117e+00 1.146516203880310059e+00
2.198000000000000000e+03 7.388676452636718750e+01 -4.121390819549560547e+00 -1.059622690081596375e-02 3.902112722396850586e+00 1.167454957962036133e+00 8.168234229087829590e-01
2.199000000000000000e+03 6.552858734130859375e+01 1.115620493888854980e+00 -7.666078805923461914e-01 4.359617829322814941e-01 -9.919382631778717041e-02 5.848941802978515625e-01
2.200000000000000000e+03 7.291041564941406250e+01 -3.811684608459472656e+00 8.506605029106140137e-02 2.703319072723388672e+00 8.365155458450317383e-01 5.493511557579040527e-01
2.201000000000000000e+03 3.708967208862304688e+01 1.818216514587402344e+01 -3.738364875316619873e-01 -1.147423870861530304e-02 -1.155932173132896423e-01 1.324524879455566406e-01
2.202000000000000000e+03 6.764416503906250000e+01 9.418053627014160156e-01 -5.982506275177001953e-01 6.364755630493164062e-01 1.146748010069131851e-02 4.613573551177978516e-01
2.203000000000000000e+03 6.651837921142578125e+01 7.825368642807006836e-01 -6.389883160591125488e-01 4.798662066459655762e-01 -4.773662239313125610e-02 6.026822328567504883e-01
2.204000000000000000e+03 6.298286056518554688e+01 6.132827997207641602e-01 -1.383644104003906250e+00 3.557252883911132812e-01 -3.083756566047668457e-01 1.250865757465362549e-01
2.205000000000000000e+03 3.529610633850097656e+00 -6.077256202697753906e+00 -1.203262130729854107e-03 4.155109636485576630e-03 8.855542400851845741e-04 8.162887766957283020e-03
2.206000000000000000e+03 5.197737121582031250e+01 1.734666061401367188e+01 -1.282477855682373047e+00 -6.880392879247665405e-02 -4.053845405578613281e-01 2.421546876430511475e-01
2.207000000000000000e+03 4.718610382080078125e+01 9.943707585334777832e-01 -8.211542367935180664e-01 2.582718245685100555e-02 -2.385981082916259766e-01 -4.649078547954559326e-01
2.208000000000000000e+03 4.413239288330078125e+01 8.918799757957458496e-01 -4.796158075332641602e-01 -2.153609097003936768e-01 -2.084930092096328735e-01 -2.614624798297882080e-01
2.209000000000000000e+03 5.979288864135742188e+01 -1.429522037506103516e+01 -1.800140142440795898e-01 3.837191462516784668e-01 6.111153960227966309e-02 -1.560939848423004150e-01
2.210000000000000000e+03 1.336715984344482422e+01 1.438991832733154297e+01 -7.313048001378774643e-03 3.584405872970819473e-03 -1.118592685088515282e-03 3.315064590424299240e-03
2.211000000000000000e+03 6.543640899658203125e+01 3.609536886215209961e+00 -6.684675216674804688e-01 5.120162293314933777e-02 -1.851797699928283691e-01 -5.055575072765350342e-02
2.212000000000000000e+03 4.356138610839843750e+01 -1.339374351501464844e+01 -1.071089692413806915e-02 -2.645511329174041748e-01 -8.257860690355300903e-02 -5.074535012245178223e-01
2.213000000000000000e+03 6.989753723144531250e+01 -3.494875431060791016e+00 -1.252630054950714111e-01 1.033836007118225098e-01 -6.563821341842412949e-03 4.094703495502471924e-02
2.214000000000000000e+03 3.545822143554687500e+00 -6.973369598388671875e+00 -3.514104988425970078e-03 3.880542004480957985e-03 1.099311120924539864e-04 6.638076156377792358e-03
2.215000000000000000e+03 5.322858333587646484e+00 -6.074427127838134766e+00 -4.283903166651725769e-03 -1.193527830764651299e-03 -1.643229392357170582e-03 7.265862077474594116e-03
2.216000000000000000e+03 5.270180892944335938e+01 -1.829384863376617432e-01 -1.806498169898986816e+00 4.645511507987976074e-01 -4.025841057300567627e-01 -2.007371336221694946e-01
2.217000000000000000e+03 4.438765525817871094e+00 1.060404109954833984e+01 3.257735632359981537e-03 -4.093441646546125412e-03 -2.507117751520127058e-04 9.293097537010908127e-04
2.218000000000000000e+03 6.673106384277343750e+01 1.612268638610839844e+01 -1.229435205459594727e+00 -2.897126376628875732e-01 -4.557443559169769287e-01 5.397299304604530334e-02
2.219000000000000000e+03 6.325226974487304688e+01 1.682804870605468750e+01 -1.549240350723266602e+00 -1.092673540115356445e+00 -7.925741672515869141e-01 7.162701487541198730e-01
2.220000000000000000e+03 5.904035568237304688e+01 1.745125198364257812e+01 -1.332227110862731934e+00 3.082271141465753317e-04 -3.995756804943084717e-01 7.067721486091613770e-01
2.221000000000000000e+03 4.226528930664062500e+01 -4.777513980865478516e+00 -5.038273334503173828e-01 -4.844266474246978760e-01 -2.964761853218078613e-01 -1.939895004034042358e-01
2.222000000000000000e+03 4.392145156860351562e+01 -3.732356071472167969e+00 -1.224203228950500488e+00 -7.122272253036499023e-01 -5.809291005134582520e-01 -2.089270949363708496e-01
2.223000000000000000e+03 2.817663955688476562e+01 -2.361649751663208008e+00 -4.609216153621673584e-01 -3.249408304691314697e-01 -2.357587367296218872e-01 -7.148069739341735840e-01
2.224000000000000000e+03 2.702349281311035156e+01 -3.345598876476287842e-01 -9.107250571250915527e-01 2.401152104139328003e-01 -2.011829465627670288e-01 -5.483050644397735596e-02
2.225000000000000000e+03 7.543651580810546875e+01 -7.881551742553710938e+00 -2.862371504306793213e-01 6.146619319915771484e+00 1.758114576339721680e+00 1.344592928886413574e+00
2.226000000000000000e+03 6.770302581787109375e+01 4.726322650909423828e+00 3.665674105286598206e-02 7.033534049987792969e-01 2.220030426979064941e-01 -8.713518083095550537e-02
2.227000000000000000e+03 6.491109466552734375e+01 2.714607000350952148e+00 -9.539440870285034180e-01 7.853348553180694580e-02 -2.626231908798217773e-01 5.637679994106292725e-02
2.228000000000000000e+03 4.486915588378906250e+00 -1.310558414459228516e+01 -1.379406452178955078e-02 -1.410320308059453964e-02 -8.369180373847484589e-03 -1.850483007729053497e-02
2.229000000000000000e+03 4.822466373443603516e+00 -1.074431228637695312e+01 -1.383672282099723816e-02 -7.541515864431858063e-03 -6.413471419364213943e-03 -7.320917677134275436e-03
2.230000000000000000e+03 7.568292236328125000e+01 -1.871645545959472656e+01 -6.432598456740379333e-04 5.322654247283935547e+00 1.596603274345397949e+00 3.068105280399322510e-01
2.231000000000000000e+03 3.832083892822265625e+01 -4.520645141601562500e+00 2.791686654090881348e-01 4.679590165615081787e-01 2.241383045911788940e-01 -4.868220388889312744e-01
2.232000000000000000e+03 7.556562042236328125e+01 -1.483588123321533203e+01 8.692771792411804199e-01 5.687803268432617188e+00 1.967124104499816895e+00 7.308858036994934082e-01
2.233000000000000000e+03 5.440447616577148438e+01 1.564220333099365234e+01 -1.296669244766235352e+00 2.205540239810943604e-01 -3.228345811367034912e-01 4.172676503658294678e-01
2.234000000000000000e+03 4.993982696533203125e+01 -2.393630743026733398e+00 -9.561474323272705078e-01 7.153030633926391602e-01 -7.225332409143447876e-02 -4.897069334983825684e-01
2.235000000000000000e+03 5.146251296997070312e+01 -8.479488492012023926e-01 -1.432108402252197266e+00 5.917394757270812988e-01 -2.521106600761413574e-01 -4.349726438522338867e-01
2.236000000000000000e+03 4.096449279785156250e+01 -3.445855617523193359e+00 -6.189198493957519531e-01 -2.982169389724731445e-01 -2.751410305500030518e-01 1.188115179538726807e-01
2.237000000000000000e+03 7.667543792724609375e+01 1.463595771789550781e+01 4.325249418616294861e-02 7.800328254699707031e+00 2.353074073791503906e+00 -1.829598903656005859e+00
2.238000000000000000e+03 7.259701538085937500e+01 -2.739724874496459961e+00 1.637619733810424805e-01 1.972781777381896973e+00 6.409631371498107910e-01 3.864188194274902344e-01
2.239000000000000000e+03 4.794721603393554688e+01 1.918794274330139160e+00 -6.677663326263427734e-01 1.021501421928405762e-01 -1.696848720312118530e-01 -3.088043630123138428e-01
2.240000000000000000e+03 4.317279052734375000e+01 1.884391975402832031e+01 -6.463260054588317871e-01 -1.462100539356470108e-02 -1.982841044664382935e-01 3.165608048439025879e-01
2.241000000000000000e+03 7.497294616699218750e+01 -6.885797023773193359e+00 -3.083208203315734863e-01 5.578111648559570312e+00 1.580937266349792480e+00 1.116887450218200684e+00
2.242000000000000000e+03 5.315295028686523438e+01 -2.237471580505371094e+00 -1.039300203323364258e+00 2.285845130681991577e-01 -2.432147264480590820e-01 -4.782858192920684814e-01
2.243000000000000000e+03 7.611621093750000000e+01 1.777458000183105469e+01 3.378051817417144775e-01 6.642325401306152344e+00 2.094039201736450195e+00 -1.653918385505676270e+00
2.244000000000000000e+03 5.125409317016601562e+01 1.483989477157592773e+00 -1.141701579093933105e+00 3.046512305736541748e-01 -2.511151134967803955e-01 -4.083541408181190491e-02
2.245000000000000000e+03 4.461182594299316406e+00 2.091054153442382812e+01 -4.070215858519077301e-03 -1.087232772260904312e-02 -4.482763353735208511e-03 6.694953422993421555e-03
2.246000000000000000e+03 5.913538932800292969e+00 2.331869697570800781e+01 -6.950255017727613449e-03 -1.765044964849948883e-02 -7.380211725831031799e-03 1.450102776288986206e-02
2.247000000000000000e+03 4.446687698364257812e+00 3.446475982666015625e+01 2.366253640502691269e-03 -5.144325271248817444e-02 -1.472309976816177368e-02 1.353343389928340912e-02
2.248000000000000000e+03 5.654136180877685547e+00 3.269798278808593750e+01 2.952136332169175148e-03 -4.936682432889938354e-02 -1.392440591007471085e-02 1.964209601283073425e-02
2.249000000000000000e+03 6.186083602905273438e+01 -1.307985496520996094e+01 -2.216533720493316650e-01 5.992268919944763184e-01 1.132720559835433960e-01 -6.565698981285095215e-02
2.250000000000000000e+03 4.412540054321289062e+01 1.633514595031738281e+01 -9.434878230094909668e-01 1.336670219898223877e-01 -2.429462522268295288e-01 1.454105675220489502e-01
2.251000000000000000e+03 1.835025215148925781e+01 -7.991079330444335938e+00 -7.969073206186294556e-02 -2.822022186592221260e-03 -2.475382573902606964e-02 9.434088133275508881e-03
2.252000000000000000e+03 1.627239990234375000e+01 -9.739683151245117188e+00 -1.195802614092826843e-01 -1.864037476480007172e-02 -4.146619141101837158e-02 -2.796244993805885315e-02
2.253000000000000000e+03 3.157814407348632812e+01 -1.453621768951416016e+01 -8.877989649772644043e-02 2.298120260238647461e-01 4.230963811278343201e-02 4.693811014294624329e-02
2.254000000000000000e+03 5.807062530517578125e+01 -6.193695545196533203e+00 6.023294925689697266e-01 -3.048074543476104736e-01 8.925660699605941772e-02 1.208987832069396973e-01
2.255000000000000000e+03 6.014258575439453125e+01 -8.825416564941406250e+00 2.898166179656982422e-01 3.696919679641723633e-01 1.978525668382644653e-01 1.808855831623077393e-01
2.256000000000000000e+03 2.659423446655273438e+01 -1.780374765396118164e+00 -5.174214839935302734e-01 -3.339714184403419495e-02 -1.652455776929855347e-01 -3.654678463935852051e-01
2.257000000000000000e+03 5.951190567016601562e+01 -1.126073741912841797e+01 7.674317806959152222e-02 3.174086809158325195e-01 1.182455569505691528e-01 5.560857243835926056e-03
2.258000000000000000e+03 4.377340316772460938e+01 -1.958972549438476562e+01 -2.304159700870513916e-01 -2.376643270254135132e-01 -1.404240876436233521e-01 4.636539611965417862e-03
2.259000000000000000e+03 4.184553146362304688e+01 -1.744332122802734375e+01 -4.412212371826171875e-01 -7.691426277160644531e-01 -3.631091713905334473e-01 -1.035457663238048553e-02
2.260000000000000000e+03 6.434405517578125000e+01 -1.510326290130615234e+01 -3.468081057071685791e-01 6.234411597251892090e-01 8.298991620540618896e-02 -9.543998539447784424e-02
2.261000000000000000e+03 3.241244888305664062e+01 3.003236055374145508e+00 -2.712410315871238708e-02 -2.386457622051239014e-01 -7.973095774650573730e-02 -3.721129894256591797e-01
2.262000000000000000e+03 3.490161514282226562e+01 2.211857080459594727e+00 -6.841083168983459473e-01 1.955516338348388672e-01 -1.465670168399810791e-01 -9.474048018455505371e-02
2.263000000000000000e+03 4.173065185546875000e+01 -5.951171875000000000e+00 2.947073429822921753e-02 -4.393559992313385010e-01 -1.229655817151069641e-01 -4.914178252220153809e-01
2.264000000000000000e+03 4.370530319213867188e+01 -1.472595405578613281e+01 -3.170859217643737793e-01 -2.827328443527221680e-01 -1.799456179141998291e-01 -2.880142331123352051e-01
2.265000000000000000e+03 3.095043563842773438e+01 1.619729804992675781e+01 -2.519289255142211914e-01 8.652089163661003113e-03 -7.298304885625839233e-02 9.835883229970932007e-02
2.266000000000000000e+03 6.514134979248046875e+01 1.523357772827148438e+01 -2.175870180130004883e+00 -1.107764601707458496e+00 -9.850904345512390137e-01 1.995124965906143188e-01
2.267000000000000000e+03 3.166759872436523438e+01 1.984421157836914062e+01 -2.144675999879837036e-01 -4.377447813749313354e-02 -7.747262716293334961e-02 1.701847761869430542e-01
2.268000000000000000e+03 3.006602478027343750e+01 1.933434867858886719e+01 -2.006925940513610840e-01 -2.844701707363128662e-02 -6.874188780784606934e-02 1.482547521591186523e-01
2.269000000000000000e+03 5.981426620483398438e+01 -7.482742786407470703e+00 4.621727466583251953e-01 2.413468658924102783e-01 2.110558748245239258e-01 2.872769832611083984e-01
2.270000000000000000e+03 5.579685974121093750e+01 -5.241855621337890625e+00 3.746993839740753174e-01 -5.354924798011779785e-01 -4.823792353272438049e-02 -2.392223924398422241e-01
2.271000000000000000e+03 7.569753265380859375e+01 -8.973311424255371094e+00 -3.704285994172096252e-02 6.301489353179931641e+00 1.879333972930908203e+00 1.458048105239868164e+00
2.272000000000000000e+03 5.616888809204101562e+01 1.638009643554687500e+01 -1.443248510360717773e+00 2.758084535598754883e-01 -3.502320349216461182e-01 4.747439324855804443e-01
2.273000000000000000e+03 5.528208160400390625e+01 1.658504295349121094e+01 -1.319450259208679199e+00 2.419681549072265625e-01 -3.232446312904357910e-01 4.580305218696594238e-01
2.274000000000000000e+03 1.924441909790039062e+01 8.115978240966796875e+00 -3.522047481965273619e-04 4.434344358742237091e-03 1.224641804583370686e-03 2.248101169243454933e-03
2.275000000000000000e+03 6.342160415649414062e+01 1.643558740615844727e+00 -1.478065013885498047e+00 6.965631246566772461e-02 -4.225226044654846191e-01 -3.961439803242683411e-02
2.276000000000000000e+03 6.445693206787109375e+01 1.328351855278015137e+00 -1.156011223793029785e+00 3.388470113277435303e-01 -2.451492547988891602e-01 3.618912696838378906e-01
2.277000000000000000e+03 2.836620140075683594e+01 1.529611682891845703e+01 -1.645879149436950684e-01 1.420189160853624344e-02 -4.511580616235733032e-02 5.496345087885856628e-02
2.278000000000000000e+03 2.820252227783203125e+01 1.693041610717773438e+01 -2.007477134466171265e-01 -7.281518774107098579e-04 -6.044276058673858643e-02 1.031548902392387390e-01
2.279000000000000000e+03 4.612385177612304688e+01 -1.998126411437988281e+01 -2.467706650495529175e-01 1.723355054855346680e-01 -2.233054488897323608e-02 -2.892124466598033905e-02
2.280000000000000000e+03 5.636309146881103516e+00 1.281417369842529297e+01 1.172796124592423439e-03 -4.170716740190982819e-03 -8.993762312456965446e-04 2.597057900857180357e-04
2.281000000000000000e+03 4.539439201354980469e+00 1.249641227722167969e+01 1.666311291046440601e-03 -4.272556863725185394e-03 -7.818736485205590725e-04 -6.687562563456594944e-04
2.282000000000000000e+03 4.751583862304687500e+01 -1.994163322448730469e+01 -2.778652608394622803e-01 3.272301852703094482e-01 1.480947248637676239e-02 -8.651850372552871704e-02
2.283000000000000000e+03 7.315236663818359375e+01 -6.818673133850097656e+00 -4.434074759483337402e-01 3.876810550689697266e+00 1.030020952224731445e+00 7.723163962364196777e-01
2.284000000000000000e+03 7.431493377685546875e+01 -2.377461624145507812e+01 -8.766927756369113922e-03 4.199337959289550781e+00 1.257171273231506348e+00 5.817607045173645020e-01
2.285000000000000000e+03 2.319952583312988281e+01 -1.406712436676025391e+01 -8.997297286987304688e-02 -4.354886710643768311e-01 -1.576384902000427246e-01 -2.607062458992004395e-01
2.286000000000000000e+03 2.388467979431152344e+01 -1.122533130645751953e+01 -3.338553905487060547e-01 -6.895714402198791504e-01 -3.070280551910400391e-01 -4.422756135463714600e-01
2.287000000000000000e+03 4.844412326812744141e+00 -1.201858234405517578e+01 -1.559181325137615204e-02 -1.213543862104415894e-02 -8.318175561726093292e-03 -1.492535322904586792e-02
2.288000000000000000e+03 7.092358112335205078e+00 -2.150891113281250000e+01 -1.045328937470912933e-02 -9.699474275112152100e-02 -3.223441168665885925e-02 -7.957433164119720459e-02
2.289000000000000000e+03 5.579397583007812500e+01 -2.079455566406250000e+01 1.545382943004369736e-02 -2.254142165184020996e-01 -6.298811733722686768e-02 -1.745207607746124268e-01
2.290000000000000000e+03 7.524031829833984375e+01 2.298721122741699219e+01 2.943021059036254883e-01 5.344166755676269531e+00 1.691540598869323730e+00 -1.241166710853576660e+00
2.291000000000000000e+03 6.574064254760742188e+00 3.175031852722167969e+01 3.014296293258666992e-03 -4.835131391882896423e-02 -1.360110566020011902e-02 2.310060150921344757e-02
2.292000000000000000e+03 7.484880828857421875e+01 1.182660865783691406e+01 -7.074090838432312012e-01 2.933221101760864258e+00 6.677435636520385742e-01 -1.548815965652465820e+00
2.293000000000000000e+03 7.416727447509765625e+01 1.122481155395507812e+01 -1.394159317016601562e+00 1.232368946075439453e+00 -4.853714257478713989e-02 -5.370062589645385742e-01
2.294000000000000000e+03 7.601116180419921875e+01 1.098060989379882812e+01 -9.457046985626220703e-01 5.422676563262939453e+00 1.343091607093811035e+00 -2.794000148773193359e+00
2.295000000000000000e+03 7.255972290039062500e+01 1.204852771759033203e+01 -1.414142608642578125e+00 4.903269708156585693e-01 -2.771447002887725830e-01 1.569654494524002075e-01
2.296000000000000000e+03 7.583214569091796875e+01 1.125121307373046875e+01 -8.434076905250549316e-01 5.208093166351318359e+00 1.309405684471130371e+00 -2.621303796768188477e+00
2.297000000000000000e+03 7.319828796386718750e+01 1.197009468078613281e+01 -1.213082909584045410e+00 8.911774754524230957e-01 -9.657161682844161987e-02 -2.126155048608779907e-01
2.298000000000000000e+03 7.153535461425781250e+01 1.239867210388183594e+01 -1.512210965156555176e+00 2.298541814088821411e-01 -3.847070336341857910e-01 4.987210631370544434e-01
2.299000000000000000e+03 6.787525177001953125e+01 1.690686821937561035e+00 -5.336804389953613281e-01 8.125525116920471191e-01 8.366162329912185669e-02 4.336107075214385986e-01
2.300000000000000000e+03 6.701116180419921875e+01 4.898995876312255859e+00 -2.037793248891830444e-01 3.350684940814971924e-01 3.938675299286842346e-02 -2.457217574119567871e-01
2.301000000000000000e+03 6.784425354003906250e+01 5.243600845336914062e+00 5.080265551805496216e-02 7.404309511184692383e-01 2.373700886964797974e-01 -2.342978119850158691e-01
2.302000000000000000e+03 7.124464416503906250e+01 1.271065330505371094e+01 -1.350135922431945801e+00 2.384657859802246094e-01 -3.335010409355163574e-01 5.216426849365234375e-01
2.303000000000000000e+03 6.827779388427734375e+01 -1.004848599433898926e+00 -4.194964766502380371e-01 1.637277752161026001e-01 -7.673061639070510864e-02 1.259312480688095093e-01
2.304000000000000000e+03 6.975762939453125000e+01 1.691093325614929199e+00 -6.547100543975830078e-01 9.666300415992736816e-01 9.357600659132003784e-02 -3.943877294659614563e-02
2.305000000000000000e+03 7.691303253173828125e+01 1.119332790374755859e+01 -1.700047612190246582e+00 1.022392940521240234e+01 2.557164669036865234e+00 -3.134734630584716797e+00
2.306000000000000000e+03 1.001012420654296875e+01 -4.761481285095214844e+00 1.875705202110111713e-03 -1.178099028766155243e-02 -2.971585607156157494e-03 1.111270627006888390e-03
2.307000000000000000e+03 6.676114654541015625e+01 4.195075511932373047e+00 -2.685710787773132324e-01 3.322443962097167969e-01 1.910199783742427826e-02 -3.928751125931739807e-02
2.308000000000000000e+03 6.755858612060546875e+01 4.142045497894287109e+00 -4.038294032216072083e-02 6.823706626892089844e-01 1.925963014364242554e-01 5.154714360833168030e-02
2.309000000000000000e+03 6.983772277832031250e+01 -3.217380046844482422e-01 -5.759266018867492676e-01 5.441172122955322266e-01 -9.542813524603843689e-03 -2.945567667484283447e-01
2.310000000000000000e+03 6.993176269531250000e+01 1.004309415817260742e+00 -8.653195500373840332e-01 8.336839675903320312e-01 -9.490666911005973816e-03 -1.598996967077255249e-01
2.311000000000000000e+03 7.097811126708984375e+01 1.372245597839355469e+01 -8.657538890838623047e-01 6.341504454612731934e-01 -6.948103755712509155e-02 2.774815559387207031e-01
2.312000000000000000e+03 7.035981750488281250e+01 1.314901351928710938e+01 -1.364794731140136719e+00 3.043822944164276123e-01 -3.181237280368804932e-01 7.220139503479003906e-01
2.313000000000000000e+03 7.575637817382812500e+01 6.505106091499328613e-01 -5.787501335144042969e-01 6.884483337402343750e+00 1.891719937324523926e+00 1.363328099250793457e+00
2.314000000000000000e+03 6.790327453613281250e+01 2.415870666503906250e+00 -3.644011616706848145e-01 8.883904814720153809e-01 1.571967899799346924e-01 4.163627326488494873e-01
2.315000000000000000e+03 7.381546783447265625e+01 -6.621359586715698242e-01 -6.628934293985366821e-02 2.547809839248657227e+00 7.444561123847961426e-01 1.142830848693847656e+00
2.316000000000000000e+03 7.513986206054687500e+01 -1.266066789627075195e+00 -1.456708312034606934e-01 5.196188449859619141e+00 1.515155315399169922e+00 1.360745668411254883e+00
2.317000000000000000e+03 8.520785331726074219e+00 -5.254504203796386719e+00 -4.754607565701007843e-03 -8.300439454615116119e-03 -3.916514106094837189e-03 4.046300891786813736e-03
2.318000000000000000e+03 7.821675777435302734e+00 -4.619541645050048828e+00 7.086150435497984290e-05 -6.292111705988645554e-03 -1.866374979726970196e-03 5.330241285264492035e-03
2.319000000000000000e+03 7.326444244384765625e+01 -5.875114202499389648e-01 -1.209576241672039032e-02 1.530989289283752441e+00 4.556680619716644287e-01 7.900887131690979004e-01
2.320000000000000000e+03 7.442977905273437500e+01 -1.369398713111877441e+00 3.495643287897109985e-02 3.929176330566406250e+00 1.189239859580993652e+00 1.302917718887329102e+00
2.321000000000000000e+03 7.233036804199218750e+01 -3.315291106700897217e-01 -2.664001286029815674e-01 4.578715860843658447e-01 5.744144320487976074e-02 5.560949444770812988e-03
2.322000000000000000e+03 6.746970367431640625e+01 2.703269720077514648e+00 -3.848795592784881592e-01 7.207897305488586426e-01 1.007730513811111450e-01 4.039314985275268555e-01
2.323000000000000000e+03 7.195970153808593750e+01 -2.336549162864685059e-01 -4.002826511859893799e-01 2.196709811687469482e-01 -5.418349802494049072e-02 -2.361324429512023926e-01
2.324000000000000000e+03 7.064764404296875000e+01 -1.461583495140075684e+00 -1.342615485191345215e-01 4.135766327381134033e-01 8.379452675580978394e-02 -2.619174122810363770e-01
2.325000000000000000e+03 8.365579605102539062e+00 -4.571166515350341797e+00 7.549036527052521706e-04 -4.974283743649721146e-03 -1.265814062207937241e-03 6.588425021618604660e-03
2.326000000000000000e+03 6.757705688476562500e+01 2.069172382354736328e+00 -4.922007024288177490e-01 7.242764234542846680e-01 6.962271779775619507e-02 4.685588777065277100e-01
2.327000000000000000e+03 7.138311767578125000e+01 -1.810076951980590820e+00 7.293248921632766724e-02 6.969437599182128906e-01 2.309628725051879883e-01 -9.708531200885772705e-02
2.328000000000000000e+03 7.624090576171875000e+01 1.196209621429443359e+01 -8.135110735893249512e-01 7.160170555114746094e+00 1.903997898101806641e+00 -2.478432416915893555e+00
2.329000000000000000e+03 7.619850158691406250e+01 -1.736757874488830566e+00 -1.807399094104766846e-01 7.160783767700195312e+00 2.094013214111328125e+00 1.234698176383972168e+00
2.330000000000000000e+03 5.853029632568359375e+01 1.655945396423339844e+01 -1.537069439888000488e+00 1.751845777034759521e-01 -4.085654616355895996e-01 7.191331386566162109e-01
2.331000000000000000e+03 5.735694885253906250e+01 1.608407402038574219e+01 -1.522973656654357910e+00 2.860887050628662109e-01 -3.710654973983764648e-01 5.894479155540466309e-01
2.332000000000000000e+03 6.966104125976562500e+01 1.449718952178955078e+01 -1.063967227935791016e+00 5.970166921615600586e-01 -1.400851607322692871e-01 4.408182799816131592e-01
2.333000000000000000e+03 1.168108367919921875e+01 -5.645677089691162109e+00 -1.466005761176347733e-02 -7.956756278872489929e-03 -6.785044446587562561e-03 5.840274970978498459e-03
2.334000000000000000e+03 1.103939342498779297e+01 -7.221961498260498047e+00 -2.098541706800460815e-02 -1.569949090480804443e-02 -1.100547239184379578e-02 -4.154800903052091599e-03
2.335000000000000000e+03 4.131959533691406250e+01 1.606954574584960938e+01 -5.650102496147155762e-01 1.029721051454544067e-01 -1.386114358901977539e-01 1.028702929615974426e-01
2.336000000000000000e+03 6.960538482666015625e+01 1.546830272674560547e+01 -7.614172697067260742e-01 7.621392011642456055e-01 2.165792830055579543e-04 5.223157629370689392e-02
2.337000000000000000e+03 6.917259216308593750e+01 1.848286437988281250e+01 3.923829272389411926e-02 1.122111201286315918e+00 3.484048545360565186e-01 -7.109504342079162598e-01
2.338000000000000000e+03 3.713020324707031250e+01 1.680718994140625000e+01 -4.150095582008361816e-01 6.062821485102176666e-03 -1.226840168237686157e-01 1.056744605302810669e-01
2.339000000000000000e+03 3.801157760620117188e+01 1.584661197662353516e+01 -4.300573766231536865e-01 3.641325607895851135e-02 -1.180932372808456421e-01 9.016165137290954590e-02
2.340000000000000000e+03 1.195959281921386719e+01 -6.327648639678955078e+00 -1.423591282218694687e-02 -1.586645655333995819e-02 -9.030710905790328979e-03 -4.581033252179622650e-03
2.341000000000000000e+03 1.285835456848144531e+01 -5.881587505340576172e+00 -2.091803774237632751e-02 -9.073104709386825562e-03 -8.997342549264431000e-03 -7.948896964080631733e-04
2.342000000000000000e+03 4.044456863403320312e+01 1.724164962768554688e+01 -5.437284708023071289e-01 8.161743730306625366e-02 -1.386333107948303223e-01 1.564009338617324829e-01
2.343000000000000000e+03 3.951327133178710938e+01 1.757467842102050781e+01 -4.873717725276947021e-01 6.177126243710517883e-02 -1.276801526546478271e-01 1.520828306674957275e-01
2.344000000000000000e+03 7.362725067138671875e+01 -1.987172603607177734e+00 1.615879088640213013e-01 2.820083856582641602e+00 8.945015668869018555e-01 8.789985775947570801e-01
2.345000000000000000e+03 7.212381744384765625e+01 -2.335741758346557617e+00 2.277046293020248413e-01 1.358550310134887695e+00 4.758764803409576416e-01 2.175075709819793701e-01
2.346000000000000000e+03 7.293849945068359375e+01 -5.342601299285888672e+00 -1.664321720600128174e-01 3.113116025924682617e+00 8.840051293373107910e-01 5.654104948043823242e-01
2.347000000000000000e+03 1.348586177825927734e+01 -6.536921501159667969e+00 -9.455560706555843353e-03 -1.422340329736471176e-02 -7.103689014911651611e-03 1.550705055706202984e-03
2.348000000000000000e+03 1.495138835906982422e+01 -7.872967720031738281e+00 -5.184042826294898987e-02 -1.024408079683780670e-02 -1.862535253167152405e-02 -3.344840137287974358e-03
2.349000000000000000e+03 4.220625877380371094e+00 -6.539671897888183594e+00 -3.740645712241530418e-03 1.544663566164672375e-03 -6.587946554645895958e-04 7.355388253927230835e-03
2.350000000000000000e+03 6.693873596191406250e+01 2.775212526321411133e+00 -4.586033523082733154e-01 5.974487066268920898e-01 4.165361076593399048e-02 3.667864203453063965e-01
2.351000000000000000e+03 7.537578582763671875e+01 -5.526069641113281250e+00 -1.664434969425201416e-01 5.987184524536132812e+00 1.746222376823425293e+00 1.088248968124389648e+00
2.352000000000000000e+03 7.531607055664062500e+01 1.284544616937637329e-01 -5.017269849777221680e-01 5.877007961273193359e+00 1.612584233283996582e+00 1.558637738227844238e+00
2.353000000000000000e+03 7.375334930419921875e+01 -5.042039394378662109e+00 -1.117850616574287415e-01 4.032874107360839844e+00 1.176326751708984375e+00 8.008536100387573242e-01
2.354000000000000000e+03 6.536894989013671875e+01 1.854874801635742188e+01 -4.363711178302764893e-01 -3.193901479244232178e-01 -2.267283797264099121e-01 3.820352489128708839e-03
2.355000000000000000e+03 7.531241607666015625e+01 -2.062068223953247070e+00 -4.240295663475990295e-02 5.551740169525146484e+00 1.652801156044006348e+00 1.228511691093444824e+00
2.356000000000000000e+03 7.421623992919921875e+01 -3.136316537857055664e+00 7.936052232980728149e-02 3.996121644973754883e+00 1.222644567489624023e+00 9.715743660926818848e-01
2.357000000000000000e+03 6.246344757080078125e+01 1.578207206726074219e+01 -2.084397554397583008e+00 -9.015315771102905273e-01 -8.957787156105041504e-01 8.776023387908935547e-01
2.358000000000000000e+03 6.728680419921875000e+01 -2.890394628047943115e-01 -3.347534835338592529e-01 2.011598348617553711e-01 -4.007809609174728394e-02 5.373861789703369141e-01
2.359000000000000000e+03 7.572818756103515625e+01 1.456419849395751953e+01 1.262066364288330078e-01 6.066624164581298828e+00 1.857849240303039551e+00 -1.943841099739074707e+00
2.360000000000000000e+03 7.553863525390625000e+01 1.548422718048095703e+01 2.749883234500885010e-01 5.762226581573486328e+00 1.811164498329162598e+00 -1.786678314208984375e+00
2.361000000000000000e+03 5.796007156372070312e+01 1.810095405578613281e+01 -1.158981919288635254e+00 9.231682121753692627e-02 -3.199995458126068115e-01 6.873877048492431641e-01
2.362000000000000000e+03 7.679704284667968750e+01 2.051129913330078125e+01 2.115841954946517944e-01 6.952036380767822266e+00 2.149086236953735352e+00 -1.263515949249267578e+00
2.363000000000000000e+03 7.451264190673828125e+01 1.637902450561523438e+01 3.535243570804595947e-01 4.533423423767089844e+00 1.466084361076354980e+00 -1.596981763839721680e+00
2.364000000000000000e+03 5.341187667846679688e+01 1.741929435729980469e+01 -1.265747904777526855e+00 1.131154820322990417e-01 -3.457897305488586426e-01 3.588548898696899414e-01
2.365000000000000000e+03 4.748596191406250000e+00 9.495484352111816406e+00 7.648820173926651478e-04 -3.707588883116841316e-03 -8.828120189718902111e-04 2.140912227332592010e-03
2.366000000000000000e+03 7.413051605224609375e+01 -2.167996788024902344e+01 -7.944537699222564697e-02 4.461582660675048828e+00 1.314641118049621582e+00 6.666543483734130859e-01
2.367000000000000000e+03 7.021232128143310547e+00 -5.767997264862060547e+00 -4.438496660441160202e-03 -4.317649174481630325e-03 -2.626843750476837158e-03 6.679033394902944565e-03
2.368000000000000000e+03 5.005522727966308594e+00 -7.061417579650878906e+00 -5.574713926762342453e-03 -1.265098224394023418e-03 -2.051943680271506310e-03 6.064064800739288330e-03
2.369000000000000000e+03 7.073226928710937500e+01 -2.963669061660766602e+00 5.236503668129444122e-03 5.504034757614135742e-01 1.666920036077499390e-01 -1.468811556696891785e-02
2.370000000000000000e+03 6.429195404052734375e+01 2.282403707504272461e-01 -8.718223571777343750e-01 5.729485154151916504e-01 -8.966215699911117554e-02 6.256802678108215332e-01
2.371000000000000000e+03 4.794478893280029297e+00 -8.218764305114746094e+00 -8.827101439237594604e-03 -1.492209499701857567e-03 -3.095793072134256363e-03 3.029239131137728691e-03
2.372000000000000000e+03 4.357881164550781250e+01 1.759636688232421875e+01 -7.135372757911682129e-01 5.839843675494194031e-02 -1.965416371822357178e-01 3.215881586074829102e-01
2.373000000000000000e+03 4.126286315917968750e+01 1.831111335754394531e+01 -5.794419646263122559e-01 5.715195089578628540e-02 -1.566869914531707764e-01 2.579255700111389160e-01
2.374000000000000000e+03 7.593003845214843750e+01 -1.576493549346923828e+01 3.679125010967254639e-01 5.772445201873779297e+00 1.842107295989990234e+00 4.049687683582305908e-01
2.375000000000000000e+03 5.183826923370361328e+00 8.525698661804199219e+00 2.831252990290522575e-03 -3.343411022797226906e-03 -1.536473864689469337e-04 3.042823169380426407e-03
2.376000000000000000e+03 7.272527694702148438e+00 1.113616371154785156e+01 5.865616258233785629e-03 -3.793451702222228050e-03 6.216492620296776295e-04 6.092013791203498840e-04
2.377000000000000000e+03 6.509593200683593750e+01 -1.569069099426269531e+01 -5.030391216278076172e-01 6.386787891387939453e-01 4.069190844893455505e-02 -9.734927117824554443e-02
2.378000000000000000e+03 7.335546875000000000e+01 -9.625425338745117188e+00 -1.219958737492561340e-01 4.963143348693847656e+00 1.452344298362731934e+00 9.681358337402343750e-01
2.379000000000000000e+03 7.438774108886718750e+01 -8.314861297607421875e+00 -3.119932711124420166e-01 5.503835678100585938e+00 1.557552695274353027e+00 1.224451661109924316e+00
2.380000000000000000e+03 3.555933380126953125e+01 1.967548942565917969e+01 -2.760164141654968262e-01 -4.617710784077644348e-02 -9.665805101394653320e-02 1.870848089456558228e-01
2.381000000000000000e+03 1.134881782531738281e+01 1.074071502685546875e+01 7.429709192365407944e-03 5.864948034286499023e-03 3.988397307693958282e-03 6.302509456872940063e-03
2.382000000000000000e+03 9.742247581481933594e+00 1.111993217468261719e+01 5.020583048462867737e-03 1.699796266620978713e-04 1.557168783619999886e-03 1.974679762497544289e-03
2.383000000000000000e+03 6.023693466186523438e+01 1.962144470214843750e+01 -6.652963161468505859e-01 -2.219277024269104004e-01 -2.661671936511993408e-01 6.889455318450927734e-01
2.384000000000000000e+03 5.961872100830078125e+01 1.845721817016601562e+01 -1.072753429412841797e+00 -1.173507794737815857e-01 -3.570312857627868652e-01 7.732011675834655762e-01
2.385000000000000000e+03 4.267185211181640625e+01 -1.851764678955078125e+01 -1.118602007627487183e-01 -5.208085775375366211e-01 -1.898006200790405273e-01 -1.414508093148469925e-02
2.386000000000000000e+03 4.521869659423828125e+01 -1.617516136169433594e+01 -2.994383275508880615e-01 1.534470617771148682e-01 -4.379738122224807739e-02 -8.939124643802642822e-02
2.387000000000000000e+03 5.009474945068359375e+01 1.445148944854736328e+00 -1.093255162239074707e+00 3.294394612312316895e-01 -2.291447073221206665e-01 -1.594016849994659424e-01
2.388000000000000000e+03 5.274518585205078125e+01 3.051797389984130859e+00 -5.962139368057250977e-01 -9.618670493364334106e-02 -2.077201902866363525e-01 3.805395066738128662e-01
2.389000000000000000e+03 4.896094894409179688e+01 1.490219116210937500e+00 -8.584876060485839844e-01 1.824527680873870850e-01 -2.028104364871978760e-01 -3.356077969074249268e-01
2.390000000000000000e+03 6.020281600952148438e+01 -1.517641544342041016e+01 -2.857736349105834961e-01 4.679350852966308594e-01 5.464843660593032837e-02 -2.147992402315139771e-01
2.391000000000000000e+03 2.605266189575195312e+01 -5.556223392486572266e+00 1.944081038236618042e-01 -1.043781876564025879e+00 -2.548121213912963867e-01 -4.305177330970764160e-01
2.392000000000000000e+03 6.138494110107421875e+01 1.876383209228515625e+01 -8.520782589912414551e-01 -3.923013508319854736e-01 -3.733138740062713623e-01 7.445058822631835938e-01
2.393000000000000000e+03 4.968443679809570312e+01 4.589215278625488281e+00 -2.931504845619201660e-01 -2.089509367942810059e-02 -9.421367198228836060e-02 1.576114445924758911e-02
2.394000000000000000e+03 4.342317199707031250e+01 -2.175633192062377930e+00 -1.197766900062561035e+00 -4.215752482414245605e-01 -4.858026504516601562e-01 9.174555540084838867e-02
2.395000000000000000e+03 6.036062622070312500e+01 -2.240643739700317383e+00 -4.336312115192413330e-01 -3.004136085510253906e-01 -2.202134430408477783e-01 4.439220204949378967e-02
2.396000000000000000e+03 6.145240783691406250e+01 -2.585457801818847656e+00 6.620986014604568481e-02 4.309373795986175537e-01 1.491441726684570312e-01 2.501846253871917725e-01
2.397000000000000000e+03 3.062177848815917969e+01 1.765550994873046875e+01 -2.498250603675842285e-01 -7.503420114517211914e-03 -7.719854265451431274e-02 1.328565925359725952e-01
2.398000000000000000e+03 7.441111755371093750e+01 -1.298966503143310547e+01 8.480030298233032227e-01 5.867600440979003906e+00 2.014681100845336914e+00 1.268414020538330078e+00
2.399000000000000000e+03 6.085052871704101562e+01 -5.049061775207519531e+00 6.678674221038818359e-01 2.599002122879028320e-01 2.783302664756774902e-01 4.923611879348754883e-01
2.400000000000000000e+03 5.857098102569580078e+00 -1.080073642730712891e+01 -1.712251827120780945e-02 -1.135411486029624939e-02 -8.542989380657672882e-03 -1.081299409270286560e-02
2.401000000000000000e+03 5.569447517395019531e+00 1.389261531829833984e+01 6.597113679163157940e-04 -4.893929231911897659e-03 -1.270265318453311920e-03 -6.935762939974665642e-04
2.402000000000000000e+03 1.188161849975585938e+01 1.436477375030517578e+01 -5.959806963801383972e-03 1.678438507951796055e-03 -1.284410594962537289e-03 2.773027168586850166e-03
2.403000000000000000e+03 3.243975830078125000e+01 4.888952374458312988e-01 -1.156490683555603027e+00 -1.167457029223442078e-01 -3.819709420204162598e-01 -7.756322622299194336e-01
2.404000000000000000e+03 6.647003173828125000e+01 2.082922220230102539e+00 -5.776430368423461914e-01 5.281857252120971680e-01 -1.483719237148761749e-02 4.933429360389709473e-01
2.405000000000000000e+03 5.648347473144531250e+01 -8.176049232482910156e+00 5.027821063995361328e-01 -1.307372748851776123e-01 1.116134524345397949e-01 -1.290857046842575073e-01
2.406000000000000000e+03 5.541743850708007812e+01 -2.233366012573242188e+00 -8.964897394180297852e-01 -5.812836289405822754e-01 -4.433320164680480957e-01 -5.408506989479064941e-01
2.407000000000000000e+03 6.012760162353515625e+01 1.500589942932128906e+01 -2.191680192947387695e+00 1.101617515087127686e-01 -6.244555115699768066e-01 7.166243195533752441e-01
2.408000000000000000e+03 4.507999420166015625e+01 -1.466443634033203125e+01 -1.159617826342582703e-01 1.235977113246917725e-01 2.290778094902634621e-03 -3.261465132236480713e-01
2.409000000000000000e+03 3.892906951904296875e+01 -5.772240161895751953e+00 4.401905238628387451e-01 4.223818182945251465e-01 2.587717175483703613e-01 -5.330300927162170410e-01
2.410000000000000000e+03 6.116384506225585938e+00 2.460936737060546875e+01 -6.824480835348367691e-03 -2.172191441059112549e-02 -8.563918992877006531e-03 1.776779070496559143e-02
2.411000000000000000e+03 4.250979995727539062e+01 -1.602269172668457031e+01 -6.608645915985107422e-01 -6.525146365165710449e-01 -3.940137624740600586e-01 -1.248699277639389038e-01
2.412000000000000000e+03 7.415113830566406250e+01 -2.498740005493164062e+01 1.278301700949668884e-02 4.050799846649169922e+00 1.219074845314025879e+00 5.775285363197326660e-01
2.413000000000000000e+03 7.555932617187500000e+01 -2.383417320251464844e+01 -4.654843360185623169e-02 4.518207550048828125e+00 1.341497778892517090e+00 4.443768858909606934e-01
2.414000000000000000e+03 5.254819869995117188e+00 -1.388740062713623047e+01 -1.801284588873386383e-02 -2.306800149381160736e-02 -1.232425402849912643e-02 -2.648179046809673309e-02
2.415000000000000000e+03 3.043753623962402344e+01 -1.358421802520751953e+01 -8.900281786918640137e-02 1.198259964585304260e-01 9.246953763067722321e-03 7.736428827047348022e-02
2.416000000000000000e+03 4.540071868896484375e+01 -1.754157829284667969e+01 -3.266149163246154785e-01 1.457299292087554932e-01 -5.426549911499023438e-02 1.751687936484813690e-02
2.417000000000000000e+03 6.087422180175781250e+01 -1.781773376464843750e+01 -2.662926912307739258e-01 5.870843529701232910e-01 9.623748809099197388e-02 -1.777718514204025269e-01
2.418000000000000000e+03 5.435527038574218750e+01 1.773132896423339844e+01 -1.191448330879211426e+00 1.431628018617630005e-01 -3.144856393337249756e-01 4.016811847686767578e-01
2.419000000000000000e+03 7.402072143554687500e+01 2.279532432556152344e+01 4.033179581165313721e-01 4.594966411590576172e+00 1.499485254287719727e+00 -1.347095608711242676e+00
2.420000000000000000e+03 7.173735809326171875e+01 2.484034347534179688e+01 5.216980576515197754e-01 3.279297351837158203e+00 1.140298604965209961e+00 -1.145792007446289062e+00
2.421000000000000000e+03 7.435086822509765625e+01 -3.239544677734375000e+01 8.394011855125427246e-02 3.697231292724609375e+00 1.134351372718811035e+00 3.048564493656158447e-01
2.422000000000000000e+03 7.315742492675781250e+01 -3.624875259399414062e+01 1.429163068532943726e-01 3.410971164703369141e+00 1.066166281700134277e+00 2.272083163261413574e-01
2.423000000000000000e+03 1.983741378784179688e+01 2.066604042053222656e+01 -8.094213902950286865e-02 -2.594556659460067749e-02 -3.206631168723106384e-02 8.072767406702041626e-02
2.424000000000000000e+03 7.418579101562500000e+01 1.156451511383056641e+01 -1.049957633018493652e+00 1.572874069213867188e+00 1.568748950958251953e-01 -7.715522646903991699e-01
2.425000000000000000e+03 7.441453552246093750e+01 1.162340927124023438e+01 -8.967827558517456055e-01 1.966982603073120117e+00 3.210599720478057861e-01 -1.030414223670959473e+00
2.426000000000000000e+03 7.370180511474609375e+01 1.178538227081298828e+01 -1.040627956390380859e+00 1.169564604759216309e+00 3.868099302053451538e-02 -5.172949433326721191e-01
2.427000000000000000e+03 7.457719421386718750e+01 1.547759819030761719e+01 3.265458941459655762e-01 4.505144596099853516e+00 1.449507117271423340e+00 -1.650193691253662109e+00
2.428000000000000000e+03 7.213214111328125000e+01 1.207548427581787109e+01 -1.546715617179870605e+00 2.779513001441955566e-01 -3.806292712688446045e-01 3.292779326438903809e-01
2.429000000000000000e+03 7.550411224365234375e+01 1.158295249938964844e+01 -6.726220250129699707e-01 4.401140689849853516e+00 1.118555665016174316e+00 -2.213952064514160156e+00
2.430000000000000000e+03 7.466564941406250000e+01 1.155306148529052734e+01 -8.159192204475402832e-01 2.331791877746582031e+00 4.547617733478546143e-01 -1.277604222297668457e+00
2.431000000000000000e+03 7.295852661132812500e+01 1.235003852844238281e+01 -9.677795767784118652e-01 9.308103322982788086e-01 -1.109077874571084976e-02 -2.188677936792373657e-01
2.432000000000000000e+03 7.232915496826171875e+01 1.251837348937988281e+01 -1.133855581283569336e+00 5.771793127059936523e-01 -1.670028716325759888e-01 9.941294789314270020e-02
2.433000000000000000e+03 7.182315826416015625e+01 1.286290931701660156e+01 -9.843912124633789062e-01 5.561856627464294434e-01 -1.284616738557815552e-01 1.827598214149475098e-01
2.434000000000000000e+03 7.233856201171875000e+01 1.190934371948242188e+01 -1.595148682594299316e+00 3.028866946697235107e-01 -3.876785933971405029e-01 3.218089342117309570e-01
2.435000000000000000e+03 7.126869201660156250e+01 1.342779064178466797e+01 -9.246634840965270996e-01 5.736981034278869629e-01 -1.052896007895469666e-01 2.672680020332336426e-01
2.436000000000000000e+03 7.778064727783203125e+00 -5.933167457580566406e+00 -6.817825604230165482e-03 -7.047033868730068207e-03 -4.159457981586456299e-03 4.017440136522054672e-03
2.437000000000000000e+03 7.654035949707031250e+01 1.274135875701904297e+01 -3.787924349308013916e-01 7.903448104858398438e+00 2.257396697998046875e+00 -2.176377534866333008e+00
2.438000000000000000e+03 7.672865295410156250e+01 1.383899307250976562e+01 -1.532776057720184326e-01 8.181833267211914062e+00 2.408566713333129883e+00 -1.948065400123596191e+00
2.439000000000000000e+03 6.915435028076171875e+01 9.149032831192016602e-01 -7.225539684295654297e-01 8.358555436134338379e-01 3.399046510457992554e-02 5.836793035268783569e-02
2.440000000000000000e+03 6.295234203338623047e+00 -5.507353305816650391e+00 -3.302878933027386665e-03 -3.132352605462074280e-03 -1.930569531396031380e-03 6.821561604738235474e-03
2.441000000000000000e+03 7.376776123046875000e+01 -1.309131860733032227e+00 1.434102803468704224e-01 2.817006349563598633e+00 8.881250023841857910e-01 1.038629412651062012e+00
2.442000000000000000e+03 7.440437316894531250e+01 -2.184421539306640625e+00 8.741948753595352173e-02 4.044948101043701172e+00 1.239710211753845215e+00 1.149294972419738770e+00
2.443000000000000000e+03 7.013434600830078125e+01 1.421749401092529297e+01 -1.080602169036865234e+00 5.477926135063171387e-01 -1.598428487777709961e-01 3.373222649097442627e-01
2.444000000000000000e+03 7.030307006835937500e+01 1.364216518402099609e+01 -1.194166421890258789e+00 3.315854966640472412e-01 -2.587742805480957031e-01 4.826051890850067139e-01
2.445000000000000000e+03 7.429396057128906250e+01 1.469046974182128906e+01 1.787336468696594238e-01 3.817349433898925781e+00 1.198824882507324219e+00 -1.547346234321594238e+00
2.446000000000000000e+03 7.301408386230468750e+01 -1.737388968467712402e+00 2.203063815832138062e-01 1.929481148719787598e+00 6.449362635612487793e-01 6.551667451858520508e-01
2.447000000000000000e+03 7.253701782226562500e+01 -9.446932673454284668e-01 4.971405863761901855e-02 9.779952764511108398e-01 3.083128035068511963e-01 2.905308306217193604e-01
2.448000000000000000e+03 6.822387695312500000e+01 1.244081616401672363e+00 -6.019808650016784668e-01 7.936123013496398926e-01 5.748943239450454712e-02 3.720217049121856689e-01
2.449000000000000000e+03 6.876227569580078125e+01 -6.027236208319664001e-02 -5.725180506706237793e-01 5.026348233222961426e-01 -2.096497081220149994e-02 3.581363335251808167e-02
2.450000000000000000e+03 7.163040924072265625e+01 -1.154374003410339355e+00 -4.690907895565032959e-02 5.564368367195129395e-01 1.528583317995071411e-01 -1.566218286752700806e-01
2.451000000000000000e+03 7.015626525878906250e+01 -8.454871177673339844e-01 -4.239456653594970703e-01 3.995302319526672363e-01 -7.324631325900554657e-03 -3.374557197093963623e-01
2.452000000000000000e+03 6.792469787597656250e+01 4.319370090961456299e-01 -4.763045907020568848e-01 4.721389710903167725e-01 -1.249689259566366673e-03 3.899790346622467041e-01
2.453000000000000000e+03 6.679273986816406250e+01 3.428410530090332031e+00 -3.647053539752960205e-01 4.328313767910003662e-01 2.043780870735645294e-02 1.576502770185470581e-01
2.454000000000000000e+03 1.274876022338867188e+01 -7.467493534088134766e+00 -4.361542314291000366e-02 -1.023045927286148071e-02 -1.615376584231853485e-02 -3.737237770110368729e-03
2.455000000000000000e+03 5.754634094238281250e+01 1.704534530639648438e+01 -1.385587453842163086e+00 1.775057613849639893e-01 -3.624244928359985352e-01 5.632529854774475098e-01
2.456000000000000000e+03 4.019235610961914062e+01 1.822048568725585938e+01 -4.811993539333343506e-01 5.572147294878959656e-02 -1.276433616876602173e-01 1.827362626791000366e-01
2.457000000000000000e+03 7.003424835205078125e+01 -2.086749076843261719e+00 -1.185300052165985107e-01 2.725928425788879395e-01 4.621884971857070923e-02 -1.753447651863098145e-01
2.458000000000000000e+03 6.851281738281250000e+01 1.678748703002929688e+01 -6.300823688507080078e-01 5.165709257125854492e-01 -3.405344113707542419e-02 -3.055390417575836182e-01
2.459000000000000000e+03 3.839535522460937500e+01 1.803089904785156250e+01 -4.320169091224670410e-01 2.710660174489021301e-02 -1.214730963110923767e-01 1.631794571876525879e-01
2.460000000000000000e+03 3.823506164550781250e+01 1.672488975524902344e+01 -4.418924450874328613e-01 4.610666260123252869e-02 -1.187357380986213684e-01 9.167389571666717529e-02
2.461000000000000000e+03 7.004141998291015625e+01 1.503444004058837891e+01 -8.428739905357360840e-01 8.196266293525695801e-01 -6.974204443395137787e-03 5.957508087158203125e-02
2.462000000000000000e+03 6.266429901123046875e+00 1.084359264373779297e+01 3.054790897294878960e-03 -3.837994299829006195e-03 -2.349610003875568509e-04 1.950770500116050243e-03
2.463000000000000000e+03 5.000936889648437500e+01 2.458294481039047241e-01 -1.231036424636840820e+00 4.418554008007049561e-01 -2.367542982101440430e-01 -3.802464008331298828e-01
2.464000000000000000e+03 1.065617752075195312e+01 -5.441390514373779297e+00 -1.026312634348869324e-02 -6.805082317441701889e-03 -5.120462737977504730e-03 5.892806220799684525e-03
2.465000000000000000e+03 9.426308631896972656e+00 -6.026091575622558594e+00 -1.302904542535543442e-02 -9.362374432384967804e-03 -6.717425771057605743e-03 2.104442799463868141e-03
2.466000000000000000e+03 6.895980072021484375e+01 -7.631569504737854004e-01 -4.397393465042114258e-01 2.808184325695037842e-01 -4.767627269029617310e-02 -6.490005552768707275e-02
2.467000000000000000e+03 7.458813476562500000e+01 1.829185104370117188e+01 4.186794459819793701e-01 4.912863731384277344e+00 1.599462985992431641e+00 -1.613818168640136719e+00
2.468000000000000000e+03 1.725234031677246094e+01 -8.862046241760253906e+00 -1.223270893096923828e-01 1.285732071846723557e-02 -3.284092992544174194e-02 -2.643558010458946228e-02
2.469000000000000000e+03 1.423618602752685547e+01 -7.154732704162597656e+00 -4.490545392036437988e-02 -8.140769787132740021e-03 -1.591386646032333374e-02 -7.756954291835427284e-04
2.470000000000000000e+03 7.465108489990234375e+01 -1.783466529846191406e+01 3.165735676884651184e-02 5.411138534545898438e+00 1.632838726043701172e+00 5.520502924919128418e-01
2.471000000000000000e+03 7.499674224853515625e+01 -1.619006919860839844e+01 5.612699389457702637e-01 5.523942947387695312e+00 1.825563907623291016e+00 6.240548491477966309e-01
2.472000000000000000e+03 1.304645729064941406e+01 1.719305610656738281e+01 -2.239833585917949677e-02 -5.119877168908715248e-04 -6.873097270727157593e-03 1.237317547202110291e-02
2.473000000000000000e+03 1.115007019042968750e+01 1.523890304565429688e+01 -9.298264980316162109e-03 -6.417320691980421543e-04 -2.981998957693576813e-03 4.665185697376728058e-03
2.474000000000000000e+03 6.636083221435546875e+01 2.053450775146484375e+01 2.029381841421127319e-01 3.940463662147521973e-01 1.790953725576400757e-01 -3.994763493537902832e-01
2.475000000000000000e+03 5.878199768066406250e+01 -8.962522506713867188e+00 3.494796156883239746e-01 1.195991486310958862e-01 1.407236307859420776e-01 9.038808941841125488e-02
2.476000000000000000e+03 7.151871490478515625e+01 -2.577757835388183594e+00 1.120900511741638184e-01 9.587608575820922852e-01 3.212552666664123535e-01 1.100231707096099854e-02
2.477000000000000000e+03 4.225167846679687500e+01 1.846262741088867188e+01 -5.759688615798950195e-01 4.455757141113281250e-02 -1.594233810901641846e-01 2.975618243217468262e-01
2.478000000000000000e+03 6.798132324218750000e+01 1.778618812561035156e+01 -3.662074804306030273e-01 4.726479053497314453e-01 3.193213418126106262e-02 -3.388976752758026123e-01
2.479000000000000000e+03 3.403902816772460938e+01 9.855408668518066406e-01 -9.025581479072570801e-01 4.111843705177307129e-01 -1.474121361970901489e-01 -3.895555436611175537e-01
2.480000000000000000e+03 5.740326404571533203e+00 2.006828880310058594e+01 -6.104161031544208527e-03 -1.014965027570724487e-02 -4.876143299043178558e-03 7.238069549202919006e-03
2.481000000000000000e+03 7.567546844482421875e+01 1.894518470764160156e+01 3.125142157077789307e-01 6.003520011901855469e+00 1.894810318946838379e+00 -1.564948081970214844e+00
2.482000000000000000e+03 5.354514598846435547e+00 1.063550662994384766e+01 3.009861102327704430e-03 -4.390346352010965347e-03 -4.141454701311886311e-04 3.828262269962579012e-04
2.483000000000000000e+03 5.990658187866210938e+01 -1.897567176818847656e+01 -2.695833444595336914e-01 5.024566650390625000e-01 6.986200064420700073e-02 -1.437239199876785278e-01
2.484000000000000000e+03 3.537014389038085938e+01 2.143165779113769531e+01 -2.287960797548294067e-01 -6.405442953109741211e-02 -8.785515278577804565e-02 2.207115888595581055e-01
2.485000000000000000e+03 5.312140655517578125e+01 1.715568661689758301e+00 -1.504784345626831055e+00 2.529677152633666992e-01 -3.755449950695037842e-01 3.180877864360809326e-01
2.486000000000000000e+03 3.705579376220703125e+01 1.976622772216796875e+01 -3.302702605724334717e-01 -3.002739325165748596e-02 -1.080892980098724365e-01 2.060355991125106812e-01
2.487000000000000000e+03 6.536648273468017578e+00 1.300897979736328125e+01 2.477326896041631699e-03 -4.578184336423873901e-03 -6.302572437562048435e-04 -5.247815279290080070e-04
2.488000000000000000e+03 7.403209209442138672e+00 8.042803764343261719e+00 2.286455361172556877e-03 -4.877369385212659836e-03 -7.772741373628377914e-04 4.483021330088376999e-03
2.489000000000000000e+03 7.060622406005859375e+01 -1.813661003112792969e+01 2.316205203533172607e-01 2.589718818664550781e+00 8.464018106460571289e-01 1.740785837173461914e+00
2.490000000000000000e+03 7.279325866699218750e+01 -1.822380638122558594e+01 -1.011582314968109131e-01 4.856664657592773438e+00 1.426651835441589355e+00 9.917718768119812012e-01
2.491000000000000000e+03 5.824885177612304688e+01 -4.942641258239746094e+00 4.300537407398223877e-01 -4.872999489307403564e-01 -1.717386208474636078e-02 1.224162951111793518e-01
2.492000000000000000e+03 5.926902389526367188e+01 -1.847334742546081543e+00 -6.551910042762756348e-01 -6.714622378349304199e-01 -3.979959785938262939e-01 -1.274826377630233765e-02
2.493000000000000000e+03 1.988614654541015625e+01 2.251421737670898438e+01 -6.626883149147033691e-02 -4.013331234455108643e-02 -3.192064538598060608e-02 8.975186198949813843e-02
2.494000000000000000e+03 1.833758544921875000e+01 2.198024749755859375e+01 -5.708975717425346375e-02 -2.709066122770309448e-02 -2.525412477552890778e-02 7.331487536430358887e-02
2.495000000000000000e+03 5.815718650817871094e+00 -9.588889122009277344e+00 -1.660664193332195282e-02 -7.413905579596757889e-03 -7.206164300441741943e-03 -4.648656118661165237e-03
2.496000000000000000e+03 5.377331924438476562e+01 -4.691515922546386719e+00 1.515792757272720337e-01 -1.133907865732908249e-02 4.207206144928932190e-02 -3.304666280746459961e-01
2.497000000000000000e+03 5.673470687866210938e+01 -4.337152957916259766e+00 2.150389105081558228e-01 -6.786685585975646973e-01 -1.390888988971710205e-01 -1.280182003974914551e-01
2.498000000000000000e+03 7.746217250823974609e+00 -6.753661632537841797e+00 -1.063172426074743271e-02 -7.415239699184894562e-03 -5.414089187979698181e-03 3.983101341873407364e-03
2.499000000000000000e+03 4.344813156127929688e+01 -1.749172210693359375e+01 -4.643793106079101562e-01 -3.494235277175903320e-01 -2.441408485174179077e-01 8.846927434206008911e-02
2.500000000000000000e+03 6.024042129516601562e+01 -1.248599147796630859e+01 -7.557393610477447510e-02 4.453415870666503906e-01 1.109302937984466553e-01 -3.179993107914924622e-02
2.501000000000000000e+03 6.355407333374023438e+01 -1.604542732238769531e+01 -3.806709051132202148e-01 7.020997405052185059e-01 9.642864763736724854e-02 -1.753183901309967041e-01
2.502000000000000000e+03 6.207788085937500000e+01 -1.503335189819335938e+01 -3.387279808521270752e-01 6.457308530807495117e-01 9.210086613893508911e-02 -1.482392698526382446e-01
2.503000000000000000e+03 1.027321720123291016e+01 1.447248744964599609e+01 -4.263150505721569061e-03 -1.131982775405049324e-03 -1.618539914488792419e-03 1.537879579700529575e-03
2.504000000000000000e+03 6.315256118774414062e+00 -1.349164199829101562e+01 -2.458959631621837616e-02 -2.418349497020244598e-02 -1.463192701339721680e-02 -3.057686053216457367e-02
2.505000000000000000e+03 6.017612934112548828e+00 -1.208537578582763672e+01 -2.352879196405410767e-02 -1.635105721652507782e-02 -1.196395512670278549e-02 -1.883219182491302490e-02
2.506000000000000000e+03 7.237017059326171875e+01 -2.368138313293457031e+01 4.318720102310180664e-02 3.583611965179443359e+00 1.088039755821228027e+00 7.646110057830810547e-01
2.507000000000000000e+03 7.343167114257812500e+01 -2.314580154418945312e+01 7.787496782839298248e-03 3.991458177566528320e+00 1.199773669242858887e+00 7.056045532226562500e-01
2.508000000000000000e+03 7.056235313415527344e+00 2.188120269775390625e+01 -9.659991599619388580e-03 -1.488313078880310059e-02 -7.362936623394489288e-03 1.412233710289001465e-02
2.509000000000000000e+03 7.214292526245117188e+00 2.314620208740234375e+01 -9.994897060096263885e-03 -1.784483157098293304e-02 -8.351918309926986694e-03 1.753777638077735901e-02
2.510000000000000000e+03 4.370974731445312500e+01 -2.196481132507324219e+01 -7.010148465633392334e-02 -1.509116739034652710e-01 -6.630394607782363892e-02 -9.987455606460571289e-02
2.511000000000000000e+03 2.498830223083496094e+01 -1.309513473510742188e+01 -5.364018678665161133e-02 -6.604022383689880371e-01 -2.142127305269241333e-01 -1.790061295032501221e-01
2.512000000000000000e+03 1.932311820983886719e+01 -1.254899215698242188e+01 -2.741038799285888672e-01 -9.402127563953399658e-02 -1.104375496506690979e-01 -2.305463999509811401e-01
2.513000000000000000e+03 1.765879058837890625e+01 -1.485071754455566406e+01 -1.451564133167266846e-01 -1.019066795706748962e-01 -7.411892712116241455e-02 -1.850548982620239258e-01
2.514000000000000000e+03 7.279876708984375000e+01 1.283296775817871094e+01 -7.051693797111511230e-01 1.162303566932678223e+00 1.371402591466903687e-01 -3.519860506057739258e-01
2.515000000000000000e+03 7.205384063720703125e+01 1.264603900909423828e+01 -1.125474810600280762e+00 5.380441546440124512e-01 -1.762292087078094482e-01 1.534974277019500732e-01
2.516000000000000000e+03 7.263512420654296875e+01 1.240937709808349609e+01 -1.092999339103698730e+00 7.401903867721557617e-01 -1.058426797389984131e-01 -4.182931035757064819e-02
2.517000000000000000e+03 7.637256622314453125e+01 1.232963180541992188e+01 -5.810716748237609863e-01 7.509225845336914062e+00 2.078446149826049805e+00 -2.366890907287597656e+00
2.518000000000000000e+03 7.333413696289062500e+01 1.261442470550537109e+01 -6.239355802536010742e-01 1.398873329162597656e+00 2.324813455343246460e-01 -5.642939805984497070e-01
2.519000000000000000e+03 7.547896575927734375e+01 1.242806243896484375e+01 -2.933149337768554688e-01 4.864555358886718750e+00 1.371372103691101074e+00 -2.072536230087280273e+00
2.520000000000000000e+03 7.591159057617187500e+01 1.243958759307861328e+01 -3.437569141387939453e-01 6.255274295806884766e+00 1.773455262184143066e+00 -2.217101097106933594e+00
2.521000000000000000e+03 7.182087707519531250e+01 1.362858676910400391e+01 -6.220008134841918945e-01 8.374010920524597168e-01 6.462008506059646606e-02 -6.681913882493972778e-02
2.522000000000000000e+03 7.157227325439453125e+01 1.315437221527099609e+01 -9.379217028617858887e-01 5.916549563407897949e-01 -1.038800179958343506e-01 1.957928687334060669e-01
2.523000000000000000e+03 6.805488586425781250e+01 -2.294565439224243164e-01 -4.827617704868316650e-01 3.078477084636688232e-01 -5.247422307729721069e-02 2.237565070390701294e-01
2.524000000000000000e+03 7.602506256103515625e+01 1.286444759368896484e+01 -3.592955768108367920e-01 6.504022598266601562e+00 1.843418121337890625e+00 -2.263971567153930664e+00
2.525000000000000000e+03 7.222761535644531250e+01 -1.401116728782653809e+00 1.148401945829391479e-01 1.082320451736450195e+00 3.591482043266296387e-01 1.414763033390045166e-01
2.526000000000000000e+03 7.201058197021484375e+01 -1.869632124900817871e+00 1.112984567880630493e-01 1.093547701835632324e+00 3.614538311958312988e-01 6.530857086181640625e-02
2.527000000000000000e+03 6.718489074707031250e+01 1.820937156677246094e+00 -5.282109975814819336e-01 6.555175781250000000e-01 3.819198161363601685e-02 4.838387370109558105e-01
2.528000000000000000e+03 7.494594573974609375e+01 1.419956207275390625e+01 1.592451035976409912e-01 4.581829547882080078e+00 1.422322392463684082e+00 -1.716590762138366699e+00
2.529000000000000000e+03 7.251671600341796875e+01 1.300360584259033203e+01 -6.941273212432861328e-01 1.069164276123046875e+00 1.125110834836959839e-01 -2.063914537429809570e-01
2.530000000000000000e+03 7.152491760253906250e+01 1.381643581390380859e+01 -6.331674456596374512e-01 8.800510168075561523e-01 7.406508177518844604e-02 -9.643516503274440765e-03
2.531000000000000000e+03 8.573070526123046875e+00 -6.007486820220947266e+00 -7.679126691073179245e-03 -7.392363622784614563e-03 -4.521447233855724335e-03 4.507844801992177963e-03
2.532000000000000000e+03 7.287688446044921875e+01 -2.244524717330932617e+00 2.232924401760101318e-01 2.211064815521240234e+00 7.303071618080139160e-01 5.695976614952087402e-01
2.533000000000000000e+03 6.612528228759765625e+01 3.021707534790039062e+00 -5.784583687782287598e-01 2.880195677280426025e-01 -8.713164180517196655e-02 1.657617688179016113e-01
2.534000000000000000e+03 6.699058532714843750e+01 2.247444868087768555e+00 -4.994106888771057129e-01 6.313471794128417969e-01 3.958094492554664612e-02 4.713494181632995605e-01
2.535000000000000000e+03 6.737642669677734375e+01 1.398815274238586426e+00 -5.839892625808715820e-01 6.264603137969970703e-01 1.274132635444402695e-02 4.961960911750793457e-01
2.536000000000000000e+03 6.729322814941406250e+01 4.724612832069396973e-01 -5.294196605682373047e-01 4.967360794544219971e-01 -9.805074892938137054e-03 5.749533772468566895e-01
2.537000000000000000e+03 6.938619995117187500e+01 -1.391854047775268555e+00 -3.311325907707214355e-01 2.009830027818679810e-01 -3.904487192630767822e-02 -1.315217912197113037e-01
2.538000000000000000e+03 1.139206504821777344e+01 -7.965543270111083984e+00 -4.206900298595428467e-02 -9.146839380264282227e-03 -1.536475308239459991e-02 -4.405257292091846466e-03
2.539000000000000000e+03 8.609809875488281250e+00 -7.646306991577148438e+00 -1.968428120017051697e-02 -9.967197664082050323e-03 -8.895443752408027649e-03 -2.901142288465052843e-04
2.540000000000000000e+03 8.556586265563964844e+00 -6.813129901885986328e+00 -1.344025786966085434e-02 -8.770558051764965057e-03 -6.663244683295488358e-03 1.682207337580621243e-03
2.541000000000000000e+03 7.378044891357421875e+01 1.556301784515380859e+01 2.693843543529510498e-01 3.397112846374511719e+00 1.099949240684509277e+00 -1.424271345138549805e+00
2.542000000000000000e+03 7.429882049560546875e+01 1.732540512084960938e+01 3.723216056823730469e-01 4.450825214385986328e+00 1.446944117546081543e+00 -1.557639122009277344e+00
2.543000000000000000e+03 7.101730346679687500e+01 1.693964767456054688e+01 7.355240639299154282e-03 1.768941283226013184e+00 5.328889489173889160e-01 -7.986850738525390625e-01
2.544000000000000000e+03 6.679325103759765625e+01 1.489659786224365234e+00 -5.972700119018554688e-01 5.586374998092651367e-01 -1.158976648002862930e-02 5.383687019348144531e-01
2.545000000000000000e+03 7.066450500488281250e+01 1.396133232116699219e+01 -9.611203670501708984e-01 5.484374165534973145e-01 -1.238049045205116272e-01 3.086999058723449707e-01
2.546000000000000000e+03 1.347891998291015625e+01 -8.017528533935546875e+00 -4.301242157816886902e-02 -1.325822249054908752e-02 -1.688119396567344666e-02 -6.522710900753736496e-03
2.547000000000000000e+03 1.191588401794433594e+01 -7.168951034545898438e+00 -2.256923168897628784e-02 -1.120066549628973007e-02 -1.013096887618303299e-02 3.076678141951560974e-03
2.548000000000000000e+03 6.857515335083007812e+00 -7.564510822296142578e+00 -1.277004648000001907e-02 -7.024215068668127060e-03 -5.938278511166572571e-03 2.920439234003424644e-03
2.549000000000000000e+03 6.877365589141845703e+00 1.213978004455566406e+01 1.589469145983457565e-03 -3.659328678622841835e-03 -6.209578714333474636e-04 4.419170727487653494e-04
2.550000000000000000e+03 7.267337036132812500e+01 1.780967521667480469e+01 3.856963217258453369e-01 3.062255382537841797e+00 1.034385561943054199e+00 -1.308282852172851562e+00
2.551000000000000000e+03 7.375468444824218750e+01 1.625866317749023438e+01 4.001794457435607910e-01 3.706927299499511719e+00 1.232131958007812500e+00 -1.504598498344421387e+00
2.552000000000000000e+03 5.957657241821289062e+01 -4.919621467590332031e+00 4.960947930812835693e-01 -1.899780333042144775e-01 9.183502942323684692e-02 2.436659336090087891e-01
2.553000000000000000e+03 7.153830528259277344e+00 -5.035672664642333984e+00 -1.699902582913637161e-03 -4.875759594142436981e-03 -1.972698606550693512e-03 5.962667521089315414e-03
2.554000000000000000e+03 5.539149856567382812e+01 1.772434806823730469e+01 -1.192638158798217773e+00 1.672462821006774902e-01 -3.076175451278686523e-01 4.846871197223663330e-01
2.555000000000000000e+03 6.393614196777343750e+01 1.786616897583007812e+01 -7.717247009277343750e-01 -8.989739418029785156e-01 -5.012096166610717773e-01 3.835144937038421631e-01
2.556000000000000000e+03 6.677230072021484375e+01 1.729163360595703125e+01 -8.619084358215332031e-01 -4.268089681863784790e-02 -2.713767886161804199e-01 -2.128813862800598145e-01
2.557000000000000000e+03 6.835850238800048828e+00 -8.585677146911621094e+00 -1.804286055266857147e-02 -8.130440488457679749e-03 -7.851989939808845520e-03 -2.465900499373674393e-03
2.558000000000000000e+03 4.782554149627685547e+00 -9.484549522399902344e+00 -1.017182692885398865e-02 -4.034648649394512177e-03 -4.261942580342292786e-03 -1.726146438159048557e-03
2.559000000000000000e+03 6.523375034332275391e+00 1.383942031860351562e+01 -1.485461543779820204e-04 -4.105733241885900497e-03 -1.276283874176442623e-03 5.249755922704935074e-04
2.560000000000000000e+03 7.353167724609375000e+01 1.889562225341796875e+01 4.296081364154815674e-01 4.060988903045654297e+00 1.347179174423217773e+00 -1.491595506668090820e+00
2.561000000000000000e+03 7.408127784729003906e+00 2.435449600219726562e+01 -9.918550960719585419e-03 -2.194225601851940155e-02 -9.558241814374923706e-03 2.172244340181350708e-02
2.562000000000000000e+03 5.197861862182617188e+01 1.950487327575683594e+01 -7.916929125785827637e-01 -1.489010751247406006e-01 -2.821781933307647705e-01 3.815461397171020508e-01
2.563000000000000000e+03 4.860314941406250000e+01 1.972451210021972656e+01 -6.367021203041076660e-01 -3.613877892494201660e-01 -2.994269728660583496e-01 4.139651060104370117e-01
2.564000000000000000e+03 1.470596790313720703e+01 -9.573678016662597656e+00 -9.349833428859710693e-02 -1.661574095487594604e-02 -3.303422406315803528e-02 -2.544407919049263000e-02
2.565000000000000000e+03 1.562793731689453125e+01 -8.735513687133789062e+00 -9.126842021942138672e-02 2.124137710779905319e-03 -2.674328349530696869e-02 -1.591056957840919495e-02
2.566000000000000000e+03 5.668810653686523438e+01 -1.145960712432861328e+01 1.483247727155685425e-01 7.249959558248519897e-02 6.624731421470642090e-02 -3.846934065222740173e-02
2.567000000000000000e+03 6.109846591949462891e+00 -6.392701148986816406e+00 -5.591119639575481415e-03 -3.447889816015958786e-03 -2.711702836677432060e-03 6.665321998298168182e-03
2.568000000000000000e+03 6.923402309417724609e+00 -6.620151996612548828e+00 -8.818893693387508392e-03 -5.827846005558967590e-03 -4.394021816551685333e-03 4.160081036388874054e-03
2.569000000000000000e+03 6.960492706298828125e+01 1.746654891967773438e+01 -1.680618822574615479e-01 1.112151145935058594e+00 2.832267880439758301e-01 -5.728691816329956055e-01
2.570000000000000000e+03 6.757923889160156250e+01 1.890744972229003906e+01 -1.188679710030555725e-01 4.282041490077972412e-01 9.280085563659667969e-02 -4.964944422245025635e-01
2.571000000000000000e+03 5.936360931396484375e+01 -5.596366524696350098e-01 -1.776833653450012207e+00 -6.744540929794311523e-01 -7.353863120079040527e-01 -2.514695227146148682e-01
2.572000000000000000e+03 6.844391822814941406e+00 -9.677078247070312500e+00 -2.095412649214267731e-02 -1.152278296649456024e-02 -9.743073023855686188e-03 -6.841202732175588608e-03
2.573000000000000000e+03 5.781003189086914062e+01 -6.422157287597656250e-01 -1.873076438903808594e+00 -1.178273439407348633e+00 -9.154049754142761230e-01 -3.172754049301147461e-01
2.574000000000000000e+03 1.191309738159179688e+01 1.722982025146484375e+01 -1.899402588605880737e-02 -1.090068602934479713e-03 -6.025228649377822876e-03 9.952099993824958801e-03
2.575000000000000000e+03 1.395999336242675781e+01 1.555422401428222656e+01 -1.552820671349763870e-02 3.756413934752345085e-03 -3.531537717208266258e-03 7.641267497092485428e-03
2.576000000000000000e+03 1.106798171997070312e+01 1.677799606323242188e+01 -1.410128269344568253e-02 -2.948420355096459389e-03 -5.114911124110221863e-03 7.762174587696790695e-03
2.577000000000000000e+03 6.599802970886230469e+00 2.076138687133789062e+01 -8.361200802028179169e-03 -1.207935344427824020e-02 -6.132166367024183273e-03 1.067166030406951904e-02
2.578000000000000000e+03 6.570333862304687500e+01 1.967991828918457031e+01 1.047510374337434769e-02 6.929171085357666016e-02 2.393004484474658966e-02 -2.445283532142639160e-01
2.579000000000000000e+03 6.327481460571289062e+01 2.130752944946289062e+01 6.895641237497329712e-02 -1.397015154361724854e-01 -2.122353017330169678e-02 1.472334116697311401e-01
2.580000000000000000e+03 8.886303901672363281e+00 -1.461571788787841797e+01 -4.814324155449867249e-02 -4.040879011154174805e-02 -2.656560949981212616e-02 -5.683663487434387207e-02
2.581000000000000000e+03 5.996270751953125000e+01 -1.692865753173828125e+01 -3.154768943786621094e-01 4.586699008941650391e-01 4.295790195465087891e-02 -2.349853217601776123e-01
2.582000000000000000e+03 9.628919601440429688e+00 1.533042621612548828e+01 -6.676682736724615097e-03 -2.549546537920832634e-03 -2.767868805676698685e-03 3.495629644021391869e-03
2.583000000000000000e+03 1.005111217498779297e+01 1.282138061523437500e+01 1.377388951368629932e-03 -5.829446017742156982e-04 2.383332903264090419e-04 1.342140720225870609e-03
2.584000000000000000e+03 4.544592666625976562e+01 1.887398719787597656e+01 -6.945515275001525879e-01 -1.209644973278045654e-01 -2.446548044681549072e-01 4.606193304061889648e-01
2.585000000000000000e+03 2.772986221313476562e+01 1.348706912994384766e+01 -6.731872260570526123e-02 -1.751298643648624420e-02 -2.544951252639293671e-02 1.261190231889486313e-02
2.586000000000000000e+03 3.360810470581054688e+01 2.155373573303222656e+01 -1.932981014251708984e-01 -6.624059379100799561e-02 -7.786160707473754883e-02 2.064575552940368652e-01
2.587000000000000000e+03 5.406690597534179688e+01 2.094389343261718750e+01 -5.927537679672241211e-01 -4.880785942077636719e-02 -1.924684941768646240e-01 4.402740001678466797e-01
2.588000000000000000e+03 1.568525409698486328e+01 1.668233299255371094e+01 -2.980517782270908356e-02 4.567238502204418182e-03 -7.571381982415914536e-03 1.259074266999959946e-02
2.589000000000000000e+03 7.218752861022949219e+00 1.340620994567871094e+01 2.077359677059575915e-04 -4.144983831793069839e-03 -1.181174418888986111e-03 -3.613362205214798450e-04
2.590000000000000000e+03 7.740416049957275391e+00 1.258478260040283203e+01 3.289680927991867065e-03 -3.454562043771147728e-03 -4.946431363350711763e-05 5.804029642604291439e-04
2.591000000000000000e+03 2.962208747863769531e+01 -9.609854698181152344e+00 -8.402351289987564087e-02 1.881804615259170532e-01 3.124708309769630432e-02 -2.492279186844825745e-02
2.592000000000000000e+03 3.064181900024414062e+01 -1.679732894897460938e+01 -1.279513835906982422e-01 7.693691551685333252e-02 -1.530434191226959229e-02 3.322619199752807617e-02
2.593000000000000000e+03 7.345173645019531250e+01 1.188473415374755859e+01 -1.147819161415100098e+00 1.015995860099792480e+00 -3.954700753092765808e-02 -3.798643648624420166e-01
2.594000000000000000e+03 7.320854949951171875e+01 1.350131797790527344e+01 -2.324997484683990479e-01 1.937190651893615723e+00 5.114072561264038086e-01 -8.161644935607910156e-01
2.595000000000000000e+03 7.651121520996093750e+01 1.143201828002929688e+01 -1.122935414314270020e+00 8.121500015258789062e+00 2.099569320678710938e+00 -3.064975976943969727e+00
2.596000000000000000e+03 7.352753448486328125e+01 1.222212696075439453e+01 -8.406977653503417969e-01 1.350110650062561035e+00 1.528238654136657715e-01 -5.449042916297912598e-01
2.597000000000000000e+03 7.550423431396484375e+01 1.199403953552246094e+01 -4.574435949325561523e-01 4.824376583099365234e+00 1.310079932212829590e+00 -2.109767436981201172e+00
2.598000000000000000e+03 7.624665069580078125e+01 1.136553764343261719e+01 -1.032249093055725098e+00 6.769502162933349609e+00 1.721175909042358398e+00 -2.870054244995117188e+00
2.599000000000000000e+03 7.217574310302734375e+01 1.309095001220703125e+01 -7.298911213874816895e-01 8.427226543426513672e-01 3.384945169091224670e-02 -5.143989250063896179e-02
2.600000000000000000e+03 7.194921112060546875e+01 1.406705284118652344e+01 -4.022936820983886719e-01 1.165186405181884766e+00 2.288678139448165894e-01 -3.080501258373260498e-01
2.601000000000000000e+03 7.532183074951171875e+01 1.356669044494628906e+01 -2.642464078962802887e-02 5.211580753326416016e+00 1.555546760559082031e+00 -1.958615899085998535e+00
2.602000000000000000e+03 7.393780517578125000e+01 1.402264881134033203e+01 4.205290973186492920e-02 3.006587266921997070e+00 9.145920276641845703e-01 -1.294350504875183105e+00
2.603000000000000000e+03 7.196286773681640625e+01 1.519061088562011719e+01 -1.108690276741981506e-01 1.668714284896850586e+00 4.673535823822021484e-01 -6.469008922576904297e-01
2.604000000000000000e+03 7.133131408691406250e+01 1.490076160430908203e+01 -3.813151121139526367e-01 1.206179499626159668e+00 2.474593073129653931e-01 -2.935936748981475830e-01
2.605000000000000000e+03 7.048287200927734375e+01 1.470922946929931641e+01 -6.959429383277893066e-01 8.047217726707458496e-01 3.263363987207412720e-02 1.057221218943595886e-01
2.606000000000000000e+03 1.028890037536621094e+01 -6.199649810791015625e+00 -9.943167679011821747e-03 -1.249420642852783203e-02 -6.731212139129638672e-03 -9.281216771341860294e-04
2.607000000000000000e+03 7.243073272705078125e+01 -2.014487981796264648e+00 2.569618225097656250e-01 1.456589698791503906e+00 5.140654444694519043e-01 3.349724411964416504e-01
2.608000000000000000e+03 7.076447296142578125e+01 1.793828773498535156e+01 1.849131882190704346e-01 1.847270369529724121e+00 6.096550822257995605e-01 -9.229620099067687988e-01
2.609000000000000000e+03 6.998350524902343750e+01 1.661429023742675781e+01 -3.138539493083953857e-01 1.108963727951049805e+00 2.385329306125640869e-01 -4.661391675472259521e-01
2.610000000000000000e+03 7.307060241699218750e+01 1.472198200225830078e+01 8.007600903511047363e-02 2.474121570587158203e+00 7.662592530250549316e-01 -1.021938920021057129e+00
2.611000000000000000e+03 1.015939807891845703e+01 -7.155499935150146484e+00 -2.180745266377925873e-02 -1.035853195935487747e-02 -9.649795480072498322e-03 2.296245424076914787e-03
2.612000000000000000e+03 1.217291355133056641e+01 -8.342813491821289062e+00 -3.670307248830795288e-02 -1.635640487074851990e-02 -1.591784320771694183e-02 -8.160165511071681976e-03
2.613000000000000000e+03 1.109662723541259766e+01 -6.387472152709960938e+00 -1.974835060536861420e-02 -8.505725301802158356e-03 -8.476222865283489227e-03 4.066050518304109573e-03
2.614000000000000000e+03 7.202281188964843750e+01 1.687552070617675781e+01 1.434100270271301270e-01 2.312582492828369141e+00 7.367977499961853027e-01 -1.008509755134582520e+00
2.615000000000000000e+03 7.321790313720703125e+01 1.587597560882568359e+01 2.617564201354980469e-01 2.956593751907348633e+00 9.655050635337829590e-01 -1.209300518035888672e+00
2.616000000000000000e+03 7.368926239013671875e+01 -1.957109260559082031e+01 -1.104538515210151672e-01 4.825170516967773438e+00 1.414414882659912109e+00 7.376572489738464355e-01
2.617000000000000000e+03 7.386413574218750000e+01 -2.059206962585449219e+01 -1.548295319080352783e-01 4.610423564910888672e+00 1.336678266525268555e+00 7.814708352088928223e-01
2.618000000000000000e+03 6.988481903076171875e+01 2.176408004760742188e+01 5.106112957000732422e-01 1.944784641265869141e+00 7.366188168525695801e-01 -1.034019112586975098e+00
2.619000000000000000e+03 5.880263137817382812e+01 -2.934195280075073242e+00 -1.441196799278259277e-01 -6.063867807388305664e-01 -2.251519411802291870e-01 -2.642261423170566559e-02
2.620000000000000000e+03 7.182003784179687500e+01 1.847033119201660156e+01 3.390071988105773926e-01 2.580443143844604492e+00 8.758350610733032227e-01 -1.157196879386901855e+00
2.621000000000000000e+03 5.832912921905517578e+00 -8.436902999877929688e+00 -1.208764407783746719e-02 -5.912836175411939621e-03 -5.400144029408693314e-03 1.022814190946519375e-03
2.622000000000000000e+03 4.588612747192382812e+01 -1.299488925933837891e+01 3.152393996715545654e-01 4.256260097026824951e-01 2.222596108913421631e-01 -5.137200355529785156e-01
2.623000000000000000e+03 6.492375946044921875e+01 1.725377464294433594e+01 -1.050420641899108887e+00 -7.011151313781738281e-01 -5.254607200622558594e-01 7.870203256607055664e-02
2.624000000000000000e+03 7.105776214599609375e+01 -1.959924507141113281e+01 2.172039300203323364e-01 3.277288198471069336e+00 1.048347711563110352e+00 1.420010209083557129e+00
2.625000000000000000e+03 7.297020721435546875e+01 -2.199447059631347656e+01 -3.387548029422760010e-02 3.958677768707275391e+00 1.177440643310546875e+00 8.408156633377075195e-01
2.626000000000000000e+03 5.551226806640625000e+01 1.908561325073242188e+01 -9.595013856887817383e-01 9.096589684486389160e-02 -2.605606615543365479e-01 5.105392932891845703e-01
2.627000000000000000e+03 2.750597190856933594e+01 -9.537590980529785156e+00 -5.193170905113220215e-01 -4.918738901615142822e-01 -3.033573031425476074e-01 -5.876264721155166626e-02
2.628000000000000000e+03 6.896203994750976562e+00 1.480708599090576172e+01 -1.393093145452439785e-03 -5.025517195463180542e-03 -1.925583113916218281e-03 1.548021682538092136e-04
2.629000000000000000e+03 4.559003353118896484e+00 1.511532688140869141e+01 -7.199659012258052826e-04 -4.911002703011035919e-03 -1.689290511421859264e-03 -4.448049003258347511e-04
2.630000000000000000e+03 7.898513793945312500e+00 -1.091272258758544922e+01 -3.320121392607688904e-02 -1.725167036056518555e-02 -1.513586472719907761e-02 -1.829995401203632355e-02
2.631000000000000000e+03 8.553960800170898438e+00 1.317281436920166016e+01 4.468046536203473806e-04 -3.054547589272260666e-03 -7.823228952474892139e-04 1.594732202647719532e-05
2.632000000000000000e+03 1.280640602111816406e+01 -8.738757133483886719e+00 -5.884624645113945007e-02 -8.706358261406421661e-03 -2.026578225195407867e-02 -8.597675710916519165e-03
2.633000000000000000e+03 5.863056945800781250e+01 -1.224226951599121094e+01 5.676033347845077515e-02 1.890379637479782104e-01 7.373949140310287476e-02 -4.925306141376495361e-02
2.634000000000000000e+03 5.839226150512695312e+01 -1.040848350524902344e+01 2.381345629692077637e-01 1.422079801559448242e-01 1.141027584671974182e-01 2.345382608473300934e-02
2.635000000000000000e+03 5.778981781005859375e+01 -7.367642879486083984e+00 5.436429381370544434e-01 -2.115856260061264038e-01 9.961719065904617310e-02 4.809214919805526733e-02
2.636000000000000000e+03 5.691016769409179688e+01 -5.914542675018310547e+00 5.302406549453735352e-01 -4.804734289646148682e-01 1.493016909807920456e-02 -6.006453558802604675e-02
2.637000000000000000e+03 4.705350875854492188e+01 2.062334060668945312e+01 -5.209220647811889648e-01 -2.862412631511688232e-01 -2.421489953994750977e-01 4.937567412853240967e-01
2.638000000000000000e+03 8.685687065124511719e+00 1.674048042297363281e+01 -9.158332832157611847e-03 -4.328524693846702576e-03 -4.046057350933551788e-03 5.081058945506811142e-03
2.639000000000000000e+03 5.451756477355957031e+00 -1.496203041076660156e+01 -2.048177458345890045e-02 -3.030712530016899109e-02 -1.523667015135288239e-02 -3.538353368639945984e-02
2.640000000000000000e+03 6.370336151123046875e+01 -1.797693252563476562e+01 -9.589068591594696045e-02 7.308743000030517578e-01 1.904950886964797974e-01 -9.085664898157119751e-02
2.641000000000000000e+03 6.526625823974609375e+01 -1.740628242492675781e+01 -1.254684943705797195e-02 6.429800987243652344e-01 1.891299635171890259e-01 -3.436516225337982178e-02
2.642000000000000000e+03 5.078868103027343750e+01 2.043790817260742188e+01 -5.640643835067749023e-01 -2.595812678337097168e-01 -2.470936924219131470e-01 3.545461893081665039e-01
2.643000000000000000e+03 1.302449131011962891e+01 1.858146667480468750e+01 -2.832560427486896515e-02 -2.146097365766763687e-03 -9.141510352492332458e-03 1.760514639317989349e-02
2.644000000000000000e+03 8.020454406738281250e+00 1.921767997741699219e+01 -1.095211226493120193e-02 -9.074275381863117218e-03 -6.007916294038295746e-03 9.610963054001331329e-03
2.645000000000000000e+03 5.924495315551757812e+01 2.149283981323242188e+01 -2.866064906120300293e-01 -8.123648166656494141e-02 -1.103528961539268494e-01 5.303304791450500488e-01
2.646000000000000000e+03 6.227144241333007812e+01 1.997287368774414062e+01 -3.010765910148620605e-01 -3.408316075801849365e-01 -1.925724595785140991e-01 4.561092853546142578e-01
2.647000000000000000e+03 7.406867980957031250e+01 1.211972045898437500e+01 -7.103812694549560547e-01 1.860670924186706543e+00 3.450869023799896240e-01 -9.578846096992492676e-01
2.648000000000000000e+03 7.474997711181640625e+01 1.220670890808105469e+01 -3.802899122238159180e-01 3.253070592880249023e+00 8.618341684341430664e-01 -1.493614554405212402e+00
2.649000000000000000e+03 7.679978179931640625e+01 1.211308670043945312e+01 -1.069220423698425293e+00 9.049143791198730469e+00 2.393976926803588867e+00 -2.262034893035888672e+00
2.650000000000000000e+03 7.220022583007812500e+01 1.360292530059814453e+01 -5.065702199935913086e-01 1.061526656150817871e+00 1.664869338274002075e-01 -2.199026793241500854e-01
2.651000000000000000e+03 7.267224121093750000e+01 1.381091213226318359e+01 -2.797411978244781494e-01 1.606777071952819824e+00 3.981107473373413086e-01 -5.100451111793518066e-01
2.652000000000000000e+03 7.479621887207031250e+01 1.319118785858154297e+01 -8.951966464519500732e-02 3.826133012771606445e+00 1.120984077453613281e+00 -1.628970146179199219e+00
2.653000000000000000e+03 7.443572998046875000e+01 1.368395423889160156e+01 3.133361926302313805e-03 3.591494798660278320e+00 1.078388452529907227e+00 -1.534901142120361328e+00
2.654000000000000000e+03 7.247552490234375000e+01 1.431520271301269531e+01 -2.198095917701721191e-01 1.615549564361572266e+00 4.187220036983489990e-01 -5.453650951385498047e-01
2.655000000000000000e+03 7.085363006591796875e+01 1.527464294433593750e+01 -4.837146699428558350e-01 1.142000913619995117e+00 1.974858641624450684e-01 -2.492307722568511963e-01
2.656000000000000000e+03 7.090542602539062500e+01 1.440921401977539062e+01 -6.897972822189331055e-01 7.788863182067871094e-01 2.672671526670455933e-02 5.203143879771232605e-02
2.657000000000000000e+03 7.502346038818359375e+01 1.274578380584716797e+01 -1.948675662279129028e-01 4.248553752899169922e+00 1.216105818748474121e+00 -1.764339208602905273e+00
2.658000000000000000e+03 7.510274505615234375e+01 1.232309913635253906e+01 -3.515382409095764160e-01 3.999062299728393555e+00 1.094257235527038574e+00 -1.900647759437561035e+00
2.659000000000000000e+03 8.873789787292480469e+00 -8.579268455505371094e+00 -2.705861255526542664e-02 -1.268027815967798233e-02 -1.192166749387979507e-02 -5.927127320319414139e-03
2.660000000000000000e+03 7.273934173583984375e+01 1.643841743469238281e+01 2.252382040023803711e-01 2.708185672760009766e+00 8.800271749496459961e-01 -1.151396393775939941e+00
2.661000000000000000e+03 1.206403446197509766e+01 -9.129423141479492188e+00 -6.301357597112655640e-02 -1.321874000132083893e-02 -2.286969497799873352e-02 -1.685963012278079987e-02
2.662000000000000000e+03 7.340927886962890625e+01 1.706969451904296875e+01 3.652095496654510498e-01 3.503575325012207031e+00 1.160635471343994141e+00 -1.456071138381958008e+00
2.663000000000000000e+03 7.760281085968017578e+00 -7.662943840026855469e+00 -1.666105911135673523e-02 -8.911240845918655396e-03 -7.671690545976161957e-03 1.397206506226211786e-04
2.664000000000000000e+03 7.914857387542724609e+00 -9.745354652404785156e+00 -2.820103615522384644e-02 -1.309018861502408981e-02 -1.238736789673566818e-02 -1.159953977912664413e-02
2.665000000000000000e+03 7.261211395263671875e+01 2.041751098632812500e+01 4.755496978759765625e-01 3.410543918609619141e+00 1.165828108787536621e+00 -1.388605713844299316e+00
2.666000000000000000e+03 5.581490325927734375e+01 2.073241996765136719e+01 -5.914153456687927246e-01 8.185845799744129181e-03 -1.749688535928726196e-01 5.049895048141479492e-01
2.667000000000000000e+03 6.869755554199218750e+01 1.967609024047851562e+01 1.976839452981948853e-01 1.100711941719055176e+00 3.895187675952911377e-01 -7.428137660026550293e-01
2.668000000000000000e+03 7.401226806640625000e+01 2.156838417053222656e+01 4.108310639858245850e-01 4.630044937133789062e+00 1.512262821197509766e+00 -1.414057731628417969e+00
2.669000000000000000e+03 7.135723876953125000e+01 2.178093147277832031e+01 5.162245035171508789e-01 2.766050577163696289e+00 9.846825003623962402e-01 -1.237871766090393066e+00
2.670000000000000000e+03 7.141925048828125000e+01 1.934835052490234375e+01 3.503184020519256592e-01 2.429898738861083984e+00 8.340651392936706543e-01 -1.154008865356445312e+00
2.671000000000000000e+03 1.327704906463623047e+01 -9.426797866821289062e+00 -7.366371899843215942e-02 -1.583241857588291168e-02 -2.684884145855903625e-02 -2.169695869088172913e-02
2.672000000000000000e+03 8.700711250305175781e+00 1.479532337188720703e+01 -3.854521317407488823e-03 -3.586454316973686218e-03 -2.232292667031288147e-03 8.747334359213709831e-04
2.673000000000000000e+03 7.852897167205810547e+00 1.414069557189941406e+01 -8.409564616158604622e-04 -3.674060571938753128e-03 -1.354505075141787529e-03 1.109371660277247429e-03
2.674000000000000000e+03 6.310601043701171875e+01 -1.498611354827880859e+01 -3.491843938827514648e-01 6.560819149017333984e-01 9.206926077604293823e-02 -1.590873450040817261e-01
2.675000000000000000e+03 5.800328445434570312e+01 2.096688652038574219e+01 -4.929862618446350098e-01 -3.588976338505744934e-02 -1.586628109216690063e-01 5.717244148254394531e-01
2.676000000000000000e+03 6.921044158935546875e+01 -2.342465019226074219e+01 3.196629583835601807e-01 2.483911514282226562e+00 8.410723209381103516e-01 8.345466256141662598e-01
2.677000000000000000e+03 1.820174598693847656e+01 -1.203215599060058594e+01 -2.180999368429183960e-01 1.777926576323807240e-03 -6.489660590887069702e-02 -1.060639172792434692e-01
2.678000000000000000e+03 5.903212356567382812e+01 2.022379302978515625e+01 -6.101540923118591309e-01 -8.506482094526290894e-02 -2.085656672716140747e-01 6.504634618759155273e-01
2.679000000000000000e+03 5.261462211608886719e+00 3.150733184814453125e+01 1.411708304658532143e-03 -4.352078586816787720e-02 -1.263272296637296677e-02 1.870275847613811493e-02
2.680000000000000000e+03 8.065902709960937500e+00 3.425798034667968750e+01 8.704077452421188354e-03 -5.935242772102355957e-02 -1.519450545310974121e-02 2.363112755119800568e-02
2.681000000000000000e+03 1.132757377624511719e+01 2.414728546142578125e+01 -2.021776884794235229e-02 -2.417477220296859741e-02 -1.331776194274425507e-02 3.638485074043273926e-02
2.682000000000000000e+03 2.112196350097656250e+01 -1.680685997009277344e+01 -6.318854540586471558e-02 -2.652004063129425049e-01 -9.851668775081634521e-02 -2.146798223257064819e-01
2.683000000000000000e+03 5.023721218109130859e+00 2.746152305603027344e+01 -2.728799125179648399e-03 -2.977086976170539856e-02 -9.749900549650192261e-03 1.795647107064723969e-02
2.684000000000000000e+03 7.199452877044677734e+00 -2.355907440185546875e+01 -5.709657911211252213e-03 -1.144620627164840698e-01 -3.605151548981666565e-02 -8.303356915712356567e-02
2.685000000000000000e+03 6.131931304931640625e+00 -1.896336936950683594e+01 -1.823358237743377686e-02 -6.748386472463607788e-02 -2.571523375809192657e-02 -6.352694332599639893e-02
2.686000000000000000e+03 2.665060997009277344e+01 -1.200976181030273438e+01 -9.761234372854232788e-02 -7.053894996643066406e-01 -2.409005463123321533e-01 7.206060737371444702e-02
2.687000000000000000e+03 5.113231277465820312e+01 -2.308210945129394531e+01 -6.637563556432723999e-02 2.889869511127471924e-01 6.678339838981628418e-02 -3.100096881389617920e-01
2.688000000000000000e+03 2.827254295349121094e+01 1.257063007354736328e+01 -3.636153414845466614e-02 -1.388769969344139099e-02 -1.507477089762687683e-02 -9.351853281259536743e-03
2.689000000000000000e+03 4.148582839965820312e+01 -2.166254806518554688e+01 -7.778177969157695770e-03 -3.790360987186431885e-01 -1.160442829132080078e-01 -2.265447378158569336e-01
2.690000000000000000e+03 4.050561141967773438e+01 -2.026474380493164062e+01 -1.612764783203601837e-02 -4.245858490467071533e-01 -1.322140544652938843e-01 -2.284644097089767456e-01
2.691000000000000000e+03 5.896513462066650391e+00 -2.742768096923828125e+01 7.390934973955154419e-03 -1.475995630025863647e-01 -4.206259176135063171e-02 -6.839893758296966553e-02
2.692000000000000000e+03 7.440130615234375000e+01 1.215411090850830078e+01 -5.369448661804199219e-01 2.314614057540893555e+00 5.333007574081420898e-01 -1.188767075538635254e+00
2.693000000000000000e+03 7.325625610351562500e+01 1.300374603271484375e+01 -4.897651076316833496e-01 1.512591361999511719e+00 3.068478703498840332e-01 -6.596702337265014648e-01
2.694000000000000000e+03 7.301674652099609375e+01 1.317012214660644531e+01 -4.720281660556793213e-01 1.463811039924621582e+00 2.975348830223083496e-01 -5.948655009269714355e-01
2.695000000000000000e+03 7.268000793457031250e+01 1.541195583343505859e+01 4.928074032068252563e-02 2.407763481140136719e+00 7.371132373809814453e-01 -9.391037225723266602e-01
2.696000000000000000e+03 7.446184539794921875e+01 1.273398303985595703e+01 -2.366433441638946533e-01 2.960642576217651367e+00 8.171998262405395508e-01 -1.431655526161193848e+00
2.697000000000000000e+03 7.404470062255859375e+01 1.288156795501708984e+01 -2.999771237373352051e-01 2.454459428787231445e+00 6.463447213172912598e-01 -1.162821650505065918e+00
2.698000000000000000e+03 7.279953765869140625e+01 1.338942718505859375e+01 -3.690405189990997314e-01 1.513663649559020996e+00 3.433869183063507080e-01 -4.972242116928100586e-01
2.699000000000000000e+03 7.365058898925781250e+01 1.289884853363037109e+01 -4.024555087089538574e-01 1.920430541038513184e+00 4.553925096988677979e-01 -9.087408781051635742e-01
2.700000000000000000e+03 7.327024841308593750e+01 1.403481006622314453e+01 -2.063382416963577271e-02 2.319139957427978516e+00 6.895518898963928223e-01 -9.802482128143310547e-01
2.701000000000000000e+03 7.183854675292968750e+01 1.597308731079101562e+01 -2.684454433619976044e-02 1.894264936447143555e+00 5.602260828018188477e-01 -7.875856757164001465e-01
2.702000000000000000e+03 7.033311462402343750e+01 1.900728607177734375e+01 2.533039748668670654e-01 1.796266198158264160e+00 6.148710250854492188e-01 -9.551410079002380371e-01
2.703000000000000000e+03 7.289607238769531250e+01 2.296879577636718750e+01 4.709397554397583008e-01 3.828938245773315430e+00 1.289963364601135254e+00 -1.291787147521972656e+00
2.704000000000000000e+03 7.248426914215087891e+00 1.607143592834472656e+01 -4.883498884737491608e-03 -5.009990185499191284e-03 -2.968046814203262329e-03 2.089744666591286659e-03
2.705000000000000000e+03 2.624895286560058594e+01 1.305848598480224609e+01 -1.040531322360038757e-02 2.726836828514933586e-03 -2.303543034940958023e-03 -6.428501568734645844e-03
2.706000000000000000e+03 7.873891353607177734e+00 1.735085678100585938e+01 -7.436880376189947128e-03 -6.674464792013168335e-03 -4.233403597027063370e-03 4.863408859819173813e-03
2.707000000000000000e+03 9.083082199096679688e+00 -9.731031417846679688e+00 -3.781079500913619995e-02 -1.516260113567113876e-02 -1.589201763272285461e-02 -1.270231977105140686e-02
2.708000000000000000e+03 6.851784229278564453e+00 -1.082674980163574219e+01 -2.547496370971202850e-02 -1.441595423966646194e-02 -1.196727529168128967e-02 -1.515409536659717560e-02
2.709000000000000000e+03 1.026396465301513672e+01 -9.774800300598144531e+00 -4.504231363534927368e-02 -1.508190948516130447e-02 -1.803726702928543091e-02 -1.720041967928409576e-02
2.710000000000000000e+03 1.422653961181640625e+01 -1.134657287597656250e+01 -1.190841421484947205e-01 -2.475285343825817108e-02 -4.315109923481941223e-02 -5.735928937792778015e-02
2.711000000000000000e+03 1.373838710784912109e+01 -1.030505371093750000e+01 -8.674439042806625366e-02 -8.056128397583961487e-03 -2.844015508890151978e-02 -3.129510954022407532e-02
2.712000000000000000e+03 1.665582275390625000e+01 -1.275111961364746094e+01 -1.666642427444458008e-01 -1.388361770659685135e-02 -5.416435748338699341e-02 -1.093926206231117249e-01
2.713000000000000000e+03 1.590562534332275391e+01 -1.167394065856933594e+01 -1.541666835546493530e-01 -3.656870871782302856e-02 -5.722061544656753540e-02 -8.223465085029602051e-02
2.714000000000000000e+03 6.555875396728515625e+01 2.149548912048339844e+01 2.938772737979888916e-01 3.866437673568725586e-01 2.041563242673873901e-01 -3.060909509658813477e-01
2.715000000000000000e+03 5.046475219726562500e+01 -2.471308708190917969e+01 2.516156807541847229e-02 2.129349410533905029e-01 7.142895460128784180e-02 -2.640201747417449951e-01
2.716000000000000000e+03 5.250508880615234375e+01 -2.335424804687500000e+01 -1.635815575718879700e-02 1.800875067710876465e-01 4.911880567669868469e-02 -3.481255173683166504e-01
2.717000000000000000e+03 5.351612854003906250e+01 2.300748443603515625e+01 -2.338639944791793823e-01 -1.117420494556427002e-01 -1.036818102002143860e-01 4.357877969741821289e-01
2.718000000000000000e+03 2.248744964599609375e+01 -1.706030845642089844e+01 -1.849722117185592651e-02 -3.067789673805236816e-01 -9.758286178112030029e-02 -1.894918978214263916e-01
2.719000000000000000e+03 2.259255981445312500e+01 -1.852787017822265625e+01 -9.650480002164840698e-03 -2.731616497039794922e-01 -8.484364300966262817e-02 -1.631372720003128052e-01
2.720000000000000000e+03 6.692664337158203125e+01 2.351428413391113281e+01 5.738236904144287109e-01 1.032045483589172363e+00 4.817607700824737549e-01 -6.206191778182983398e-01
2.721000000000000000e+03 3.463240051269531250e+01 -1.814623451232910156e+01 -2.579101026058197021e-01 1.550391763448715210e-01 -3.086127527058124542e-02 -1.933026462793350220e-01
2.722000000000000000e+03 6.944283294677734375e+01 -2.663527107238769531e+01 2.840741574764251709e-01 2.617788553237915039e+00 8.705587983131408691e-01 6.656553149223327637e-01
2.723000000000000000e+03 1.766448974609375000e+01 -1.339855480194091797e+01 -2.055916637182235718e-01 -7.995758950710296631e-02 -8.566477894783020020e-02 -1.808785796165466309e-01
2.724000000000000000e+03 1.874217224121093750e+01 -1.401365375518798828e+01 -1.736932992935180664e-01 -1.156107932329177856e-01 -8.679122477769851685e-02 -1.980105191469192505e-01
2.725000000000000000e+03 2.614838027954101562e+01 -1.512508392333984375e+01 4.650991410017013550e-03 -4.119955897331237793e-01 -1.222033798694610596e-01 -3.706711903214454651e-02
2.726000000000000000e+03 9.069839477539062500e+00 -1.101327610015869141e+01 -4.274741187691688538e-02 -1.828209497034549713e-02 -1.830885186791419983e-02 -2.478946931660175323e-02
2.727000000000000000e+03 7.705162525177001953e+00 -1.210626029968261719e+01 -3.353391587734222412e-02 -2.066029235720634460e-02 -1.625826209783554077e-02 -2.744001895189285278e-02
2.728000000000000000e+03 6.505747795104980469e+00 -1.634010124206542969e+01 -2.326679602265357971e-02 -4.767181724309921265e-02 -2.128158509731292725e-02 -5.160950124263763428e-02
2.729000000000000000e+03 1.002893257141113281e+01 2.613673019409179688e+01 -1.181407365947961807e-02 -3.264974802732467651e-02 -1.333914604038000107e-02 3.575879707932472229e-02
2.730000000000000000e+03 7.353536224365234375e+01 1.327747917175292969e+01 -2.750459909439086914e-01 2.081078529357910156e+00 5.418097376823425293e-01 -9.532101750373840332e-01
2.731000000000000000e+03 7.390724182128906250e+01 1.245495796203613281e+01 -4.215137958526611328e-01 1.942707061767578125e+00 4.563579857349395752e-01 -9.522233009338378906e-01
2.732000000000000000e+03 7.205527496337890625e+01 1.454368495941162109e+01 -2.076859325170516968e-01 1.478262662887573242e+00 3.811730146408081055e-01 -4.755972623825073242e-01
2.733000000000000000e+03 6.837567138671875000e+01 2.190416336059570312e+01 4.883753955364227295e-01 1.336563825607299805e+00 5.474817752838134766e-01 -8.232077360153198242e-01
2.734000000000000000e+03 4.970637798309326172e+00 1.845885276794433594e+01 -3.909611608833074570e-03 -7.420670241117477417e-03 -3.399084554985165596e-03 3.424597671255469322e-03
2.735000000000000000e+03 1.031881713867187500e+01 -1.107313823699951172e+01 -5.724574998021125793e-02 -2.112812362611293793e-02 -2.351216226816177368e-02 -2.883634716272354126e-02
2.736000000000000000e+03 1.123548221588134766e+01 -9.533962249755859375e+00 -5.240167304873466492e-02 -1.288968417793512344e-02 -1.958740688860416412e-02 -1.594523154199123383e-02
2.737000000000000000e+03 3.338018417358398438e+01 -1.529909992218017578e+01 -1.344023197889328003e-01 2.676443457603454590e-01 3.997261077165603638e-02 -4.768627882003784180e-02
2.738000000000000000e+03 1.692807579040527344e+01 -1.085364913940429688e+01 -1.775441914796829224e-01 2.142902091145515442e-02 -4.683455079793930054e-02 -6.243301182985305786e-02
2.739000000000000000e+03 6.997546386718750000e+01 2.027093315124511719e+01 3.504589796066284180e-01 1.790337920188903809e+00 6.422390937805175781e-01 -9.976661801338195801e-01
2.740000000000000000e+03 7.132502746582031250e+01 2.046298408508300781e+01 4.615136981010437012e-01 2.559359788894653320e+00 9.062620401382446289e-01 -1.200286269187927246e+00
2.741000000000000000e+03 6.460450744628906250e+01 2.032532501220703125e+01 5.781818181276321411e-02 -1.695199608802795410e-01 -3.351053595542907715e-02 -3.152983263134956360e-03
2.742000000000000000e+03 6.789514923095703125e+01 2.063520050048828125e+01 2.696834206581115723e-01 9.127604961395263672e-01 3.547331690788269043e-01 -6.919753551483154297e-01
2.743000000000000000e+03 6.688434600830078125e+01 2.205052947998046875e+01 4.323856830596923828e-01 7.810995578765869141e-01 3.640455603599548340e-01 -5.697954297065734863e-01
2.744000000000000000e+03 9.638071060180664062e+00 1.776253128051757812e+01 -1.226220652461051941e-02 -6.160162854939699173e-03 -5.526710767298936844e-03 8.653203956782817841e-03
2.745000000000000000e+03 8.909316062927246094e+00 1.847911071777343750e+01 -1.209528092294931412e-02 -7.200115360319614410e-03 -5.788619164377450943e-03 9.014318697154521942e-03
2.746000000000000000e+03 9.841466903686523438e+00 -1.385426902770996094e+01 -5.477880313992500305e-02 -3.620797395706176758e-02 -2.729603275656700134e-02 -5.699634552001953125e-02
2.747000000000000000e+03 6.918782043457031250e+01 -2.831746101379394531e+01 3.009279966354370117e-01 2.598887681961059570e+00 8.699446916580200195e-01 5.656638145446777344e-01
2.748000000000000000e+03 7.112468719482421875e+01 -2.691975021362304688e+01 1.976913511753082275e-01 3.107656478881835938e+00 9.916043877601623535e-01 6.353262066841125488e-01
2.749000000000000000e+03 4.097270011901855469e+00 -1.562845611572265625e+01 -1.084864977747201920e-02 -2.893549948930740356e-02 -1.193524524569511414e-02 -2.905372530221939087e-02
2.750000000000000000e+03 3.414920330047607422e+00 -1.751477813720703125e+01 -6.658555008471012115e-03 -3.579789772629737854e-02 -1.273693516850471497e-02 -3.143374621868133545e-02
2.751000000000000000e+03 7.933690547943115234e+00 -1.640177726745605469e+01 -3.275416418910026550e-02 -5.429987609386444092e-02 -2.611621096730232239e-02 -6.437154859304428101e-02
2.752000000000000000e+03 6.324612617492675781e+00 -1.770683479309082031e+01 -1.908199861645698547e-02 -5.440363660454750061e-02 -2.204569056630134583e-02 -5.655627697706222534e-02
2.753000000000000000e+03 1.962505149841308594e+01 -1.655172538757324219e+01 -8.023144304752349854e-02 -1.938044428825378418e-01 -8.221076428890228271e-02 -2.123901098966598511e-01
2.754000000000000000e+03 1.009583282470703125e+01 1.928129196166992188e+01 -1.741457730531692505e-02 -8.409154601395130157e-03 -7.747119292616844177e-03 1.405308209359645844e-02
2.755000000000000000e+03 1.154420948028564453e+01 -1.107823657989501953e+01 -6.273039430379867554e-02 -1.732731610536575317e-02 -2.401731349527835846e-02 -3.512781113386154175e-02
2.756000000000000000e+03 1.209944057464599609e+01 -1.397723579406738281e+01 -7.879160344600677490e-02 -3.828263282775878906e-02 -3.512227162718772888e-02 -7.881495356559753418e-02
2.757000000000000000e+03 1.352580642700195312e+01 -1.326522922515869141e+01 -1.126819476485252380e-01 -3.903383016586303711e-02 -4.551473259925842285e-02 -8.293757587671279907e-02
2.758000000000000000e+03 1.786115646362304688e+01 -9.996347427368164062e+00 -1.589522957801818848e-01 -1.557599846273660660e-02 -5.235848948359489441e-02 -2.657789364457130432e-02
2.759000000000000000e+03 1.480032730102539062e+01 -1.251212310791015625e+01 -1.212458014488220215e-01 -1.947483979165554047e-02 -4.221619293093681335e-02 -7.819391787052154541e-02
2.760000000000000000e+03 6.935558795928955078e+00 1.817815017700195312e+01 -7.096149027347564697e-03 -7.619244046509265900e-03 -4.414618015289306641e-03 5.517822690308094025e-03
2.761000000000000000e+03 1.037623119354248047e+01 1.734189796447753906e+01 -1.418835949152708054e-02 -3.679776564240455627e-03 -5.360440816730260849e-03 7.869292981922626495e-03
2.762000000000000000e+03 1.180316352844238281e+01 1.616634178161621094e+01 -1.301071979105472565e-02 -2.676656549738254398e-05 -3.911246079951524734e-03 6.545452401041984558e-03
2.763000000000000000e+03 7.022696685791015625e+01 2.497425651550292969e+01 6.020066738128662109e-01 2.492861986160278320e+00 9.284605979919433594e-01 -1.059297680854797363e+00
2.764000000000000000e+03 2.465448951721191406e+01 -1.458874511718750000e+01 -2.625190280377864838e-02 -4.618678092956542969e-01 -1.464359164237976074e-01 -1.616053283214569092e-01
2.765000000000000000e+03 1.866596412658691406e+01 -1.072186470031738281e+01 -2.727834284305572510e-01 -1.119028776884078979e-02 -8.519211411476135254e-02 -1.057520508766174316e-01
2.766000000000000000e+03 1.415281105041503906e+01 -1.456418800354003906e+01 -1.026527881622314453e-01 -5.240057036280632019e-02 -4.651600867509841919e-02 -1.113469228148460388e-01
2.767000000000000000e+03 1.026767635345458984e+01 -1.252941989898681641e+01 -5.938962474465370178e-02 -2.733241952955722809e-02 -2.601661346852779388e-02 -4.708655923604965210e-02
2.768000000000000000e+03 2.424580192565917969e+01 -1.615085411071777344e+01 -3.350811079144477844e-03 -3.741072416305541992e-01 -1.132374182343482971e-01 -1.435593813657760620e-01
2.769000000000000000e+03 1.278702735900878906e+01 -1.533452701568603516e+01 -8.441483229398727417e-02 -6.212222948670387268e-02 -4.396111890673637390e-02 -1.034794002771377563e-01
2.770000000000000000e+03 8.463223457336425781e+00 2.171931457519531250e+01 -1.369007863104343414e-02 -1.437888108193874359e-02 -8.420688100159168243e-03 1.777097210288047791e-02
2.771000000000000000e+03 1.287698936462402344e+01 -1.872621345520019531e+01 -4.407049715518951416e-02 -1.024891361594200134e-01 -4.396789148449897766e-02 -1.246911883354187012e-01
2.772000000000000000e+03 9.353035926818847656e+00 2.832807350158691406e+01 -4.759099800139665604e-03 -4.132451117038726807e-02 -1.382508315145969391e-02 3.549751266837120056e-02
2.773000000000000000e+03 7.968906402587890625e+00 2.869252967834472656e+01 -2.024738350883126259e-03 -3.966923058032989502e-02 -1.250819116830825806e-02 2.940702624619007111e-02
2.774000000000000000e+03 7.548228454589843750e+01 -2.637075996398925781e+01 7.702659815549850464e-03 4.262674331665039062e+00 1.281113147735595703e+00 4.176286756992340088e-01
2.775000000000000000e+03 7.268083953857421875e+01 -2.730980873107910156e+01 1.203139945864677429e-01 3.501214265823364258e+00 1.086458444595336914e+00 5.809406042098999023e-01
2.776000000000000000e+03 1.528427505493164062e+01 -1.735298538208007812e+01 -7.495214790105819702e-02 -1.123234853148460388e-01 -5.618268996477127075e-02 -1.533193439245223999e-01
2.777000000000000000e+03 2.220331954956054688e+01 1.978664207458496094e+01 -1.078365892171859741e-01 -4.128778353333473206e-02 -4.473731294274330139e-02 8.736415207386016846e-02
2.778000000000000000e+03 1.477373695373535156e+01 -1.593266582489013672e+01 -9.803671389818191528e-02 -8.212010562419891357e-02 -5.404704809188842773e-02 -1.387558430433273315e-01
2.779000000000000000e+03 4.454754829406738281e+00 3.869161224365234375e+01 5.161045584827661514e-03 -5.983046442270278931e-02 -1.640082523226737976e-02 7.731935940682888031e-03
2.780000000000000000e+03 1.430038547515869141e+01 1.700794792175292969e+01 -2.705316245555877686e-02 3.126697381958365440e-03 -7.177939638495445251e-03 1.218824833631515503e-02
2.781000000000000000e+03 1.567287349700927734e+01 2.032777595520019531e+01 -5.028834566473960876e-02 -7.168058771640062332e-03 -1.723692007362842560e-02 4.191193357110023499e-02
2.782000000000000000e+03 4.489239883422851562e+01 -2.096098518371582031e+01 -9.969383478164672852e-02 1.051133219152688980e-02 -2.675475180149078369e-02 -1.063548494130373001e-02
2.783000000000000000e+03 3.775339889526367188e+01 -2.149505615234375000e+01 -1.138535141944885254e-01 -1.413748413324356079e-01 -7.656850665807723999e-02 -3.864160776138305664e-01
2.784000000000000000e+03 2.292893409729003906e+01 -1.010221481323242188e+00 -4.619690030813217163e-02 1.103282347321510315e-01 1.923940144479274750e-02 -1.070762798190116882e-02
2.785000000000000000e+03 6.593836975097656250e+01 -1.635031890869140625e+01 -2.761528193950653076e-01 5.745700597763061523e-01 8.952517062425613403e-02 -1.958458423614501953e-01
2.786000000000000000e+03 6.799493408203125000e+01 -1.901791572570800781e+01 4.671381115913391113e-01 1.126717329025268555e+00 4.781566262245178223e-01 6.562798023223876953e-01
2.787000000000000000e+03 2.109261322021484375e+01 -1.853533363342285156e+01 -1.366247609257698059e-02 -2.386727184057235718e-01 -7.570055872201919556e-02 -1.868280470371246338e-01
2.788000000000000000e+03 5.705628204345703125e+01 -2.445897293090820312e+01 2.259159535169601440e-01 3.290336132049560547e-01 1.664848625659942627e-01 -1.858808845281600952e-02
2.789000000000000000e+03 5.883472824096679688e+01 -2.464316558837890625e+01 2.607995867729187012e-01 4.270619153976440430e-01 2.063584476709365845e-01 5.602797865867614746e-02
2.790000000000000000e+03 3.456840515136718750e+00 2.617211914062500000e+01 -2.041050232946872711e-03 -2.255541086196899414e-02 -7.378938142210245132e-03 1.160851679742336273e-02
2.791000000000000000e+03 6.432585144042968750e+01 -1.980294799804687500e+01 1.328427046537399292e-01 9.094384312629699707e-01 3.126843571662902832e-01 1.255258470773696899e-01
2.792000000000000000e+03 6.474818420410156250e+01 -1.854008483886718750e+01 5.664398148655891418e-02 8.151234388351440430e-01 2.615302205085754395e-01 9.436403401196002960e-03
2.793000000000000000e+03 5.763866424560546875e+00 -2.586742782592773438e+01 2.768624341115355492e-03 -1.298312544822692871e-01 -3.811879083514213562e-02 -6.798612326383590698e-02
2.794000000000000000e+03 3.468374013900756836e+00 -3.220776748657226562e+01 4.227697849273681641e-03 -1.871770918369293213e-01 -5.488481745123863220e-02 -3.476983681321144104e-02
2.795000000000000000e+03 5.584555435180664062e+01 -2.223198127746582031e+01 -3.507922589778900146e-02 8.074750006198883057e-02 1.370048243552446365e-02 -1.143744811415672302e-01
2.796000000000000000e+03 3.522058105468750000e+01 5.605019092559814453e+00 6.440063565969467163e-02 -4.677382484078407288e-02 5.288042593747377396e-03 -8.560157567262649536e-02
2.797000000000000000e+03 3.425623321533203125e+01 4.738297462463378906e+00 8.745153248310089111e-02 -1.038799434900283813e-01 -4.928521811962127686e-03 -1.194983571767807007e-01
2.798000000000000000e+03 1.818805885314941406e+01 -1.846467971801757812e+01 -4.606926441192626953e-02 -1.713999360799789429e-01 -6.524075567722320557e-02 -1.837416142225265503e-01
2.799000000000000000e+03 3.225647354125976562e+01 -1.701815986633300781e+01 -1.773656904697418213e-01 1.478641778230667114e-01 -8.850453421473503113e-03 -4.539368301630020142e-02
2.800000000000000000e+03 1.195005226135253906e+01 2.282498168945312500e+01 -2.616454288363456726e-02 -1.890660263597965240e-02 -1.352134346961975098e-02 3.477967530488967896e-02
2.801000000000000000e+03 6.759531402587890625e+01 -1.794551467895507812e+01 3.301169276237487793e-01 7.945877313613891602e-01 3.374113738536834717e-01 4.942878484725952148e-01
2.802000000000000000e+03 2.568527984619140625e+01 -1.679294395446777344e+01 4.002993460744619370e-03 -3.159290552139282227e-01 -9.357781708240509033e-02 -7.811780273914337158e-02
2.803000000000000000e+03 5.198344802856445312e+01 2.496251487731933594e+01 -5.237724632024765015e-03 -1.791956722736358643e-01 -5.533001571893692017e-02 4.216016829013824463e-01
2.804000000000000000e+03 3.991176223754882812e+01 1.943628501892089844e+01 -4.600329399108886719e-01 2.058422006666660309e-02 -1.318346261978149414e-01 2.591237127780914307e-01
2.805000000000000000e+03 6.851357269287109375e+01 2.347279357910156250e+01 5.997872352600097656e-01 1.592905998229980469e+00 6.578080058097839355e-01 -8.797958493232727051e-01
2.806000000000000000e+03 2.282466316223144531e+01 2.448097610473632812e+01 -5.249568447470664978e-02 -7.193913310766220093e-02 -3.733044490218162537e-02 1.175602301955223083e-01
2.807000000000000000e+03 6.955839538574218750e+01 -2.502655410766601562e+01 2.574611604213714600e-01 2.657244205474853516e+00 8.744116425514221191e-01 7.511803507804870605e-01
2.808000000000000000e+03 7.544968414306640625e+01 -2.906846237182617188e+01 5.413648113608360291e-02 4.045726776123046875e+00 1.229959011077880859e+00 3.395226299762725830e-01
2.809000000000000000e+03 7.243888092041015625e+01 -3.068967628479003906e+01 1.622904390096664429e-01 3.314111948013305664e+00 1.042920708656311035e+00 4.360140264034271240e-01
2.810000000000000000e+03 5.742366790771484375e+00 1.503270149230957031e+01 -1.868536113761365414e-03 -4.841872956603765488e-03 -2.013122662901878357e-03 4.199192044325172901e-04
2.811000000000000000e+03 1.249257946014404297e+01 2.146812248229980469e+01 -2.843774296343326569e-02 -1.247620210051536560e-02 -1.227418426424264908e-02 2.990244515240192413e-02
2.812000000000000000e+03 1.106151103973388672e+01 2.095502090454101562e+01 -2.400854229927062988e-02 -1.175250671803951263e-02 -1.072831451892852783e-02 2.367358282208442688e-02
2.813000000000000000e+03 2.682485389709472656e+01 2.062080764770507812e+01 -1.522776186466217041e-01 -4.715048149228096008e-02 -5.982843041419982910e-02 1.147155389189720154e-01
2.814000000000000000e+03 4.999735355377197266e+00 -3.628073120117187500e+01 1.172747369855642319e-02 -2.068775147199630737e-01 -5.854501202702522278e-02 -3.199243545532226562e-02
2.815000000000000000e+03 4.880159378051757812e+01 -2.087258529663085938e+01 -2.259358167648315430e-01 3.890736103057861328e-01 4.894134029746055603e-02 -1.691144555807113647e-01
2.816000000000000000e+03 7.282984161376953125e+01 2.646193695068359375e+01 4.312155842781066895e-01 3.749319791793823242e+00 1.254160642623901367e+00 -1.073331713676452637e+00
2.817000000000000000e+03 6.966511535644531250e+01 -1.999797058105468750e+01 3.921049833297729492e-01 2.228131771087646484e+00 7.860710620880126953e-01 1.202708601951599121e+00
2.818000000000000000e+03 1.406834125518798828e+01 2.198641014099121094e+01 -3.805124387145042419e-02 -1.647584699094295502e-02 -1.635812781751155853e-02 4.328302294015884399e-02
2.819000000000000000e+03 1.283768272399902344e+01 2.002482795715332031e+01 -3.132920339703559875e-02 -7.696539163589477539e-03 -1.170772220939397812e-02 2.563985437154769897e-02
2.820000000000000000e+03 6.859470367431640625e+01 2.512652778625488281e+01 6.328828334808349609e-01 1.885957717895507812e+00 7.556521296501159668e-01 -8.505349159240722656e-01
2.821000000000000000e+03 6.551794052124023438e+00 2.740429496765136719e+01 -3.531198948621749878e-03 -3.271627426147460938e-02 -1.087424252182245255e-02 2.363906800746917725e-02
2.822000000000000000e+03 6.581447124481201172e+00 2.879406166076660156e+01 -1.568879233673214912e-03 -3.828682377934455872e-02 -1.195671129971742630e-02 2.429667487740516663e-02
2.823000000000000000e+03 2.636121273040771484e+00 3.616160964965820312e+01 1.158478436991572380e-03 -5.364774540066719055e-02 -1.574677973985671997e-02 8.293141610920429230e-03
2.824000000000000000e+03 4.802109718322753906e+00 1.641326522827148438e+01 -2.056184224784374237e-03 -5.654509179294109344e-03 -2.313208067789673805e-03 8.737092721275985241e-04
2.825000000000000000e+03 9.235864639282226562e+00 -1.875500869750976562e+01 -2.895219996571540833e-02 -7.879853248596191406e-02 -3.232521936297416687e-02 -8.987444639205932617e-02
2.826000000000000000e+03 9.387105941772460938e+00 -1.594703102111816406e+01 -4.273145645856857300e-02 -5.347108840942382812e-02 -2.886076457798480988e-02 -7.365559786558151245e-02
2.827000000000000000e+03 7.533797454833984375e+01 2.164979934692382812e+01 3.253713846206665039e-01 5.537640094757080078e+00 1.758903384208679199e+00 -1.356643199920654297e+00
2.828000000000000000e+03 7.368457031250000000e+01 2.386569976806640625e+01 3.965409696102142334e-01 4.307183742523193359e+00 1.411117315292358398e+00 -1.259459018707275391e+00
2.829000000000000000e+03 4.903329372406005859e+00 2.610164833068847656e+01 -3.233116352930665016e-03 -2.522307075560092926e-02 -8.536855690181255341e-03 1.612251065671443939e-02
2.830000000000000000e+03 6.192331314086914062e+01 -1.866245841979980469e+01 -1.429661810398101807e-01 6.707581281661987305e-01 1.583375930786132812e-01 -1.115637198090553284e-01
2.831000000000000000e+03 1.069499492645263672e+01 1.180505371093750000e+01 5.820236168801784515e-03 2.404165221378207207e-03 2.467320300638675690e-03 2.716942923143506050e-03
2.832000000000000000e+03 6.107804870605468750e+01 -1.487782287597656250e+01 -2.763975262641906738e-01 5.562919378280639648e-01 8.396831899881362915e-02 -1.792250424623489380e-01
2.833000000000000000e+03 7.416223907470703125e+01 -2.630009078979492188e+01 6.370812654495239258e-02 3.892602443695068359e+00 1.186893105506896973e+00 5.225638151168823242e-01
2.834000000000000000e+03 3.327232360839843750e+01 1.799374580383300781e+01 -2.737825214862823486e-01 -5.450557917356491089e-02 -9.848643094301223755e-02 1.447732150554656982e-01
2.835000000000000000e+03 7.356027126312255859e+00 -2.017934989929199219e+01 -1.678594574332237244e-02 -8.350414037704467773e-02 -3.008702583611011505e-02 -7.711946219205856323e-02
2.836000000000000000e+03 1.020047950744628906e+01 -1.727814102172851562e+01 -4.764083772897720337e-02 -6.963960826396942139e-02 -3.518413379788398743e-02 -9.045486897230148315e-02
2.837000000000000000e+03 1.072690296173095703e+01 -1.490264129638671875e+01 -6.473426520824432373e-02 -4.965917766094207764e-02 -3.431803360581398010e-02 -7.583107799291610718e-02
2.838000000000000000e+03 6.414865970611572266e+00 2.599079322814941406e+01 -5.919976159930229187e-03 -2.721066400408744812e-02 -9.939191862940788269e-03 2.169514633715152740e-02
2.839000000000000000e+03 7.301845550537109375e+01 2.791477966308593750e+01 3.917655944824218750e-01 3.912657022476196289e+00 1.291326761245727539e+00 -9.520384669303894043e-01
2.840000000000000000e+03 7.465271759033203125e+01 2.559088897705078125e+01 2.910582721233367920e-01 4.839334011077880859e+00 1.539117693901062012e+00 -1.047724127769470215e+00
2.841000000000000000e+03 5.624961853027343750e+00 -2.430217742919921875e+01 1.498295896453782916e-04 -1.165196821093559265e-01 -3.491095826029777527e-02 -6.938616186380386353e-02
2.842000000000000000e+03 7.579562377929687500e+01 3.178134536743164062e+01 1.522973179817199707e-01 4.665132522583007812e+00 1.445228934288024902e+00 -5.332497954368591309e-01
2.843000000000000000e+03 5.311013698577880859e+00 -3.774741744995117188e+01 1.343946531414985657e-02 -2.119507193565368652e-01 -5.955337360501289368e-02 -2.481785975396633148e-02
2.844000000000000000e+03 3.039986991882324219e+01 -1.834232902526855469e+01 -1.156127899885177612e-01 -7.211707532405853271e-03 -3.684734925627708435e-02 -1.992062665522098541e-02
2.845000000000000000e+03 7.411739349365234375e+01 3.906508636474609375e+01 2.055415958166122437e-01 3.912563085556030273e+00 1.235431432723999023e+00 -2.258583456277847290e-01
2.846000000000000000e+03 7.620565795898437500e+01 3.613853836059570312e+01 1.030204966664314270e-01 4.469246864318847656e+00 1.371680259704589844e+00 -2.829072177410125732e-01
2.847000000000000000e+03 4.196275329589843750e+01 1.956453704833984375e+01 -5.429484844207763672e-01 1.818636432290077209e-03 -1.623389422893524170e-01 3.260109126567840576e-01
2.848000000000000000e+03 7.246728515625000000e+01 -3.248818206787109375e+01 1.675725877285003662e-01 3.270364761352539062e+00 1.031381249427795410e+00 3.514619767665863037e-01
2.849000000000000000e+03 5.987166213989257812e+01 -2.142179298400878906e+01 -2.330813556909561157e-02 5.158189535140991211e-01 1.477532535791397095e-01 6.380501389503479004e-02
2.850000000000000000e+03 5.453001785278320312e+01 -2.583009338378906250e+01 2.598347365856170654e-01 2.370032817125320435e-01 1.490513980388641357e-01 -1.788588762283325195e-01
2.851000000000000000e+03 2.506944847106933594e+01 -1.854261398315429688e+01 9.937427006661891937e-03 -2.749137878417968750e-01 -7.949291169643402100e-02 -1.061262935400009155e-01
2.852000000000000000e+03 8.214735031127929688e+00 3.026085853576660156e+01 6.377017125487327576e-04 -4.647579789161682129e-02 -1.375142950564622879e-02 3.065451234579086304e-02
2.853000000000000000e+03 7.376353454589843750e+01 2.955784606933593750e+01 3.066740334033966064e-01 4.197879791259765625e+00 1.351366043090820312e+00 -8.143116831779479980e-01
2.854000000000000000e+03 8.272787094116210938e+00 -2.219522285461425781e+01 -8.539767935872077942e-03 -1.060851141810417175e-01 -3.438746556639671326e-02 -8.969237655401229858e-02
2.855000000000000000e+03 1.019613265991210938e+01 -2.649613761901855469e+01 1.209154352545738220e-02 -1.517737358808517456e-01 -4.190465807914733887e-02 -1.026985496282577515e-01
2.856000000000000000e+03 3.589885711669921875e+01 -2.153820610046386719e+01 -1.530188024044036865e-01 -6.570882350206375122e-02 -6.561829149723052979e-02 -3.349645137786865234e-01
2.857000000000000000e+03 4.987635803222656250e+01 -2.698571395874023438e+01 1.930274963378906250e-01 1.783647239208221436e-01 1.114176660776138306e-01 -2.053849101066589355e-01
2.858000000000000000e+03 4.462644195556640625e+01 -2.782259178161621094e+01 2.169942855834960938e-01 -2.064956352114677429e-02 5.890341848134994507e-02 -1.854722797870635986e-01
2.859000000000000000e+03 1.434091854095458984e+01 3.047818756103515625e+01 7.340188603848218918e-03 -6.756288558244705200e-02 -1.806681044399738312e-02 5.663209035992622375e-02
2.860000000000000000e+03 3.974369812011718750e+01 -2.485210609436035156e+01 1.152799353003501892e-01 -1.903947293758392334e-01 -2.253443747758865356e-02 -2.575828731060028076e-01
2.861000000000000000e+03 6.611367034912109375e+01 -1.961156272888183594e+01 2.769778668880462646e-01 1.033022046089172363e+00 3.929999768733978271e-01 3.216277658939361572e-01
2.862000000000000000e+03 7.262209892272949219e+00 -2.645034790039062500e+01 5.096374079585075378e-03 -1.405873298645019531e-01 -4.064728692173957825e-02 -8.141238242387771606e-02
2.863000000000000000e+03 7.523743438720703125e+01 3.487482070922851562e+01 1.613312065601348877e-01 4.377822399139404297e+00 1.361746072769165039e+00 -4.130899310111999512e-01
2.864000000000000000e+03 7.246359252929687500e+01 -1.947929954528808594e+01 -1.304875016212463379e-01 4.299478530883789062e+00 1.250697255134582520e+00 1.196105837821960449e+00
2.865000000000000000e+03 6.925502014160156250e+01 -1.852301216125488281e+01 5.585745573043823242e-01 1.571671605110168457e+00 6.390738487243652344e-01 1.231697440147399902e+00
2.866000000000000000e+03 6.256784057617187500e+01 -2.095863533020019531e+01 7.207176834344863892e-02 7.943937182426452637e-01 2.599396407604217529e-01 1.105714514851570129e-01
2.867000000000000000e+03 4.106169128417968750e+01 1.938056945800781250e+01 -4.830691516399383545e-01 2.442647144198417664e-02 -1.375928074121475220e-01 2.752875387668609619e-01
2.868000000000000000e+03 4.581641006469726562e+01 -2.367399024963378906e+01 -9.109593927860260010e-03 7.954631000757217407e-02 2.113101631402969360e-02 -1.332529634237289429e-01
2.869000000000000000e+03 1.116442012786865234e+01 -1.827635955810546875e+01 -4.133667051792144775e-02 -8.391455560922622681e-02 -3.757536783814430237e-02 -1.057842150330543518e-01
2.870000000000000000e+03 5.855013275146484375e+01 2.303824424743652344e+01 -7.107870280742645264e-02 -4.796937853097915649e-02 -3.571442514657974243e-02 4.332950413227081299e-01
2.871000000000000000e+03 7.408322143554687500e+01 -2.761670684814453125e+01 7.965339720249176025e-02 3.840305328369140625e+00 1.175987601280212402e+00 4.619950354099273682e-01
2.872000000000000000e+03 1.662582778930664062e+01 -1.692077255249023438e+01 -9.146838635206222534e-02 -1.175147891044616699e-01 -6.269495189189910889e-02 -1.734300255775451660e-01
2.873000000000000000e+03 1.174394416809082031e+01 -1.939871597290039062e+01 -4.115230590105056763e-02 -9.698902070522308350e-02 -4.144239798188209534e-02 -1.192554160952568054e-01
2.874000000000000000e+03 4.020048904418945312e+01 -2.265124702453613281e+01 4.515641555190086365e-02 -2.595079541206359863e-01 -6.430546194314956665e-02 -2.551705539226531982e-01
2.875000000000000000e+03 3.826550674438476562e+01 -1.994617080688476562e+01 -2.523767650127410889e-01 -1.986748278141021729e-01 -1.353154778480529785e-01 -4.778288304805755615e-01
2.876000000000000000e+03 1.426626777648925781e+01 2.025319480895996094e+01 -4.040534421801567078e-02 -5.478422623127698898e-03 -1.376513019204139709e-02 3.138284012675285339e-02
2.877000000000000000e+03 6.693601226806640625e+01 -1.878293037414550781e+01 3.713036775588989258e-01 9.766061305999755859e-01 4.043729305267333984e-01 3.833830058574676514e-01
2.878000000000000000e+03 7.263391876220703125e+01 -2.078019142150878906e+01 7.724910043179988861e-03 3.987673521041870117e+00 1.198619484901428223e+00 1.002811670303344727e+00
2.879000000000000000e+03 2.874357986450195312e+01 1.828371047973632812e+01 -2.149794697761535645e-01 -3.715984756126999855e-03 -6.560863554477691650e-02 1.161326169967651367e-01
2.880000000000000000e+03 6.867474365234375000e+01 -2.189748573303222656e+01 3.869690001010894775e-01 2.092443943023681641e+00 7.438238263130187988e-01 8.762740492820739746e-01
2.881000000000000000e+03 6.804568481445312500e+01 -2.518675041198730469e+01 3.364306092262268066e-01 2.169919490814208984e+00 7.519050240516662598e-01 6.713315844535827637e-01
2.882000000000000000e+03 4.011393737792968750e+01 2.080745887756347656e+01 -3.629576265811920166e-01 -2.632360905408859253e-02 -1.167843714356422424e-01 3.044175505638122559e-01
2.883000000000000000e+03 4.261144638061523438e+01 -2.304310035705566406e+01 6.327282637357711792e-02 -1.763572543859481812e-01 -3.392532840371131897e-02 -1.502014696598052979e-01
2.884000000000000000e+03 4.533422851562500000e+01 2.156417274475097656e+01 -4.193042814731597900e-01 -1.682121455669403076e-01 -1.762549281120300293e-01 4.755675792694091797e-01
2.885000000000000000e+03 3.867045593261718750e+01 2.138997077941894531e+01 -2.938885390758514404e-01 -4.944808781147003174e-02 -1.030009835958480835e-01 2.907868623733520508e-01
2.886000000000000000e+03 8.625310897827148438e+00 2.691455078125000000e+01 -6.408895831555128098e-03 -3.404294326901435852e-02 -1.213555131107568741e-02 3.045262210071086884e-02
2.887000000000000000e+03 3.371732330322265625e+01 -2.012694168090820312e+01 -1.886161565780639648e-01 6.296588480472564697e-02 -3.769508376717567444e-02 -1.958206295967102051e-01
2.888000000000000000e+03 3.610287857055664062e+01 -2.354327011108398438e+01 -3.140573576092720032e-02 -1.207355931401252747e-01 -4.564239829778671265e-02 -3.011435270309448242e-01
2.889000000000000000e+03 1.494069862365722656e+01 2.734576988220214844e+01 -1.125035621225833893e-02 -5.220303684473037720e-02 -1.903601922094821930e-02 6.409163773059844971e-02
2.890000000000000000e+03 1.486703586578369141e+01 2.480737304687500000e+01 -2.807351201772689819e-02 -3.577892854809761047e-02 -1.915573142468929291e-02 5.874515697360038757e-02
2.891000000000000000e+03 2.719256973266601562e+01 -1.740020942687988281e+01 -1.506395172327756882e-02 -2.411306500434875488e-01 -7.685837894678115845e-02 -2.094619162380695343e-02
2.892000000000000000e+03 2.840087318420410156e+01 -1.978896331787109375e+01 -4.524356126785278320e-02 -1.304186880588531494e-01 -5.269867554306983948e-02 -5.617938563227653503e-02
2.893000000000000000e+03 1.329870986938476562e+01 2.859100151062011719e+01 -3.609483363106846809e-03 -5.397352948784828186e-02 -1.727490313351154327e-02 5.377740785479545593e-02
2.894000000000000000e+03 1.142565727233886719e+01 2.552291297912597656e+01 -1.562333106994628906e-02 -3.177062794566154480e-02 -1.421818789094686508e-02 4.067032039165496826e-02
2.895000000000000000e+03 3.247887039184570312e+01 -2.419202995300292969e+01 -1.903303340077400208e-02 -7.941743731498718262e-02 -2.953514084219932556e-02 -2.063381373882293701e-01
2.896000000000000000e+03 3.208836364746093750e+01 -2.210761833190917969e+01 -8.803695440292358398e-02 -3.778054937720298767e-02 -3.774524852633476257e-02 -1.721038371324539185e-01
2.897000000000000000e+03 6.554053497314453125e+01 2.413502120971679688e+01 5.983261466026306152e-01 7.681382894515991211e-01 4.099393486976623535e-01 -4.222023189067840576e-01
2.898000000000000000e+03 7.324573516845703125e+01 3.235295486450195312e+01 3.124053478240966797e-01 3.891564607620239258e+00 1.261191010475158691e+00 -6.388640999794006348e-01
2.899000000000000000e+03 6.305765533447265625e+01 2.389906501770019531e+01 4.318978190422058105e-01 2.951152920722961426e-01 2.181039303541183472e-01 -3.561544418334960938e-02
2.900000000000000000e+03 6.050962066650390625e+01 -2.499218559265136719e+01 3.225052952766418457e-01 7.652290463447570801e-01 3.263203203678131104e-01 1.576758325099945068e-01
2.901000000000000000e+03 2.085502433776855469e+01 -2.243950843811035156e+01 3.085890226066112518e-02 -2.129118591547012329e-01 -5.461588501930236816e-02 -1.577456295490264893e-01
2.902000000000000000e+03 6.610502624511718750e+01 -1.803064727783203125e+01 9.765737503767013550e-02 8.082169890403747559e-01 2.717623114585876465e-01 1.049631461501121521e-01
2.903000000000000000e+03 2.982363510131835938e+01 2.261416435241699219e+01 -1.349431723356246948e-01 -6.603125482797622681e-02 -6.029232963919639587e-02 1.718390583992004395e-01
2.904000000000000000e+03 6.674559783935546875e+01 -2.087840270996093750e+01 4.166361391544342041e-01 1.303114891052246094e+00 5.159252882003784180e-01 5.063023567199707031e-01
2.905000000000000000e+03 2.556560897827148438e+01 1.994643402099609375e+01 -1.478954404592514038e-01 -5.273854732513427734e-02 -6.019019708037376404e-02 9.420713037252426147e-02
2.906000000000000000e+03 2.334622573852539062e+01 2.089693069458007812e+01 -1.031242907047271729e-01 -5.844484642148017883e-02 -4.847074300050735474e-02 1.048745438456535339e-01
2.907000000000000000e+03 2.484123802185058594e+01 -2.241335868835449219e+01 2.942269109189510345e-02 -2.001382857561111450e-01 -5.121467635035514832e-02 -1.297544836997985840e-01
2.908000000000000000e+03 1.229844474792480469e+01 2.697690010070800781e+01 -1.149704307317733765e-02 -4.163618385791778564e-02 -1.593996770679950714e-02 4.783545061945915222e-02
2.909000000000000000e+03 7.064431762695312500e+01 -3.050150871276855469e+01 2.400211244821548462e-01 2.914676427841186523e+00 9.464092850685119629e-01 4.735289812088012695e-01
2.910000000000000000e+03 5.191650009155273438e+01 2.185614013671875000e+01 -4.422900676727294922e-01 -1.867501437664031982e-01 -1.887120604515075684e-01 4.148520827293395996e-01
2.911000000000000000e+03 5.053467178344726562e+01 2.325596237182617188e+01 -2.104979306459426880e-01 -2.297365069389343262e-01 -1.320703327655792236e-01 4.316792786121368408e-01
2.912000000000000000e+03 1.023487377166748047e+01 3.200369262695312500e+01 7.363898213952779770e-03 -5.927206948399543762e-02 -1.557245198637247086e-02 3.648557513952255249e-02
2.913000000000000000e+03 4.984909057617187500e+01 2.673603057861328125e+01 1.588620990514755249e-01 -2.171305567026138306e-01 -1.748053543269634247e-02 4.066235423088073730e-01
2.914000000000000000e+03 1.032765674591064453e+01 -3.269840240478515625e+01 3.705315291881561279e-02 -1.869053095579147339e-01 -4.495564848184585571e-02 -7.521986961364746094e-02
2.915000000000000000e+03 6.720043945312500000e+01 -2.948969268798828125e+01 3.562778830528259277e-01 2.177045345306396484e+00 7.599969506263732910e-01 4.966364502906799316e-01
2.916000000000000000e+03 1.158224010467529297e+01 2.946509170532226562e+01 -5.591693916358053684e-04 -5.243726819753646851e-02 -1.589893177151679993e-02 4.503957554697990417e-02
2.917000000000000000e+03 4.135350418090820312e+01 -2.433718299865722656e+01 9.171988070011138916e-02 -2.462082654237747192e-01 -4.634651541709899902e-02 -2.201956063508987427e-01
2.918000000000000000e+03 6.605444335937500000e+01 -2.832761573791503906e+01 4.039226770401000977e-01 1.840217351913452148e+00 6.732419729232788086e-01 4.879752099514007568e-01
2.919000000000000000e+03 6.590565490722656250e+01 -2.676154327392578125e+01 4.044103920459747314e-01 1.783573031425476074e+00 6.563950181007385254e-01 5.009374618530273438e-01
2.920000000000000000e+03 7.249607086181640625e+01 -2.895645141601562500e+01 1.516049057245254517e-01 3.383878946304321289e+00 1.060645103454589844e+00 5.006007552146911621e-01
2.921000000000000000e+03 2.554395484924316406e+01 -2.474091529846191406e+01 4.954509437084197998e-02 -1.887725442647933960e-01 -4.176823794841766357e-02 -1.381095945835113525e-01
2.922000000000000000e+03 6.414781951904296875e+01 2.909518432617187500e+01 7.439005374908447266e-01 1.052092075347900391e+00 5.387977957725524902e-01 -3.474955558776855469e-01
2.923000000000000000e+03 6.262740325927734375e+01 2.543672561645507812e+01 5.440140366554260254e-01 4.282237887382507324e-01 2.916713356971740723e-01 -6.840728968381881714e-02
2.924000000000000000e+03 6.402916717529296875e+01 -2.123203277587890625e+01 2.120823413133621216e-01 1.032307982444763184e+00 3.733170926570892334e-01 1.939709037542343140e-01
2.925000000000000000e+03 2.766501808166503906e+01 2.166394233703613281e+01 -1.370588988065719604e-01 -5.364781990647315979e-02 -5.721201375126838684e-02 1.393822580575942993e-01
2.926000000000000000e+03 6.250471496582031250e+01 -2.518449974060058594e+01 3.741331994533538818e-01 1.033830642700195312e+00 4.223891496658325195e-01 2.705118060111999512e-01
2.927000000000000000e+03 1.960288810729980469e+01 -2.016899871826171875e+01 -3.644452197477221489e-03 -2.063161879777908325e-01 -6.298819184303283691e-02 -1.777958571910858154e-01
2.928000000000000000e+03 4.179163360595703125e+01 2.133857917785644531e+01 -3.732601702213287354e-01 -6.159106269478797913e-02 -1.304553747177124023e-01 3.717038631439208984e-01
2.929000000000000000e+03 2.285303878784179688e+01 -2.269126319885253906e+01 3.005921095609664917e-02 -2.141337096691131592e-01 -5.522235110402107239e-02 -1.444526165723800659e-01
2.930000000000000000e+03 6.954357147216796875e+01 3.122546386718750000e+01 5.615086555480957031e-01 2.710873365402221680e+00 9.817146062850952148e-01 -6.736555695533752441e-01
2.931000000000000000e+03 3.220401763916015625e+01 2.407944297790527344e+01 -1.087852343916893005e-01 -9.194643050432205200e-02 -6.021950021386146545e-02 2.123633772134780884e-01
2.932000000000000000e+03 4.401051330566406250e+01 2.424665260314941406e+01 -1.664405614137649536e-01 -1.697354763746261597e-01 -1.008528098464012146e-01 4.506855010986328125e-01
2.933000000000000000e+03 7.113609313964843750e+01 2.846812438964843750e+01 5.210846066474914551e-01 3.146633863449096680e+00 1.100315570831298828e+00 -8.772728443145751953e-01
2.934000000000000000e+03 6.902037048339843750e+01 2.896618080139160156e+01 6.283650994300842285e-01 2.394461393356323242e+00 9.068478941917419434e-01 -7.841467261314392090e-01
2.935000000000000000e+03 7.523168087005615234e+00 -3.103199958801269531e+01 2.001857385039329529e-02 -1.757292002439498901e-01 -4.671318829059600830e-02 -6.663459539413452148e-02
2.936000000000000000e+03 6.532501220703125000e+01 -2.278998947143554688e+01 3.698131740093231201e-01 1.281434416770935059e+00 4.953742623329162598e-01 4.130378067493438721e-01
2.937000000000000000e+03 6.675148773193359375e+01 -2.565918350219726562e+01 3.791412413120269775e-01 1.878504276275634766e+00 6.772936582565307617e-01 5.717759728431701660e-01
2.938000000000000000e+03 1.727191352844238281e+01 2.563259506225585938e+01 -2.603735029697418213e-02 -5.113792791962623596e-02 -2.315258234739303589e-02 7.692322880029678345e-02
2.939000000000000000e+03 3.820409011840820312e+01 -2.507586097717285156e+01 9.802196919918060303e-02 -2.008418291807174683e-01 -3.084596060216426849e-02 -2.712856531143188477e-01
2.940000000000000000e+03 3.926162338256835938e+01 -2.118499755859375000e+01 -3.335664048790931702e-02 -4.548325836658477783e-01 -1.464567631483078003e-01 -4.053514301776885986e-01
2.941000000000000000e+03 7.296150207519531250e+00 1.999056816101074219e+01 -9.616474620997905731e-03 -1.080844178795814514e-02 -6.127474829554557800e-03 1.018018648028373718e-02
2.942000000000000000e+03 1.215781593322753906e+01 -2.103950309753417969e+01 -2.006408199667930603e-02 -1.219437792897224426e-01 -4.260235652327537537e-02 -1.250277757644653320e-01
2.943000000000000000e+03 1.365385341644287109e+01 2.597935485839843750e+01 -1.828057877719402313e-02 -3.844917938113212585e-02 -1.701892726123332977e-02 5.300449952483177185e-02
2.944000000000000000e+03 5.847120285034179688e+01 1.916458511352539062e+01 -8.761502504348754883e-01 -2.399655245244503021e-02 -2.700440287590026855e-01 6.800236105918884277e-01
2.945000000000000000e+03 7.198190307617187500e+01 3.412931060791015625e+01 3.475039005279541016e-01 3.537594556808471680e+00 1.165529608726501465e+00 -5.445395112037658691e-01
2.946000000000000000e+03 1.460064792633056641e+01 -1.919095611572265625e+01 -4.366682097315788269e-02 -1.242783367633819580e-01 -5.038354918360710144e-02 -1.467239856719970703e-01
2.947000000000000000e+03 1.684224700927734375e+01 -1.860142898559570312e+01 -5.709205940365791321e-02 -1.564332395792007446e-01 -6.405758857727050781e-02 -1.817609071731567383e-01
2.948000000000000000e+03 6.885098266601562500e+01 -3.011403274536132812e+01 2.983413636684417725e-01 2.536681413650512695e+00 8.505068421363830566e-01 5.015529394149780273e-01
2.949000000000000000e+03 6.291247940063476562e+01 -2.737079620361328125e+01 4.251579940319061279e-01 1.218680977821350098e+00 4.931516945362091064e-01 3.069236576557159424e-01
2.950000000000000000e+03 5.920131301879882812e+01 -2.655535125732421875e+01 4.012614786624908447e-01 6.401125788688659668e-01 3.124122023582458496e-01 1.102328225970268250e-01
2.951000000000000000e+03 4.082765960693359375e+01 2.424708366394042969e+01 -1.544310152530670166e-01 -1.251955330371856689e-01 -8.388796448707580566e-02 3.817571699619293213e-01
2.952000000000000000e+03 6.065045928955078125e+01 -2.873056602478027344e+01 4.750083088874816895e-01 9.472231268882751465e-01 4.266694188117980957e-01 1.812215894460678101e-01
2.953000000000000000e+03 3.764366149902343750e+01 2.791233062744140625e+01 4.856784269213676453e-02 -1.744383126497268677e-01 -3.776114061474800110e-02 3.010101914405822754e-01
2.954000000000000000e+03 6.200375747680664062e+01 2.807697486877441406e+01 6.571840047836303711e-01 5.835537314414978027e-01 3.722213208675384521e-01 -1.160758212208747864e-01
2.955000000000000000e+03 2.483224678039550781e+01 2.166252326965332031e+01 -1.024292856454849243e-01 -6.540270894765853882e-02 -5.034959688782691956e-02 1.146860495209693909e-01
2.956000000000000000e+03 2.638344955444335938e+01 2.340240097045898438e+01 -9.011523425579071045e-02 -7.635887712240219116e-02 -4.994223266839981079e-02 1.401512920856475830e-01
2.957000000000000000e+03 6.668167114257812500e+01 2.916603660583496094e+01 7.064329981803894043e-01 1.708333015441894531e+00 7.244297862052917480e-01 -5.713497400283813477e-01
2.958000000000000000e+03 2.802779769897460938e+01 2.329761314392089844e+01 -1.053225025534629822e-01 -7.191406935453414917e-02 -5.317097157239913940e-02 1.542565673589706421e-01
2.959000000000000000e+03 2.059535598754882812e+01 2.601391601562500000e+01 -2.732437476515769958e-02 -7.078973203897476196e-02 -2.943423204123973846e-02 1.031450778245925903e-01
2.960000000000000000e+03 2.796192741394042969e+01 -2.193677711486816406e+01 -1.095557026565074921e-02 -1.389149278402328491e-01 -4.496115073561668396e-02 -1.109807267785072327e-01
2.961000000000000000e+03 1.546088314056396484e+01 -2.002152252197265625e+01 -3.516893088817596436e-02 -1.464637517929077148e-01 -5.448980629444122314e-02 -1.635449379682540894e-01
2.962000000000000000e+03 4.220836257934570312e+01 2.540826034545898438e+01 -7.333892583847045898e-02 -1.721403896808624268e-01 -7.364379614591598511e-02 4.035651385784149170e-01
2.963000000000000000e+03 6.711077117919921875e+01 -2.235427284240722656e+01 4.229179620742797852e-01 1.710774779319763184e+00 6.401078104972839355e-01 6.582506299018859863e-01
2.964000000000000000e+03 4.082504653930664062e+01 2.717548179626464844e+01 3.529839962720870972e-02 -1.783458739519119263e-01 -4.291424155235290527e-02 3.627560436725616455e-01
2.965000000000000000e+03 1.354284381866455078e+01 -2.619960212707519531e+01 2.464125305414199829e-02 -1.690363138914108276e-01 -4.331851750612258911e-02 -1.266881823539733887e-01
2.966000000000000000e+03 3.090724563598632812e+01 2.710521507263183594e+01 -1.362033374607563019e-02 -1.293996125459671021e-01 -4.290598258376121521e-02 2.034045606851577759e-01
2.967000000000000000e+03 2.597756385803222656e+01 2.506336975097656250e+01 -4.847950488328933716e-02 -9.020816534757614136e-02 -4.160629957914352417e-02 1.448114812374114990e-01
2.968000000000000000e+03 4.668612289428710938e+01 2.548587608337402344e+01 -1.930689066648483276e-02 -2.357427924871444702e-01 -7.651490718126296997e-02 4.503083825111389160e-01
2.969000000000000000e+03 2.024345016479492188e+01 -2.472695922851562500e+01 4.619072750210762024e-02 -2.031912505626678467e-01 -4.710015654563903809e-02 -1.488792896270751953e-01
2.970000000000000000e+03 1.806038856506347656e+01 -2.343870353698730469e+01 2.489386126399040222e-02 -1.920858174562454224e-01 -5.015758797526359558e-02 -1.555464118719100952e-01
2.971000000000000000e+03 4.257789993286132812e+01 2.798987007141113281e+01 9.542896598577499390e-02 -2.191661298274993896e-01 -3.712114691734313965e-02 3.815465271472930908e-01
2.972000000000000000e+03 1.495389652252197266e+01 -2.420985984802246094e+01 1.863223314285278320e-02 -1.692173033952713013e-01 -4.517551884055137634e-02 -1.407824009656906128e-01
2.973000000000000000e+03 1.170460414886474609e+01 -2.455969047546386719e+01 8.109513670206069946e-03 -1.461232751607894897e-01 -4.140413179993629456e-02 -1.182145178318023682e-01
2.974000000000000000e+03 1.680685615539550781e+01 -2.043543624877929688e+01 -1.782916299998760223e-02 -1.643693000078201294e-01 -5.465954169631004333e-02 -1.650280356407165527e-01
2.975000000000000000e+03 7.584706115722656250e+01 7.158245086669921875e+00 7.032440304756164551e-01 3.014451742172241211e+00 1.115308761596679688e+00 6.470491290092468262e-01
2.976000000000000000e+03 7.569818878173828125e+01 6.787151813507080078e+00 3.646589219570159912e-01 3.608677625656127930e+00 1.192000985145568848e+00 4.328402280807495117e-01
2.977000000000000000e+03 7.663472747802734375e+01 6.947006225585937500e+00 4.073227047920227051e-01 7.898141860961914062e+00 2.491639375686645508e+00 4.161145210266113281e+00
2.978000000000000000e+03 2.020092582702636719e+01 2.452448368072509766e+00 -5.451494827866554260e-03 1.450666459277272224e-03 -1.200248487293720245e-03 -8.530122227966785431e-03
2.979000000000000000e+03 5.536771774291992188e+01 8.204301834106445312e+00 -7.741289678961038589e-03 4.139919206500053406e-02 1.009737048298120499e-02 4.765407182276248932e-03
2.980000000000000000e+03 6.896900939941406250e+01 5.184575557708740234e+00 1.703190952539443970e-01 1.797543525695800781e+00 5.903587937355041504e-01 3.947661444544792175e-02
2.981000000000000000e+03 7.004684448242187500e+01 2.087649345397949219e+00 -3.471565842628479004e-01 9.044250845909118652e-01 1.671805530786514282e-01 -1.250479966402053833e-01
2.982000000000000000e+03 7.035241699218750000e+01 1.826678872108459473e+00 -4.896989762783050537e-01 6.520234942436218262e-01 4.869735613465309143e-02 -7.076807320117950439e-02
2.983000000000000000e+03 6.563008880615234375e+01 1.227282524108886719e+01 -1.374019980430603027e+00 -1.515681028366088867e+00 -8.669103384017944336e-01 1.365691184997558594e+00
2.984000000000000000e+03 2.469703674316406250e+01 1.850137114524841309e+00 3.021143376827239990e-01 4.429812356829643250e-02 1.039237380027770996e-01 1.369004994630813599e-01
2.985000000000000000e+03 2.531791687011718750e+01 1.050709366798400879e+00 1.478301174938678741e-02 1.876406967639923096e-01 6.072711572051048279e-02 2.224550396203994751e-01
2.986000000000000000e+03 7.103145599365234375e+01 1.200704383850097656e+01 -1.930916309356689453e+00 -4.942873492836952209e-02 -5.941035151481628418e-01 7.747225761413574219e-01
2.987000000000000000e+03 7.153569793701171875e+01 1.136363124847412109e+01 -2.543306350708007812e+00 -1.565808802843093872e-01 -8.099661469459533691e-01 7.715533971786499023e-01
2.988000000000000000e+03 7.199327850341796875e+01 1.168281555175781250e+01 -2.012983083724975586e+00 9.843456000089645386e-02 -5.743645429611206055e-01 5.556545257568359375e-01
2.989000000000000000e+03 7.232836914062500000e+01 1.119939041137695312e+01 -2.566860675811767578e+00 -1.111010368913412094e-02 -7.733912467956542969e-01 6.307199597358703613e-01
2.990000000000000000e+03 7.310239410400390625e+01 1.103966331481933594e+01 -2.390050411224365234e+00 1.936393976211547852e-01 -6.589233279228210449e-01 3.602270483970642090e-01
2.991000000000000000e+03 7.357908630371093750e+01 1.142359638214111328e+01 -1.570759057998657227e+00 7.783586978912353516e-01 -2.377201169729232788e-01 -1.801374405622482300e-01
2.992000000000000000e+03 7.320671081542968750e+01 1.127584552764892578e+01 -1.963319897651672363e+00 3.884761035442352295e-01 -4.724531173706054688e-01 1.805179119110107422e-01
2.993000000000000000e+03 7.390319061279296875e+01 1.091293048858642578e+01 -1.976773977279663086e+00 6.877301335334777832e-01 -3.867131769657135010e-01 -1.111983060836791992e-01
2.994000000000000000e+03 7.397253417968750000e+01 1.124970436096191406e+01 -1.500948905944824219e+00 1.009432554244995117e+00 -1.474549025297164917e-01 -3.771963119506835938e-01
2.995000000000000000e+03 7.436952972412109375e+01 1.120756053924560547e+01 -1.293855905532836914e+00 1.415004253387451172e+00 3.634451329708099365e-02 -7.378045320510864258e-01
2.996000000000000000e+03 7.509979248046875000e+01 1.064006900787353516e+01 -1.286744952201843262e+00 1.972974181175231934e+00 2.058687657117843628e-01 -1.272650003433227539e+00
2.997000000000000000e+03 7.633678436279296875e+01 1.072557640075683594e+01 -1.003102421760559082e+00 6.653731822967529297e+00 1.695188879966735840e+00 -3.553574562072753906e+00
2.998000000000000000e+03 7.741939544677734375e+01 1.046082401275634766e+01 -2.673150300979614258e+00 1.390671157836914062e+01 3.370068311691284180e+00 -3.254406213760375977e+00
2.999000000000000000e+03 7.786555480957031250e+01 1.012673377990722656e+01 -2.864041805267333984e+00 1.807139778137207031e+01 4.562206745147705078e+00 -8.409188985824584961e-01
3.000000000000000000e+03 1.560747814178466797e+01 -3.328280448913574219e+00 1.891383342444896698e-02 -1.692372257821261883e-03 5.166438408195972443e-03 -1.877185702323913574e-02
3.001000000000000000e+03 1.316094970703125000e+01 -2.747376918792724609e+00 1.552033238112926483e-02 -1.950291101820766926e-03 4.071012139320373535e-03 -5.173970013856887817e-03
3.002000000000000000e+03 7.652837371826171875e+01 6.254909992218017578e+00 -1.645475029945373535e-01 9.183030128479003906e+00 2.705544948577880859e+00 3.053787231445312500e+00
3.003000000000000000e+03 3.125837326049804688e+01 9.977427124977111816e-01 -8.081867098808288574e-01 -8.893889784812927246e-01 -5.092726945877075195e-01 -7.210229039192199707e-01
3.004000000000000000e+03 3.182886838912963867e+00 -2.976784229278564453e+00 3.940310329198837280e-03 1.781785860657691956e-03 1.716628787107765675e-03 7.197349332273006439e-03
3.005000000000000000e+03 2.774435234069824219e+01 2.631998658180236816e-01 -5.153526663780212402e-01 2.864399254322052002e-01 -6.867381930351257324e-02 1.509481519460678101e-01
3.006000000000000000e+03 2.722436714172363281e+01 1.249369144439697266e+01 -1.312363240867853165e-02 -2.520323917269706726e-02 -1.149806194007396698e-02 -9.778357110917568207e-03
3.007000000000000000e+03 7.686483860015869141e+00 -3.475821685791015625e+01 2.262603119015693665e-02 -1.944016367197036743e-01 -5.153268203139305115e-02 -5.109126865863800049e-02
3.008000000000000000e+03 3.513526916503906250e+01 3.838440179824829102e+00 -1.083514839410781860e-01 -1.796840317547321320e-02 -3.789596632122993469e-02 -1.538506746292114258e-01
3.009000000000000000e+03 1.680115890502929688e+01 3.523936843872070312e+01 4.323922842741012573e-02 -1.042740643024444580e-01 -1.831045188009738922e-02 4.844370111823081970e-02
3.010000000000000000e+03 1.978691482543945312e+01 6.870803356170654297e+00 -8.520929142832756042e-03 4.178422037512063980e-03 -1.302752294577658176e-03 -4.292343801353126764e-04
3.011000000000000000e+03 2.343116760253906250e+01 7.102780342102050781e+00 -1.642095856368541718e-02 3.038554277736693621e-04 -4.835130646824836731e-03 -8.895946666598320007e-03
3.012000000000000000e+03 7.551969909667968750e+01 1.120082473754882812e+01 -8.107342720031738281e-01 3.996211528778076172e+00 9.556431770324707031e-01 -2.208323955535888672e+00
3.013000000000000000e+03 7.313620758056640625e+01 1.167394351959228516e+01 -1.546854019165039062e+00 6.222359538078308105e-01 -2.773854136466979980e-01 -2.776986174285411835e-02
3.014000000000000000e+03 7.288908386230468750e+01 1.151381778717041016e+01 -1.792796730995178223e+00 4.138427972793579102e-01 -4.136861860752105713e-01 1.735594272613525391e-01
3.015000000000000000e+03 7.273284149169921875e+01 1.131899929046630859e+01 -2.166738986968994141e+00 1.625789850950241089e-01 -6.012479662895202637e-01 4.214549362659454346e-01
3.016000000000000000e+03 7.258196258544921875e+01 1.138649559020996094e+01 -2.134716749191284180e+00 1.586654037237167358e-01 -5.928154587745666504e-01 4.265095591545104980e-01
3.017000000000000000e+03 7.220720672607421875e+01 1.158892631530761719e+01 -2.058217287063598633e+00 1.109810695052146912e-01 -5.841708779335021973e-01 4.794595241546630859e-01
3.018000000000000000e+03 7.184342956542968750e+01 1.220501327514648438e+01 -1.521262764930725098e+00 2.482186406850814819e-01 -3.819132447242736816e-01 4.383745193481445312e-01
3.019000000000000000e+03 7.762705993652343750e+01 3.693299865722656250e+01 4.514557495713233948e-02 4.745439529418945312e+00 1.437175512313842773e+00 -1.653583943843841553e-01
3.020000000000000000e+03 2.743259048461914062e+01 -5.684982299804687500e+00 8.207155019044876099e-02 -6.003868579864501953e-01 -1.554945856332778931e-01 -6.535575389862060547e-01
3.021000000000000000e+03 7.734263610839843750e+01 1.128325176239013672e+01 -1.989068150520324707e+00 1.153932762145996094e+01 2.865077733993530273e+00 -2.407681941986083984e+00
3.022000000000000000e+03 7.494452667236328125e+01 1.124967765808105469e+01 -9.256684780120849609e-01 2.600303649902343750e+00 5.023905038833618164e-01 -1.504567503929138184e+00
3.023000000000000000e+03 7.401280975341796875e+01 1.151947498321533203e+01 -1.232653617858886719e+00 1.206518769264221191e+00 -7.840443402528762817e-03 -6.320173144340515137e-01
3.024000000000000000e+03 2.277963256835937500e+01 7.648988246917724609e+00 -1.302844472229480743e-02 1.175422105006873608e-03 -3.555906936526298523e-03 -7.597602438181638718e-03
3.025000000000000000e+03 7.714636230468750000e+01 1.175190734863281250e+01 -1.430520176887512207e+00 1.063972091674804688e+01 2.762760162353515625e+00 -2.432667016983032227e+00
3.026000000000000000e+03 2.993216133117675781e+01 -1.146536731719970703e+01 -6.556952744722366333e-02 1.493141949176788330e-01 2.512339875102043152e-02 5.474854633212089539e-02
3.027000000000000000e+03 3.383778333663940430e+00 -2.939480590820312500e+01 5.003120750188827515e-03 -1.623038202524185181e-01 -4.719021171331405640e-02 -4.065080732107162476e-02
3.028000000000000000e+03 3.919256448745727539e+00 -3.021698760986328125e+01 6.504786200821399689e-03 -1.706026345491409302e-01 -4.922935739159584045e-02 -4.486374184489250183e-02
3.029000000000000000e+03 5.013756179809570312e+01 2.540777683258056641e+00 -7.285535335540771484e-01 1.245153695344924927e-01 -1.812114417552947998e-01 -1.076723784208297729e-01
3.030000000000000000e+03 4.278924942016601562e+01 -6.598754405975341797e+00 2.603698074817657471e-01 -6.819493174552917480e-01 -1.264738440513610840e-01 -4.555376768112182617e-01
3.031000000000000000e+03 4.575724792480468750e+01 4.490981698036193848e-01 -7.446022629737854004e-01 -1.759681403636932373e-01 -2.761711180210113525e-01 -4.706571698188781738e-01
3.032000000000000000e+03 7.702393341064453125e+01 2.263319492340087891e+00 2.010235190391540527e-01 9.994689941406250000e+00 3.058713912963867188e+00 4.678653776645660400e-01
3.033000000000000000e+03 6.995300292968750000e+00 4.135528564453125000e+01 1.261675264686346054e-02 -6.863131374120712280e-02 -1.680436916649341583e-02 3.855986753478646278e-03
3.034000000000000000e+03 6.878020763397216797e+00 3.896640396118164062e+01 9.241923689842224121e-03 -6.447510421276092529e-02 -1.656995341181755066e-02 1.155835669487714767e-02
3.035000000000000000e+03 4.573628425598144531e+00 -5.669352531433105469e+00 -1.667643664404749870e-03 7.114654872566461563e-04 -2.868534647859632969e-04 8.480187505483627319e-03
3.036000000000000000e+03 9.811326980590820312e+00 -3.009424972534179688e+01 2.754519507288932800e-02 -1.731579899787902832e-01 -4.368383809924125671e-02 -8.574989438056945801e-02
3.037000000000000000e+03 4.454953384399414062e+01 -1.834729957580566406e+01 -2.546590566635131836e-01 -3.188545117154717445e-03 -7.735428214073181152e-02 3.068126924335956573e-02
3.038000000000000000e+03 7.677114105224609375e+01 5.941472053527832031e+00 -9.309032559394836426e-01 1.068517780303955078e+01 2.926282405853271484e+00 2.674367904663085938e+00
3.039000000000000000e+03 7.708419036865234375e+01 1.248369789123535156e+01 -6.996802687644958496e-01 9.561540603637695312e+00 2.658558130264282227e+00 -1.974056124687194824e+00
3.040000000000000000e+03 7.679613494873046875e+01 1.155233573913574219e+01 -1.442890882492065430e+00 9.166292190551757812e+00 2.317020177841186523e+00 -2.658273458480834961e+00
3.041000000000000000e+03 7.271004486083984375e+01 1.174799251556396484e+01 -1.625244498252868652e+00 4.293364584445953369e-01 -3.587724268436431885e-01 2.244674861431121826e-01
3.042000000000000000e+03 5.670317077636718750e+01 -7.079110622406005859e+00 6.204797029495239258e-01 -3.354056477546691895e-01 8.552221953868865967e-02 -7.584023475646972656e-02
3.043000000000000000e+03 7.702690124511718750e+01 3.819295644760131836e+00 8.312382698059082031e-01 1.063749408721923828e+01 3.440619707107543945e+00 1.150062918663024902e+00
3.044000000000000000e+03 7.608007049560546875e+01 1.120975589752197266e+01 -9.068734645843505859e-01 5.991575717926025391e+00 1.525410771369934082e+00 -2.975420236587524414e+00
3.045000000000000000e+03 2.815760040283203125e+01 -5.104715824127197266e+00 2.401454001665115356e-01 -4.360760450363159180e-01 -5.877918750047683716e-02 -7.642809748649597168e-01
3.046000000000000000e+03 6.073317337036132812e+01 -6.314654827117919922e+00 4.813237190246582031e-01 4.864896237850189209e-01 2.903439998626708984e-01 4.668414294719696045e-01
3.047000000000000000e+03 7.491044616699218750e+01 1.151918220520019531e+01 -7.232789397239685059e-01 2.793430805206298828e+00 6.210455298423767090e-01 -1.510639905929565430e+00
3.048000000000000000e+03 7.404752349853515625e+01 1.174682998657226562e+01 -8.976740837097167969e-01 1.515023589134216309e+00 1.852048635482788086e-01 -7.500823736190795898e-01
3.049000000000000000e+03 7.378635406494140625e+01 1.213104724884033203e+01 -8.709826469421386719e-01 1.495759129524230957e+00 1.874329447746276855e-01 -7.253058552742004395e-01
3.050000000000000000e+03 7.292886352539062500e+01 1.201454925537109375e+01 -1.282997965812683105e+00 7.038351893424987793e-01 -1.737488210201263428e-01 -6.202279776334762573e-02
3.051000000000000000e+03 7.584950256347656250e+01 1.161580181121826172e+01 -6.941738724708557129e-01 5.538361072540283203e+00 1.453256249427795410e+00 -2.506724596023559570e+00
3.052000000000000000e+03 7.516464996337890625e+01 1.193138027191162109e+01 -4.315022230148315430e-01 3.829380512237548828e+00 1.019363522529602051e+00 -1.916649699211120605e+00
3.053000000000000000e+03 4.573104095458984375e+01 -1.864211463928222656e+01 -2.311785072088241577e-01 1.473238021135330200e-01 -2.515640854835510254e-02 -1.133567094802856445e-02
3.054000000000000000e+03 4.057075500488281250e+00 -3.127262115478515625e+01 5.830291658639907837e-03 -1.798013746738433838e-01 -5.219132453203201294e-02 -4.187500849366188049e-02
3.055000000000000000e+03 4.976576805114746094e+00 -2.983122253417968750e+01 8.344854228198528290e-03 -1.679554283618927002e-01 -4.788317531347274780e-02 -5.153482779860496521e-02
3.056000000000000000e+03 7.271903228759765625e+01 -3.438468933105468750e+01 1.397664397954940796e-01 3.347855806350708008e+00 1.046286702156066895e+00 2.699852585792541504e-01
3.057000000000000000e+03 7.497126770019531250e+01 -5.940282940864562988e-01 -2.864974737167358398e-01 4.913709163665771484e+00 1.388163447380065918e+00 1.548054337501525879e+00
3.058000000000000000e+03 7.656465148925781250e+01 1.181861495971679688e+01 -9.245886802673339844e-01 8.307944297790527344e+00 2.215006828308105469e+00 -2.729262828826904297e+00
3.059000000000000000e+03 4.449606323242187500e+01 1.813673973083496094e+01 -7.595465183258056641e-01 -2.373869530856609344e-02 -2.349855601787567139e-01 3.281625509262084961e-01
3.060000000000000000e+03 6.964155578613281250e+01 4.907714128494262695e-01 -7.456258535385131836e-01 7.225107550621032715e-01 -6.934533361345529556e-03 -1.561672240495681763e-01
3.061000000000000000e+03 7.325438690185546875e+01 1.229332351684570312e+01 -8.492003083229064941e-01 1.124188423156738281e+00 8.249641954898834229e-02 -4.022392928600311279e-01
3.062000000000000000e+03 6.070849227905273438e+01 -1.596741390228271484e+01 -3.030421733856201172e-01 5.535071492195129395e-01 7.513950020074844360e-02 -1.906646043062210083e-01
3.063000000000000000e+03 2.914264678955078125e+01 -1.630806732177734375e+01 -6.474322825670242310e-02 -1.211610287427902222e-01 -5.577127635478973389e-02 6.212391704320907593e-02
3.064000000000000000e+03 2.965225601196289062e+01 -1.485529994964599609e+01 -8.528168499469757080e-02 6.823161616921424866e-03 -2.353755757212638855e-02 1.052936017513275146e-01
3.065000000000000000e+03 6.573657989501953125e+01 2.183462858200073242e+00 -7.959576845169067383e-01 3.558490574359893799e-01 -1.320326030254364014e-01 3.569302856922149658e-01
3.066000000000000000e+03 7.618363189697265625e+01 1.163090991973876953e+01 -8.540248870849609375e-01 6.826762199401855469e+00 1.791821122169494629e+00 -2.772070646286010742e+00
3.067000000000000000e+03 7.586981201171875000e+01 1.201109886169433594e+01 -6.027116179466247559e-01 5.858928203582763672e+00 1.576865077018737793e+00 -2.395254373550415039e+00
3.068000000000000000e+03 7.070842742919921875e+01 1.339762020111083984e+01 -1.122294306755065918e+00 3.535471260547637939e-01 -2.306241542100906372e-01 4.902516305446624756e-01
3.069000000000000000e+03 5.934963607788085938e+01 -1.531251525878906250e+01 -2.316293120384216309e-01 3.151136934757232666e-01 2.504531480371952057e-02 -2.075838148593902588e-01
3.070000000000000000e+03 3.209965896606445312e+01 -1.564276027679443359e+01 -1.440764367580413818e-01 2.682991623878479004e-01 3.726681321859359741e-02 -3.124580020084977150e-03
3.071000000000000000e+03 4.550214004516601562e+01 -2.580081367492675781e+01 1.317207813262939453e-01 1.021424774080514908e-02 4.258050769567489624e-02 -1.569722294807434082e-01
3.072000000000000000e+03 7.361028289794921875e+01 1.255521011352539062e+01 -4.900422096252441406e-01 1.713231444358825684e+00 3.669567704200744629e-01 -7.723371386528015137e-01
3.073000000000000000e+03 7.307154083251953125e+01 1.270630836486816406e+01 -6.864396333694458008e-01 1.205303668975830078e+00 1.556592285633087158e-01 -4.796830415725708008e-01
3.074000000000000000e+03 5.302556610107421875e+01 1.513103485107421875e+01 -1.249098539352416992e+00 1.567712873220443726e-01 -3.276982009410858154e-01 4.546524882316589355e-01
3.075000000000000000e+03 5.229952239990234375e+01 1.562383651733398438e+01 -1.373369812965393066e+00 6.548523157835006714e-02 -3.923653662204742432e-01 4.252602756023406982e-01
3.076000000000000000e+03 7.562710571289062500e+01 -3.044954109191894531e+01 4.656321555376052856e-02 4.024822235107421875e+00 1.221415638923645020e+00 3.039406538009643555e-01
3.077000000000000000e+03 7.608071136474609375e+01 1.328566360473632812e+01 -1.757585406303405762e-01 6.833717346191406250e+00 1.997387766838073730e+00 -2.111552715301513672e+00
3.078000000000000000e+03 7.596318817138671875e+01 1.382694244384765625e+01 2.112788893282413483e-02 6.342063426971435547e+00 1.908957481384277344e+00 -2.019224166870117188e+00
3.079000000000000000e+03 6.056023597717285156e+00 -2.016499710083007812e+01 -8.569292724132537842e-03 -7.855777442455291748e-02 -2.613811939954757690e-02 -6.371893733739852905e-02
3.080000000000000000e+03 7.124373626708984375e+01 1.409628105163574219e+01 -6.554678678512573242e-01 8.455880880355834961e-01 5.703606083989143372e-02 6.926535069942474365e-02
3.081000000000000000e+03 7.102967834472656250e+01 1.600520324707031250e+01 -1.760198026895523071e-01 1.467064499855041504e+00 3.873133957386016846e-01 -5.789644122123718262e-01
3.082000000000000000e+03 9.151355743408203125e+00 1.610585784912109375e+01 -7.635758258402347565e-03 -3.955908119678497314e-03 -3.477500053122639656e-03 3.145611146464943886e-03
3.083000000000000000e+03 1.238788890838623047e+01 -9.916860580444335938e+00 -5.833600088953971863e-02 -1.225950289517641068e-02 -2.117865160107612610e-02 -2.178465388715267181e-02
3.084000000000000000e+03 7.562545776367187500e+01 1.308892440795898438e+01 -1.069360449910163879e-01 5.413265705108642578e+00 1.591898918151855469e+00 -1.997097611427307129e+00
3.085000000000000000e+03 7.211966705322265625e+01 -3.273601770401000977e+00 7.381469011306762695e-02 1.665269374847412109e+00 5.217252373695373535e-01 2.595156729221343994e-01
3.086000000000000000e+03 6.035480022430419922e+00 -2.133823776245117188e+01 -1.173673104494810104e-02 -8.510614186525344849e-02 -2.905286289751529694e-02 -6.759930402040481567e-02
3.087000000000000000e+03 9.906146049499511719e+00 2.358428382873535156e+01 -1.737818308174610138e-02 -2.181895449757575989e-02 -1.175914146006107330e-02 2.894368208944797516e-02
3.088000000000000000e+03 1.050146389007568359e+01 2.219543075561523438e+01 -1.976673305034637451e-02 -1.525586284697055817e-02 -1.050677895545959473e-02 2.518194913864135742e-02
3.089000000000000000e+03 6.520398616790771484e+00 -1.494063472747802734e+01 -2.664957381784915924e-02 -3.615291789174079895e-02 -1.884074695408344269e-02 -4.243213310837745667e-02
3.090000000000000000e+03 7.396508789062500000e+01 1.343288707733154297e+01 -9.165978431701660156e-02 2.609434366226196289e+00 7.553323507308959961e-01 -1.237921476364135742e+00
3.091000000000000000e+03 9.789722442626953125e+00 1.664935684204101562e+01 -1.043843384832143784e-02 -3.985553048551082611e-03 -4.327196162194013596e-03 6.375513039529323578e-03
3.092000000000000000e+03 7.158298492431640625e+01 2.327370643615722656e+01 5.398333668708801270e-01 3.051245927810668945e+00 1.077323794364929199e+00 -1.241070032119750977e+00
3.093000000000000000e+03 7.329148101806640625e+01 -2.987879037857055664e+00 1.242688074707984924e-01 2.828388214111328125e+00 8.857971429824829102e-01 7.136806845664978027e-01
3.094000000000000000e+03 7.158897399902343750e+01 1.441515636444091797e+01 -3.807310461997985840e-01 1.165549993515014648e+00 2.354457080364227295e-01 -2.643034756183624268e-01
3.095000000000000000e+03 2.779478836059570312e+01 -2.430074691772460938e+01 2.665699645876884460e-02 -1.548593342304229736e-01 -3.846070170402526855e-02 -1.385753005743026733e-01
3.096000000000000000e+03 1.052337837219238281e+01 1.823635482788085938e+01 -1.647951267659664154e-02 -4.822263028472661972e-03 -6.390532944351434708e-03 1.111679710447788239e-02
3.097000000000000000e+03 7.574394702911376953e+00 -1.342157745361328125e+01 -3.532084450125694275e-02 -2.818324975669384003e-02 -1.905122771859169006e-02 -3.537375852465629578e-02
3.098000000000000000e+03 8.765886306762695312e+00 -1.348190212249755859e+01 -4.393887519836425781e-02 -3.046715259552001953e-02 -2.232180908322334290e-02 -4.415993764996528625e-02
3.099000000000000000e+03 7.394918823242187500e+01 2.022460746765136719e+01 4.448052048683166504e-01 4.505282878875732422e+00 1.485026478767395020e+00 -1.492592096328735352e+00
3.100000000000000000e+03 6.688410949707031250e+01 9.410024642944335938e+00 -1.327774643898010254e+00 8.288642764091491699e-02 -3.734664618968963623e-01 -5.648950338363647461e-01
3.101000000000000000e+03 6.680336761474609375e+01 8.923933029174804688e+00 -1.138308167457580566e+00 2.615999616682529449e-02 -3.336444497108459473e-01 -7.188864946365356445e-01
3.102000000000000000e+03 6.557222747802734375e+01 9.189819335937500000e+00 -7.263996601104736328e-01 -2.500159442424774170e-01 -2.929246723651885986e-01 -5.924288034439086914e-01
3.103000000000000000e+03 6.576063537597656250e+01 9.911752700805664062e+00 -3.160000741481781006e-01 -1.149474270641803741e-02 -9.824844449758529663e-02 -1.842353641986846924e-01
3.104000000000000000e+03 6.684577178955078125e+01 9.898167610168457031e+00 -1.170441985130310059e+00 4.734520241618156433e-02 -3.369290530681610107e-01 -1.140396073460578918e-01
3.105000000000000000e+03 6.635850524902343750e+01 9.654273986816406250e+00 -8.637340664863586426e-01 4.507414624094963074e-02 -2.455979734659194946e-01 -3.050075769424438477e-01
3.106000000000000000e+03 6.617002105712890625e+01 9.057621955871582031e+00 -8.979193568229675293e-01 6.868842989206314087e-02 -2.487692832946777344e-01 -6.855998039245605469e-01
3.107000000000000000e+03 6.512413787841796875e+01 9.443097114562988281e+00 -2.428299486637115479e-01 -3.213678896427154541e-01 -1.692593544721603394e-01 -2.506197988986968994e-01
3.108000000000000000e+03 7.049343872070312500e+01 9.738075256347656250e+00 -5.200615406036376953e+00 -1.699371784925460815e-01 -1.611165761947631836e+00 6.660237312316894531e-01
3.109000000000000000e+03 7.319953918457031250e+01 9.089578628540039062e+00 -2.098092460632324219e+01 -2.307891368865966797e+00 -6.986644744873046875e+00 8.109504580497741699e-01
3.110000000000000000e+03 7.629328918457031250e+01 8.312787055969238281e+00 -5.146576881408691406e+00 -4.835892319679260254e-01 -1.689049839973449707e+00 1.102368712425231934e+00
3.111000000000000000e+03 7.611856079101562500e+01 7.389065265655517578e+00 1.357177376747131348e+00 2.401885747909545898e+00 1.127718925476074219e+00 1.441723585128784180e+00
3.112000000000000000e+03 7.799158477783203125e+01 7.339807987213134766e+00 -2.943961620330810547e+00 2.192117309570312500e+01 5.693163871765136719e+00 3.245240151882171631e-01
3.113000000000000000e+03 7.857337188720703125e+01 7.935396194458007812e+00 5.859568595886230469e+00 2.068044281005859375e+01 7.962003231048583984e+00 -4.601086139678955078e+00
3.114000000000000000e+03 7.862452697753906250e+01 8.564620018005371094e+00 8.953534126281738281e+00 1.736536788940429688e+01 7.895670890808105469e+00 1.418960213661193848e+00
3.115000000000000000e+03 7.856851196289062500e+01 8.910830497741699219e+00 5.067366123199462891e+00 1.880537605285644531e+01 7.161822319030761719e+00 4.109179019927978516e+00
3.116000000000000000e+03 7.543348693847656250e+01 9.172956466674804688e+00 -4.677030086517333984e+00 5.482166539877653122e-03 -1.401464343070983887e+00 7.317296266555786133e-01
3.117000000000000000e+03 7.755327606201171875e+01 9.894216537475585938e+00 -2.917361736297607422e+00 1.781398200988769531e+01 4.468986034393310547e+00 -3.643169879913330078e+00
3.118000000000000000e+03 7.826239776611328125e+01 9.595566749572753906e+00 -3.920845746994018555e+00 2.154085540771484375e+01 5.286003112792968750e+00 1.668043017387390137e+00
3.119000000000000000e+03 7.814241790771484375e+01 7.485277175903320312e+00 -2.496036052703857422e+00 2.511841201782226562e+01 6.786713123321533203e+00 -1.950810074806213379e+00
3.120000000000000000e+03 7.016147613525390625e+01 8.533976554870605469e+00 -8.717280030250549316e-01 5.853134393692016602e-01 -8.592436462640762329e-02 -3.132509589195251465e-01
3.121000000000000000e+03 7.019364166259765625e+01 8.747378349304199219e+00 -1.782568454742431641e+00 3.687948882579803467e-01 -4.241320788860321045e-01 -4.194341599941253662e-01
3.122000000000000000e+03 7.077036285400390625e+01 8.439274787902832031e+00 -3.314164876937866211e-01 3.980484902858734131e-01 1.998959481716156006e-02 -1.327385008335113525e-02
3.123000000000000000e+03 7.169031524658203125e+01 9.517558097839355469e+00 -8.727989196777343750e+00 -4.058775305747985840e-01 -2.740159988403320312e+00 1.223662495613098145e+00
3.124000000000000000e+03 7.121487426757812500e+01 8.362371444702148438e+00 4.531799554824829102e-01 1.095219016075134277e+00 4.645197093486785889e-01 1.010518789291381836e+00
3.125000000000000000e+03 7.057385253906250000e+01 8.487508773803710938e+00 -4.840963184833526611e-01 7.330460548400878906e-01 7.468492537736892700e-02 3.291880711913108826e-02
3.126000000000000000e+03 7.159851074218750000e+01 9.319274902343750000e+00 -5.766654491424560547e+00 4.165589511394500732e-01 -1.605028629302978516e+00 4.387676417827606201e-01
3.127000000000000000e+03 7.298952484130859375e+01 9.238804817199707031e+00 -1.009160041809082031e+01 1.950145721435546875e+00 -2.442436218261718750e+00 2.175274610519409180e+00
3.128000000000000000e+03 7.377330017089843750e+01 9.101643562316894531e+00 -1.162625885009765625e+01 -1.478595137596130371e+00 -3.931456089019775391e+00 2.494314908981323242e+00
3.129000000000000000e+03 7.702814483642578125e+01 7.188776493072509766e+00 2.274032980203628540e-01 1.134224414825439453e+01 3.470894336700439453e+00 6.183499813079833984e+00
3.130000000000000000e+03 7.708199310302734375e+01 7.457028388977050781e+00 1.029869437217712402e+00 1.085076618194580078e+01 3.564190864562988281e+00 7.375877380371093750e+00
3.131000000000000000e+03 7.052108764648437500e+01 1.129972171783447266e+01 -2.756716966629028320e+00 -2.840511500835418701e-01 -9.122304320335388184e-01 1.062261700630187988e+00
3.132000000000000000e+03 7.048813629150390625e+01 1.108693313598632812e+01 -3.045939683914184570e+00 -2.962104380130767822e-01 -1.002645015716552734e+00 1.041170001029968262e+00
3.133000000000000000e+03 7.095550537109375000e+01 9.974489212036132812e+00 -5.158220291137695312e+00 -1.992821246385574341e-01 -1.607250690460205078e+00 1.118867874145507812e+00
3.134000000000000000e+03 7.075342559814453125e+01 1.000656223297119141e+01 -5.161483764648437500e+00 -3.301833868026733398e-01 -1.647500157356262207e+00 1.051253557205200195e+00
3.135000000000000000e+03 7.149401092529296875e+01 1.108896923065185547e+01 -2.999607086181640625e+00 -1.817583739757537842e-01 -9.544095993041992188e-01 8.854042291641235352e-01
3.136000000000000000e+03 7.256874084472656250e+01 1.059557247161865234e+01 -3.459312915802001953e+00 -1.331841051578521729e-01 -1.077749133110046387e+00 8.168740272521972656e-01
3.137000000000000000e+03 7.286796569824218750e+01 9.531561851501464844e+00 -5.781772136688232422e+00 -2.552387714385986328e-01 -1.811103343963623047e+00 1.237690567970275879e+00
3.138000000000000000e+03 7.745231628417968750e+01 9.732411384582519531e+00 -2.637320041656494141e+00 1.826650238037109375e+01 4.688754558563232422e+00 -4.792817592620849609e+00
3.139000000000000000e+03 7.759767150878906250e+01 9.645947456359863281e+00 -3.546948909759521484e+00 2.074588584899902344e+01 5.159681320190429688e+00 -3.948961257934570312e+00
3.140000000000000000e+03 7.035739135742187500e+01 1.004573249816894531e+01 -5.553248405456542969e+00 -3.658644855022430420e-01 -1.775733828544616699e+00 8.755940198898315430e-01
3.141000000000000000e+03 7.235160827636718750e+01 9.928470611572265625e+00 -4.954156875610351562e+00 -2.494350075721740723e-01 -1.561077594757080078e+00 1.117421388626098633e+00
3.142000000000000000e+03 7.321559143066406250e+01 9.931350708007812500e+00 -4.594720363616943359e+00 -1.731268465518951416e-01 -1.430354118347167969e+00 1.019936084747314453e+00
3.143000000000000000e+03 7.273795318603515625e+01 9.805303573608398438e+00 -5.103967189788818359e+00 -2.481347024440765381e-01 -1.605630636215209961e+00 1.169407367706298828e+00
3.144000000000000000e+03 7.424224090576171875e+01 9.317480087280273438e+00 -5.816007137298583984e+00 -3.165219128131866455e-01 -1.839758753776550293e+00 1.229297041893005371e+00
3.145000000000000000e+03 7.480308532714843750e+01 1.042915821075439453e+01 -1.972173333168029785e+00 1.102276086807250977e+00 -2.609691321849822998e-01 -5.952963232994079590e-01
3.146000000000000000e+03 7.594099426269531250e+01 8.912223815917968750e+00 -4.856467723846435547e+00 -2.249898575246334076e-02 -1.463690042495727539e+00 7.743195295333862305e-01
3.147000000000000000e+03 7.633634948730468750e+01 9.123385429382324219e+00 -1.439067959785461426e+00 1.046404957771301270e+00 -1.177989095449447632e-01 -1.277137756347656250e+00
3.148000000000000000e+03 7.676810455322265625e+01 9.157200813293457031e+00 1.158953309059143066e+00 4.058788776397705078e+00 1.565322637557983398e+00 -4.407739639282226562e+00
3.149000000000000000e+03 7.634017944335937500e+01 8.851170539855957031e+00 -3.687786102294921875e+00 1.834525018930435181e-01 -1.051300168037414551e+00 2.520381808280944824e-01
3.150000000000000000e+03 7.654425048828125000e+01 8.791111946105957031e+00 -2.989797592163085938e+00 -1.541780531406402588e-01 -9.431927204132080078e-01 1.202213168144226074e-01
3.151000000000000000e+03 7.846096038818359375e+01 9.135128021240234375e+00 3.123150825500488281e+00 2.200383377075195312e+01 7.538094997406005859e+00 4.230486392974853516e+00
3.152000000000000000e+03 7.773697662353515625e+01 9.826400756835937500e+00 -3.344158411026000977e+00 2.038191795349121094e+01 5.111327648162841797e+00 -1.919177889823913574e+00
3.153000000000000000e+03 7.750814819335937500e+01 9.511960029602050781e+00 -2.566848039627075195e+00 2.034004592895507812e+01 5.331959247589111328e+00 -5.636494636535644531e+00
3.154000000000000000e+03 7.663697052001953125e+01 8.993193626403808594e+00 -3.637712299823760986e-01 1.756450295448303223e+00 4.178037047386169434e-01 -2.185784101486206055e+00
3.155000000000000000e+03 7.650428009033203125e+01 8.558858871459960938e+00 -9.893143653869628906e+00 -6.558796167373657227e-01 -3.164706945419311523e+00 1.569204449653625488e+00
3.156000000000000000e+03 7.675752258300781250e+01 7.757674217224121094e+00 2.416039943695068359e+00 3.198616027832031250e+00 1.684396862983703613e+00 5.060002803802490234e+00
3.157000000000000000e+03 7.777442169189453125e+01 7.298094749450683594e+00 -2.869081258773803711e+00 2.104518127441406250e+01 5.452829837799072266e+00 3.132817983627319336e+00
3.158000000000000000e+03 7.488671875000000000e+01 8.851673126220703125e+00 -1.322353935241699219e+01 -3.174053430557250977e+00 -4.919278144836425781e+00 2.648628473281860352e+00
3.159000000000000000e+03 7.468589019775390625e+01 8.884009361267089844e+00 -1.391518306732177734e+01 6.642468506470322609e-04 -4.174355506896972656e+00 4.500560283660888672e+00
3.160000000000000000e+03 7.462310791015625000e+01 8.586577415466308594e+00 6.789336800575256348e-01 1.612644314765930176e+00 6.874734163284301758e-01 -1.879770874977111816e+00
3.161000000000000000e+03 7.429175567626953125e+01 9.029762268066406250e+00 -1.547285079956054688e+01 -5.001946687698364258e-01 -4.791913509368896484e+00 2.571084499359130859e+00
3.162000000000000000e+03 7.394515991210937500e+01 9.096591949462890625e+00 -1.228570556640625000e+01 3.342031240463256836e-01 -3.585450649261474609e+00 1.785497546195983887e+00
3.163000000000000000e+03 7.357286071777343750e+01 9.149830818176269531e+00 -9.813205718994140625e+00 1.868913769721984863e+00 -2.383287668228149414e+00 3.332274556159973145e-01
3.164000000000000000e+03 7.335818481445312500e+01 9.223780632019042969e+00 -4.383892536163330078e+00 -3.205901682376861572e-01 -1.411344885826110840e+00 -9.647596478462219238e-01
3.165000000000000000e+03 7.208490753173828125e+01 9.428626060485839844e+00 -9.348778724670410156e+00 -9.099129438400268555e-01 -3.077607631683349609e+00 1.204689860343933105e+00
3.166000000000000000e+03 7.128691864013671875e+01 8.673207283020019531e+00 5.808595418930053711e-01 9.333790540695190430e-01 4.542715847492218018e-01 5.047509074211120605e-01
3.167000000000000000e+03 7.114751434326171875e+01 9.017787933349609375e+00 -2.494971036911010742e+00 3.411264419555664062e-01 -6.461533308029174805e-01 -7.202171087265014648e-01
3.168000000000000000e+03 7.066522216796875000e+01 9.347028732299804688e+00 -4.405030727386474609e+00 1.726609468460083008e-01 -1.269710898399353027e+00 -2.955885231494903564e-01
3.169000000000000000e+03 7.094159698486328125e+01 9.631149291992187500e+00 -6.165506362915039062e+00 -3.082225024700164795e-01 -1.942118644714355469e+00 6.541059017181396484e-01
3.170000000000000000e+03 7.031972503662109375e+01 9.800768852233886719e+00 -4.637615203857421875e+00 -1.824215650558471680e-01 -1.446011066436767578e+00 7.575000524520874023e-01
3.171000000000000000e+03 7.032348632812500000e+01 9.610103607177734375e+00 -4.437569141387939453e+00 1.541001647710800171e-01 -1.285040736198425293e+00 -1.778765209019184113e-02
3.172000000000000000e+03 7.723274230957031250e+01 7.129866600036621094e+00 -4.180271625518798828e-01 1.315944099426269531e+01 3.822424173355102539e+00 5.542504310607910156e+00
3.173000000000000000e+03 7.750136566162109375e+01 7.346895694732666016e+00 -2.540462970733642578e+00 1.987926101684570312e+01 5.201639652252197266e+00 6.611554622650146484e+00
3.174000000000000000e+03 7.728286743164062500e+01 7.379616737365722656e+00 -8.058766126632690430e-01 1.629089927673339844e+01 4.645506858825683594e+00 6.587160587310791016e+00
3.175000000000000000e+03 7.877640533447265625e+01 8.131068229675292969e+00 2.921084880828857422e+00 1.775842475891113281e+01 6.203853130340576172e+00 -2.795729875564575195e+00
3.176000000000000000e+03 7.663372802734375000e+01 7.927118301391601562e+00 8.086498975753784180e-01 1.431534051895141602e+00 6.720551848411560059e-01 3.725348949432373047e+00
3.177000000000000000e+03 7.878396606445312500e+01 7.848844051361083984e+00 2.262721776962280273e+00 1.644710540771484375e+01 5.612947940826416016e+00 -4.804162502288818359e+00
3.178000000000000000e+03 7.759626770019531250e+01 7.118993759155273438e+00 -2.709014892578125000e+00 1.927025985717773438e+01 4.968373298645019531e+00 4.076236248016357422e+00
3.179000000000000000e+03 7.851826477050781250e+01 7.720947265625000000e+00 5.151711702346801758e-01 1.834933853149414062e+01 5.659352779388427734e+00 -3.243107318878173828e+00
3.180000000000000000e+03 7.650236511230468750e+01 8.339731216430664062e+00 -5.448269844055175781e+00 1.012184424325823784e-03 -1.634177327156066895e+00 1.367002248764038086e+00
3.181000000000000000e+03 7.610898590087890625e+01 8.611432075500488281e+00 -9.390218734741210938e+00 -4.767474234104156494e-01 -2.960089921951293945e+00 1.633008480072021484e+00
3.182000000000000000e+03 7.641252899169921875e+01 7.429622173309326172e+00 1.968576908111572266e+00 3.587666988372802734e+00 1.666873216629028320e+00 3.205733060836791992e+00
3.183000000000000000e+03 7.690449523925781250e+01 7.591388702392578125e+00 1.936004877090454102e+00 7.483070373535156250e+00 2.825722455978393555e+00 6.736726284027099609e+00
3.184000000000000000e+03 7.837099456787109375e+01 7.571441173553466797e+00 -1.979696631431579590e+00 2.116425895690917969e+01 5.755368232727050781e+00 -2.417039394378662109e+00
3.185000000000000000e+03 7.679868316650390625e+01 1.003821945190429688e+01 -1.090135574340820312e+00 9.137347221374511719e+00 2.414163589477539062e+00 -4.897285461425781250e+00
3.186000000000000000e+03 7.736934661865234375e+01 9.941662788391113281e+00 -2.646539688110351562e+00 1.580236530303955078e+01 3.946747541427612305e+00 -4.756121158599853516e+00
3.187000000000000000e+03 7.769033050537109375e+01 9.523921966552734375e+00 -3.674645662307739258e+00 2.332950019836425781e+01 5.896456718444824219e+00 -3.351503133773803711e+00
3.188000000000000000e+03 7.582384490966796875e+01 1.021142387390136719e+01 -1.050125598907470703e+00 3.131999015808105469e+00 6.245620250701904297e-01 -2.347205162048339844e+00
3.189000000000000000e+03 7.859960937500000000e+01 8.727894783020019531e+00 7.372903823852539062e+00 1.992132568359375000e+01 8.188268661499023438e+00 2.728222846984863281e+00
3.190000000000000000e+03 7.601456451416015625e+01 9.990416526794433594e+00 -1.004686355590820312e+00 3.426302194595336914e+00 7.264847159385681152e-01 -2.611692190170288086e+00
3.191000000000000000e+03 7.794179534912109375e+01 9.652614593505859375e+00 -4.326587677001953125e+00 2.249127960205078125e+01 5.449407577514648438e+00 -6.390064358711242676e-01
3.192000000000000000e+03 7.718009185791015625e+01 9.977881431579589844e+00 -1.780895829200744629e+00 1.364851856231689453e+01 3.560286998748779297e+00 -4.670400142669677734e+00
3.193000000000000000e+03 7.729578399658203125e+01 9.641569137573242188e+00 -1.968489646911621094e+00 1.620092010498046875e+01 4.269729137420654297e+00 -5.913012504577636719e+00
3.194000000000000000e+03 7.023458099365234375e+01 8.952970504760742188e+00 -1.982446432113647461e+00 1.506840139627456665e-01 -5.495287179946899414e-01 -5.124024152755737305e-01
3.195000000000000000e+03 7.096081542968750000e+01 8.390843391418457031e+00 6.103568077087402344e-01 6.399228572845458984e-01 3.750838935375213623e-01 7.226161956787109375e-01
3.196000000000000000e+03 7.134310150146484375e+01 9.873996734619140625e+00 -5.250164985656738281e+00 -2.174728661775588989e-01 -1.640291333198547363e+00 1.150632262229919434e+00
3.197000000000000000e+03 7.207577514648437500e+01 1.097682762145996094e+01 -3.031479597091674805e+00 -1.483368724584579468e-01 -9.539449810981750488e-01 7.780331969261169434e-01
3.198000000000000000e+03 7.427294158935546875e+01 1.052611827850341797e+01 -2.324582099914550781e+00 6.320044398307800293e-01 -5.077732801437377930e-01 -8.279031515121459961e-02
3.199000000000000000e+03 7.305558013916015625e+01 9.493073463439941406e+00 -5.816271305084228516e+00 -2.675214111804962158e-01 -1.825137853622436523e+00 1.238491177558898926e+00
3.200000000000000000e+03 7.319636535644531250e+01 1.041976451873779297e+01 -3.461728096008300781e+00 -2.740433998405933380e-02 -1.046739697456359863e+00 7.280099987983703613e-01
3.201000000000000000e+03 7.613671875000000000e+01 8.882011413574218750e+00 -4.350754737854003906e+00 5.613525211811065674e-02 -1.288385748863220215e+00 5.361816287040710449e-01
3.202000000000000000e+03 7.188152313232421875e+01 1.101049709320068359e+01 -2.994071960449218750e+00 -1.400530636310577393e-01 -9.402375221252441406e-01 8.420303463935852051e-01
3.203000000000000000e+03 7.145890808105468750e+01 1.085564136505126953e+01 -3.376420974731445312e+00 -2.754392921924591064e-01 -1.095558047294616699e+00 9.066026806831359863e-01
3.204000000000000000e+03 7.403361511230468750e+01 9.359879493713378906e+00 -5.833966255187988281e+00 -2.596992254257202148e-01 -1.828099727630615234e+00 1.208300590515136719e+00
3.205000000000000000e+03 7.451928710937500000e+01 1.035082244873046875e+01 -2.459586143493652344e+00 6.749767065048217773e-01 -5.353828072547912598e-01 -1.522886306047439575e-01
3.206000000000000000e+03 7.602079772949218750e+01 1.018978881835937500e+01 -8.678306937217712402e-01 3.910736322402954102e+00 9.128717184066772461e-01 -2.778988838195800781e+00
3.207000000000000000e+03 7.406609344482421875e+01 1.053156185150146484e+01 -2.502152442932128906e+00 4.449300169944763184e-01 -6.171666979789733887e-01 9.968873858451843262e-02
3.208000000000000000e+03 7.359516143798828125e+01 1.034279823303222656e+01 -3.279679536819458008e+00 4.018311575055122375e-02 -9.718489050865173340e-01 6.106752157211303711e-01
3.209000000000000000e+03 7.539544677734375000e+01 1.024767589569091797e+01 -1.508514285087585449e+00 1.944158792495727539e+00 1.306933462619781494e-01 -1.460747003555297852e+00
3.210000000000000000e+03 7.506665039062500000e+01 1.003875255584716797e+01 -2.319539785385131836e+00 9.710634350776672363e-01 -4.045428931713104248e-01 -5.249083042144775391e-01
3.211000000000000000e+03 7.713174438476562500e+01 9.804396629333496094e+00 -1.704068183898925781e+00 1.309373474121093750e+01 3.416899919509887695e+00 -5.412412643432617188e+00
3.212000000000000000e+03 7.561289978027343750e+01 1.021574020385742188e+01 -1.260516762733459473e+00 2.397966384887695312e+00 3.412348926067352295e-01 -1.854721069335937500e+00
3.213000000000000000e+03 7.129625701904296875e+01 1.111956882476806641e+01 -2.971608638763427734e+00 -2.538517117500305176e-01 -9.676381349563598633e-01 8.754602074623107910e-01
3.214000000000000000e+03 7.244091033935546875e+01 1.038821125030517578e+01 -3.856095790863037109e+00 -1.805774569511413574e-01 -1.211001992225646973e+00 9.425982236862182617e-01
3.215000000000000000e+03 7.173821258544921875e+01 9.780234336853027344e+00 -5.364457607269287109e+00 -2.430254071950912476e-01 -1.682244896888732910e+00 1.193777918815612793e+00
3.216000000000000000e+03 7.259724426269531250e+01 1.025427722930908203e+01 -4.127026081085205078e+00 -1.985142678022384644e-01 -1.297662138938903809e+00 1.000667333602905273e+00
3.217000000000000000e+03 7.227133941650390625e+01 1.094011592864990234e+01 -2.978778839111328125e+00 -7.262849807739257812e-02 -9.154222011566162109e-01 7.467917203903198242e-01
3.218000000000000000e+03 7.239338684082031250e+01 1.067481708526611328e+01 -3.353096961975097656e+00 -1.161586046218872070e-01 -1.040776610374450684e+00 8.385670781135559082e-01
3.219000000000000000e+03 7.246502685546875000e+01 1.089488601684570312e+01 -2.993256092071533203e+00 -6.427872180938720703e-02 -9.172604084014892578e-01 7.072910666465759277e-01
3.220000000000000000e+03 7.324977111816406250e+01 1.070514011383056641e+01 -2.837861537933349609e+00 8.990103751420974731e-02 -8.243881464004516602e-01 5.134860277175903320e-01
3.221000000000000000e+03 7.432961273193359375e+01 1.027532386779785156e+01 -2.751152753829956055e+00 4.311183094978332520e-01 -6.960103511810302734e-01 6.655389815568923950e-02
3.222000000000000000e+03 7.512255859375000000e+01 9.342163085937500000e+00 -4.512532711029052734e+00 -2.689114399254322052e-02 -1.361827135086059570e+00 7.095439434051513672e-01
3.223000000000000000e+03 7.660382843017578125e+01 1.006484794616699219e+01 -8.188949227333068848e-01 7.436958312988281250e+00 1.985419034957885742e+00 -4.386249542236328125e+00
3.224000000000000000e+03 7.678839874267578125e+01 9.828042030334472656e+00 -5.178930759429931641e-01 8.276118278503417969e+00 2.327467679977416992e+00 -5.300401210784912109e+00
3.225000000000000000e+03 7.304828643798828125e+01 1.074126338958740234e+01 -2.872155904769897461e+00 6.233544275164604187e-02 -8.429461121559143066e-01 5.732580423355102539e-01
3.226000000000000000e+03 7.365055847167968750e+01 1.062335395812988281e+01 -2.731031656265258789e+00 2.410125732421875000e-01 -7.470057606697082520e-01 3.366465866565704346e-01
3.227000000000000000e+03 7.345106506347656250e+01 1.066805648803710938e+01 -2.796791076660156250e+00 1.643105149269104004e-01 -7.897441983222961426e-01 4.400282800197601318e-01
3.228000000000000000e+03 7.468399047851562500e+01 1.022336769104003906e+01 -2.514751911163330078e+00 6.879107952117919922e-01 -5.480523705482482910e-01 -2.160194218158721924e-01
3.229000000000000000e+03 7.464197540283203125e+01 9.213269233703613281e+00 -5.861701011657714844e+00 -2.650524079799652100e-01 -1.838026046752929688e+00 1.253086090087890625e+00
3.230000000000000000e+03 7.071405792236328125e+01 1.125346469879150391e+01 -2.878866672515869141e+00 -2.760958373546600342e-01 -9.464887380599975586e-01 1.019028902053833008e+00
3.231000000000000000e+03 7.385439300537109375e+01 1.056589698791503906e+01 -2.662438631057739258e+00 3.383215069770812988e-01 -6.972351670265197754e-01 2.461948841810226440e-01
3.232000000000000000e+03 7.202631378173828125e+01 1.075155830383300781e+01 -3.382829904556274414e+00 -1.771148145198822021e-01 -1.067983388900756836e+00 8.814051151275634766e-01
3.233000000000000000e+03 7.411544036865234375e+01 1.023715496063232422e+01 -3.091198682785034180e+00 2.165205925703048706e-01 -8.624034523963928223e-01 3.433740735054016113e-01
3.234000000000000000e+03 7.519091033935546875e+01 1.031187152862548828e+01 -1.734041333198547363e+00 1.656824827194213867e+00 -2.316494844853878021e-02 -1.130456447601318359e+00
3.235000000000000000e+03 7.090595245361328125e+01 1.120446395874023438e+01 -2.948681831359863281e+00 -3.084369897842407227e-01 -9.771356582641601562e-01 9.128944873809814453e-01
3.236000000000000000e+03 7.591053009033203125e+01 8.639425277709960938e+00 -9.241991043090820312e+00 -2.680880427360534668e-01 -2.853023767471313477e+00 1.721173644065856934e+00
3.237000000000000000e+03 7.250235748291015625e+01 9.270205497741699219e+00 -9.341195106506347656e+00 -1.279124379158020020e+00 -3.186095952987670898e+00 1.448224306106567383e+00
3.238000000000000000e+03 7.178615570068359375e+01 9.257144927978515625e+00 -6.973638534545898438e+00 4.997710138559341431e-02 -2.077098369598388672e+00 -6.145862117409706116e-02
3.239000000000000000e+03 7.506551361083984375e+01 8.798229217529296875e+00 -1.163823032379150391e+01 1.439673662185668945e+00 -3.059566974639892578e+00 3.710319995880126953e+00
3.240000000000000000e+03 7.276883697509765625e+01 9.211300849914550781e+00 -9.645094871520996094e+00 3.973660171031951904e-01 -2.774318695068359375e+00 1.311557531356811523e+00
3.241000000000000000e+03 7.149626159667968750e+01 9.561011314392089844e+00 -8.054965972900390625e+00 -3.762909397482872009e-02 -2.427778720855712891e+00 1.329537034034729004e+00
3.242000000000000000e+03 7.572944641113281250e+01 8.329577445983886719e+00 -5.345293998718261719e+00 -1.187410235404968262e+00 -1.959811210632324219e+00 2.238391399383544922e+00
3.243000000000000000e+03 7.548310852050781250e+01 8.643980979919433594e+00 -9.658300399780273438e+00 -1.490512967109680176e+00 -3.344643831253051758e+00 2.559387445449829102e+00
3.244000000000000000e+03 7.570635223388671875e+01 8.650712966918945312e+00 -9.300707817077636719e+00 -7.471541762351989746e-01 -3.014358520507812500e+00 1.905958533287048340e+00
3.245000000000000000e+03 7.447669982910156250e+01 8.952404975891113281e+00 -1.566206550598144531e+01 -1.673797965049743652e-01 -4.748833656311035156e+00 3.346912145614624023e+00
3.246000000000000000e+03 7.232467651367187500e+01 9.002278327941894531e+00 -1.645247101783752441e+00 5.527817606925964355e-01 -3.277395963668823242e-01 -6.015498936176300049e-02
3.247000000000000000e+03 7.215724182128906250e+01 9.154211044311523438e+00 -6.873042583465576172e+00 -4.499699473381042480e-01 -2.196903705596923828e+00 -4.211639985442161560e-02
3.248000000000000000e+03 7.144475555419921875e+01 9.145963668823242188e+00 -4.829563617706298828e+00 7.564778625965118408e-02 -1.426174640655517578e+00 -8.086695335805416107e-03
3.249000000000000000e+03 7.600071716308593750e+01 8.155026435852050781e+00 -3.353965044021606445e+00 -7.565629482269287109e-01 -1.233158349990844727e+00 1.391874551773071289e+00
3.250000000000000000e+03 7.099462890625000000e+01 9.333835601806640625e+00 -5.068104743957519531e+00 2.781032621860504150e-01 -1.437000393867492676e+00 2.520660758018493652e-01
3.251000000000000000e+03 7.033180999755859375e+01 9.392470359802246094e+00 -3.870394229888916016e+00 2.953032255172729492e-01 -1.072527289390563965e+00 -2.166757583618164062e-01
3.252000000000000000e+03 7.028810119628906250e+01 9.161850929260253906e+00 -3.418296813964843750e+00 2.715235948562622070e-01 -9.440320134162902832e-01 -5.247666835784912109e-01
3.253000000000000000e+03 7.055313110351562500e+01 1.001888847351074219e+01 -5.237139225006103516e+00 -1.718164980411529541e-01 -1.622686624526977539e+00 1.022237539291381836e+00
3.254000000000000000e+03 7.057295989990234375e+01 1.024838638305664062e+01 -4.767423152923583984e+00 -4.075815975666046143e-01 -1.552501440048217773e+00 9.184116721153259277e-01
3.255000000000000000e+03 7.044615173339843750e+01 1.088699150085449219e+01 -3.420530080795288086e+00 -4.137205183506011963e-01 -1.150275111198425293e+00 9.585355520248413086e-01
3.256000000000000000e+03 7.630589294433593750e+01 8.580385208129882812e+00 -9.559162139892578125e+00 -7.870766520500183105e-02 -2.891360998153686523e+00 1.712900996208190918e+00
3.257000000000000000e+03 7.550099945068359375e+01 7.751115798950195312e+00 1.177917361259460449e+00 1.448213458061218262e+00 7.878392338752746582e-01 -8.398337960243225098e-01
3.258000000000000000e+03 7.589190673828125000e+01 7.470396995544433594e+00 1.203793048858642578e+00 1.390379309654235840e+00 7.782517075538635254e-01 2.649399042129516602e-01
3.259000000000000000e+03 7.567119598388671875e+01 7.947303771972656250e+00 6.668120026588439941e-01 -2.803229689598083496e-01 1.159467026591300964e-01 -6.241638660430908203e-01
3.260000000000000000e+03 7.545706939697265625e+01 7.495381832122802734e+00 7.980956435203552246e-01 1.947131395339965820e+00 8.235681056976318359e-01 -1.040803551673889160e+00
3.261000000000000000e+03 7.503462219238281250e+01 8.319414138793945312e+00 1.544452786445617676e+00 1.912931561470031738e+00 1.037215352058410645e+00 -1.246906876564025879e+00
3.262000000000000000e+03 7.551062011718750000e+01 8.248833656311035156e+00 -8.251553177833557129e-01 -1.162342548370361328e+00 -5.962493419647216797e-01 1.027165532112121582e+00
3.263000000000000000e+03 7.166425323486328125e+01 8.733098030090332031e+00 7.799867391586303711e-01 5.754592418670654297e-01 4.066337943077087402e-01 2.415045499801635742e-01
3.264000000000000000e+03 7.168351745605468750e+01 9.025400161743164062e+00 -2.291023015975952148e+00 5.036381483078002930e-01 -5.362154841423034668e-01 6.387122869491577148e-01
3.265000000000000000e+03 7.201011657714843750e+01 8.854650497436523438e+00 2.901182472705841064e-01 -2.292492240667343140e-01 1.826071366667747498e-02 6.463626623153686523e-01
3.266000000000000000e+03 7.663202667236328125e+01 7.229657649993896484e+00 1.392006754875183105e+00 6.256159305572509766e+00 2.294449806213378906e+00 4.267090320587158203e+00
3.267000000000000000e+03 7.682511901855468750e+01 7.219685077667236328e+00 7.427240610122680664e-01 8.285241127014160156e+00 2.708389520645141602e+00 5.593085289001464844e+00
3.268000000000000000e+03 7.645706176757812500e+01 7.244291782379150391e+00 1.123464822769165039e+00 5.105819702148437500e+00 1.868785262107849121e+00 3.683450698852539062e+00
3.269000000000000000e+03 7.633970642089843750e+01 8.037282943725585938e+00 -1.438560843467712402e+00 6.190984696149826050e-02 -4.129953086376190186e-01 1.934769868850708008e+00
3.270000000000000000e+03 7.709934234619140625e+01 9.426241874694824219e+00 6.198617070913314819e-02 1.186531925201416016e+01 3.578191518783569336e+00 -7.114850044250488281e+00
3.271000000000000000e+03 7.867868041992187500e+01 9.221607208251953125e+00 1.842414617538452148e+00 1.790404129028320312e+01 5.923936367034912109e+00 4.934828281402587891e+00
3.272000000000000000e+03 7.307233428955078125e+01 9.703051567077636719e+00 -5.295722484588623047e+00 -2.494771331548690796e-01 -1.663559913635253906e+00 1.194139957427978516e+00
3.273000000000000000e+03 7.324704742431640625e+01 9.466032028198242188e+00 -5.844566822052001953e+00 -2.700518071651458740e-01 -1.834385633468627930e+00 1.249800324440002441e+00
3.274000000000000000e+03 7.114919281005859375e+01 9.916707992553710938e+00 -5.203855991363525391e+00 -2.869502007961273193e-01 -1.647241830825805664e+00 1.110678434371948242e+00
3.275000000000000000e+03 7.501788330078125000e+01 9.106627464294433594e+00 -5.855498313903808594e+00 -2.621845901012420654e-01 -1.835304856300354004e+00 1.217576980590820312e+00
3.276000000000000000e+03 7.211849975585937500e+01 9.945460319519042969e+00 -4.990202426910400391e+00 -2.591250538825988770e-01 -1.574798226356506348e+00 1.141780018806457520e+00
3.277000000000000000e+03 7.160575866699218750e+01 1.013624763488769531e+01 -4.725997924804687500e+00 -2.457970231771469116e-01 -1.491538524627685547e+00 1.112549066543579102e+00
3.278000000000000000e+03 7.202286529541015625e+01 1.053469753265380859e+01 -3.773846387863159180e+00 -2.731232047080993652e-01 -1.214090824127197266e+00 9.775522947311401367e-01
3.279000000000000000e+03 7.363375854492187500e+01 9.414377212524414062e+00 -5.886461257934570312e+00 -2.194866091012954712e-01 -1.831784367561340332e+00 1.237558364868164062e+00
3.280000000000000000e+03 7.574517059326171875e+01 9.156120300292968750e+00 -3.870273590087890625e+00 2.116329967975616455e-01 -1.097592115402221680e+00 3.088097572326660156e-01
3.281000000000000000e+03 7.190786743164062500e+01 9.723494529724121094e+00 -5.488156795501708984e+00 -2.630825638771057129e-01 -1.725371837615966797e+00 1.195036530494689941e+00
3.282000000000000000e+03 7.185476684570312500e+01 1.017905616760253906e+01 -4.574195861816406250e+00 -2.632557749748229980e-01 -1.451235532760620117e+00 1.084766864776611328e+00
3.283000000000000000e+03 7.444638061523437500e+01 9.260832786560058594e+00 -5.825352668762207031e+00 -2.495132088661193848e-01 -1.822459816932678223e+00 1.272426486015319824e+00
3.284000000000000000e+03 7.490699005126953125e+01 9.781959533691406250e+00 -3.243350267410278320e+00 3.456499576568603516e-01 -8.693100810050964355e-01 1.187056303024291992e-01
3.285000000000000000e+03 7.249112701416015625e+01 9.621424674987792969e+00 -5.679183959960937500e+00 -2.418018579483032227e-01 -1.776295781135559082e+00 1.241201162338256836e+00
3.286000000000000000e+03 7.344006347656250000e+01 9.442358970642089844e+00 -5.873454093933105469e+00 -2.694476246833801270e-01 -1.842870593070983887e+00 1.258384943008422852e+00
3.287000000000000000e+03 7.139688110351562500e+01 1.012746429443359375e+01 -4.780062198638916016e+00 -3.000249266624450684e-01 -1.524026155471801758e+00 1.095991969108581543e+00
3.288000000000000000e+03 7.422309875488281250e+01 9.742236137390136719e+00 -4.332835197448730469e+00 -8.243101090192794800e-02 -1.324579834938049316e+00 8.141067624092102051e-01
3.289000000000000000e+03 7.708860015869140625e+01 9.617278099060058594e+00 -7.371782660484313965e-01 1.227925109863281250e+01 3.462621927261352539e+00 -6.432779788970947266e+00
3.290000000000000000e+03 7.158270263671875000e+01 1.042012977600097656e+01 -4.116276264190673828e+00 -2.908326089382171631e-01 -1.322132587432861328e+00 1.015793204307556152e+00
3.291000000000000000e+03 7.658864593505859375e+01 9.822235107421875000e+00 -4.895168542861938477e-01 6.457346439361572266e+00 1.790348887443542480e+00 -4.425973892211914062e+00
3.292000000000000000e+03 7.275785827636718750e+01 1.049420928955078125e+01 -3.562016248703002930e+00 -1.247297450900077820e-01 -1.106023788452148438e+00 8.390399813652038574e-01
3.293000000000000000e+03 7.574696350097656250e+01 9.710967063903808594e+00 -1.812855839729309082e+00 1.482744812965393066e+00 -9.903328865766525269e-02 -1.254309296607971191e+00
3.294000000000000000e+03 7.418280792236328125e+01 9.984458923339843750e+00 -3.683962821960449219e+00 1.256611384451389313e-02 -1.101418972015380859e+00 5.867956876754760742e-01
3.295000000000000000e+03 7.369224548339843750e+01 1.000018787384033203e+01 -4.102543830871582031e+00 -1.139471828937530518e-01 -1.264947295188903809e+00 8.476937413215637207e-01
3.296000000000000000e+03 7.140677642822265625e+01 9.360143661499023438e+00 -5.776908397674560547e+00 -3.104235231876373291e-01 -1.826199531555175781e+00 1.046348437666893005e-01
3.297000000000000000e+03 7.070223999023437500e+01 9.659791946411132812e+00 -5.629915237426757812e+00 -6.758195906877517700e-02 -1.709249138832092285e+00 7.318112850189208984e-01
3.298000000000000000e+03 7.525588989257812500e+01 8.692296981811523438e+00 -1.029517650604248047e+01 -1.462611556053161621e+00 -3.527336359024047852e+00 3.284481525421142578e+00
3.299000000000000000e+03 7.199018096923828125e+01 9.224470138549804688e+00 -6.509856700897216797e+00 7.649270296096801758e-01 -1.723478794097900391e+00 1.491904258728027344e+00
3.300000000000000000e+03 7.114077758789062500e+01 9.634515762329101562e+00 -6.925070285797119141e+00 4.961319565773010254e-01 -1.928681492805480957e+00 9.314954280853271484e-01
3.301000000000000000e+03 7.654468536376953125e+01 8.123763084411621094e+00 -1.754786014556884766e+00 -2.665635384619235992e-02 -5.344327092170715332e-01 1.836530089378356934e+00
3.302000000000000000e+03 7.691317749023437500e+01 9.315562248229980469e+00 1.001178741455078125e+00 8.162047386169433594e+00 2.748967885971069336e+00 -6.312472820281982422e+00
3.303000000000000000e+03 7.609490203857421875e+01 8.343083381652832031e+00 -5.263429641723632812e+00 -3.028048872947692871e-01 -1.669870376586914062e+00 1.354149460792541504e+00
3.304000000000000000e+03 7.626792144775390625e+01 7.633154869079589844e+00 9.991735816001892090e-01 1.727047801017761230e+00 8.178664445877075195e-01 1.984727859497070312e+00
3.305000000000000000e+03 7.036132049560546875e+01 8.503609657287597656e+00 -1.126773238182067871e+00 3.879580199718475342e-01 -2.216445654630661011e-01 -2.254955172538757324e-01
3.306000000000000000e+03 7.558961486816406250e+01 9.584945678710937500e+00 -2.454177856445312500e+00 8.824605345726013184e-01 -4.715151488780975342e-01 -6.640648841857910156e-01
3.307000000000000000e+03 7.382984924316406250e+01 9.383131980895996094e+00 -5.866831302642822266e+00 -2.529118955135345459e-01 -1.835923075675964355e+00 1.207789421081542969e+00
3.308000000000000000e+03 7.339993286132812500e+01 9.962092399597167969e+00 -4.386876106262207031e+00 -1.826072782278060913e-01 -1.370844960212707520e+00 1.001211643218994141e+00
3.309000000000000000e+03 7.291187286376953125e+01 9.751842498779296875e+00 -5.205671310424804688e+00 -2.684026956558227539e-01 -1.642222166061401367e+00 1.175335645675659180e+00
3.310000000000000000e+03 7.189395904541015625e+01 9.925326347351074219e+00 -5.114748954772949219e+00 -2.371092736721038818e-01 -1.605557441711425781e+00 1.148454666137695312e+00
3.311000000000000000e+03 7.676170349121093750e+01 9.479622840881347656e+00 2.662724554538726807e-01 6.796755313873291016e+00 2.118908405303955078e+00 -5.330608844757080078e+00
3.312000000000000000e+03 7.074978637695312500e+01 1.028652000427246094e+01 -4.575161933898925781e+00 -2.468950897455215454e-01 -1.446617126464843750e+00 9.568476080894470215e-01
3.313000000000000000e+03 7.297294616699218750e+01 1.043198776245117188e+01 -3.561741113662719727e+00 -1.129975542426109314e-01 -1.102421641349792480e+00 8.014726638793945312e-01
3.314000000000000000e+03 7.526210784912109375e+01 9.943316459655761719e+00 -2.223192453384399414e+00 1.088998079299926758e+00 -3.402582705020904541e-01 -7.401510477066040039e-01
3.315000000000000000e+03 7.229679107666015625e+01 1.048639965057373047e+01 -3.772361993789672852e+00 -2.181619703769683838e-01 -1.197157144546508789e+00 9.163516759872436523e-01
3.316000000000000000e+03 7.213980865478515625e+01 1.041571140289306641e+01 -3.971998929977416992e+00 -2.403588294982910156e-01 -1.263707280158996582e+00 9.986540079116821289e-01
3.317000000000000000e+03 7.150086975097656250e+01 1.064920806884765625e+01 -3.709577083587646484e+00 -2.389282137155532837e-01 -1.184551596641540527e+00 9.858512878417968750e-01
3.318000000000000000e+03 7.593359375000000000e+01 9.155609130859375000e+00 -3.243268489837646484e+00 3.854242861270904541e-01 -8.573532700538635254e-01 -7.112852483987808228e-02
3.319000000000000000e+03 7.590785980224609375e+01 9.399145126342773438e+00 -2.170011043548583984e+00 1.039987683296203613e+00 -3.390070199966430664e-01 -8.981256484985351562e-01
3.320000000000000000e+03 7.655299377441406250e+01 9.578955650329589844e+00 -1.857781559228897095e-01 5.229607582092285156e+00 1.513148903846740723e+00 -4.228805065155029297e+00
3.321000000000000000e+03 7.621318817138671875e+01 1.015051841735839844e+01 -7.172684669494628906e-01 4.801399707794189453e+00 1.225239396095275879e+00 -3.411842584609985352e+00
3.322000000000000000e+03 7.066719055175781250e+01 1.102620124816894531e+01 -3.185717344284057617e+00 -3.744288086891174316e-01 -1.068043828010559082e+00 9.434648752212524414e-01
3.323000000000000000e+03 7.058571624755859375e+01 1.080899715423583984e+01 -3.553889989852905273e+00 -3.383571207523345947e-01 -1.167674183845520020e+00 1.026545047760009766e+00
3.324000000000000000e+03 7.095423126220703125e+01 8.617457389831542969e+00 -6.845766305923461914e-01 9.370580315589904785e-02 -1.772612482309341431e-01 7.886572182178497314e-02
3.325000000000000000e+03 7.105520629882812500e+01 1.024707126617431641e+01 -4.625339031219482422e+00 -3.030356764793395996e-01 -1.478512406349182129e+00 9.862118363380432129e-01
3.326000000000000000e+03 7.122686767578125000e+01 1.017655849456787109e+01 -4.710164070129394531e+00 -2.370909005403518677e-01 -1.484176516532897949e+00 1.087074637413024902e+00
3.327000000000000000e+03 7.212232971191406250e+01 1.020716953277587891e+01 -4.404113769531250000e+00 -2.416096180677413940e-01 -1.393717050552368164e+00 1.080468654632568359e+00
3.328000000000000000e+03 7.271637725830078125e+01 1.004175949096679688e+01 -4.534363269805908203e+00 -2.576788067817687988e-01 -1.437612533569335938e+00 1.068405270576477051e+00
3.329000000000000000e+03 7.344676208496093750e+01 9.724217414855957031e+00 -5.022408008575439453e+00 -1.976829022169113159e-01 -1.566027283668518066e+00 1.075184941291809082e+00
3.330000000000000000e+03 7.384537506103515625e+01 9.681406021118164062e+00 -4.879950523376464844e+00 -1.833040565252304077e-01 -1.518976449966430664e+00 1.069753885269165039e+00
3.331000000000000000e+03 7.454679870605468750e+01 9.554172515869140625e+00 -4.615977287292480469e+00 -9.570880979299545288e-02 -1.413505911827087402e+00 7.826749682426452637e-01
3.332000000000000000e+03 7.474632263183593750e+01 9.908502578735351562e+00 -3.149804115295410156e+00 3.893971741199493408e-01 -8.281220793724060059e-01 1.200064271688461304e-01
3.333000000000000000e+03 7.404220581054687500e+01 9.677021026611328125e+00 -4.677755832672119141e+00 -1.956119239330291748e-01 -1.462010383605957031e+00 9.712050557136535645e-01
3.334000000000000000e+03 7.364878845214843750e+01 9.715863227844238281e+00 -4.902492523193359375e+00 -2.112661302089691162e-01 -1.534127593040466309e+00 1.068144202232360840e+00
3.335000000000000000e+03 7.352692413330078125e+01 1.009699058532714844e+01 -3.954507589340209961e+00 -9.490428864955902100e-02 -1.214823484420776367e+00 8.320764899253845215e-01
3.336000000000000000e+03 7.557891845703125000e+01 9.143694877624511719e+00 -4.405359745025634766e+00 3.850906342267990112e-02 -1.310055136680603027e+00 5.936193466186523438e-01
3.337000000000000000e+03 7.612365722656250000e+01 9.386458396911621094e+00 -1.318669795989990234e+00 1.579698801040649414e+00 7.830872386693954468e-02 -1.637904167175292969e+00
3.338000000000000000e+03 7.611756134033203125e+01 9.621825218200683594e+00 -1.124049544334411621e+00 2.593273639678955078e+00 4.407671988010406494e-01 -2.382309436798095703e+00
3.339000000000000000e+03 7.058580017089843750e+01 9.078494071960449219e+00 -2.386070489883422852e+00 2.511317729949951172e-01 -6.404815912246704102e-01 -5.082671046257019043e-01
3.340000000000000000e+03 7.058473968505859375e+01 8.734434127807617188e+00 -1.507168650627136230e+00 4.237177670001983643e-01 -3.250352740287780762e-01 -2.966623008251190186e-01
3.341000000000000000e+03 7.043749237060546875e+01 1.069812870025634766e+01 -3.685962438583374023e+00 -3.122649192810058594e-01 -1.199468255043029785e+00 9.739535450935363770e-01
3.342000000000000000e+03 7.084758758544921875e+01 1.095346832275390625e+01 -3.257397651672363281e+00 -3.001650273799896240e-01 -1.067268729209899902e+00 1.000950455665588379e+00
3.343000000000000000e+03 7.104419708251953125e+01 1.087940883636474609e+01 -3.424098968505859375e+00 -3.315795361995697021e-01 -1.126703500747680664e+00 9.461016654968261719e-01
3.344000000000000000e+03 7.109981536865234375e+01 1.115722751617431641e+01 -2.889528274536132812e+00 -2.339219897985458374e-01 -9.370350837707519531e-01 9.292768239974975586e-01
3.345000000000000000e+03 7.125680541992187500e+01 1.084662246704101562e+01 -3.413298130035400391e+00 -2.420684993267059326e-01 -1.096609950065612793e+00 9.605782032012939453e-01
3.346000000000000000e+03 7.042658233642578125e+01 1.048885345458984375e+01 -4.109520435333251953e+00 -3.706754446029663086e-01 -1.344058752059936523e+00 1.028624653816223145e+00
3.347000000000000000e+03 7.074813079833984375e+01 1.069200134277343750e+01 -3.768537998199462891e+00 -3.587680459022521973e-01 -1.238191723823547363e+00 9.796274900436401367e-01
3.348000000000000000e+03 7.038679504394531250e+01 1.026479434967041016e+01 -4.439824104309082031e+00 -3.144199252128601074e-01 -1.426273107528686523e+00 8.824941515922546387e-01
3.349000000000000000e+03 7.062993621826171875e+01 1.045671367645263672e+01 -4.079808712005615234e+00 -3.539005219936370850e-01 -1.330112814903259277e+00 9.881407618522644043e-01
3.350000000000000000e+03 7.122113037109375000e+01 9.445761680603027344e+00 -5.577468872070312500e+00 3.115560114383697510e-01 -1.579773902893066406e+00 4.606622457504272461e-01
3.351000000000000000e+03 7.131376647949218750e+01 9.610818862915039062e+00 -7.649228096008300781e+00 -5.852644443511962891e-01 -2.470347881317138672e+00 1.260624527931213379e+00
3.352000000000000000e+03 7.188580322265625000e+01 9.472332954406738281e+00 -8.749565124511718750e+00 1.862519234418869019e-01 -2.568994045257568359e+00 1.815025806427001953e+00
3.353000000000000000e+03 7.045185089111328125e+01 8.888620376586914062e+00 -2.263418912887573242e+00 4.063191711902618408e-01 -5.571299195289611816e-01 -2.078154236078262329e-01
3.354000000000000000e+03 7.039088439941406250e+01 8.716201782226562500e+00 -1.130651831626892090e+00 4.557492434978485107e-01 -2.024707794189453125e-01 -3.685785233974456787e-01
3.355000000000000000e+03 7.228356933593750000e+01 9.369767189025878906e+00 -9.218913078308105469e+00 5.940743684768676758e-01 -2.587451457977294922e+00 2.064504146575927734e+00
3.356000000000000000e+03 7.195632171630859375e+01 9.042121887207031250e+00 -2.543712854385375977e+00 1.168287992477416992e-01 -7.280652523040771484e-01 -5.166316628456115723e-01
3.357000000000000000e+03 7.316627502441406250e+01 9.248530387878417969e+00 -7.760226726531982422e+00 -3.195986270904541016e+00 -3.286863803863525391e+00 3.893903255462646484e+00
3.358000000000000000e+03 7.348412322998046875e+01 9.060088157653808594e+00 -2.417982864379882812e+01 -4.922090470790863037e-01 -7.401611328125000000e+00 4.929614543914794922e+00
3.359000000000000000e+03 7.395619201660156250e+01 8.931407928466796875e+00 -1.155388450622558594e+01 -7.256528735160827637e-01 -3.683861255645751953e+00 1.549659371376037598e+00
3.360000000000000000e+03 7.417588806152343750e+01 8.919010162353515625e+00 -1.163448905944824219e+01 8.595325052738189697e-02 -3.464560747146606445e+00 5.390728116035461426e-01
3.361000000000000000e+03 7.412672424316406250e+01 9.071603775024414062e+00 -1.381001281738281250e+01 -6.822493076324462891e-01 -4.347678661346435547e+00 2.637303352355957031e+00
3.362000000000000000e+03 7.435894775390625000e+01 8.753097534179687500e+00 -5.614393949508666992e-01 1.392064809799194336e+00 2.491876333951950073e-01 1.359888166189193726e-01
3.363000000000000000e+03 7.163492584228515625e+01 1.081112670898437500e+01 -3.417312383651733398e+00 -2.056673616170883179e-01 -1.086893916130065918e+00 9.427373409271240234e-01
3.364000000000000000e+03 7.168878173828125000e+01 1.105070114135742188e+01 -2.987829208374023438e+00 -2.153391689062118530e-01 -9.609504938125610352e-01 8.195536136627197266e-01
3.365000000000000000e+03 7.182535552978515625e+01 1.075814914703369141e+01 -3.432065248489379883e+00 -2.398518323898315430e-01 -1.101575136184692383e+00 8.948887586593627930e-01
3.366000000000000000e+03 7.221468353271484375e+01 1.072968101501464844e+01 -3.384773492813110352e+00 -1.687702238559722900e-01 -1.066063046455383301e+00 8.546808362007141113e-01
3.367000000000000000e+03 7.155093383789062500e+01 9.843539237976074219e+00 -5.313571929931640625e+00 -2.884413003921508789e-01 -1.680603981018066406e+00 1.148525834083557129e+00
3.368000000000000000e+03 7.209788513183593750e+01 9.701656341552734375e+00 -5.557130813598632812e+00 -2.461234629154205322e-01 -1.740976333618164062e+00 1.202740550041198730e+00
3.369000000000000000e+03 7.229651641845703125e+01 9.667194366455078125e+00 -5.614958763122558594e+00 -2.907789051532745361e-01 -1.771721243858337402e+00 1.217918038368225098e+00
3.370000000000000000e+03 7.255596160888671875e+01 9.862318038940429688e+00 -4.992828845977783203e+00 -2.503909170627593994e-01 -1.572965979576110840e+00 1.123977780342102051e+00
3.371000000000000000e+03 7.268107604980468750e+01 9.575175285339355469e+00 -5.743709087371826172e+00 -2.697082161903381348e-01 -1.804025292396545410e+00 1.229408621788024902e+00
3.372000000000000000e+03 7.324989318847656250e+01 9.707470893859863281e+00 -5.219749450683593750e+00 -2.433860450983047485e-01 -1.638940691947937012e+00 1.152742743492126465e+00
3.373000000000000000e+03 7.525988006591796875e+01 8.027762413024902344e+00 1.092722296714782715e+00 1.576156973838806152e+00 8.006637692451477051e-01 -1.605706453323364258e+00
3.374000000000000000e+03 7.265700531005859375e+01 1.084207344055175781e+01 -2.950992584228515625e+00 -2.544995024800300598e-02 -8.929327130317687988e-01 6.806983947753906250e-01
3.375000000000000000e+03 7.285071563720703125e+01 1.078716564178466797e+01 -2.913904666900634766e+00 -1.818918436765670776e-02 -8.796281814575195312e-01 6.116092205047607422e-01
3.376000000000000000e+03 7.340190887451171875e+01 1.039484691619873047e+01 -3.349442005157470703e+00 -6.582207977771759033e-03 -1.006807208061218262e+00 6.626062393188476562e-01
3.377000000000000000e+03 7.378485870361328125e+01 1.026537609100341797e+01 -3.270402669906616211e+00 8.241503685712814331e-02 -9.563962817192077637e-01 5.508580803871154785e-01
3.378000000000000000e+03 7.445885467529296875e+01 1.052414226531982422e+01 -2.187683582305908203e+00 7.760390043258666992e-01 -4.234933555126190186e-01 -2.755264043807983398e-01
3.379000000000000000e+03 7.462644195556640625e+01 1.049251365661621094e+01 -2.020028591156005859e+00 9.641909003257751465e-01 -3.167513012886047363e-01 -4.529140293598175049e-01
3.380000000000000000e+03 7.488076019287109375e+01 1.013057708740234375e+01 -2.414686679840087891e+00 7.754607796669006348e-01 -4.917677938938140869e-01 -3.648391962051391602e-01
3.381000000000000000e+03 7.499551391601562500e+01 1.037029552459716797e+01 -1.912467002868652344e+00 1.408430933952331543e+00 -1.512108296155929565e-01 -8.396988511085510254e-01
3.382000000000000000e+03 7.526357269287109375e+01 9.569598197937011719e+00 -3.309270620346069336e+00 3.704133331775665283e-01 -8.816571831703186035e-01 5.307599529623985291e-02
3.383000000000000000e+03 7.563794708251953125e+01 9.930409431457519531e+00 -1.626144170761108398e+00 1.786494374275207520e+00 4.810503497719764709e-02 -1.496708989143371582e+00
3.384000000000000000e+03 7.583660888671875000e+01 9.977296829223632812e+00 -1.144940257072448730e+00 2.699696302413940430e+00 4.664268195629119873e-01 -2.176925420761108398e+00
3.385000000000000000e+03 7.636688995361328125e+01 9.866540908813476562e+00 -5.737699866294860840e-01 4.833368301391601562e+00 1.277879476547241211e+00 -3.676373481750488281e+00
3.386000000000000000e+03 7.617804718017578125e+01 9.941325187683105469e+00 -7.922447919845581055e-01 3.914226293563842773e+00 9.365944862365722656e-01 -3.069241523742675781e+00
3.387000000000000000e+03 7.640660095214843750e+01 1.010359191894531250e+01 -7.563291192054748535e-01 5.935565948486328125e+00 1.553771018981933594e+00 -3.852970361709594727e+00
3.388000000000000000e+03 7.695775604248046875e+01 9.834164619445800781e+00 -9.799419641494750977e-01 1.121444225311279297e+01 3.070350170135498047e+00 -5.530149459838867188e+00
3.389000000000000000e+03 7.698986816406250000e+01 1.001160144805908203e+01 -1.514209508895874023e+00 1.109156703948974609e+01 2.873207092285156250e+00 -5.050205230712890625e+00
3.390000000000000000e+03 7.730839538574218750e+01 9.786700248718261719e+00 -2.050745487213134766e+00 1.537674522399902344e+01 3.997800111770629883e+00 -5.259891986846923828e+00
3.391000000000000000e+03 7.805986785888671875e+01 9.422995567321777344e+00 -2.715820789337158203e+00 2.339893341064453125e+01 6.204933643341064453e+00 1.154140830039978027e+00
3.392000000000000000e+03 7.651647949218750000e+01 9.161721229553222656e+00 -4.081164598464965820e-01 1.949235558509826660e+00 4.623357355594635010e-01 -2.450749397277832031e+00
3.393000000000000000e+03 7.664518737792968750e+01 9.291065216064453125e+00 4.792952239513397217e-01 4.095235347747802734e+00 1.372359275817871094e+00 -4.149081707000732422e+00
3.394000000000000000e+03 7.575084686279296875e+01 8.938034057617187500e+00 -5.242586135864257812e+00 -1.535417884588241577e-01 -1.618838429450988770e+00 9.279540181159973145e-01
3.395000000000000000e+03 7.556473541259765625e+01 8.963304519653320312e+00 -5.536487102508544922e+00 -1.319976449012756348e-01 -1.700545430183410645e+00 1.068015694618225098e+00
3.396000000000000000e+03 7.538167572021484375e+01 9.000490188598632812e+00 -5.720196247100830078e+00 -2.428985536098480225e-01 -1.788928508758544922e+00 1.158442854881286621e+00
3.397000000000000000e+03 7.520064544677734375e+01 9.051473617553710938e+00 -5.805818557739257812e+00 -2.223693728446960449e-01 -1.808456301689147949e+00 1.204897284507751465e+00
3.398000000000000000e+03 7.494650268554687500e+01 9.425909996032714844e+00 -4.453611850738525391e+00 -3.144708275794982910e-02 -1.345517754554748535e+00 7.070627212524414062e-01
3.399000000000000000e+03 7.483161926269531250e+01 9.161153793334960938e+00 -5.869420528411865234e+00 -2.382945567369461060e-01 -1.832314610481262207e+00 1.244921326637268066e+00
3.400000000000000000e+03 7.475736999511718750e+01 9.506432533264160156e+00 -4.455566406250000000e+00 -1.592870987951755524e-02 -1.341448545455932617e+00 7.549575567245483398e-01
3.401000000000000000e+03 7.434012603759765625e+01 9.591397285461425781e+00 -4.692057132720947266e+00 -1.319165974855422974e-01 -1.447192192077636719e+00 8.349617123603820801e-01
3.402000000000000000e+03 7.646456146240234375e+01 7.793224334716796875e+00 1.641381263732910156e+00 1.183516383171081543e+00 8.474692702293395996e-01 2.912521362304687500e+00
3.403000000000000000e+03 7.662559509277343750e+01 7.626053333282470703e+00 1.761606693267822266e+00 3.763117313385009766e+00 1.657417178153991699e+00 4.255696296691894531e+00
3.404000000000000000e+03 7.659156036376953125e+01 7.451685905456542969e+00 1.568724513053894043e+00 4.549470424652099609e+00 1.835458517074584961e+00 4.439523696899414062e+00
3.405000000000000000e+03 7.676619720458984375e+01 7.465969085693359375e+00 1.998260140419006348e+00 6.471033096313476562e+00 2.540787935256958008e+00 5.627771377563476562e+00
3.406000000000000000e+03 7.830954742431640625e+01 7.321117877960205078e+00 -2.681411981582641602e+00 2.106444549560546875e+01 5.514909744262695312e+00 -2.307741880416870117e+00
3.407000000000000000e+03 7.864137268066406250e+01 8.391226768493652344e+00 9.150369644165039062e+00 1.904993247985839844e+01 8.460090637207031250e+00 -5.322826504707336426e-01
3.408000000000000000e+03 7.892209625244140625e+01 8.503536224365234375e+00 5.759864807128906250e+00 1.697092247009277344e+01 6.819236278533935547e+00 7.408060431480407715e-01
3.409000000000000000e+03 7.629745483398437500e+01 7.289014339447021484e+00 1.353166699409484863e+00 3.661143302917480469e+00 1.504293084144592285e+00 2.577211618423461914e+00
3.410000000000000000e+03 7.567343139648437500e+01 7.475632667541503906e+00 6.691752672195434570e-01 1.090133070945739746e+00 5.277925133705139160e-01 -6.632255911827087402e-01
3.411000000000000000e+03 7.878726959228515625e+01 8.839438438415527344e+00 4.936044216156005859e+00 1.820225906372070312e+01 6.941491127014160156e+00 3.398654937744140625e+00
3.412000000000000000e+03 7.731126403808593750e+01 9.488689422607421875e+00 -1.496026873588562012e+00 1.715434646606445312e+01 4.697495460510253906e+00 -6.902942180633544922e+00
3.413000000000000000e+03 7.788263702392578125e+01 9.492136001586914062e+00 -3.642520666122436523e+00 2.450373268127441406e+01 6.258363723754882812e+00 -1.601202726364135742e+00
3.414000000000000000e+03 7.825725555419921875e+01 9.330206871032714844e+00 -4.311243891716003418e-01 2.422895812988281250e+01 7.139350414276123047e+00 3.170864105224609375e+00
3.415000000000000000e+03 7.875068664550781250e+01 8.447702407836914062e+00 8.249105453491210938e+00 1.618809127807617188e+01 7.331159114837646484e+00 6.960687637329101562e-01
3.416000000000000000e+03 7.488090515136718750e+01 8.578254699707031250e+00 -2.505781173706054688e+00 -8.063603192567825317e-03 -7.541534304618835449e-01 2.483921200037002563e-01
3.417000000000000000e+03 7.612097167968750000e+01 7.902844429016113281e+00 3.844466209411621094e-01 -1.023448854684829712e-01 8.463051915168762207e-02 1.188814640045166016e+00
3.418000000000000000e+03 7.591707611083984375e+01 8.370516777038574219e+00 -5.671998500823974609e+00 -7.887605428695678711e-01 -1.938227653503417969e+00 1.611305117607116699e+00
3.419000000000000000e+03 7.582540893554687500e+01 8.071275711059570312e+00 1.365265101194381714e-01 -1.378586292266845703e+00 -3.726179301738739014e-01 6.400638818740844727e-01
3.420000000000000000e+03 7.633248901367187500e+01 9.621795654296875000e+00 -6.387202739715576172e-01 3.662788867950439453e+00 9.072205424308776855e-01 -3.136134147644042969e+00
3.421000000000000000e+03 7.864949798583984375e+01 8.244169235229492188e+00 8.111892700195312500e+00 1.869028663635253906e+01 8.040654182434082031e+00 -1.016937375068664551e+00
3.422000000000000000e+03 7.589318847656250000e+01 9.784685134887695312e+00 -1.294003129005432129e+00 2.254061698913574219e+00 2.880176007747650146e-01 -1.962907552719116211e+00
3.423000000000000000e+03 7.591006469726562500e+01 9.610264778137207031e+00 -1.661921381950378418e+00 1.614931344985961914e+00 -1.409699581563472748e-02 -1.523216247558593750e+00
3.424000000000000000e+03 7.543856811523437500e+01 9.787552833557128906e+00 -2.226117134094238281e+00 1.097669839859008789e+00 -3.385342061519622803e-01 -7.968605756759643555e-01
3.425000000000000000e+03 7.649919128417968750e+01 9.363091468811035156e+00 -2.073337286710739136e-01 3.346584796905517578e+00 9.417753219604492188e-01 -3.352367162704467773e+00
3.426000000000000000e+03 7.632096099853515625e+01 9.377249717712402344e+00 -7.257186770439147949e-01 2.559250593185424805e+00 5.500596165657043457e-01 -2.536771774291992188e+00
3.427000000000000000e+03 7.613406372070312500e+01 9.139629364013671875e+00 -2.542975187301635742e+00 7.342342734336853027e-01 -5.426222681999206543e-01 -5.280185937881469727e-01
3.428000000000000000e+03 7.570060729980468750e+01 9.376566886901855469e+00 -2.894278049468994141e+00 5.979630947113037109e-01 -6.888944506645202637e-01 -3.226988315582275391e-01
3.429000000000000000e+03 7.553526306152343750e+01 9.299278259277343750e+00 -3.723229169845581055e+00 2.460185140371322632e-01 -1.043163180351257324e+00 2.205026000738143921e-01
3.430000000000000000e+03 7.509197998046875000e+01 9.682769775390625000e+00 -3.269009113311767578e+00 3.653534054756164551e-01 -8.710967302322387695e-01 9.000472724437713623e-02
3.431000000000000000e+03 7.458268737792968750e+01 1.001424026489257812e+01 -3.063595294952392578e+00 4.120998382568359375e-01 -7.954486012458801270e-01 1.284475177526473999e-01
3.432000000000000000e+03 7.438910675048828125e+01 9.798104286193847656e+00 -3.948829412460327148e+00 -3.792365640401840210e-02 -1.196025967597961426e+00 6.890416741371154785e-01
3.433000000000000000e+03 7.437800598144531250e+01 1.002777862548828125e+01 -3.273708343505859375e+00 2.064507901668548584e-01 -9.201772212982177734e-01 3.147156536579132080e-01
3.434000000000000000e+03 7.528653717041015625e+01 9.253853797912597656e+00 -4.619128704071044922e+00 -5.044070258736610413e-02 -1.400870919227600098e+00 7.280039191246032715e-01
3.435000000000000000e+03 7.588929748535156250e+01 7.817316532135009766e+00 4.864120185375213623e-01 4.068304002285003662e-01 2.679727375507354736e-01 3.962104022502899170e-01
3.436000000000000000e+03 7.336790466308593750e+01 1.016161823272705078e+01 -3.854824542999267578e+00 -8.212963491678237915e-02 -1.181086182594299316e+00 8.333520293235778809e-01
3.437000000000000000e+03 7.386244964599609375e+01 9.935653686523437500e+00 -4.066623210906982422e+00 -1.069412007927894592e-01 -1.252069354057312012e+00 8.039999604225158691e-01
3.438000000000000000e+03 7.182375335693359375e+01 1.047988700866699219e+01 -3.940863847732543945e+00 -2.214770466089248657e-01 -1.248702287673950195e+00 1.004245638847351074e+00
3.439000000000000000e+03 7.128107452392578125e+01 1.056679630279541016e+01 -3.951092481613159180e+00 -3.169173598289489746e-01 -1.280402898788452148e+00 1.024318218231201172e+00
3.440000000000000000e+03 7.108423614501953125e+01 1.047840118408203125e+01 -4.103470802307128906e+00 -2.801474928855895996e-01 -1.315085530281066895e+00 1.019008398056030273e+00
3.441000000000000000e+03 7.394488525390625000e+01 1.013282012939453125e+01 -3.466583967208862305e+00 5.864156410098075867e-02 -1.022382736206054688e+00 5.540835261344909668e-01
3.442000000000000000e+03 7.237371063232421875e+01 1.018067646026611328e+01 -4.393689632415771484e+00 -2.676531970500946045e-01 -1.398402929306030273e+00 1.106510996818542480e+00
3.443000000000000000e+03 7.401770019531250000e+01 9.931348800659179688e+00 -3.905033826828002930e+00 -9.585357038304209709e-04 -1.171797752380371094e+00 7.117967605590820312e-01
3.444000000000000000e+03 7.869993591308593750e+01 8.642776489257812500e+00 7.715309619903564453e+00 1.781832313537597656e+01 7.660089492797851562e+00 1.198854446411132812e+00
3.445000000000000000e+03 7.082074737548828125e+01 8.868476867675781250e+00 -1.832013368606567383e+00 1.937591135501861572e-01 -4.914762675762176514e-01 -1.827009767293930054e-01
3.446000000000000000e+03 7.457435607910156250e+01 9.798632621765136719e+00 -3.640547990798950195e+00 8.347006887197494507e-02 -1.067123293876647949e+00 4.956605732440948486e-01
3.447000000000000000e+03 7.606523895263671875e+01 9.818377494812011719e+00 -9.350742697715759277e-01 3.104397773742675781e+00 6.507970690727233887e-01 -2.589364528656005859e+00
3.448000000000000000e+03 7.303047943115234375e+01 9.891523361206054688e+00 -4.838181495666503906e+00 -2.324370294809341431e-01 -1.521185517311096191e+00 1.091540217399597168e+00
3.449000000000000000e+03 7.541711425781250000e+01 9.437166213989257812e+00 -3.435197353363037109e+00 3.642808794975280762e-01 -9.212749600410461426e-01 8.547151833772659302e-02
3.450000000000000000e+03 7.094810485839843750e+01 1.061644077301025391e+01 -3.863170385360717773e+00 -3.217892646789550781e-01 -1.255487918853759766e+00 1.032336235046386719e+00
3.451000000000000000e+03 7.136777496337890625e+01 1.033804321289062500e+01 -4.372955799102783203e+00 -2.726525664329528809e-01 -1.393682479858398438e+00 1.028130292892456055e+00
3.452000000000000000e+03 7.092194366455078125e+01 1.038314247131347656e+01 -4.376770019531250000e+00 -3.437119722366333008e-01 -1.416144609451293945e+00 1.007088303565979004e+00
3.453000000000000000e+03 7.688650512695312500e+01 9.664584159851074219e+00 -3.856134414672851562e-01 9.363828659057617188e+00 2.693464517593383789e+00 -5.716337203979492188e+00
3.454000000000000000e+03 7.318158721923828125e+01 1.015918159484863281e+01 -3.959602355957031250e+00 -1.560293585062026978e-01 -1.234689474105834961e+00 9.131392836570739746e-01
3.455000000000000000e+03 7.217150115966796875e+01 1.055747318267822266e+01 -3.587474107742309570e+00 -1.540989577770233154e-01 -1.122471928596496582e+00 9.276840686798095703e-01
3.456000000000000000e+03 7.295906066894531250e+01 1.012696743011474609e+01 -4.219757080078125000e+00 -1.636472940444946289e-01 -1.315021395683288574e+00 9.849968552589416504e-01
3.457000000000000000e+03 6.897251892089843750e+01 9.279466629028320312e+00 -2.497960090637207031e+00 8.406184613704681396e-02 -7.241694927215576172e-01 -4.910115599632263184e-01
3.458000000000000000e+03 6.996108245849609375e+01 8.983895301818847656e+00 -2.301990747451782227e+00 1.774306148290634155e-01 -6.373680233955383301e-01 -6.147482395172119141e-01
3.459000000000000000e+03 6.998316955566406250e+01 9.175751686096191406e+00 -2.972854852676391602e+00 1.716679185628890991e-01 -8.403560519218444824e-01 -2.771426141262054443e-01
3.460000000000000000e+03 6.993280792236328125e+01 9.822250366210937500e+00 -4.245895385742187500e+00 1.889051347970962524e-01 -1.217097043991088867e+00 1.375319808721542358e-01
3.461000000000000000e+03 6.833406829833984375e+01 9.790263175964355469e+00 -2.718427181243896484e+00 5.095440149307250977e-02 -8.002418279647827148e-01 -8.205835521221160889e-02
3.462000000000000000e+03 6.823197174072265625e+01 8.806679725646972656e+00 -1.499706864356994629e+00 4.644128307700157166e-02 -4.359796643257141113e-01 -7.395298480987548828e-01
3.463000000000000000e+03 6.759520721435546875e+01 9.830746650695800781e+00 -2.016269683837890625e+00 -2.894145250320434570e-02 -6.135633587837219238e-01 -1.080356463789939880e-01
3.464000000000000000e+03 6.749893951416015625e+01 8.847250938415527344e+00 -1.353224158287048340e+00 1.064351499080657959e-01 -3.740366995334625244e-01 -7.738619446754455566e-01
3.465000000000000000e+03 6.754599761962890625e+01 9.341001510620117188e+00 -1.604802012443542480e+00 3.545659780502319336e-02 -4.708036184310913086e-01 -5.325937271118164062e-01
3.466000000000000000e+03 6.952337646484375000e+01 8.786573410034179688e+00 -1.833894371986389160e+00 1.730717718601226807e-01 -4.982467591762542725e-01 -5.734649896621704102e-01
3.467000000000000000e+03 6.957966613769531250e+01 9.664065361022949219e+00 -3.828921556472778320e+00 -7.398275285959243774e-02 -1.170871257781982422e+00 -2.395761944353580475e-02
3.468000000000000000e+03 6.996755981445312500e+01 9.381508827209472656e+00 -3.634177207946777344e+00 2.955154180526733398e-01 -1.001598596572875977e+00 -1.883654147386550903e-01
3.469000000000000000e+03 6.998273468017578125e+01 9.599024772644042969e+00 -3.924797058105468750e+00 4.109602272510528564e-01 -1.054151058197021484e+00 -3.942355513572692871e-02
3.470000000000000000e+03 6.978761291503906250e+01 8.573279380798339844e+00 -1.424246907234191895e+00 1.974698603153228760e-01 -3.680331110954284668e-01 -4.697297215461730957e-01
3.471000000000000000e+03 6.967781066894531250e+01 9.073804855346679688e+00 -2.295136451721191406e+00 2.179988473653793335e-01 -6.231412887573242188e-01 -4.440369904041290283e-01
3.472000000000000000e+03 6.895711517333984375e+01 8.776661872863769531e+00 -1.620414137840270996e+00 1.708474159240722656e-01 -4.348700046539306641e-01 -6.418111324310302734e-01
3.473000000000000000e+03 6.904714202880859375e+01 9.750336647033691406e+00 -3.439710140228271484e+00 -9.882069192826747894e-03 -1.034877657890319824e+00 -3.749899193644523621e-02
3.474000000000000000e+03 6.827610015869140625e+01 9.304677963256835938e+00 -2.096715211868286133e+00 5.159089341759681702e-02 -6.135373115539550781e-01 -5.056922435760498047e-01
3.475000000000000000e+03 6.990962982177734375e+01 8.783355712890625000e+00 -1.762266516685485840e+00 1.917824000120162964e-01 -4.711452424526214600e-01 -5.948852896690368652e-01
3.476000000000000000e+03 6.953543090820312500e+01 9.322319984436035156e+00 -2.930989980697631836e+00 6.709946691989898682e-02 -8.591671586036682129e-01 -2.949600219726562500e-01
3.477000000000000000e+03 5.625389862060546875e+01 1.133603668212890625e+01 -7.225816845893859863e-01 -4.475222900509834290e-02 -2.302001863718032837e-01 3.984278440475463867e-02
3.478000000000000000e+03 5.638205337524414062e+01 1.206803607940673828e+01 -8.677434325218200684e-01 1.231206953525543213e-01 -2.233868092298507690e-01 5.960508435964584351e-02
3.479000000000000000e+03 5.856589126586914062e+01 1.172538852691650391e+01 -8.061147928237915039e-01 3.025474213063716888e-02 -2.327580153942108154e-01 -2.442956566810607910e-01
3.480000000000000000e+03 5.552968597412109375e+01 1.144010448455810547e+01 -7.836315035820007324e-01 7.565410435199737549e-02 -2.123932093381881714e-01 1.096578836441040039e-01
3.481000000000000000e+03 5.768267440795898438e+01 1.111745452880859375e+01 -4.508226811885833740e-01 5.095119029283523560e-02 -1.199614480137825012e-01 -6.701730191707611084e-02
3.482000000000000000e+03 5.833404159545898438e+01 1.100277614593505859e+01 -2.312205284833908081e-01 -7.961808145046234131e-02 -9.325157850980758667e-02 -4.827674478292465210e-02
3.483000000000000000e+03 5.787995910644531250e+01 1.184319686889648438e+01 -7.888348102569580078e-01 1.195583194494247437e-01 -2.007829397916793823e-01 -5.195433273911476135e-02
3.484000000000000000e+03 5.562327957153320312e+01 1.217523193359375000e+01 -8.531836271286010742e-01 -1.131017692387104034e-02 -2.593481540679931641e-01 6.376102566719055176e-02
3.485000000000000000e+03 5.908870315551757812e+01 1.140463638305664062e+01 -3.801837861537933350e-01 -4.240714386105537415e-02 -1.267772763967514038e-01 -1.985049098730087280e-01
3.486000000000000000e+03 5.697513580322265625e+01 1.122857379913330078e+01 -6.048122048377990723e-01 5.914431810379028320e-02 -1.637003719806671143e-01 3.679816424846649170e-02
3.487000000000000000e+03 5.713785552978515625e+01 1.195744419097900391e+01 -8.459787368774414062e-01 7.950161397457122803e-02 -2.299431413412094116e-01 -1.021838113665580750e-01
3.488000000000000000e+03 5.328820800781250000e+01 1.160719490051269531e+01 -4.837063550949096680e-01 -1.255408525466918945e-01 -1.827741563320159912e-01 9.857241064310073853e-02
3.489000000000000000e+03 5.253549957275390625e+01 1.165647983551025391e+01 -2.636443674564361572e-01 1.498608738183975220e-01 -3.413504734635353088e-02 1.613441109657287598e-01
3.490000000000000000e+03 5.479130554199218750e+01 1.151412296295166016e+01 -7.601369023323059082e-01 -1.001735404133796692e-01 -2.580931186676025391e-01 8.254010975360870361e-02
3.491000000000000000e+03 5.334827423095703125e+01 1.234487724304199219e+01 -6.254661679267883301e-01 9.155900031328201294e-02 -1.601721346378326416e-01 2.960784137248992920e-01
3.492000000000000000e+03 5.404014587402343750e+01 1.155970287322998047e+01 -6.365998983383178711e-01 1.075927168130874634e-01 -1.587021648883819580e-01 1.238808855414390564e-01
3.493000000000000000e+03 5.486436843872070312e+01 1.225100231170654297e+01 -8.099046945571899414e-01 9.120139479637145996e-02 -2.156109958887100220e-01 1.937059313058853149e-01
3.494000000000000000e+03 5.258906936645507812e+01 1.239457130432128906e+01 -5.555337667465209961e-01 -6.213584914803504944e-02 -1.853008866310119629e-01 2.714871466159820557e-01
3.495000000000000000e+03 5.410670852661132812e+01 1.229697513580322266e+01 -7.439520955085754395e-01 -5.230621248483657837e-02 -2.388775050640106201e-01 2.022621482610702515e-01
3.496000000000000000e+03 5.079259490966796875e+01 1.175848960876464844e+01 -7.650373131036758423e-02 9.921646863222122192e-02 6.813822314143180847e-03 -3.459927812218666077e-02
3.497000000000000000e+03 5.168463134765625000e+01 1.170880699157714844e+01 -6.706694513559341431e-02 -1.935727298259735107e-01 -7.819189876317977905e-02 4.807889834046363831e-02
3.498000000000000000e+03 5.173221206665039062e+01 1.244730472564697266e+01 -3.672405183315277100e-01 -8.167251199483871460e-02 -1.346739083528518677e-01 3.022415637969970703e-01
3.499000000000000000e+03 5.029224395751953125e+01 1.235795402526855469e+01 1.872635334730148315e-01 3.228118419647216797e-01 1.530226171016693115e-01 -1.975552141666412354e-01
3.500000000000000000e+03 5.083468627929687500e+01 1.249738883972167969e+01 1.254437118768692017e-01 -3.406149446964263916e-01 -6.455137580633163452e-02 1.929026395082473755e-01
3.501000000000000000e+03 5.172746276855468750e+01 1.018907928466796875e+01 2.032245695590972900e-02 -4.870576318353414536e-03 4.635564517229795456e-03 7.132083177566528320e-03
3.502000000000000000e+03 5.108024597167968750e+01 1.024071121215820312e+01 2.003099955618381500e-02 -6.293582729995250702e-03 4.121224861592054367e-03 4.689532797783613205e-03
3.503000000000000000e+03 5.048106002807617188e+01 1.029173946380615234e+01 1.872934959828853607e-02 4.345705267041921616e-03 6.922516506165266037e-03 1.606307365000247955e-02
3.504000000000000000e+03 5.178091812133789062e+01 1.092714595794677734e+01 1.847171410918235779e-02 -6.603371351957321167e-03 3.560502780601382256e-03 -3.218172059860080481e-04
3.505000000000000000e+03 5.054705810546875000e+01 1.102888774871826172e+01 5.405114497989416122e-03 5.113902967423200607e-03 3.155705286189913750e-03 5.299084587022662163e-04
3.506000000000000000e+03 5.004573059082031250e+01 1.050491046905517578e+01 3.877632087096571922e-03 5.376025568693876266e-03 2.776097273454070091e-03 8.342918939888477325e-03
3.507000000000000000e+03 5.113997268676757812e+01 1.097831821441650391e+01 1.217590924352407455e-02 6.691423550364561379e-06 3.654780099168419838e-03 5.607818718999624252e-03
3.508000000000000000e+03 5.551848602294921875e+01 1.065485763549804688e+01 2.203801413998007774e-03 5.589598324149847031e-03 2.338019898161292076e-03 -2.655925229191780090e-03
3.509000000000000000e+03 5.716370010375976562e+01 1.041251468658447266e+01 5.925777804804965854e-05 2.509497571736574173e-03 7.706265896558761597e-04 1.065267948433756828e-03
3.510000000000000000e+03 5.542705535888671875e+01 9.919204711914062500e+00 2.890030620619654655e-03 -5.922012496739625931e-03 -9.095945861190557480e-04 -1.892243511974811554e-03
3.511000000000000000e+03 5.779384613037109375e+01 1.013771343231201172e+01 -9.057503484655171633e-05 -1.659262459725141525e-03 -5.249512614682316780e-04 -3.525923530105501413e-04
3.512000000000000000e+03 5.637057495117187500e+01 1.053330230712890625e+01 -1.024025143124163151e-03 -2.380702877417206764e-03 -1.021418371237814426e-03 -4.211103369016200304e-04
3.513000000000000000e+03 5.701178741455078125e+01 9.680922508239746094e+00 -1.522094942629337311e-03 -3.236607299186289310e-04 -5.537266843020915985e-04 3.064866410568356514e-03
3.514000000000000000e+03 5.624890518188476562e+01 9.799672126770019531e+00 2.050916664302349091e-03 8.810645900666713715e-03 3.258468816056847572e-03 -5.519278347492218018e-03
3.515000000000000000e+03 3.058919191360473633e+00 3.710482716560363770e-01 2.585368056315928698e-04 7.596035720780491829e-05 1.003491415758617222e-04 4.840589463128708303e-05
3.516000000000000000e+03 3.884933710098266602e+00 3.823724985122680664e-01 1.944688556250184774e-04 -5.512997813639231026e-05 4.180166433798149228e-05 -8.405688276980072260e-06
3.517000000000000000e+03 4.025801181793212891e+00 1.122372508049011230e+00 1.800275058485567570e-04 -1.171603526017861441e-05 5.049343963037244976e-05 1.787933579180389643e-04
3.518000000000000000e+03 1.729085445404052734e+00 1.105241179466247559e+00 1.004552395897917449e-04 -1.081461523426696658e-04 -2.307272552570793778e-06 -1.018032053252682090e-04
3.519000000000000000e+03 1.433710694313049316e+00 3.652411401271820068e-01 1.009029874694533646e-04 1.102590467780828476e-04 6.334861245704814792e-05 -6.330707947199698538e-06
3.520000000000000000e+03 6.956086158752441406e-01 3.891016840934753418e-01 -6.596798630198463798e-05 -9.090284584090113640e-05 -4.706125037046149373e-05 -9.297006181441247463e-05
3.521000000000000000e+03 3.642284870147705078e-01 9.534841775894165039e-01 6.108922389103099704e-05 8.780663483776152134e-05 4.466875907382927835e-05 2.888334711315110326e-05
3.522000000000000000e+03 2.239435195922851562e+00 3.632993698120117188e-01 1.782519102562218904e-04 -1.297746202908456326e-04 1.454318316973512992e-05 -8.084331057034432888e-05
3.523000000000000000e+03 3.251289129257202148e+00 1.111048340797424316e+00 1.089395591407082975e-04 -1.660629204707220197e-04 -1.713700839900411665e-05 -9.830626368056982756e-05
3.524000000000000000e+03 2.483307361602783203e+00 1.103299379348754883e+00 7.515224569942802191e-05 5.200517261982895434e-05 3.814722731476649642e-05 -3.180501880706287920e-05
3.525000000000000000e+03 1.042485833168029785e+00 1.129101634025573730e+00 8.881599205778911710e-05 9.345884609501808882e-05 5.468245217343792319e-05 -1.409110263921320438e-04
3.526000000000000000e+03 7.577130317687988281e+00 -4.536431729793548584e-01 2.029464952647686005e-02 2.085342770442366600e-03 6.713997572660446167e-03 2.921520732343196869e-03
3.527000000000000000e+03 8.983259201049804688e+00 -1.142505645751953125e+00 1.813051849603652954e-02 1.123575726523995399e-03 5.776228383183479309e-03 2.958266763016581535e-03
3.528000000000000000e+03 7.317999362945556641e+00 -1.193643212318420410e+00 1.437487266957759857e-02 -3.296030452474951744e-03 3.323652781546115875e-03 4.399859346449375153e-03
3.529000000000000000e+03 9.635885238647460938e+00 -1.125908613204956055e+00 2.019656449556350708e-02 -3.552713431417942047e-03 4.993155132979154587e-03 7.215804653242230415e-04
3.530000000000000000e+03 8.777344703674316406e+00 -4.025056660175323486e-01 2.386503852903842926e-02 -1.851647160947322845e-03 6.604017689824104309e-03 9.153609280474483967e-04
3.531000000000000000e+03 7.875830173492431641e+00 -1.234767556190490723e+00 1.711126416921615601e-02 1.406479859724640846e-03 5.555322859436273575e-03 3.160634543746709824e-03
3.532000000000000000e+03 9.578110694885253906e+00 -3.859085738658905029e-01 2.529262192547321320e-02 1.847211970016360283e-03 8.141949772834777832e-03 1.320008595939725637e-04
3.533000000000000000e+03 8.401601791381835938e+00 -1.222665071487426758e+00 2.022861875593662262e-02 -4.079680424183607101e-03 4.844681359827518463e-03 3.589266445487737656e-03
3.534000000000000000e+03 8.160359382629394531e+00 -6.963646411895751953e-01 1.878074370324611664e-02 -1.979406690225005150e-03 5.040401127189397812e-03 1.150345779024064541e-03
3.535000000000000000e+03 5.341911792755126953e+00 -3.340440690517425537e-01 1.415531267412006855e-03 1.333072548732161522e-03 8.245811332017183304e-04 -1.366058131679892540e-03
3.536000000000000000e+03 5.326523780822753906e+00 -1.074044108390808105e+00 1.995838806033134460e-02 4.777292255312204361e-03 7.420704234391450882e-03 3.835828742012381554e-03
3.537000000000000000e+03 4.643752574920654297e+00 -1.016401410102844238e+00 9.835839271545410156e-03 -2.745682606473565102e-03 2.127046929672360420e-03 1.435532816685736179e-03
3.538000000000000000e+03 6.677014350891113281e+00 -1.164411544799804688e+00 1.784816011786460876e-02 -2.432371489703655243e-03 4.624736960977315903e-03 5.696597974747419357e-03
3.539000000000000000e+03 6.828927040100097656e+00 -4.244114756584167480e-01 1.454082410782575607e-02 -4.004375543445348740e-03 3.160934662446379662e-03 3.254898125305771828e-03
3.540000000000000000e+03 5.994243621826171875e+00 -1.106768846511840820e+00 2.229999937117099762e-02 4.950463306158781052e-03 8.175139315426349640e-03 3.340513445436954498e-03
3.541000000000000000e+03 4.592835426330566406e+00 -2.764014601707458496e-01 4.280107561498880386e-03 -1.725573558360338211e-03 7.663601427339017391e-04 -9.471499943174421787e-04
3.542000000000000000e+03 6.079859256744384766e+00 -3.667688965797424316e-01 6.481764372438192368e-03 3.650148166343569756e-03 3.039573784917593002e-03 4.862752277404069901e-03
3.543000000000000000e+03 6.431427001953125000e+00 1.820162296295166016e+00 1.858928953879512846e-05 5.677497392753139138e-05 2.260927976749371737e-05 4.614727367879822850e-05
3.544000000000000000e+03 7.159246444702148438e+00 1.673283696174621582e+00 -9.908244101097807288e-05 -2.573945384938269854e-04 -1.069430945790372789e-04 -1.107575953938066959e-04
3.545000000000000000e+03 1.469936847686767578e+01 1.773380279541015625e+00 2.790021244436502457e-03 5.206806585192680359e-03 2.399048302322626114e-03 -1.494973548687994480e-03
3.546000000000000000e+03 1.445661830902099609e+01 2.640754699707031250e+00 -3.020747797563672066e-03 -1.641042879782617092e-03 -1.398537191562354565e-03 -2.071375958621501923e-03
3.547000000000000000e+03 9.594597816467285156e+00 2.746501922607421875e+00 -3.244212130084633827e-04 -4.408047243487089872e-04 -2.295677695656195283e-04 -6.202656659297645092e-04
3.548000000000000000e+03 7.967365264892578125e+00 1.639453649520874023e+00 1.116677740355953574e-04 5.517195095308125019e-04 1.990161836147308350e-04 1.901165232993662357e-04
3.549000000000000000e+03 1.256250381469726562e+01 1.591072559356689453e+00 7.534371106885373592e-04 1.107233110815286636e-03 5.582010489888489246e-04 8.448518929071724415e-04
3.550000000000000000e+03 1.195436763763427734e+01 1.626313209533691406e+00 -1.582452387083321810e-04 -8.646313217468559742e-04 -3.068629594054073095e-04 -7.284242892637848854e-04
3.551000000000000000e+03 1.176981258392333984e+01 2.315680503845214844e+00 -4.244253505021333694e-04 4.604218993335962296e-04 1.079895992006640881e-05 1.609061000635847449e-04
3.552000000000000000e+03 1.128148365020751953e+01 1.782198309898376465e+00 4.751318774651736021e-04 4.437534371390938759e-04 2.756655740085989237e-04 5.853469483554363251e-04
3.553000000000000000e+03 1.052827453613281250e+01 2.693688869476318359e+00 2.793747116811573505e-04 1.049917074851691723e-03 3.987875243183225393e-04 7.587565341964364052e-04
3.554000000000000000e+03 9.096383094787597656e+00 2.099678754806518555e+00 5.087113822810351849e-04 -1.292294473387300968e-04 1.138445804826915264e-04 3.188950067851692438e-04
3.555000000000000000e+03 1.042359733581542969e+01 1.879573464393615723e+00 -3.341119736433029175e-04 -8.220289601013064384e-04 -3.468422801233828068e-04 -6.158851902000606060e-04
3.556000000000000000e+03 8.796865463256835938e+00 1.672843456268310547e+00 2.970290097437100485e-06 -9.173201397061347961e-04 -2.743049408309161663e-04 -1.460610656067728996e-04
3.557000000000000000e+03 1.232376384735107422e+01 1.987425327301025391e+00 -1.637525128899142146e-04 -8.887898293323814869e-04 -3.157627070322632790e-04 -4.080266517121344805e-04
3.558000000000000000e+03 1.316373729705810547e+01 1.650711774826049805e+00 -8.428407600149512291e-04 -8.532238425686955452e-04 -5.088193574920296669e-04 -7.577225333079695702e-04
3.559000000000000000e+03 1.512185192108154297e+01 2.405154466629028320e+00 2.117974217981100082e-04 -1.423814683221280575e-03 -3.636051842477172613e-04 2.561058849096298218e-03
3.560000000000000000e+03 1.427688312530517578e+01 2.106805086135864258e+00 1.788684981875121593e-03 7.570608286187052727e-04 7.637237431481480598e-04 -1.230903435498476028e-03
3.561000000000000000e+03 1.373222541809082031e+01 2.722819328308105469e+00 1.073073595762252808e-03 2.641501370817422867e-03 1.114372513256967068e-03 8.269970421679317951e-04
3.562000000000000000e+03 1.373459720611572266e+01 1.684970498085021973e+00 2.248351462185382843e-03 2.975690294988453388e-04 7.637761300429701805e-04 -4.916948382742702961e-04
3.563000000000000000e+03 1.140512371063232422e+01 2.768403291702270508e+00 -7.192391785793006420e-05 -1.989510376006364822e-03 -6.184303201735019684e-04 -1.142708002589643002e-03
3.564000000000000000e+03 1.369023799896240234e+01 2.191561698913574219e+00 -1.980098430067300797e-03 -8.667429792694747448e-04 -8.540524286217987537e-04 -1.314666471444070339e-03
3.565000000000000000e+03 8.758806228637695312e+00 2.800725221633911133e+00 3.243616665713489056e-04 1.918880006996914744e-04 1.548748987261205912e-04 5.078229005448520184e-04
3.566000000000000000e+03 9.561607360839843750e+00 1.777740120887756348e+00 -2.899250830523669720e-04 1.396501203998923302e-03 3.319728421047329903e-04 2.945128944702446461e-04
3.567000000000000000e+03 8.247145652770996094e+00 2.106858730316162109e+00 -2.130660868715494871e-04 -1.824160281103104353e-04 -1.186446315841749310e-04 -2.878534432966262102e-04
3.568000000000000000e+03 1.293806552886962891e+01 2.733785867691040039e+00 -1.531197573058307171e-03 -1.295679365284740925e-03 -8.480630349367856979e-04 -9.553155978210270405e-04
3.569000000000000000e+03 1.215185070037841797e+01 2.787881851196289062e+00 9.768672753125429153e-04 1.449049566872417927e-03 7.277750992216169834e-04 8.062650449573993683e-04
3.570000000000000000e+03 1.426091766357421875e+01 1.688389539718627930e+00 1.181576517410576344e-03 -8.665130590088665485e-04 9.451904043089598417e-05 5.309665575623512268e-04
3.571000000000000000e+03 1.298928642272949219e+01 2.174380540847778320e+00 1.389859127812087536e-03 1.167834270745515823e-03 7.673079962842166424e-04 4.667864996008574963e-04
3.572000000000000000e+03 7.861133575439453125e+00 4.031277179718017578e+00 9.355600013805087656e-06 -1.317625574301928282e-04 -3.672208549687638879e-05 2.047560847131535411e-04
3.573000000000000000e+03 7.410462379455566406e+00 3.546055316925048828e+00 1.709696880425326526e-05 2.213943516835570335e-04 7.154739432735368609e-05 -5.414368933998048306e-05
3.574000000000000000e+03 7.613649845123291016e+00 2.915391683578491211e+00 5.085253360448405147e-05 -3.240469959564507008e-04 -8.195833652280271053e-05 -4.798606096301227808e-05
3.575000000000000000e+03 6.688477516174316406e+00 2.444559097290039062e+00 1.789171255950350314e-05 -5.737922401749528944e-05 -1.184625398309435695e-05 -7.084979006322100759e-05
3.576000000000000000e+03 8.198487281799316406e+00 3.243148326873779297e+00 -1.889936247607693076e-04 2.689803950488567352e-04 2.399603363301139325e-05 -3.239884972572326660e-04
3.577000000000000000e+03 7.040536880493164062e+00 3.044068336486816406e+00 -6.940893217688426375e-05 9.360405238112434745e-05 7.258535333676263690e-06 5.058756505604833364e-05
3.578000000000000000e+03 7.417679786682128906e+00 2.185935020446777344e+00 9.523760672891512513e-05 1.356166612822562456e-04 6.925628258613869548e-05 1.463249791413545609e-04
3.579000000000000000e+03 2.034901237487792969e+01 5.342971324920654297e+00 -1.646731793880462646e-02 4.275262472219765186e-04 -4.811937455087900162e-03 -3.628356615081429482e-03
3.580000000000000000e+03 2.110828781127929688e+01 5.289262771606445312e+00 -1.415997184813022614e-02 1.939501031301915646e-03 -3.666141303256154060e-03 -4.748300649225711823e-03
3.581000000000000000e+03 1.883009910583496094e+01 5.447298526763916016e+00 -1.933590508997440338e-02 -1.919194008223712444e-03 -6.376529578119516373e-03 -3.432657336816191673e-03
3.582000000000000000e+03 1.954028892517089844e+01 4.657379150390625000e+00 -2.389360219240188599e-02 -6.760071119060739875e-05 -7.188361138105392456e-03 -6.949646922294050455e-05
3.583000000000000000e+03 2.104417419433593750e+01 4.551930904388427734e+00 -1.610780134797096252e-02 -3.230944275856018066e-04 -4.929268732666969299e-03 -9.596784948371350765e-04
3.584000000000000000e+03 1.878804969787597656e+01 4.708437442779541016e+00 -2.790285833179950714e-02 -1.204752479679882526e-04 -8.406999520957469940e-03 -2.779386995825916529e-04
3.585000000000000000e+03 2.029225349426269531e+01 4.605130195617675781e+00 -2.020579390227794647e-02 6.987437373027205467e-04 -5.852114874869585037e-03 -5.950213526375591755e-04
3.586000000000000000e+03 1.958969306945800781e+01 5.395730018615722656e+00 -1.813977211713790894e-02 1.717198407277464867e-03 -4.926772322505712509e-03 -2.980239456519484520e-03
3.587000000000000000e+03 1.637983322143554688e+01 4.803785800933837891e+00 -3.869460523128509521e-02 -2.358915080549195409e-04 -1.167914923280477524e-02 -2.655936405062675476e-04
3.588000000000000000e+03 1.298356437683105469e+01 4.704628467559814453e+00 -7.865626364946365356e-02 -2.555774757638573647e-03 -2.436361089348793030e-02 7.669395301491022110e-03
3.589000000000000000e+03 1.177423858642578125e+01 4.763041496276855469e+00 -2.768684625625610352e-01 -2.272516023367643356e-03 -8.374229073524475098e-02 1.172796916216611862e-02
3.590000000000000000e+03 1.018246746063232422e+01 5.674672126770019531e+00 3.365950658917427063e-03 2.480576001107692719e-02 8.451513946056365967e-03 -2.363094827160239220e-03
3.591000000000000000e+03 1.013370227813720703e+01 5.089568614959716797e+00 -2.874685265123844147e-02 -1.145233493298292160e-02 -1.205975562334060669e-02 1.539782341569662094e-02
3.592000000000000000e+03 9.284529685974121094e+00 5.854344367980957031e+00 -1.845721155405044556e-02 -1.829242147505283356e-02 -1.102488953620195389e-02 1.159569807350635529e-02
3.593000000000000000e+03 9.335826873779296875e+00 5.327028274536132812e+00 -1.868434995412826538e-02 1.253905147314071655e-02 -1.843589474447071552e-03 2.096228860318660736e-02
3.594000000000000000e+03 1.803861427307128906e+01 5.487761020660400391e+00 -2.023082599043846130e-02 1.896279514767229557e-03 -5.500364117324352264e-03 -2.930694492533802986e-03
3.595000000000000000e+03 1.639271926879882812e+01 5.543782234191894531e+00 -2.231064252555370331e-02 2.046276582404971123e-03 -6.079309619963169098e-03 -2.347577363252639771e-03
3.596000000000000000e+03 1.474550819396972656e+01 5.590154647827148438e+00 8.674627169966697693e-03 1.121824700385332108e-02 5.967861972749233246e-03 2.489033387973904610e-03
3.597000000000000000e+03 1.390083026885986328e+01 4.819621562957763672e+00 -7.796758413314819336e-02 5.902870558202266693e-03 -2.161941304802894592e-02 -1.153403427451848984e-03
3.598000000000000000e+03 1.220392990112304688e+01 4.634844303131103516e+00 -6.161031499505043030e-02 4.269915632903575897e-03 -1.720212027430534363e-02 -7.490176707506179810e-03
3.599000000000000000e+03 8.498252868652343750e+00 5.874431133270263672e+00 -3.143173875287175179e-03 -2.370903268456459045e-03 -1.654223189689218998e-03 1.022097840905189514e-02
3.600000000000000000e+03 8.731795310974121094e+00 5.240024566650390625e+00 -3.791531547904014587e-02 -2.223057672381401062e-02 -1.804376766085624695e-02 -1.174168894067406654e-03
3.601000000000000000e+03 7.731923580169677734e+00 5.859321117401123047e+00 -7.742954418063163757e-03 -6.460599135607481003e-03 -4.261066205799579620e-03 1.096879038959741592e-02
3.602000000000000000e+03 8.089856147766113281e+00 5.106512069702148438e+00 -2.693508006632328033e-02 -5.644261837005615234e-03 -9.773802943527698517e-03 4.911602009087800980e-03
3.603000000000000000e+03 1.065108299255371094e+01 4.762430191040039062e+00 -1.475655287504196167e-01 1.873727329075336456e-02 -3.864847868680953979e-02 2.097629383206367493e-02
3.604000000000000000e+03 1.380731105804443359e+01 5.398728847503662109e+00 1.419540401548147202e-02 -1.157402875833213329e-03 3.911400213837623596e-03 -1.074054125638213009e-05
3.605000000000000000e+03 1.556646156311035156e+01 4.829121589660644531e+00 -4.637714847922325134e-02 -2.714058384299278259e-03 -1.472736243158578873e-02 -3.667827695608139038e-03
3.606000000000000000e+03 1.556915283203125000e+01 5.569469928741455078e+00 -1.692043058574199677e-02 -1.030694227665662766e-02 -8.168212138116359711e-03 -5.044045392423868179e-03
3.607000000000000000e+03 1.719260978698730469e+01 4.777213573455810547e+00 -3.538934886455535889e-02 3.088691155426204205e-04 -1.052414346486330032e-02 -2.992682566400617361e-04
3.608000000000000000e+03 1.800533866882324219e+01 4.748468875885009766e+00 -3.189979866147041321e-02 -8.331901335623115301e-05 -9.594934992492198944e-03 -5.386770935729146004e-04
3.609000000000000000e+03 9.937987327575683594e+00 4.809810638427734375e+00 -9.404596686363220215e-02 -2.437812089920043945e-02 -3.552722558379173279e-02 1.827583415433764458e-03
3.610000000000000000e+03 1.475301074981689453e+01 4.849453449249267578e+00 -6.239484995603561401e-02 -1.674891827860847116e-04 -1.876870170235633850e-02 -7.289553061127662659e-03
3.611000000000000000e+03 1.721569061279296875e+01 5.516857624053955078e+00 -2.120314911007881165e-02 -1.248305547051131725e-03 -6.735436618328094482e-03 -3.005309961736202240e-03
3.612000000000000000e+03 1.273300933837890625e+01 4.954238891601562500e+00 -8.286489546298980713e-02 -1.275122165679931641e-03 -2.524200640618801117e-02 -9.133893065154552460e-03
3.613000000000000000e+03 1.144375038146972656e+01 4.709188938140869141e+00 -1.618340462446212769e-01 -4.387898370623588562e-03 -4.986658319830894470e-02 1.549743232317268848e-03
3.614000000000000000e+03 9.219163894653320312e+00 4.895892620086669922e+00 -4.090620204806327820e-02 2.708647772669792175e-02 -4.145917017012834549e-03 2.532569319009780884e-02
3.615000000000000000e+03 6.064543247222900391e+00 3.573476552963256836e+00 5.469340248964726925e-04 -1.656017848290503025e-04 1.143996705650351942e-04 -1.249693596037104726e-04
3.616000000000000000e+03 6.481155872344970703e+00 4.280267238616943359e+00 -5.645097699016332626e-03 -5.395902553573250771e-04 -1.855406444519758224e-03 -1.816366333514451981e-03
3.617000000000000000e+03 5.616716861724853516e+00 2.920150279998779297e+00 -7.553914911113679409e-04 6.294921331573277712e-05 -2.077326789731159806e-04 -2.554025195422582328e-05
3.618000000000000000e+03 6.529135227203369141e+00 3.343321800231933594e+00 9.963216871256008744e-05 5.316776223480701447e-04 1.893929293146356940e-04 1.835501461755484343e-04
3.619000000000000000e+03 6.083950042724609375e+00 2.712398290634155273e+00 1.349737722193822265e-04 3.504405613057315350e-04 1.456243044231086969e-04 4.825176438316702843e-04
3.620000000000000000e+03 6.081230640411376953e+00 4.429358959197998047e+00 -3.110159188508987427e-03 9.866163600236177444e-04 -6.370628252625465393e-04 3.440998843871057034e-04
3.621000000000000000e+03 7.072127342224121094e+00 5.498886585235595703e+00 -9.098175913095474243e-03 2.164299134165048599e-03 -2.080163219943642616e-03 5.048198159784078598e-03
3.622000000000000000e+03 5.160166740417480469e+00 3.122973203659057617e+00 9.389217011630535126e-04 -1.106910713133402169e-04 2.484691794961690903e-04 2.851204772014170885e-04
3.623000000000000000e+03 5.633822441101074219e+00 3.782831668853759766e+00 -3.288701176643371582e-03 5.904708450543694198e-05 -9.688962600193917751e-04 -8.780276402831077576e-04
3.624000000000000000e+03 6.546886920928955078e+00 4.943883895874023438e+00 -7.034661713987588882e-03 1.105641014873981476e-03 -1.778706209734082222e-03 1.217466662637889385e-03
3.625000000000000000e+03 6.969904899597167969e+00 4.040812969207763672e+00 -1.532110851258039474e-03 3.861485674860887229e-05 -4.480487841647118330e-04 -4.227983881719410419e-04
3.626000000000000000e+03 7.447043418884277344e+00 4.761515140533447266e+00 -1.135288923978805542e-02 -5.266435910016298294e-04 -3.563859965652227402e-03 -2.047015586867928505e-03
3.627000000000000000e+03 5.466835975646972656e+00 1.780064940452575684e+00 -1.956844644155353308e-04 1.390896795783191919e-04 -1.697843617876060307e-05 2.792082086671143770e-04
3.628000000000000000e+03 5.362783908843994141e+00 2.328254699707031250e+00 7.739569409750401974e-04 3.894424298778176308e-04 3.490197996143251657e-04 1.154415294877253473e-04
3.629000000000000000e+03 4.886854648590087891e+00 2.462563276290893555e+00 -5.145326140336692333e-04 -4.738297138828784227e-04 -2.965086896438151598e-04 -2.308328257640823722e-04
3.630000000000000000e+03 5.811068058013916016e+00 2.087705373764038086e+00 4.010683041997253895e-04 4.401393816806375980e-04 2.523623115848749876e-04 -2.701875018829014152e-05
3.631000000000000000e+03 4.849430561065673828e+00 1.816301584243774414e+00 3.987164527643471956e-04 -3.775540608330629766e-05 1.082883172784931958e-04 2.816440246533602476e-04
3.632000000000000000e+03 6.422852039337158203e+00 -1.690387964248657227e+00 1.378877926617860794e-02 2.707876497879624367e-03 4.948996473103761673e-03 1.583193545229732990e-03
3.633000000000000000e+03 5.933526992797851562e+00 -1.645968675613403320e+00 1.124746631830930710e-02 3.502262057736515999e-03 4.424918442964553833e-03 3.102489281445741653e-03
3.634000000000000000e+03 5.349874019622802734e+00 -1.936112761497497559e+00 1.055644918233156204e-02 1.519043929874897003e-03 3.622648073360323906e-03 5.827861838042736053e-03
3.635000000000000000e+03 5.370872974395751953e+00 -1.645971775054931641e+00 9.412840940058231354e-03 3.060834947973489761e-03 3.742102766409516335e-03 8.135297335684299469e-03
3.636000000000000000e+03 4.881517410278320312e+00 -1.690391063690185547e+00 1.342444308102130890e-02 2.493928186595439911e-03 4.775511100888252258e-03 9.448252618312835693e-03
3.637000000000000000e+03 5.954525947570800781e+00 -1.936109781265258789e+00 9.133760817348957062e-03 1.835222938098013401e-03 3.290694905444979668e-03 5.229671951383352280e-03
3.638000000000000000e+03 1.775590515136718750e+01 3.175028085708618164e+00 -7.117539178580045700e-03 8.876164443790912628e-03 5.275876028463244438e-04 4.465102028916589916e-05
3.639000000000000000e+03 1.800742530822753906e+01 4.059745788574218750e+00 -2.044552005827426910e-03 -1.026404090225696564e-02 -3.692577825859189034e-03 -6.106484215706586838e-04
3.640000000000000000e+03 1.664445877075195312e+01 3.638153314590454102e+00 4.139101132750511169e-03 -7.046576589345932007e-03 -8.722426136955618858e-04 1.635757857002317905e-03
3.641000000000000000e+03 1.516695880889892578e+01 4.247816085815429688e+00 4.889476578682661057e-03 -1.606077887117862701e-02 -3.351390827447175980e-03 2.771320054307579994e-03
3.642000000000000000e+03 1.666070365905761719e+01 3.174384593963623047e+00 -8.548668585717678070e-03 -1.234520599246025085e-02 -6.268162280321121216e-03 -5.979066248983144760e-03
3.643000000000000000e+03 1.598876380920410156e+01 3.472295522689819336e+00 1.022953819483518600e-02 1.397018786519765854e-02 7.259917911142110825e-03 8.692306466400623322e-03
3.644000000000000000e+03 1.519600105285644531e+01 3.710364818572998047e+00 1.273377239704132080e-02 -1.271495502442121506e-02 5.645226337946951389e-06 3.151874290779232979e-03
3.645000000000000000e+03 1.361937808990478516e+01 4.263131141662597656e+00 -2.993175003211945295e-04 -3.147386712953448296e-03 -1.034011249430477619e-03 -1.535975607112050056e-03
3.646000000000000000e+03 1.373084163665771484e+01 3.194740772247314453e+00 -3.490210976451635361e-03 -2.701060846447944641e-03 -1.857381546869874001e-03 4.332967218942940235e-04
3.647000000000000000e+03 1.205087947845458984e+01 3.803025484085083008e+00 3.821092250291258097e-04 2.811685437336564064e-03 9.581384365446865559e-04 6.351915653795003891e-04
3.648000000000000000e+03 1.211003208160400391e+01 3.307624816894531250e+00 -7.833385025151073933e-04 -2.421549521386623383e-03 -9.614664013497531414e-04 -3.955923602916300297e-04
3.649000000000000000e+03 1.040482711791992188e+01 3.660504341125488281e+00 8.526614692527800798e-05 1.204396714456379414e-03 3.868988715112209320e-04 2.908633905462920666e-04
3.650000000000000000e+03 1.053125095367431641e+01 3.305319070816040039e+00 -2.157134258595760912e-05 -1.595597714185714722e-03 -4.851507255807518959e-04 1.522395614301785827e-04
3.651000000000000000e+03 9.908337593078613281e+00 4.408860206604003906e+00 1.784173655323684216e-04 3.075432323385030031e-04 1.457881880924105644e-04 -3.036667185369879007e-04
3.652000000000000000e+03 8.881902694702148438e+00 3.526441812515258789e+00 7.486639788112370297e-06 -8.265077485702931881e-04 -2.457063528709113598e-04 1.330998929915949702e-04
3.653000000000000000e+03 8.508167266845703125e+00 4.279796600341796875e+00 7.370804814854636788e-05 2.291050623171031475e-04 9.084393241209909320e-05 -1.798680459614843130e-04
3.654000000000000000e+03 9.734739303588867188e+00 3.410374641418457031e+00 -5.119268735143123195e-06 1.240502344444394112e-03 3.706149291247129440e-04 -1.944460236700251698e-04
3.655000000000000000e+03 1.427622890472412109e+01 3.503055334091186523e+00 -6.141416262835264206e-03 -1.929742982611060143e-03 -2.421347657218575478e-03 -2.156907459720969200e-03
3.656000000000000000e+03 1.446446323394775391e+01 3.151674032211303711e+00 2.558855339884757996e-03 5.106018390506505966e-03 2.299462212249636650e-03 -1.327498583123087883e-03
3.657000000000000000e+03 1.293046569824218750e+01 3.736744403839111328e+00 -1.711816061288118362e-03 -3.435666905716061592e-03 -1.544244820252060890e-03 -8.818248752504587173e-04
3.658000000000000000e+03 1.295153999328613281e+01 3.260417461395263672e+00 1.668758690357208252e-03 2.847590250894427299e-03 1.354904612526297569e-03 4.512763407547026873e-04
3.659000000000000000e+03 1.098351192474365234e+01 3.708417892456054688e+00 3.861491859424859285e-04 -9.735936764627695084e-04 -1.762333558872342110e-04 -1.201763443532399833e-04
3.660000000000000000e+03 1.128873062133789062e+01 3.306658506393432617e+00 -3.108984674327075481e-05 2.209603320807218552e-03 6.535539869219064713e-04 7.733736856607720256e-05
3.661000000000000000e+03 9.793407440185546875e+00 3.827624559402465820e+00 -1.556919742142781615e-04 -4.388502857182174921e-04 -1.783626794349402189e-04 -2.304871304659172893e-04
3.662000000000000000e+03 1.562588119506835938e+01 3.244383096694946289e+00 1.538114884169772267e-04 1.504476647824048996e-02 4.559573251754045486e-03 -5.615000613033771515e-03
3.663000000000000000e+03 1.557390403747558594e+01 3.892800807952880859e+00 -1.440676208585500717e-02 4.415983334183692932e-03 -2.997233532369136810e-03 -2.403820864856243134e-03
3.664000000000000000e+03 1.285681438446044922e+01 4.250439167022705078e+00 5.222204490564763546e-04 4.917451879009604454e-04 3.041896852664649487e-04 2.563409507274627686e-04
3.665000000000000000e+03 1.204919528961181641e+01 4.296102046966552734e+00 -1.286283077206462622e-04 -2.278522297274321318e-04 -1.069441641448065639e-04 2.580127038527280092e-04
3.666000000000000000e+03 1.129956626892089844e+01 4.364364624023437500e+00 -9.191925346385687590e-05 3.990176192019134760e-04 9.212950681103393435e-05 -3.226437547709792852e-04
3.667000000000000000e+03 1.059371089935302734e+01 4.415347576141357422e+00 -1.138083825935609639e-05 -3.935637068934738636e-04 -1.214833609992638230e-04 2.881121181417256594e-04
3.668000000000000000e+03 1.427559089660644531e+01 4.302263736724853516e+00 8.761734701693058014e-03 9.988325648009777069e-03 5.625017918646335602e-03 7.472891826182603836e-03
3.669000000000000000e+03 1.369169139862060547e+01 3.589658498764038086e+00 2.986046718433499336e-03 4.450526088476181030e-03 2.230971818789839745e-03 1.364951254799962044e-03
3.670000000000000000e+03 9.248983383178710938e+00 4.321306228637695312e+00 -9.259844227926805615e-05 -2.437595539959147573e-04 -1.009073966997675598e-04 2.771023137029260397e-04
3.671000000000000000e+03 1.753460884094238281e+01 3.708451271057128906e+00 2.030319301411509514e-03 1.419022795744240284e-03 1.034802640788257122e-03 -3.486242843791842461e-03
3.672000000000000000e+03 1.652886009216308594e+01 4.132761955261230469e+00 8.641537860967218876e-04 -1.105979736894369125e-02 -3.058692906051874161e-03 2.947763539850711823e-03
3.673000000000000000e+03 1.578265571594238281e+01 4.206769943237304688e+00 2.273692283779382706e-03 1.767927221953868866e-02 5.985889583826065063e-03 -4.669632762670516968e-03
3.674000000000000000e+03 1.728828048706054688e+01 4.147500514984130859e+00 2.707029692828655243e-03 1.044064946472644806e-02 3.944303840398788452e-03 -2.123555634170770645e-03
3.675000000000000000e+03 1.515810680389404297e+01 3.166421651840209961e+00 -7.973466068506240845e-03 -1.023965794593095779e-02 -5.463937297463417053e-03 3.635133616626262665e-03
3.676000000000000000e+03 1.478754043579101562e+01 3.582277536392211914e+00 7.949772290885448456e-03 -5.609088111668825150e-04 2.216659020632505417e-03 6.692877504974603653e-04
3.677000000000000000e+03 1.129950904846191406e+01 3.957404375076293945e+00 -1.605896977707743645e-04 -2.511277329176664352e-03 -8.015601197257637978e-04 -4.934335593134164810e-04
3.678000000000000000e+03 1.019717788696289062e+01 4.009255409240722656e+00 -1.819478347897529602e-04 -1.190071780001744628e-04 -9.028649947140365839e-05 -1.308228820562362671e-04
3.679000000000000000e+03 1.072452163696289062e+01 4.061599731445312500e+00 -4.094430187251418829e-04 1.455743331462144852e-03 3.138900792691856623e-04 2.987870248034596443e-04
3.680000000000000000e+03 1.478780555725097656e+01 4.107999324798583984e+00 -1.256392337381839752e-02 -3.824797458946704865e-03 -4.916616249829530716e-03 -6.120054982602596283e-03
3.681000000000000000e+03 1.444487667083740234e+01 3.959024667739868164e+00 -6.630254443734884262e-03 1.460637897253036499e-03 -1.550884917378425598e-03 -6.716400850564241409e-03
3.682000000000000000e+03 1.395023059844970703e+01 3.856135368347167969e+00 5.855979979969561100e-04 3.322902135550975800e-03 1.172550022602081299e-03 4.618444945663213730e-03
3.683000000000000000e+03 1.948812866210937500e+01 3.877326726913452148e+00 -3.801124694291502237e-04 -1.140645612031221390e-02 -3.535970579832792282e-03 1.986901334021240473e-04
3.684000000000000000e+03 2.017558670043945312e+01 3.088615179061889648e+00 1.030298531986773014e-03 -8.973954245448112488e-03 -2.383096842095255852e-03 -2.594384830445051193e-03
3.685000000000000000e+03 2.097657775878906250e+01 3.774520874023437500e+00 -6.055572070181369781e-03 -8.562064729630947113e-03 -4.385290667414665222e-03 -2.072295639663934708e-03
3.686000000000000000e+03 1.870165252685546875e+01 3.189713239669799805e+00 3.368844743818044662e-03 -6.288158707320690155e-03 -8.757942123338580132e-04 2.891136100515723228e-03
3.687000000000000000e+03 1.874370384216308594e+01 3.928573846817016602e+00 -1.880902331322431564e-03 1.124506164342164993e-02 2.809247700497508049e-03 1.142198219895362854e-03
3.688000000000000000e+03 2.091246414184570312e+01 3.037189483642578125e+00 -7.573343464173376560e-04 7.125453557819128036e-03 1.910435850732028484e-03 -5.811494309455156326e-03
3.689000000000000000e+03 1.943872451782226562e+01 3.138975620269775391e+00 1.171698444522917271e-03 2.527696546167135239e-03 1.109818462282419205e-03 -1.639188616536557674e-03
3.690000000000000000e+03 2.023234558105468750e+01 3.826456785202026367e+00 -2.309828530997037888e-03 9.000927209854125977e-03 2.007329603657126427e-03 -1.410485827364027500e-03
3.691000000000000000e+03 2.338276290893554688e+01 2.962652921676635742e+00 1.000162120908498764e-02 -6.817074608989059925e-04 2.795974025502800941e-03 9.857472963631153107e-03
3.692000000000000000e+03 2.264334869384765625e+01 2.863679885864257812e+00 2.367788739502429962e-02 6.218215916305780411e-03 8.968831039965152740e-03 1.609523664228618145e-03
3.693000000000000000e+03 2.270840263366699219e+01 3.601070642471313477e+00 -2.264695055782794952e-02 -7.888858206570148468e-03 -9.160742163658142090e-03 -4.086100030690431595e-03
3.694000000000000000e+03 2.175264739990234375e+01 2.959368467330932617e+00 3.850280307233333588e-03 -1.405791379511356354e-03 7.333466783165931702e-04 -8.771510911174118519e-04
3.695000000000000000e+03 2.181952476501464844e+01 3.696549654006958008e+00 -1.113010756671428680e-02 7.314802613109350204e-03 -1.144591486081480980e-03 -4.490604042075574398e-04
3.696000000000000000e+03 2.251446151733398438e+01 4.627945423126220703e+00 -6.127236410975456238e-03 1.004576799459755421e-03 -1.536797848530113697e-03 -2.529607154428958893e-03
3.697000000000000000e+03 2.351535415649414062e+01 5.272481441497802734e+00 -2.928826957941055298e-03 -4.905609413981437683e-03 -2.350330818444490433e-03 -7.573463488370180130e-03
3.698000000000000000e+03 2.182980918884277344e+01 5.243100166320800781e+00 -1.250430569052696228e-02 7.783906767144799232e-04 -3.517774632200598717e-03 -5.742623470723628998e-03
3.699000000000000000e+03 2.247423362731933594e+01 5.229226112365722656e+00 -1.149182114750146866e-02 2.522475086152553558e-03 -2.690803958103060722e-03 -5.791777744889259338e-03
3.700000000000000000e+03 2.183705139160156250e+01 4.497415542602539062e+00 -1.031914912164211273e-02 1.132025150582194328e-03 -2.756137168034911156e-03 -1.662842696532607079e-03
3.701000000000000000e+03 2.288488769531250000e+01 5.190820693969726562e+00 -7.486417423933744431e-03 -3.000686643645167351e-03 -3.146131057292222977e-03 -6.805969402194023132e-03
3.702000000000000000e+03 2.318619728088378906e+01 5.324548721313476562e+00 -7.037155330181121826e-03 -3.876483300700783730e-03 -3.274091519415378571e-03 -6.417637225240468979e-03
3.703000000000000000e+03 2.317033004760742188e+01 4.731772899627685547e+00 -5.671275313943624496e-03 -1.976473256945610046e-03 -2.294324571266770363e-03 -3.777669975534081459e-03
3.704000000000000000e+03 2.294223785400390625e+01 4.251420497894287109e+00 -2.585953800007700920e-03 -1.568403444252908230e-03 -1.246307161636650562e-03 -1.993339275941252708e-03
3.705000000000000000e+03 2.310712242126464844e+01 5.102261543273925781e+00 -5.091289989650249481e-03 -3.032084088772535324e-03 -2.437012270092964172e-03 -5.039819981902837753e-03
3.706000000000000000e+03 2.365458869934082031e+01 5.207394123077392578e+00 1.903519441839307547e-04 -3.328246995806694031e-03 -9.413685183972120285e-04 -4.315072670578956604e-03
3.707000000000000000e+03 2.291119003295898438e+01 4.889540195465087891e+00 -6.220797542482614517e-03 -2.113279653713107109e-03 -2.500222995877265930e-03 -4.933602642267942429e-03
3.708000000000000000e+03 2.334641265869140625e+01 5.053529262542724609e+00 -4.220540635287761688e-03 -4.497915972024202347e-03 -2.615537028759717941e-03 -3.516707802191376686e-03
3.709000000000000000e+03 2.348650550842285156e+01 4.675466537475585938e+00 -2.780064707621932030e-03 -2.463879296556115150e-03 -1.573183224536478519e-03 -2.570310374721884727e-03
3.710000000000000000e+03 6.957012653350830078e+00 3.898485600948333740e-01 -1.358327153866412118e-05 -2.534556260798126459e-04 -8.011166937649250031e-05 -3.278045551269315183e-05
3.711000000000000000e+03 7.073252201080322266e+00 1.129848599433898926e+00 3.664969335659407079e-05 1.467458641855046153e-04 5.501866689883172512e-05 5.689576573786325753e-05
3.712000000000000000e+03 6.319694042205810547e+00 1.129848599433898926e+00 -3.969768295064568520e-05 -5.705135845346376300e-05 -2.902471351262647659e-05 -2.143530218745581806e-05
3.713000000000000000e+03 6.201207637786865234e+00 3.898485600948333740e-01 1.786058783181942999e-05 8.385016553802415729e-05 3.051322528335731477e-05 8.182285455404780805e-06
3.714000000000000000e+03 8.670824050903320312e+00 3.840262591838836670e-01 -4.575857747113332152e-05 -3.691642777994275093e-04 -1.244768500328063965e-04 -1.070868747774511576e-04
3.715000000000000000e+03 7.878619670867919922e+00 1.127028346061706543e+00 7.268883109645685181e-06 -2.621563035063445568e-04 -7.646622543688863516e-05 -6.726584251737222075e-05
3.716000000000000000e+03 7.779973506927490234e+00 3.870283365249633789e-01 -8.349636118509806693e-06 3.247426357120275497e-04 9.491790115134790540e-05 7.830970571376383305e-05
3.717000000000000000e+03 9.562618255615234375e+00 3.869979083538055420e-01 5.112793951411731541e-05 3.892754029948264360e-04 1.321210002060979605e-04 8.305814844788983464e-05
3.718000000000000000e+03 9.595384597778320312e+00 1.126997947692871094e+00 -1.098695793189108372e-04 -4.594306519720703363e-04 -1.707900664769113064e-04 -3.065045166295021772e-04
3.719000000000000000e+03 8.736529350280761719e+00 1.124026298522949219e+00 -8.801934200164396316e-06 4.432900168467313051e-04 1.303464232478290796e-04 1.780353632057085633e-04
3.720000000000000000e+03 3.818112134933471680e+00 -2.739334106445312500e-01 4.913793411105871201e-03 9.401887073181569576e-04 1.756194629706442356e-03 6.599614280276000500e-04
3.721000000000000000e+03 3.930468320846557617e+00 -1.013933420181274414e+00 6.105999927967786789e-03 -4.896733444184064865e-04 1.684897928498685360e-03 1.983117079362273216e-03
3.722000000000000000e+03 3.030747890472412109e+00 -3.350256085395812988e-01 3.091697115451097488e-03 -7.302986923605203629e-04 7.084194803610444069e-04 6.283065886236727238e-04
3.723000000000000000e+03 2.223073005676269531e+00 -3.565944731235504150e-01 1.415490754880011082e-03 4.473200242500752211e-04 5.588432541117072105e-04 6.733936024829745293e-04
3.724000000000000000e+03 1.423210144042968750e+00 -3.682287633419036865e-01 3.578752512112259865e-04 -2.347757344978163019e-06 1.066582481143996119e-04 2.927788591478019953e-04
3.725000000000000000e+03 3.579095304012298584e-01 -9.568480253219604492e-01 1.637778609619999770e-06 1.385822833981364965e-04 4.206601806799881160e-05 1.567208237247541547e-04
3.726000000000000000e+03 6.884766817092895508e-01 -3.942328691482543945e-01 1.372148108202964067e-04 1.623167190700769424e-04 8.985945896711200476e-05 1.061322018358623609e-05
3.727000000000000000e+03 3.199677228927612305e+00 -1.075025558471679688e+00 4.523362498730421066e-03 1.039276103256270289e-04 1.388187054544687271e-03 2.866560593247413635e-03
3.728000000000000000e+03 2.448575496673583984e+00 -1.096594452857971191e+00 2.759186550974845886e-03 2.912960189860314131e-04 9.151448030024766922e-04 2.125110011547803879e-03
3.729000000000000000e+03 1.705285787582397461e+00 -1.108228802680969238e+00 1.377237262204289436e-03 1.025573466904461384e-03 7.208432070910930634e-04 1.626258715987205505e-03
3.730000000000000000e+03 1.027125477790832520e+00 -1.134232878684997559e+00 4.154995258431881666e-04 7.572489557787775993e-04 3.518245357554405928e-04 6.489728693850338459e-04
3.731000000000000000e+03 4.037366485595703125e+01 1.113951778411865234e+01 -7.886523753404617310e-02 2.446791855618357658e-03 -2.292553521692752838e-02 9.009527042508125305e-03
3.732000000000000000e+03 3.962160873413085938e+01 1.131359195709228516e+01 -9.565669298171997070e-02 -1.603776356205344200e-03 -2.917814068496227264e-02 1.439648866653442383e-02
3.733000000000000000e+03 4.275807952880859375e+01 1.133976268768310547e+01 -7.402661442756652832e-02 -1.014673151075839996e-02 -2.525200322270393372e-02 -1.917989924550056458e-02
3.734000000000000000e+03 3.886851119995117188e+01 1.148583889007568359e+01 -9.665049612522125244e-02 2.769287675619125366e-03 -2.816436067223548889e-02 2.618855610489845276e-02
3.735000000000000000e+03 4.112229919433593750e+01 1.096372222900390625e+01 -5.543840676546096802e-02 1.235737092792987823e-02 -1.292431168258190155e-02 -4.785507917404174805e-03
3.736000000000000000e+03 4.054919052124023438e+01 1.186267280578613281e+01 -1.504911035299301147e-01 2.083272486925125122e-02 -3.889751061797142029e-02 -3.618259681388735771e-03
3.737000000000000000e+03 4.185790634155273438e+01 1.078891849517822266e+01 -2.257630787789821625e-02 -1.088213734328746796e-02 -1.003753393888473511e-02 -8.925586938858032227e-03
3.738000000000000000e+03 4.253778457641601562e+01 1.062180137634277344e+01 -1.961276720976457000e-04 1.972074620425701141e-02 5.857385229319334030e-03 -7.926811464130878448e-03
3.739000000000000000e+03 4.325923919677734375e+01 1.099616241455078125e+01 -1.884418353438377380e-02 -1.566053181886672974e-02 -1.035141386091709137e-02 -1.260759541764855385e-03
3.740000000000000000e+03 3.901419448852539062e+01 1.221245574951171875e+01 -1.619335711002349854e-01 1.196893397718667984e-02 -4.498938843607902527e-02 4.291602969169616699e-02
3.741000000000000000e+03 4.131274795532226562e+01 1.168514633178710938e+01 -1.274096816778182983e-01 1.118157338351011276e-02 -3.486843034625053406e-02 -4.722333047538995743e-03
3.742000000000000000e+03 4.206327819824218750e+01 1.150861167907714844e+01 -1.146709024906158447e-01 1.021073386073112488e-02 -3.133805096149444580e-02 -2.274789474904537201e-02
3.743000000000000000e+03 3.978221511840820312e+01 1.203847694396972656e+01 -1.633514463901519775e-01 1.358519867062568665e-02 -4.492987692356109619e-02 2.270785905420780182e-02
3.744000000000000000e+03 3.674169540405273438e+01 1.212182044982910156e+01 -1.468262914568185806e-02 -5.317082256078720093e-02 -2.035603672266006470e-02 3.470655903220176697e-02
3.745000000000000000e+03 3.698434829711914062e+01 1.262278556823730469e+01 -1.411217451095581055e-01 -1.955394260585308075e-02 -4.820270463824272156e-02 7.084618508815765381e-02
3.746000000000000000e+03 3.825864791870117188e+01 1.234777259826660156e+01 -1.603859812021255493e-01 5.895257927477359772e-03 -4.634721949696540833e-02 6.644024699926376343e-02
3.747000000000000000e+03 3.804425811767578125e+01 1.163198184967041016e+01 -6.286298483610153198e-02 -6.314767058938741684e-03 -2.075332589447498322e-02 3.142957761883735657e-02
3.748000000000000000e+03 3.756306838989257812e+01 1.246899890899658203e+01 -1.586195379495620728e-01 -1.971820741891860962e-02 -5.350132286548614502e-02 9.214045107364654541e-02
3.749000000000000000e+03 3.719634628295898438e+01 1.177657890319824219e+01 -7.136952597647905350e-03 -8.514174260199069977e-03 -4.695338197052478790e-03 2.048512175679206848e-02
3.750000000000000000e+03 3.663000488281250000e+01 1.268585968017578125e+01 -1.318204253911972046e-01 -9.545534849166870117e-02 -6.818273663520812988e-02 9.606242924928665161e-02
3.751000000000000000e+03 3.645061874389648438e+01 1.246910285949707031e+01 -4.523378983139991760e-02 -7.980842143297195435e-02 -3.751266375184059143e-02 4.885492473840713501e-02
3.752000000000000000e+03 5.397003936767578125e+01 1.078238105773925781e+01 1.211074739694595337e-02 9.636829607188701630e-03 6.524273194372653961e-03 -3.358521964401006699e-03
3.753000000000000000e+03 5.390347290039062500e+01 1.004510879516601562e+01 1.058257743716239929e-02 -6.695137359201908112e-03 1.166232163086533546e-03 -1.087923813611268997e-02
3.754000000000000000e+03 5.471431732177734375e+01 1.073740196228027344e+01 7.256905082613229752e-03 -7.140974979847669601e-03 3.477907739579677582e-05 -2.693811431527137756e-03
3.755000000000000000e+03 5.322494125366210938e+01 1.082944869995117188e+01 1.831007935106754303e-02 -9.068732149899005890e-03 2.772404113784432411e-03 -4.858370404690504074e-03
3.756000000000000000e+03 5.242547225952148438e+01 1.014035129547119141e+01 1.718371175229549408e-02 -9.225908666849136353e-03 2.387340879067778587e-03 -5.945951677858829498e-03
3.757000000000000000e+03 5.247904205322265625e+01 1.087844371795654297e+01 2.095692604780197144e-02 5.466199479997158051e-03 7.926938124001026154e-03 1.673189835855737329e-04
3.758000000000000000e+03 5.464125442504882812e+01 1.000053882598876953e+01 2.189876278862357140e-03 1.298533845692873001e-02 4.552564583718776703e-03 -8.289522491395473480e-03
3.759000000000000000e+03 5.316487503051757812e+01 1.009176635742187500e+01 1.277092657983303070e-02 2.334253396838903427e-03 4.531553946435451508e-03 -4.839247092604637146e-03
3.760000000000000000e+03 3.871810150146484375e+01 1.072134113311767578e+01 -2.828612225130200386e-03 -6.708911969326436520e-04 -1.049850950948894024e-03 -6.812562060076743364e-05
3.761000000000000000e+03 3.946144485473632812e+01 1.055411434173583984e+01 -2.266769763082265854e-03 1.472673378884792328e-03 -2.382288948865607381e-04 1.452259952202439308e-03
3.762000000000000000e+03 4.214028167724609375e+01 9.757813453674316406e+00 -1.095625339075922966e-05 -2.710470289457589388e-04 -8.460097888018935919e-05 -7.109291618689894676e-05
3.763000000000000000e+03 3.857750320434570312e+01 9.993584632873535156e+00 4.787266952916979790e-04 -2.077982760965824127e-03 -4.797768197022378445e-04 8.067385642789304256e-04
3.764000000000000000e+03 4.160499191284179688e+01 1.006451320648193359e+01 -1.020161726046353579e-04 -2.584981848485767841e-04 -1.081543086911551654e-04 4.884338122792541981e-04
3.765000000000000000e+03 4.144534683227539062e+01 9.334435462951660156e+00 1.782348728738725185e-03 1.178850303404033184e-03 8.883597329258918762e-04 -1.567542552947998047e-03
3.766000000000000000e+03 4.092973709106445312e+01 1.022012138366699219e+01 -6.508239312097430229e-04 7.288387278094887733e-04 2.340444189030677080e-05 1.225922169396653771e-04
3.767000000000000000e+03 4.020204162597656250e+01 1.038670063018798828e+01 -9.841799037531018257e-04 -2.033421304076910019e-03 -9.052803507074713707e-04 6.892876699566841125e-04
3.768000000000000000e+03 4.077485275268554688e+01 9.490621566772460938e+00 1.685297233052551746e-03 -3.637380199506878853e-03 -5.856248899362981319e-04 1.727379043586552143e-03
3.769000000000000000e+03 4.005191802978515625e+01 9.657777786254882812e+00 -1.152410055510699749e-03 5.867228028364479542e-04 -1.697061816230416298e-04 2.040475839748978615e-03
3.770000000000000000e+03 3.931608200073242188e+01 9.825769424438476562e+00 8.154755960276816040e-06 1.975543331354856491e-03 5.951094790361821651e-04 -6.105689099058508873e-04
3.771000000000000000e+03 1.463219356536865234e+01 1.208772420883178711e+00 1.292863627895712852e-03 2.025876659899950027e-03 9.956221329048275948e-04 -8.678812882862985134e-04
3.772000000000000000e+03 1.413865852355957031e+01 3.089686632156372070e-01 -4.992456524632871151e-04 1.092595513910055161e-03 1.780049642547965050e-04 -5.207259891903959215e-05
3.773000000000000000e+03 1.413591098785400391e+01 8.441513180732727051e-01 -1.103505375795066357e-03 -7.679113768972456455e-04 -5.614250549115240574e-04 9.995766449719667435e-04
3.774000000000000000e+03 1.324289608001708984e+01 1.113969683647155762e+00 9.339150274172425270e-04 7.317838026210665703e-04 4.997096257284283638e-04 3.238039789721369743e-04
3.775000000000000000e+03 1.484628582000732422e+01 5.796153545379638672e-01 -1.586544676683843136e-04 -8.766850805841386318e-04 -3.106018702965229750e-04 -3.792186325881630182e-04
3.776000000000000000e+03 1.338759136199951172e+01 2.497024983167648315e-01 -3.700288943946361542e-04 -6.157946190796792507e-04 -2.957470715045928955e-04 1.408115786034613848e-04
3.777000000000000000e+03 1.422421169281005859e+01 1.250681281089782715e+00 1.976269297301769257e-03 6.487892242148518562e-04 7.875175797380506992e-04 1.553385518491268158e-04
3.778000000000000000e+03 1.355335903167724609e+01 8.086416125297546387e-01 1.419356121914461255e-04 3.918368311133235693e-04 1.601317344466224313e-04 -7.594595081172883511e-05
3.779000000000000000e+03 1.374464988708496094e+01 1.230049014091491699e+00 8.436680218437686563e-05 -7.945717079564929008e-04 -2.130614739144220948e-04 7.758536958135664463e-04
3.780000000000000000e+03 1.038163661956787109e+01 3.719484806060791016e-01 -1.056702217283600476e-06 -4.572893085423856974e-04 -1.375038118567317724e-04 -1.069114514393731952e-04
3.781000000000000000e+03 1.112833786010742188e+01 3.352923989295959473e-01 6.883156311232596636e-05 4.353044787421822548e-04 1.512408198323100805e-04 9.365083678858354688e-05
3.782000000000000000e+03 1.187404060363769531e+01 3.023687005043029785e-01 -3.147627649013884366e-05 -4.643342690542340279e-04 -1.487431727582588792e-04 -5.574810711550526321e-05
3.783000000000000000e+03 1.187335777282714844e+01 1.043116807937622070e+00 4.913808152195997536e-05 7.488914998248219490e-04 2.394088660366833210e-04 3.107953816652297974e-04
3.784000000000000000e+03 1.261872673034667969e+01 2.733090519905090332e-01 -3.289767118985764682e-05 4.550225276034325361e-04 1.266374601982533932e-04 1.146566646639257669e-04
3.785000000000000000e+03 1.261125278472900391e+01 1.014356493949890137e+00 -1.479954953538253903e-04 -7.834043935872614384e-04 -2.794199681375175714e-04 -1.591489854035899043e-04
3.786000000000000000e+03 1.039453697204589844e+01 1.112098097801208496e+00 2.085743908537551761e-04 5.475372890941798687e-04 2.268334937980398536e-04 1.900435891002416611e-04
3.787000000000000000e+03 1.113444709777832031e+01 1.075741291046142578e+00 -3.516924334689974785e-05 -7.613334455527365208e-04 -2.389508154010400176e-04 -1.444340887246653438e-04
3.788000000000000000e+03 5.544353008270263672e+00 1.129850029945373535e+00 3.147977258777245879e-05 1.212328352266922593e-04 4.581378379953093827e-05 8.164125028997659683e-05
3.789000000000000000e+03 4.790751457214355469e+00 1.129850029945373535e+00 -1.759597216732800007e-05 -2.153047353203874081e-05 -1.173793407360790297e-05 8.840218652039766312e-05
3.790000000000000000e+03 4.676749229431152344e+00 3.898500204086303711e-01 1.526691485196352005e-04 2.633270241858554073e-07 4.587974399328231812e-05 6.607153045479208231e-05
3.791000000000000000e+03 5.432579994201660156e+00 3.898500204086303711e-01 3.875066613545641303e-05 3.143802678096108139e-05 2.105660860252100974e-05 3.545446816133335233e-05
3.792000000000000000e+03 1.112103080749511719e+01 -4.428110718727111816e-01 2.625385671854019165e-02 2.318175509572029114e-03 8.571609854698181152e-03 -1.309829065576195717e-03
3.793000000000000000e+03 1.187371921539306641e+01 -4.752737879753112793e-01 2.534199506044387817e-02 -2.844884060323238373e-03 6.749133113771677017e-03 -1.957001630216836929e-03
3.794000000000000000e+03 1.111492252349853516e+01 -1.183259963989257812e+00 2.059103734791278839e-02 -4.291753284633159637e-03 4.889785312116146088e-03 -1.496816636063158512e-03
3.795000000000000000e+03 1.262644767761230469e+01 -5.069373250007629395e-01 2.277051284909248352e-02 2.468144055455923080e-03 7.571597117930650711e-03 -2.621420426294207573e-03
3.796000000000000000e+03 1.035515594482421875e+01 -1.148333072662353516e+00 2.048629894852638245e-02 1.203818013891577721e-03 6.507035344839096069e-03 2.972560178022831678e-04
3.797000000000000000e+03 1.036805534362792969e+01 -4.081833958625793457e-01 2.599792741239070892e-02 -2.910365816205739975e-03 6.926268339157104492e-03 -6.558084278367459774e-04
3.798000000000000000e+03 1.263392257690429688e+01 -1.248021602630615234e+00 1.780302077531814575e-02 -5.123908631503582001e-03 3.803733736276626587e-03 -5.499396473169326782e-03
3.799000000000000000e+03 1.187440204620361328e+01 -1.216021895408630371e+00 1.950973644852638245e-02 1.747807371430099010e-03 6.377262994647026062e-03 -3.053951775655150414e-03
3.800000000000000000e+03 3.787689590454101562e+01 1.088152790069580078e+01 -2.633810276165604591e-03 -3.752501215785741806e-04 -9.027181076817214489e-04 9.583057253621518612e-04
3.801000000000000000e+03 3.687048339843750000e+01 1.029800510406494141e+01 -3.748509101569652557e-03 5.162993911653757095e-04 -9.696629713289439678e-04 1.572940265759825706e-03
3.802000000000000000e+03 3.774330520629882812e+01 1.015336227416992188e+01 5.434285849332809448e-04 2.868274692445993423e-03 1.023510936647653580e-03 -1.376010826788842678e-03
3.803000000000000000e+03 3.632341003417968750e+01 1.056402301788330078e+01 -4.597381222993135452e-03 -6.604115013033151627e-03 -3.360448870807886124e-03 -1.444465597160160542e-04
3.804000000000000000e+03 3.699481582641601562e+01 1.102758884429931641e+01 7.335209520533680916e-04 4.257924854755401611e-03 1.497433753684163094e-03 -3.419406013563275337e-03
3.805000000000000000e+03 1.483313274383544922e+01 -3.616165518760681152e-01 -9.953270200639963150e-04 -6.981650833040475845e-03 -2.393093425780534744e-03 -5.450902041047811508e-03
3.806000000000000000e+03 1.534506702423095703e+01 -8.866766691207885742e-01 4.079502075910568237e-03 1.156816165894269943e-02 4.694299306720495224e-03 1.036678208038210869e-03
3.807000000000000000e+03 1.413932895660400391e+01 -4.292643368244171143e-01 8.000568486750125885e-03 3.777557751163840294e-03 3.533437848091125488e-03 -2.824868774041533470e-03
3.808000000000000000e+03 1.338562393188476562e+01 -4.926638007164001465e-01 1.645398512482643127e-02 -3.454254940152168274e-03 3.899919101968407631e-03 -3.347333520650863647e-03
3.809000000000000000e+03 1.341033267974853516e+01 -1.234521746635437012e+00 1.650488935410976410e-02 1.342414179816842079e-03 5.354191176593303680e-03 -7.456672377884387970e-03
3.810000000000000000e+03 1.419171237945556641e+01 -1.172296047210693359e+00 1.391340792179107666e-02 -4.284259863197803497e-03 2.888744464144110680e-03 -9.597159922122955322e-03
3.811000000000000000e+03 1.491319084167480469e+01 -1.105822205543518066e+00 1.262549683451652527e-02 7.318774238228797913e-03 5.983281414955854416e-03 -6.390070077031850815e-03
3.812000000000000000e+03 7.749565887451171875e+01 8.461713790893554688e+00 1.370615005493164062e+01 2.552628278732299805e+00 4.877633571624755859e+00 8.629533767700195312e+00
3.813000000000000000e+03 7.749565124511718750e+01 8.442220687866210938e+00 1.577033233642578125e+01 9.280466079711914062e+00 7.515239715576171875e+00 2.007114601135253906e+01
3.814000000000000000e+03 7.749944305419921875e+01 8.423100471496582031e+00 1.657326889038085938e+01 1.953785896301269531e+01 1.083333873748779297e+01 2.490426635742187500e+01
3.815000000000000000e+03 7.750689697265625000e+01 8.405086517333984375e+00 1.537612628936767578e+01 3.036372947692871094e+01 1.372195720672607422e+01 2.778242683410644531e+01
3.816000000000000000e+03 7.751770782470703125e+01 8.388869285583496094e+00 1.364553260803222656e+01 4.210732650756835938e+01 1.672585868835449219e+01 2.811345291137695312e+01
3.817000000000000000e+03 7.753147888183593750e+01 8.375072479248046875e+00 1.122511005401611328e+01 5.273854827880859375e+01 1.918909645080566406e+01 2.622483825683593750e+01
3.818000000000000000e+03 7.754767608642578125e+01 8.364223480224609375e+00 9.286371231079101562e+00 6.258097457885742188e+01 2.156020355224609375e+01 2.182441139221191406e+01
3.819000000000000000e+03 7.756567382812500000e+01 8.356739997863769531e+00 8.023529052734375000e+00 6.943849182128906250e+01 2.323860740661621094e+01 1.591910934448242188e+01
3.820000000000000000e+03 7.758478546142578125e+01 8.352908134460449219e+00 8.859807014465332031e+00 7.371017456054687500e+01 2.477099418640136719e+01 8.715578079223632812e+00
3.821000000000000000e+03 7.760427856445312500e+01 8.352875709533691406e+00 1.094122886657714844e+01 7.446040344238281250e+01 2.562048912048339844e+01 1.756016731262207031e+00
3.822000000000000000e+03 7.762340545654296875e+01 8.356643676757812500e+00 1.579263210296630859e+01 7.276949310302734375e+01 2.656863784790039062e+01 -4.333420276641845703e+00
3.823000000000000000e+03 7.764142608642578125e+01 8.364067077636718750e+00 2.046740913391113281e+01 6.814916992187500000e+01 2.658497238159179688e+01 -8.928634643554687500e+00
3.824000000000000000e+03 7.765766143798828125e+01 8.374861717224121094e+00 2.607583999633789062e+01 6.348106002807617188e+01 2.686707115173339844e+01 -1.085254478454589844e+01
3.825000000000000000e+03 7.767147064208984375e+01 8.388613700866699219e+00 3.279754257202148438e+01 5.816445159912109375e+01 2.728859901428222656e+01 -1.058703517913818359e+01
3.826000000000000000e+03 7.768234252929687500e+01 8.404793739318847656e+00 3.577430343627929688e+01 5.203394317626953125e+01 2.634247398376464844e+01 -9.405291557312011719e+00
3.827000000000000000e+03 7.768984985351562500e+01 8.422782897949218750e+00 4.033863067626953125e+01 5.098267745971679688e+01 2.739639282226562500e+01 -5.637915134429931641e+00
3.828000000000000000e+03 7.769371032714843750e+01 8.441890716552734375e+00 4.110059356689453125e+01 4.698421096801757812e+01 2.642544174194335938e+01 -1.646821856498718262e+00
3.829000000000000000e+03 7.769376373291015625e+01 8.461382865905761719e+00 4.201559829711914062e+01 4.904719543457031250e+01 2.731883811950683594e+01 2.495776653289794922e+00
3.830000000000000000e+03 7.769002532958984375e+01 8.480513572692871094e+00 3.979449081420898438e+01 4.961600112915039062e+01 2.682314682006835938e+01 6.786403179168701172e+00
3.831000000000000000e+03 7.768262481689453125e+01 8.498547554016113281e+00 3.758224868774414062e+01 5.448708343505859375e+01 2.762079811096191406e+01 9.609799385070800781e+00
3.832000000000000000e+03 7.767185211181640625e+01 8.514792442321777344e+00 3.274486541748046875e+01 5.894244003295898438e+01 2.750619125366210938e+01 1.165105152130126953e+01
3.833000000000000000e+03 7.765811920166015625e+01 8.528626441955566406e+00 2.818437576293945312e+01 6.510320281982421875e+01 2.798627281188964844e+01 1.137389469146728516e+01
3.834000000000000000e+03 7.764195251464843750e+01 8.539517402648925781e+00 2.280577278137207031e+01 7.079982757568359375e+01 2.808167839050292969e+01 9.081385612487792969e+00
3.835000000000000000e+03 7.762397003173828125e+01 8.547048568725585938e+00 1.800523376464843750e+01 7.548368835449218750e+01 2.804667854309082031e+01 4.508456707000732422e+00
3.836000000000000000e+03 7.760486602783203125e+01 8.550930976867675781e+00 1.494072914123535156e+01 7.815093994140625000e+01 2.792750167846679688e+01 -1.849080085754394531e+00
3.837000000000000000e+03 7.758537292480468750e+01 8.551014900207519531e+00 1.330638122558593750e+01 7.772679138183593750e+01 2.730995178222656250e+01 -9.620606422424316406e+00
3.838000000000000000e+03 7.756623840332031250e+01 8.547297477722167969e+00 1.414205837249755859e+01 7.406064605712890625e+01 2.646080970764160156e+01 -1.716579437255859375e+01
3.839000000000000000e+03 7.754819488525390625e+01 8.539921760559082031e+00 1.729703521728515625e+01 6.675371551513671875e+01 2.521522712707519531e+01 -2.401889801025390625e+01
3.840000000000000000e+03 7.753193664550781250e+01 8.529170036315917969e+00 2.166341590881347656e+01 5.659077072143554688e+01 2.347625541687011719e+01 -2.867951202392578125e+01
3.841000000000000000e+03 7.751808929443359375e+01 8.515455245971679688e+00 2.780367469787597656e+01 4.388385009765625000e+01 2.150625801086425781e+01 -3.045347785949707031e+01
3.842000000000000000e+03 7.750717163085937500e+01 8.499302864074707031e+00 3.308752441406250000e+01 3.002229309082031250e+01 1.893294525146484375e+01 -2.889868736267089844e+01
3.843000000000000000e+03 7.749961853027343750e+01 8.481333732604980469e+00 4.080706787109375000e+01 1.331202507019042969e+01 1.623572921752929688e+01 -2.044087600708007812e+01
1.510000000000000000e+02 5.147454833984375000e+01 7.661915302276611328e+00 4.337969236075878143e-03 -1.468665059655904770e-02 -3.104604315012693405e-03 -3.042990528047084808e-02
1.520000000000000000e+02 3.927082824707031250e+01 -2.343610382080078125e+01 4.031129181385040283e-02 -3.131088018417358398e-01 -8.183925598859786987e-02 -2.820574939250946045e-01
1.530000000000000000e+02 6.307241439819335938e+01 2.679513931274414062e+01 6.481381654739379883e-01 6.114528179168701172e-01 3.778772950172424316e-01 -1.560001969337463379e-01
1.540000000000000000e+02 4.310714340209960938e+01 2.644197273254394531e+01 1.252292562276124954e-02 -1.845295131206512451e-01 -5.160197615623474121e-02 4.218835234642028809e-01
1.550000000000000000e+02 4.258443832397460938e+01 -1.699664306640625000e+01 -7.257760763168334961e-01 -7.068274021148681641e-01 -4.297810494899749756e-01 1.299473270773887634e-02
1.560000000000000000e+02 3.580625915527343750e+01 -2.880995368957519531e+01 1.765595823526382446e-01 -1.801538467407226562e-01 -1.078279805369675159e-03 -2.271637916564941406e-01
1.570000000000000000e+02 3.814316177368164062e+01 -3.114669418334960938e+01 2.603592574596405029e-01 -1.661662608385086060e-01 2.825790457427501678e-02 -1.881912946701049805e-01
1.580000000000000000e+02 7.175727081298828125e+01 2.613342285156250000e+01 5.103635787963867188e-01 3.372381925582885742e+00 1.164823651313781738e+00 -1.061524748802185059e+00
1.590000000000000000e+02 4.962721633911132812e+01 3.048526763916015625e+01 4.179136157035827637e-01 -1.894349902868270874e-01 6.854358315467834473e-02 3.129524290561676025e-01
1.600000000000000000e+02 8.345705032348632812e+00 2.408860969543457031e+01 -1.337034162133932114e-02 -2.208827249705791473e-02 -1.063758414238691330e-02 2.470060624182224274e-02
1.610000000000000000e+02 3.955588531494140625e+01 8.110320091247558594e+00 1.006836537271738052e-03 -9.076031856238842010e-03 -2.420758595690131187e-03 4.108408000320196152e-03
1.620000000000000000e+02 2.501172828674316406e+01 2.375385999679565430e+00 4.595726132392883301e-01 1.970886066555976868e-02 1.437844336032867432e-01 1.821603029966354370e-01
1.630000000000000000e+02 2.549293518066406250e+01 2.320179700851440430e+00 5.343842506408691406e-01 2.154753506183624268e-01 2.249578833580017090e-01 1.501304656267166138e-01
1.640000000000000000e+02 2.127384376525878906e+01 6.804871082305908203e+00 -7.917566224932670593e-03 6.978109595365822315e-04 -2.165926620364189148e-03 -3.947710152715444565e-03
1.650000000000000000e+02 4.320289993286132812e+01 -3.267029285430908203e+00 -1.150176048278808594e+00 -5.190736055374145508e-01 -5.007749199867248535e-01 -6.147621944546699524e-02
1.660000000000000000e+02 4.022565841674804688e+01 -6.241232395172119141e+00 2.758594453334808350e-01 -9.017511457204818726e-02 5.570529773831367493e-02 -6.103431582450866699e-01
1.670000000000000000e+02 5.502949523925781250e+01 8.572669982910156250e+00 -1.057522464543581009e-02 6.008109543472528458e-03 -1.370134647004306316e-03 -3.155606985092163086e-02
1.680000000000000000e+02 5.311055374145507812e+01 8.900924682617187500e+00 1.416918076574802399e-02 -2.337986603379249573e-02 -2.763205440714955330e-03 -1.157341524958610535e-02
1.690000000000000000e+02 6.383866119384765625e+01 -1.464179706573486328e+01 -4.689364731311798096e-01 6.431546211242675781e-01 5.226545780897140503e-02 -1.854735910892486572e-01
1.700000000000000000e+02 7.705522155761718750e+01 -1.265844535827636719e+01 2.536805272102355957e-01 6.414949893951416016e+00 2.000589132308959961e+00 9.774487614631652832e-01
1.710000000000000000e+02 5.427484512329101562e+01 -3.291998863220214844e+00 -5.573642253875732422e-01 -1.885057538747787476e-01 -2.237609922885894775e-01 -3.876409828662872314e-01
1.720000000000000000e+02 5.931781005859375000e+01 -1.628225517272949219e+01 -3.106990158557891846e-01 3.710541725158691406e-01 1.810654066503047943e-02 -2.596841156482696533e-01
1.730000000000000000e+02 7.683854675292968750e+01 6.703458309173583984e+00 -8.876273036003112793e-01 1.044711589813232422e+01 2.867846488952636719e+00 3.583637714385986328e+00
1.740000000000000000e+02 7.037685394287109375e+01 1.339660167694091797e+00 -9.326547384262084961e-01 7.260941863059997559e-01 -6.196816638112068176e-02 -5.299417674541473389e-02
1.750000000000000000e+02 7.693824768066406250e+01 1.812918543815612793e+00 -2.010356783866882324e-01 9.679712295532226562e+00 2.843603134155273438e+00 5.605903863906860352e-01
1.760000000000000000e+02 6.841017913818359375e+01 4.367038726806640625e+00 2.271894067525863647e-01 1.131031274795532227e+00 4.074662029743194580e-01 1.202269177883863449e-02
1.770000000000000000e+02 6.547102928161621094e+00 -3.003623008728027344e+00 6.285881157964468002e-03 -2.484435914084315300e-03 1.140433596447110176e-03 5.109682679176330566e-03
1.780000000000000000e+02 4.018054485321044922e+00 5.066229820251464844e+00 -4.986095707863569260e-03 -6.016680854372680187e-04 -1.676329178735613823e-03 1.383258844725787640e-03
1.790000000000000000e+02 3.542389297485351562e+01 1.552438497543334961e+00 -8.291006088256835938e-01 5.138375759124755859e-01 -9.457891434431076050e-02 -2.506027556955814362e-02
1.800000000000000000e+02 7.789196777343750000e+01 2.600628614425659180e+00 2.191896140575408936e-01 1.123679924011230469e+01 3.436796665191650391e+00 3.629935681819915771e-01
1.810000000000000000e+02 6.447489929199218750e+01 2.127043485641479492e+00 -1.073837876319885254e+00 1.338210403919219971e-01 -2.820050418376922607e-01 8.762551099061965942e-02
1.820000000000000000e+02 3.235231018066406250e+01 -1.303775024414062500e+01 -5.209019780158996582e-02 3.638404309749603271e-01 9.352506697177886963e-02 -9.169486165046691895e-02
1.830000000000000000e+02 7.550504302978515625e+01 1.087661266326904297e+00 -5.967928171157836914e-01 6.529267787933349609e+00 1.779742479324340820e+00 1.475717902183532715e+00
1.840000000000000000e+02 3.727914428710937500e+01 1.600033950805664062e+01 -3.794103562831878662e-01 9.988736361265182495e-03 -1.108264848589897156e-01 4.060773923993110657e-02
1.850000000000000000e+02 3.763575363159179688e+01 6.946057319641113281e+00 -4.623242188245058060e-03 -1.150639634579420090e-02 -4.838891793042421341e-03 -4.197476431727409363e-02
1.860000000000000000e+02 6.226666259765625000e+01 -1.394961357116699219e+01 -3.096406757831573486e-01 6.427546143531799316e-01 9.993417561054229736e-02 -1.680681258440017700e-01
1.870000000000000000e+02 2.300651741027832031e+01 6.575459957122802734e+00 -1.316469535231590271e-02 -1.331891980953514576e-03 -4.348976071923971176e-03 -8.375932462513446808e-03
1.880000000000000000e+02 4.926743698120117188e+01 2.345402956008911133e+00 -7.805977463722229004e-01 2.213972508907318115e-01 -1.677601337432861328e-01 -1.042754799127578735e-01
1.890000000000000000e+02 6.039266586303710938e+01 -6.957230567932128906e-01 -1.274807214736938477e+00 -1.762568354606628418e-01 -4.353192150592803955e-01 -3.051105141639709473e-01
1.900000000000000000e+02 7.673739624023437500e+01 5.746535062789916992e-01 -3.018301129341125488e-01 8.842498779296875000e+00 2.562200546264648438e+00 9.283786416053771973e-01
1.910000000000000000e+02 4.114019870758056641e+00 6.670514106750488281e+00 -1.059614121913909912e-03 3.493662516120821238e-04 -2.130743669113144279e-04 3.510075854137539864e-03
1.920000000000000000e+02 5.509067535400390625e+00 9.859922409057617188e+00 4.931359551846981049e-03 -3.929575439542531967e-03 3.005352627951651812e-04 3.034327412024140358e-03
1.930000000000000000e+02 3.450589370727539062e+01 1.930998420715332031e+01 -2.626344561576843262e-01 -6.530971825122833252e-02 -9.838325530290603638e-02 1.694122105836868286e-01
1.940000000000000000e+02 1.263032341003417969e+01 1.491017436981201172e+01 -7.185044232755899429e-03 2.150448039174079895e-03 -1.510378904640674591e-03 6.159310694783926010e-03
1.950000000000000000e+02 3.041119384765625000e+01 -1.051737117767333984e+01 -1.120412163436412811e-02 2.822128832340240479e-01 8.130263537168502808e-02 -7.094033062458038330e-02
1.960000000000000000e+02 6.734571838378906250e+01 2.339527606964111328e+00 -4.415260553359985352e-01 7.042089700698852539e-01 7.880487293004989624e-02 4.488868415355682373e-01
1.970000000000000000e+02 7.555061340332031250e+01 -2.693024873733520508e+00 -4.658264666795730591e-02 5.743566989898681641e+00 1.709095239639282227e+00 1.197880029678344727e+00
1.980000000000000000e+02 7.257661437988281250e+01 -1.671344995498657227e+00 1.981838047504425049e-01 1.504139184951782227e+00 5.106968879699707031e-01 3.673517704010009766e-01
1.990000000000000000e+02 4.396351242065429688e+01 1.906360626220703125e+01 -5.926290750503540039e-01 -7.837178185582160950e-03 -1.801398694515228271e-01 4.207604229450225830e-01
2.000000000000000000e+02 3.418529510498046875e+01 1.786906242370605469e+00 -9.511620998382568359e-01 3.600681722164154053e-01 -1.773281842470169067e-01 -3.435636162757873535e-01
2.010000000000000000e+02 6.061732864379882812e+01 -7.253503799438476562e+00 3.768553137779235840e-01 4.676226675510406494e-01 2.533433735370635986e-01 2.801123261451721191e-01
2.020000000000000000e+02 6.854947090148925781e+00 -1.180931186676025391e+01 -2.517604641616344452e-02 -1.982501335442066193e-02 -1.350031793117523193e-02 -2.117746323347091675e-02
2.030000000000000000e+02 2.848028182983398438e+01 1.413087749481201172e+01 -1.150907948613166809e-01 -5.093471612781286240e-03 -3.605528175830841064e-02 3.963034227490425110e-02
2.040000000000000000e+02 7.537801361083984375e+01 1.280048847198486328e+01 -2.551004290580749512e-01 5.034621238708496094e+00 1.433856248855590820e+00 -2.073606252670288086e+00
2.050000000000000000e+02 7.055279541015625000e+01 1.365864372253417969e+01 -1.014441370964050293e+00 5.633106231689453125e-01 -1.353392302989959717e-01 5.090129375457763672e-01
2.060000000000000000e+02 7.038802337646484375e+01 1.540642261505126953e+01 -4.008824527263641357e-01 1.005129933357238770e+00 1.812742352485656738e-01 -1.513541340827941895e-01
2.070000000000000000e+02 7.336485290527343750e+01 -2.425492525100708008e+00 2.830634415149688721e-01 2.660655975341796875e+00 8.831158280372619629e-01 7.345710396766662598e-01
2.080000000000000000e+02 1.114470195770263672e+01 -5.844348430633544922e+00 -1.008325605653226376e-03 -2.061532251536846161e-02 -6.487094331532716751e-03 -9.965500794351100922e-03
2.090000000000000000e+02 6.650032043457031250e+01 2.635394334793090820e+00 -6.117072701454162598e-01 5.142167806625366211e-01 -2.924715727567672729e-02 3.500259220600128174e-01
2.100000000000000000e+02 6.973865509033203125e+01 -1.013321995735168457e+00 -3.334123194217681885e-01 3.584130406379699707e-01 7.500219624489545822e-03 -2.860068678855895996e-01
2.110000000000000000e+02 7.367003631591796875e+01 1.498556137084960938e+01 1.811887472867965698e-01 3.210388898849487305e+00 1.017473340034484863e+00 -1.234369754791259766e+00
2.120000000000000000e+02 7.128469085693359375e+01 -2.395049095153808594e+01 1.960876882076263428e-01 3.197354555130004883e+00 1.018032670021057129e+00 8.441368341445922852e-01
2.130000000000000000e+02 5.408837127685546875e+01 -5.655747890472412109e+00 5.120858550071716309e-01 -1.285498738288879395e-01 1.150607988238334656e-01 -4.435542523860931396e-01
2.140000000000000000e+02 5.272123718261718750e+01 2.069624710083007812e+01 -5.470569133758544922e-01 -1.225738152861595154e-01 -2.008892297744750977e-01 3.750192821025848389e-01
2.150000000000000000e+02 7.039173889160156250e+01 1.399890899658203125e+01 -8.408904075622558594e-01 6.620726585388183594e-01 -5.364533886313438416e-02 4.775466322898864746e-01
2.160000000000000000e+02 9.217826843261718750e+00 -7.538061141967773438e+00 -1.694499514997005463e-02 -1.046195253729820251e-02 -8.222084492444992065e-03 3.943695686757564545e-03
2.170000000000000000e+02 1.160827636718750000e+01 -1.018551063537597656e+01 -7.735398411750793457e-02 -1.948430947959423065e-02 -2.905148826539516449e-02 -2.319549955427646637e-02
2.180000000000000000e+02 1.734300804138183594e+01 -1.178067302703857422e+01 -2.167886495590209961e-01 -8.876083791255950928e-02 -9.166485071182250977e-02 -1.375757753849029541e-01
2.190000000000000000e+02 4.228095054626464844e+00 -2.883213996887207031e+01 3.327930811792612076e-03 -1.581362187862396240e-01 -4.644248634576797485e-02 -4.981761425733566284e-02
2.200000000000000000e+02 7.219512939453125000e+01 1.399727058410644531e+01 -3.449891209602355957e-01 1.244086503982543945e+00 2.697291970252990723e-01 -3.676603734493255615e-01
2.210000000000000000e+02 7.240528869628906250e+01 1.594298744201660156e+01 6.191648915410041809e-02 2.300620317459106445e+00 7.087610960006713867e-01 -9.132449626922607422e-01
2.220000000000000000e+02 6.641236877441406250e+01 1.930206489562988281e+01 -2.101427316665649414e-01 1.815299093723297119e-01 -8.583848364651203156e-03 -3.189105987548828125e-01
2.230000000000000000e+02 7.340924835205078125e+01 1.284939765930175781e+01 -4.838323593139648438e-01 1.727444171905517578e+00 3.730835616588592529e-01 -7.502427101135253906e-01
2.240000000000000000e+02 7.472947692871093750e+01 1.257746696472167969e+01 -2.735499739646911621e-01 3.233290672302246094e+00 8.879221677780151367e-01 -1.492034077644348145e+00
2.250000000000000000e+02 9.532919883728027344e+00 2.158044242858886719e+01 -1.830928027629852295e-02 -1.586250215768814087e-02 -1.025153510272502899e-02 2.158542722463607788e-02
2.260000000000000000e+02 3.677769470214843750e+01 2.325428390502929688e+01 -1.908365488052368164e-01 -8.444298058748245239e-02 -8.258385956287384033e-02 2.810059487819671631e-01
2.270000000000000000e+02 6.165157699584960938e+01 -6.339714527130126953e+00 2.821341156959533691e-01 9.884423613548278809e-01 3.811729252338409424e-01 3.976976871490478516e-01
2.280000000000000000e+02 3.347810363769531250e+01 -1.883092880249023438e+01 -2.297099828720092773e-01 1.401149928569793701e-01 -2.687850035727024078e-02 -1.797957569360733032e-01
2.290000000000000000e+02 6.704887390136718750e+01 2.107546424865722656e+01 3.269970118999481201e-01 6.750384569168090820e-01 3.006106317043304443e-01 -5.244365334510803223e-01
2.300000000000000000e+02 4.400856781005859375e+01 -2.514047431945800781e+01 6.419969350099563599e-02 -6.583136320114135742e-02 -4.895019228570163250e-04 -1.676329672336578369e-01
2.310000000000000000e+02 3.580762863159179688e+01 6.355761051177978516e+00 1.974464952945709229e-02 -3.024614602327346802e-02 -3.150449134409427643e-03 -2.711965888738632202e-02
2.320000000000000000e+02 7.689662456512451172e+00 2.754349327087402344e+01 -5.599755328148603439e-03 -3.505902737379074097e-02 -1.219763420522212982e-02 2.801290899515151978e-02
2.330000000000000000e+02 6.829467010498046875e+01 -2.631136703491210938e+01 3.302378654479980469e-01 2.372176408767700195e+00 8.107243180274963379e-01 6.242489218711853027e-01
2.340000000000000000e+02 6.525053405761718750e+01 -2.014620590209960938e+01 2.416037470102310181e-01 1.048965454101562500e+00 3.871707618236541748e-01 2.292670458555221558e-01
2.350000000000000000e+02 6.399611663818359375e+01 -2.264507102966308594e+01 2.878295183181762695e-01 1.170946002006530762e+00 4.376326501369476318e-01 2.945400178432464600e-01
2.360000000000000000e+02 1.583441734313964844e+01 2.612530136108398438e+01 -2.145106904208660126e-02 -4.914023354649543762e-02 -2.117739059031009674e-02 7.212398946285247803e-02
2.370000000000000000e+02 7.104783630371093750e+01 8.128219604492187500e+00 1.599033832550048828e+00 1.211497426033020020e+00 8.431593775749206543e-01 1.338581919670104980e+00
2.380000000000000000e+02 7.673946380615234375e+01 6.408310890197753906e+00 -5.795197486877441406e-01 9.159911155700683594e+00 2.574117422103881836e+00 3.638556957244873047e+00
2.390000000000000000e+02 7.722009277343750000e+01 1.013926506042480469e+01 -2.070226669311523438e+00 1.271865653991699219e+01 3.194529056549072266e+00 -4.572190284729003906e+00
2.400000000000000000e+02 2.681050872802734375e+01 1.444506406784057617e+00 -3.807792961597442627e-01 2.406773418188095093e-01 -4.203058406710624695e-02 2.296870797872543335e-01
2.410000000000000000e+02 7.037229919433593750e+01 8.012419700622558594e+00 -1.693170815706253052e-01 8.254913687705993652e-01 1.968522965908050537e-01 2.244924157857894897e-01
2.420000000000000000e+02 7.583835601806640625e+01 1.102247047424316406e+01 -9.299930930137634277e-01 4.685358524322509766e+00 1.126609563827514648e+00 -2.755199909210205078e+00
2.430000000000000000e+02 7.387315368652343750e+01 1.154797458648681641e+01 -1.181247472763061523e+00 1.270082831382751465e+00 2.665060199797153473e-02 -5.004000067710876465e-01
2.440000000000000000e+02 3.720359802246093750e+01 8.181266784667968750e+00 2.271169796586036682e-02 8.566434844397008419e-04 7.070502266287803650e-03 -1.993410475552082062e-02
2.450000000000000000e+02 7.689807128906250000e+01 1.091562271118164062e+01 -1.710400462150573730e+00 1.008300209045410156e+01 2.511780500411987305e+00 -3.577750444412231445e+00
2.460000000000000000e+02 7.514910888671875000e+01 1.130106353759765625e+01 -7.657299637794494629e-01 3.176276922225952148e+00 7.231640815734863281e-01 -1.787337899208068848e+00
2.470000000000000000e+02 2.533141326904296875e+01 -1.248800992965698242e+00 -4.382647573947906494e-01 6.281388550996780396e-02 -1.126352623105049133e-01 -8.591268956661224365e-02
2.480000000000000000e+02 7.386608886718750000e+01 1.170261478424072266e+01 -1.087939143180847168e+00 1.346888184547424316e+00 7.768473029136657715e-02 -5.773031115531921387e-01
2.490000000000000000e+02 7.273960876464843750e+01 1.198163414001464844e+01 -1.456256151199340820e+00 6.109863519668579102e-01 -2.535809576511383057e-01 5.106334760785102844e-02
2.500000000000000000e+02 6.558127593994140625e+01 -1.878982162475585938e+01 1.912384331226348877e-01 7.940370440483093262e-01 2.955826520919799805e-01 1.306885480880737305e-01
2.510000000000000000e+02 2.043356704711914062e+01 3.123732948303222656e+01 3.308078646659851074e-02 -1.110351160168647766e-01 -2.338629774749279022e-02 9.405426681041717529e-02
2.520000000000000000e+02 7.642166900634765625e+01 1.163061237335205078e+01 -1.327886939048767090e+00 7.829678535461425781e+00 1.950537443161010742e+00 -2.545268058776855469e+00
2.530000000000000000e+02 7.612534332275390625e+01 -1.647990226745605469e+01 3.616047501564025879e-01 5.592967987060546875e+00 1.786371827125549316e+00 4.944769740104675293e-01
2.540000000000000000e+02 5.033089637756347656e+00 -3.110595512390136719e+01 1.153829041868448257e-02 -1.721661537885665894e-01 -4.818835854530334473e-02 -4.834520444273948669e-02
2.550000000000000000e+02 5.885593414306640625e+01 -6.517680168151855469e+00 5.662961006164550781e-01 -1.404878944158554077e-01 1.277424693107604980e-01 1.902874261140823364e-01
2.560000000000000000e+02 7.567917633056640625e+01 2.818834483623504639e-01 -5.787095427513122559e-01 6.657268047332763672e+00 1.823567509651184082e+00 1.489435553550720215e+00
2.570000000000000000e+02 4.585892486572265625e+01 -2.207135772705078125e+01 -1.493927240371704102e-01 7.671818137168884277e-02 -2.180236205458641052e-02 -1.321375668048858643e-01
2.580000000000000000e+02 5.728965377807617188e+01 -5.058399200439453125e+00 3.742777407169342041e-01 -6.084051132202148438e-01 -7.023821026086807251e-02 -7.112199068069458008e-02
2.590000000000000000e+02 3.779120445251464844e+00 -1.268697834014892578e+01 -1.027334295213222504e-02 -1.003049220889806747e-02 -6.091150455176830292e-03 -1.324078161269426346e-02
2.600000000000000000e+02 4.273751068115234375e+01 1.978213310241699219e+01 -5.293840765953063965e-01 -1.079902146011590958e-02 -1.620549410581588745e-01 4.039449095726013184e-01
2.610000000000000000e+02 5.674609375000000000e+01 1.605144882202148438e+01 -1.330894470214843750e+00 2.256220877170562744e-01 -3.315817117691040039e-01 3.949440121650695801e-01
2.620000000000000000e+02 7.305163574218750000e+01 -2.623004150390625000e+01 7.985552400350570679e-02 3.675211191177368164e+00 1.126520037651062012e+00 5.823135972023010254e-01
2.630000000000000000e+02 7.220466613769531250e+01 -6.899427771568298340e-01 -8.124855905771255493e-02 6.451324820518493652e-01 1.691651791334152222e-01 -3.141818568110466003e-02
2.640000000000000000e+02 7.237887382507324219e+00 -1.912011909484863281e+01 -1.474691648036241531e-02 -7.464034110307693481e-02 -2.681617811322212219e-02 -7.383853197097778320e-02
2.650000000000000000e+02 9.273392677307128906e+00 1.713828277587890625e+01 -1.017509493976831436e-02 -6.082344334572553635e-03 -4.877232015132904053e-03 5.148028954863548279e-03
2.660000000000000000e+02 7.170381927490234375e+01 1.410112571716308594e+01 -4.376187622547149658e-01 1.048434615135192871e+00 1.832447499036788940e-01 -1.346418708562850952e-01
