# el_label, x, y, sXX, sYY, sZZ, sXY
1.000000000000000000e+00 6.694989776611328125e+01 1.012222099304199219e+01 -8.935535430908203125e+00 -2.083319902420043945e+00 -3.305656671524047852e+00 -2.353680372238159180e+00
2.000000000000000000e+00 6.675089263916015625e+01 1.012606716156005859e+01 -2.629175662994384766e+00 9.079589247703552246e-01 -5.163650512695312500e-01 9.128807783126831055e-01
3.000000000000000000e+00 6.655188751220703125e+01 1.012991333007812500e+01 -3.296176671981811523e+00 -4.986803233623504639e-01 -1.138457179069519043e+00 6.537885963916778564e-02
4.000000000000000000e+00 6.635288238525390625e+01 1.013375949859619141e+01 -2.857746362686157227e+00 3.614387512207031250e-01 -7.488923072814941406e-01 2.039661407470703125e-01
5.000000000000000000e+00 6.695447540283203125e+01 1.006405735015869141e+01 7.705048561096191406e+00 -2.613444566726684570e+00 1.527481198310852051e+00 9.498269855976104736e-02
6.000000000000000000e+00 6.675852203369140625e+01 1.002912807464599609e+01 1.411900639533996582e+00 -1.486741239205002785e-04 4.235255718231201172e-01 5.545943379402160645e-01
7.000000000000000000e+00 6.656256866455078125e+01 9.994198799133300781e+00 2.061564207077026367e+00 5.096271038055419922e-01 7.713573575019836426e-01 1.276663422584533691e+00
8.000000000000000000e+00 6.636661529541015625e+01 9.959269523620605469e+00 1.184699177742004395e+00 1.366840600967407227e-01 3.964149653911590576e-01 3.734479546546936035e-01
9.000000000000000000e+00 6.697027587890625000e+01 1.000789546966552734e+01 1.469832801818847656e+01 6.617382764816284180e-01 4.608019828796386719e+00 6.744568824768066406e+00
1.000000000000000000e+01 6.678485870361328125e+01 9.935523986816406250e+00 8.159558296203613281e+00 5.288029313087463379e-01 2.606508255004882812e+00 3.560637235641479492e+00
1.100000000000000000e+01 6.659944152832031250e+01 9.863153457641601562e+00 5.266538143157958984e+00 1.177750825881958008e+00 1.933286786079406738e+00 2.662025213241577148e+00
1.200000000000000000e+01 6.641401672363281250e+01 9.790781974792480469e+00 4.563696384429931641e+00 1.395346522331237793e+00 1.787712812423706055e+00 2.412157297134399414e+00
1.300000000000000000e+01 6.699669647216796875e+01 9.955878257751464844e+00 1.779223060607910156e+01 6.251290321350097656e+00 7.213056087493896484e+00 1.251981067657470703e+01
1.400000000000000000e+01 6.682889556884765625e+01 9.848828315734863281e+00 1.085102558135986328e+01 3.940510988235473633e+00 4.437460899353027344e+00 7.793962478637695312e+00
1.500000000000000000e+01 6.666108703613281250e+01 9.741779327392578125e+00 8.137218475341796875e+00 3.382604122161865234e+00 3.455946683883666992e+00 5.658143043518066406e+00
1.600000000000000000e+01 6.649328613281250000e+01 9.634730339050292969e+00 6.111603736877441406e+00 3.039578676223754883e+00 2.745354652404785156e+00 4.479169845581054688e+00
1.700000000000000000e+01 6.703273773193359375e+01 9.909992218017578125e+00 1.703071403503417969e+01 1.430245304107666016e+01 9.399950027465820312e+00 1.690789604187011719e+01
1.800000000000000000e+01 6.688895416259765625e+01 9.772352218627929688e+00 1.144960594177246094e+01 8.921558380126953125e+00 6.111349582672119141e+00 1.139440822601318359e+01
1.900000000000000000e+01 6.674517059326171875e+01 9.634713172912597656e+00 8.595334053039550781e+00 7.521681785583496094e+00 4.835104942321777344e+00 8.538147926330566406e+00
2.000000000000000000e+01 6.660138702392578125e+01 9.497073173522949219e+00 6.665968418121337891e+00 6.376856803894042969e+00 3.912847518920898438e+00 7.130600929260253906e+00
2.100000000000000000e+01 6.707700347900390625e+01 9.871990203857421875e+00 1.417879581451416016e+01 2.263043212890625000e+01 1.104276847839355469e+01 1.913500595092773438e+01
2.200000000000000000e+01 6.696273803710937500e+01 9.709016799926757812e+00 1.026952266693115234e+01 1.573121643066406250e+01 7.800221920013427734e+00 1.329095745086669922e+01
2.300000000000000000e+01 6.684846496582031250e+01 9.546042442321777344e+00 7.499706745147705078e+00 1.232876586914062500e+01 5.948541641235351562e+00 1.083404445648193359e+01
2.400000000000000000e+01 6.673419952392578125e+01 9.383068084716796875e+00 6.244170665740966797e+00 1.112071990966796875e+01 5.209467411041259766e+00 8.784065246582031250e+00
2.500000000000000000e+01 6.712782287597656250e+01 9.843323707580566406e+00 1.125598716735839844e+01 3.166597366333007812e+01 1.287658786773681641e+01 1.830699348449707031e+01
2.600000000000000000e+01 6.704742431640625000e+01 9.661238670349121094e+00 7.605494976043701172e+00 2.210094642639160156e+01 8.911931991577148438e+00 1.390408325195312500e+01
2.700000000000000000e+01 6.696703338623046875e+01 9.479152679443359375e+00 6.192281246185302734e+00 1.826207542419433594e+01 7.336306571960449219e+00 1.108278369903564453e+01
2.800000000000000000e+01 6.688664245605468750e+01 9.297067642211914062e+00 4.258150100708007812e+00 1.560593032836914062e+01 5.959224224090576172e+00 9.685714721679687500e+00
2.900000000000000000e+01 6.718323516845703125e+01 9.825086593627929688e+00 7.767561912536621094e+00 3.878493118286132812e+01 1.396574878692626953e+01 1.549275112152099609e+01
3.000000000000000000e+01 6.713979339599609375e+01 9.630843162536621094e+00 6.112256526947021484e+00 2.837677383422851562e+01 1.034670925140380859e+01 1.228149127960205078e+01
3.100000000000000000e+01 6.709634399414062500e+01 9.436599731445312500e+00 3.625320196151733398e+00 2.352271842956542969e+01 8.144412040710449219e+00 1.039907360076904297e+01
3.200000000000000000e+01 6.705290222167968750e+01 9.242356300354003906e+00 3.056727647781372070e+00 2.061344528198242188e+01 7.101051807403564453e+00 8.565591812133789062e+00
3.300000000000000000e+01 6.724114990234375000e+01 9.817975044250488281e+00 7.004364013671875000e+00 4.425065612792968750e+01 1.537650585174560547e+01 1.096223449707031250e+01
3.400000000000000000e+01 6.723630523681640625e+01 9.618990898132324219e+00 4.114544391632080078e+00 3.310880661010742188e+01 1.116700553894042969e+01 9.411952972412109375e+00
3.500000000000000000e+01 6.723146820068359375e+01 9.420007705688476562e+00 2.973284244537353516e+00 2.779991149902343750e+01 9.231958389282226562e+00 8.180089950561523438e+00
3.600000000000000000e+01 6.722662353515625000e+01 9.221023559570312500e+00 9.394955039024353027e-01 2.502494812011718750e+01 7.789333343505859375e+00 7.085075378417968750e+00
3.700000000000000000e+01 6.729933929443359375e+01 9.822261810302734375e+00 7.057469844818115234e+00 4.681097412109375000e+01 1.616053199768066406e+01 5.667950153350830078e+00
3.800000000000000000e+01 6.733328247070312500e+01 9.626135826110839844e+00 4.484043121337890625e+00 3.632360458374023438e+01 1.224229431152343750e+01 5.906876564025878906e+00
3.900000000000000000e+01 6.736723327636718750e+01 9.430008888244628906e+00 2.173044919967651367e+00 3.077321815490722656e+01 9.883878707885742188e+00 5.003990173339843750e+00
4.000000000000000000e+01 6.740118408203125000e+01 9.233882904052734375e+00 1.372033357620239258e+00 2.713559341430664062e+01 8.552288055419921875e+00 4.920599460601806641e+00
4.100000000000000000e+01 6.735557556152343750e+01 9.837781906127929688e+00 9.960769653320312500e+00 4.754360961914062500e+01 1.725131416320800781e+01 1.115830540657043457e+00
4.200000000000000000e+01 6.742701721191406250e+01 9.652003288269042969e+00 5.304166793823242188e+00 3.724754333496093750e+01 1.276551342010498047e+01 1.882155537605285645e+00
4.300000000000000000e+01 6.749845886230468750e+01 9.466223716735839844e+00 3.595320940017700195e+00 3.208952713012695312e+01 1.070545387268066406e+01 2.240004301071166992e+00
4.400000000000000000e+01 6.756990051269531250e+01 9.280444145202636719e+00 1.791977524757385254e+00 2.859561157226562500e+01 9.116276741027832031e+00 1.606508016586303711e+00
4.500000000000000000e+01 6.740772247314453125e+01 9.863944053649902344e+00 1.311086654663085938e+01 4.556687927246093750e+01 1.760332298278808594e+01 -2.778634071350097656e+00
4.600000000000000000e+01 6.751393127441406250e+01 9.695606231689453125e+00 8.434904098510742188e+00 3.719565582275390625e+01 1.368916797637939453e+01 -9.415211677551269531e-01
4.700000000000000000e+01 6.762014007568359375e+01 9.527267456054687500e+00 5.279239654541015625e+00 3.125424194335937500e+01 1.096004486083984375e+01 -9.483993053436279297e-01
4.800000000000000000e+01 6.772634887695312500e+01 9.358929634094238281e+00 3.970496892929077148e+00 2.863807487487792969e+01 9.782570838928222656e+00 1.543898731470108032e-01
4.900000000000000000e+01 6.745378875732421875e+01 9.899748802185058594e+00 1.788826751708984375e+01 4.379565811157226562e+01 1.850517654418945312e+01 -4.396099567413330078e+00
5.000000000000000000e+01 6.759070587158203125e+01 9.755279541015625000e+00 1.147714138031005859e+01 3.468354797363281250e+01 1.384820652008056641e+01 -3.466018915176391602e+00
5.100000000000000000e+01 6.772762298583984375e+01 9.610810279846191406e+00 8.647482872009277344e+00 3.046241950988769531e+01 1.173297023773193359e+01 -2.340258836746215820e+00
5.200000000000000000e+01 6.786454772949218750e+01 9.466341018676757812e+00 6.630953788757324219e+00 2.536790657043457031e+01 9.599658012390136719e+00 -1.938630819320678711e+00
5.300000000000000000e+01 6.749201202392578125e+01 9.943827629089355469e+00 2.213603019714355469e+01 4.011682128906250000e+01 1.867585563659667969e+01 -4.871870517730712891e+00
5.400000000000000000e+01 6.765441131591796875e+01 9.828744888305664062e+00 1.516194534301757812e+01 3.304605484008789062e+01 1.446240043640136719e+01 -3.947218179702758789e+00
5.500000000000000000e+01 6.781681060791015625e+01 9.713661193847656250e+00 1.186111831665039062e+01 2.743489646911621094e+01 1.178880500793457031e+01 -3.245125770568847656e+00
5.600000000000000000e+01 6.797921752929687500e+01 9.598578453063964844e+00 9.903945922851562500e+00 2.429505157470703125e+01 1.025969886779785156e+01 -3.177420616149902344e+00
5.700000000000000000e+01 6.752093505859375000e+01 9.994498252868652344e+00 2.538171005249023438e+01 3.785842895507812500e+01 1.897204208374023438e+01 -3.975347280502319336e+00
5.800000000000000000e+01 6.770261383056640625e+01 9.913195610046386719e+00 1.872917366027832031e+01 3.032421112060546875e+01 1.471601486206054688e+01 -2.966032981872558594e+00
5.900000000000000000e+01 6.788429260253906250e+01 9.831892967224121094e+00 1.446561336517333984e+01 2.569404983520507812e+01 1.204789924621582031e+01 -3.002099752426147461e+00
6.000000000000000000e+01 6.806597137451171875e+01 9.750590324401855469e+00 1.217917060852050781e+01 2.265288543701171875e+01 1.044961738586425781e+01 -2.720155000686645508e+00
6.100000000000000000e+01 6.753944396972656250e+01 1.004982566833496094e+01 2.796180152893066406e+01 3.641886138916015625e+01 1.931419944763183594e+01 -1.536514997482299805e+00
6.200000000000000000e+01 6.773347473144531250e+01 1.000540828704833984e+01 2.098679924011230469e+01 2.809717369079589844e+01 1.472519207000732422e+01 -1.517003893852233887e+00
6.300000000000000000e+01 6.792749786376953125e+01 9.960990905761718750e+00 1.666016006469726562e+01 2.470065307617187500e+01 1.240824413299560547e+01 -8.069029450416564941e-01
6.400000000000000000e+01 6.812151336669921875e+01 9.916573524475097656e+00 1.309242820739746094e+01 2.101630020141601562e+01 1.023261833190917969e+01 -1.350255727767944336e+00
6.500000000000000000e+01 6.754684448242187500e+01 1.010769748687744141e+01 2.881139755249023438e+01 3.522705459594726562e+01 1.921153640747070312e+01 1.169636964797973633e+00
6.600000000000000000e+01 6.774580383300781250e+01 1.010186195373535156e+01 2.186676406860351562e+01 2.791012954711914062e+01 1.493306827545166016e+01 9.907092452049255371e-01
6.700000000000000000e+01 6.794476318359375000e+01 1.009602546691894531e+01 1.784016227722167969e+01 2.312225151062011719e+01 1.228872394561767578e+01 1.411222338676452637e+00
6.800000000000000000e+01 6.814372253417968750e+01 1.009018993377685547e+01 1.431830883026123047e+01 2.157669639587402344e+01 1.076850128173828125e+01 1.576542258262634277e+00
6.900000000000000000e+01 6.754284667968750000e+01 1.016590404510498047e+01 2.836683464050292969e+01 3.578311538696289062e+01 1.924498558044433594e+01 3.955854892730712891e+00
7.000000000000000000e+01 6.773914337158203125e+01 1.019887256622314453e+01 2.106726264953613281e+01 2.832621192932128906e+01 1.481804180145263672e+01 3.684771060943603516e+00
7.100000000000000000e+01 6.793544006347656250e+01 1.023184013366699219e+01 1.732878684997558594e+01 2.345046997070312500e+01 1.223377704620361328e+01 3.217904806137084961e+00
7.200000000000000000e+01 6.813172912597656250e+01 1.026480865478515625e+01 1.530543994903564453e+01 2.106944847106933594e+01 1.091246604919433594e+01 4.033123016357421875e+00
7.300000000000000000e+01 6.752761077880859375e+01 1.022222232818603516e+01 2.610483360290527344e+01 3.693785095214843750e+01 1.891280555725097656e+01 6.222182273864746094e+00
7.400000000000000000e+01 6.771374511718750000e+01 1.029273509979248047e+01 1.926393699645996094e+01 3.010002326965332031e+01 1.480918788909912109e+01 5.890009880065917969e+00
7.500000000000000000e+01 6.789987945556640625e+01 1.036324882507324219e+01 1.512862014770507812e+01 2.515965843200683594e+01 1.208648300170898438e+01 4.797054767608642578e+00
7.600000000000000000e+01 6.808601379394531250e+01 1.043376255035400391e+01 1.287973403930664062e+01 2.100174903869628906e+01 1.016444492340087891e+01 4.488323688507080078e+00
7.700000000000000000e+01 6.750170898437500000e+01 1.027450084686279297e+01 2.304651641845703125e+01 4.058471679687500000e+01 1.908936882019042969e+01 7.589741706848144531e+00
7.800000000000000000e+01 6.767057800292968750e+01 1.037986660003662109e+01 1.577936744689941406e+01 3.121574401855468750e+01 1.409853363037109375e+01 6.952645301818847656e+00
7.900000000000000000e+01 6.783943939208984375e+01 1.048523235321044922e+01 1.246164798736572266e+01 2.847189903259277344e+01 1.228006362915039062e+01 5.722180843353271484e+00
8.000000000000000000e+01 6.800830841064453125e+01 1.059059906005859375e+01 9.200758934020996094e+00 2.297420501708984375e+01 9.652488708496093750e+00 5.063978672027587891e+00
8.100000000000000000e+01 6.746613311767578125e+01 1.032074451446533203e+01 1.783948898315429688e+01 4.199656295776367188e+01 1.795081520080566406e+01 8.184965133666992188e+00
8.200000000000000000e+01 6.761128997802734375e+01 1.045693969726562500e+01 1.278563976287841797e+01 3.520097351074218750e+01 1.439598369598388672e+01 5.842890739440917969e+00
8.300000000000000000e+01 6.775643920898437500e+01 1.059313488006591797e+01 8.454800605773925781e+00 2.882148742675781250e+01 1.118288707733154297e+01 6.173473358154296875e+00
8.400000000000000000e+01 6.790159606933593750e+01 1.072933006286621094e+01 8.387960433959960938e+00 2.783287048339843750e+01 1.086624908447265625e+01 4.874050140380859375e+00
8.500000000000000000e+01 6.742224884033203125e+01 1.035918712615966797e+01 1.441786384582519531e+01 4.588520050048828125e+01 1.809091949462890625e+01 5.952404975891113281e+00
8.600000000000000000e+01 6.753814697265625000e+01 1.052101039886474609e+01 7.892162799835205078e+00 3.616307830810546875e+01 1.321657276153564453e+01 4.615782260894775391e+00
8.700000000000000000e+01 6.765403747558593750e+01 1.068283367156982422e+01 6.775924205780029297e+00 3.125397682189941406e+01 1.140897083282470703e+01 3.721089601516723633e+00
8.800000000000000000e+01 6.776993560791015625e+01 1.084465789794921875e+01 4.976468563079833984e+00 2.713735389709472656e+01 9.634146690368652344e+00 3.790648698806762695e+00
8.900000000000000000e+01 6.737172698974609375e+01 1.038836002349853516e+01 9.191024780273437500e+00 4.725286102294921875e+01 1.693316650390625000e+01 2.761116027832031250e+00
9.000000000000000000e+01 6.745393371582031250e+01 1.056963253021240234e+01 5.799172878265380859e+00 3.742420959472656250e+01 1.296701431274414062e+01 1.189394235610961914e+00
9.100000000000000000e+01 6.753614807128906250e+01 1.075090503692626953e+01 3.773172616958618164e+00 3.124794197082519531e+01 1.050633430480957031e+01 1.066636443138122559e+00
9.200000000000000000e+01 6.761835479736328125e+01 1.093217754364013672e+01 2.311509132385253906e+00 2.744241714477539062e+01 8.926177978515625000e+00 2.673987448215484619e-01
9.300000000000000000e+01 6.731649017333984375e+01 1.040715122222900391e+01 6.648985385894775391e+00 4.766564178466796875e+01 1.629438781738281250e+01 -2.123318433761596680e+00
9.400000000000000000e+01 6.736187744140625000e+01 1.060095024108886719e+01 3.642420053482055664e+00 3.623774719238281250e+01 1.196405029296875000e+01 -2.677473545074462891e+00
9.500000000000000000e+01 6.740726470947265625e+01 1.079474925994873047e+01 2.507515430450439453e+00 3.038356590270996094e+01 9.867323875427246094e+00 -2.735129833221435547e+00
9.600000000000000000e+01 6.745265197753906250e+01 1.098854827880859375e+01 7.954143881797790527e-01 2.711145210266113281e+01 8.372059822082519531e+00 -1.874760746955871582e+00
9.700000000000000000e+01 6.725865936279296875e+01 1.041484069824218750e+01 5.002933979034423828e+00 4.519313430786132812e+01 1.505882072448730469e+01 -7.527246475219726562e+00
9.800000000000000000e+01 6.726548767089843750e+01 1.061376667022705078e+01 3.699881792068481445e+00 3.356582641601562500e+01 1.117971229553222656e+01 -6.861009120941162109e+00
9.900000000000000000e+01 6.727231597900390625e+01 1.081269264221191406e+01 1.747622489929199219e+00 2.785573768615722656e+01 8.881008148193359375e+00 -5.911687850952148438e+00
1.000000000000000000e+02 6.727914428710937500e+01 1.101161766052246094e+01 1.934982299804687500e+00 2.395930671691894531e+01 7.768286705017089844e+00 -4.799669265747070312e+00
1.010000000000000000e+02 6.720043182373046875e+01 1.041113567352294922e+01 6.387075424194335938e+00 4.045036315917968750e+01 1.405123233795166016e+01 -1.262110996246337891e+01
1.020000000000000000e+02 6.716844177246093750e+01 1.060759258270263672e+01 4.039365291595458984e+00 2.881410026550292969e+01 9.856040000915527344e+00 -1.027845001220703125e+01
1.030000000000000000e+02 6.713645935058593750e+01 1.080404853820800781e+01 3.382144451141357422e+00 2.363920211791992188e+01 8.106404304504394531e+00 -8.397765159606933594e+00
1.040000000000000000e+02 6.710446929931640625e+01 1.100050449371337891e+01 2.198889017105102539e+00 2.008902740478515625e+01 6.686374664306640625e+00 -7.632971286773681641e+00
1.050000000000000000e+02 6.714403533935546875e+01 1.039617919921875000e+01 8.300426483154296875e+00 3.284455490112304688e+01 1.234349441528320312e+01 -1.642998313903808594e+01
1.060000000000000000e+02 6.707445526123046875e+01 1.058266353607177734e+01 6.479492187500000000e+00 2.288434410095214844e+01 8.809150695800781250e+00 -1.205326938629150391e+01
1.070000000000000000e+02 6.700487518310546875e+01 1.076914787292480469e+01 4.521605491638183594e+00 1.809500694274902344e+01 6.784983634948730469e+00 -1.002011203765869141e+01
1.080000000000000000e+02 6.693529510498046875e+01 1.095563220977783203e+01 3.797438621520996094e+00 1.586017036437988281e+01 5.897282600402832031e+00 -8.484772682189941406e+00
1.090000000000000000e+02 6.709162902832031250e+01 1.037053966522216797e+01 1.192314529418945312e+01 2.420195770263671875e+01 1.083753108978271484e+01 -1.748243904113769531e+01
1.100000000000000000e+02 6.698710632324218750e+01 1.053993225097656250e+01 8.200798034667968750e+00 1.567043399810791016e+01 7.161369800567626953e+00 -1.236691570281982422e+01
1.110000000000000000e+02 6.688259124755859375e+01 1.070932388305664062e+01 6.495108127593994141e+00 1.264084911346435547e+01 5.740787506103515625e+00 -9.592569351196289062e+00
1.120000000000000000e+02 6.677806854248046875e+01 1.087871551513671875e+01 4.742431640625000000e+00 1.062281608581542969e+01 4.609574317932128906e+00 -8.166849136352539062e+00
1.130000000000000000e+02 6.704520416259765625e+01 1.033519840240478516e+01 1.461876010894775391e+01 1.435477161407470703e+01 8.692059516906738281e+00 -1.600337600708007812e+01
1.140000000000000000e+02 6.690974426269531250e+01 1.048102951049804688e+01 9.550068855285644531e+00 9.176983833312988281e+00 5.618115901947021484e+00 -1.025504398345947266e+01
1.150000000000000000e+02 6.677427673339843750e+01 1.062686061859130859e+01 7.126632690429687500e+00 7.263246059417724609e+00 4.316963672637939453e+00 -7.948311328887939453e+00
1.160000000000000000e+02 6.663880157470703125e+01 1.077269077301025391e+01 5.681879997253417969e+00 6.285547256469726562e+00 3.590228080749511719e+00 -6.556959629058837891e+00
1.170000000000000000e+02 6.700654602050781250e+01 1.029150390625000000e+01 1.505903434753417969e+01 5.828804492950439453e+00 6.266351699829101562e+00 -1.148461055755615234e+01
1.180000000000000000e+02 6.684529876708984375e+01 1.040820503234863281e+01 9.066736221313476562e+00 3.530998706817626953e+00 3.779320478439331055e+00 -6.692783832550048828e+00
1.190000000000000000e+02 6.668405914306640625e+01 1.052490615844726562e+01 6.178322315216064453e+00 3.484574317932128906e+00 2.898869037628173828e+00 -4.942018985748291016e+00
1.200000000000000000e+02 6.652281951904296875e+01 1.064160728454589844e+01 4.884744167327880859e+00 3.442369699478149414e+00 2.498134136199951172e+00 -4.555884361267089844e+00
1.210000000000000000e+02 6.697711944580078125e+01 1.024112510681152344e+01 1.225551605224609375e+01 -1.375044107437133789e+00 3.264141559600830078e+00 -4.526819229125976562e+00
1.220000000000000000e+02 6.679625701904296875e+01 1.032423973083496094e+01 4.692557334899902344e+00 9.682269692420959473e-01 1.698235273361206055e+00 -2.264185667037963867e+00
1.230000000000000000e+02 6.661540222167968750e+01 1.040735530853271484e+01 3.981775999069213867e+00 1.709438920021057129e+00 1.707364439964294434e+00 -2.846120595932006836e+00
1.240000000000000000e+02 6.643453979492187500e+01 1.049046993255615234e+01 2.959555149078369141e+00 7.257094979286193848e-01 1.105579376220703125e+00 -1.771111130714416504e+00
1.250000000000000000e+02 6.695805358886718750e+01 1.018598461151123047e+01 -1.286933898925781250e+00 -3.525789976119995117e+00 -1.443817138671875000e+00 2.305171251296997070e+00
1.260000000000000000e+02 6.676448059082031250e+01 1.023233985900878906e+01 1.276687502861022949e+00 1.535466551780700684e+00 8.436462283134460449e-01 -9.741288423538208008e-01
1.270000000000000000e+02 6.657091522216796875e+01 1.027869510650634766e+01 -1.804963946342468262e-01 -5.784235596656799316e-01 -2.276759892702102661e-01 -1.564237177371978760e-01
1.280000000000000000e+02 6.637734222412109375e+01 1.032505035400390625e+01 -6.740874052047729492e-01 4.557422995567321777e-01 -6.550353765487670898e-02 -1.040621697902679443e-01
1.290000000000000000e+02 6.589131927490234375e+01 9.349679946899414062e+00 2.685883522033691406e+00 2.132605552673339844e+00 1.445546746253967285e+00 2.128837823867797852e+00
1.300000000000000000e+02 6.799430847167968750e+01 9.358543395996093750e+00 5.443810462951660156e+00 2.331637001037597656e+01 8.628054618835449219e+00 -1.867745637893676758e+00
1.310000000000000000e+02 6.841143798828125000e+01 1.019814777374267578e+01 1.133273220062255859e+01 1.787648010253906250e+01 8.762763023376464844e+00 2.704001903533935547e+00
1.320000000000000000e+02 6.841662597656250000e+01 9.980649948120117188e+00 1.070956230163574219e+01 1.758339118957519531e+01 8.487886428833007812e+00 9.145209193229675293e-01
1.330000000000000000e+02 6.831199645996093750e+01 1.044083690643310547e+01 1.272918128967285156e+01 1.918403053283691406e+01 9.573963165283203125e+00 4.816913604736328125e+00
1.340000000000000000e+02 6.831442260742187500e+01 1.062591838836669922e+01 8.319720268249511719e+00 1.978389549255371094e+01 8.431084632873535156e+00 4.587944984436035156e+00
1.350000000000000000e+02 6.818438720703125000e+01 1.090008449554443359e+01 5.881017208099365234e+00 2.057888221740722656e+01 7.937969684600830078e+00 5.415737628936767578e+00
1.360000000000000000e+02 6.594265747070312500e+01 1.170760154724121094e+01 2.188802480697631836e+00 5.574020862579345703e+00 2.328846931457519531e+00 -4.399838447570800781e+00
1.370000000000000000e+02 6.539019012451171875e+01 1.176158332824707031e+01 2.961322069168090820e-01 5.514359951019287109e+00 1.743147611618041992e+00 -1.536525487899780273e+00
1.380000000000000000e+02 6.738188934326171875e+01 9.019219398498535156e+00 -2.306268960237503052e-01 2.493302917480468750e+01 7.410720348358154297e+00 5.163320064544677734e+00
1.390000000000000000e+02 6.644383239746093750e+01 9.362314224243164062e+00 5.642848968505859375e+00 5.770671844482421875e+00 3.424056291580200195e+00 5.894344806671142578e+00
1.400000000000000000e+02 6.640650177001953125e+01 9.107233047485351562e+00 4.130035877227783203e+00 7.356354713439941406e+00 3.445917367935180664e+00 6.238932609558105469e+00
1.410000000000000000e+02 6.678553771972656250e+01 8.757631301879882812e+00 1.741408586502075195e+00 1.423529052734375000e+01 4.793009757995605469e+00 6.919642925262451172e+00
1.420000000000000000e+02 6.665991210937500000e+01 9.099732398986816406e+00 3.938541889190673828e+00 1.130719280242919922e+01 4.573720455169677734e+00 7.855526924133300781e+00
1.430000000000000000e+02 6.667182159423828125e+01 1.127587985992431641e+01 2.840938806533813477e+00 1.072883892059326172e+01 4.070933341979980469e+00 -6.667927742004394531e+00
1.440000000000000000e+02 6.575235748291015625e+01 1.154808425903320312e+01 1.561850547790527344e+00 4.124092102050781250e+00 1.705782771110534668e+00 -3.399332046508789062e+00
1.450000000000000000e+02 6.542276763916015625e+01 1.112457942962646484e+01 3.425371646881103516e-01 -3.730089068412780762e-01 -9.141518734395503998e-03 -2.934845387935638428e-01
1.460000000000000000e+02 6.579985809326171875e+01 1.042494201660156250e+01 -7.155992388725280762e-01 -9.134905040264129639e-02 -2.420844882726669312e-01 2.729417681694030762e-01
1.470000000000000000e+02 6.541249084472656250e+01 1.048009872436523438e+01 -1.054895743727684021e-01 -1.888472139835357666e-01 -8.830104023218154907e-02 1.402013152837753296e-01
1.480000000000000000e+02 6.599029541015625000e+01 1.039885234832763672e+01 -9.226024746894836426e-01 1.801513582468032837e-01 -2.227353304624557495e-01 1.771861314773559570e-01
1.490000000000000000e+02 6.618295288085937500e+01 1.036851119995117188e+01 -9.173743724822998047e-01 -1.488028764724731445e-01 -3.198531568050384521e-01 6.409490108489990234e-02
1.500000000000000000e+02 6.790809631347656250e+01 1.109203910827636719e+01 3.233184099197387695e+00 2.207729911804199219e+01 7.593144893646240234e+00 2.199311494827270508e+00
1.510000000000000000e+02 6.703133392333984375e+01 1.122509098052978516e+01 2.021430730819702148e+00 1.716002082824707031e+01 5.754435062408447266e+00 -6.891971588134765625e+00
1.520000000000000000e+02 6.684445190429687500e+01 1.115357589721679688e+01 2.802390575408935547e+00 1.383457851409912109e+01 4.991090774536132812e+00 -7.568014621734619141e+00
1.530000000000000000e+02 6.615177917480468750e+01 1.014085865020751953e+01 -2.469276666641235352e+00 -1.245546340942382812e-01 -7.781493663787841797e-01 -5.800125002861022949e-02
1.540000000000000000e+02 6.595615386962890625e+01 1.016175174713134766e+01 -1.972519040107727051e+00 1.829246133565902710e-01 -5.368782877922058105e-01 -6.143400073051452637e-02
1.550000000000000000e+02 6.612403106689453125e+01 9.314047813415527344e+00 4.044846057891845703e+00 3.445765495300292969e+00 2.247183561325073242e+00 3.609869956970214844e+00
1.560000000000000000e+02 6.658075714111328125e+01 9.238677978515625000e+00 5.103377342224121094e+00 9.212581634521484375e+00 4.294787883758544922e+00 7.628296375274658203e+00
1.570000000000000000e+02 6.763918304443359375e+01 9.007142066955566406e+00 1.197051048278808594e+00 2.387176704406738281e+01 7.520645618438720703e+00 1.973346233367919922e+00
1.580000000000000000e+02 6.808741760253906250e+01 9.498185157775878906e+00 8.830357551574707031e+00 2.348814201354980469e+01 9.695549964904785156e+00 -3.186415433883666992e+00
1.590000000000000000e+02 6.538217926025390625e+01 1.023454475402832031e+01 -2.025414705276489258e-01 -1.247625350952148438e-01 -9.819120168685913086e-02 -1.590827703475952148e-01
1.600000000000000000e+02 6.504895782470703125e+01 9.115521430969238281e+00 2.357146888971328735e-01 -2.707701623439788818e-01 -1.051663979887962341e-02 8.044845610857009888e-02
1.610000000000000000e+02 6.488053894042968750e+01 9.161776542663574219e+00 1.143689602613449097e-01 -8.345783948898315430e-01 -2.160628288984298706e-01 -3.481880128383636475e-01
1.620000000000000000e+02 6.478668212890625000e+01 9.002681732177734375e+00 -6.097078323364257812e-01 -5.970268249511718750e-01 -3.620204031467437744e-01 -2.694423496723175049e-01
1.630000000000000000e+02 6.557311248779296875e+01 1.020893096923828125e+01 -7.002217173576354980e-01 2.895336225628852844e-02 -2.013805061578750610e-01 -2.645983994007110596e-01
1.640000000000000000e+02 6.553984069824218750e+01 1.000196743011474609e+01 -6.269184350967407227e-01 9.341163188219070435e-02 -1.600520312786102295e-01 -6.833843588829040527e-01
1.650000000000000000e+02 6.576567840576171875e+01 1.018736553192138672e+01 -1.371648192405700684e+00 3.588755428791046143e-02 -4.007281959056854248e-01 -2.532970607280731201e-01
1.660000000000000000e+02 6.560768890380859375e+01 1.045525550842285156e+01 -3.776201605796813965e-01 -3.033488988876342773e-03 -1.141960993409156799e-01 2.728139162063598633e-01
1.670000000000000000e+02 6.632859802246093750e+01 1.078022193908691406e+01 3.747394800186157227e+00 2.548017501831054688e+00 1.888623714447021484e+00 -3.232340812683105469e+00
1.680000000000000000e+02 6.856455230712890625e+01 1.036177825927734375e+01 1.068189048767089844e+01 1.717567825317382812e+01 8.357271194458007812e+00 3.067391633987426758e+00
1.690000000000000000e+02 6.739424133300781250e+01 8.791646003723144531e+00 2.347992509603500366e-01 2.253104400634765625e+01 6.829753398895263672e+00 4.436971187591552734e+00
1.700000000000000000e+02 6.724304199218750000e+01 1.123264408111572266e+01 9.919164776802062988e-01 2.008968925476074219e+01 6.324481964111328125e+00 -4.984272956848144531e+00
1.710000000000000000e+02 6.599380493164062500e+01 8.875278472900390625e+00 2.909925222396850586e+00 5.236601829528808594e+00 2.443958044052124023e+00 4.273927688598632812e+00
1.720000000000000000e+02 6.590313720703125000e+01 1.136820793151855469e+01 1.888840556144714355e+00 4.385431289672851562e+00 1.882281541824340820e+00 -3.689920902252197266e+00
1.730000000000000000e+02 6.847237396240234375e+01 9.608563423156738281e+00 8.491462707519531250e+00 1.764625358581542969e+01 7.841314792633056641e+00 -1.748574733734130859e+00
1.740000000000000000e+02 6.701377868652343750e+01 9.075571060180664062e+00 1.957248091697692871e+00 1.883190727233886719e+01 6.236746311187744141e+00 7.894884586334228516e+00
1.750000000000000000e+02 6.613374328613281250e+01 1.167714214324951172e+01 2.133151292800903320e+00 6.397180557250976562e+00 2.559099674224853516e+00 -4.791464805603027344e+00
1.760000000000000000e+02 6.613511657714843750e+01 9.922757148742675781e+00 8.350746035575866699e-01 4.353175759315490723e-01 3.811176419258117676e-01 2.033479511737823486e-01
1.770000000000000000e+02 6.683854675292968750e+01 9.110565185546875000e+00 4.007379055023193359e+00 1.486728286743164062e+01 5.662398815155029297e+00 8.016661643981933594e+00
1.780000000000000000e+02 6.814559936523437500e+01 9.164517402648925781e+00 2.772851705551147461e+00 2.185889816284179688e+01 7.389524936676025391e+00 -1.787461161613464355e+00
1.790000000000000000e+02 6.785798645019531250e+01 9.130348205566406250e+00 1.810193419456481934e+00 2.400254821777343750e+01 7.743822574615478516e+00 -6.990464925765991211e-01
1.800000000000000000e+02 6.738011169433593750e+01 1.147743415832519531e+01 4.530913531780242920e-01 1.850255203247070312e+01 5.686693191528320312e+00 -3.304144144058227539e+00
1.810000000000000000e+02 6.616902160644531250e+01 9.696204185485839844e+00 3.105377435684204102e+00 1.055973052978515625e+00 1.248405218124389648e+00 1.442414760589599609e+00
1.820000000000000000e+02 6.717230987548828125e+01 1.149829769134521484e+01 6.119064688682556152e-01 1.783326911926269531e+01 5.533552646636962891e+00 -5.098355293273925781e+00
1.830000000000000000e+02 6.828710937500000000e+01 9.772265434265136719e+00 1.132848739624023438e+01 2.000219345092773438e+01 9.399204254150390625e+00 -1.633331179618835449e+00
1.840000000000000000e+02 6.773645782470703125e+01 1.136165904998779297e+01 9.861288666725158691e-01 2.235562705993652344e+01 7.002526760101318359e+00 2.351635247468948364e-01
1.850000000000000000e+02 6.766723632812500000e+01 1.114451599121093750e+01 6.872598528861999512e-01 2.557720947265625000e+01 7.879341125488281250e+00 4.218472838401794434e-01
1.860000000000000000e+02 6.699983978271484375e+01 8.753047943115234375e+00 6.793368458747863770e-01 1.631414222717285156e+01 5.098043441772460938e+00 6.145482540130615234e+00
1.870000000000000000e+02 6.717552185058593750e+01 9.033265113830566406e+00 9.832188487052917480e-01 2.272269058227539062e+01 7.111772537231445312e+00 5.831696510314941406e+00
1.880000000000000000e+02 6.539261627197265625e+01 8.937156677246093750e+00 1.395095825195312500e+00 1.474956750869750977e+00 8.610157966613769531e-01 1.748900055885314941e+00
1.890000000000000000e+02 6.522225952148437500e+01 9.116778373718261719e+00 3.553889989852905273e-01 2.789038717746734619e-01 1.902878582477569580e-01 5.014447569847106934e-01
1.900000000000000000e+02 6.519403076171875000e+01 8.950784683227539062e+00 1.005883455276489258e+00 1.339783787727355957e+00 7.037001848220825195e-01 1.593687176704406738e+00
1.910000000000000000e+02 6.559417724609375000e+01 8.919184684753417969e+00 2.089947223663330078e+00 2.761988162994384766e+00 1.455580592155456543e+00 2.750061273574829102e+00
1.920000000000000000e+02 6.652268218994140625e+01 1.159162998199462891e+01 2.028326272964477539e+00 9.635670661926269531e+00 3.499198913574218750e+00 -5.876159667968750000e+00
1.930000000000000000e+02 6.609568786621093750e+01 1.149780559539794922e+01 2.304938554763793945e+00 5.652982234954833984e+00 2.387376070022583008e+00 -4.547720432281494141e+00
1.940000000000000000e+02 6.695845031738281250e+01 1.150960350036621094e+01 1.230554699897766113e+00 1.456270313262939453e+01 4.737977504730224609e+00 -5.863471984863281250e+00
1.950000000000000000e+02 6.650197601318359375e+01 8.991520881652832031e+00 3.742703914642333984e+00 8.820510864257812500e+00 3.768964529037475586e+00 6.692407608032226562e+00
1.960000000000000000e+02 6.619869995117187500e+01 8.853266716003417969e+00 2.735065460205078125e+00 6.397614955902099609e+00 2.739804029464721680e+00 5.096743106842041016e+00
1.970000000000000000e+02 6.579519653320312500e+01 8.899197578430175781e+00 2.395194292068481445e+00 3.797851562500000000e+00 1.857913732528686523e+00 3.260268688201904297e+00
1.980000000000000000e+02 6.673544311523437500e+01 1.154010009765625000e+01 1.980552911758422852e+00 1.206542110443115234e+01 4.213792324066162109e+00 -6.401243209838867188e+00
1.990000000000000000e+02 6.626755523681640625e+01 1.143525314331054688e+01 2.540480852127075195e+00 6.503312110900878906e+00 2.713137865066528320e+00 -5.138644695281982422e+00
2.000000000000000000e+02 6.557583618164062500e+01 1.154658412933349609e+01 4.598954617977142334e-01 3.522760629653930664e+00 1.194796800613403320e+00 -2.360337257385253906e+00
2.010000000000000000e+02 6.499182891845703125e+01 8.969951629638671875e+00 -6.214698553085327148e-01 -2.631457149982452393e-01 -2.653846740722656250e-01 6.594437360763549805e-02
2.020000000000000000e+02 6.543175506591796875e+01 1.091284370422363281e+01 3.116321749985218048e-02 -6.364719271659851074e-01 -1.815926134586334229e-01 2.951173670589923859e-02
2.030000000000000000e+02 6.542615509033203125e+01 1.069795036315917969e+01 9.261055290699005127e-02 -4.995765984058380127e-01 -1.220898106694221497e-01 1.486980468034744263e-01
2.040000000000000000e+02 6.584584045410156250e+01 1.121236515045166016e+01 1.652310371398925781e+00 2.911024093627929688e+00 1.369000315666198730e+00 -2.381807804107666016e+00
2.050000000000000000e+02 6.539723968505859375e+01 1.155055046081542969e+01 1.891453862190246582e-01 2.146269798278808594e+00 7.006245255470275879e-01 -8.002483844757080078e-01
2.060000000000000000e+02 6.564054870605468750e+01 1.067700958251953125e+01 2.137724757194519043e-01 1.057974249124526978e-02 6.730566173791885376e-02 3.552182912826538086e-01
2.070000000000000000e+02 6.556069183349609375e+01 1.174643707275390625e+01 1.649144053459167480e+00 4.332075119018554688e+00 1.794365763664245605e+00 -3.242667198181152344e+00
2.080000000000000000e+02 6.667144775390625000e+01 1.106404876708984375e+01 4.185932159423828125e+00 9.549952507019042969e+00 4.120765686035156250e+00 -7.239851951599121094e+00
2.090000000000000000e+02 6.498612213134765625e+01 9.321660995483398438e+00 -3.378925621509552002e-01 -1.103029251098632812e+00 -4.322765469551086426e-01 -5.293089151382446289e-01
2.100000000000000000e+02 6.551104736328125000e+01 9.791234016418457031e+00 2.311373353004455566e-01 2.250392436981201172e-01 1.368529796600341797e-01 -4.447377622127532959e-01
2.110000000000000000e+02 6.519959259033203125e+01 9.662501335144042969e+00 -2.985935807228088379e-01 -1.348477125167846680e+00 -4.941212236881256104e-01 -6.976498961448669434e-01
2.120000000000000000e+02 6.591718292236328125e+01 9.948285102844238281e+00 5.805645510554313660e-02 4.514611065387725830e-01 1.528552770614624023e-01 -3.546876609325408936e-01
2.130000000000000000e+02 6.542465209960937500e+01 9.590106964111328125e+00 4.119383990764617920e-01 1.652120053768157959e-01 1.731451153755187988e-01 1.718887127935886383e-02
2.140000000000000000e+02 6.533940124511718750e+01 1.003685760498046875e+01 -3.404813110828399658e-01 -5.556743741035461426e-01 -2.688467204570770264e-01 -5.089507699012756348e-01
2.150000000000000000e+02 6.622846984863281250e+01 1.058223152160644531e+01 2.173640251159667969e+00 1.005981683731079102e+00 9.538865685462951660e-01 -1.533493638038635254e+00
2.160000000000000000e+02 6.611444091796875000e+01 1.096635818481445312e+01 2.528547525405883789e+00 2.923057317733764648e+00 1.635481476783752441e+00 -2.867696762084960938e+00
2.170000000000000000e+02 6.629127502441406250e+01 9.506152153015136719e+00 4.797049045562744141e+00 3.102663993835449219e+00 2.369913816452026367e+00 3.789098501205444336e+00
2.180000000000000000e+02 6.576347351074218750e+01 9.801933288574218750e+00 5.809170603752136230e-01 3.746452927589416504e-01 2.866686880588531494e-01 -2.826218307018280029e-01
2.190000000000000000e+02 6.604773712158203125e+01 9.089728355407714844e+00 3.060858249664306641e+00 4.251726627349853516e+00 2.193775415420532227e+00 4.012649536132812500e+00
2.200000000000000000e+02 6.631890869140625000e+01 1.113145160675048828e+01 3.591856956481933594e+00 5.647923469543457031e+00 2.771934270858764648e+00 -4.970870971679687500e+00
2.210000000000000000e+02 6.560482025146484375e+01 9.478039741516113281e+00 9.782578945159912109e-01 7.555110454559326172e-01 5.201306939125061035e-01 6.113345026969909668e-01
2.220000000000000000e+02 6.585762023925781250e+01 9.591389656066894531e+00 2.086835622787475586e+00 1.345172047615051270e+00 1.029602289199829102e+00 9.229609370231628418e-01
2.230000000000000000e+02 6.601818084716796875e+01 1.061607933044433594e+01 1.215610027313232422e+00 7.676038146018981934e-01 5.949641466140747070e-01 -7.126761674880981445e-01
2.240000000000000000e+02 6.528807067871093750e+01 9.400375366210937500e+00 3.503494262695312500e-01 -8.800280094146728516e-02 7.870399206876754761e-02 2.637774050235748291e-01
2.250000000000000000e+02 6.515179443359375000e+01 9.246380805969238281e+00 5.072069168090820312e-01 -1.996996849775314331e-01 9.225217252969741821e-02 2.932626008987426758e-01
2.260000000000000000e+02 6.509661102294921875e+01 9.486393928527832031e+00 -2.651848793029785156e-01 -1.307339549064636230e+00 -4.717573225498199463e-01 -6.094139814376831055e-01
2.270000000000000000e+02 6.575136566162109375e+01 1.172973728179931641e+01 1.618798136711120605e+00 4.804020404815673828e+00 1.926845550537109375e+00 -3.629264116287231445e+00
2.280000000000000000e+02 6.592456054687500000e+01 1.153462123870849609e+01 1.660834431648254395e+00 4.921860694885253906e+00 1.974808454513549805e+00 -3.867408037185668945e+00
2.290000000000000000e+02 6.540641784667968750e+01 1.133754634857177734e+01 -3.469910845160484314e-02 4.908287227153778076e-01 1.368388831615447998e-01 -5.741901993751525879e-01
2.300000000000000000e+02 6.560375976562500000e+01 1.134171485900878906e+01 6.420923471450805664e-01 2.479620456695556641e+00 9.365138411521911621e-01 -1.763758778572082520e+00
2.310000000000000000e+02 6.568844604492187500e+01 1.090346240997314453e+01 1.040636181831359863e+00 9.279565215110778809e-01 5.905777812004089355e-01 -7.073380351066589355e-01
2.320000000000000000e+02 6.567044067382812500e+01 1.112814617156982422e+01 7.095851302146911621e-01 1.730799078941345215e+00 7.321152687072753906e-01 -1.312105774879455566e+00
2.330000000000000000e+02 6.563536071777343750e+01 9.119605064392089844e+00 2.051274776458740234e+00 1.905213594436645508e+00 1.186946511268615723e+00 1.958582162857055664e+00
2.340000000000000000e+02 6.542251586914062500e+01 9.129703521728515625e+00 1.308552265167236328e+00 1.337838172912597656e+00 7.939171195030212402e-01 1.480435371398925781e+00
2.350000000000000000e+02 6.547141265869140625e+01 9.320204734802246094e+00 9.145419001579284668e-01 8.229348659515380859e-01 5.212430357933044434e-01 7.489660978317260742e-01
2.360000000000000000e+02 6.528110504150390625e+01 9.845687866210937500e+00 -3.051744103431701660e-01 -1.082395195960998535e+00 -4.162708818912506104e-01 -7.139116525650024414e-01
2.370000000000000000e+02 6.584624481201171875e+01 9.115029335021972656e+00 2.873231410980224609e+00 3.395872831344604492e+00 1.880731225013732910e+00 3.194241523742675781e+00
2.380000000000000000e+02 6.623585510253906250e+01 9.053991317749023438e+00 3.825053930282592773e+00 6.097735881805419922e+00 2.976836919784545898e+00 5.178194046020507812e+00
2.390000000000000000e+02 6.640045166015625000e+01 8.817800521850585938e+00 2.865260362625122070e+00 9.153878211975097656e+00 3.605741739273071289e+00 6.453555107116699219e+00
2.400000000000000000e+02 6.659149169921875000e+01 8.778463363647460938e+00 2.266811609268188477e+00 1.102059459686279297e+01 3.986222028732299805e+00 6.742055416107177734e+00
2.410000000000000000e+02 6.682057189941406250e+01 8.931873321533203125e+00 2.115418195724487305e+00 1.381181335449218750e+01 4.778169631958007812e+00 7.527053356170654297e+00
2.420000000000000000e+02 6.664769744873046875e+01 8.941708564758300781e+00 3.090595483779907227e+00 1.229034709930419922e+01 4.614282608032226562e+00 7.467356204986572266e+00
2.430000000000000000e+02 6.632592010498046875e+01 1.163772296905517578e+01 2.316571235656738281e+00 7.827809810638427734e+00 3.043314456939697266e+00 -5.516273498535156250e+00
2.440000000000000000e+02 6.645444488525390625e+01 1.134478378295898438e+01 2.938694000244140625e+00 8.244053840637207031e+00 3.354824304580688477e+00 -6.046335220336914062e+00
2.450000000000000000e+02 6.583503723144531250e+01 1.063075828552246094e+01 3.208663761615753174e-01 3.513280749320983887e-01 2.016583383083343506e-01 5.652613192796707153e-02
2.460000000000000000e+02 6.592707824707031250e+01 1.081248188018798828e+01 1.800038576126098633e+00 1.191217541694641113e+00 8.973768353462219238e-01 -1.094671249389648438e+00
2.470000000000000000e+02 6.573751831054687500e+01 9.990360260009765625e+00 -5.678359866142272949e-01 1.752454638481140137e-01 -1.177771613001823425e-01 -5.622197985649108887e-01
2.480000000000000000e+02 6.648970031738281250e+01 1.095080280303955078e+01 4.133394718170166016e+00 6.288290500640869141e+00 3.126505374908447266e+00 -5.893839836120605469e+00
2.490000000000000000e+02 6.744804382324218750e+01 1.121164798736572266e+01 1.348406910896301270e+00 2.318000793457031250e+01 7.358524799346923828e+00 -1.768188953399658203e+00
2.500000000000000000e+02 6.818606567382812500e+01 9.600536346435546875e+00 1.037267780303955078e+01 2.177614593505859375e+01 9.644646644592285156e+00 -2.351968050003051758e+00
2.510000000000000000e+02 6.813545989990234375e+01 9.407056808471679688e+00 6.610235691070556641e+00 2.312054824829101562e+01 8.919235229492187500e+00 -2.271382093429565430e+00
2.520000000000000000e+02 6.601438903808593750e+01 1.116296195983886719e+01 2.318455934524536133e+00 3.503920078277587891e+00 1.746712803840637207e+00 -3.148779630661010742e+00
2.530000000000000000e+02 6.576631164550781250e+01 1.137052536010742188e+01 1.000458836555480957e+00 3.223544120788574219e+00 1.267200946807861328e+00 -2.699181556701660156e+00
2.540000000000000000e+02 6.617308807373046875e+01 1.126225185394287109e+01 2.586344957351684570e+00 5.009747505187988281e+00 2.278827667236328125e+00 -4.431333541870117188e+00
2.550000000000000000e+02 6.629894256591796875e+01 9.220275878906250000e+00 4.393201351165771484e+00 5.448177814483642578e+00 2.952413797378540039e+00 5.350304603576660156e+00
2.560000000000000000e+02 6.701855468750000000e+01 8.935376167297363281e+00 2.083712339401245117e+00 1.826157951354980469e+01 6.103587627410888672e+00 6.562763690948486328e+00
2.570000000000000000e+02 6.565966033935546875e+01 9.313205718994140625e+00 1.862822890281677246e+00 1.662876725196838379e+00 1.057709932327270508e+00 1.598228573799133301e+00
2.580000000000000000e+02 6.604399108886718750e+01 1.133212757110595703e+01 1.907972693443298340e+00 4.810674190521240234e+00 2.015594005584716797e+00 -3.765771627426147461e+00
2.590000000000000000e+02 6.502683258056640625e+01 8.750587463378906250e+00 8.477088809013366699e-01 1.024910449981689453e+00 5.617858171463012695e-01 1.236462593078613281e+00
2.600000000000000000e+02 6.519700622558593750e+01 8.759476661682128906e+00 1.232033729553222656e+00 1.075153708457946777e+00 6.921562552452087402e-01 1.621731042861938477e+00
2.610000000000000000e+02 6.671295166015625000e+01 8.517945289611816406e+00 7.088413834571838379e-01 1.270666217803955078e+01 4.024651050567626953e+00 5.800352573394775391e+00
2.620000000000000000e+02 6.863391113281250000e+01 8.794885635375976562e+00 1.375000476837158203e+00 1.855545806884765625e+01 5.979137897491455078e+00 -1.490395426750183105e+00
2.630000000000000000e+02 6.691628265380859375e+01 8.365942955017089844e+00 -5.533463880419731140e-02 1.476500988006591797e+01 4.412902355194091797e+00 5.416888713836669922e+00
2.640000000000000000e+02 5.455809402465820312e+01 8.206899166107177734e-01 -2.494064092636108398e+00 -3.636301457881927490e-01 -8.573082685470581055e-01 2.010362148284912109e-01
2.650000000000000000e+02 5.470220565795898438e+01 -3.537760376930236816e-01 -2.110526561737060547e+00 -3.491685688495635986e-01 -7.379085421562194824e-01 -7.202421426773071289e-01
2.660000000000000000e+02 5.435216140747070312e+01 -5.171322822570800781e+00 5.382606983184814453e-01 -2.647300958633422852e-01 8.205917477607727051e-02 -2.261452823877334595e-01
2.670000000000000000e+02 5.165420150756835938e+01 -5.588373661041259766e+00 2.129837274551391602e-01 -1.278153955936431885e-01 2.555049769580364227e-02 -6.777663528919219971e-02
2.680000000000000000e+02 5.257547760009765625e+01 -6.689727306365966797e+00 3.383554145693778992e-02 -5.049798488616943359e-01 -1.413432955741882324e-01 1.440022438764572144e-01
2.690000000000000000e+02 5.337927627563476562e+01 -7.856640815734863281e+00 -1.035390496253967285e-01 -7.199701070785522461e-01 -2.470527440309524536e-01 3.555331230163574219e-01
2.700000000000000000e+02 5.710490036010742188e+01 -1.021957015991210938e+01 -1.484281271696090698e-01 2.447369575500488281e+00 6.896824836730957031e-01 9.352602362632751465e-01
2.710000000000000000e+02 6.148193740844726562e+01 -1.292238521575927734e+01 -7.934440374374389648e-01 4.416790008544921875e+00 1.087003707885742188e+00 8.433424830436706543e-01
2.720000000000000000e+02 6.561683654785156250e+01 -1.505571842193603516e+01 -1.862239718437194824e+00 2.197102785110473633e+00 1.004589274525642395e-01 -7.223261636681854725e-04
2.730000000000000000e+02 6.823877716064453125e+01 -1.519231033325195312e+01 -2.664070606231689453e+00 -9.559221267700195312e-01 -1.085997819900512695e+00 1.402003645896911621e+00
2.740000000000000000e+02 5.869456481933593750e+01 1.674589872360229492e+00 -2.631834506988525391e+00 5.262946709990501404e-02 -7.737615704536437988e-01 -9.664573073387145996e-01
2.750000000000000000e+02 5.736502075195312500e+01 9.601371884346008301e-01 -4.549211978912353516e+00 -7.047457695007324219e-01 -1.576187372207641602e+00 -9.285182952880859375e-01
2.760000000000000000e+02 5.780300521850585938e+01 -3.773752450942993164e+00 7.782185673713684082e-01 1.097432971000671387e+00 5.626954436302185059e-01 3.488503098487854004e-01
2.770000000000000000e+02 6.206972503662109375e+01 -5.464385032653808594e+00 1.671307206153869629e+00 8.543696403503417969e+00 3.064501285552978516e+00 1.796498894691467285e+00
2.780000000000000000e+02 6.369954681396484375e+01 -9.552481651306152344e+00 6.865543723106384277e-01 6.843316555023193359e+00 2.258961200714111328e+00 -1.261513590812683105e+00
2.790000000000000000e+02 6.325491333007812500e+01 -6.803540706634521484e+00 5.995143055915832520e-01 1.035869598388671875e+01 3.287462949752807617e+00 -2.421390116214752197e-01
2.800000000000000000e+02 6.318731689453125000e+01 -5.421726226806640625e+00 1.099525839090347290e-01 1.228593444824218750e+01 3.718766212463378906e+00 6.190875172615051270e-01
2.810000000000000000e+02 6.325051879882812500e+01 -4.076602458953857422e+00 2.224792003631591797e+00 1.334816932678222656e+01 4.671888351440429688e+00 2.805647134780883789e+00
2.820000000000000000e+02 6.096939849853515625e+01 4.968254268169403076e-01 -1.869684338569641113e+00 3.611244916915893555e+00 5.224682092666625977e-01 1.825969576835632324e+00
2.830000000000000000e+02 6.111809921264648438e+01 3.377449274063110352e+00 3.936105966567993164e-01 1.395529150962829590e+00 5.367419123649597168e-01 1.000466346740722656e+00
2.840000000000000000e+02 5.990443038940429688e+01 2.495180130004882812e+00 -1.049455881118774414e+00 7.064157128334045410e-01 -1.029120460152626038e-01 2.188345491886138916e-01
2.850000000000000000e+02 5.332153701782226562e+01 3.947016596794128418e-01 -1.544423937797546387e+00 1.662792861461639404e-01 -4.134434163570404053e-01 -2.367820292711257935e-01
2.860000000000000000e+02 4.902278900146484375e+01 -6.372272968292236328e-01 -8.534046411514282227e-01 2.707406282424926758e-01 -1.747992038726806641e-01 -1.648934483528137207e-01
2.870000000000000000e+02 4.802337265014648438e+01 1.547050327062606812e-01 -8.474595546722412109e-01 3.053565025329589844e-01 -1.626309156417846680e-01 -1.342726647853851318e-01
2.880000000000000000e+02 4.330834197998046875e+01 1.528455853462219238e+00 -1.048963904380798340e+00 -4.177888333797454834e-01 -4.400258362293243408e-01 -6.196002364158630371e-01
2.890000000000000000e+02 3.969719314575195312e+01 -5.216627120971679688e-01 -3.397005796432495117e+00 -8.254641294479370117e-01 -1.266740918159484863e+00 2.488081455230712891e-01
2.900000000000000000e+02 3.785307312011718750e+01 4.652910828590393066e-01 -1.457699894905090332e+00 -3.101465702056884766e-01 -5.303539633750915527e-01 7.269929051399230957e-01
2.910000000000000000e+02 3.664094543457031250e+01 -4.558874070644378662e-01 -1.571566104888916016e+00 8.209103941917419434e-01 -2.251967191696166992e-01 -2.628812938928604126e-02
2.920000000000000000e+02 3.352581405639648438e+01 -1.098010182380676270e+00 -5.124081969261169434e-01 4.515301883220672607e-01 -1.826340705156326294e-02 -1.867449656128883362e-02
2.930000000000000000e+02 3.308155822753906250e+01 3.371293842792510986e-02 -1.407438278198242188e+00 4.878553152084350586e-01 -2.758749127388000488e-01 -2.365000844001770020e-01
2.940000000000000000e+02 3.439987182617187500e+01 -1.980374932289123535e+00 -3.330118954181671143e-02 7.775334715843200684e-01 2.232696861028671265e-01 -5.260476469993591309e-01
2.950000000000000000e+02 3.527919769287109375e+01 -2.966398000717163086e+00 5.707722306251525879e-01 1.103139638900756836e+00 5.021735429763793945e-01 -7.707144618034362793e-01
2.960000000000000000e+02 3.698666763305664062e+01 -5.098402976989746094e+00 6.923377513885498047e-01 1.066339135169982910e+00 5.276030302047729492e-01 -8.998271822929382324e-01
2.970000000000000000e+02 3.848270797729492188e+01 -7.436667442321777344e+00 4.614787399768829346e-01 5.813925266265869141e-01 3.128613829612731934e-01 -5.228568315505981445e-01
2.980000000000000000e+02 3.999973297119140625e+01 -8.070113182067871094e+00 4.538940489292144775e-01 1.012155488133430481e-01 1.665328890085220337e-01 -3.658781051635742188e-01
2.990000000000000000e+02 4.087330627441406250e+01 -1.223652172088623047e+01 -7.410586811602115631e-03 -4.099703729152679443e-01 -1.252142786979675293e-01 -6.669938564300537109e-02
3.000000000000000000e+02 4.117481613159179688e+01 -1.437849330902099609e+01 5.681311339139938354e-02 -7.030242085456848145e-01 -1.938633322715759277e-01 -1.823193728923797607e-01
3.010000000000000000e+02 4.106755828857421875e+01 -1.567566490173339844e+01 -9.169365763664245605e-01 -1.024312615394592285e+00 -5.823747515678405762e-01 -5.128637552261352539e-01
3.020000000000000000e+02 4.804134368896484375e+01 -1.545849418640136719e+01 -2.059441208839416504e-01 5.925227403640747070e-01 1.159735918045043945e-01 -8.886152505874633789e-02
3.030000000000000000e+02 4.981228637695312500e+01 -1.769302368164062500e+01 -5.126913785934448242e-01 4.919758737087249756e-01 -6.214661058038473129e-03 7.849361747503280640e-02
3.040000000000000000e+02 5.290878295898437500e+01 -1.871776771545410156e+01 -1.236888170242309570e+00 -2.949135899543762207e-01 -4.595405161380767822e-01 3.325011730194091797e-01
3.050000000000000000e+02 5.415362548828125000e+01 2.080071687698364258e+00 -1.245476722717285156e+00 -5.000202059745788574e-01 -5.236490964889526367e-01 6.610949635505676270e-01
3.060000000000000000e+02 5.332218170166015625e+01 4.588332653045654297e+00 -1.157563552260398865e-01 8.326421491801738739e-03 -3.222898021340370178e-02 3.170518949627876282e-02
3.070000000000000000e+02 5.440846252441406250e+01 5.461030006408691406e+00 -1.602532342076301575e-02 4.748829826712608337e-02 9.438892826437950134e-03 4.666300490498542786e-02
3.080000000000000000e+02 5.510374832153320312e+01 6.575766563415527344e+00 2.435617893934249878e-02 7.480043172836303711e-02 2.974698320031166077e-02 -2.573503646999597549e-03
3.090000000000000000e+02 5.413116836547851562e+01 8.378675460815429688e+00 2.579271327704191208e-03 7.238028571009635925e-03 2.945190062746405602e-03 -1.746598258614540100e-02
3.100000000000000000e+02 5.585285568237304688e+01 7.703929901123046875e+00 -1.514690276235342026e-02 1.172011252492666245e-03 -4.192467313259840012e-03 1.780277676880359650e-02
3.110000000000000000e+02 5.593281936645507812e+01 8.946835517883300781e+00 -1.027014455758035183e-03 -5.725705064833164215e-03 -2.025815891101956367e-03 4.464812576770782471e-03
3.120000000000000000e+02 5.372216415405273438e+01 6.298215866088867188e+00 -3.109251707792282104e-02 6.268110591918230057e-03 -7.447321899235248566e-03 -2.572615072131156921e-02
3.130000000000000000e+02 5.174065017700195312e+01 9.556748390197753906e+00 1.256349496543407440e-02 -1.849018782377243042e-02 -1.778008067049086094e-03 4.094920121133327484e-03
3.140000000000000000e+02 5.081456756591796875e+01 9.554761886596679688e+00 1.497840229421854019e-02 -4.256890621036291122e-03 3.216453362256288528e-03 7.007637526839971542e-03
3.150000000000000000e+02 5.026414489746093750e+01 9.511571884155273438e+00 2.517401613295078278e-02 -3.817216260358691216e-03 6.407039705663919449e-03 1.219704933464527130e-02
3.160000000000000000e+02 4.803141021728515625e+01 6.722908496856689453e+00 -2.396254613995552063e-02 3.118619322776794434e-02 2.167094498872756958e-03 2.646193653345108032e-02
3.170000000000000000e+02 4.636671829223632812e+01 2.808402299880981445e+00 -5.964782238006591797e-01 7.183239609003067017e-02 -1.573937386274337769e-01 -2.341428250074386597e-01
3.180000000000000000e+02 3.767140197753906250e+01 2.482097625732421875e+00 -8.210005611181259155e-02 1.432889848947525024e-01 1.835667900741100311e-02 1.458980590105056763e-01
3.190000000000000000e+02 3.546875381469726562e+01 3.368841886520385742e+00 -2.269592881202697754e-01 7.715188711881637573e-02 -4.494221881031990051e-02 -7.467185705900192261e-02
3.200000000000000000e+02 3.015722846984863281e+01 4.590870857238769531e+00 7.122352123260498047e-01 1.847234964370727539e-01 2.690876126289367676e-01 3.388291597366333008e-01
3.210000000000000000e+02 2.899967002868652344e+01 3.850978851318359375e+00 8.655712008476257324e-01 2.996160089969635010e-01 3.495561778545379639e-01 6.484075784683227539e-01
3.220000000000000000e+02 2.784595680236816406e+01 3.213626861572265625e+00 1.240446925163269043e+00 4.760825634002685547e-01 5.149588584899902344e-01 5.443095564842224121e-01
3.230000000000000000e+02 2.707731056213378906e+01 2.630444049835205078e+00 6.316229104995727539e-01 2.795279920101165771e-01 2.733452618122100830e-01 6.301202774047851562e-01
3.240000000000000000e+02 3.868460083007812500e+01 4.948015213012695312e+00 -2.205948811024427414e-03 6.569515913724899292e-02 1.904676295816898346e-02 1.148627232760190964e-02
3.250000000000000000e+02 3.812336349487304688e+01 3.724416017532348633e+00 1.483876723796129227e-02 2.247954607009887695e-01 7.189027220010757446e-02 -9.872646071016788483e-03
3.260000000000000000e+02 3.660150527954101562e+01 9.225227355957031250e+00 -9.222438675351440907e-04 2.836677886079996824e-04 -1.915728062158450484e-04 -7.817215286195278168e-03
3.270000000000000000e+02 3.764974212646484375e+01 9.260087966918945312e+00 6.480051204562187195e-03 6.601169705390930176e-03 3.924366086721420288e-03 8.637000806629657745e-03
3.280000000000000000e+02 3.375810241699218750e+01 7.089150428771972656e+00 1.638642996549606323e-01 1.824110560119152069e-02 5.463162064552307129e-02 1.048365235328674316e-02
3.290000000000000000e+02 3.484813308715820312e+01 8.192862510681152344e+00 2.497781813144683838e-02 -2.013948513194918633e-03 6.889161188155412674e-03 2.128308080136775970e-02
3.300000000000000000e+02 3.747849273681640625e+01 5.318321704864501953e+00 -3.637989610433578491e-02 9.194943308830261230e-02 1.667086221277713776e-02 -8.120907843112945557e-02
3.310000000000000000e+02 3.925344085693359375e+01 6.122809886932373047e+00 -1.967269740998744965e-02 2.541719563305377960e-02 1.723349094390869141e-03 -9.006817825138568878e-03
3.320000000000000000e+02 4.042275238037109375e+01 7.469711780548095703e+00 6.439442280679941177e-03 -7.829391397535800934e-03 -4.169846361037343740e-04 -5.881914868950843811e-03
3.330000000000000000e+02 4.043734359741210938e+01 8.688013076782226562e+00 7.276636548340320587e-03 -2.486396348103880882e-03 1.437072060070931911e-03 2.402151934802532196e-03
3.340000000000000000e+02 2.545946693420410156e+01 1.601566672325134277e+00 1.417547166347503662e-01 2.070290446281433105e-01 1.046351268887519836e-01 1.927606761455535889e-01
3.350000000000000000e+02 2.551975059509277344e+01 4.386287629604339600e-01 -1.693028509616851807e-01 2.070783972740173340e-01 1.133266091346740723e-02 1.113198548555374146e-01
3.360000000000000000e+02 2.721109771728515625e+01 -3.844300746917724609e+00 -9.682445786893367767e-03 -5.261371731758117676e-01 -1.607458740472793579e-01 -7.573072314262390137e-01
3.370000000000000000e+02 2.563832283020019531e+01 -4.904503822326660156e+00 9.587336331605911255e-02 -6.575857400894165039e-01 -1.685137003660202026e-01 -3.288734853267669678e-01
3.380000000000000000e+02 2.549339866638183594e+01 -6.335171699523925781e+00 1.723125129938125610e-01 -1.174109816551208496e+00 -3.005391955375671387e-01 -8.712794631719589233e-02
3.390000000000000000e+02 2.696470069885253906e+01 -6.294354438781738281e+00 4.193815961480140686e-02 -1.089639425277709961e+00 -3.143103718757629395e-01 -8.054673671722412109e-01
3.400000000000000000e+02 3.113011550903320312e+01 -6.749662876129150391e+00 2.320165485143661499e-01 1.070969104766845703e+00 3.908956944942474365e-01 -5.838450789451599121e-01
3.410000000000000000e+02 3.234661483764648438e+01 -1.095107841491699219e+01 7.780331373214721680e-02 6.977307796478271484e-01 2.326602339744567871e-01 -2.137742191553115845e-01
3.420000000000000000e+02 3.495178604125976562e+01 -1.244427299499511719e+01 2.020546644926071167e-01 3.926231563091278076e-01 1.784033477306365967e-01 -2.762715816497802734e-01
3.430000000000000000e+02 3.666049575805664062e+01 -1.450440406799316406e+01 -2.323508262634277344e-02 1.956402957439422607e-01 5.172156542539596558e-02 -1.006702110171318054e-01
3.440000000000000000e+02 3.407087326049804688e+01 -1.143877696990966797e+01 2.779109179973602295e-01 5.711503624916076660e-01 2.547183930873870850e-01 -4.009347856044769287e-01
3.450000000000000000e+02 2.470123481750488281e+01 6.172520518302917480e-01 -6.140685826539993286e-02 1.668776273727416992e-01 3.164122998714447021e-02 1.220386847853660583e-01
3.460000000000000000e+02 2.414942359924316406e+01 1.789945244789123535e+00 1.248847171664237976e-01 5.016729235649108887e-02 5.251560360193252563e-02 7.305093109607696533e-02
3.470000000000000000e+02 2.352818679809570312e+01 1.862855672836303711e+00 4.754428192973136902e-02 3.367150435224175453e-03 1.527343038469552994e-02 2.980906702578067780e-02
3.480000000000000000e+02 2.157433319091796875e+01 9.009222388267517090e-01 2.144570928066968918e-03 3.476531431078910828e-02 1.107296627014875412e-02 3.495185170322656631e-03
3.490000000000000000e+02 2.264754486083984375e+01 1.930696487426757812e+00 1.995320618152618408e-02 1.761591434478759766e-02 1.127073634415864944e-02 9.397235698997974396e-03
3.500000000000000000e+02 2.082574081420898438e+01 2.203934907913208008e+00 3.810181049630045891e-03 7.970174774527549744e-03 3.534106770530343056e-03 -6.288303062319755554e-03
3.510000000000000000e+02 1.794918251037597656e+01 2.543429851531982422e+00 -1.597185619175434113e-02 -2.667417284101247787e-03 -5.591782275587320328e-03 -1.802925718948245049e-03
3.520000000000000000e+02 2.000792121887207031e+01 2.337210178375244141e+00 4.124558996409177780e-03 -5.971602164208889008e-03 -5.541129503399133682e-04 3.182887798175215721e-03
3.530000000000000000e+02 1.982127380371093750e+01 1.557924270629882812e+00 1.336528174579143524e-02 5.073704523965716362e-04 4.161795601248741150e-03 2.230979967862367630e-03
3.540000000000000000e+02 2.257469940185546875e+01 7.550509572029113770e-01 6.621875334531068802e-03 3.223339468240737915e-02 1.165658049285411835e-02 3.383421897888183594e-02
3.550000000000000000e+02 2.375164222717285156e+01 -1.453671574592590332e+00 -9.298741072416305542e-02 1.464509516954421997e-01 1.603906042873859406e-02 -9.931998327374458313e-03
3.560000000000000000e+02 2.593057441711425781e+01 -9.226287841796875000e+00 -1.100355386734008789e+00 -1.662441015243530273e+00 -8.288389444351196289e-01 -4.198243021965026855e-01
3.570000000000000000e+02 2.348617362976074219e+01 -1.041160869598388672e+01 -9.903666973114013672e-01 -4.191780686378479004e-01 -4.228634238243103027e-01 -5.162038207054138184e-01
3.580000000000000000e+02 2.471592140197753906e+01 -9.574547767639160156e+00 -1.466115593910217285e+00 -1.473489165306091309e+00 -8.818814158439636230e-01 -8.158857822418212891e-01
3.590000000000000000e+02 2.263883781433105469e+01 -9.282617568969726562e+00 -7.539049386978149414e-01 -3.179886564612388611e-02 -2.357111275196075439e-01 -1.460522972047328949e-02
3.600000000000000000e+02 2.222346687316894531e+01 -1.149290561676025391e+01 -4.393018484115600586e-01 -2.524297535419464111e-01 -2.075194865465164185e-01 -3.495556116104125977e-01
3.610000000000000000e+02 2.158982658386230469e+01 -1.617877769470214844e+01 -1.113382354378700256e-01 -3.007834851741790771e-01 -1.236365139484405518e-01 -2.772237062454223633e-01
3.620000000000000000e+02 2.249040222167968750e+01 -1.791015434265136719e+01 -7.790412753820419312e-02 -2.585387825965881348e-01 -1.009328737854957581e-01 -2.316931337118148804e-01
3.630000000000000000e+02 1.892423248291015625e+01 -1.912856483459472656e+01 -7.120626419782638550e-02 -1.790093034505844116e-01 -7.506467401981353760e-02 -2.382537126541137695e-01
3.640000000000000000e+02 1.955531120300292969e+01 -2.560264205932617188e+01 5.916283279657363892e-02 -2.064273953437805176e-01 -4.417936503887176514e-02 -2.172518521547317505e-01
3.650000000000000000e+02 2.056991386413574219e+01 -2.866205978393554688e+01 1.085329800844192505e-01 -1.913946419954299927e-01 -2.485849708318710327e-02 -1.914875209331512451e-01
3.660000000000000000e+02 1.974239349365234375e+01 -3.359395980834960938e+01 1.654369682073593140e-01 -2.097372710704803467e-01 -1.329008955508470535e-02 -1.474387496709823608e-01
3.670000000000000000e+02 1.869527053833007812e+01 -3.643232727050781250e+01 1.838321536779403687e-01 -2.340385019779205322e-01 -1.506190095096826553e-02 -9.355084598064422607e-02
3.680000000000000000e+02 1.637239265441894531e+01 -3.803094482421875000e+01 1.539870202541351318e-01 -2.366759777069091797e-01 -2.480668388307094574e-02 -6.588946282863616943e-02
3.690000000000000000e+02 1.725722885131835938e+01 -4.096606063842773438e+01 1.792100667953491211e-01 -2.410179376602172852e-01 -1.854236423969268799e-02 -2.979033999145030975e-02
3.700000000000000000e+02 2.202361869812011719e+01 -4.094556427001953125e+01 2.522523701190948486e-01 -2.119613736867904663e-01 1.208729576319456100e-02 -2.068740129470825195e-02
3.710000000000000000e+02 2.187960433959960938e+01 -3.780512619018554688e+01 2.416866272687911987e-01 -2.082203477621078491e-01 1.003988459706306458e-02 -8.671090751886367798e-02
3.720000000000000000e+02 2.190462684631347656e+01 -3.185186004638671875e+01 1.811954528093338013e-01 -2.034040391445159912e-01 -6.662573199719190598e-03 -1.718807965517044067e-01
3.730000000000000000e+02 2.494492530822753906e+01 -3.097887039184570312e+01 1.916783452033996582e-01 -1.618730276823043823e-01 8.941597305238246918e-03 -1.856275945901870728e-01
3.740000000000000000e+02 2.377083969116210938e+01 -2.791218376159667969e+01 1.133081167936325073e-01 -1.768319308757781982e-01 -1.905714161694049835e-02 -2.142350524663925171e-01
3.750000000000000000e+02 2.323308753967285156e+01 -2.281207084655761719e+01 2.522518113255500793e-02 -2.062277495861053467e-01 -5.430077016353607178e-02 -2.104256153106689453e-01
3.760000000000000000e+02 2.356112098693847656e+01 -1.971623992919921875e+01 -9.198315441608428955e-03 -2.715841531753540039e-01 -8.423473685979843140e-02 -1.944567412137985229e-01
3.770000000000000000e+02 2.562986183166503906e+01 -1.598520946502685547e+01 -6.302792578935623169e-02 -3.386856019496917725e-01 -1.205140575766563416e-01 -6.222028285264968872e-02
3.780000000000000000e+02 2.744900512695312500e+01 -1.332492923736572266e+01 -1.839838773012161255e-01 -3.713140785694122314e-01 -1.665893942117691040e-01 7.838720828294754028e-02
3.790000000000000000e+02 1.955482482910156250e+01 -6.559649467468261719e+00 2.899332903325557709e-03 1.113083399832248688e-02 4.209049977362155914e-03 -2.782150171697139740e-02
3.800000000000000000e+02 1.856962585449218750e+01 -5.588534832000732422e+00 2.788948640227317810e-02 4.139503464102745056e-02 2.078535594046115875e-02 -1.686874218285083771e-02
3.810000000000000000e+02 1.485479068756103516e+01 -3.168097019195556641e+00 1.275223400443792343e-02 1.103161368519067764e-02 7.135154213756322861e-03 -1.325757615268230438e-02
3.820000000000000000e+02 1.180390834808349609e+01 -1.952936291694641113e+00 1.797856390476226807e-02 -1.159654464572668076e-02 1.914606080390512943e-03 -5.183806642889976501e-03
3.830000000000000000e+02 1.017251014709472656e+01 -2.542680501937866211e+00 1.040048990398645401e-02 1.184399239718914032e-03 3.475466743111610413e-03 3.252264345064759254e-03
3.840000000000000000e+02 8.885903358459472656e+00 -6.803197860717773438e+00 -1.989081315696239471e-02 -1.533480640500783920e-02 -1.056768558919429779e-02 -4.891248885542154312e-03
3.850000000000000000e+02 7.319211959838867188e+00 -1.044710922241210938e+01 -3.773401677608489990e-02 -1.971966587007045746e-02 -1.723610423505306244e-02 -2.507877349853515625e-02
3.860000000000000000e+02 6.138320446014404297e+00 -1.817157936096191406e+01 -2.873273752629756927e-02 -8.539791405200958252e-02 -3.423919528722763062e-02 -9.128654748201370239e-02
3.870000000000000000e+02 6.885634422302246094e+00 -2.108755874633789062e+01 -2.136647328734397888e-02 -1.221584603190422058e-01 -4.305747896432876587e-02 -1.128677800297737122e-01
3.880000000000000000e+02 5.863573074340820312e+00 -2.437495613098144531e+01 -1.464781234972178936e-03 -1.690069139003753662e-01 -5.114150792360305786e-02 -1.004003658890724182e-01
3.890000000000000000e+02 5.987410545349121094e+00 -2.788933753967285156e+01 1.134312432259321213e-02 -2.164140939712524414e-01 -6.152129173278808594e-02 -1.012078225612640381e-01
3.900000000000000000e+02 6.801081180572509766e+00 -3.135234260559082031e+01 2.635765448212623596e-02 -2.492358237504959106e-01 -6.686344742774963379e-02 -9.343728423118591309e-02
3.910000000000000000e+02 4.045237064361572266e+00 -3.393550491333007812e+01 1.641714014112949371e-02 -3.086599707603454590e-01 -8.767285197973251343e-02 -4.870840907096862793e-02
3.920000000000000000e+02 6.476283073425292969e+00 -3.765312576293945312e+01 3.542009368538856506e-02 -2.920690178871154785e-01 -7.699467241764068604e-02 -5.172941833734512329e-02
3.930000000000000000e+02 8.179437637329101562e+00 -4.101638412475585938e+01 4.678338021039962769e-02 -2.894377410411834717e-01 -7.279630005359649658e-02 -1.928642578423023224e-02
3.940000000000000000e+02 9.521004676818847656e+00 -3.514790725708007812e+01 6.103721633553504944e-02 -2.631231248378753662e-01 -6.062576919794082642e-02 -8.751536160707473755e-02
3.950000000000000000e+02 1.017621898651123047e+01 -3.070938682556152344e+01 4.497127979993820190e-02 -2.300776094198226929e-01 -5.553189665079116821e-02 -1.234185621142387390e-01
3.960000000000000000e+02 9.131400108337402344e+00 -2.691259765625000000e+01 2.137773856520652771e-02 -2.008799463510513306e-01 -5.385066196322441101e-02 -1.359771341085433960e-01
3.970000000000000000e+02 1.016961097717285156e+01 -2.180846023559570312e+01 -1.480462588369846344e-02 -1.454873979091644287e-01 -4.808760806918144226e-02 -1.602919399738311768e-01
3.980000000000000000e+02 1.223943996429443359e+01 -1.722494316101074219e+01 -7.699859887361526489e-02 -9.018010646104812622e-02 -5.015360936522483826e-02 -1.520548462867736816e-01
3.990000000000000000e+02 1.168736553192138672e+01 -1.219131183624267578e+01 -9.318710118532180786e-02 -3.563902154564857483e-02 -3.864783421158790588e-02 -7.365521043539047241e-02
4.000000000000000000e+02 1.027338123321533203e+01 -8.918613433837890625e+00 -6.426252424716949463e-02 -1.108296122401952744e-02 -2.260364592075347900e-02 -2.053062245249748230e-02
4.010000000000000000e+02 1.295110511779785156e+01 -5.808661460876464844e+00 -2.158469334244728088e-02 -2.073806710541248322e-03 -7.097549736499786377e-03 5.401934031397104263e-03
4.020000000000000000e+02 1.571876239776611328e+01 -2.042457342147827148e+00 1.120817102491855621e-02 2.201141603291034698e-02 9.965876117348670959e-03 -2.649729326367378235e-02
4.030000000000000000e+02 1.143060874938964844e+01 -3.484905958175659180e+00 7.254155818372964859e-03 -1.564648561179637909e-02 -2.517698798328638077e-03 -4.486632067710161209e-03
4.040000000000000000e+02 2.156798934936523438e+01 -8.472155570983886719e+00 -1.730075776576995850e-01 -9.366064332425594330e-03 -5.471209064126014709e-02 3.890409693121910095e-02
4.050000000000000000e+02 1.501818847656250000e+01 -2.051480054855346680e+00 1.559323817491531372e-02 1.464090892113745213e-03 5.117198918014764786e-03 -1.052832789719104767e-02
4.060000000000000000e+02 8.769974708557128906e+00 -2.437603950500488281e+00 9.569576010107994080e-03 8.921889821067452431e-04 3.138529369607567787e-03 5.454167723655700684e-03
4.070000000000000000e+02 8.076564788818359375e+00 -1.797594308853149414e+00 1.372416969388723373e-02 8.982978179119527340e-04 4.386740271002054214e-03 5.522871855646371841e-03
4.080000000000000000e+02 6.067961692810058594e+00 -2.694962501525878906e+00 9.357439354062080383e-03 -1.424830756150186062e-03 2.379782497882843018e-03 6.413049064576625824e-03
4.090000000000000000e+02 5.897941112518310547e+00 -3.941042184829711914e+00 4.604764282703399658e-03 -2.501031849533319473e-03 6.311196484602987766e-04 9.497771039605140686e-03
4.100000000000000000e+02 4.998940467834472656e+00 -2.411598682403564453e+00 8.758991025388240814e-03 1.824267208576202393e-03 3.174977609887719154e-03 8.559925481677055359e-03
4.110000000000000000e+02 1.881721138954162598e+00 -2.007730007171630859e+00 1.515041221864521503e-03 1.659325323998928070e-03 9.523099870420992374e-04 2.738296287134289742e-03
4.120000000000000000e+02 2.616889476776123047e+00 -1.919496417045593262e+00 4.610837437212467194e-03 1.590064610354602337e-03 1.860270625911653042e-03 6.057205144315958023e-03
4.130000000000000000e+02 6.250451803207397461e-01 -4.961289882659912109e+00 -2.045357599854469299e-03 1.340138446539640427e-02 3.406808245927095413e-03 2.260546199977397919e-03
4.140000000000000000e+02 1.869931221008300781e+00 -8.065393447875976562e+00 7.884114747866988182e-04 1.246284414082765579e-02 3.975376486778259277e-03 2.836337545886635780e-03
4.150000000000000000e+02 4.079865455627441406e+00 -1.099730396270751953e+01 -1.052293833345174789e-02 -1.167250238358974457e-02 -6.658632308244705200e-03 -1.430725213140249252e-02
4.160000000000000000e+02 4.910397052764892578e+00 -7.559225082397460938e+00 -1.131641492247581482e-02 -4.703799786511808634e-04 -3.536038333550095558e-03 4.764459095895290375e-03
4.170000000000000000e+02 3.461947679519653320e+00 -6.155677795410156250e+00 -4.213695414364337921e-03 6.750208325684070587e-03 7.609539316035807133e-04 1.072876900434494019e-02
4.180000000000000000e+02 3.362846612930297852e+00 -1.848461627960205078e+00 4.944645334035158157e-03 -2.404233782726805657e-05 1.476180856116116047e-03 4.510127007961273193e-03
4.190000000000000000e+02 2.756454467773437500e+00 -2.720321178436279297e+00 2.648489084094762802e-03 1.196273602545261383e-03 1.153428805992007256e-03 6.013902369886636734e-03
4.200000000000000000e+02 6.009248495101928711e-01 -9.317697525024414062e+00 3.593041095882654190e-03 2.635245583951473236e-02 8.983649313449859619e-03 1.382443588227033615e-04
4.210000000000000000e+02 1.774041771888732910e+00 -1.079643821716308594e+01 6.463681347668170929e-04 9.405598975718021393e-03 3.015590133145451546e-03 -4.617026075720787048e-03
4.220000000000000000e+02 4.101373195648193359e+00 -1.222110748291015625e+01 -1.962265931069850922e-02 -1.591821759939193726e-02 -1.066226325929164886e-02 -2.231906354427337646e-02
4.230000000000000000e+02 5.527955055236816406e+00 -9.011125564575195312e+00 -2.129665017127990723e-02 -7.369805127382278442e-03 -8.599936962127685547e-03 -6.542322691529989243e-03
4.240000000000000000e+02 5.973284244537353516e-01 -1.212899398803710938e+01 3.878808347508311272e-03 2.105298638343811035e-02 7.479538209736347198e-03 -3.121262649074196815e-03
4.250000000000000000e+02 1.837172031402587891e+00 -1.355803585052490234e+01 3.832090878859162331e-04 -6.596278399229049683e-03 -1.863920828327536583e-03 -1.460733730345964432e-02
4.260000000000000000e+02 4.846592903137207031e+00 -1.764565277099609375e+01 -2.173412218689918518e-02 -7.273579388856887817e-02 -2.834097482264041901e-02 -6.759177893400192261e-02
4.270000000000000000e+02 5.913225173950195312e+00 -1.436188888549804688e+01 -2.506795711815357208e-02 -4.277370125055313110e-02 -2.035249769687652588e-02 -5.099095776677131653e-02
4.280000000000000000e+02 6.298685669898986816e-01 -1.633003425598144531e+01 -6.041655782610177994e-03 -1.707788556814193726e-02 -6.935862358659505844e-03 -8.248977363109588623e-03
4.290000000000000000e+02 1.901507019996643066e+00 -1.765380477905273438e+01 -7.223626133054494858e-03 -5.206555500626564026e-02 -1.778675429522991180e-02 -2.807497791945934296e-02
4.300000000000000000e+02 1.830393791198730469e+00 -2.028253746032714844e+01 -7.013617083430290222e-03 -9.503793716430664062e-02 -3.061546571552753448e-02 -3.524445369839668274e-02
4.310000000000000000e+02 8.886786699295043945e-01 -2.755676841735839844e+01 -3.680524881929159164e-03 -2.378987967967987061e-01 -7.247379422187805176e-02 -1.917351037263870239e-02
4.320000000000000000e+02 2.660911798477172852e+00 -2.743548011779785156e+01 5.872550886124372482e-03 -2.273703813552856445e-01 -6.644935160875320435e-02 -5.420806258916854858e-02
4.330000000000000000e+02 8.694494366645812988e-01 -3.471579742431640625e+01 4.471766296774148941e-03 -3.645146191120147705e-01 -1.080128625035285950e-01 -1.016709860414266586e-02
4.340000000000000000e+02 8.417841196060180664e-01 -3.614365005493164062e+01 -1.226740074343979359e-03 -3.781201839447021484e-01 -1.138040721416473389e-01 -7.122460752725601196e-03
4.350000000000000000e+02 1.258565306663513184e+00 -3.998604583740234375e+01 6.885930895805358887e-03 -3.926301896572113037e-01 -1.157232820987701416e-01 2.113351598381996155e-03
4.360000000000000000e+02 2.019293785095214844e+00 -4.159189605712890625e+01 -3.798724617809057236e-03 -3.911401629447937012e-01 -1.184816658496856689e-01 1.219285419210791588e-03
4.370000000000000000e+02 1.259564304351806641e+01 -4.112117767333984375e+01 1.040278822183609009e-01 -2.619784474372863770e-01 -4.738516733050346375e-02 -1.108426228165626526e-02
4.380000000000000000e+02 1.268723011016845703e+01 -3.819785690307617188e+01 1.045545563101768494e-01 -2.585446834564208984e-01 -4.619704186916351318e-02 -5.994419381022453308e-02
4.390000000000000000e+02 1.272163867950439453e+01 -3.497068023681640625e+01 9.149022400379180908e-02 -2.452780306339263916e-01 -4.613634571433067322e-02 -1.004716008901596069e-01
4.400000000000000000e+02 1.321992969512939453e+01 -3.175750541687011719e+01 7.387283444404602051e-02 -2.287840992212295532e-01 -4.647338017821311951e-02 -1.433325856924057007e-01
4.410000000000000000e+02 1.116558456420898438e+01 -2.825786018371582031e+01 3.519831225275993347e-02 -2.078057527542114258e-01 -5.178222805261611938e-02 -1.577365696430206299e-01
4.420000000000000000e+02 1.443060493469238281e+01 -2.091875267028808594e+01 -3.440568968653678894e-02 -1.508560329675674438e-01 -5.557851493358612061e-02 -2.011947780847549438e-01
4.430000000000000000e+02 1.683789825439453125e+01 -1.501952075958251953e+01 -1.897879540920257568e-01 -8.335461467504501343e-02 -8.194277435541152954e-02 -2.065181136131286621e-01
4.440000000000000000e+02 1.422179508209228516e+01 -1.407799720764160156e+01 -1.573292911052703857e-01 -5.194780230522155762e-02 -6.278312951326370239e-02 -1.514194607734680176e-01
4.450000000000000000e+02 1.563666343688964844e+01 -6.189425468444824219e+00 -2.387220039963722229e-02 8.189519867300987244e-03 -4.704804159700870514e-03 5.150557029992341995e-03
4.460000000000000000e+02 1.662948226928710938e+01 -3.785577297210693359e+00 2.977075986564159393e-02 4.299985244870185852e-02 2.183118276298046112e-02 -1.711356639862060547e-02
4.470000000000000000e+02 1.597303009033203125e+01 -3.524882125854492188e+01 1.275816559791564941e-01 -2.333016395568847656e-01 -3.171599283814430237e-02 -1.148224100470542908e-01
4.480000000000000000e+02 1.672020339965820312e+01 -3.230409622192382812e+01 1.214602217078208923e-01 -2.253993600606918335e-01 -3.118174336850643158e-02 -1.419920772314071655e-01
4.490000000000000000e+02 1.677481460571289062e+01 -2.615611267089843750e+01 4.746559634804725647e-02 -1.905024498701095581e-01 -4.291105270385742188e-02 -2.018388211727142334e-01
4.500000000000000000e+02 1.711497116088867188e+01 -1.598658275604248047e+01 -1.524216979742050171e-01 -1.278168857097625732e-01 -8.407157659530639648e-02 -2.331622689962387085e-01
4.510000000000000000e+02 2.075309562683105469e+01 -1.463807678222656250e+01 -2.449118196964263916e-01 -2.073590159416198730e-01 -1.356812566518783569e-01 -3.028106391429901123e-01
4.520000000000000000e+02 1.974538230895996094e+01 -8.379895210266113281e+00 -1.542365252971649170e-01 -3.478597791399806738e-04 -4.637531563639640808e-02 9.829672984778881073e-03
4.530000000000000000e+02 2.061871719360351562e+01 -9.383131980895996094e+00 -4.454845190048217773e-01 5.170384794473648071e-02 -1.181342005729675293e-01 2.287979982793331146e-02
4.540000000000000000e+02 2.641979026794433594e+01 -4.107491683959960938e+01 3.528742790222167969e-01 -1.745631396770477295e-01 5.349334329366683960e-02 -3.370704874396324158e-02
4.550000000000000000e+02 2.539088058471679688e+01 -3.832691574096679688e+01 2.931528389453887939e-01 -1.849645525217056274e-01 3.245648369193077087e-02 -7.265193015336990356e-02
4.560000000000000000e+02 2.555582618713378906e+01 -3.558649444580078125e+01 2.780769467353820801e-01 -1.804206371307373047e-01 2.929689548909664154e-02 -1.258531361818313599e-01
4.570000000000000000e+02 2.751188468933105469e+01 -2.997990798950195312e+01 1.829215437173843384e-01 -1.350185871124267578e-01 1.437088474631309509e-02 -2.185864895582199097e-01
4.580000000000000000e+02 2.863055992126464844e+01 -2.720124626159667969e+01 8.390215039253234863e-02 -1.026772633194923401e-01 -5.632534623146057129e-03 -2.336402982473373413e-01
4.590000000000000000e+02 2.625263977050781250e+01 -2.505308532714843750e+01 3.763886913657188416e-02 -1.315575987100601196e-01 -2.817561849951744080e-02 -2.150190919637680054e-01
4.600000000000000000e+02 2.630622673034667969e+01 -2.000405311584472656e+01 -4.117682948708534241e-02 -1.840427815914154053e-01 -6.756588816642761230e-02 -1.287694573402404785e-01
4.610000000000000000e+02 3.077426719665527344e+01 -1.684177017211914062e+01 -2.602043151855468750e-01 1.158935055136680603e-01 -4.329323768615722656e-02 1.637381501495838165e-02
4.620000000000000000e+02 3.052252197265625000e+01 -1.343631935119628906e+01 -1.998808532953262329e-01 1.723330765962600708e-01 -8.264333009719848633e-03 1.253726333379745483e-01
4.630000000000000000e+02 3.068776702880859375e+01 -8.666701316833496094e+00 7.251156121492385864e-02 6.249483227729797363e-01 2.092379629611968994e-01 -3.057853281497955322e-01
4.640000000000000000e+02 2.851340675354003906e+01 -1.035961437225341797e+01 -3.958424031734466553e-01 -1.253184527158737183e-01 -1.563482582569122314e-01 7.603439688682556152e-02
4.650000000000000000e+02 2.567053413391113281e+01 -7.705642700195312500e+00 -5.240892171859741211e-01 -2.212231636047363281e+00 -8.208962678909301758e-01 -5.107833147048950195e-01
4.660000000000000000e+02 2.858623123168945312e+01 -3.937214660644531250e+01 3.689795434474945068e-01 -1.374096870422363281e-01 6.947096437215805054e-02 -6.610446423292160034e-02
4.670000000000000000e+02 2.840232849121093750e+01 -3.620454788208007812e+01 3.582620024681091309e-01 -1.318632215261459351e-01 6.791963428258895874e-02 -1.135455667972564697e-01
4.680000000000000000e+02 2.932722663879394531e+01 -3.251554489135742188e+01 2.723797857761383057e-01 -1.076077818870544434e-01 4.943159967660903931e-02 -1.838983595371246338e-01
4.690000000000000000e+02 3.065794754028320312e+01 -2.743547821044921875e+01 1.211694255471229553e-01 -6.713787466287612915e-02 1.620946452021598816e-02 -2.326011210680007935e-01
4.700000000000000000e+02 2.913938713073730469e+01 -2.361425209045410156e+01 -5.036410689353942871e-02 -2.980565838515758514e-02 -2.405093051493167877e-02 -2.115248143672943115e-01
4.710000000000000000e+02 2.864052581787109375e+01 -1.956704521179199219e+01 -1.194991916418075562e-01 -4.677180573344230652e-02 -4.988130182027816772e-02 -8.849550038576126099e-02
4.720000000000000000e+02 3.276084518432617188e+01 -1.362640953063964844e+01 -1.750470995903015137e-01 4.089818000793457031e-01 7.018040865659713745e-02 -1.005874201655387878e-02
4.730000000000000000e+02 3.255315780639648438e+01 -4.008382034301757812e+01 4.708899557590484619e-01 -5.960029363632202148e-02 1.233868971467018127e-01 -4.524156823754310608e-02
4.740000000000000000e+02 3.149777793884277344e+01 -3.574718856811523438e+01 3.894090056419372559e-01 -7.863868027925491333e-02 9.323109686374664307e-02 -1.408189088106155396e-01
4.750000000000000000e+02 3.147691726684570312e+01 -3.106354904174804688e+01 2.551763057708740234e-01 -8.829250931739807129e-02 5.006513744592666626e-02 -2.178193330764770508e-01
4.760000000000000000e+02 3.303414535522460938e+01 -2.893812179565429688e+01 1.855491250753402710e-01 -3.028618358075618744e-02 4.657888412475585938e-02 -2.517932355403900146e-01
4.770000000000000000e+02 3.445516586303710938e+01 -2.683274078369140625e+01 1.351687461137771606e-01 -2.809932641685009003e-02 3.212082758545875549e-02 -2.863481044769287109e-01
4.780000000000000000e+02 3.273067855834960938e+01 -2.450243759155273438e+01 -2.751186490058898926e-02 2.388960868120193481e-02 -1.086676609702408314e-03 -2.623379528522491455e-01
4.790000000000000000e+02 3.034364700317382812e+01 -1.992062950134277344e+01 -2.012304216623306274e-01 4.151617735624313354e-02 -4.791427403688430786e-02 -1.244381517171859741e-01
4.800000000000000000e+02 3.786559677124023438e+01 -1.720936775207519531e+01 -7.512057423591613770e-01 1.255665123462677002e-01 -1.876917630434036255e-01 -1.840441077947616577e-01
4.810000000000000000e+02 3.564134979248046875e+01 -1.635196495056152344e+01 -5.029897093772888184e-01 3.324679136276245117e-01 -5.115653946995735168e-02 -1.071661859750747681e-01
4.820000000000000000e+02 3.740018463134765625e+01 -4.026618194580078125e+01 5.594283938407897949e-01 1.070888042449951172e-01 1.999551504850387573e-01 -4.566004499793052673e-02
4.830000000000000000e+02 3.420149993896484375e+01 -3.390933609008789062e+01 3.907899260520935059e-01 -1.005345024168491364e-02 1.142209395766258240e-01 -1.636979132890701294e-01
4.840000000000000000e+02 3.589430236816406250e+01 -3.112703132629394531e+01 3.481484055519104004e-01 1.582881063222885132e-02 1.091931685805320740e-01 -2.150334715843200684e-01
4.850000000000000000e+02 3.715013885498046875e+01 -2.851634979248046875e+01 2.350388020277023315e-01 4.531056806445121765e-02 8.410481363534927368e-02 -2.415238618850708008e-01
4.860000000000000000e+02 3.772409439086914062e+01 -2.621426963806152344e+01 1.503574997186660767e-01 2.541668899357318878e-02 5.273225530982017517e-02 -2.830163538455963135e-01
4.870000000000000000e+02 3.638266754150390625e+01 -2.359349250793457031e+01 -2.693975716829299927e-02 -5.640293005853891373e-03 -9.774015285074710846e-03 -3.323363065719604492e-01
4.880000000000000000e+02 3.637973022460937500e+01 -2.163133239746093750e+01 -2.604326009750366211e-01 5.009711720049381256e-03 -7.662685960531234741e-02 -4.002070128917694092e-01
4.890000000000000000e+02 3.798501968383789062e+01 -3.625119018554687500e+01 5.187723636627197266e-01 1.067524924874305725e-01 1.876574605703353882e-01 -1.113284379243850708e-01
4.900000000000000000e+02 3.923942184448242188e+01 -3.292360305786132812e+01 4.407895803451538086e-01 1.572835147380828857e-01 1.794219315052032471e-01 -1.615889519453048706e-01
4.910000000000000000e+02 4.028514099121093750e+01 -2.995694732666015625e+01 3.537823557853698730e-01 1.507705897092819214e-01 1.513658761978149414e-01 -1.872446984052658081e-01
4.920000000000000000e+02 3.950750732421875000e+01 -2.581720352172851562e+01 1.250338256359100342e-01 4.699558392167091370e-02 5.160882696509361267e-02 -2.621958851814270020e-01
4.930000000000000000e+02 4.068318176269531250e+01 -2.421735763549804688e+01 6.534449011087417603e-02 5.031539127230644226e-02 3.469796478748321533e-02 -2.135969847440719604e-01
4.940000000000000000e+02 4.113250732421875000e+01 -1.929849243164062500e+01 -3.085336983203887939e-01 -2.709411978721618652e-01 -1.738424748182296753e-01 -9.650660306215286255e-02
4.950000000000000000e+02 3.744401550292968750e+01 -1.556245708465576172e+01 -3.450205624103546143e-01 1.216462925076484680e-01 -6.701228022575378418e-02 -1.145604532212018967e-03
4.960000000000000000e+02 4.102653884887695312e+01 -1.732061576843261719e+01 -1.121275782585144043e+00 -7.532858252525329590e-01 -5.623685121536254883e-01 -2.083841264247894287e-01
4.970000000000000000e+02 4.227865600585937500e+01 -4.075530624389648438e+01 6.469913721084594727e-01 3.920994102954864502e-01 3.117272257804870605e-01 -2.149041928350925446e-02
4.980000000000000000e+02 4.229940795898437500e+01 -3.735513687133789062e+01 6.019602417945861816e-01 3.949095010757446289e-01 2.990609109401702881e-01 -6.073160097002983093e-02
4.990000000000000000e+02 4.292717361450195312e+01 -3.415228652954101562e+01 5.337385535240173340e-01 3.675348758697509766e-01 2.703820168972015381e-01 -8.498676866292953491e-02
5.000000000000000000e+02 4.366637039184570312e+01 -3.116628837585449219e+01 4.402578473091125488e-01 3.701424002647399902e-01 2.431200742721557617e-01 -1.105151697993278503e-01
5.010000000000000000e+02 4.462138366699218750e+01 -2.293707656860351562e+01 -9.770844131708145142e-02 2.618869841098785400e-01 4.925356060266494751e-02 -9.704384952783584595e-02
5.020000000000000000e+02 4.278220748901367188e+01 -1.940600776672363281e+01 -5.256248712539672852e-01 -7.598258554935455322e-02 -1.804822385311126709e-01 1.714229956269264221e-02
5.030000000000000000e+02 4.293290328979492188e+01 -2.116349983215332031e+01 -1.881018579006195068e-01 5.916048958897590637e-02 -3.868241235613822937e-02 -8.967248350381851196e-02
5.040000000000000000e+02 4.667958450317382812e+01 -4.094810104370117188e+01 6.843322515487670898e-01 8.020034432411193848e-01 4.459007084369659424e-01 -4.866437520831823349e-03
5.050000000000000000e+02 4.609780883789062500e+01 -3.800492477416992188e+01 6.435419321060180664e-01 6.745608448982238770e-01 3.954308331012725830e-01 -1.805987022817134857e-02
5.060000000000000000e+02 4.664731216430664062e+01 -3.508670043945312500e+01 5.906618833541870117e-01 7.123612761497497559e-01 3.909069597721099854e-01 -3.425467014312744141e-02
5.070000000000000000e+02 4.727666091918945312e+01 -3.196334266662597656e+01 5.010642409324645996e-01 7.303674817085266113e-01 3.694295287132263184e-01 -3.745133429765701294e-02
5.080000000000000000e+02 4.628021240234375000e+01 -2.327227210998535156e+01 -7.743012905120849609e-02 4.507549107074737549e-01 1.119974404573440552e-01 -8.529196679592132568e-02
5.090000000000000000e+02 4.579999160766601562e+01 -1.829114723205566406e+01 -6.021959185600280762e-01 4.998380839824676514e-01 -3.070734627544879913e-02 -5.418746545910835266e-02
5.100000000000000000e+02 4.594624710083007812e+01 -1.964495658874511719e+01 -4.869668781757354736e-01 4.114075601100921631e-01 -2.266779355704784393e-02 -5.634403601288795471e-02
5.110000000000000000e+02 4.927265930175781250e+01 -3.938064575195312500e+01 6.775130629539489746e-01 1.066723227500915527e+00 5.232709050178527832e-01 -7.895811460912227631e-03
5.120000000000000000e+02 5.015938568115234375e+01 -3.619005203247070312e+01 6.229894161224365234e-01 1.148119688034057617e+00 5.313327312469482422e-01 3.341012634336948395e-03
5.130000000000000000e+02 5.088037109375000000e+01 -3.301656723022460938e+01 5.213860869407653809e-01 1.180725574493408203e+00 5.106335282325744629e-01 3.792062401771545410e-02
5.140000000000000000e+02 5.210234832763671875e+01 -3.024904060363769531e+01 3.946945071220397949e-01 1.278849005699157715e+00 5.020630359649658203e-01 8.313281834125518799e-02
5.150000000000000000e+02 5.155276870727539062e+01 -2.660516548156738281e+01 2.162296473979949951e-01 1.116722822189331055e+00 3.998857438564300537e-01 1.256479620933532715e-01
5.160000000000000000e+02 5.264764785766601562e+01 -2.460958480834960938e+01 1.112830862402915955e-01 1.185619831085205078e+00 3.890708684921264648e-01 2.076282948255538940e-01
5.170000000000000000e+02 4.733702850341796875e+01 -1.934183883666992188e+01 -5.044257640838623047e-01 5.937520265579223633e-01 2.679786272346973419e-02 -1.140821203589439392e-01
5.180000000000000000e+02 5.292821502685546875e+01 -4.071720504760742188e+01 6.790285706520080566e-01 1.511106848716735840e+00 6.570405960083007812e-01 1.669918186962604523e-02
5.190000000000000000e+02 5.366646194458007812e+01 -3.731896209716796875e+01 6.288431882858276367e-01 1.627355933189392090e+00 6.768597364425659180e-01 5.113213881850242615e-02
5.200000000000000000e+02 5.432452392578125000e+01 -3.425049972534179688e+01 5.397774577140808105e-01 1.726783394813537598e+00 6.799682378768920898e-01 7.612863183021545410e-02
5.210000000000000000e+02 5.509068679809570312e+01 -3.149178504943847656e+01 4.123864471912384033e-01 1.829283118247985840e+00 6.725008487701416016e-01 1.250740140676498413e-01
5.220000000000000000e+02 5.347215652465820312e+01 -2.793197059631347656e+01 2.710716724395751953e-01 1.502611160278320312e+00 5.321048498153686523e-01 1.745815873146057129e-01
5.230000000000000000e+02 5.526078796386718750e+01 -2.396846580505371094e+01 -1.700364202260971069e-01 2.083342552185058594e+00 5.739918351173400879e-01 4.715850949287414551e-01
5.240000000000000000e+02 5.393141937255859375e+01 -2.004630279541015625e+01 -5.152552723884582520e-01 2.791627347469329834e-01 -7.082777470350265503e-02 7.284060716629028320e-01
5.250000000000000000e+02 5.738231277465820312e+01 -4.103896713256835938e+01 6.331143379211425781e-01 2.255739927291870117e+00 8.666563034057617188e-01 1.171168405562639236e-02
5.260000000000000000e+02 5.739782333374023438e+01 -3.807254409790039062e+01 5.970873236656188965e-01 2.257282733917236328e+00 8.563110232353210449e-01 5.496238917112350464e-02
5.270000000000000000e+02 5.777791595458984375e+01 -3.513779449462890625e+01 5.334567427635192871e-01 2.292996168136596680e+00 8.479358553886413574e-01 1.064284294843673706e-01
5.280000000000000000e+02 5.829956817626953125e+01 -3.228100585937500000e+01 4.332174956798553467e-01 2.348679304122924805e+00 8.345690369606018066e-01 1.134480535984039307e-01
5.290000000000000000e+02 5.640913009643554688e+01 -2.665055084228515625e+01 5.558323860168457031e-02 2.192351341247558594e+00 6.743804216384887695e-01 2.060842514038085938e-01
5.300000000000000000e+02 5.868759155273437500e+01 -2.292167472839355469e+01 -3.815190792083740234e-01 2.838498592376708984e+00 7.370938658714294434e-01 -3.271395340561866760e-02
5.310000000000000000e+02 5.664424133300781250e+01 -1.853406906127929688e+01 3.850791156291961670e-01 4.391697406768798828e+00 1.433032989501953125e+00 3.247805535793304443e-01
5.320000000000000000e+02 5.544808197021484375e+01 -1.172494125366210938e+01 -1.964447647333145142e-01 1.359151482582092285e+00 3.488120138645172119e-01 2.858702540397644043e-01
5.330000000000000000e+02 5.571155166625976562e+01 -1.317627429962158203e+01 -1.989317238330841064e-01 2.713288545608520508e+00 7.543070316314697266e-01 -1.001968830823898315e-01
5.340000000000000000e+02 5.490151977539062500e+01 -1.032023620605468750e+01 -2.506963908672332764e-01 2.639869451522827148e-01 3.987165167927742004e-03 3.976956009864807129e-01
5.350000000000000000e+02 5.625055694580078125e+01 -1.723966979980468750e+01 5.595527887344360352e-01 5.548110961914062500e+00 1.832299232482910156e+00 6.455907821655273438e-01
5.360000000000000000e+02 5.766472244262695312e+01 -1.667303657531738281e+01 2.538365721702575684e-01 3.687991142272949219e+00 1.182548284530639648e+00 4.569043517112731934e-01
5.370000000000000000e+02 6.164279937744140625e+01 -4.114446258544921875e+01 5.545355677604675293e-01 3.118620634078979492e+00 1.101946830749511719e+00 2.863785997033119202e-02
5.380000000000000000e+02 6.121142578125000000e+01 -3.592911148071289062e+01 5.235591530799865723e-01 2.869650840759277344e+00 1.017963051795959473e+00 1.000033989548683167e-01
5.390000000000000000e+02 6.246097946166992188e+01 -3.065549850463867188e+01 3.691456317901611328e-01 3.035464048385620117e+00 1.021382927894592285e+00 1.171796247363090515e-01
5.400000000000000000e+02 6.022453689575195312e+01 -2.723953247070312500e+01 1.137832626700401306e-01 2.723036289215087891e+00 8.510459065437316895e-01 3.135371208190917969e-02
5.410000000000000000e+02 6.143507766723632812e+01 -2.369681549072265625e+01 -1.409631073474884033e-01 2.960471630096435547e+00 8.458525538444519043e-01 -1.977965384721755981e-01
5.420000000000000000e+02 6.190875625610351562e+01 -1.914723587036132812e+01 -5.018210411071777344e-01 3.127426624298095703e+00 7.876816391944885254e-01 -3.832078874111175537e-01
5.430000000000000000e+02 6.063681411743164062e+01 -1.574568557739257812e+01 -7.733869552612304688e-01 3.655330896377563477e+00 8.645831346511840820e-01 2.681268453598022461e-01
5.440000000000000000e+02 6.170837783813476562e+01 -1.446682167053222656e+01 -1.186470985412597656e+00 3.911434412002563477e+00 8.174890279769897461e-01 3.856257200241088867e-01
5.450000000000000000e+02 6.398857498168945312e+01 -3.972336578369140625e+01 5.004179477691650391e-01 3.513998746871948242e+00 1.204324960708618164e+00 5.035999044775962830e-02
5.460000000000000000e+02 6.447362518310546875e+01 -3.685847473144531250e+01 4.768432676792144775e-01 3.655474424362182617e+00 1.239695310592651367e+00 1.212311461567878723e-01
5.470000000000000000e+02 6.477862548828125000e+01 -3.404931640625000000e+01 4.546388685703277588e-01 3.624986886978149414e+00 1.223887681961059570e+00 1.794583350419998169e-01
5.480000000000000000e+02 6.338293457031250000e+01 -2.866930007934570312e+01 3.468926846981048584e-01 3.209183931350708008e+00 1.066823005676269531e+00 9.628990292549133301e-02
5.490000000000000000e+02 6.302550125122070312e+01 -2.465506553649902344e+01 6.830798089504241943e-02 3.006084442138671875e+00 9.223177433013916016e-01 -1.529358029365539551e-01
5.500000000000000000e+02 6.270291900634765625e+01 -2.045007324218750000e+01 -3.387047052383422852e-01 2.986443042755126953e+00 7.943215370178222656e-01 -5.475897192955017090e-01
5.510000000000000000e+02 6.509947204589843750e+01 -1.605470466613769531e+01 -1.624878525733947754e+00 2.515417575836181641e+00 2.671616673469543457e-01 -3.855561316013336182e-01
5.520000000000000000e+02 6.761776733398437500e+01 -4.084096527099609375e+01 4.021802842617034912e-01 4.317223072052001953e+00 1.415821075439453125e+00 6.155319511890411377e-02
5.530000000000000000e+02 6.772913360595703125e+01 -3.762321472167968750e+01 3.972934484481811523e-01 4.342992305755615234e+00 1.422085762023925781e+00 1.802946180105209351e-01
5.540000000000000000e+02 6.773023986816406250e+01 -3.465370941162109375e+01 4.016747474670410156e-01 4.316548347473144531e+00 1.415467023849487305e+00 2.653357088565826416e-01
5.550000000000000000e+02 6.786660003662109375e+01 -3.193697929382324219e+01 4.008488655090332031e-01 4.217293739318847656e+00 1.385442852973937988e+00 3.329113721847534180e-01
5.560000000000000000e+02 6.874284362792968750e+01 -2.543601799011230469e+01 3.652612864971160889e-01 3.930867910385131836e+00 1.288838744163513184e+00 5.018800497055053711e-01
5.570000000000000000e+02 6.551908874511718750e+01 -2.199391174316406250e+01 7.027226686477661133e-02 2.806886196136474609e+00 8.631475567817687988e-01 -1.639018505811691284e-01
5.580000000000000000e+02 6.567769622802734375e+01 -2.007581138610839844e+01 -1.992165148258209229e-01 2.509643554687500000e+00 6.931281089782714844e-01 -3.186016976833343506e-01
5.590000000000000000e+02 6.756935882568359375e+01 -2.019164466857910156e+01 2.865232154726982117e-02 2.350171804428100586e+00 7.136472463607788086e-01 1.867161840200424194e-01
5.600000000000000000e+02 7.188849639892578125e+01 -4.095056533813476562e+01 2.252844274044036865e-01 5.401799201965332031e+00 1.688125133514404297e+00 4.767575487494468689e-02
5.610000000000000000e+02 7.100119018554687500e+01 -3.783327484130859375e+01 2.709831297397613525e-01 5.149168014526367188e+00 1.626045227050781250e+00 1.971387416124343872e-01
5.620000000000000000e+02 7.020327758789062500e+01 -3.229616928100585938e+01 3.459548950195312500e-01 4.874033927917480469e+00 1.565996646881103516e+00 4.237133562564849854e-01
5.630000000000000000e+02 7.043140411376953125e+01 -3.012594795227050781e+01 3.307682573795318604e-01 4.824558258056640625e+00 1.546597957611083984e+00 4.844231009483337402e-01
5.640000000000000000e+02 7.241979980468750000e+01 -2.855941581726074219e+01 2.341633290052413940e-01 5.475421905517578125e+00 1.712875485420227051e+00 5.932695269584655762e-01
5.650000000000000000e+02 7.020983886718750000e+01 -1.933622741699218750e+01 -4.363600909709930420e-01 3.338875293731689453e+00 8.707545399665832520e-01 1.307320833206176758e+00
5.660000000000000000e+02 7.146211242675781250e+01 -1.578751945495605469e+01 -8.259804248809814453e-01 6.145800590515136719e+00 1.595945954322814941e+00 2.473354816436767578e+00
5.670000000000000000e+02 7.495538330078125000e+01 -4.023122024536132812e+01 1.194477826356887817e-01 6.133816719055175781e+00 1.875979423522949219e+00 3.123180940747261047e-02
5.680000000000000000e+02 7.359422302246093750e+01 -3.779381179809570312e+01 1.585317403078079224e-01 5.729708194732666016e+00 1.766471982002258301e+00 1.638581603765487671e-01
5.690000000000000000e+02 7.385807037353515625e+01 -3.600931549072265625e+01 1.720763146877288818e-01 5.839608669281005859e+00 1.803505539894104004e+00 2.342844903469085693e-01
5.700000000000000000e+02 7.387820434570312500e+01 -3.203520202636718750e+01 1.784489154815673828e-01 5.985321521759033203e+00 1.849131107330322266e+00 4.181992411613464355e-01
5.710000000000000000e+02 7.501654815673828125e+01 -2.837359809875488281e+01 1.261899322271347046e-01 6.445245265960693359e+00 1.971430540084838867e+00 5.687959194183349609e-01
5.720000000000000000e+02 7.146958160400390625e+01 -2.664511489868164062e+01 2.519757449626922607e-01 5.062081813812255859e+00 1.594217181205749512e+00 6.795747876167297363e-01
5.730000000000000000e+02 7.271132659912109375e+01 -2.079958343505859375e+01 -6.625728607177734375e-01 5.873102188110351562e+00 1.563158750534057617e+00 1.302423596382141113e+00
5.740000000000000000e+02 7.810865020751953125e+01 -1.649554252624511719e+01 -1.413439065217971802e-01 8.481880187988281250e+00 2.502160787582397461e+00 -5.569168925285339355e-01
5.750000000000000000e+02 7.940419006347656250e+01 -1.388400459289550781e+01 7.410138845443725586e-02 7.500655651092529297e+00 2.272427082061767578e+00 -2.205940335988998413e-01
5.760000000000000000e+02 7.803735351562500000e+01 -1.506049060821533203e+01 1.369907259941101074e-01 8.219284057617187500e+00 2.506882429122924805e+00 -6.072385907173156738e-01
5.770000000000000000e+02 7.942304229736328125e+01 -1.252938461303710938e+01 9.434196352958679199e-02 7.244163036346435547e+00 2.201551437377929688e+00 -1.056106388568878174e-02
5.780000000000000000e+02 7.819111633300781250e+01 -1.120114135742187500e+01 2.978978157043457031e-01 7.975100994110107422e+00 2.481899738311767578e+00 2.476890087127685547e-01
5.790000000000000000e+02 7.257918548583984375e+01 -7.957138538360595703e+00 9.279869198799133301e-01 8.809674263000488281e+00 2.921298265457153320e+00 -5.976819992065429688e-01
5.800000000000000000e+02 7.085028839111328125e+01 -5.360116958618164062e+00 -5.667760968208312988e-01 4.850664138793945312e+00 1.285166382789611816e+00 -1.411925077438354492e+00
5.810000000000000000e+02 6.716746520996093750e+01 -3.361896038055419922e+00 -4.326319217681884766e+00 -3.536867499351501465e-01 -1.404001832008361816e+00 2.148971557617187500e+00
5.820000000000000000e+02 6.622282409667968750e+01 -2.490675210952758789e+00 -7.510356426239013672e+00 -1.617432236671447754e+00 -2.738336563110351562e+00 3.168570518493652344e+00
5.830000000000000000e+02 7.795912933349609375e+01 -4.163149261474609375e+01 1.077734753489494324e-01 6.710958003997802734e+00 2.045619487762451172e+00 3.021535277366638184e-02
5.840000000000000000e+02 7.920394897460937500e+01 -3.740629959106445312e+01 -2.988527715206146240e-02 6.987446308135986328e+00 2.087268352508544922e+00 7.241197675466537476e-02
5.850000000000000000e+02 7.736128234863281250e+01 -3.798611068725585938e+01 -7.855954580008983612e-03 6.660851955413818359e+00 1.995898723602294922e+00 1.620391011238098145e-01
5.860000000000000000e+02 7.931819152832031250e+01 -3.469440460205078125e+01 -1.142332609742879868e-02 7.227010250091552734e+00 2.164675951004028320e+00 6.569865345954895020e-02
5.870000000000000000e+02 7.794097900390625000e+01 -3.438862991333007812e+01 1.245962642133235931e-02 6.980521202087402344e+00 2.097894191741943359e+00 1.443898677825927734e-01
5.880000000000000000e+02 7.806439208984375000e+01 -3.307970046997070312e+01 2.139460295438766479e-02 7.072011470794677734e+00 2.128021717071533203e+00 1.771412640810012817e-01
5.890000000000000000e+02 7.816734313964843750e+01 -3.180369186401367188e+01 3.355172649025917053e-02 7.226088047027587891e+00 2.177891969680786133e+00 2.042991220951080322e-01
5.900000000000000000e+02 7.780953216552734375e+01 -2.635010337829589844e+01 1.593963988125324249e-02 7.776765823364257812e+00 2.337811708450317383e+00 3.437969982624053955e-01
5.910000000000000000e+02 7.785322570800781250e+01 -2.487866401672363281e+01 -3.766252845525741577e-02 7.967833995819091797e+00 2.379051446914672852e+00 3.399617969989776611e-01
5.920000000000000000e+02 7.669920349121093750e+01 -2.177104759216308594e+01 -1.988593488931655884e-01 7.921854496002197266e+00 2.316898584365844727e+00 3.589455187320709229e-01
5.930000000000000000e+02 7.807076263427734375e+01 -2.061087226867675781e+01 -1.047804728150367737e-01 8.574970245361328125e+00 2.541057109832763672e+00 5.202493816614151001e-02
5.940000000000000000e+02 7.939147186279296875e+01 -9.768539428710937500e+00 1.368639469146728516e-01 7.724622249603271484e+00 2.358445882797241211e+00 2.195400744676589966e-01
5.950000000000000000e+02 7.790608978271484375e+01 -6.999940395355224609e+00 1.203370764851570129e-01 8.902909278869628906e+00 2.706973791122436523e+00 1.076533198356628418e+00
5.960000000000000000e+02 7.509171295166015625e+01 -2.992392539978027344e+00 -4.367287456989288330e-01 6.111056804656982422e+00 1.702298402786254883e+00 3.839749395847320557e-01
5.970000000000000000e+02 7.174734497070312500e+01 -3.707972466945648193e-01 -2.080622911453247070e+00 4.281145095825195312e+00 6.601566672325134277e-01 -5.383616924285888672e+00
5.980000000000000000e+02 6.992181396484375000e+01 1.465662837028503418e+00 1.468314170837402344e+00 1.001987552642822266e+01 3.446456909179687500e+00 -3.788028955459594727e+00
5.990000000000000000e+02 6.969113922119140625e+01 2.759341001510620117e+00 3.840329170227050781e+00 1.577693271636962891e+01 5.885178565979003906e+00 -5.465866565704345703e+00
6.000000000000000000e+02 6.932803344726562500e+01 5.221785068511962891e+00 8.301818966865539551e-01 2.018173980712890625e+01 6.303576946258544922e+00 7.741118669509887695e-01
6.010000000000000000e+02 6.629103851318359375e+01 8.362877845764160156e+00 1.519029021263122559e+00 9.513051986694335938e+00 3.309624195098876953e+00 5.135026454925537109e+00
6.020000000000000000e+02 6.514356231689453125e+01 4.744242668151855469e+00 1.790999531745910645e+00 5.410571098327636719e+00 2.160471200942993164e+00 2.277391195297241211e+00
6.030000000000000000e+02 6.393828201293945312e+01 -8.767287731170654297e-01 -3.235176324844360352e+00 5.824723720550537109e+00 7.768641114234924316e-01 4.933829307556152344e+00
6.040000000000000000e+02 6.433223724365234375e+01 -2.264841079711914062e+00 -2.637135267257690430e+00 5.601267337799072266e+00 8.892396688461303711e-01 4.666666984558105469e+00
6.050000000000000000e+02 7.926538848876953125e+01 -5.527412414550781250e+00 -2.932477742433547974e-02 1.016883468627929688e+01 3.041852951049804688e+00 5.374584794044494629e-01
6.060000000000000000e+02 7.793067169189453125e+01 -3.930330038070678711e+00 -2.013149410486221313e-01 9.607817649841308594e+00 2.821950674057006836e+00 1.158921480178833008e+00
6.070000000000000000e+02 7.570132446289062500e+01 -4.555318057537078857e-01 -1.433231592178344727e+00 5.767472743988037109e+00 1.300272345542907715e+00 4.249093830585479736e-01
6.080000000000000000e+02 7.317916107177734375e+01 2.758218646049499512e-01 -4.627067089080810547e+00 -7.753447294235229492e-01 -1.620723605155944824e+00 -2.404671430587768555e+00
6.090000000000000000e+02 7.213351440429687500e+01 8.111198544502258301e-01 -4.032545566558837891e+00 9.801720976829528809e-01 -9.157119989395141602e-01 -2.706181764602661133e+00
6.100000000000000000e+02 7.934703063964843750e+01 -2.708304405212402344e+00 -4.466165602207183838e-02 1.221116638183593750e+01 3.649951457977294922e+00 4.285221397876739502e-01
6.110000000000000000e+02 7.827053833007812500e+01 6.203960776329040527e-01 -1.116882801055908203e+00 1.136203765869140625e+01 3.073546409606933594e+00 -6.751303672790527344e-01
6.120000000000000000e+02 7.492191314697265625e+01 1.816463947296142578e+00 -3.682467222213745117e+00 2.031781435012817383e+00 -4.952057600021362305e-01 -1.337750792503356934e+00
6.130000000000000000e+02 7.588050842285156250e+01 -1.539945006370544434e+00 -1.050929546356201172e+00 6.757098674774169922e+00 1.711850762367248535e+00 7.907891869544982910e-01
6.140000000000000000e+02 7.948504638671875000e+01 1.507499814033508301e+00 -2.245736867189407349e-01 1.283589172363281250e+01 3.783395528793334961e+00 -5.001789927482604980e-01
6.150000000000000000e+02 7.732307434082031250e+01 2.158590316772460938e+00 -1.769313335418701172e+00 1.045162105560302734e+01 2.604692459106445312e+00 -2.113514184951782227e+00
6.160000000000000000e+02 7.596446990966796875e+01 4.701916217803955078e+00 1.035566851496696472e-01 1.509215164184570312e+01 4.558712482452392578e+00 2.227639406919479370e-01
6.170000000000000000e+02 7.590077972412109375e+01 3.563272714614868164e+00 -4.688293635845184326e-01 1.002754306793212891e+01 2.867614030838012695e+00 -2.164918929338455200e-01
6.180000000000000000e+02 7.606342315673828125e+01 2.253362178802490234e+00 -2.599489927291870117e+00 7.319979667663574219e+00 1.416146874427795410e+00 -1.204018115997314453e+00
6.190000000000000000e+02 7.949666595458984375e+01 4.162984848022460938e+00 -5.565119907259941101e-02 8.062198638916015625e+00 2.401964426040649414e+00 -1.138599395751953125e+00
6.200000000000000000e+02 7.612404632568359375e+01 5.879930019378662109e+00 1.166558384895324707e+00 1.805178642272949219e+01 5.765502929687500000e+00 -1.857820272445678711e+00
6.210000000000000000e+02 7.944151306152343750e+01 8.356703758239746094e+00 4.854157194495201111e-02 2.948871135711669922e+00 8.992238640785217285e-01 2.442983537912368774e-01
6.220000000000000000e+02 7.815958404541015625e+01 1.099398899078369141e+01 -1.471720337867736816e-01 6.252520084381103516e+00 1.831604361534118652e+00 4.422514438629150391e-01
6.230000000000000000e+02 7.455866241455078125e+01 9.995740890502929688e+00 1.805605292320251465e+00 6.016147136688232422e+00 2.346525669097900391e+00 -3.199818372726440430e+00
6.240000000000000000e+02 7.937860870361328125e+01 1.110554122924804688e+01 -1.397871077060699463e-01 4.612499237060546875e+00 1.341813564300537109e+00 3.345878124237060547e-01
6.250000000000000000e+02 7.802172851562500000e+01 1.239768981933593750e+01 -1.530633121728897095e-01 6.213755607604980469e+00 1.818207740783691406e+00 4.079426527023315430e-01
6.260000000000000000e+02 7.494667816162109375e+01 1.613393974304199219e+01 2.967672049999237061e-01 6.653704166412353516e+00 2.085141420364379883e+00 6.822426319122314453e-01
6.270000000000000000e+02 7.145025634765625000e+01 1.893726730346679688e+01 -5.891645550727844238e-01 7.148173809051513672e+00 1.967702746391296387e+00 3.790788352489471436e-01
6.280000000000000000e+02 6.681184387207031250e+01 2.295963287353515625e+01 -5.287095308303833008e-01 5.125413417816162109e+00 1.379011154174804688e+00 -8.360328674316406250e-01
6.290000000000000000e+02 6.434838867187500000e+01 2.672239875793457031e+01 -7.150208950042724609e-02 3.811398267745971680e+00 1.121968865394592285e+00 -7.626371979713439941e-01
6.300000000000000000e+02 6.000279235839843750e+01 3.158896827697753906e+01 3.817893266677856445e-01 2.587516069412231445e+00 8.907915949821472168e-01 -4.291027486324310303e-01
6.310000000000000000e+02 5.785124969482421875e+01 3.249852752685546875e+01 4.912866055965423584e-01 2.118432283401489258e+00 7.829157114028930664e-01 -3.271279036998748779e-01
6.320000000000000000e+02 5.564442062377929688e+01 3.487522125244140625e+01 6.187430024147033691e-01 1.648401737213134766e+00 6.801434159278869629e-01 -1.730083674192428589e-01
6.330000000000000000e+02 5.264971923828125000e+01 4.041092681884765625e+01 7.428490519523620605e-01 1.256790041923522949e+00 5.998917222023010254e-01 -3.550470620393753052e-02
6.340000000000000000e+02 4.762892532348632812e+01 4.037063217163085938e+01 7.557198405265808105e-01 5.328230261802673340e-01 3.865628540515899658e-01 2.239347808063030243e-02
6.350000000000000000e+02 4.834237670898437500e+01 3.658476257324218750e+01 7.119753360748291016e-01 5.838269591331481934e-01 3.887406885623931885e-01 3.585546836256980896e-02
6.360000000000000000e+02 4.543035125732421875e+01 3.478050613403320312e+01 6.390451788902282715e-01 2.811152040958404541e-01 2.760481238365173340e-01 1.183225736021995544e-01
6.370000000000000000e+02 4.411184692382812500e+01 3.191267013549804688e+01 5.011061429977416992e-01 1.174308806657791138e-01 1.855611205101013184e-01 2.035874277353286743e-01
6.380000000000000000e+02 4.139107513427734375e+01 3.023773384094238281e+01 3.423691689968109131e-01 -1.037050411105155945e-02 9.959959238767623901e-02 2.786390483379364014e-01
6.390000000000000000e+02 4.217758178710937500e+01 2.723357391357421875e+01 1.567538529634475708e-01 -1.681019738316535950e-02 4.198309779167175293e-02 3.364443778991699219e-01
6.400000000000000000e+02 4.264253997802734375e+01 2.306886100769042969e+01 -2.401764243841171265e-01 5.592541769146919250e-03 -7.037516683340072632e-02 4.386641681194305420e-01
6.410000000000000000e+02 4.244484329223632812e+01 1.933440971374511719e+01 -7.410934567451477051e-01 1.093324869871139526e-01 -1.895282864570617676e-01 4.182609021663665771e-01
6.420000000000000000e+02 4.270869827270507812e+01 1.635833549499511719e+01 -1.156676530838012695e+00 2.617163956165313721e-01 -2.684880197048187256e-01 1.304662525653839111e-01
6.430000000000000000e+02 3.847929000854492188e+01 1.372325897216796875e+01 -5.914532542228698730e-01 7.248613983392715454e-02 -1.556901335716247559e-01 1.400092393159866333e-01
6.440000000000000000e+02 4.420037841796875000e+01 1.312680816650390625e+01 -4.902921915054321289e-01 2.179944887757301331e-02 -1.405478268861770630e-01 -1.847796887159347534e-01
6.450000000000000000e+02 4.474162673950195312e+01 1.495999717712402344e+01 -1.091174840927124023e+00 1.337038576602935791e-01 -2.872412800788879395e-01 -2.236222028732299805e-01
6.460000000000000000e+02 4.402578735351562500e+01 1.194423484802246094e+01 -1.853720992803573608e-01 -5.056393146514892578e-02 -7.078080624341964722e-02 -1.215004324913024902e-01
6.470000000000000000e+02 7.929531097412109375e+01 1.537012577056884766e+01 -1.838617213070392609e-02 5.865448951721191406e+00 1.754118919372558594e+00 1.405744999647140503e-01
6.480000000000000000e+02 7.935653686523437500e+01 1.678899192810058594e+01 2.006938308477401733e-02 6.140815734863281250e+00 1.848265409469604492e+00 1.397659331560134888e-01
6.490000000000000000e+02 7.556221771240234375e+01 2.102853965759277344e+01 -2.063817381858825684e-01 6.835629463195800781e+00 1.988774299621582031e+00 4.328817725181579590e-01
6.500000000000000000e+02 7.221176147460937500e+01 2.132878303527832031e+01 -5.552623271942138672e-01 6.729636192321777344e+00 1.852312088012695312e+00 1.922132223844528198e-01
6.510000000000000000e+02 6.706462097167968750e+01 2.720826721191406250e+01 -1.960045993328094482e-01 4.711620807647705078e+00 1.354684829711914062e+00 -5.745329260826110840e-01
6.520000000000000000e+02 6.232705307006835938e+01 3.170705413818359375e+01 2.674593329429626465e-01 3.200576543807983398e+00 1.040410757064819336e+00 -5.082663297653198242e-01
6.530000000000000000e+02 6.247957611083984375e+01 3.430374145507812500e+01 3.529477417469024658e-01 3.241542816162109375e+00 1.078347206115722656e+00 -3.432145714759826660e-01
6.540000000000000000e+02 7.788217163085937500e+01 1.549299335479736328e+01 3.919947519898414612e-02 6.208422660827636719e+00 1.874286651611328125e+00 3.477652966976165771e-01
6.550000000000000000e+02 7.818040466308593750e+01 2.099124145507812500e+01 -3.432700037956237793e-02 6.888246059417724609e+00 2.056175708770751953e+00 2.774748802185058594e-01
6.560000000000000000e+02 7.557778167724609375e+01 2.350928306579589844e+01 -2.090095430612564087e-01 6.814915657043457031e+00 1.981771826744079590e+00 2.129819691181182861e-01
6.570000000000000000e+02 6.645401763916015625e+01 3.032917976379394531e+01 2.283688634634017944e-02 4.387309551239013672e+00 1.323043942451477051e+00 -4.689867794513702393e-01
6.580000000000000000e+02 6.528736114501953125e+01 3.381409454345703125e+01 1.895422786474227905e-01 4.012468814849853516e+00 1.260603308677673340e+00 -3.632476329803466797e-01
6.590000000000000000e+02 6.250241851806640625e+01 3.736791992187500000e+01 4.266865253448486328e-01 3.270390987396240234e+00 1.109123229980468750e+00 -1.752870976924896240e-01
6.600000000000000000e+02 5.763162612915039062e+01 4.051211929321289062e+01 6.324006319046020508e-01 2.124858856201171875e+00 8.271778225898742676e-01 -6.503749638795852661e-02
6.610000000000000000e+02 7.939849853515625000e+01 2.093469810485839844e+01 -2.057360112667083740e-02 6.970501899719238281e+00 2.084978580474853516e+00 1.062631234526634216e-01
6.620000000000000000e+02 7.935821533203125000e+01 2.368737030029296875e+01 -2.169626951217651367e-02 7.314744472503662109e+00 2.187914609909057617e+00 6.439754366874694824e-02
6.630000000000000000e+02 7.391112518310546875e+01 2.629245376586914062e+01 -2.349037081003189087e-01 6.493795871734619141e+00 1.877667665481567383e+00 -2.972008287906646729e-02
6.640000000000000000e+02 7.246279144287109375e+01 3.050262069702148438e+01 -9.129509329795837402e-02 5.959362030029296875e+00 1.760420083999633789e+00 -2.094387859106063843e-01
6.650000000000000000e+02 6.764231872558593750e+01 3.256382369995117188e+01 7.636125385761260986e-02 4.626471042633056641e+00 1.410849690437316895e+00 -3.394931256771087646e-01
6.660000000000000000e+02 6.249760055541992188e+01 4.075366973876953125e+01 4.491468667984008789e-01 3.276825904846191406e+00 1.117791891098022461e+00 -6.288000196218490601e-02
6.670000000000000000e+02 7.813632202148437500e+01 2.231663322448730469e+01 -6.258160620927810669e-02 7.012807846069335938e+00 2.085067749023437500e+00 2.154312878847122192e-01
6.680000000000000000e+02 7.925482177734375000e+01 2.786695671081542969e+01 3.481095889583230019e-03 7.481412410736083984e+00 2.245468139648437500e+00 1.002841535955667496e-02
6.690000000000000000e+02 7.110337829589843750e+01 3.258384704589843750e+01 -1.804866455495357513e-02 5.659147262573242188e+00 1.692329645156860352e+00 -2.400091886520385742e-01
6.700000000000000000e+02 6.645085144042968750e+01 3.688429260253906250e+01 2.391828298568725586e-01 4.332052707672119141e+00 1.371370673179626465e+00 -2.208614051342010498e-01
6.710000000000000000e+02 7.787522125244140625e+01 2.643623542785644531e+01 -3.424328193068504333e-02 7.158548355102539062e+00 2.137291431427001953e+00 6.032860279083251953e-02
6.720000000000000000e+02 7.910086822509765625e+01 3.212686157226562500e+01 -1.752575859427452087e-02 7.421176433563232422e+00 2.221095085144042969e+00 -2.173932455480098724e-02
6.730000000000000000e+02 7.396509552001953125e+01 3.154404830932617188e+01 -2.995264343917369843e-02 6.256772994995117188e+00 1.868046164512634277e+00 -1.530187427997589111e-01
6.740000000000000000e+02 7.916775512695312500e+01 3.068290328979492188e+01 3.060327377170324326e-03 7.455516815185546875e+00 2.237573146820068359e+00 -1.062565669417381287e-02
6.750000000000000000e+02 7.525200653076171875e+01 3.634170913696289062e+01 1.382821705192327499e-02 6.447862148284912109e+00 1.938507080078125000e+00 -6.862393021583557129e-02
6.760000000000000000e+02 7.220562744140625000e+01 4.039803695678710938e+01 1.205449327826499939e-01 5.677666187286376953e+00 1.739463329315185547e+00 -5.381284654140472412e-02
6.770000000000000000e+02 6.733445739746093750e+01 4.053038024902343750e+01 2.594958245754241943e-01 4.517778396606445312e+00 1.433182239532470703e+00 -6.961712986230850220e-02
6.780000000000000000e+02 7.718376159667968750e+01 3.385890197753906250e+01 -8.785683661699295044e-03 6.939620494842529297e+00 2.079250574111938477e+00 -5.328726023435592651e-02
6.790000000000000000e+02 7.922592163085937500e+01 3.749693679809570312e+01 3.014794923365116119e-02 7.263785839080810547e+00 2.188180208206176758e+00 -1.823570951819419861e-02
6.800000000000000000e+02 7.798043060302734375e+01 3.681837463378906250e+01 7.063910830765962601e-03 7.013527393341064453e+00 2.106177330017089844e+00 -3.799217939376831055e-02
6.810000000000000000e+02 7.866510009765625000e+01 4.024703216552734375e+01 -3.783995658159255981e-02 7.090652942657470703e+00 2.115844011306762695e+00 -1.123953908681869507e-01
6.820000000000000000e+02 4.258451843261718750e+01 4.031126403808593750e+01 6.841571331024169922e-01 1.485358029603958130e-01 2.498078942298889160e-01 4.260973259806632996e-02
6.830000000000000000e+02 4.223906707763671875e+01 3.622062683105468750e+01 6.163238883018493652e-01 1.027018427848815918e-01 2.157077193260192871e-01 1.221936047077178955e-01
6.840000000000000000e+02 4.166717529296875000e+01 3.281588363647460938e+01 4.675149023532867432e-01 1.860667765140533447e-02 1.458364725112915039e-01 2.169633060693740845e-01
6.850000000000000000e+02 3.960301208496093750e+01 3.019555091857910156e+01 2.903943955898284912e-01 -5.174941942095756531e-02 7.159349322319030762e-02 2.856497764587402344e-01
6.860000000000000000e+02 4.057470703125000000e+01 2.556140136718750000e+01 -3.819367289543151855e-02 -3.473092988133430481e-02 -2.187738195061683655e-02 3.852790594100952148e-01
6.870000000000000000e+02 3.881948089599609375e+01 2.082555198669433594e+01 -4.603314697742462158e-01 3.100753203034400940e-02 -1.287971884012222290e-01 3.200273811817169189e-01
6.880000000000000000e+02 3.667623901367187500e+01 1.370592880249023438e+01 -8.691895008087158203e-01 -5.033895373344421387e-02 -2.758585512638092041e-01 3.163746297359466553e-01
6.890000000000000000e+02 3.841420745849609375e+01 1.304513549804687500e+01 -4.713087081909179688e-01 5.799001455307006836e-02 -1.239956095814704895e-01 1.484425663948059082e-01
6.900000000000000000e+02 3.751246643066406250e+01 4.027098846435546875e+01 5.596630573272705078e-01 -9.367308020591735840e-02 1.397969871759414673e-01 6.012960895895957947e-02
6.910000000000000000e+02 3.809413146972656250e+01 3.614284133911132812e+01 5.088517069816589355e-01 -7.403407245874404907e-02 1.304453015327453613e-01 1.577944457530975342e-01
6.920000000000000000e+02 3.663161468505859375e+01 3.166747283935546875e+01 3.229456245899200439e-01 -9.704246371984481812e-02 6.777095049619674683e-02 2.639807760715484619e-01
6.930000000000000000e+02 3.472439193725585938e+01 3.005718803405761719e+01 2.245674580335617065e-01 -1.223348900675773621e-01 3.066976927220821381e-02 2.854373455047607422e-01
6.940000000000000000e+02 3.611422348022460938e+01 2.801865196228027344e+01 1.204382255673408508e-01 -9.155551344156265259e-02 8.664814755320549011e-03 3.190695643424987793e-01
6.950000000000000000e+02 3.738137817382812500e+01 2.132986068725585938e+01 -3.679546713829040527e-01 -1.159770693629980087e-02 -1.138657107949256897e-01 2.959353923797607422e-01
6.960000000000000000e+02 3.624054718017578125e+01 1.538781261444091797e+01 -7.116384506225585938e-01 -4.303022474050521851e-02 -2.264005988836288452e-01 1.023489609360694885e-01
6.970000000000000000e+02 3.573149490356445312e+01 1.384488773345947266e+01 -9.190237522125244141e-01 -2.599493563175201416e-01 -3.536919355392456055e-01 3.523895442485809326e-01
6.980000000000000000e+02 3.709651184082031250e+01 1.319901943206787109e+01 -4.718585312366485596e-01 -7.026264816522598267e-02 -1.626363545656204224e-01 2.681809067726135254e-01
6.990000000000000000e+02 3.487861633300781250e+01 3.446170425415039062e+01 3.935754001140594482e-01 -1.400542408227920532e-01 7.605634629726409912e-02 1.936064809560775757e-01
7.000000000000000000e+02 3.297028732299804688e+01 3.197108650207519531e+01 2.452924847602844238e-01 -1.575969904661178589e-01 2.630864828824996948e-02 2.377744168043136597e-01
7.010000000000000000e+02 3.157706260681152344e+01 2.994037628173828125e+01 1.615226417779922485e-01 -1.511562168598175049e-01 3.109927056357264519e-03 2.636815905570983887e-01
7.020000000000000000e+02 3.302371215820312500e+01 2.831322669982910156e+01 9.254492074251174927e-02 -1.308988034725189209e-01 -1.150616630911827087e-02 2.961974143981933594e-01
7.030000000000000000e+02 3.379927444458007812e+01 2.512287521362304688e+01 -8.426751941442489624e-02 -8.477705717086791992e-02 -5.071337148547172546e-02 3.099833130836486816e-01
7.040000000000000000e+02 3.561075592041015625e+01 2.129067230224609375e+01 -3.354742527008056641e-01 -4.852175712585449219e-02 -1.151987984776496887e-01 3.000397980213165283e-01
7.050000000000000000e+02 3.184780502319335938e+01 1.707561874389648438e+01 -4.614627659320831299e-01 -3.534877672791481018e-02 -1.490434706211090088e-01 2.181228995323181152e-01
7.060000000000000000e+02 3.102085876464843750e+01 1.325292873382568359e+01 -2.689805626869201660e-01 -3.929538652300834656e-02 -9.248278290033340454e-02 -6.118408963084220886e-02
7.070000000000000000e+02 3.361710739135742188e+01 1.462075328826904297e+01 -9.476526379585266113e-01 -1.415882110595703125e-01 -3.267722427845001221e-01 3.769373521208763123e-02
7.080000000000000000e+02 3.243990707397460938e+01 4.031823348999023438e+01 4.374875724315643311e-01 -1.825012713670730591e-01 7.649588584899902344e-02 5.647597089409828186e-02
7.090000000000000000e+02 3.174111938476562500e+01 3.638461685180664062e+01 3.699379265308380127e-01 -1.825215816497802734e-01 5.622490495443344116e-02 1.404244005680084229e-01
7.100000000000000000e+02 3.065570259094238281e+01 3.326099777221679688e+01 2.565678954124450684e-01 -1.750384122133255005e-01 2.445884793996810913e-02 2.092749476432800293e-01
7.110000000000000000e+02 2.766370201110839844e+01 3.128844642639160156e+01 1.582651585340499878e-01 -1.679066270589828491e-01 -2.892440650612115860e-03 2.237374186515808105e-01
7.120000000000000000e+02 2.805210685729980469e+01 2.751573753356933594e+01 3.135651722550392151e-02 -1.386742293834686279e-01 -3.219531476497650146e-02 2.531310319900512695e-01
7.130000000000000000e+02 2.804840850830078125e+01 2.124908638000488281e+01 -2.520224452018737793e-01 -5.874605849385261536e-02 -9.323054552078247070e-02 2.208324223756790161e-01
7.140000000000000000e+02 2.870223236083984375e+01 1.973823165893554688e+01 -3.324874639511108398e-01 -2.167572267353534698e-02 -1.062489524483680725e-01 2.236894816160202026e-01
7.150000000000000000e+02 2.832383918762207031e+01 1.546111011505126953e+01 -3.212904036045074463e-01 2.308045141398906708e-02 -8.946298807859420776e-02 1.310813724994659424e-01
7.160000000000000000e+02 2.752067947387695312e+01 1.041607570648193359e+01 -4.436070844531059265e-02 -5.344564840197563171e-02 -2.934190630912780762e-02 -6.892184913158416748e-02
7.170000000000000000e+02 2.860090637207031250e+01 1.143065452575683594e+01 -8.193296939134597778e-02 -6.223791092634201050e-02 -4.325126484036445618e-02 -4.042908176779747009e-02
7.180000000000000000e+02 2.734181022644042969e+01 4.042116165161132812e+01 3.092026710510253906e-01 -2.136378884315490723e-01 2.866943553090095520e-02 4.444259777665138245e-02
7.190000000000000000e+02 2.756588172912597656e+01 3.662192916870117188e+01 2.841426432132720947e-01 -2.018424272537231445e-01 2.469006553292274475e-02 1.223604977130889893e-01
7.200000000000000000e+02 2.805747604370117188e+01 3.364988327026367188e+01 2.375560849905014038e-01 -1.857393085956573486e-01 1.554503291845321655e-02 1.884444952011108398e-01
7.210000000000000000e+02 2.429924392700195312e+01 3.075979042053222656e+01 1.149277538061141968e-01 -1.633522063493728638e-01 -1.452733762562274933e-02 1.961795985698699951e-01
7.220000000000000000e+02 2.476708984375000000e+01 2.725997543334960938e+01 7.638306822627782822e-03 -1.348175853490829468e-01 -3.815378248691558838e-02 2.245768904685974121e-01
7.230000000000000000e+02 2.777298736572265625e+01 2.449679565429687500e+01 -9.499145299196243286e-02 -1.067253947257995605e-01 -6.051505357027053833e-02 2.437276542186737061e-01
7.240000000000000000e+02 2.708772468566894531e+01 1.881623077392578125e+01 -3.621574342250823975e-01 -1.873852312564849854e-02 -1.142687872052192688e-01 1.782446801662445068e-01
7.250000000000000000e+02 2.575706672668457031e+01 1.640699577331542969e+01 -3.936237096786499023e-01 5.879919510334730148e-03 -1.163231357932090759e-01 2.211591601371765137e-01
7.260000000000000000e+02 2.711064720153808594e+01 1.618688392639160156e+01 -3.691044151782989502e-01 3.734504804015159607e-02 -9.952781349420547485e-02 1.938259005546569824e-01
7.270000000000000000e+02 2.539879608154296875e+01 1.490466690063476562e+01 -4.339815676212310791e-02 5.594646558165550232e-02 3.764491993933916092e-03 1.373382210731506348e-01
7.280000000000000000e+02 2.447685050964355469e+01 1.313281631469726562e+01 6.345902383327484131e-02 1.316589713096618652e-01 5.853539705276489258e-02 6.996965408325195312e-02
7.290000000000000000e+02 2.547557640075683594e+01 1.377136611938476562e+01 3.598379343748092651e-02 9.970908612012863159e-02 4.070786386728286743e-02 5.432207137346267700e-02
7.300000000000000000e+02 2.353897094726562500e+01 1.224174690246582031e+01 4.806671291589736938e-02 6.566893309354782104e-02 3.412069380283355713e-02 6.024817004799842834e-02
7.310000000000000000e+02 2.091106224060058594e+01 1.022649478912353516e+01 2.611618675291538239e-02 2.301996573805809021e-02 1.474084611982107162e-02 2.369081974029541016e-02
7.320000000000000000e+02 1.969086647033691406e+01 6.097179889678955078e+00 -4.205882549285888672e-02 -3.217669436708092690e-04 -1.271417737007141113e-02 -1.749030314385890961e-02
7.330000000000000000e+02 2.175621414184570312e+01 5.798338890075683594e+00 -4.175410792231559753e-02 6.936041638255119324e-03 -1.044541969895362854e-02 -1.918344944715499878e-02
7.340000000000000000e+02 2.256349182128906250e+01 6.305362701416015625e+00 -3.932390734553337097e-02 5.956532433629035950e-03 -1.001021265983581543e-02 -2.348826639354228973e-02
7.350000000000000000e+02 2.380546951293945312e+01 6.889000892639160156e+00 -4.960007220506668091e-02 -2.035852149128913879e-02 -2.098757773637771606e-02 -3.269949555397033691e-02
7.360000000000000000e+02 2.471989250183105469e+01 7.490979671478271484e+00 -6.016715243458747864e-02 -3.759407252073287964e-02 -2.932836674153804779e-02 -4.407491534948348999e-02
7.370000000000000000e+02 2.519680595397949219e+01 1.089206790924072266e+01 -3.131045773625373840e-02 1.233757100999355316e-02 -5.691866390407085419e-03 -3.889181837439537048e-02
7.380000000000000000e+02 2.419316482543945312e+01 3.505341339111328125e+01 2.000894099473953247e-01 -1.922541558742523193e-01 2.350575523450970650e-03 1.336482316255569458e-01
7.390000000000000000e+02 2.215149879455566406e+01 3.240237426757812500e+01 1.138918772339820862e-01 -1.662739217281341553e-01 -1.571461185812950134e-02 1.590324044227600098e-01
7.400000000000000000e+02 2.079801177978515625e+01 2.993853950500488281e+01 5.871212854981422424e-02 -1.411772817373275757e-01 -2.473954483866691589e-02 1.765623837709426880e-01
7.410000000000000000e+02 2.172485733032226562e+01 2.672807121276855469e+01 -1.365924905985593796e-02 -1.176090762019157410e-01 -3.938049823045730591e-02 1.998467892408370972e-01
7.420000000000000000e+02 2.318070030212402344e+01 2.275153541564941406e+01 -1.280900090932846069e-01 -1.011297181248664856e-01 -6.876591593027114868e-02 2.019266337156295776e-01
7.430000000000000000e+02 2.299147796630859375e+01 1.861139297485351562e+01 -3.079693019390106201e-01 -1.229501962661743164e-01 -1.292758584022521973e-01 1.815890073776245117e-01
7.440000000000000000e+02 2.029208374023437500e+01 1.580928421020507812e+01 -1.291802525520324707e-01 -1.323944982141256332e-02 -4.272590950131416321e-02 -6.005387287586927414e-03
7.450000000000000000e+02 1.621134567260742188e+01 1.374891662597656250e+01 -3.303939476609230042e-03 1.859793066978454590e-02 4.588197451084852219e-03 1.474879495799541473e-02
7.460000000000000000e+02 1.310469627380371094e+01 1.261911010742187500e+01 6.388432346284389496e-03 1.738493330776691437e-02 7.132009603083133698e-03 1.615373790264129639e-02
7.470000000000000000e+02 7.256124973297119141e+00 1.479344558715820312e+01 -3.816023236140608788e-03 -9.802376851439476013e-03 -4.085520282387733459e-03 6.106811575591564178e-03
7.480000000000000000e+02 6.202342987060546875e+00 1.465860080718994141e+01 -4.075053613632917404e-03 -1.181974448263645172e-02 -4.768439568579196930e-03 6.398236379027366638e-03
7.490000000000000000e+02 6.069051027297973633e-01 1.346846103668212891e+01 7.867351087043061852e-05 -1.398085057735443115e-02 -4.170652944594621658e-03 1.822612830437719822e-04
7.500000000000000000e+02 1.952045440673828125e+00 1.477096748352050781e+01 -3.974527935497462749e-04 -1.527566183358430862e-02 -4.701934289187192917e-03 9.462046436965465546e-04
7.510000000000000000e+02 5.537034273147583008e-01 9.260662078857421875e+00 -2.830120211001485586e-04 -8.877445943653583527e-03 -2.748137339949607849e-03 1.220354228280484676e-03
7.520000000000000000e+02 1.625580072402954102e+00 1.060823154449462891e+01 6.438004202209413052e-04 -1.132528297603130341e-02 -3.204444656148552895e-03 1.810806104913353920e-03
7.530000000000000000e+02 5.703270435333251953e-01 6.425137996673583984e+00 -7.772551616653800011e-04 -2.132853725925087929e-03 -8.730326662771403790e-04 1.056450069881975651e-03
7.540000000000000000e+02 4.640758514404296875e+00 3.681028127670288086e+00 -4.115969408303499222e-03 -1.282515440834686160e-04 -1.273266272619366646e-03 -2.766559191513806581e-05
7.550000000000000000e+02 6.570591449737548828e+00 6.176215648651123047e+00 -2.530882135033607483e-02 -4.867754876613616943e-03 -9.052973240613937378e-03 2.299003116786479950e-02
7.560000000000000000e+02 6.152597904205322266e+00 6.913746833801269531e+00 -5.390779115259647369e-03 -6.069283466786146164e-03 -3.438018728047609329e-03 1.611880213022232056e-02
7.570000000000000000e+02 8.414771080017089844e+00 6.728264331817626953e+00 -6.700861267745494843e-03 -2.224616333842277527e-02 -8.684107102453708649e-03 3.009745292365550995e-02
7.580000000000000000e+02 7.587643623352050781e+00 7.741906642913818359e+00 1.105145085602998734e-02 -1.868901588022708893e-02 -2.291269367560744286e-03 2.221010439097881317e-02
7.590000000000000000e+02 9.273662567138671875e+00 6.742041587829589844e+00 2.956849150359630585e-02 -1.382726151496171951e-02 4.722369369119405746e-03 9.587900713086128235e-03
7.600000000000000000e+02 1.301063632965087891e+01 1.062584686279296875e+01 2.620166353881359100e-02 2.656980417668819427e-02 1.583144068717956543e-02 2.673456631600856781e-02
7.610000000000000000e+02 1.113384532928466797e+01 8.659289360046386719e+00 2.195257321000099182e-02 3.395729139447212219e-02 1.677295938134193420e-02 2.432222478091716766e-02
7.620000000000000000e+02 1.203420543670654297e+01 9.627537727355957031e+00 2.641291171312332153e-02 2.927287295460700989e-02 1.670573465526103973e-02 2.673925086855888367e-02
7.630000000000000000e+02 1.507188415527343750e+01 1.267276668548583984e+01 1.494534127414226532e-02 2.023855783045291901e-02 1.055516954511404037e-02 2.330607920885086060e-02
7.640000000000000000e+02 2.228516387939453125e+01 4.059046936035156250e+01 2.168527394533157349e-01 -2.011805623769760132e-01 4.701653495430946350e-03 3.532472625374794006e-02
7.650000000000000000e+02 2.110965728759765625e+01 3.698796081542968750e+01 1.727524101734161377e-01 -1.882256269454956055e-01 -4.641964565962553024e-03 8.986062556505203247e-02
7.660000000000000000e+02 1.947472190856933594e+01 3.379491424560546875e+01 1.083068177103996277e-01 -1.605254113674163818e-01 -1.566558144986629486e-02 1.310324817895889282e-01
7.670000000000000000e+02 1.835411643981933594e+01 3.093291091918945312e+01 5.299432203173637390e-02 -1.345573961734771729e-01 -2.446892112493515015e-02 1.472617387771606445e-01
7.680000000000000000e+02 1.910622596740722656e+01 2.544220924377441406e+01 -5.045842379331588745e-02 -8.584503084421157837e-02 -4.089103639125823975e-02 1.773025095462799072e-01
7.690000000000000000e+02 2.082783889770507812e+01 2.489611816406250000e+01 -6.534780561923980713e-02 -9.332991391420364380e-02 -4.760331287980079651e-02 1.941244900226593018e-01
7.700000000000000000e+02 1.719930648803710938e+01 2.013867568969726562e+01 -1.351660639047622681e-01 3.806463209912180901e-03 -3.940787911415100098e-02 9.975028038024902344e-02
7.710000000000000000e+02 1.895017051696777344e+01 1.518904304504394531e+01 -6.038988754153251648e-02 1.749728620052337646e-02 -1.286778040230274200e-02 -6.412181537598371506e-03
7.720000000000000000e+02 1.708306694030761719e+01 1.658538436889648438e+01 -9.478214383125305176e-02 2.772272564470767975e-02 -2.011782489717006683e-02 2.258935384452342987e-02
7.730000000000000000e+02 1.740802955627441406e+01 4.098642730712890625e+01 1.322134435176849365e-01 -1.768495738506317139e-01 -1.339083909988403320e-02 1.873845420777797699e-02
7.740000000000000000e+02 1.697987365722656250e+01 3.788651275634765625e+01 1.211038753390312195e-01 -1.685550957918167114e-01 -1.423536799848079681e-02 6.050955504179000854e-02
7.750000000000000000e+02 1.624185943603515625e+01 3.471511077880859375e+01 8.787956833839416504e-02 -1.518667042255401611e-01 -1.919613964855670929e-02 9.739201515913009644e-02
7.760000000000000000e+02 1.548304557800292969e+01 3.155552673339843750e+01 4.248397052288055420e-02 -1.235518157482147217e-01 -2.432035282254219055e-02 1.227800771594047546e-01
7.770000000000000000e+02 1.545206356048583984e+01 2.623374748229980469e+01 -3.313307836651802063e-02 -7.179291546344757080e-02 -3.147779777646064758e-02 1.389340311288833618e-01
7.780000000000000000e+02 1.682513618469238281e+01 2.397234916687011719e+01 -7.360506057739257812e-02 -5.251780152320861816e-02 -3.783685714006423950e-02 1.491597741842269897e-01
7.790000000000000000e+02 1.462544155120849609e+01 2.066873550415039062e+01 -9.292735904455184937e-02 -3.361092181876301765e-03 -2.888653613626956940e-02 8.433858305215835571e-02
7.800000000000000000e+02 1.404340076446533203e+01 1.729304504394531250e+01 -6.666510552167892456e-02 1.512216962873935699e-02 -1.546288002282381058e-02 3.415475413203239441e-02
7.810000000000000000e+02 1.269929504394531250e+01 4.114632034301757812e+01 7.483744621276855469e-02 -1.535946279764175415e-01 -2.362715639173984528e-02 1.320120412856340408e-02
7.820000000000000000e+02 1.294790554046630859e+01 3.830671691894531250e+01 7.117807120084762573e-02 -1.507830023765563965e-01 -2.388147823512554169e-02 4.234366118907928467e-02
7.830000000000000000e+02 1.286425781250000000e+01 3.528176116943359375e+01 6.015666946768760681e-02 -1.392572373151779175e-01 -2.373016998171806335e-02 7.441872358322143555e-02
7.840000000000000000e+02 1.140097999572753906e+01 2.624602317810058594e+01 -2.224794775247573853e-02 -6.255261600017547607e-02 -2.544016763567924500e-02 9.105120599269866943e-02
7.850000000000000000e+02 1.254382228851318359e+01 2.490392303466796875e+01 -3.792592883110046387e-02 -5.157995969057083130e-02 -2.685176581144332886e-02 9.994644671678543091e-02
7.860000000000000000e+02 1.288918495178222656e+01 1.932811737060546875e+01 -6.788513809442520142e-02 9.957127040252089500e-04 -2.006682753562927246e-02 5.270350351929664612e-02
7.870000000000000000e+02 1.198823451995849609e+01 1.531466674804687500e+01 -2.730944566428661346e-02 1.012197509407997131e-02 -5.156241357326507568e-03 1.576189324259757996e-02
7.880000000000000000e+02 1.361757469177246094e+01 1.583803367614746094e+01 -4.399539530277252197e-02 1.328178495168685913e-02 -9.214082732796669006e-03 2.200252749025821686e-02
7.890000000000000000e+02 8.229144096374511719e+00 4.111611938476562500e+01 3.231251239776611328e-02 -1.436318159103393555e-01 -3.339578956365585327e-02 9.750599041581153870e-03
7.900000000000000000e+02 9.318848609924316406e+00 3.837488174438476562e+01 3.953028470277786255e-02 -1.404152512550354004e-01 -3.026548959314823151e-02 3.381006047129631042e-02
7.910000000000000000e+02 7.003113269805908203e+00 2.896245765686035156e+01 2.839556545950472355e-04 -8.737954497337341309e-02 -2.612867578864097595e-02 6.004945188760757446e-02
7.920000000000000000e+02 9.086290359497070312e+00 2.637065315246582031e+01 -1.545984763652086258e-02 -6.428420543670654297e-02 -2.392321638762950897e-02 7.361628860235214233e-02
7.930000000000000000e+02 8.616275787353515625e+00 2.304654693603515625e+01 -2.683254703879356384e-02 -3.929173201322555542e-02 -1.983728446066379547e-02 5.505912750959396362e-02
7.940000000000000000e+02 7.668659687042236328e+00 1.619127464294433594e+01 -1.438717544078826904e-02 -9.273875504732131958e-03 -7.098315283656120300e-03 1.351328752934932709e-02
7.950000000000000000e+02 9.104216575622558594e+00 1.568821620941162109e+01 -1.520829554647207260e-02 -3.995830193161964417e-03 -5.761237815022468567e-03 1.228327397257089615e-02
7.960000000000000000e+02 5.106906414031982422e+00 4.032329940795898438e+01 1.134387310594320297e-02 -1.489916890859603882e-01 -4.129434749484062195e-02 1.275193132460117340e-02
7.970000000000000000e+02 6.639921665191650391e+00 3.806869125366210938e+01 2.236765809357166290e-02 -1.374427676200866699e-01 -3.452253341674804688e-02 2.727258950471878052e-02
7.980000000000000000e+02 6.465929031372070312e+00 3.445176696777343750e+01 1.514526922255754471e-02 -1.238222122192382812e-01 -3.260308504104614258e-02 4.401680827140808105e-02
7.990000000000000000e+02 5.449493885040283203e+00 2.195772552490234375e+01 -1.374998595565557480e-02 -3.718719631433486938e-02 -1.528115384280681610e-02 3.030468337237834930e-02
8.000000000000000000e+02 5.601233005523681641e+00 2.083742141723632812e+01 -1.297109853476285934e-02 -3.163875639438629150e-02 -1.338295638561248779e-02 2.528467588126659393e-02
8.010000000000000000e+02 5.841661453247070312e+00 1.820593452453613281e+01 -1.198087166994810104e-02 -2.043186686933040619e-02 -9.723821654915809631e-03 1.581468619406223297e-02
8.020000000000000000e+02 4.676521778106689453e+00 1.647312545776367188e+01 -4.777615889906883240e-03 -1.723911799490451813e-02 -6.605020258575677872e-03 6.705951876938343048e-03
8.030000000000000000e+02 2.042381048202514648e+00 4.163287353515625000e+01 1.764015876688063145e-03 -1.698282361030578613e-01 -5.041926726698875427e-02 5.337980692274868488e-04
8.040000000000000000e+02 2.619040966033935547e+00 3.797695922851562500e+01 3.752469550818204880e-03 -1.544707417488098145e-01 -4.521548002958297729e-02 1.116580981761217117e-02
8.050000000000000000e+02 1.991288304328918457e+00 3.329978942871093750e+01 1.981762005016207695e-03 -1.282609105110168457e-01 -3.788374364376068115e-02 1.632096245884895325e-02
8.060000000000000000e+02 2.123393535614013672e+00 3.193228340148925781e+01 1.367186312563717365e-03 -1.164935603737831116e-01 -3.453791141510009766e-02 1.972601003944873810e-02
8.070000000000000000e+02 2.185479640960693359e+00 2.765235519409179688e+01 -6.448299973271787167e-04 -7.908789068460464478e-02 -2.391981706023216248e-02 2.073324471712112427e-02
8.080000000000000000e+02 2.024573087692260742e+00 2.478977584838867188e+01 -1.868154155090451241e-03 -5.515821278095245361e-02 -1.710790954530239105e-02 1.640646532177925110e-02
8.090000000000000000e+02 1.863414764404296875e+00 2.057826423645019531e+01 -2.011189470067620277e-03 -2.878904901444911957e-02 -9.240071289241313934e-03 8.238298818469047546e-03
8.100000000000000000e+02 1.946775794029235840e+00 1.773444557189941406e+01 -1.630282495170831680e-03 -1.970624923706054688e-02 -6.400959566235542297e-03 3.541991580277681351e-03
8.110000000000000000e+02 6.504789590835571289e-01 1.774273872375488281e+01 -5.132915102876722813e-04 -1.619872078299522400e-02 -5.013603717088699341e-03 8.448219741694629192e-04
8.120000000000000000e+02 1.747974276542663574e+00 7.829628944396972656e+00 -1.193505246192216873e-03 -5.690041929483413696e-03 -2.065064152702689171e-03 3.763335524126887321e-03
8.130000000000000000e+02 4.926500618457794189e-01 3.527894973754882812e+00 -7.980166119523346424e-04 9.694893960841000080e-04 5.144184251548722386e-05 5.966456592432223260e-05
8.140000000000000000e+02 3.351043462753295898e+00 1.857303261756896973e+00 7.656401721760630608e-04 -1.598051021574065089e-04 1.817505253711715341e-04 4.254756786394864321e-04
8.150000000000000000e+02 2.612654924392700195e+00 1.860904574394226074e+00 -5.011760513298213482e-04 -7.841892656870186329e-04 -3.856096009258180857e-04 -6.121613550931215286e-04
8.160000000000000000e+02 2.317017555236816406e+01 1.696716880798339844e+01 -5.280790328979492188e-01 -1.123555451631546021e-01 -1.921303719282150269e-01 7.090657949447631836e-02
8.170000000000000000e+02 2.451875495910644531e+01 1.674462318420410156e+01 -5.356030464172363281e-01 -2.072263509035110474e-01 -2.228488177061080933e-01 1.922192573547363281e-01
8.180000000000000000e+02 2.086981773376464844e+01 9.207491874694824219e+00 1.302748639136552811e-02 2.781044878065586090e-02 1.225137989968061447e-02 2.403392270207405090e-02
8.190000000000000000e+02 1.888421249389648438e+01 6.192476749420166016e+00 -3.424848616123199463e-02 9.316338226199150085e-03 -7.479644380509853363e-03 -6.650364026427268982e-03
8.200000000000000000e+02 1.733725929260253906e+01 6.163927078247070312e+00 -2.050294913351535797e-02 1.684012450277805328e-02 -1.098847249522805214e-03 -1.019599754363298416e-02
8.210000000000000000e+02 4.639820098876953125e+01 1.445747375488281250e+01 -1.099843144416809082e+00 -1.801069080829620361e-01 -3.839850127696990967e-01 -5.556383728981018066e-01
8.220000000000000000e+02 4.969147872924804688e+01 1.543709754943847656e+01 -3.016706943511962891e+00 -1.043064355850219727e+00 -1.217931389808654785e+00 7.776184678077697754e-01
8.230000000000000000e+02 4.755418014526367188e+01 1.530395984649658203e+01 -2.757422685623168945e+00 -5.064635872840881348e-01 -9.791659116744995117e-01 -2.286740094423294067e-01
8.240000000000000000e+02 5.095757293701171875e+01 1.347685909271240234e+01 -8.573726415634155273e-01 -4.277139008045196533e-01 -3.855259716510772705e-01 7.780602574348449707e-01
8.250000000000000000e+02 5.225381088256835938e+01 1.428332710266113281e+01 -1.331881165504455566e+00 1.831509731709957123e-02 -3.940698206424713135e-01 7.046491503715515137e-01
8.260000000000000000e+02 5.348668670654296875e+01 1.310733127593994141e+01 -1.094044446945190430e+00 8.686681091785430908e-02 -3.021533191204071045e-01 4.668179750442504883e-01
8.270000000000000000e+02 5.356761932373046875e+01 1.592437553405761719e+01 -1.377153277397155762e+00 3.353180289268493652e-01 -3.125505745410919189e-01 2.908008694648742676e-01
8.280000000000000000e+02 5.460314941406250000e+01 1.893786811828613281e+01 -6.486847400665283203e-01 5.251917839050292969e-01 -3.704788908362388611e-02 -6.854250282049179077e-02
8.290000000000000000e+02 5.321908950805664062e+01 2.621560859680175781e+01 2.941739559173583984e-01 7.521033287048339844e-01 3.138831853866577148e-01 -1.816197186708450317e-01
8.300000000000000000e+02 5.128069305419921875e+01 2.756238555908203125e+01 3.847002089023590088e-01 5.533066391944885254e-01 2.814020514488220215e-01 -5.339277163147926331e-02
8.310000000000000000e+02 5.407790756225585938e+01 3.211582183837890625e+01 5.766510963439941406e-01 1.209877967834472656e+00 5.359587073326110840e-01 -1.673633903264999390e-01
8.320000000000000000e+02 5.161466217041015625e+01 3.342454147338867188e+01 6.257627010345458984e-01 8.977685570716857910e-01 4.570593833923339844e-01 -8.559197932481765747e-02
8.330000000000000000e+02 5.238244628906250000e+01 3.655033874511718750e+01 6.983619332313537598e-01 1.147387504577636719e+00 5.537248253822326660e-01 -7.603908330202102661e-02
8.340000000000000000e+02 5.188113021850585938e+01 1.332141017913818359e+01 -9.037495851516723633e-01 -7.778535783290863037e-02 -2.944604754447937012e-01 6.088321805000305176e-01
8.350000000000000000e+02 5.577190780639648438e+01 1.290972328186035156e+01 -1.183516025543212891e+00 1.770191788673400879e-01 -3.019490540027618408e-01 2.233390361070632935e-01
8.360000000000000000e+02 5.671242904663085938e+01 1.630684852600097656e+01 -9.590563774108886719e-01 5.967574715614318848e-01 -1.086896806955337524e-01 1.139435097575187683e-01
8.370000000000000000e+02 5.659740447998046875e+01 2.622688102722167969e+01 2.689920067787170410e-01 1.436562061309814453e+00 5.116662383079528809e-01 -4.076529443264007568e-01
8.380000000000000000e+02 5.636649322509765625e+01 3.024066734313964844e+01 4.665784239768981934e-01 1.653684258460998535e+00 6.360787749290466309e-01 -3.039354383945465088e-01
8.390000000000000000e+02 5.730623245239257812e+01 1.269926548004150391e+01 -1.305499315261840820e+00 3.106132745742797852e-01 -2.984658181667327881e-01 -1.282567437738180161e-02
8.400000000000000000e+02 6.038367080688476562e+01 1.255088615417480469e+01 -1.741417765617370605e+00 -5.136309862136840820e-01 -6.765146255493164062e-01 -8.131616115570068359e-01
8.410000000000000000e+02 6.246739196777343750e+01 1.372993469238281250e+01 -3.042495489120483398e+00 -7.091825604438781738e-01 -1.125503420829772949e+00 -1.063182711601257324e+00
8.420000000000000000e+02 6.465288543701171875e+01 1.362688732147216797e+01 1.125445008277893066e+00 4.374297618865966797e+00 1.649922847747802734e+00 -2.892501831054687500e+00
8.430000000000000000e+02 6.617121124267578125e+01 1.192380046844482422e+01 2.263649225234985352e+00 7.291066646575927734e+00 2.866414785385131836e+00 -5.073551177978515625e+00
8.440000000000000000e+02 6.546667480468750000e+01 1.213862609863281250e+01 2.198065996170043945e+00 6.226434707641601562e+00 2.527350187301635742e+00 -3.404352188110351562e+00
8.450000000000000000e+02 6.863780212402343750e+01 1.190818309783935547e+01 1.550585269927978516e+00 1.531286907196044922e+01 5.059036254882812500e+00 3.147427797317504883e+00
8.460000000000000000e+02 6.892776489257812500e+01 1.115655422210693359e+01 5.404572010040283203e+00 1.442083168029785156e+01 5.947621345520019531e+00 4.754928112030029297e+00
8.470000000000000000e+02 6.913435363769531250e+01 1.034666538238525391e+01 7.771095275878906250e+00 1.166090965270996094e+01 5.829601764678955078e+00 3.668647050857543945e+00
8.480000000000000000e+02 6.998596191406250000e+01 1.020615673065185547e+01 5.958298206329345703e+00 8.514836311340332031e+00 4.341940402984619141e+00 2.429294586181640625e+00
8.490000000000000000e+02 7.148593902587890625e+01 9.013450622558593750e+00 -1.516691923141479492e+00 -4.284878373146057129e-01 -5.835539102554321289e-01 -1.003029227256774902e+00
8.500000000000000000e+02 7.216532897949218750e+01 1.003585433959960938e+01 1.601145148277282715e+00 1.287883669137954712e-01 5.189800858497619629e-01 -4.348365366458892822e-01
8.510000000000000000e+02 7.058858489990234375e+01 8.122838973999023438e+00 -1.276038765907287598e+00 2.369635343551635742e+00 3.280790150165557861e-01 -6.436308026313781738e-01
8.520000000000000000e+02 6.732450866699218750e+01 7.409204006195068359e+00 -1.471489429473876953e+00 1.520570659637451172e+01 4.120265007019042969e+00 1.870176553726196289e+00
8.530000000000000000e+02 7.580348968505859375e+01 1.049778938293457031e+01 -6.498743593692779541e-02 9.217192649841308594e+00 2.745661497116088867e+00 -2.040547132492065430e+00
8.540000000000000000e+02 7.503355407714843750e+01 8.811292648315429688e+00 3.839736700057983398e+00 8.836013793945312500e+00 3.802725076675415039e+00 -5.395028114318847656e+00
8.550000000000000000e+02 7.574604797363281250e+01 7.844614982604980469e+00 4.265875816345214844e+00 1.692897033691406250e+01 6.358454227447509766e+00 -5.670959472656250000e+00
8.560000000000000000e+02 6.662786102294921875e+01 8.019821166992187500e+00 3.929232656955718994e-01 1.282394886016845703e+01 3.965061426162719727e+00 4.877623558044433594e+00
8.570000000000000000e+02 6.809178161621093750e+01 -4.347186565399169922e+00 -2.113617658615112305e+00 5.706147551536560059e-01 -4.629008471965789795e-01 3.127252459526062012e-01
8.580000000000000000e+02 6.903123474121093750e+01 -5.316450119018554688e+00 -1.362091451883316040e-01 1.911172032356262207e+00 5.324888825416564941e-01 -7.144257426261901855e-01
8.590000000000000000e+02 7.172697448730468750e+01 -6.671793460845947266e+00 2.198762446641921997e-02 6.549155235290527344e+00 1.971342802047729492e+00 -1.612196326255798340e+00
8.600000000000000000e+02 7.162931823730468750e+01 -8.646862030029296875e+00 1.727326035499572754e+00 9.765933990478515625e+00 3.447978019714355469e+00 -3.181722879409790039e+00
8.610000000000000000e+02 7.233699035644531250e+01 -1.133932876586914062e+01 2.972372174263000488e-01 1.295474243164062500e+01 3.975593805313110352e+00 -6.517717242240905762e-01
8.620000000000000000e+02 7.249479675292968750e+01 -1.264325237274169922e+01 6.083078980445861816e-01 1.322909164428710938e+01 4.151219844818115234e+00 3.529331386089324951e-01
8.630000000000000000e+02 7.307151794433593750e+01 -1.380266571044921875e+01 1.277021765708923340e+00 1.179110813140869141e+01 3.920439004898071289e+00 8.971213698387145996e-01
8.640000000000000000e+02 7.212818145751953125e+01 -1.476202011108398438e+01 1.884588837623596191e+00 1.233720016479492188e+01 4.266536712646484375e+00 2.047765493392944336e+00
8.650000000000000000e+02 7.222472381591796875e+01 -1.766209983825683594e+01 -1.556636810302734375e+00 7.704810619354248047e+00 1.844452142715454102e+00 2.113695859909057617e+00
8.660000000000000000e+02 6.934565734863281250e+01 -1.612142181396484375e+01 -3.819390058517456055e+00 -9.591676592826843262e-01 -1.433567285537719727e+00 1.713207602500915527e+00
8.670000000000000000e+02 6.731341552734375000e+01 -1.611357116699218750e+01 -2.455823183059692383e+00 1.008480429649353027e+00 -4.342028498649597168e-01 -4.005477577447891235e-02
8.680000000000000000e+02 6.733483123779296875e+01 -1.417801570892333984e+01 -1.218308329582214355e+00 -3.103771507740020752e-01 -4.586056470870971680e-01 8.291624784469604492e-01
8.690000000000000000e+02 6.644842529296875000e+01 -1.324256038665771484e+01 -6.768692731857299805e-01 1.920997947454452515e-01 -1.454308331012725830e-01 1.906238496303558350e-01
8.700000000000000000e+02 6.552454376220703125e+01 -1.243772697448730469e+01 -7.659134268760681152e-02 1.543347716331481934e+00 4.400269389152526855e-01 -4.425501227378845215e-01
8.710000000000000000e+02 6.289680099487304688e+01 -1.259634017944335938e+01 -1.015588402748107910e+00 4.345608234405517578e+00 9.990059137344360352e-01 1.884886324405670166e-01
8.720000000000000000e+02 6.413477325439453125e+01 -1.084049320220947266e+01 1.184280067682266235e-01 4.348159313201904297e+00 1.339976191520690918e+00 -1.099079489707946777e+00
8.730000000000000000e+02 6.212584686279296875e+01 -6.852122306823730469e+00 5.572416782379150391e-01 8.073614120483398438e+00 2.589256763458251953e+00 6.469963192939758301e-01
8.740000000000000000e+02 5.633681106567382812e+01 -2.079368829727172852e+00 -2.033988982439041138e-01 -9.027178585529327393e-02 -8.810120075941085815e-02 -4.010268449783325195e-01
8.750000000000000000e+02 4.666716384887695312e+01 -2.911410808563232422e+00 -5.407091975212097168e-01 1.100096106529235840e-01 -1.292098760604858398e-01 7.394915819168090820e-02
8.760000000000000000e+02 4.936942672729492188e+01 -3.645331382751464844e+00 -1.235588043928146362e-01 1.797207593917846680e-01 1.684858463704586029e-02 -1.282206624746322632e-01
8.770000000000000000e+02 4.797894287109375000e+01 -3.203759193420410156e+00 -4.744645655155181885e-01 7.786673959344625473e-04 -1.421057730913162231e-01 -6.910208612680435181e-02
8.780000000000000000e+02 5.096018981933593750e+01 -3.306185305118560791e-01 -9.912210702896118164e-01 3.230557739734649658e-01 -2.004496008157730103e-01 -2.041679173707962036e-01
8.790000000000000000e+02 5.062387847900390625e+01 -4.491550445556640625e+00 1.091907918453216553e-01 8.425401151180267334e-02 5.803344398736953735e-02 -2.107396721839904785e-01
8.800000000000000000e+02 5.520219802856445312e+01 -1.907992362976074219e+01 -5.779257416725158691e-01 2.232563972473144531e+00 4.963915050029754639e-01 1.220580339431762695e+00
8.810000000000000000e+02 5.871240234375000000e+01 -1.923004722595214844e+01 -1.615786850452423096e-01 3.645327091217041016e+00 1.045124530792236328e+00 -2.848186790943145752e-01
8.820000000000000000e+02 4.894617080688476562e+01 -1.653938484191894531e+01 -5.114787220954895020e-01 4.730118811130523682e-01 -1.154005434364080429e-02 -1.113055273890495300e-01
8.830000000000000000e+02 5.000088500976562500e+01 -1.553806877136230469e+01 -4.887838661670684814e-02 3.168628811836242676e-01 8.039534837007522583e-02 -3.361193463206291199e-02
8.840000000000000000e+02 4.604851531982421875e+01 -1.267012596130371094e+01 1.633537411689758301e-01 4.990305304527282715e-01 1.987152844667434692e-01 -3.284424841403961182e-01
8.850000000000000000e+02 4.370641708374023438e+01 -1.100761222839355469e+01 2.611915767192840576e-01 2.058647945523262024e-02 8.453342318534851074e-02 -3.444401919841766357e-01
8.860000000000000000e+02 4.196552276611328125e+01 -1.122016048431396484e+01 1.984675526618957520e-01 -1.691215187311172485e-01 8.803809992969036102e-03 -2.765732705593109131e-01
8.870000000000000000e+02 4.805074691772460938e+01 -1.341546249389648438e+01 2.846011817455291748e-01 6.445342898368835449e-01 2.787406444549560547e-01 -3.657153546810150146e-01
8.880000000000000000e+02 4.527975463867187500e+01 -8.410726547241210938e+00 1.884049177169799805e-01 4.455851018428802490e-01 1.901970058679580688e-01 -2.318657040596008301e-01
8.890000000000000000e+02 4.293802261352539062e+01 -7.906099796295166016e+00 3.752195537090301514e-01 1.886582351289689541e-03 1.131318360567092896e-01 -2.592754065990447998e-01
8.900000000000000000e+02 4.388903045654296875e+01 -4.546550273895263672e+00 8.639699220657348633e-02 9.684266895055770874e-02 5.497189983725547791e-02 9.901301562786102295e-02
8.910000000000000000e+02 4.484315872192382812e+01 -3.655941963195800781e+00 -1.790359467267990112e-01 3.288407325744628906e-01 4.494144022464752197e-02 1.512451916933059692e-01
8.920000000000000000e+02 2.819989585876464844e+01 1.834143280982971191e+00 -1.771471053361892700e-01 2.193361371755599976e-01 1.265671383589506149e-02 3.402934372425079346e-01
8.930000000000000000e+02 3.019929695129394531e+01 -1.227834701538085938e+00 -1.412432789802551270e+00 -1.976197361946105957e+00 -1.016589045524597168e+00 -1.293340086936950684e+00
8.940000000000000000e+02 2.624752998352050781e+01 1.531768679618835449e+00 3.285843133926391602e-02 2.434022128582000732e-01 8.287819474935531616e-02 3.021161258220672607e-01
8.950000000000000000e+02 3.171996307373046875e+01 -1.331992596387863159e-01 -2.500566005706787109e+00 -6.537174582481384277e-01 -9.462850689888000488e-01 -5.362709164619445801e-01
8.960000000000000000e+02 3.069237709045410156e+01 1.226310491561889648e+00 -4.516163766384124756e-01 -9.268616437911987305e-01 -4.135434031486511230e-01 -2.460489720106124878e-01
8.970000000000000000e+02 3.304228210449218750e+01 4.583467006683349609e+00 1.232318952679634094e-01 -1.170024350285530090e-01 1.868837978690862656e-03 -1.249243319034576416e-01
8.980000000000000000e+02 3.703910064697265625e+01 -3.233144521713256836e+00 1.264669746160507202e-01 5.611059069633483887e-01 2.062718570232391357e-01 -5.098105669021606445e-01
8.990000000000000000e+02 3.247678375244140625e+01 -9.226428031921386719e+00 2.795864343643188477e-01 1.081494927406311035e+00 4.083243906497955322e-01 -5.646852850914001465e-01
9.000000000000000000e+02 2.993724632263183594e+01 -7.295179367065429688e+00 1.110582724213600159e-01 4.163304269313812256e-01 1.582166105508804321e-01 -4.175396859645843506e-01
9.010000000000000000e+02 3.061315917968750000e+01 -5.416363239288330078e+00 2.948902845382690430e-01 8.488754034042358398e-01 3.431296944618225098e-01 -4.736566245555877686e-01
9.020000000000000000e+02 2.899248504638671875e+01 -1.084879398345947266e+00 -1.275010585784912109e+00 -2.326297461986541748e-01 -4.522920846939086914e-01 -6.567115783691406250e-01
9.030000000000000000e+02 4.218744277954101562e+01 6.626946330070495605e-01 -1.360872387886047363e+00 -4.820864498615264893e-01 -5.528876185417175293e-01 -8.338534832000732422e-01
9.040000000000000000e+02 6.770140838623046875e+01 -4.449871182441711426e-01 -2.913842678070068359e+00 5.652576923370361328e+00 8.216203451156616211e-01 2.845466732978820801e-01
9.050000000000000000e+02 6.934320068359375000e+01 3.966959714889526367e+00 2.832150459289550781e+00 2.320046806335449219e+01 7.809785366058349609e+00 -2.678412199020385742e+00
9.060000000000000000e+02 6.302329635620117188e+01 5.665203571319580078e+00 1.013560056686401367e+00 1.494476318359375000e+00 7.524108886718750000e-01 1.244068026542663574e+00
9.070000000000000000e+02 6.400319671630859375e+01 5.030977725982666016e+00 1.646760225296020508e+00 2.900122880935668945e+00 1.364064931869506836e+00 1.992102980613708496e+00
9.080000000000000000e+02 6.812341308593750000e+01 4.804691791534423828e+00 2.736914157867431641e+00 1.416102981567382812e+01 5.069383144378662109e+00 -8.835731744766235352e-01
9.090000000000000000e+02 6.508835601806640625e+01 -3.238628208637237549e-01 -7.290905714035034180e-01 3.863959074020385742e+00 9.404605627059936523e-01 4.945636272430419922e+00
9.100000000000000000e+02 6.938726043701171875e+01 -1.641763448715209961e+00 -3.489650726318359375e+00 5.784924983978271484e+00 6.885823607444763184e-01 -2.506318092346191406e+00
9.110000000000000000e+02 7.106064605712890625e+01 1.288043856620788574e+00 1.809318065643310547e+00 6.695785045623779297e+00 2.551530838012695312e+00 -4.288374423980712891e+00
9.120000000000000000e+02 5.088075637817382812e+01 2.475523471832275391e+00 -8.737668991088867188e-01 2.344921827316284180e-01 -1.917824149131774902e-01 9.615321457386016846e-02
9.130000000000000000e+02 4.530562973022460938e+01 3.598888158798217773e+00 -3.725015521049499512e-01 -1.117536723613739014e-01 -1.452765613794326782e-01 -2.257684320211410522e-01
9.140000000000000000e+02 4.618225097656250000e+01 4.692793846130371094e+00 -1.882289499044418335e-01 -2.732061594724655151e-02 -6.466487050056457520e-02 -9.328120946884155273e-02
9.150000000000000000e+02 5.379723739624023438e+01 3.353819847106933594e+00 -6.102585420012474060e-02 -8.357252180576324463e-02 -4.337951540946960449e-02 2.058105319738388062e-01
9.160000000000000000e+02 5.226176834106445312e+01 2.756367444992065430e+00 -8.106734156608581543e-01 -3.531829640269279480e-02 -2.537975013256072998e-01 3.827686309814453125e-01
9.170000000000000000e+02 5.123760604858398438e+01 7.356442928314208984e+00 -3.245536983013153076e-02 -3.135861828923225403e-02 -1.914419606328010559e-02 -2.511444035917520523e-03
9.180000000000000000e+02 4.912113952636718750e+01 5.737134933471679688e+00 -1.611776947975158691e-01 1.450186315923929214e-02 -4.400275275111198425e-02 -1.066745445132255554e-02
9.190000000000000000e+02 5.445286178588867188e+01 9.214678764343261719e+00 -2.643768209964036942e-03 9.071796375792473555e-05 -7.659150869585573673e-04 -1.527767442166805267e-02
9.200000000000000000e+02 3.003359985351562500e+01 -2.595373153686523438e+00 1.233971789479255676e-01 -7.968325018882751465e-01 -2.020305991172790527e-01 -3.677266240119934082e-01
9.210000000000000000e+02 2.518874549865722656e+01 -3.158951997756958008e+00 2.493022941052913666e-02 -2.431827187538146973e-01 -6.547574698925018311e-02 -2.684519588947296143e-01
9.220000000000000000e+02 3.866765975952148438e+01 -3.192677497863769531e+00 4.227389022707939148e-02 -3.027598261833190918e-01 -7.814577966928482056e-02 -2.424809038639068604e-01
9.230000000000000000e+02 3.989392471313476562e+01 -1.977809786796569824e+00 -8.209350705146789551e-01 -7.849162817001342773e-01 -4.817554056644439697e-01 -2.413881011307239532e-02
9.240000000000000000e+02 6.204936599731445312e+01 -4.133004188537597656e+00 1.851402282714843750e+00 7.263306617736816406e+00 2.734412670135498047e+00 1.310172200202941895e+00
9.250000000000000000e+02 5.978163146972656250e+01 -4.190557956695556641e+00 1.219250679016113281e+00 3.561866283416748047e+00 1.434335112571716309e+00 7.910195589065551758e-01
9.260000000000000000e+02 6.983667755126953125e+01 -4.378622055053710938e+00 -1.726101160049438477e+00 3.534869670867919922e+00 5.426305532455444336e-01 -1.436419367790222168e+00
9.270000000000000000e+02 7.192202758789062500e+01 -4.589571952819824219e+00 -1.504358291625976562e+00 5.691792011260986328e+00 1.256230115890502930e+00 -1.260993957519531250e+00
9.280000000000000000e+02 7.369345092773437500e+01 -5.823969841003417969e+00 -1.324921250343322754e-01 7.142395496368408203e+00 2.102971076965332031e+00 1.603205054998397827e-01
9.290000000000000000e+02 7.319521903991699219e+00 -9.576726913452148438e+00 -3.589412569999694824e-02 -1.373173482716083527e-02 -1.488775759935379028e-02 -1.620820164680480957e-02
9.300000000000000000e+02 1.234772586822509766e+01 -1.047260379791259766e+01 -9.554301202297210693e-02 -1.502284407615661621e-02 -3.316975757479667664e-02 -4.430647194385528564e-02
9.310000000000000000e+02 8.539587020874023438e+00 -1.279330825805664062e+01 -6.230294331908226013e-02 -2.963446266949176788e-02 -2.758122235536575317e-02 -5.867333337664604187e-02
9.320000000000000000e+02 1.735820770263671875e+01 -8.935034751892089844e+00 -1.813099235296249390e-01 1.583110913634300232e-02 -4.964364692568778992e-02 5.754641722887754440e-03
9.330000000000000000e+02 2.643829727172851562e+01 -1.396143436431884766e+01 -6.368074566125869751e-02 -4.540288448333740234e-01 -1.553128808736801147e-01 4.888129979372024536e-02
9.340000000000000000e+02 2.479183959960937500e+01 -1.314746665954589844e+01 -1.138018593192100525e-01 -6.295602917671203613e-01 -2.230086475610733032e-01 -1.041189208626747131e-01
9.350000000000000000e+02 1.731657981872558594e+01 -7.401468753814697266e+00 -7.684300094842910767e-02 1.399103738367557526e-02 -1.885558851063251495e-02 1.423182804137468338e-02
9.360000000000000000e+02 8.071974754333496094e+00 -5.548463821411132812e+00 -8.979941718280315399e-03 -1.147301215678453445e-02 -6.135886069387197495e-03 -8.579489076510071754e-04
9.370000000000000000e+02 1.193374729156494141e+01 -6.113992214202880859e+00 -2.473925799131393433e-02 -4.727826453745365143e-03 -8.840125054121017456e-03 4.335125908255577087e-03
9.380000000000000000e+02 8.806030273437500000e+00 -1.805447936058044434e+00 1.877288520336151123e-02 -7.151726633310317993e-03 3.486347617581486702e-03 2.700551412999629974e-03
9.390000000000000000e+02 8.708312988281250000e+00 -1.584305572509765625e+01 -5.995293706655502319e-02 -6.365697830915451050e-02 -3.708297386765480042e-02 -1.010134443640708923e-01
9.400000000000000000e+02 1.634113693237304688e+01 -1.414988899230957031e+01 -1.875173449516296387e-01 -6.778123229742050171e-02 -7.658957690000534058e-02 -1.833715289831161499e-01
9.410000000000000000e+02 2.293593788146972656e+01 -1.520805644989013672e+01 -1.591988801956176758e-01 -3.558893203735351562e-01 -1.545264571905136108e-01 -2.781543731689453125e-01
9.420000000000000000e+02 2.963957405090332031e+01 -1.456996536254882812e+01 -1.936646848917007446e-01 -6.398407858796417713e-04 -5.829135701060295105e-02 1.165546402335166931e-01
9.430000000000000000e+02 4.741737365722656250e+00 -2.159064102172851562e+01 -8.899549953639507294e-03 -1.307507455348968506e-01 -4.189508780837059021e-02 -8.379530161619186401e-02
9.440000000000000000e+02 1.290887546539306641e+01 -1.837721443176269531e+01 -8.560174703598022461e-02 -9.990262240171432495e-02 -5.565131083130836487e-02 -1.831293255090713501e-01
9.450000000000000000e+02 1.711709785461425781e+01 -1.722844123840332031e+01 -1.260591000318527222e-01 -1.251796036958694458e-01 -7.537160813808441162e-02 -2.291699945926666260e-01
9.460000000000000000e+02 2.496542167663574219e+01 -2.153577041625976562e+01 -2.631446346640586853e-02 -1.661695390939712524e-01 -5.774519965052604675e-02 -1.716987937688827515e-01
9.470000000000000000e+02 2.080921363830566406e+01 -1.881564521789550781e+01 -4.958679899573326111e-02 -2.488562315702438354e-01 -8.953291177749633789e-02 -2.521880865097045898e-01
9.480000000000000000e+02 3.048352622985839844e+01 -1.821269798278808594e+01 -2.178436219692230225e-01 7.594142854213714600e-02 -4.257065802812576294e-02 -3.773701190948486328e-02
9.490000000000000000e+02 3.396709060668945312e+01 -1.679092979431152344e+01 -3.753938674926757812e-01 2.943697273731231689e-01 -2.430723980069160461e-02 -1.130964085459709167e-01
9.500000000000000000e+02 6.110400772094726562e+01 -1.801128196716308594e+01 -5.171977281570434570e-01 3.395776987075805664e+00 8.635737895965576172e-01 -3.204989433288574219e-01
9.510000000000000000e+02 7.548288726806640625e+01 -1.537693309783935547e+01 2.114931344985961914e-01 8.789007186889648438e+00 2.700150012969970703e+00 -7.512912750244140625e-01
9.520000000000000000e+02 7.391700744628906250e+01 -1.203222656250000000e+01 1.074397325515747070e+00 1.039401435852050781e+01 3.440523624420166016e+00 2.313969731330871582e-01
9.530000000000000000e+02 7.357955932617187500e+01 -1.079516887664794922e+01 1.306864380836486816e+00 1.094860458374023438e+01 3.676640748977661133e+00 -2.242164015769958496e-01
9.540000000000000000e+02 7.610664367675781250e+01 -1.114421463012695312e+01 9.267159700393676758e-01 8.729566574096679688e+00 2.896884679794311523e+00 3.191764354705810547e-01
9.550000000000000000e+02 7.211764526367187500e+01 -9.974300384521484375e+00 1.291427850723266602e+00 1.300574111938476562e+01 4.289150714874267578e+00 -1.779349684715270996e+00
9.560000000000000000e+02 5.694987487792968750e+01 -1.423840522766113281e+01 -2.140692621469497681e-01 3.728380680084228516e+00 1.054293394088745117e+00 5.473282337188720703e-01
9.570000000000000000e+02 7.395188140869140625e+01 -1.748821449279785156e+01 -1.018797278404235840e+00 7.963442802429199219e+00 2.083393573760986328e+00 7.744225114583969116e-02
9.580000000000000000e+02 1.031260967254638672e+01 -2.551597404479980469e+01 9.987546131014823914e-03 -1.824738085269927979e-01 -5.174588039517402649e-02 -1.597220748662948608e-01
9.590000000000000000e+02 6.740926742553710938e+00 -2.270649337768554688e+01 -4.533625207841396332e-03 -1.485375314950942993e-01 -4.592134803533554077e-02 -1.197912991046905518e-01
9.600000000000000000e+02 1.480043792724609375e+01 -2.318284797668457031e+01 2.365331863984465599e-03 -1.713210940361022949e-01 -5.068672820925712585e-02 -2.022351771593093872e-01
9.610000000000000000e+02 2.157868957519531250e+01 -2.419914054870605469e+01 3.661502897739410400e-02 -1.891456991434097290e-01 -4.575920104980468750e-02 -2.228151261806488037e-01
9.620000000000000000e+02 3.222768020629882812e+01 -2.207470512390136719e+01 -1.692494899034500122e-01 4.932346194982528687e-02 -3.597781062126159668e-02 -2.468491345643997192e-01
9.630000000000000000e+02 4.130144500732421875e+01 -2.128934860229492188e+01 -1.885922551155090332e-01 -8.614750951528549194e-02 -8.242192864418029785e-02 -2.284326553344726562e-01
9.640000000000000000e+02 6.068909454345703125e+01 -1.994305419921875000e+01 -3.562427461147308350e-01 3.282555818557739258e+00 8.778939247131347656e-01 -4.579266309738159180e-01
9.650000000000000000e+02 6.465113067626953125e+01 -2.086201858520507812e+01 -1.717316061258316040e-01 2.753528594970703125e+00 7.745391130447387695e-01 -4.318420290946960449e-01
9.660000000000000000e+02 7.553060150146484375e+01 -2.012638282775878906e+01 -4.889039993286132812e-01 7.822649955749511719e+00 2.200123786926269531e+00 4.109745323657989502e-01
9.670000000000000000e+02 7.633862972259521484e+00 -2.790762519836425781e+01 1.080008130520582199e-02 -2.074262648820877075e-01 -5.898785591125488281e-02 -1.195162013173103333e-01
9.680000000000000000e+02 2.647092056274414062e+01 -2.752418899536132812e+01 1.150936931371688843e-01 -1.288328617811203003e-01 -4.121751990169286728e-03 -2.007504999637603760e-01
9.690000000000000000e+02 3.059139251708984375e+01 -2.520217132568359375e+01 2.079982496798038483e-02 -4.990557208657264709e-02 -8.731724694371223450e-03 -2.498815059661865234e-01
9.700000000000000000e+02 3.466015243530273438e+01 -2.371209335327148438e+01 -7.799181342124938965e-02 3.662507282570004463e-03 -2.229879237711429596e-02 -3.491578102111816406e-01
9.710000000000000000e+02 4.312749099731445312e+01 -2.273493957519531250e+01 -1.427823305130004883e-01 1.317481398582458496e-01 -3.310255473479628563e-03 -1.242594048380851746e-01
9.720000000000000000e+02 6.471734619140625000e+01 -2.528967475891113281e+01 2.515290379524230957e-01 3.153833866119384766e+00 1.021608829498291016e+00 2.741652540862560272e-02
9.730000000000000000e+02 6.789269256591796875e+01 -2.693314743041992188e+01 4.244376122951507568e-01 3.922924280166625977e+00 1.304208517074584961e+00 4.069536030292510986e-01
9.740000000000000000e+02 6.957627105712890625e+01 -2.413041687011718750e+01 3.284545242786407471e-01 4.051898479461669922e+00 1.314105987548828125e+00 7.142508029937744141e-01
9.750000000000000000e+02 7.475033569335937500e+01 -2.600806617736816406e+01 9.479760378599166870e-02 6.476806640625000000e+00 1.971481323242187500e+00 6.893773078918457031e-01
9.760000000000000000e+02 2.314050436019897461e+00 -2.292084693908691406e+01 -7.248267065733671188e-03 -1.420715898275375366e-01 -4.479595646262168884e-02 -4.828585684299468994e-02
9.770000000000000000e+02 8.574645042419433594e+00 -3.277098083496093750e+01 3.933265805244445801e-02 -2.473590523004531860e-01 -6.240791454911231995e-02 -1.030553355813026428e-01
9.780000000000000000e+02 5.362368106842041016e+00 -3.263648223876953125e+01 1.911942474544048309e-02 -2.715509235858917236e-01 -7.572944462299346924e-02 -7.494158297777175903e-02
9.790000000000000000e+02 1.391279315948486328e+01 -2.892009925842285156e+01 6.004767864942550659e-02 -2.106585651636123657e-01 -4.518326744437217712e-02 -1.609512716531753540e-01
9.800000000000000000e+02 1.713095474243164062e+01 -2.915818595886230469e+01 9.575690329074859619e-02 -2.145986557006835938e-01 -3.565252572298049927e-02 -1.868746131658554077e-01
9.810000000000000000e+02 2.253404045104980469e+01 -3.476255416870117188e+01 2.291462570428848267e-01 -2.015607208013534546e-01 8.275659754872322083e-03 -1.270997673273086548e-01
9.820000000000000000e+02 2.951686477661132812e+01 -2.899899673461914062e+01 1.702280193567276001e-01 -8.828185498714447021e-02 2.458385005593299866e-02 -2.188405990600585938e-01
9.830000000000000000e+02 4.136260604858398438e+01 -2.745526313781738281e+01 2.488392144441604614e-01 1.517596393823623657e-01 1.201796531677246094e-01 -1.817322820425033569e-01
9.840000000000000000e+02 4.423125839233398438e+01 -2.836274337768554688e+01 3.209408819675445557e-01 3.716676831245422363e-01 2.077825665473937988e-01 -1.292989850044250488e-01
9.850000000000000000e+02 5.581943511962890625e+01 -2.896790885925292969e+01 2.659638524055480957e-01 1.918771624565124512e+00 6.554206609725952148e-01 1.547772288322448730e-01
9.860000000000000000e+02 5.844588470458984375e+01 -2.954299926757812500e+01 2.793658971786499023e-01 2.448788642883300781e+00 8.184463977813720703e-01 1.143238767981529236e-01
9.870000000000000000e+02 6.172930908203125000e+01 -2.775406837463378906e+01 2.316307276487350464e-01 2.955837011337280273e+00 9.562402963638305664e-01 1.485729310661554337e-02
9.880000000000000000e+02 6.937150573730468750e+01 -2.773514175415039062e+01 3.756470084190368652e-01 4.368754863739013672e+00 1.423320531845092773e+00 5.190008878707885742e-01
9.890000000000000000e+02 7.419103240966796875e+01 -2.741268157958984375e+01 1.171952784061431885e-01 6.185407161712646484e+00 1.890780687332153320e+00 6.284767985343933105e-01
9.900000000000000000e+02 2.517681837081909180e+00 -2.890680503845214844e+01 -1.206385088153183460e-03 -2.515158653259277344e-01 -7.581667602062225342e-02 -4.643544927239418030e-02
9.910000000000000000e+02 7.801588439941406250e+01 -2.921586036682128906e+01 3.807014971971511841e-02 7.460153579711914062e+00 2.249467134475708008e+00 2.864678502082824707e-01
9.920000000000000000e+02 2.622274160385131836e+00 -3.327144241333007812e+01 1.032232586294412613e-02 -3.144191801548004150e-01 -9.122905135154724121e-02 -3.829093649983406067e-02
9.930000000000000000e+02 6.162071990966796875e+01 -3.312636947631835938e+01 4.583078920841217041e-01 2.969075202941894531e+00 1.028214931488037109e+00 1.192331910133361816e-01
9.940000000000000000e+02 6.519415283203125000e+01 -3.142145538330078125e+01 4.237226843833923340e-01 3.633467674255371094e+00 1.217157125473022461e+00 2.191654294729232788e-01
9.950000000000000000e+02 7.215792846679687500e+01 -3.223220062255859375e+01 2.744500041007995605e-01 5.350168704986572266e+00 1.687385678291320801e+00 4.360659122467041016e-01
9.960000000000000000e+02 7.597027587890625000e+01 -3.107518577575683594e+01 1.027401536703109741e-01 6.649789333343505859e+00 2.025758743286132812e+00 4.034446179866790771e-01
9.970000000000000000e+02 2.504471063613891602e+00 -3.033934211730957031e+01 6.981030572205781937e-03 -2.740057110786437988e-01 -8.010740578174591064e-02 -4.651914164423942566e-02
9.980000000000000000e+02 9.200875282287597656e+00 -3.808222198486328125e+01 5.944606289267539978e-02 -2.791574895381927490e-01 -6.591343134641647339e-02 -4.842408001422882080e-02
9.990000000000000000e+02 7.487406158447265625e+01 -3.487520980834960938e+01 9.787779301404953003e-02 6.126158237457275391e+00 1.867210745811462402e+00 2.786013782024383545e-01
1.000000000000000000e+03 2.633334875106811523e+00 -3.469435501098632812e+01 4.426187369972467422e-03 -3.346256315708160400e-01 -9.905983507633209229e-02 -2.773157879710197449e-02
1.001000000000000000e+03 6.091133880615234375e+01 -3.854896926879882812e+01 5.501589179039001465e-01 2.867409706115722656e+00 1.025270581245422363e+00 8.733006566762924194e-02
1.002000000000000000e+03 7.393193054199218750e+01 -1.476772212982177734e+01 1.450688481330871582e+00 9.038186073303222656e+00 3.146662473678588867e+00 -3.661268055438995361e-01
1.003000000000000000e+03 7.338803100585937500e+01 -7.015609264373779297e+00 1.978170424699783325e-01 7.910891532897949219e+00 2.432612419128417969e+00 -8.550807833671569824e-03
1.004000000000000000e+03 5.781241989135742188e+01 -7.399034500122070312e+00 7.034558057785034180e-01 2.319634437561035156e+00 9.069271087646484375e-01 8.212570548057556152e-01
1.005000000000000000e+03 5.689826965332031250e+01 -6.441960811614990234e+00 9.290325045585632324e-01 1.245364665985107422e+00 6.523191928863525391e-01 4.335773289203643799e-01
1.006000000000000000e+03 7.120622253417968750e+01 1.048223304748535156e+01 4.461976051330566406e+00 2.514096260070800781e+00 2.092821598052978516e+00 1.761420726776123047e+00
1.007000000000000000e+03 7.035836029052734375e+01 1.235208892822265625e+01 2.988579034805297852e+00 7.585275173187255859e+00 3.172156333923339844e+00 3.568571329116821289e+00
1.008000000000000000e+03 6.787750244140625000e+01 1.178590297698974609e+01 3.942971527576446533e-01 1.834566116333007812e+01 5.621987342834472656e+00 5.765649080276489258e-01
1.009000000000000000e+03 7.578174591064453125e+01 1.497716331481933594e+01 2.839933633804321289e-01 6.391565799713134766e+00 2.002667665481567383e+00 3.629115819931030273e-01
1.010000000000000000e+03 7.557225036621093750e+01 1.175952529907226562e+01 3.034877479076385498e-01 7.077844619750976562e+00 2.214399814605712891e+00 -1.161809921264648438e+00
1.011000000000000000e+03 7.014839935302734375e+01 1.371845722198486328e+01 9.835696816444396973e-01 8.790258407592773438e+00 2.932148218154907227e+00 2.306867361068725586e+00
1.012000000000000000e+03 7.217848968505859375e+01 1.569893455505371094e+01 3.102199137210845947e-01 7.164992332458496094e+00 2.242563724517822266e+00 1.114454388618469238e+00
1.013000000000000000e+03 6.796518707275390625e+01 1.942152404785156250e+01 -9.353155493736267090e-01 6.404084682464599609e+00 1.640630722045898438e+00 -8.006238937377929688e-01
1.014000000000000000e+03 6.306771087646484375e+01 2.248553276062011719e+01 -1.500179916620254517e-01 3.411573886871337891e+00 9.784668087959289551e-01 -1.060530424118041992e+00
1.015000000000000000e+03 5.994542312622070312e+01 2.587901878356933594e+01 1.544556021690368652e-01 2.342414140701293945e+00 7.490609288215637207e-01 -6.909093260765075684e-01
1.016000000000000000e+03 5.837312698364257812e+01 2.447322082519531250e+01 1.239716410636901855e-01 1.770773410797119141e+00 5.684235095977783203e-01 -5.965594053268432617e-01
1.017000000000000000e+03 6.111382293701171875e+01 2.154989242553710938e+01 -1.805519126355648041e-02 2.260392904281616211e+00 6.727013587951660156e-01 -9.634909629821777344e-01
1.018000000000000000e+03 6.263412094116210938e+01 1.730521011352539062e+01 -1.296049654483795166e-01 2.035443782806396484e+00 5.717516541481018066e-01 -1.669782638549804688e+00
1.019000000000000000e+03 6.705719757080078125e+01 1.641286849975585938e+01 -1.150043129920959473e+00 7.375831604003906250e+00 1.867736577987670898e+00 -1.448314666748046875e+00
1.020000000000000000e+03 6.373039627075195312e+01 1.378587245941162109e+01 -4.103498756885528564e-01 1.070428609848022461e+00 1.980236023664474487e-01 -1.726440072059631348e+00
1.021000000000000000e+03 6.280685043334960938e+01 1.551076030731201172e+01 -2.206797301769256592e-01 1.101089000701904297e+00 2.641227841377258301e-01 -1.849826335906982422e+00
1.022000000000000000e+03 5.961314773559570312e+01 1.888128089904785156e+01 -2.294865846633911133e-01 1.399221897125244141e+00 3.509205877780914307e-01 -5.976226925849914551e-01
1.023000000000000000e+03 6.101282119750976562e+01 1.721603393554687500e+01 -2.485665678977966309e-01 1.212479114532470703e+00 2.891737818717956543e-01 -8.701477646827697754e-01
1.024000000000000000e+03 6.107678222656250000e+01 1.556908893585205078e+01 -6.011312603950500488e-01 5.732654929161071777e-01 -8.359736762940883636e-03 -6.779816150665283203e-01
1.025000000000000000e+03 6.135140991210937500e+01 1.314230728149414062e+01 -2.459990501403808594e+00 -4.740431606769561768e-01 -8.802101016044616699e-01 -1.220541954040527344e+00
1.026000000000000000e+03 5.955839157104492188e+01 1.237000370025634766e+01 -1.449987530708312988e+00 -8.730795234441757202e-03 -4.376155138015747070e-01 -5.239598751068115234e-01
1.027000000000000000e+03 5.789265441894531250e+01 1.510716724395751953e+01 -1.102866888046264648e+00 5.897053480148315430e-01 -1.539484560489654541e-01 2.634844370186328888e-02
1.028000000000000000e+03 5.214946365356445312e+01 1.562153720855712891e+01 -1.792220592498779297e+00 1.286114007234573364e-01 -4.990827739238739014e-01 5.254842638969421387e-01
1.029000000000000000e+03 5.068643951416015625e+01 1.690865135192871094e+01 -1.408274531364440918e+00 -2.872750461101531982e-01 -5.086649060249328613e-01 -1.632186025381088257e-01
1.030000000000000000e+03 4.674161529541015625e+01 1.663647460937500000e+01 -1.666473746299743652e+00 -2.115600854158401489e-01 -5.634101629257202148e-01 5.747020840644836426e-01
1.031000000000000000e+03 4.406457901000976562e+01 1.614833259582519531e+01 -1.362144470214843750e+00 2.315162271261215210e-01 -3.391884863376617432e-01 1.324113309383392334e-01
1.032000000000000000e+03 4.872161865234375000e+01 1.643268394470214844e+01 -2.409658908843994141e+00 -9.514109492301940918e-01 -1.008321046829223633e+00 3.760411143302917480e-01
1.033000000000000000e+03 7.605053710937500000e+01 1.753295707702636719e+01 1.287391502410173416e-02 6.649666309356689453e+00 1.998762011528015137e+00 5.497041344642639160e-01
1.034000000000000000e+03 7.244576263427734375e+01 1.714302444458007812e+01 -9.800769388675689697e-02 7.211363315582275391e+00 2.134006738662719727e+00 8.410120606422424316e-01
1.035000000000000000e+03 6.416546630859375000e+01 1.939625167846679688e+01 -4.119370281696319580e-01 3.846780538558959961e+00 1.030453085899353027e+00 -1.594946146011352539e+00
1.036000000000000000e+03 6.298271179199218750e+01 2.012096023559570312e+01 -2.516447305679321289e-01 3.086950302124023438e+00 8.505916595458984375e-01 -1.350161552429199219e+00
1.037000000000000000e+03 5.786330032348632812e+01 1.910593795776367188e+01 -4.091673195362091064e-01 9.642264842987060547e-01 1.665177494287490845e-01 -3.349961340427398682e-01
1.038000000000000000e+03 5.313619995117187500e+01 1.866241455078125000e+01 -9.008966088294982910e-01 3.171629607677459717e-01 -1.751201003789901733e-01 -7.429899275302886963e-02
1.039000000000000000e+03 5.272987365722656250e+01 2.011121749877929688e+01 -4.779753983020782471e-01 2.097326964139938354e-01 -8.047281205654144287e-02 -6.386755406856536865e-02
1.040000000000000000e+03 4.575886535644531250e+01 2.018752288818359375e+01 -6.140379905700683594e-01 -1.529151499271392822e-01 -2.300859391689300537e-01 4.761916995048522949e-01
1.041000000000000000e+03 4.376642227172851562e+01 1.814717483520507812e+01 -9.699867367744445801e-01 8.357217907905578613e-02 -2.659243643283843994e-01 3.398041427135467529e-01
1.042000000000000000e+03 5.006763076782226562e+01 2.054596519470214844e+01 -4.164400398731231689e-01 -1.868044734001159668e-01 -1.809733510017395020e-01 1.006175130605697632e-01
1.043000000000000000e+03 3.553330612182617188e+01 1.821243286132812500e+01 -5.228412151336669922e-01 -7.160516083240509033e-02 -1.783339083194732666e-01 2.279126644134521484e-01
1.044000000000000000e+03 3.282513427734375000e+01 1.603498458862304688e+01 -6.355673670768737793e-01 -9.147354960441589355e-02 -2.181122601032257080e-01 2.542296946048736572e-01
1.045000000000000000e+03 2.905891418457031250e+01 1.646371650695800781e+01 -4.193610846996307373e-01 3.465778753161430359e-02 -1.154109910130500793e-01 1.980255097150802612e-01
1.046000000000000000e+03 7.556570434570312500e+01 2.233076095581054688e+01 -2.380548268556594849e-01 6.852813243865966797e+00 1.984427452087402344e+00 3.258995115756988525e-01
1.047000000000000000e+03 5.764949417114257812e+01 2.276083183288574219e+01 1.926711387932300568e-02 1.383504152297973633e+00 4.208313524723052979e-01 -4.901825487613677979e-01
1.048000000000000000e+03 5.338710021972656250e+01 2.332508850097656250e+01 -3.540946869179606438e-03 5.284590721130371094e-01 1.574754267930984497e-01 -1.877515912055969238e-01
1.049000000000000000e+03 5.104233551025390625e+01 2.238076782226562500e+01 -1.769256889820098877e-01 1.161440238356590271e-01 -1.823449693620204926e-02 8.037035353481769562e-03
1.050000000000000000e+03 4.415436172485351562e+01 2.346192741394042969e+01 -1.894690990447998047e-01 -4.136521369218826294e-02 -6.925029307603836060e-02 4.148830175399780273e-01
1.051000000000000000e+03 4.350867080688476562e+01 2.551018524169921875e+01 3.179990127682685852e-02 -3.183479188010096550e-03 8.584926836192607880e-03 3.763874471187591553e-01
1.052000000000000000e+03 4.738570785522460938e+01 2.219413757324218750e+01 -2.509768307209014893e-01 -1.294610500335693359e-01 -1.141313612461090088e-01 3.566191494464874268e-01
1.053000000000000000e+03 4.765611648559570312e+01 2.385623550415039062e+01 -3.107076138257980347e-02 -3.953154012560844421e-02 -2.118069119751453400e-02 2.817171216011047363e-01
1.054000000000000000e+03 4.012477493286132812e+01 2.033109092712402344e+01 -5.219711661338806152e-01 6.168792769312858582e-02 -1.380849778652191162e-01 3.407642245292663574e-01
1.055000000000000000e+03 3.222074890136718750e+01 2.313972282409667969e+01 -1.945133954286575317e-01 -7.982858270406723022e-02 -8.230259269475936890e-02 2.934075891971588135e-01
1.056000000000000000e+03 2.637392997741699219e+01 2.042174720764160156e+01 -2.827852666378021240e-01 -6.854705512523651123e-02 -1.053996980190277100e-01 1.745740026235580444e-01
1.057000000000000000e+03 2.244864273071289062e+01 2.023151779174804688e+01 -1.974381655454635620e-01 -8.658482879400253296e-02 -8.520689606666564941e-02 1.718849688768386841e-01
1.058000000000000000e+03 1.835484695434570312e+01 1.854758453369140625e+01 -1.598515361547470093e-01 2.234834805130958557e-02 -4.125095531344413757e-02 7.070024311542510986e-02
1.059000000000000000e+03 1.760637092590332031e+01 2.175438880920410156e+01 -1.247556135058403015e-01 -2.554044872522354126e-02 -4.508881643414497375e-02 1.432082802057266235e-01
1.060000000000000000e+03 1.143473434448242188e+01 1.969859123229980469e+01 -5.295657739043235779e-02 -8.735764771699905396e-03 -1.850770227611064911e-02 4.987789690494537354e-02
1.061000000000000000e+03 6.243020296096801758e-01 2.058092689514160156e+01 -6.150056142359972000e-04 -2.398587577044963837e-02 -7.380264345556497574e-03 2.516754437237977982e-03
1.062000000000000000e+03 7.531357574462890625e+01 2.480825042724609375e+01 -1.691072434186935425e-01 6.756961345672607422e+00 1.976356267929077148e+00 1.319536566734313965e-01
1.063000000000000000e+03 7.125011444091796875e+01 2.299488830566406250e+01 -5.391946434974670410e-01 6.389043807983398438e+00 1.754954814910888672e+00 -1.024981960654258728e-01
1.064000000000000000e+03 6.864668273925781250e+01 2.591756057739257812e+01 -3.402445912361145020e-01 5.356051445007324219e+00 1.504742026329040527e+00 -4.777107536792755127e-01
1.065000000000000000e+03 6.293023300170898438e+01 2.550289726257324219e+01 -4.185778275132179260e-02 3.336315155029296875e+00 9.883372187614440918e-01 -8.540347814559936523e-01
1.066000000000000000e+03 4.335591888427734375e+01 2.929041862487792969e+01 3.276305794715881348e-01 3.426570072770118713e-02 1.085688844323158264e-01 2.883635163307189941e-01
1.067000000000000000e+03 4.557780838012695312e+01 2.842471122741699219e+01 3.312424123287200928e-01 1.043554693460464478e-01 1.306793540716171265e-01 2.581274807453155518e-01
1.068000000000000000e+03 3.980508041381835938e+01 2.174979209899902344e+01 -4.200048744678497314e-01 1.966483704745769501e-02 -1.201020181179046631e-01 3.535564839839935303e-01
1.069000000000000000e+03 3.197523880004882812e+01 2.502783203125000000e+01 -8.180322498083114624e-02 -1.054091379046440125e-01 -5.616370961070060730e-02 3.033386468887329102e-01
1.070000000000000000e+03 2.737021446228027344e+01 2.286866569519042969e+01 -1.715072691440582275e-01 -9.017548710107803345e-02 -7.850483059883117676e-02 2.272650450468063354e-01
1.071000000000000000e+03 2.475426673889160156e+01 2.403389167785644531e+01 -1.006837859749794006e-01 -1.117403730750083923e-01 -6.372724473476409912e-02 2.172979116439819336e-01
1.072000000000000000e+03 1.634182357788085938e+01 2.212986755371093750e+01 -1.022139117121696472e-01 -2.227974683046340942e-02 -3.734809905290603638e-02 1.232009604573249817e-01
1.073000000000000000e+03 1.191694450378417969e+01 2.316384696960449219e+01 -4.666898772120475769e-02 -3.558496385812759399e-02 -2.467618510127067566e-02 8.408454805612564087e-02
1.074000000000000000e+03 4.718123912811279297e+00 2.454179954528808594e+01 -8.270353078842163086e-03 -5.478272959589958191e-02 -1.891592517495155334e-02 3.484483063220977783e-02
1.075000000000000000e+03 6.486837863922119141e-01 2.340773773193359375e+01 -5.933228530921041965e-04 -4.053990170359611511e-02 -1.233996823430061340e-02 4.656961653381586075e-03
1.076000000000000000e+03 7.479928588867187500e+01 2.741818046569824219e+01 -1.736003905534744263e-01 6.563404560089111328e+00 1.916941165924072266e+00 -4.323737695813179016e-02
1.077000000000000000e+03 7.252877044677734375e+01 2.736119461059570312e+01 -2.358593344688415527e-01 6.147686481475830078e+00 1.773548126220703125e+00 -1.325889825820922852e-01
1.078000000000000000e+03 6.819635009765625000e+01 2.899943161010742188e+01 -1.059413552284240723e-01 4.957436561584472656e+00 1.455448508262634277e+00 -4.271553158760070801e-01
1.079000000000000000e+03 6.390435028076171875e+01 2.934236717224121094e+01 1.106967628002166748e-01 3.650373935699462891e+00 1.128321290016174316e+00 -6.221337318420410156e-01
1.080000000000000000e+03 6.032355880737304688e+01 2.917408561706542969e+01 2.880093157291412354e-01 2.592622280120849609e+00 8.641894459724426270e-01 -5.539073944091796875e-01
1.081000000000000000e+03 5.273274612426757812e+01 2.972439765930175781e+01 5.061294436454772949e-01 9.060100913047790527e-01 4.236418604850769043e-01 -1.392062157392501831e-01
1.082000000000000000e+03 4.806803894042968750e+01 2.997491073608398438e+01 4.801499843597412109e-01 3.910295069217681885e-01 2.613538503646850586e-01 1.030230596661567688e-01
1.083000000000000000e+03 4.618912124633789062e+01 3.076611709594726562e+01 4.973030388355255127e-01 2.634922266006469727e-01 2.282385826110839844e-01 1.707164645195007324e-01
1.084000000000000000e+03 4.887927627563476562e+01 3.176411056518554688e+01 5.646277070045471191e-01 5.165028572082519531e-01 3.243391811847686768e-01 3.664106503129005432e-02
1.085000000000000000e+03 3.785833358764648438e+01 2.922435951232910156e+01 2.234104126691818237e-01 -6.822522729635238647e-02 4.655555263161659241e-02 3.124027550220489502e-01
1.086000000000000000e+03 2.978103065490722656e+01 3.074580383300781250e+01 1.572981774806976318e-01 -1.649661064147949219e-01 -2.300377935171127319e-03 2.359832078218460083e-01
1.087000000000000000e+03 1.768248748779296875e+01 2.835255813598632812e+01 7.837210781872272491e-03 -1.083214133977890015e-01 -3.014526143670082092e-02 1.589206159114837646e-01
1.088000000000000000e+03 1.726912307739257812e+01 2.603139877319335938e+01 -3.746993094682693481e-02 -7.861538231372833252e-02 -3.482559323310852051e-02 1.537305861711502075e-01
1.089000000000000000e+03 1.306260967254638672e+01 2.786051559448242188e+01 -9.419836103916168213e-03 -8.266527950763702393e-02 -2.762553468346595764e-02 1.132596954703330994e-01
1.090000000000000000e+03 8.658959388732910156e+00 2.857387924194335938e+01 -2.224962925538420677e-03 -8.310707658529281616e-02 -2.559961192309856415e-02 7.593110203742980957e-02
1.091000000000000000e+03 5.179283618927001953e+00 2.750762176513671875e+01 -4.271534737199544907e-03 -7.584504783153533936e-02 -2.403497323393821716e-02 4.505048692226409912e-02
1.092000000000000000e+03 7.240042090415954590e-01 2.765865707397460938e+01 -3.285396669525653124e-04 -7.862959057092666626e-02 -2.368743903934955597e-02 7.402180694043636322e-03
1.093000000000000000e+03 7.609022521972656250e+01 3.053744125366210938e+01 -2.339176461100578308e-02 6.734105110168457031e+00 2.013214111328125000e+00 -7.279001921415328979e-02
1.094000000000000000e+03 6.451287078857421875e+01 3.130477905273437500e+01 1.513338983058929443e-01 3.816307306289672852e+00 1.190292358398437500e+00 -4.858654737472534180e-01
1.095000000000000000e+03 4.911170578002929688e+01 3.380064392089843750e+01 6.539084315299987793e-01 6.264243721961975098e-01 3.840998411178588867e-01 1.834238134324550629e-02
1.096000000000000000e+03 4.725621795654296875e+01 3.282034301757812500e+01 6.043401956558227539e-01 4.318915903568267822e-01 3.108695447444915771e-01 1.162295639514923096e-01
1.097000000000000000e+03 3.899570465087890625e+01 3.274937057495117188e+01 4.182399511337280273e-01 -4.430215433239936829e-02 1.121813431382179260e-01 2.427055984735488892e-01
1.098000000000000000e+03 7.272775173187255859e+00 3.074593734741210938e+01 7.752700243145227432e-03 -1.003784313797950745e-01 -2.778772078454494476e-02 6.154165789484977722e-02
1.099000000000000000e+03 5.357800960540771484e+00 2.908909606933593750e+01 2.452092885505408049e-04 -8.897788822650909424e-02 -2.661980316042900085e-02 4.897654429078102112e-02
1.100000000000000000e+03 7.224709391593933105e-01 3.049071884155273438e+01 3.895376721629872918e-05 -1.072168424725532532e-01 -3.215336799621582031e-02 7.357439026236534119e-03
1.101000000000000000e+03 7.307537841796875000e+01 3.371461868286132812e+01 -1.980365253984928131e-03 5.965742588043212891e+00 1.789128661155700684e+00 -2.075561136007308960e-01
1.102000000000000000e+03 6.939156341552734375e+01 3.506475067138671875e+01 1.056983023881912231e-01 5.072113037109375000e+00 1.553343415260314941e+00 -1.982884705066680908e-01
1.103000000000000000e+03 5.974308013916015625e+01 3.400878143310546875e+01 4.737556278705596924e-01 2.565265893936157227e+00 9.117064476013183594e-01 -3.141914904117584229e-01
1.104000000000000000e+03 4.847781658172607422e+00 3.385073089599609375e+01 9.329866617918014526e-03 -1.220572888851165771e-01 -3.381822630763053894e-02 3.684573248028755188e-02
1.105000000000000000e+03 6.208996772766113281e-01 3.466533660888671875e+01 5.606085178442299366e-04 -1.453741043806076050e-01 -4.344404861330986023e-02 4.854261875152587891e-03
1.106000000000000000e+03 7.659757995605468750e+01 3.809244537353515625e+01 -4.515046998858451843e-02 6.680265903472900391e+00 1.990534663200378418e+00 -6.030622497200965881e-02
1.107000000000000000e+03 7.227540588378906250e+01 3.662047576904296875e+01 6.766032427549362183e-02 5.740221500396728516e+00 1.742364525794982910e+00 -1.492151170969009399e-01
1.108000000000000000e+03 5.852415466308593750e+01 3.687159347534179688e+01 5.750936865806579590e-01 2.290525913238525391e+00 8.596858382225036621e-01 -1.985178589820861816e-01
1.109000000000000000e+03 7.706391215324401855e-01 3.734812545776367188e+01 2.522791910450905561e-04 -1.617134511470794678e-01 -4.843835160136222839e-02 2.955727279186248779e-03
1.110000000000000000e+03 3.306549072265625000e+00 1.459465122222900391e+01 -5.252718110568821430e-04 -1.575808227062225342e-02 -4.885005764663219452e-03 1.832563080824911594e-03
1.111000000000000000e+03 3.628546953201293945e+00 1.038030624389648438e+01 2.595823258161544800e-03 -1.194490678608417511e-02 -2.804725198075175285e-03 3.408599179238080978e-03
1.112000000000000000e+03 7.785048484802246094e+00 9.244004249572753906e+00 2.228065021336078644e-02 -7.308784406632184982e-03 4.491559695452451706e-03 1.045698020607233047e-02
1.113000000000000000e+03 1.044934749603271484e+01 9.866612434387207031e+00 1.802827417850494385e-02 2.020506188273429871e-02 1.147000119090080261e-02 1.265938393771648407e-02
1.114000000000000000e+03 7.225530147552490234e+00 1.301157188415527344e+01 1.285850186832249165e-03 -8.899543434381484985e-03 -2.284107962623238564e-03 4.460332449525594711e-03
1.115000000000000000e+03 1.213807582855224609e+01 1.353625583648681641e+01 -2.650093752890825272e-03 1.144250854849815369e-02 2.637724392116069794e-03 1.054154708981513977e-02
1.116000000000000000e+03 5.882980823516845703e+00 8.998285293579101562e+00 5.698683671653270721e-03 -1.094615086913108826e-02 -1.574240159243345261e-03 1.016909629106521606e-02
1.117000000000000000e+03 2.235848999023437500e+01 1.022873783111572266e+01 1.530493516474962234e-02 3.741016983985900879e-02 1.581453159451484680e-02 2.177607454359531403e-02
1.118000000000000000e+03 6.240882492065429688e+01 -9.699953079223632812e+00 1.386655122041702271e-02 5.855887413024902344e+00 1.760926246643066406e+00 3.320640623569488525e-01
1.119000000000000000e+03 6.111050415039062500e+01 -9.735633850097656250e+00 1.323670893907546997e-01 5.288364410400390625e+00 1.626219511032104492e+00 1.187072157859802246e+00
1.120000000000000000e+03 4.716363906860351562e+01 -1.222886276245117188e+01 2.771097123622894287e-01 7.363135218620300293e-01 3.040269613265991211e-01 -5.347020626068115234e-01
1.121000000000000000e+03 4.503774642944335938e+01 -1.658129501342773438e+01 -6.740434765815734863e-01 3.323050737380981445e-01 -1.025215163826942444e-01 -1.294704824686050415e-01
1.122000000000000000e+03 4.268146514892578125e+01 -1.602389144897460938e+01 -8.787323832511901855e-01 4.160300828516483307e-03 -2.623716294765472412e-01 -2.125601619482040405e-01
1.123000000000000000e+03 4.259607696533203125e+01 -1.476079940795898438e+01 -5.117253661155700684e-01 -3.843706846237182617e-01 -2.688288092613220215e-01 -4.936452209949493408e-01
1.124000000000000000e+03 4.288446807861328125e+01 -1.366572761535644531e+01 -8.031514473259449005e-03 -2.288448214530944824e-01 -7.106290012598037720e-02 -2.770259678363800049e-01
1.125000000000000000e+03 4.577818298339843750e+01 -9.726971626281738281e+00 2.155032157897949219e-01 6.695423722267150879e-01 2.655136883258819580e-01 -4.258188605308532715e-01
1.126000000000000000e+03 3.913097381591796875e+01 -8.660907745361328125e+00 2.947885692119598389e-01 3.725855350494384766e-01 2.002122253179550171e-01 -3.226903378963470459e-01
1.127000000000000000e+03 4.279507827758789062e+01 -5.323489189147949219e+00 2.288318723440170288e-01 -1.454937011003494263e-01 2.500144951045513153e-02 3.037292324006557465e-02
1.128000000000000000e+03 6.489080047607421875e+01 8.445527076721191406e+00 1.388708710670471191e+00 1.574434638023376465e+00 8.889430165290832520e-01 1.315435409545898438e+00
1.129000000000000000e+03 6.377038955688476562e+01 6.785525321960449219e+00 8.274140357971191406e-01 1.290837883949279785e+00 6.354755759239196777e-01 9.857245683670043945e-01
1.130000000000000000e+03 6.219095611572265625e+01 4.458235740661621094e+00 9.475749135017395020e-01 1.667354822158813477e+00 7.844789028167724609e-01 1.330387949943542480e+00
1.131000000000000000e+03 5.663591003417968750e+01 8.788188934326171875e+00 1.294066011905670166e-02 1.033219788223505020e-02 6.981857586652040482e-03 -7.519838400185108185e-03
1.132000000000000000e+03 5.519242858886718750e+01 9.107090950012207031e+00 -5.455371458083391190e-03 2.048829756677150726e-02 4.509877879172563553e-03 -6.617930717766284943e-03
1.133000000000000000e+03 5.302003479003906250e+01 9.353233337402343750e+00 3.435207065194845200e-03 -1.127054169774055481e-02 -2.350600203499197960e-03 -9.974454529583454132e-03
1.134000000000000000e+03 5.373874282836914062e+01 9.286048889160156250e+00 1.013610884547233582e-02 1.180761959403753281e-03 3.395061241462826729e-03 -1.481112372130155563e-02
1.135000000000000000e+03 5.230700302124023438e+01 9.433914184570312500e+00 2.180667780339717865e-02 -1.136011723428964615e-02 3.133968217298388481e-03 -5.122195929288864136e-03
1.136000000000000000e+03 5.129784011840820312e+01 9.594099044799804688e+00 2.122035436332225800e-02 -9.642140939831733704e-03 3.473464166745543480e-03 8.454251103103160858e-03
1.137000000000000000e+03 4.885037994384765625e+01 7.749803066253662109e+00 2.162479795515537262e-02 4.497270286083221436e-02 1.997924968600273132e-02 2.401091717183589935e-02
1.138000000000000000e+03 4.959349060058593750e+01 9.443291664123535156e+00 1.194902788847684860e-02 2.779310010373592377e-02 1.192263886332511902e-02 2.804822288453578949e-02
1.139000000000000000e+03 4.712039947509765625e+01 5.698379039764404297e+00 -8.971214294433593750e-02 2.974485419690608978e-02 -1.799018681049346924e-02 -2.560302987694740295e-02
1.140000000000000000e+03 4.436608123779296875e+01 2.505008697509765625e+00 -6.166068911552429199e-01 -2.456678301095962524e-01 -2.586823999881744385e-01 -4.112210273742675781e-01
1.141000000000000000e+03 3.957036209106445312e+01 7.106939792633056641e+00 2.645128406584262848e-02 9.437248110771179199e-03 1.076656021177768707e-02 -5.029376596212387085e-03
1.142000000000000000e+03 4.110079193115234375e+01 8.445841789245605469e+00 -8.387732319533824921e-03 -4.963542800396680832e-03 -4.005382768809795380e-03 1.340162358246743679e-03
1.143000000000000000e+03 3.974356079101562500e+01 8.922562599182128906e+00 -5.913261789828538895e-03 5.531747592613101006e-04 -1.608026097528636456e-03 2.006252063438296318e-03
1.144000000000000000e+03 3.920013809204101562e+01 8.211514472961425781e+00 1.278575696051120758e-02 3.212311305105686188e-03 4.799420479685068130e-03 -5.568971391767263412e-03
1.145000000000000000e+03 3.910485458374023438e+01 9.166563034057617188e+00 5.793896038085222244e-03 5.759564694017171860e-03 3.466038266196846962e-03 8.128878544084727764e-04
1.146000000000000000e+03 3.846964645385742188e+01 9.285264015197753906e+00 3.814081195741891861e-03 -3.692060708999633789e-03 3.660609581856988370e-05 -9.257964789867401123e-03
1.147000000000000000e+03 3.572811889648437500e+01 9.378421783447265625e+00 2.007896639406681061e-02 -4.223623778671026230e-03 4.756602924317121506e-03 -6.604463327676057816e-03
1.148000000000000000e+03 3.255760574340820312e+01 6.127143859863281250e+00 2.637502849102020264e-01 -2.112976461648941040e-02 7.278615981340408325e-02 1.024273410439491272e-01
1.149000000000000000e+03 2.927810287475585938e+01 3.066257476806640625e+00 5.529868006706237793e-01 -4.925557971000671387e-02 1.511193662881851196e-01 1.955113559961318970e-01
1.150000000000000000e+03 2.518939399719238281e+01 2.399302005767822266e+00 4.372326433658599854e-01 7.888539135456085205e-02 1.548354178667068481e-01 1.416076868772506714e-01
1.151000000000000000e+03 2.471663093566894531e+01 1.700014948844909668e+00 1.656290739774703979e-01 9.686779975891113281e-02 7.874906063079833984e-02 1.519074589014053345e-01
1.152000000000000000e+03 2.649798393249511719e+01 2.205239534378051758e+00 4.196313619613647461e-01 3.007921278476715088e-01 2.161270380020141602e-01 3.005862832069396973e-01
1.153000000000000000e+03 2.573867416381835938e+01 2.311952829360961914e+00 4.902616739273071289e-01 1.235532313585281372e-01 1.841444671154022217e-01 2.921505570411682129e-01
1.154000000000000000e+03 1.890327835083007812e+01 1.887521862983703613e+00 6.097621284425258636e-03 -2.430656459182500839e-03 1.100089517422020435e-03 4.967700224369764328e-03
1.155000000000000000e+03 1.828553390502929688e+01 2.640886068344116211e+00 5.705878604203462601e-03 -2.557341358624398708e-04 1.635043416172266006e-03 -5.108756944537162781e-03
1.156000000000000000e+03 1.887307739257812500e+01 2.346744060516357422e+00 -2.347046043723821640e-03 1.308728125877678394e-03 -3.114953869953751564e-04 -7.180967368185520172e-03
1.157000000000000000e+03 2.113116645812988281e+01 -9.942615032196044922e-02 9.529207600280642509e-04 1.196133345365524292e-02 3.874276299029588699e-03 8.811525069177150726e-03
1.158000000000000000e+03 2.207361030578613281e+01 -1.152442455291748047e+00 -7.164409384131431580e-03 7.782384008169174194e-02 2.119782939553260803e-02 -1.223385985940694809e-02
1.159000000000000000e+03 2.375242805480957031e+01 -3.377409219741821289e+00 5.635034292936325073e-02 2.021892219781875610e-01 7.756187021732330322e-02 -1.005028411746025085e-01
1.160000000000000000e+03 2.053484153747558594e+01 -7.551688194274902344e+00 -5.369636416435241699e-02 2.729975618422031403e-02 -7.918981835246086121e-03 8.005630224943161011e-03
1.161000000000000000e+03 1.758272933959960938e+01 -4.650925159454345703e+00 2.119845151901245117e-02 9.087660349905490875e-03 9.085833095014095306e-03 -3.543886169791221619e-02
1.162000000000000000e+03 1.336956596374511719e+01 -2.030490398406982422e+00 1.841108128428459167e-02 -1.306132227182388306e-02 1.604927587322890759e-03 -9.602835401892662048e-03
1.163000000000000000e+03 1.257394409179687500e+01 -2.004450559616088867e+00 1.548487134277820587e-02 3.361469134688377380e-03 5.653901956975460052e-03 -5.468408577144145966e-03
1.164000000000000000e+03 1.029573822021484375e+01 -1.854418873786926270e+00 1.818830519914627075e-02 -9.132601320743560791e-03 2.716711023822426796e-03 -7.525416440330445766e-04
1.165000000000000000e+03 1.164028358459472656e+01 -2.704997777938842773e+00 9.531978517770767212e-03 1.375241088680922985e-03 3.272165777161717415e-03 -7.322790916077792645e-04
1.166000000000000000e+03 8.711191177368164062e+00 -3.097068071365356445e+00 1.017128862440586090e-02 -9.638363495469093323e-03 1.598775270394980907e-04 3.036773065105080605e-03
1.167000000000000000e+03 7.382229804992675781e+00 -1.806826353073120117e+00 1.951132714748382568e-02 -4.691977053880691528e-03 4.445805214345455170e-03 5.116356536746025085e-03
1.168000000000000000e+03 6.835251331329345703e+00 -1.966595053672790527e+00 1.322306971997022629e-02 -1.516585471108555794e-03 3.511945484206080437e-03 2.203451003879308701e-03
1.169000000000000000e+03 5.552999496459960938e+00 -2.514319419860839844e+00 6.747970357537269592e-03 2.942963736131787300e-03 2.907280111685395241e-03 7.774186320602893829e-03
1.170000000000000000e+03 1.729851365089416504e+00 -4.514537811279296875e+00 1.886562560684978962e-03 9.469032287597656250e-03 3.406678326427936554e-03 8.622857742011547089e-03
1.171000000000000000e+03 1.138602018356323242e+00 -2.103868961334228516e+00 1.731392112560570240e-03 3.218958619982004166e-03 1.485105254687368870e-03 3.424468915909528732e-03
1.172000000000000000e+03 3.812797963619232178e-01 -2.178999900817871094e+00 -1.252182992175221443e-03 2.100976184010505676e-03 2.546379400882869959e-04 3.355319204274564981e-04
1.173000000000000000e+03 5.017198085784912109e+00 -4.011018371582031250e+01 1.785180903971195221e-02 -3.416300117969512939e-01 -9.713346511125564575e-02 -2.209867909550666809e-02
1.174000000000000000e+03 7.947108149528503418e-01 -3.871822738647460938e+01 -5.849610082805156708e-03 -3.937740921974182129e-01 -1.198871061205863953e-01 -3.102709306403994560e-03
1.175000000000000000e+03 8.706905841827392578e-01 -3.328844833374023438e+01 -1.220080885104835033e-03 -3.455013334751129150e-01 -1.040164306759834290e-01 -1.246216893196105957e-02
1.176000000000000000e+03 8.754236698150634766e-01 -3.186519622802734375e+01 3.917856607586145401e-03 -3.240293562412261963e-01 -9.603345394134521484e-02 -1.489688642323017120e-02
1.177000000000000000e+03 8.494585156440734863e-01 -2.900053405761718750e+01 4.217240028083324432e-03 -2.689658403396606445e-01 -7.942458242177963257e-02 -1.848939247429370880e-02
1.178000000000000000e+03 9.274826645851135254e-01 -2.610780334472656250e+01 3.852893598377704620e-03 -2.087291479110717773e-01 -6.146287545561790466e-02 -1.873834803700447083e-02
1.179000000000000000e+03 2.001660823822021484e+00 -2.159345054626464844e+01 2.607255941256880760e-03 -1.193042322993278503e-01 -3.500909358263015747e-02 -3.901152685284614563e-02
1.180000000000000000e+03 1.824218153953552246e+00 -1.897456169128417969e+01 1.753110555000603199e-03 -7.140583544969558716e-02 -2.089581824839115143e-02 -3.135588020086288452e-02
1.181000000000000000e+03 1.788945317268371582e+00 -1.217740249633789062e+01 -7.749636657536029816e-03 4.007583949714899063e-03 -1.122615765780210495e-03 -8.552749641239643097e-03
1.182000000000000000e+03 2.012829780578613281e+00 -6.694361209869384766e+00 -3.815241856500506401e-03 1.157584134489297867e-02 2.328179776668548584e-03 6.034966558218002319e-03
1.183000000000000000e+03 2.054782390594482422e+00 -2.982530117034912109e+00 2.363141858950257301e-03 5.305024795234203339e-03 2.300449879840016365e-03 7.676191627979278564e-03
1.184000000000000000e+03 7.598193359375000000e+01 4.028689575195312500e+01 3.339233621954917908e-02 6.743318080902099609e+00 2.033013105392456055e+00 5.412161350250244141e-02
1.185000000000000000e+03 7.886699676513671875e+01 3.880718231201171875e+01 -6.168461591005325317e-02 7.191675186157226562e+00 2.138997316360473633e+00 -6.258677691221237183e-02
1.186000000000000000e+03 7.912592315673828125e+01 3.499600219726562500e+01 -1.670812722295522690e-03 7.348748207092285156e+00 2.204123258590698242e+00 -6.526877172291278839e-03
1.187000000000000000e+03 7.922013092041015625e+01 2.926494789123535156e+01 -1.465849298983812332e-02 7.476271629333496094e+00 2.238483905792236328e+00 -9.734046761877834797e-04
1.188000000000000000e+03 7.776397705078125000e+01 2.784110641479492188e+01 -4.081194102764129639e-02 7.149444580078125000e+00 2.132589817047119141e+00 1.909745670855045319e-02
1.189000000000000000e+03 7.798323822021484375e+01 2.503912162780761719e+01 -5.523184314370155334e-02 7.141435623168945312e+00 2.125861167907714844e+00 1.062975600361824036e-01
1.190000000000000000e+03 7.940613555908203125e+01 1.956421661376953125e+01 7.072014268487691879e-03 6.727310657501220703e+00 2.020314693450927734e+00 1.216057613492012024e-01
1.191000000000000000e+03 7.821317291259765625e+01 1.834119033813476562e+01 -1.522844191640615463e-02 6.543858051300048828e+00 1.958588838577270508e+00 3.468085229396820068e-01
1.192000000000000000e+03 7.783168029785156250e+01 1.392054748535156250e+01 -3.636859729886054993e-02 6.217061996459960938e+00 1.854207992553710938e+00 2.699822187423706055e-01
1.193000000000000000e+03 7.941201782226562500e+01 9.720786094665527344e+00 8.739184588193893433e-02 3.752544641494750977e+00 1.151980996131896973e+00 4.107327759265899658e-01
1.194000000000000000e+03 7.833911132812500000e+01 8.339311599731445312e+00 3.167971074581146240e-01 6.495266914367675781e+00 2.043619155883789062e+00 6.155101060867309570e-01
1.195000000000000000e+03 7.721796417236328125e+01 5.295370101928710938e+00 1.436821460723876953e+00 1.089546966552734375e+01 3.699687242507934570e+00 -3.569608449935913086e+00
1.196000000000000000e+03 7.858113098144531250e+01 2.955939292907714844e+00 -4.534732103347778320e-01 1.002143287658691406e+01 2.870387792587280273e+00 -2.070017814636230469e+00
1.197000000000000000e+03 7.937237548828125000e+01 1.480466872453689575e-01 -1.202388852834701538e-01 1.329673290252685547e+01 3.952948093414306641e+00 -8.206473290920257568e-02
1.198000000000000000e+03 7.776613616943359375e+01 -5.434029102325439453e+00 1.036633104085922241e-01 9.199839591979980469e+00 2.791050910949707031e+00 1.174564003944396973e+00
1.199000000000000000e+03 7.929637145996093750e+01 -6.956530570983886719e+00 1.204099804162979126e-01 9.224734306335449219e+00 2.803543329238891602e+00 4.452981948852539062e-01
1.200000000000000000e+03 7.811245727539062500e+01 -8.440986633300781250e+00 2.186301797628402710e-01 8.526825904846191406e+00 2.623636722564697266e+00 8.100976943969726562e-01
1.201000000000000000e+03 7.726932525634765625e+01 -1.302935504913330078e+01 3.434333205223083496e-01 8.360713958740234375e+00 2.611243963241577148e+00 -2.689908444881439209e-01
1.202000000000000000e+03 7.936651611328125000e+01 -1.663886642456054688e+01 5.384372919797897339e-02 8.444972991943359375e+00 2.549644947052001953e+00 -2.499119937419891357e-01
1.203000000000000000e+03 7.814068603515625000e+01 -1.787540054321289062e+01 -1.087898239493370056e-01 8.581137657165527344e+00 2.541704416275024414e+00 -3.663188815116882324e-01
1.204000000000000000e+03 7.800646972656250000e+01 -2.200593376159667969e+01 -1.389062404632568359e-01 8.416579246520996094e+00 2.483301877975463867e+00 1.789517849683761597e-01
1.205000000000000000e+03 7.793066406250000000e+01 -2.342623519897460938e+01 -4.149601608514785767e-02 8.209508895874023438e+00 2.450403928756713867e+00 2.939023077487945557e-01
1.206000000000000000e+03 7.927662658691406250e+01 -2.642862701416015625e+01 2.202752279117703438e-03 8.352594375610351562e+00 2.506439208984375000e+00 1.258256584405899048e-01
1.207000000000000000e+03 7.786685180664062500e+01 -2.781274414062500000e+01 1.306418795138597488e-02 7.610090732574462891e+00 2.286946535110473633e+00 3.388310372829437256e-01
1.208000000000000000e+03 7.815383911132812500e+01 -3.053263282775878906e+01 1.592224650084972382e-02 7.355309009552001953e+00 2.211369276046752930e+00 2.286539524793624878e-01
1.209000000000000000e+03 7.927375793457031250e+01 -3.605558013916015625e+01 1.983439363539218903e-02 7.110189437866210938e+00 2.139007091522216797e+00 5.005537346005439758e-02
1.210000000000000000e+03 7.642764282226562500e+01 -3.681116485595703125e+01 2.242981828749179840e-02 6.545987129211425781e+00 1.970525026321411133e+00 1.871927529573440552e-01
1.211000000000000000e+03 7.865043640136718750e+01 -4.007003402709960938e+01 -3.018421120941638947e-02 6.754088401794433594e+00 2.017171144485473633e+00 9.436694532632827759e-02
1.212000000000000000e+03 3.882417380809783936e-01 2.166214704513549805e+00 6.242963136173784733e-04 7.806867943145334721e-04 4.214949440211057663e-04 -2.340398204978555441e-04
1.213000000000000000e+03 5.673586130142211914e-01 4.967580795288085938e+00 3.176480240654200315e-04 7.555232878075912595e-05 1.179601022158749402e-04 6.212015287019312382e-04
1.214000000000000000e+03 1.716134667396545410e+00 6.379058361053466797e+00 2.305483794771134853e-04 -3.023530589416623116e-03 -8.378946222364902496e-04 3.812465816736221313e-03
1.215000000000000000e+03 1.641595721244812012e+00 9.250004768371582031e+00 1.275116694159805775e-03 -9.013430215418338776e-03 -2.321494044736027718e-03 4.593892022967338562e-03
1.216000000000000000e+03 5.676832795143127441e-01 1.206357860565185547e+01 8.673296542838215828e-05 -1.355544012039899826e-02 -4.040611907839775085e-03 1.905513199744746089e-04
1.217000000000000000e+03 1.700108885765075684e+00 1.195668315887451172e+01 9.787762537598609924e-04 -1.261919271200895309e-02 -3.492125077173113823e-03 1.973616424947977066e-03
1.218000000000000000e+03 6.606883406639099121e-01 1.631271362304687500e+01 -3.134208236588165164e-05 -1.482247002422809601e-02 -4.456143826246261597e-03 4.127098072785884142e-04
1.219000000000000000e+03 6.331968903541564941e-01 1.916576766967773438e+01 -1.863593643065541983e-04 -1.910432241857051849e-02 -5.787204951047897339e-03 1.787141431123018265e-03
1.220000000000000000e+03 6.297683715820312500e-01 2.199393844604492188e+01 -3.466737398412078619e-04 -3.113999404013156891e-02 -9.446000680327415466e-03 3.786682151257991791e-03
1.221000000000000000e+03 6.752808094024658203e-01 2.482218933105468750e+01 -4.714942479040473700e-04 -5.190384760499000549e-02 -1.571260206401348114e-02 5.965386983007192612e-03
1.222000000000000000e+03 7.030467391014099121e-01 2.623905563354492188e+01 -3.157904720865190029e-04 -6.481386721134185791e-02 -1.953889615833759308e-02 6.609918083995580673e-03
1.223000000000000000e+03 7.316533327102661133e-01 2.907740974426269531e+01 1.692393561825156212e-04 -9.296078979969024658e-02 -2.783746458590030670e-02 7.409509271383285522e-03
1.224000000000000000e+03 2.219333171844482422e+00 2.909625244140625000e+01 -2.414307527942582965e-04 -9.156050533056259155e-02 -2.754058130085468292e-02 2.198946289718151093e-02
1.225000000000000000e+03 6.529136300086975098e-01 3.328819656372070312e+01 2.942823994089849293e-05 -1.335323601961135864e-01 -4.005087912082672119e-02 5.717146676033735275e-03
1.226000000000000000e+03 6.633663177490234375e-01 3.601055526733398438e+01 5.147002520971000195e-04 -1.552139520645141602e-01 -4.640977829694747925e-02 3.797787474468350410e-03
1.227000000000000000e+03 3.553492307662963867e+00 3.683884811401367188e+01 6.453386507928371429e-03 -1.453674286603927612e-01 -4.167421162128448486e-02 1.850330084562301636e-02
1.228000000000000000e+03 1.345515608787536621e+00 4.006199645996093750e+01 8.218163857236504555e-04 -1.690933555364608765e-01 -5.048146098852157593e-02 1.768330344930291176e-03
1.229000000000000000e+03 4.125830173492431641e+00 1.855132341384887695e+00 -9.616425377316772938e-04 -6.555195432156324387e-04 -4.851486301049590111e-04 -2.331250143470242620e-04
1.230000000000000000e+03 4.165645122528076172e+00 2.560134172439575195e+00 8.766297833062708378e-04 -1.896642643259838223e-04 2.060896658804267645e-04 4.517698544077575207e-04
1.231000000000000000e+03 1.889788508415222168e+00 1.923433065414428711e+00 2.016356884269043803e-04 1.871327258413657546e-04 1.166305228252895176e-04 -2.875404316000640392e-04
1.232000000000000000e+03 1.153399467468261719e+00 2.051290273666381836e+00 -1.359568559564650059e-04 -5.002089164918288589e-05 -5.579332719207741320e-05 -3.491915704216808081e-04
1.233000000000000000e+03 2.628382444381713867e+00 2.530277729034423828e+00 1.027321559377014637e-04 1.201631403091596439e-05 3.442454180913046002e-05 3.148039686493575573e-04
1.234000000000000000e+03 5.148079872131347656e+00 4.242148876190185547e+00 -7.028375752270221710e-03 1.341231400147080421e-03 -1.706143375486135483e-03 6.854931125417351723e-04
1.235000000000000000e+03 5.631232261657714844e+00 4.868797302246093750e+00 -1.414112560451030731e-02 1.113626523874700069e-03 -3.908249549567699432e-03 3.322952194139361382e-03
1.236000000000000000e+03 6.087113857269287109e+00 5.561278343200683594e+00 -1.616711169481277466e-02 4.048227332532405853e-03 -3.635665634647011757e-03 8.966247551143169403e-03
1.237000000000000000e+03 1.024455070495605469e+01 6.763470172882080078e+00 6.984432693570852280e-03 6.653673946857452393e-02 2.205635234713554382e-02 7.288420107215642929e-03
1.238000000000000000e+03 8.371575355529785156e+00 7.746786594390869141e+00 2.628565207123756409e-02 -1.345779001712799072e-02 3.848358755931258202e-03 1.088007260113954544e-02
1.239000000000000000e+03 1.402070713043212891e+01 1.163837051391601562e+01 2.608175948262214661e-02 2.474233321845531464e-02 1.524722762405872345e-02 2.398595027625560760e-02
1.240000000000000000e+03 1.754728698730468750e+01 1.458980751037597656e+01 -2.865021675825119019e-02 9.137071669101715088e-03 -5.853943061083555222e-03 1.228584442287683487e-02
1.241000000000000000e+03 2.166020965576171875e+01 1.642849731445312500e+01 -2.477623671293258667e-01 1.771763339638710022e-02 -6.901342421770095825e-02 -3.131324425339698792e-02
1.242000000000000000e+03 1.991864204406738281e+01 9.533448219299316406e+00 1.673033088445663452e-02 1.557859871536493301e-02 9.692679159343242645e-03 1.747109368443489075e-02
1.243000000000000000e+03 1.773102569580078125e+01 7.858465671539306641e+00 6.470673251897096634e-03 1.056285761296749115e-02 5.110059399157762527e-03 1.777162030339241028e-02
1.244000000000000000e+03 1.581736087799072266e+01 6.253327846527099609e+00 1.346072740852832794e-02 3.587672719731926918e-03 5.114519968628883362e-03 2.428677119314670563e-02
1.245000000000000000e+03 1.518056869506835938e+01 6.308769702911376953e+00 8.473215624690055847e-03 1.438359357416629791e-02 6.857042666524648666e-03 3.317016735672950745e-02
1.246000000000000000e+03 1.807535552978515625e+01 6.185153007507324219e+00 -2.780896238982677460e-02 -1.446670666337013245e-02 -1.268270052969455719e-02 -1.265704073011875153e-02
1.247000000000000000e+03 1.660204505920410156e+01 6.246739387512207031e+00 -3.388786688446998596e-02 -6.968783214688301086e-03 -1.225699577480554581e-02 -1.901896484196186066e-02
1.248000000000000000e+03 1.850449562072753906e+01 7.338316917419433594e+00 1.153786014765501022e-02 7.525088731199502945e-04 3.687110496684908867e-03 3.515704767778515816e-03
1.249000000000000000e+03 2.049906539916992188e+01 6.046154975891113281e+00 -4.083931818604469299e-02 7.219520397484302521e-03 -1.008593942970037460e-02 -1.417065970599651337e-02
1.250000000000000000e+03 2.121903800964355469e+01 5.909310817718505859e+00 -4.323342442512512207e-02 6.281713955104351044e-03 -1.108551304787397385e-02 -1.995419897139072418e-02
1.251000000000000000e+03 2.273617935180664062e+01 5.780410766601562500e+00 -3.623642772436141968e-02 2.252599457278847694e-03 -1.019514910876750946e-02 -2.272387221455574036e-02
1.252000000000000000e+03 2.327362442016601562e+01 5.832005977630615234e+00 -3.598577529191970825e-02 -4.936077632009983063e-03 -1.227655541151762009e-02 -2.682434953749179840e-02
1.253000000000000000e+03 2.563467216491699219e+01 8.376483917236328125e+00 -5.255776271224021912e-02 -4.481618478894233704e-02 -2.921218425035476685e-02 -5.958646163344383240e-02
1.254000000000000000e+03 2.974479103088378906e+01 1.242903804779052734e+01 -1.342395246028900146e-01 -3.354737907648086548e-02 -5.033607035875320435e-02 -5.379896238446235657e-02
1.255000000000000000e+03 3.230073547363281250e+01 1.395633506774902344e+01 -4.982189834117889404e-01 -1.823571883141994476e-02 -1.549364179372787476e-01 -1.222841739654541016e-01
1.256000000000000000e+03 3.666042709350585938e+01 1.323802375793457031e+01 -3.699696063995361328e-01 -1.249483451247215271e-01 -1.484753787517547607e-01 2.387830018997192383e-01
1.257000000000000000e+03 3.773741912841796875e+01 1.312009143829345703e+01 -4.813857376575469971e-01 2.205882407724857330e-02 -1.377980709075927734e-01 1.805702000856399536e-01
1.258000000000000000e+03 3.992381286621093750e+01 1.284089946746826172e+01 -4.412723779678344727e-01 8.502424508333206177e-02 -1.068744361400604248e-01 5.080748721957206726e-02
1.259000000000000000e+03 4.072613525390625000e+01 1.272767734527587891e+01 -4.385527968406677246e-01 6.425940245389938354e-02 -1.122880205512046814e-01 2.505932189524173737e-02
1.260000000000000000e+03 4.237857055664062500e+01 1.235884094238281250e+01 -3.735215067863464355e-01 5.883457884192466736e-02 -9.440607577562332153e-02 -6.903183460235595703e-02
1.261000000000000000e+03 4.311756896972656250e+01 1.212179660797119141e+01 -3.105748593807220459e-01 -6.693008355796337128e-03 -9.518036246299743652e-02 -1.104990988969802856e-01
1.262000000000000000e+03 4.533044433593750000e+01 1.356900787353515625e+01 -6.134188771247863770e-01 -1.773834824562072754e-01 -2.372407019138336182e-01 -2.472102046012878418e-01
1.263000000000000000e+03 5.272362518310546875e+01 1.319661808013916016e+01 -9.791831970214843750e-01 2.509468607604503632e-02 -2.862265408039093018e-01 5.903077125549316406e-01
1.264000000000000000e+03 5.371639633178710938e+01 1.386876773834228516e+01 -1.156099319458007812e+00 1.738338470458984375e-01 -2.946796417236328125e-01 5.250872373580932617e-01
1.265000000000000000e+03 5.424623489379882812e+01 1.304309463500976562e+01 -1.069978117942810059e+00 1.140875667333602905e-01 -2.867671847343444824e-01 4.482010006904602051e-01
1.266000000000000000e+03 5.500569534301757812e+01 1.298786163330078125e+01 -1.165820956230163574e+00 1.114939600229263306e-01 -3.162981271743774414e-01 2.584625184535980225e-01
1.267000000000000000e+03 5.806575775146484375e+01 1.259529018402099609e+01 -1.380667924880981445e+00 3.213449120521545410e-01 -3.177969157695770264e-01 -2.071695178747177124e-01
1.268000000000000000e+03 5.881957626342773438e+01 1.250099277496337891e+01 -1.336278557777404785e+00 2.138383984565734863e-01 -3.367320299148559570e-01 -2.656295895576477051e-01
1.269000000000000000e+03 6.719298553466796875e+01 1.182896995544433594e+01 2.603708803653717041e-01 1.530552768707275391e+01 4.669769287109375000e+00 -3.918763875961303711e+00
1.270000000000000000e+03 6.654220581054687500e+01 1.182961177825927734e+01 1.819167733192443848e+00 1.039974975585937500e+01 3.665675163269042969e+00 -5.712057590484619141e+00
1.271000000000000000e+03 6.579305267333984375e+01 1.195331573486328125e+01 2.248764991760253906e+00 5.496933937072753906e+00 2.323709726333618164e+00 -4.102376461029052734e+00
1.272000000000000000e+03 6.636876678466796875e+01 1.187251663208007812e+01 2.026174545288085938e+00 8.549693107604980469e+00 3.172760248184204102e+00 -5.202140808105468750e+00
1.273000000000000000e+03 6.529296112060546875e+01 8.556105613708496094e+00 1.738400936126708984e+00 2.665327310562133789e+00 1.321118474006652832e+00 2.433768749237060547e+00
1.274000000000000000e+03 6.595549011230468750e+01 8.586365699768066406e+00 2.187273263931274414e+00 5.966471195220947266e+00 2.446123361587524414e+00 4.200420856475830078e+00
1.275000000000000000e+03 6.616697692871093750e+01 8.577923774719238281e+00 2.217171192169189453e+00 8.174803733825683594e+00 3.117592573165893555e+00 5.026186943054199219e+00
1.276000000000000000e+03 6.635478210449218750e+01 8.593214035034179688e+00 2.028159141540527344e+00 9.158946990966796875e+00 3.356131792068481445e+00 6.068366527557373047e+00
1.277000000000000000e+03 6.653927612304687500e+01 8.571022033691406250e+00 1.860761046409606934e+00 1.088787174224853516e+01 3.824589967727661133e+00 6.375373363494873047e+00
1.278000000000000000e+03 6.993947601318359375e+01 7.059746742248535156e+00 -2.742978036403656006e-01 1.129116439819335938e+01 3.305059909820556641e+00 1.111521959304809570e+00
1.279000000000000000e+03 6.997270965576171875e+01 -6.324385166168212891e+00 7.236779928207397461e-01 3.027766227722167969e+00 1.125433325767517090e+00 -1.823121786117553711e+00
1.280000000000000000e+03 7.086380767822265625e+01 -7.434867382049560547e+00 1.646621823310852051e+00 5.366951465606689453e+00 2.104071855545043945e+00 -2.693641662597656250e+00
1.281000000000000000e+03 6.431916809082031250e+01 -1.222065734863281250e+01 -2.558012008666992188e-01 3.301487684249877930e+00 9.137060046195983887e-01 -3.680062592029571533e-01
1.282000000000000000e+03 6.341407775878906250e+01 -8.187736511230468750e+00 2.130743265151977539e-01 8.797846794128417969e+00 2.703276395797729492e+00 -1.021850228309631348e+00
1.283000000000000000e+03 5.412698745727539062e+01 -9.063366889953613281e+00 -2.118675559759140015e-01 -4.991393983364105225e-01 -2.133020907640457153e-01 4.471902251243591309e-01
1.284000000000000000e+03 5.611687850952148438e+01 -1.592408657073974609e+01 -1.101245209574699402e-01 5.039064884185791016e+00 1.478682160377502441e+00 1.465678680688142776e-02
1.285000000000000000e+03 5.094534683227539062e+01 -1.660384178161621094e+01 -4.054960608482360840e-01 5.233383551239967346e-02 -1.059486642479896545e-01 2.938538230955600739e-02
1.286000000000000000e+03 4.904418945312500000e+01 -1.448532199859619141e+01 2.965378388762474060e-02 4.083270728588104248e-01 1.313942521810531616e-01 -3.053703606128692627e-01
1.287000000000000000e+03 4.641994476318359375e+01 -1.098396873474121094e+01 4.213886857032775879e-01 8.334058523178100586e-01 3.764383792877197266e-01 -5.130336880683898926e-01
1.288000000000000000e+03 4.455092620849609375e+01 -5.762975215911865234e+00 1.131283044815063477e-01 2.677756845951080322e-01 1.142712011933326721e-01 3.423636406660079956e-02
1.289000000000000000e+03 3.777120590209960938e+01 -6.242020606994628906e+00 5.957348346710205078e-01 7.919537425041198730e-01 4.163065552711486816e-01 -6.975734233856201172e-01
1.290000000000000000e+03 3.976545715332031250e+01 -9.876520156860351562e+00 1.480304598808288574e-01 1.141524165868759155e-01 7.865486294031143188e-02 -1.903967708349227905e-01
1.291000000000000000e+03 3.581969451904296875e+01 -1.346732711791992188e+01 9.886975586414337158e-02 2.828064858913421631e-01 1.145028769969940186e-01 -1.962400078773498535e-01
1.292000000000000000e+03 3.323692703247070312e+01 -1.037860679626464844e+01 3.459051847457885742e-01 8.837349414825439453e-01 3.688920438289642334e-01 -4.810518324375152588e-01
1.293000000000000000e+03 3.176239776611328125e+01 -8.019042015075683594e+00 3.050935566425323486e-01 1.161503911018371582e+00 4.399792253971099854e-01 -5.472228527069091797e-01
1.294000000000000000e+03 3.021773147583007812e+01 -4.029904365539550781e+00 7.046101242303848267e-02 1.848280876874923706e-01 7.658673077821731567e-02 -4.469215571880340576e-01
1.295000000000000000e+03 3.642059326171875000e+01 1.331883621215820312e+01 -4.982802271842956543e-01 -2.355706989765167236e-01 -2.201552689075469971e-01 3.436021208763122559e-01
1.296000000000000000e+03 6.648967742919921875e+01 1.204137897491455078e+01 1.338669538497924805e+00 9.905143737792968750e+00 3.373143911361694336e+00 -5.050581455230712891e+00
1.297000000000000000e+03 6.574832916259765625e+01 8.666284561157226562e+00 2.199671983718872070e+00 4.365255832672119141e+00 1.969478249549865723e+00 3.544896602630615234e+00
1.298000000000000000e+03 6.556139373779296875e+01 8.696809768676757812e+00 1.925866603851318359e+00 2.900516271591186523e+00 1.447914838790893555e+00 2.899917364120483398e+00
1.299000000000000000e+03 6.700796508789062500e+01 1.185924243927001953e+01 6.469476222991943359e-01 1.376871395111083984e+01 4.324698448181152344e+00 -5.007395267486572266e+00
1.300000000000000000e+03 6.537268066406250000e+01 8.727253913879394531e+00 1.655577182769775391e+00 2.618552923202514648e+00 1.282239079475402832e+00 2.430463790893554688e+00
1.301000000000000000e+03 6.653943634033203125e+01 8.340951919555664062e+00 5.118198394775390625e-01 1.105359363555908203e+01 3.469623804092407227e+00 5.424129486083984375e+00
1.302000000000000000e+03 6.561741638183593750e+01 1.201210784912109375e+01 2.171016216278076172e+00 5.298608303070068359e+00 2.240887403488159180e+00 -3.403288602828979492e+00
1.303000000000000000e+03 6.610446929931640625e+01 1.380772495269775391e+01 2.079759538173675537e-01 7.881620883941650391e+00 2.426878929138183594e+00 -2.710962533950805664e+00
1.304000000000000000e+03 6.563612365722656250e+01 8.469258308410644531e+00 2.075889587402343750e+00 4.024102687835693359e+00 1.829997658729553223e+00 3.398562669754028320e+00
1.305000000000000000e+03 6.864337158203125000e+01 6.933031558990478516e+00 -1.988201737403869629e+00 1.589445495605468750e+01 4.171875953674316406e+00 -8.039098978042602539e-01
1.306000000000000000e+03 6.448835754394531250e+01 8.418308258056640625e+00 3.720657527446746826e-01 2.035127729177474976e-01 1.726735681295394897e-01 2.782418727874755859e-01
1.307000000000000000e+03 2.213128852844238281e+01 6.227612972259521484e+00 -3.742742538452148438e-02 6.189291365444660187e-03 -9.371439926326274872e-03 -2.171628735959529877e-02
1.308000000000000000e+03 5.148492050170898438e+01 9.111902236938476562e+00 1.775011979043483734e-02 -1.247916743159294128e-02 1.581285847350955009e-03 -5.360009148716926575e-03
1.309000000000000000e+03 5.096697998046875000e+01 8.926669120788574219e+00 3.128205984830856323e-02 -2.177068591117858887e-02 2.853412181138992310e-03 7.932319305837154388e-03
1.310000000000000000e+03 5.039321517944335938e+01 8.785777091979980469e+00 1.283215079456567764e-02 2.465172903612256050e-03 4.589197225868701935e-03 7.063740864396095276e-03
1.311000000000000000e+03 2.223753547668457031e+01 5.780529022216796875e+00 -3.903233632445335388e-02 5.555371753871440887e-03 -1.004308927804231644e-02 -2.079262025654315948e-02
1.312000000000000000e+03 2.304050636291503906e+01 6.562786102294921875e+00 -4.071502387523651123e-02 1.659166067838668823e-03 -1.171675790101289749e-02 -2.540177293121814728e-02
1.313000000000000000e+03 7.516280651092529297e+00 -2.407231330871582031e+00 8.974232710897922516e-03 1.322058029472827911e-03 3.088887082412838936e-03 6.197275128215551376e-03
1.314000000000000000e+03 6.400933742523193359e+00 -2.244497299194335938e+00 1.057183183729648590e-02 2.182552125304937363e-03 3.826315049082040787e-03 7.462170440703630447e-03
1.315000000000000000e+03 4.175473690032958984e+00 -1.762223601341247559e+00 1.171026099473237991e-02 -2.330792369320988655e-03 2.813840517774224281e-03 6.750672589987516403e-03
1.316000000000000000e+03 5.925760746002197266e+00 -3.321325540542602539e+00 2.070955233648419380e-03 1.466572983190417290e-03 1.061258371919393539e-03 7.943275384604930878e-03
1.317000000000000000e+03 2.341115570068359375e+01 9.027171134948730469e-01 3.108005411922931671e-02 6.916115432977676392e-02 3.007236309349536896e-02 7.057754695415496826e-02
1.318000000000000000e+03 2.170271492004394531e+01 2.044194221496582031e+00 9.167379699647426605e-03 3.130829427391290665e-04 2.844138769432902336e-03 6.893444806337356567e-03
1.319000000000000000e+03 3.642510223388671875e+01 1.435799598693847656e+01 -8.342792987823486328e-01 -6.120811402797698975e-02 -2.686462104320526123e-01 1.159014776349067688e-01
1.320000000000000000e+03 3.781084823608398438e+01 1.374538421630859375e+01 -6.241584420204162598e-01 7.205712795257568359e-02 -1.656303852796554565e-01 1.664566397666931152e-01
1.321000000000000000e+03 3.914482498168945312e+01 1.295435619354248047e+01 -4.555274546146392822e-01 5.596569925546646118e-02 -1.198685243725776672e-01 1.122525632381439209e-01
1.322000000000000000e+03 2.536868476867675781e+01 -2.055588483810424805e+00 -1.784283220767974854e-01 2.179866097867488861e-02 -4.698890075087547302e-02 -2.059857398271560669e-01
1.323000000000000000e+03 2.404299354553222656e+01 8.482021093368530273e-01 2.077071741223335266e-02 7.279370725154876709e-02 2.806932665407657623e-02 1.307538598775863647e-01
1.324000000000000000e+03 4.735447406768798828e+00 -3.896256208419799805e+00 3.419457236304879189e-03 -2.374178438913077116e-04 9.546118089929223061e-04 8.780558593571186066e-03
1.325000000000000000e+03 3.589345932006835938e+00 -3.219311475753784180e+00 2.592194825410842896e-03 1.682320842519402504e-03 1.282354700379073620e-03 8.342176675796508789e-03
1.326000000000000000e+03 4.485624432563781738e-01 -3.542796850204467773e+00 2.354665659368038177e-03 6.652551237493753433e-03 2.702164929360151291e-03 2.299974672496318817e-03
1.327000000000000000e+03 1.874089622497558594e+01 2.664875507354736328e+00 -2.749482635408639908e-03 -2.760701579973101616e-03 -1.653055311180651188e-03 1.022851676680147648e-03
1.328000000000000000e+03 5.414463806152343750e+01 7.654687404632568359e+00 -1.804049499332904816e-02 1.344448886811733246e-02 -1.378801767714321613e-03 -2.448381669819355011e-02
1.329000000000000000e+03 5.202722167968750000e+01 8.727910995483398438e+00 -3.785066364798694849e-04 -1.822222396731376648e-02 -5.580218974500894547e-03 2.769957936834543943e-04
1.330000000000000000e+03 5.278483963012695312e+01 8.597761154174804688e+00 1.561789494007825851e-02 -1.912475749850273132e-02 -1.052059000357985497e-03 -9.470898658037185669e-03
1.331000000000000000e+03 2.034042596817016602e+00 2.683736562728881836e+00 -7.963054813444614410e-04 -5.846083513461053371e-04 -4.142741381656378508e-04 -2.129835920641198754e-04
1.332000000000000000e+03 3.317739963531494141e+00 2.561815261840820312e+00 -1.578359515406191349e-03 -1.092939171940088272e-03 -8.013895712792873383e-04 -6.461418233811855316e-04
1.333000000000000000e+03 5.445656967163085938e+01 1.379908657073974609e+01 -1.197557926177978516e+00 2.061509341001510620e-01 -2.974221110343933105e-01 3.788667619228363037e-01
1.334000000000000000e+03 5.521111679077148438e+01 1.374980640411376953e+01 -1.175907850265502930e+00 2.410651892423629761e-01 -2.804527878761291504e-01 3.493197560310363770e-01
1.335000000000000000e+03 5.299221038818359375e+01 1.402694797515869141e+01 -1.237138032913208008e+00 1.443351656198501587e-01 -3.278408646583557129e-01 5.821967124938964844e-01
1.336000000000000000e+03 1.402242469787597656e+01 -3.014993190765380859e+00 1.500530820339918137e-02 -1.468458864837884903e-02 9.621581557439640164e-05 -9.954679757356643677e-03
1.337000000000000000e+03 9.549228668212890625e+00 -1.821290373802185059e+00 1.542803831398487091e-02 2.548433840274810791e-03 5.392941646277904510e-03 3.496059449389576912e-03
1.338000000000000000e+03 1.089365005493164062e+01 -2.622404098510742188e+00 1.277321949601173401e-02 -1.195964869111776352e-02 2.440713287796825171e-04 -2.894286764785647392e-03
1.339000000000000000e+03 1.104568099975585938e+01 -1.902976512908935547e+00 1.572917588055133820e-02 3.703852649778127670e-03 5.829908419400453568e-03 8.008377335499972105e-05
1.340000000000000000e+03 1.983845329284667969e+01 6.738340377807617188e+00 -2.917032688856124878e-02 8.728395216166973114e-03 -6.132579408586025238e-03 -6.848230492323637009e-03
1.341000000000000000e+03 1.777021408081054688e+01 6.701940536499023438e+00 -2.252664975821971893e-02 -1.696379389613866806e-03 -7.266908418387174606e-03 -7.472368422895669937e-03
1.342000000000000000e+03 1.947736549377441406e+01 8.006511688232421875e+00 -4.405825398862361908e-03 1.810621097683906555e-02 4.110116045922040939e-03 9.579369798302650452e-03
1.343000000000000000e+03 2.148581504821777344e+01 6.729609489440917969e+00 -3.437636792659759521e-02 9.602711535990238190e-03 -7.432096637785434723e-03 -1.769359037280082703e-02
1.344000000000000000e+03 7.049528598785400391e+00 -2.440706968307495117e+00 1.344493310898542404e-02 -3.521852660924196243e-03 2.976924180984497070e-03 6.788571830838918686e-03
1.345000000000000000e+03 6.827050685882568359e+00 -3.210646867752075195e+00 4.995353054255247116e-03 -5.185295362025499344e-03 -5.698278619092889130e-05 3.229200141504406929e-03
1.346000000000000000e+03 6.917049407958984375e+01 7.624979972839355469e+00 -2.619991302490234375e+00 1.500935268402099609e+01 3.716808557510375977e+00 -1.507874011993408203e+00
1.347000000000000000e+03 6.741207122802734375e+01 8.266186714172363281e+00 -1.648246526718139648e+00 1.880700874328613281e+01 5.147628307342529297e+00 3.043492317199707031e+00
1.348000000000000000e+03 6.966063690185546875e+01 8.496358871459960938e+00 -2.750352323055267334e-01 1.137916851043701172e+01 3.331239938735961914e+00 -3.641804158687591553e-01
1.349000000000000000e+03 6.827468109130859375e+01 8.071190834045410156e+00 -1.684550404548645020e+00 1.846681213378906250e+01 5.034678459167480469e+00 6.345582753419876099e-02
1.350000000000000000e+03 6.849743652343750000e+01 1.266025352478027344e+01 1.962940990924835205e-01 1.333952808380126953e+01 4.060746669769287109e+00 1.146289110183715820e+00
1.351000000000000000e+03 6.899125671386718750e+01 9.497614860534667969e+00 5.597080707550048828e+00 1.462951087951660156e+01 6.067977428436279297e+00 -4.799835979938507080e-01
1.352000000000000000e+03 6.747682952880859375e+01 1.235435390472412109e+01 -4.666842818260192871e-01 1.542086124420166016e+01 4.486253261566162109e+00 -1.846970677375793457e+00
1.353000000000000000e+03 5.654183578491210938e+01 1.280613327026367188e+01 -1.253619194030761719e+00 2.357448339462280273e-01 -3.053623139858245850e-01 1.485851686447858810e-02
1.354000000000000000e+03 5.597477722167968750e+01 1.367806148529052734e+01 -1.241265892982482910e+00 3.069403469562530518e-01 -2.802976369857788086e-01 1.674370467662811279e-01
1.355000000000000000e+03 5.747821044921875000e+01 1.348071384429931641e+01 -1.361687302589416504e+00 4.198114871978759766e-01 -2.825627326965332031e-01 -4.336977377533912659e-02
1.356000000000000000e+03 5.673543167114257812e+01 1.358181476593017578e+01 -1.285307526588439941e+00 3.642466068267822266e-01 -2.763182520866394043e-01 1.350661367177963257e-01
1.357000000000000000e+03 5.890263748168945312e+01 1.332329177856445312e+01 -1.616022586822509766e+00 3.803778886795043945e-01 -3.706934154033660889e-01 -2.733263373374938965e-01
1.358000000000000000e+03 5.820129394531250000e+01 1.338583183288574219e+01 -1.425064563751220703e+00 4.150095283985137939e-01 -3.030165135860443115e-01 -5.754154175519943237e-02
1.359000000000000000e+03 3.998836898803710938e+01 1.373909950256347656e+01 -5.868120193481445312e-01 1.033075377345085144e-01 -1.450513601303100586e-01 7.966057956218719482e-02
1.360000000000000000e+03 4.172319793701171875e+01 1.374360370635986328e+01 -6.092958450317382812e-01 9.276758879423141479e-02 -1.549584716558456421e-01 -1.466820831410586834e-03
1.361000000000000000e+03 4.159077453613281250e+01 1.261818981170654297e+01 -4.362922906875610352e-01 8.602380007505416870e-02 -1.050805523991584778e-01 -3.660936281085014343e-02
1.362000000000000000e+03 4.081207656860351562e+01 1.372835445404052734e+01 -5.909004211425781250e-01 1.507783532142639160e-01 -1.320366263389587402e-01 7.527403999119997025e-03
1.363000000000000000e+03 4.307899475097656250e+01 1.297633171081542969e+01 -5.124885439872741699e-01 3.254202753305435181e-02 -1.439839601516723633e-01 -7.481361180543899536e-02
1.364000000000000000e+03 4.076334381103515625e+01 1.472056198120117188e+01 -7.251408100128173828e-01 1.421737968921661377e-01 -1.748901009559631348e-01 7.690996676683425903e-02
1.365000000000000000e+03 1.418757152557373047e+01 -2.036170482635498047e+00 1.753127202391624451e-02 4.994786344468593597e-03 6.757817696779966354e-03 -1.043086964637041092e-02
1.366000000000000000e+03 1.453465652465820312e+01 -4.247233867645263672e+00 7.709703873842954636e-03 -2.000392600893974304e-02 -3.688266966491937637e-03 -1.084659341722726822e-02
1.367000000000000000e+03 1.241469764709472656e+01 -2.796153783798217773e+00 1.358116697520017624e-02 -1.552006322890520096e-02 -5.816689226776361465e-04 -6.908873561769723892e-03
1.368000000000000000e+03 1.609678649902343750e+01 6.888986110687255859e+00 4.532255604863166809e-02 1.024865265935659409e-02 1.667136326432228088e-02 1.081563346087932587e-02
1.369000000000000000e+03 1.700935745239257812e+01 7.010827064514160156e+00 4.302613809704780579e-02 1.428334880620241165e-02 1.719284616410732269e-02 1.214495301246643066e-02
1.370000000000000000e+03 7.593468189239501953e+00 6.750151634216308594e+00 -8.648478426039218903e-03 -1.046009548008441925e-02 -5.732572171837091446e-03 2.216640673577785492e-02
1.371000000000000000e+03 3.875902891159057617e+00 6.082756996154785156e+00 -6.756973452866077423e-03 -4.102870589122176170e-04 -2.150178188458085060e-03 8.172962814569473267e-03
1.372000000000000000e+03 4.137325286865234375e+00 4.497806072235107422e+00 -5.286554805934429169e-03 -2.125050523318350315e-04 -1.649717916734516621e-03 1.844892627559602261e-03
1.373000000000000000e+03 6.830140113830566406e+00 6.892441272735595703e+00 -1.595134497620165348e-03 -1.071723084896802902e-02 -3.693709382787346840e-03 2.063720300793647766e-02
1.374000000000000000e+03 5.480689525604248047e+00 6.806808471679687500e+00 -4.774238914251327515e-03 -5.189349409192800522e-03 -2.989076543599367142e-03 1.604666374623775482e-02
1.375000000000000000e+03 1.650596857070922852e+00 4.979003429412841797e+00 -2.374277217313647270e-03 -8.768085972405970097e-04 -9.753257036209106445e-04 9.997534798458218575e-04
1.376000000000000000e+03 3.952120780944824219e+00 3.383620500564575195e+00 -2.727789804339408875e-03 -7.217251113615930080e-04 -1.034854445606470108e-03 -1.875205343822017312e-04
1.377000000000000000e+03 2.293216133117675781e+01 -4.310033619403839111e-01 -3.191128745675086975e-02 1.021943911910057068e-01 2.108493074774742126e-02 3.309849277138710022e-02
1.378000000000000000e+03 5.024666213989257812e+01 1.358862495422363281e+01 -4.705869257450103760e-01 -1.117764949798583984e+00 -4.765055477619171143e-01 6.468064785003662109e-01
1.379000000000000000e+03 6.316708374023437500e+01 -2.683665037155151367e+00 7.009852528572082520e-01 1.038138198852539062e+01 3.324710130691528320e+00 2.271317005157470703e+00
1.380000000000000000e+03 2.687091445922851562e+01 -1.213654422760009766e+01 -1.269170492887496948e-01 -6.133362650871276855e-01 -2.220759987831115723e-01 5.692714080214500427e-02
1.381000000000000000e+03 2.726370239257812500e+01 -9.096549034118652344e+00 -5.912268757820129395e-01 -6.243888139724731445e-01 -3.646847307682037354e-01 -1.347823888063430786e-01
1.382000000000000000e+03 6.191981887817382812e+01 1.466432476043701172e+01 -9.588968157768249512e-01 -1.470847129821777344e-01 -3.317944407463073730e-01 -7.614651322364807129e-01
1.383000000000000000e+03 6.094046020507812500e+01 1.400053787231445312e+01 -2.054069995880126953e+00 -4.593876004219055176e-02 -6.300026178359985352e-01 -3.361539244651794434e-01
1.384000000000000000e+03 5.834141159057617188e+01 1.416087627410888672e+01 -1.449922084808349609e+00 5.329906344413757324e-01 -2.750794589519500732e-01 -4.757938906550407410e-02
1.385000000000000000e+03 6.628736877441406250e+01 -1.711354827880859375e+01 -1.211157798767089844e+00 1.799772024154663086e+00 1.765842437744140625e-01 -5.121063590049743652e-01
1.386000000000000000e+03 7.078014373779296875e+01 -1.691807746887207031e+01 -2.210340738296508789e+00 2.741860628128051758e+00 1.594560146331787109e-01 2.515254497528076172e+00
1.387000000000000000e+03 4.549567031860351562e+01 -2.436885356903076172e+00 -6.365469098091125488e-01 1.842539459466934204e-01 -1.356879025697708130e-01 8.540336042642593384e-02
1.388000000000000000e+03 4.386546707153320312e+01 -2.704418659210205078e+00 -6.182732582092285156e-01 2.500353008508682251e-02 -1.779809147119522095e-01 4.434840288013219833e-03
1.389000000000000000e+03 2.956688690185546875e+01 1.144076704978942871e+00 -9.087767004966735840e-01 -6.742995977401733398e-01 -4.749228954315185547e-01 1.718593686819076538e-01
1.390000000000000000e+03 2.752890968322753906e+01 4.196760654449462891e-01 -6.651759743690490723e-01 1.922070831060409546e-01 -1.418906599283218384e-01 -4.206852521747350693e-03
1.391000000000000000e+03 7.331516265869140625e+01 9.740039825439453125e+00 1.363513231277465820e+00 1.826772928237915039e+00 9.570858478546142578e-01 -2.317965745925903320e+00
1.392000000000000000e+03 6.818359375000000000e+01 3.586432695388793945e+00 3.807071924209594727e+00 1.171210384368896484e+01 4.655752658843994141e+00 -1.207237467169761658e-01
1.393000000000000000e+03 7.843704986572265625e+01 1.802257061004638672e+00 -5.178874731063842773e-01 1.083376693725585938e+01 3.094763755798339844e+00 -1.795474171638488770e+00
1.394000000000000000e+03 3.877144241333007812e+01 -2.030225276947021484e+00 -1.068757176399230957e+00 -5.113767981529235840e-01 -4.740401804447174072e-01 -3.292405009269714355e-01
1.395000000000000000e+03 4.098392868041992188e+01 -1.630095243453979492e-01 -2.700767993927001953e+00 -6.067515015602111816e-01 -9.922558069229125977e-01 -7.170238494873046875e-01
1.396000000000000000e+03 7.697942352294921875e+01 1.082084465026855469e+01 -3.315065503120422363e-01 7.929940700531005859e+00 2.279530286788940430e+00 2.168607860803604126e-01
1.397000000000000000e+03 7.540273284912109375e+01 6.512007117271423340e-01 -3.937965869903564453e+00 5.650397777557373047e+00 5.137296319007873535e-01 3.446768820285797119e-01
1.398000000000000000e+03 7.394992065429687500e+01 1.152691364288330078e+00 -6.755278110504150391e+00 -1.397881865501403809e+00 -2.445948123931884766e+00 -2.541210889816284180e+00
1.399000000000000000e+03 5.736038589477539062e+01 -1.985939025878906250e+01 -8.312118649482727051e-01 3.406079769134521484e+00 7.724604010581970215e-01 4.767240956425666809e-02
1.400000000000000000e+03 6.991357421875000000e+01 1.208866313099861145e-01 -3.342646360397338867e+00 8.072736740112304688e+00 1.419027090072631836e+00 -2.381984710693359375e+00
1.401000000000000000e+03 6.987029266357421875e+01 9.375715255737304688e+00 2.956905603408813477e+00 8.871237754821777344e+00 3.548442840576171875e+00 1.565784335136413574e+00
1.402000000000000000e+03 2.550467681884765625e+01 1.791773986816406250e+01 -4.392141103744506836e-01 -4.823756963014602661e-02 -1.462355107069015503e-01 8.377081900835037231e-02
1.403000000000000000e+03 6.913480377197265625e+01 6.236993789672851562e+00 2.777470648288726807e-01 1.666377258300781250e+01 5.082456111907958984e+00 5.413366556167602539e-01
1.404000000000000000e+03 6.550368499755859375e+01 -1.517295241355895996e+00 -4.350523471832275391e+00 -3.958400785923004150e-01 -1.423909068107604980e+00 3.796493053436279297e+00
1.405000000000000000e+03 6.359210586547851562e+01 3.641600012779235840e-01 -1.268441915512084961e+00 4.506324768066406250e+00 9.713648557662963867e-01 3.652976274490356445e+00
1.406000000000000000e+03 3.970345306396484375e+01 -2.123714447021484375e+01 -2.151451259851455688e-01 -9.569329023361206055e-02 -9.325152635574340820e-02 -2.458809763193130493e-01
1.407000000000000000e+03 3.950856781005859375e+01 -1.699423599243164062e+01 -1.262975215911865234e+00 -4.389475584030151367e-01 -5.105768442153930664e-01 -3.542492389678955078e-01
1.408000000000000000e+03 3.550082778930664062e+01 -1.245779633522033691e+00 -7.174556851387023926e-01 8.421550393104553223e-01 3.740980848670005798e-02 -1.028076708316802979e-01
1.409000000000000000e+03 5.812963485717773438e+01 -1.790604782104492188e+01 9.643233567476272583e-02 3.644599199295043945e+00 1.122309446334838867e+00 2.210772410035133362e-02
1.410000000000000000e+03 2.887489700317382812e+01 -2.653482437133789062e+00 -2.545494437217712402e-01 -6.747854948043823242e-01 -2.788004875183105469e-01 -1.058184027671813965e+00
1.411000000000000000e+03 2.906000518798828125e+01 -4.271819114685058594e+00 2.519150674343109131e-01 -2.852162420749664307e-01 -9.990349411964416504e-03 -6.450174450874328613e-01
1.412000000000000000e+03 6.654853057861328125e+01 -1.500062942504882812e+01 -1.691261172294616699e+00 9.919347167015075684e-01 -2.097979336977005005e-01 2.634869515895843506e-01
1.413000000000000000e+03 3.307054138183593750e+01 -1.201926422119140625e+01 3.098923712968826294e-02 6.118065118789672852e-01 1.928387284278869629e-01 -1.839204430580139160e-01
1.414000000000000000e+03 6.516278076171875000e+01 -1.361906719207763672e+01 -1.340884208679199219e+00 2.483100652694702148e+00 3.426648974418640137e-01 -1.085994467139244080e-01
1.415000000000000000e+03 6.820898437500000000e+01 -2.388232469558715820e+00 -4.783027648925781250e+00 3.709128856658935547e+00 -3.221696019172668457e-01 -6.505602598190307617e-01
1.416000000000000000e+03 3.653317260742187500e+01 2.974976539611816406e+00 -2.460161596536636353e-01 5.028577521443367004e-02 -5.871911346912384033e-02 3.121508844196796417e-02
1.417000000000000000e+03 6.593734741210937500e+01 -1.414994049072265625e+01 -1.080630540847778320e+00 1.390688538551330566e+00 9.301739186048507690e-02 -3.431969508528709412e-02
1.418000000000000000e+03 6.094446945190429688e+01 -6.855073451995849609e+00 1.278867006301879883e+00 5.911855697631835938e+00 2.157216787338256836e+00 1.403622508049011230e+00
1.419000000000000000e+03 6.897389221191406250e+01 -3.520664215087890625e+00 -3.334433078765869141e+00 3.564922809600830078e+00 6.914686411619186401e-02 -6.233180165290832520e-01
1.420000000000000000e+03 3.484782028198242188e+01 -3.745216429233551025e-01 -1.274739384651184082e+00 9.343195557594299316e-01 -1.021259576082229614e-01 -2.705992162227630615e-01
1.421000000000000000e+03 3.437925338745117188e+01 4.898850023746490479e-01 -1.109905958175659180e+00 6.168010830879211426e-01 -1.479314714670181274e-01 -1.384403407573699951e-01
1.422000000000000000e+03 3.597738265991210938e+01 -1.781992149353027344e+01 -4.877996444702148438e-01 2.283017039299011230e-01 -7.784938067197799683e-02 -2.539687752723693848e-01
1.423000000000000000e+03 3.624129867553710938e+01 -2.211647272109985352e+00 -5.303834676742553711e-01 8.784821629524230957e-01 1.044296026229858398e-01 -3.285365700721740723e-01
1.424000000000000000e+03 3.615313720703125000e+01 -4.005259990692138672e+00 6.713415980339050293e-01 1.265874743461608887e+00 5.811648964881896973e-01 -9.685895442962646484e-01
1.425000000000000000e+03 4.036495208740234375e+01 -1.107746028900146484e+01 9.263102710247039795e-02 -1.005938202142715454e-01 -2.388837514445185661e-03 -5.049657821655273438e-02
1.426000000000000000e+03 4.173557662963867188e+01 -1.312092018127441406e+01 -1.099498048424720764e-01 -4.304914176464080811e-01 -1.621323674917221069e-01 -1.204543784260749817e-01
1.427000000000000000e+03 3.951255416870117188e+01 -6.770277976989746094e+00 5.574831366539001465e-01 9.976660460233688354e-02 1.971749216318130493e-01 -3.956560790538787842e-01
1.428000000000000000e+03 3.225352859497070312e+01 -1.455184364318847656e+01 -2.487941235303878784e-01 3.485586941242218018e-01 2.992937341332435608e-02 3.582592681050300598e-02
1.429000000000000000e+03 5.063665771484375000e+01 1.494171047210693359e+01 -2.148203611373901367e+00 -6.438021063804626465e-01 -8.376017212867736816e-01 8.671199083328247070e-01
1.430000000000000000e+03 3.517549896240234375e+01 -1.516811370849609375e+01 -2.648651897907257080e-01 2.955103218555450439e-01 9.193547070026397705e-03 -4.089663550257682800e-02
1.431000000000000000e+03 3.159513282775878906e+01 -9.830677032470703125e+00 8.704618364572525024e-02 7.556547522544860840e-01 2.528102695941925049e-01 -2.356689572334289551e-01
1.432000000000000000e+03 3.385797500610351562e+01 -1.301668739318847656e+01 -1.912148296833038330e-02 4.677785634994506836e-01 1.345971226692199707e-01 -1.677334755659103394e-01
1.433000000000000000e+03 3.458867645263671875e+01 -1.405292510986328125e+01 -9.593456238508224487e-02 3.530751764774322510e-01 7.714218646287918091e-02 -9.668935090303421021e-02
1.434000000000000000e+03 4.062155914306640625e+01 -9.218500137329101562e+00 3.372395038604736328e-01 1.106700766831636429e-02 1.044919565320014954e-01 -2.951806485652923584e-01
1.435000000000000000e+03 6.511241912841796875e+01 1.271082687377929688e+01 2.687567472457885742e+00 5.789605140686035156e+00 2.543151855468750000e+00 -3.455325603485107422e+00
1.436000000000000000e+03 5.801460266113281250e+01 -1.161962673068046570e-01 -2.200023174285888672e+00 3.271388113498687744e-01 -5.618653297424316406e-01 2.592722177505493164e-01
1.437000000000000000e+03 5.594408035278320312e+01 8.040356636047363281e-01 -4.356156826019287109e+00 -7.804788351058959961e-01 -1.540990591049194336e+00 2.194137424230575562e-01
1.438000000000000000e+03 4.290943908691406250e+01 -4.597342014312744141e-01 -1.665249109268188477e+00 -3.289221227169036865e-02 -5.094423890113830566e-01 -3.123891055583953857e-01
1.439000000000000000e+03 4.591648483276367188e+01 1.207214668393135071e-01 -9.169777631759643555e-01 1.861567646265029907e-01 -2.192462980747222900e-01 -1.862252652645111084e-01
1.440000000000000000e+03 4.519539260864257812e+01 1.290749907493591309e+00 -9.285241365432739258e-01 7.183020561933517456e-02 -2.570081949234008789e-01 -2.790353000164031982e-01
1.441000000000000000e+03 3.699416351318359375e+01 4.126170635223388672e+00 -1.723669841885566711e-02 2.577423676848411560e-02 2.561261644586920738e-03 -6.648051738739013672e-02
1.442000000000000000e+03 4.988877105712890625e+01 6.790243625640869141e+00 -5.911842361092567444e-02 -3.548510372638702393e-02 -2.838105894625186920e-02 1.611107587814331055e-02
1.443000000000000000e+03 4.170767974853515625e+01 -1.177316665649414062e+00 -1.695460677146911621e+00 -3.258437812328338623e-01 -6.063913106918334961e-01 1.682057082653045654e-01
1.444000000000000000e+03 4.813046646118164062e+01 4.721173286437988281e+00 -2.954380512237548828e-01 4.124211147427558899e-02 -7.625877857208251953e-02 -5.095417425036430359e-02
1.445000000000000000e+03 4.719362258911132812e+01 3.737397909164428711e+00 -4.734375476837158203e-01 7.954833656549453735e-02 -1.181667670607566833e-01 -1.419264823198318481e-01
1.446000000000000000e+03 3.675409317016601562e+01 7.960111618041992188e+00 2.856837213039398193e-02 1.922888797707855701e-03 9.147377684712409973e-03 8.174329064786434174e-03
1.447000000000000000e+03 5.111135864257812500e+01 6.415688037872314453e+00 -5.125107243657112122e-02 -4.405071213841438293e-02 -2.859053574502468109e-02 -6.471974775195121765e-03
1.448000000000000000e+03 4.967856597900390625e+01 8.446774482727050781e+00 2.423037216067314148e-02 -2.576175378635525703e-03 6.496259011328220367e-03 3.040202148258686066e-02
1.449000000000000000e+03 3.505514907836914062e+01 1.675315475463867188e+01 -5.942190289497375488e-01 -1.771005690097808838e-01 -2.313958704471588135e-01 1.177531033754348755e-01
1.450000000000000000e+03 3.164685058593750000e+01 1.518443679809570312e+01 -6.330050826072692871e-01 3.380126506090164185e-02 -1.797611564397811890e-01 9.112171828746795654e-02
1.451000000000000000e+03 3.048793029785156250e+01 1.454154968261718750e+01 -3.952088952064514160e-01 3.664742410182952881e-02 -1.075684428215026855e-01 1.363767310976982117e-02
1.452000000000000000e+03 2.710713577270507812e+01 1.596097946166992188e+00 5.534777790307998657e-02 3.759751915931701660e-01 1.293968856334686279e-01 2.808580398559570312e-01
1.453000000000000000e+03 5.161113357543945312e+01 -3.630108594894409180e+00 -1.244189962744712830e-02 -9.308675676584243774e-02 -3.165859729051589966e-02 -2.165843248367309570e-01
1.454000000000000000e+03 4.722918701171875000e+01 -1.379174113273620605e+00 -7.556108832359313965e-01 1.710509210824966431e-01 -1.753679811954498291e-01 -7.809540629386901855e-02
1.455000000000000000e+03 2.875774765014648438e+01 1.367171192169189453e+01 -2.089340984821319580e-01 -3.479215875267982483e-02 -7.311788201332092285e-02 2.089533023536205292e-02
1.456000000000000000e+03 2.616115379333496094e+01 1.299334621429443359e+01 -1.447129249572753906e-02 8.198156021535396576e-03 -1.881940988823771477e-03 5.227874498814344406e-04
1.457000000000000000e+03 2.653735733032226562e+01 9.377601623535156250e+00 -7.437135279178619385e-02 -5.684866383671760559e-02 -3.936600685119628906e-02 -5.472213402390480042e-02
1.458000000000000000e+03 7.645778656005859375e+01 -3.898269271850585938e+01 3.854431584477424622e-02 6.614808082580566406e+00 1.996005654335021973e+00 1.071959137916564941e-01
1.459000000000000000e+03 7.902011108398437500e+01 -3.872790145874023438e+01 1.535111945122480392e-02 6.865483283996582031e+00 2.064250230789184570e+00 7.134314626455307007e-02
1.460000000000000000e+03 7.935891723632812500e+01 -3.333031463623046875e+01 5.337372887879610062e-03 7.363318443298339844e+00 2.210596799850463867e+00 5.571630597114562988e-02
1.461000000000000000e+03 7.782549285888671875e+01 -3.569394683837890625e+01 -5.229582544416189194e-03 6.877629756927490234e+00 2.061719894409179688e+00 1.710702329874038696e-01
1.462000000000000000e+03 7.938716125488281250e+01 -3.196744537353515625e+01 2.286209259182214737e-03 7.506244182586669922e+00 2.252559185028076172e+00 6.522254645824432373e-02
1.463000000000000000e+03 7.938051605224609375e+01 -3.060136604309082031e+01 1.412594504654407501e-02 7.685507297515869141e+00 2.309890031814575195e+00 8.262035995721817017e-02
1.464000000000000000e+03 7.934040069580078125e+01 -2.922666358947753906e+01 -3.796800738200545311e-03 7.893056869506835938e+00 2.366777896881103516e+00 9.571852535009384155e-02
1.465000000000000000e+03 7.929662322998046875e+01 -2.783486747741699219e+01 1.585881225764751434e-02 8.112970352172851562e+00 2.438648700714111328e+00 1.070017293095588684e-01
1.466000000000000000e+03 7.928443908691406250e+01 -2.501725387573242188e+01 -1.093187276273965836e-02 8.607385635375976562e+00 2.578936338424682617e+00 1.182391420006752014e-01
1.467000000000000000e+03 7.930736541748046875e+01 -2.360696983337402344e+01 -1.338075567036867142e-02 8.843597412109375000e+00 2.649064779281616211e+00 9.508360177278518677e-02
1.468000000000000000e+03 7.933319091796875000e+01 -2.220444869995117188e+01 -2.011607401072978973e-02 9.037708282470703125e+00 2.705277681350708008e+00 6.123692169785499573e-02
1.469000000000000000e+03 7.935501098632812500e+01 -2.080976676940917969e+01 -4.930495843291282654e-02 9.139237403869628906e+00 2.726979732513427734e+00 -8.248240686953067780e-03
1.470000000000000000e+03 7.928811645507812500e+01 3.629081344604492188e+01 -2.589352242648601532e-02 7.320421695709228516e+00 2.188358306884765625e+00 -2.504605054855346680e-02
1.471000000000000000e+03 7.637059020996093750e+01 -2.791400337219238281e+01 7.156419008970260620e-02 7.003964424133300781e+00 2.122658491134643555e+00 4.802842438220977783e-01
1.472000000000000000e+03 7.932931518554687500e+01 1.251023006439208984e+01 1.485332008451223373e-02 5.180768966674804688e+00 1.558686614036560059e+00 2.069014310836791992e-01
1.473000000000000000e+03 7.928160095214843750e+01 1.393688392639160156e+01 -3.145292401313781738e-02 5.566688537597656250e+00 1.660570740699768066e+00 1.898989081382751465e-01
1.474000000000000000e+03 7.939650726318359375e+01 1.818621444702148438e+01 -2.166303992271423340e-02 6.437126159667968750e+00 1.924638986587524414e+00 1.413157582283020020e-01
1.475000000000000000e+03 7.811725616455078125e+01 1.696539497375488281e+01 1.463844720274209976e-02 6.352119445800781250e+00 1.910027384757995605e+00 3.656338751316070557e-01
1.476000000000000000e+03 7.938224029541015625e+01 2.230709266662597656e+01 3.164282068610191345e-03 7.170060634613037109e+00 2.151967525482177734e+00 8.617430180311203003e-02
1.477000000000000000e+03 7.821650695800781250e+01 1.967253112792968750e+01 -3.417708724737167358e-02 6.715318202972412109e+00 2.004342317581176758e+00 3.156123161315917969e-01
1.478000000000000000e+03 7.932676696777343750e+01 2.507598114013671875e+01 1.848757849074900150e-03 7.411128520965576172e+00 2.223893165588378906e+00 4.420618340373039246e-02
1.479000000000000000e+03 7.807398223876953125e+01 2.366448211669921875e+01 -3.784017264842987061e-02 7.098891735076904297e+00 2.118315458297729492e+00 1.590885370969772339e-01
1.480000000000000000e+03 7.929080963134765625e+01 2.647077178955078125e+01 -1.978811062872409821e-02 7.462644100189208984e+00 2.232856750488281250e+00 2.488749288022518158e-02
1.481000000000000000e+03 7.755559539794921875e+01 3.067804908752441406e+01 -2.046004682779312134e-02 7.039690494537353516e+00 2.105769157409667969e+00 -4.054483771324157715e-02
1.482000000000000000e+03 7.768846130371093750e+01 2.923878097534179688e+01 -2.186686545610427856e-02 7.118612289428710938e+00 2.129023551940917969e+00 -1.552773080766201019e-02
1.483000000000000000e+03 7.906963348388671875e+01 3.358042144775390625e+01 1.995679549872875214e-02 7.380532741546630859e+00 2.220146894454956055e+00 -2.376832067966461182e-02
1.484000000000000000e+03 7.936447143554687500e+01 -1.524988174438476562e+01 -4.919891804456710815e-02 7.964483261108398438e+00 2.374585390090942383e+00 -2.315883785486221313e-01
1.485000000000000000e+03 7.940437316894531250e+01 -1.115688896179199219e+01 -1.871151849627494812e-02 7.349689483642578125e+00 2.199293375015258789e+00 7.589648663997650146e-02
1.486000000000000000e+03 7.819593811035156250e+01 -1.373461532592773438e+01 2.274988889694213867e-01 8.060770034790039062e+00 2.486480712890625000e+00 -3.233284652233123779e-01
1.487000000000000000e+03 7.937085723876953125e+01 -1.942047691345214844e+01 -6.204533390700817108e-03 9.096371650695800781e+00 2.727050065994262695e+00 -7.631672918796539307e-02
1.488000000000000000e+03 7.937533569335937500e+01 -1.803185081481933594e+01 -9.712856262922286987e-02 8.870365142822265625e+00 2.631970882415771484e+00 -1.799910515546798706e-01
1.489000000000000000e+03 7.935628509521484375e+01 -8.371186256408691406e+00 -2.448010817170143127e-02 8.380164146423339844e+00 2.506705045700073242e+00 3.419675827026367188e-01
1.490000000000000000e+03 7.658220672607421875e+01 -1.204317665100097656e+01 8.998932242393493652e-01 8.555543899536132812e+00 2.836631059646606445e+00 -5.524589121341705322e-02
1.491000000000000000e+03 7.930459594726562500e+01 -4.109949111938476562e+00 -1.887656934559345245e-02 1.118937873840332031e+01 3.351150751113891602e+00 4.919534325599670410e-01
1.492000000000000000e+03 7.932183074951171875e+01 -1.276897549629211426e+00 -1.691368818283081055e-01 1.301399803161621094e+01 3.853458404541015625e+00 2.143967449665069580e-01
1.493000000000000000e+03 7.635673522949218750e+01 -5.348000049591064453e+00 -3.983375150710344315e-03 8.268216133117675781e+00 2.479269742965698242e+00 1.246882319450378418e+00
1.494000000000000000e+03 7.952713775634765625e+01 2.836760044097900391e+00 -5.665554106235504150e-02 1.102080821990966797e+01 3.289245843887329102e+00 -9.483997225761413574e-01
1.495000000000000000e+03 7.691768646240234375e+01 -1.384480476379394531e+00 -6.717165112495422363e-01 8.193901062011718750e+00 2.256655454635620117e+00 7.359975576400756836e-01
1.496000000000000000e+03 7.939137268066406250e+01 5.537968635559082031e+00 1.450191624462604523e-02 5.160031318664550781e+00 1.552360057830810547e+00 -1.204732298851013184e+00
1.497000000000000000e+03 7.681333923339843750e+01 4.155033588409423828e+00 -2.239523231983184814e-01 1.114550971984863281e+01 3.276467084884643555e+00 -2.868625640869140625e+00
1.498000000000000000e+03 7.939303588867187500e+01 6.965278625488281250e+00 5.799479484558105469e-01 3.375013589859008789e+00 1.186488389968872070e+00 -5.756194591522216797e-01
1.499000000000000000e+03 7.661907196044921875e+01 6.948203086853027344e+00 3.280368566513061523e+00 1.580903053283691406e+01 5.726819515228271484e+00 -2.676886320114135742e+00
1.500000000000000000e+03 7.732700347900390625e+01 3.221647644042968750e+01 -3.173601347953081131e-03 6.965393543243408203e+00 2.088665962219238281e+00 -3.746151924133300781e-02
1.501000000000000000e+03 7.807667541503906250e+01 4.173840332031250000e+01 1.424926668405532837e-01 7.014604091644287109e+00 2.147129058837890625e+00 -3.968976810574531555e-02
1.502000000000000000e+03 7.733358001708984375e+01 3.548495864868164062e+01 -5.856359377503395081e-03 6.945207118988037109e+00 2.081805229187011719e+00 -8.216255158185958862e-02
1.503000000000000000e+03 7.768747711181640625e+01 6.244703769683837891e+00 1.114120602607727051e+00 8.955614089965820312e+00 3.020920276641845703e+00 -2.269314765930175781e+00
1.504000000000000000e+03 7.811006164550781250e+01 -2.581366062164306641e+00 -1.040247268974781036e-03 1.017375278472900391e+01 3.051813840866088867e+00 9.464492201805114746e-01
1.505000000000000000e+03 7.820124053955078125e+01 -9.810946464538574219e+00 1.797459125518798828e-01 8.210142135620117188e+00 2.516966342926025391e+00 5.411224961280822754e-01
1.506000000000000000e+03 7.812039184570312500e+01 -1.923784065246582031e+01 -2.429754137992858887e-01 8.641051292419433594e+00 2.519422769546508789e+00 -1.831211149692535400e-01
1.507000000000000000e+03 7.440335083007812500e+01 -1.315038585662841797e+01 1.269766569137573242e+00 9.699980735778808594e+00 3.290924072265625000e+00 -1.664046645164489746e-01
1.508000000000000000e+03 2.688448715209960938e+01 -5.008717060089111328e+00 3.178641200065612793e-01 -7.999827861785888672e-01 -1.446356028318405151e-01 -5.576450228691101074e-01
1.509000000000000000e+03 5.677508544921875000e+01 -1.295974254608154297e+01 -2.270317524671554565e-01 3.174732923507690430e+00 8.843103051185607910e-01 8.486650586128234863e-01
1.510000000000000000e+03 5.599301528930664062e+01 -9.370051383972167969e+00 -1.542195379734039307e-01 1.334491491317749023e+00 3.540816009044647217e-01 4.829548001289367676e-01
1.511000000000000000e+03 5.593365859985351562e+01 -1.456038284301757812e+01 1.999534964561462402e-01 4.193966388702392578e+00 1.318175911903381348e+00 -2.248732140287756920e-03
1.512000000000000000e+03 5.805490875244140625e+01 -1.186434459686279297e+01 -3.020807206630706787e-01 3.563066482543945312e+00 9.782957434654235840e-01 1.301913738250732422e+00
1.513000000000000000e+03 4.544088363647460938e+01 -1.145398712158203125e+01 2.587818801403045654e-01 4.178922474384307861e-01 2.030022442340850830e-01 -3.821489512920379639e-01
1.514000000000000000e+03 4.841540145874023438e+01 -1.900121569633483887e+00 -5.974155664443969727e-01 2.392514199018478394e-01 -1.074492484331130981e-01 -1.513599008321762085e-01
1.515000000000000000e+03 5.254803466796875000e+01 -4.804721355438232422e+00 2.994170784950256348e-01 -3.638196289539337158e-01 -1.932076737284660339e-02 -1.993070244789123535e-01
1.516000000000000000e+03 5.099121856689453125e+01 -2.375396728515625000e+00 -5.136073231697082520e-01 1.499807983636856079e-01 -1.090879589319229126e-01 -2.909857630729675293e-01
1.517000000000000000e+03 4.422536468505859375e+01 -8.889958381652832031e+00 2.861614227294921875e-01 2.040168344974517822e-01 1.470534801483154297e-01 -3.569015860557556152e-01
1.518000000000000000e+03 4.487585449218750000e+01 -7.076133728027343750e+00 3.881957009434700012e-02 2.365117967128753662e-01 8.259940892457962036e-02 -1.605555415153503418e-01
1.519000000000000000e+03 5.727041244506835938e+01 -1.547591018676757812e+01 1.771793216466903687e-01 4.262867450714111328e+00 1.332013964653015137e+00 7.432377934455871582e-01
1.520000000000000000e+03 4.310916900634765625e+01 -9.108784675598144531e+00 3.490965962409973145e-01 -6.316717714071273804e-03 1.028339564800262451e-01 -3.138516843318939209e-01
1.521000000000000000e+03 4.708381652832031250e+01 -1.445285511016845703e+01 -1.951494216918945312e-01 5.124318003654479980e-01 9.518470615148544312e-02 -2.574300467967987061e-01
1.522000000000000000e+03 5.428027725219726562e+01 -7.088340759277343750e+00 3.128201663494110107e-01 -2.260062694549560547e-01 2.604416944086551666e-02 3.829427063465118408e-02
1.523000000000000000e+03 5.068954086303710938e+01 -1.890595245361328125e+01 -9.002311229705810547e-01 4.405631124973297119e-01 -1.379003971815109253e-01 -6.272997707128524780e-02
1.524000000000000000e+03 5.510577392578125000e+01 -8.225696563720703125e+00 1.500328183174133301e-01 3.268689215183258057e-01 1.430705189704895020e-01 2.525448203086853027e-01
1.525000000000000000e+03 5.190362167358398438e+01 -1.767611312866210938e+01 -5.798378586769104004e-01 1.202866155654191971e-02 -1.703427582979202271e-01 3.636119961738586426e-01
1.526000000000000000e+03 2.114270210266113281e+00 2.621310997009277344e+01 -1.478193444199860096e-03 -6.667973846197128296e-02 -2.044737897813320160e-02 1.963286101818084717e-02
1.527000000000000000e+03 6.945427656173706055e-01 3.189544105529785156e+01 7.818137528374791145e-04 -1.208822429180145264e-01 -3.603012859821319580e-02 6.397636141628026962e-03
1.528000000000000000e+03 1.833324670791625977e+00 3.457200241088867188e+01 1.246732310391962528e-03 -1.374364942312240601e-01 -4.085692763328552246e-02 1.370465382933616638e-02
1.529000000000000000e+03 3.553546428680419922e+00 3.902699279785156250e+01 6.235569715499877930e-03 -1.558979600667953491e-01 -4.489871859550476074e-02 1.281363982707262039e-02
1.530000000000000000e+03 9.663288593292236328e-01 3.869149398803710938e+01 2.091078349621966481e-04 -1.664760410785675049e-01 -4.988008365035057068e-02 2.717790426686406136e-03
1.531000000000000000e+03 2.611673116683959961e+00 -3.626199722290039062e+01 9.777544997632503510e-03 -3.476032316684722900e-01 -1.013476997613906860e-01 -2.274310216307640076e-02
1.532000000000000000e+03 7.028536200523376465e-01 -3.750272369384765625e+01 6.832009647041559219e-03 -3.872159123420715332e-01 -1.141151636838912964e-01 -2.765617333352565765e-03
1.533000000000000000e+03 1.938136935234069824e+00 2.337973976135253906e+01 -2.125587314367294312e-03 -4.471726715564727783e-02 -1.405285671353340149e-02 1.410806551575660706e-02
1.534000000000000000e+03 2.200870990753173828e+00 3.052695274353027344e+01 1.008204533718526363e-03 -1.041345223784446716e-01 -3.093789517879486084e-02 2.094141393899917603e-02
1.535000000000000000e+03 8.479903936386108398e-01 -3.043561935424804688e+01 -1.798136741854250431e-03 -2.981136739253997803e-01 -8.997354656457901001e-02 -1.639085635542869568e-02
1.536000000000000000e+03 6.959525346755981445e-01 -6.449200630187988281e+00 2.729556756094098091e-03 1.818400807678699493e-02 6.274069193750619888e-03 2.967627719044685364e-03
1.537000000000000000e+03 2.436052799224853516e+00 -3.829757690429687500e+00 1.554745947942137718e-03 2.160239731892943382e-03 1.114495680667459965e-03 7.040846161544322968e-03
1.538000000000000000e+03 5.926006436347961426e-01 -1.072249794006347656e+01 -5.128417629748582840e-03 2.593742869794368744e-02 6.242703646421432495e-03 -7.967096171341836452e-04
1.539000000000000000e+03 1.802655220031738281e+00 -9.424783706665039062e+00 -6.421928294003009796e-03 1.320564094930887222e-02 2.035113750025629997e-03 2.116490359185263515e-04
1.540000000000000000e+03 6.102767586708068848e-01 -1.353374481201171875e+01 -5.703261122107505798e-03 1.245472766458988190e-02 2.025439869612455368e-03 -4.530888050794601440e-03
1.541000000000000000e+03 6.207057833671569824e-01 -1.771863365173339844e+01 5.141616333276033401e-03 -3.705670312047004700e-02 -9.574525989592075348e-03 -9.217143058776855469e-03
1.542000000000000000e+03 1.928474307060241699e+00 -1.630314254760742188e+01 9.115829598158597946e-04 -3.553269058465957642e-02 -1.038633193820714951e-02 -2.513116225600242615e-02
1.543000000000000000e+03 6.055732965469360352e-01 -1.910272216796875000e+01 -6.274366285651922226e-03 -6.034744158387184143e-02 -1.998654194176197052e-02 -1.108748093247413635e-02
1.544000000000000000e+03 6.172566413879394531e-01 -2.049201774597167969e+01 4.909130744636058807e-03 -8.756324648857116699e-02 -2.479623630642890930e-02 -1.160407066345214844e-02
1.545000000000000000e+03 6.771327853202819824e-01 -2.188713645935058594e+01 -7.113324478268623352e-03 -1.180683597922325134e-01 -3.755450248718261719e-02 -1.552657037973403931e-02
1.546000000000000000e+03 7.804955244064331055e-01 -2.328522682189941406e+01 4.298928659409284592e-03 -1.503920406103134155e-01 -4.382793605327606201e-02 -1.680418476462364197e-02
1.547000000000000000e+03 2.887006282806396484e+00 -2.585518836975097656e+01 -3.685295348986983299e-03 -1.956238001585006714e-01 -5.979273095726966858e-02 -5.794305354356765747e-02
1.548000000000000000e+03 1.992828965187072754e+00 1.625457382202148438e+01 -8.749771513976156712e-04 -1.699823699891567230e-02 -5.361964460462331772e-03 1.542122103273868561e-03
1.549000000000000000e+03 6.453730463981628418e-01 1.488517284393310547e+01 -1.294908433919772506e-04 -1.428931765258312225e-02 -4.325642716139554977e-03 8.033879566937685013e-05
1.550000000000000000e+03 5.466619133949279785e-01 1.066447257995605469e+01 4.989148583263158798e-04 -1.189378555864095688e-02 -3.418461186811327934e-03 1.122882589697837830e-03
1.551000000000000000e+03 5.762463212013244629e-01 7.847385406494140625e+00 4.459893680177628994e-04 -5.316024180501699448e-03 -1.461010542698204517e-03 1.605260302312672138e-03
1.552000000000000000e+03 1.891127943992614746e+00 1.917274475097656250e+01 -1.851367414928972721e-03 -2.344806306064128876e-02 -7.589829154312610626e-03 5.199931096285581589e-03
1.553000000000000000e+03 1.879265308380126953e+00 2.197690200805664062e+01 -2.137038856744766235e-03 -3.581716865301132202e-02 -1.138626225292682648e-02 1.036755926907062531e-02
1.554000000000000000e+03 3.274909019470214844e+00 -3.872291946411132812e+01 9.540319442749023438e-03 -3.618028759956359863e-01 -1.056787669658660889e-01 -1.799020543694496155e-02
1.555000000000000000e+03 1.988808631896972656e+00 -3.779528427124023438e+01 5.066385958343744278e-03 -3.699150681495666504e-01 -1.094546020030975342e-01 -1.194352377206087112e-02
1.556000000000000000e+03 2.673372745513916016e+00 -3.180932235717773438e+01 2.492286497727036476e-03 -2.952368259429931641e-01 -8.782336115837097168e-02 -4.245648160576820374e-02
1.557000000000000000e+03 2.759084939956665039e+00 -2.431466484069824219e+01 3.802400082349777222e-03 -1.711415201425552368e-01 -5.020173639059066772e-02 -5.664666742086410522e-02
1.558000000000000000e+03 8.911172747611999512e-01 -2.468656539916992188e+01 -5.252556409686803818e-03 -1.803190559148788452e-01 -5.567148327827453613e-02 -1.873233355581760406e-02
1.559000000000000000e+03 1.894791364669799805e+00 -1.493512725830078125e+01 -8.363730274140834808e-03 -1.918862201273441315e-02 -8.265705779194831848e-03 -1.959345676004886627e-02
1.560000000000000000e+03 6.239634752273559570e-01 -1.493487644195556641e+01 4.338441882282495499e-03 -6.470591179095208645e-04 1.107414835132658482e-03 -6.673187017440795898e-03
1.561000000000000000e+03 3.202054262161254883e+00 -7.066514015197753906e+00 -1.554429880343377590e-03 3.161640837788581848e-03 4.821632755920290947e-04 5.673674400895833969e-03
1.562000000000000000e+03 6.258478760719299316e-01 -7.909945487976074219e+00 -4.376178141683340073e-03 2.400182746350765228e-02 5.887694656848907471e-03 2.009833697229623795e-03
1.563000000000000000e+03 1.302210211753845215e+00 -3.301578521728515625e+00 -5.478874663822352886e-04 5.411498248577117920e-03 1.459083170630037785e-03 2.819373039528727531e-03
1.564000000000000000e+03 1.826118350028991699e+00 1.333493041992187500e+01 3.945766657125204802e-04 -1.430892758071422577e-02 -4.174305126070976257e-03 3.599978517740964890e-04
1.565000000000000000e+03 3.673958587646484375e+01 6.854596614837646484e+00 3.500910475850105286e-02 2.742658369243144989e-03 1.132552884519100189e-02 -5.639768019318580627e-02
1.566000000000000000e+03 3.049449348449707031e+01 3.569126129150390625e+00 3.845009505748748779e-01 -1.649869978427886963e-01 6.585419178009033203e-02 1.047691777348518372e-01
1.567000000000000000e+03 3.172264289855957031e+01 4.076458930969238281e+00 3.861810863018035889e-01 -2.381088882684707642e-01 4.442165791988372803e-02 -1.112053692340850830e-01
1.568000000000000000e+03 3.490378952026367188e+01 6.183553695678710938e+00 1.024067997932434082e-01 -4.936692491173744202e-02 1.591196283698081970e-02 -4.399215057492256165e-02
1.569000000000000000e+03 3.131716728210449219e+01 5.354565620422363281e+00 4.010998010635375977e-01 8.469757437705993652e-02 1.457392126321792603e-01 2.058825343847274780e-01
1.570000000000000000e+03 3.443214797973632812e+01 4.749319076538085938e+00 5.586696416139602661e-02 -1.130647584795951843e-01 -1.715933717787265778e-02 -1.346150487661361694e-01
1.571000000000000000e+03 2.712234497070312500e+01 -7.666680812835693359e+00 -5.152219533920288086e-01 -6.240654587745666504e-01 -3.417862355709075928e-01 -5.990822911262512207e-01
1.572000000000000000e+03 2.455328178405761719e+01 -4.367979049682617188e+00 6.815741956233978271e-02 -2.429866343736648560e-01 -5.244876444339752197e-02 -1.262751817703247070e-01
1.573000000000000000e+03 2.066042137145996094e+01 1.342385411262512207e+00 7.993487641215324402e-03 -1.553165260702371597e-02 -2.261449582874774933e-03 -7.795553188771009445e-03
1.574000000000000000e+03 1.532592105865478516e+01 -4.576724529266357422e+00 1.232872344553470612e-02 1.368303690105676651e-02 7.803528103977441788e-03 -6.509090890176594257e-04
1.575000000000000000e+03 2.293102455139160156e+01 -2.300291776657104492e+00 1.494518760591745377e-02 1.300049573183059692e-01 4.348504543304443359e-02 -7.026201486587524414e-02
1.576000000000000000e+03 1.886139106750488281e+01 -7.399647235870361328e+00 -7.521016150712966919e-02 2.105361036956310272e-02 -1.624696515500545502e-02 1.596659794449806213e-02
1.577000000000000000e+03 5.190154266357421875e+01 4.026213169097900391e+00 -2.008053511381149292e-01 -1.212278082966804504e-01 -9.660994261503219604e-02 1.375326365232467651e-01
1.578000000000000000e+03 6.178346633911132812e+01 -1.646394968032836914e+00 -8.704624772071838379e-01 6.757007598876953125e+00 1.765963554382324219e+00 1.066781878471374512e+00
1.579000000000000000e+03 6.293858337402343750e+01 2.684996128082275391e+00 1.623447537422180176e-01 2.923736572265625000e+00 9.258244037628173828e-01 2.219671249389648438e+00
1.580000000000000000e+03 5.457690811157226562e+01 7.073433399200439453e+00 -1.062829699367284775e-02 2.688575163483619690e-02 4.877236671745777130e-03 -7.783007808029651642e-03
1.581000000000000000e+03 5.346415328979492188e+01 8.485920906066894531e+00 -6.542162969708442688e-03 -1.349703129380941391e-02 -6.011758465319871902e-03 -1.739413291215896606e-02
1.582000000000000000e+03 6.045597839355468750e+01 1.517988085746765137e+00 -1.746407747268676758e+00 2.254645586013793945e+00 1.524713486433029175e-01 8.293183445930480957e-01
1.583000000000000000e+03 6.170490646362304688e+01 2.267508983612060547e+00 -6.827735900878906250e-01 2.767612934112548828e+00 6.254518032073974609e-01 1.844509243965148926e+00
1.584000000000000000e+03 6.455136108398437500e+01 6.147745132446289062e+00 1.584216833114624023e+00 3.822715282440185547e+00 1.622079610824584961e+00 2.121589660644531250e+00
1.585000000000000000e+03 6.505123138427734375e+01 6.977190971374511719e+00 1.154862046241760254e+00 4.302897930145263672e+00 1.637328028678894043e+00 2.384551048278808594e+00
1.586000000000000000e+03 2.670328330993652344e+01 1.483953762054443359e+01 -1.831262558698654175e-01 -2.805383317172527313e-02 -6.335403025150299072e-02 1.611117273569107056e-01
1.587000000000000000e+03 2.138362121582031250e+01 1.797250938415527344e+01 -3.294632732868194580e-01 -2.866418333724141121e-03 -9.969890862703323364e-02 1.175949126482009888e-01
1.588000000000000000e+03 1.497985076904296875e+01 1.505661392211914062e+01 -4.090102016925811768e-02 1.897761970758438110e-02 -6.577020045369863510e-03 1.574156060814857483e-02
1.589000000000000000e+03 1.404770088195800781e+01 1.375052928924560547e+01 -2.854793099686503410e-03 1.603596471250057220e-02 3.954351413995027542e-03 1.283687446266412735e-02
1.590000000000000000e+03 1.854209899902343750e+01 1.691961288452148438e+01 -1.414331793785095215e-01 1.799499057233333588e-02 -3.703145682811737061e-02 3.775633871555328369e-02
1.591000000000000000e+03 1.129689121246337891e+01 1.065148925781250000e+01 1.594663783907890320e-02 1.940520480275154114e-02 1.060555223375558853e-02 1.695033907890319824e-02
1.592000000000000000e+03 1.994559860229492188e+01 1.739005279541015625e+01 -1.977777183055877686e-01 2.922647446393966675e-02 -5.056537315249443054e-02 3.545950353145599365e-02
1.593000000000000000e+03 2.538098526000976562e+01 1.231145954132080078e+01 -1.584006287157535553e-02 3.817417845129966736e-02 6.700235418975353241e-03 -1.188205927610397339e-02
1.594000000000000000e+03 2.782861900329589844e+01 1.444500637054443359e+01 -2.381667643785476685e-01 -1.399796921759843826e-03 -7.186996936798095703e-02 1.060983985662460327e-01
1.595000000000000000e+03 6.465134429931640625e+01 1.442142677307128906e+01 -8.017252087593078613e-01 4.206448078155517578e+00 1.021416783332824707e+00 -2.830001354217529297e+00
1.596000000000000000e+03 2.187853813171386719e+01 8.141050338745117188e+00 -1.829046197235584259e-02 1.755404099822044373e-02 -2.209264494013041258e-04 -5.359281785786151886e-03
1.597000000000000000e+03 2.389891815185546875e+01 1.003766441345214844e+01 -2.640188485383987427e-02 2.564001269638538361e-02 -2.285618102177977562e-04 -8.339841850101947784e-03
1.598000000000000000e+03 1.886141586303710938e+01 8.681600570678710938e+00 2.601383440196514130e-02 1.250699069350957870e-02 1.155624724924564362e-02 1.309685595333576202e-02
1.599000000000000000e+03 1.914763069152832031e+01 6.890867233276367188e+00 -3.006197512149810791e-02 5.629983264952898026e-03 -7.329597603529691696e-03 -1.287321280688047409e-02
1.600000000000000000e+03 2.265576553344726562e+01 1.135663890838623047e+01 2.873861603438854218e-02 4.475575312972068787e-02 2.204830944538116455e-02 3.578354790806770325e-02
1.601000000000000000e+03 4.571538925170898438e+01 1.573330211639404297e+01 -1.826401948928833008e+00 1.142765954136848450e-01 -5.136376023292541504e-01 3.362195566296577454e-02
1.602000000000000000e+03 4.377784347534179688e+01 1.440273952484130859e+01 -8.853773474693298340e-01 6.619440764188766479e-02 -2.457548677921295166e-01 -1.122114062309265137e-01
1.603000000000000000e+03 5.476942443847656250e+01 8.268855094909667969e+00 -4.765605553984642029e-03 1.255247090011835098e-02 2.336059696972370148e-03 -1.496687438338994980e-02
1.604000000000000000e+03 6.223648452758789062e+01 -8.265721321105957031e+00 7.410528063774108887e-01 7.096599102020263672e+00 2.351295471191406250e+00 4.599747359752655029e-01
1.605000000000000000e+03 6.262547683715820312e+01 -1.112143707275390625e+01 -3.891725242137908936e-01 5.225288867950439453e+00 1.450834870338439941e+00 5.402390360832214355e-01
1.606000000000000000e+03 2.804426193237304688e+01 2.657781124114990234e+00 5.461683273315429688e-01 3.475032746791839600e-01 2.681014835834503174e-01 3.997172713279724121e-01
1.607000000000000000e+03 4.276419830322265625e+01 -1.760840606689453125e+01 -6.849489212036132812e-01 4.648362845182418823e-02 -1.915395855903625488e-01 -8.069919422268867493e-03
1.608000000000000000e+03 3.734358215332031250e+01 1.540982723236083984e+01 -7.504611611366271973e-01 1.854296214878559113e-02 -2.195754647254943848e-01 1.071682423353195190e-01
1.609000000000000000e+03 3.498468017578125000e+01 1.511954212188720703e+01 -9.470183253288269043e-01 -2.617009878158569336e-01 -3.626157939434051514e-01 1.716981679201126099e-01
1.610000000000000000e+03 5.162379074096679688e+01 -2.016724777221679688e+01 -3.273328244686126709e-01 5.112147927284240723e-01 5.516458675265312195e-02 -8.892480283975601196e-02
1.611000000000000000e+03 5.493984985351562500e+01 -2.149649620056152344e+01 -2.246851325035095215e-01 2.104031085968017578e+00 5.638037919998168945e-01 9.358548521995544434e-01
1.612000000000000000e+03 6.640808105468750000e+01 1.229642772674560547e+01 1.568539619445800781e+00 9.286343574523925781e+00 3.256464958190917969e+00 -4.595388412475585938e+00
1.613000000000000000e+03 6.500467681884765625e+01 7.919298648834228516e+00 1.268866896629333496e+00 2.553580522537231445e+00 1.146734237670898438e+00 2.125777959823608398e+00
1.614000000000000000e+03 6.615483856201171875e+01 1.224705600738525391e+01 1.891704440116882324e+00 7.682957649230957031e+00 2.872398614883422852e+00 -4.338599205017089844e+00
1.615000000000000000e+03 6.668109893798828125e+01 1.208594322204589844e+01 1.286058545112609863e+00 1.101666355133056641e+01 3.690816640853881836e+00 -4.819024562835693359e+00
1.616000000000000000e+03 6.718046569824218750e+01 1.217441654205322266e+01 3.037565350532531738e-01 1.356844234466552734e+01 4.161659717559814453e+00 -3.507508516311645508e+00
1.617000000000000000e+03 6.448264312744140625e+01 7.543673992156982422e+00 9.494653940200805664e-01 1.878839492797851562e+00 8.484914898872375488e-01 1.427542090415954590e+00
1.618000000000000000e+03 2.162489509582519531e+01 7.392035007476806641e+00 -4.100298509001731873e-02 1.429153233766555786e-02 -8.013435639441013336e-03 -1.620754599571228027e-02
1.619000000000000000e+03 4.286314487457275391e+00 -2.399432897567749023e+00 7.361001335084438324e-03 1.255504670552909374e-03 2.584951696917414665e-03 9.091028943657875061e-03
1.620000000000000000e+03 6.554901123046875000e+01 1.327071952819824219e+01 1.142261981964111328e+00 6.426750659942626953e+00 2.270703792572021484e+00 -2.913001298904418945e+00
1.621000000000000000e+03 6.648861694335937500e+01 6.565997123718261719e+00 4.804306626319885254e-01 1.040215682983398438e+01 3.264776229858398438e+00 1.791515588760375977e+00
1.622000000000000000e+03 3.718927764892578125e+01 1.378376102447509766e+01 -7.213799357414245605e-01 2.212265692651271820e-02 -2.097771912813186646e-01 1.914848238229751587e-01
1.623000000000000000e+03 3.718972396850585938e+01 1.449669933319091797e+01 -7.251845002174377441e-01 4.018614068627357483e-02 -2.054995149374008179e-01 1.006934270262718201e-01
1.624000000000000000e+03 1.978873062133789062e+01 7.340069770812988281e+00 -1.379534415900707245e-02 5.031233653426170349e-03 -2.629233058542013168e-03 -1.356002874672412872e-02
1.625000000000000000e+03 2.159369468688964844e+01 6.205587863922119141e+00 -3.919500485062599182e-02 7.294855546206235886e-03 -9.570045396685600281e-03 -2.195496670901775360e-02
1.626000000000000000e+03 3.844848632812500000e+01 1.441948890686035156e+01 -6.788491606712341309e-01 1.362427473068237305e-01 -1.627819240093231201e-01 1.173016950488090515e-01
1.627000000000000000e+03 5.315937042236328125e+00 -3.956953048706054688e+00 -1.754770288243889809e-03 1.733783399686217308e-03 -6.296066203503869474e-06 8.820034563541412354e-03
1.628000000000000000e+03 1.069642257690429688e+01 -3.371348619461059570e+00 3.883078694343566895e-03 -7.129702134989202023e-04 9.510325035080313683e-04 3.575771348550915718e-03
1.629000000000000000e+03 9.466075897216796875e+00 -2.476580619812011719e+00 1.346674934029579163e-02 -9.160723537206649780e-03 1.291807857342064381e-03 1.129975658841431141e-03
1.630000000000000000e+03 5.328227615356445312e+01 7.144096374511718750e+00 -1.089573837816715240e-02 -1.856908202171325684e-02 -8.839446119964122772e-03 -1.507687941193580627e-02
1.631000000000000000e+03 1.976926445960998535e+00 3.862292051315307617e+00 -1.319593429798260331e-04 -6.177956820465624332e-04 -2.249265089631080627e-04 1.104998518712818623e-03
1.632000000000000000e+03 5.462733459472656250e+01 1.458781242370605469e+01 -1.236362576484680176e+00 3.144253194332122803e-01 -2.765811681747436523e-01 4.221598803997039795e-01
1.633000000000000000e+03 5.392869949340820312e+01 1.457903957366943359e+01 -1.273182392120361328e+00 2.692392170429229736e-01 -3.011829555034637451e-01 4.493655264377593994e-01
1.634000000000000000e+03 5.335305404663085938e+01 1.475352001190185547e+01 -1.336491465568542480e+00 2.345494925975799561e-01 -3.305825889110565186e-01 5.254864692687988281e-01
1.635000000000000000e+03 1.000782871246337891e+01 -3.254030942916870117e+00 6.684498395770788193e-03 -1.140647474676370621e-02 -1.416592858731746674e-03 -1.055505941621959209e-03
1.636000000000000000e+03 1.297072315216064453e+01 -3.782877206802368164e+00 6.847676355391740799e-03 -1.915068179368972778e-02 -3.690901678055524826e-03 -7.272827904671430588e-03
1.637000000000000000e+03 2.065184783935546875e+01 6.738569259643554688e+00 -3.704833984375000000e-02 8.300312794744968414e-03 -8.624408394098281860e-03 -2.017892152070999146e-02
1.638000000000000000e+03 8.106582641601562500e+00 -2.418384790420532227e+00 1.492236182093620300e-02 -7.372946944087743759e-03 2.264824463054537773e-03 3.217728808522224426e-03
1.639000000000000000e+03 9.354655265808105469e+00 -3.146730422973632812e+00 5.390751175582408905e-03 -5.318354815244674683e-04 1.457674778066575527e-03 4.914196208119392395e-03
1.640000000000000000e+03 2.068375587463378906e+01 7.472141265869140625e+00 -1.862316951155662537e-02 1.226383075118064880e-02 -1.907801721245050430e-03 -4.760141950100660324e-03
1.641000000000000000e+03 5.399931430816650391e+00 -3.239599943161010742e+00 6.682354025542736053e-03 -6.761110853403806686e-04 1.801872975192964077e-03 8.683938533067703247e-03
1.642000000000000000e+03 8.073741912841796875e+00 -3.095982551574707031e+00 3.343797056004405022e-03 1.225482788868248463e-03 1.370783895254135132e-03 7.132262457162141800e-03
1.643000000000000000e+03 5.866880798339843750e+01 1.487832736968994141e+01 -1.130297541618347168e+00 4.553683698177337646e-01 -2.024787366390228271e-01 6.228918209671974182e-02
1.644000000000000000e+03 5.766958236694335938e+01 1.428395462036132812e+01 -1.337426185607910156e+00 4.860142767429351807e-01 -2.554235756397247314e-01 9.923245012760162354e-02
1.645000000000000000e+03 5.693838119506835938e+01 1.438720989227294922e+01 -1.266325235366821289e+00 4.918066859245300293e-01 -2.323555499315261841e-01 1.042456179857254028e-01
1.646000000000000000e+03 5.617736816406250000e+01 1.450378227233886719e+01 -1.217168092727661133e+00 4.049506187438964844e-01 -2.436652481555938721e-01 2.432907521724700928e-01
1.647000000000000000e+03 5.955540847778320312e+01 1.327149295806884766e+01 -1.690690159797668457e+00 9.635303914546966553e-02 -4.783011376857757568e-01 -2.783917486667633057e-01
1.648000000000000000e+03 5.899615859985351562e+01 1.416619300842285156e+01 -1.517528414726257324e+00 4.492346644401550293e-01 -3.204881250858306885e-01 -2.571202814579010010e-03
1.649000000000000000e+03 4.158924865722656250e+01 1.479004001617431641e+01 -7.668327093124389648e-01 2.075187414884567261e-01 -1.677941828966140747e-01 -1.724542304873466492e-02
1.650000000000000000e+03 4.274638366699218750e+01 1.397147655487060547e+01 -6.581225991249084473e-01 1.434071660041809082e-01 -1.544146239757537842e-01 -9.909029304981231689e-02
1.651000000000000000e+03 3.984059143066406250e+01 1.566537284851074219e+01 -7.981322407722473145e-01 1.624211370944976807e-01 -1.907133311033248901e-01 1.243920326232910156e-01
1.652000000000000000e+03 3.920690917968750000e+01 1.373822116851806641e+01 -5.764350295066833496e-01 1.222475990653038025e-01 -1.362562328577041626e-01 9.275119751691818237e-02
1.653000000000000000e+03 3.994569778442382812e+01 1.467611885070800781e+01 -6.889645457267761230e-01 1.718714237213134766e-01 -1.551279425621032715e-01 5.139517784118652344e-02
1.654000000000000000e+03 2.582882165908813477e+00 5.032356262207031250e+00 -1.034556538797914982e-03 -1.325048739090561867e-03 -7.078815833665430546e-04 2.284141257405281067e-03
1.655000000000000000e+03 8.873541831970214844e+00 8.909843444824218750e+00 2.636071853339672089e-02 4.928324371576309204e-03 9.386712685227394104e-03 9.220838546752929688e-03
1.656000000000000000e+03 6.798268795013427734e+00 7.836108684539794922e+00 9.870796930044889450e-04 -9.579506702721118927e-03 -2.577727893367409706e-03 1.721950620412826538e-02
1.657000000000000000e+03 9.204590797424316406e+00 7.873793601989746094e+00 1.168023888021707535e-02 8.493324741721153259e-03 6.052069365978240967e-03 1.144553651101887226e-03
1.658000000000000000e+03 9.632807731628417969e+00 9.311717033386230469e+00 1.192330382764339447e-02 9.566241875290870667e-03 6.446863524615764618e-03 4.730763845145702362e-03
1.659000000000000000e+03 5.435969352722167969e+00 6.058049201965332031e+00 -1.705194264650344849e-02 -1.306684687733650208e-03 -5.507587920874357224e-03 1.087630260735750198e-02
1.660000000000000000e+03 5.059431076049804688e+00 5.448195457458496094e+00 -8.975383825600147247e-03 1.703903195448219776e-03 -2.181444317102432251e-03 6.529146805405616760e-03
1.661000000000000000e+03 4.631381988525390625e+00 4.908643722534179688e+00 -9.352621622383594513e-03 3.945253265555948019e-04 -2.687429077923297882e-03 3.774676937609910965e-03
1.662000000000000000e+03 3.405414581298828125e+00 6.895615100860595703e+00 -1.382968388497829437e-03 -4.211195278912782669e-03 -1.678249100223183632e-03 6.281197536736726761e-03
1.663000000000000000e+03 2.807765007019042969e+00 4.104432106018066406e+00 -3.411151235923171043e-03 -4.657215322367846966e-04 -1.163061824627220631e-03 7.216217345558106899e-04
1.664000000000000000e+03 7.492801189422607422e+00 -3.005922555923461914e+00 8.357400074601173401e-03 -6.955374963581562042e-03 4.206075100228190422e-04 2.702214056625962257e-03
1.665000000000000000e+03 1.219507503509521484e+01 -3.614653587341308594e+00 2.694426570087671280e-03 -9.132254635915160179e-04 5.343603552319109440e-04 -4.093613824807107449e-04
1.666000000000000000e+03 1.374784564971923828e+01 -3.985759496688842773e+00 3.665712662041187286e-03 2.088596811518073082e-03 1.726292772218585014e-03 -3.322451841086149216e-03
1.667000000000000000e+03 2.441341781616210938e+01 -4.756128489971160889e-01 -1.206650882959365845e-01 1.185221523046493530e-01 -6.428817287087440491e-04 5.343085527420043945e-02
1.668000000000000000e+03 3.864680480957031250e+01 8.675260543823242188e+00 -1.465592649765312672e-03 7.178048137575387955e-03 1.713736564852297306e-03 9.985864162445068359e-04
1.669000000000000000e+03 6.018365478515625000e+01 1.345951366424560547e+01 -1.795832991600036621e+00 1.609247326850891113e-01 -4.904724657535552979e-01 -4.993950426578521729e-01
1.670000000000000000e+03 5.969022750854492188e+01 1.405536365509033203e+01 -1.689184188842773438e+00 4.048311412334442139e-01 -3.853059113025665283e-01 -2.237780094146728516e-01
1.671000000000000000e+03 6.024478912353515625e+01 1.481433391571044922e+01 -1.092742562294006348e+00 2.211506068706512451e-01 -2.614775896072387695e-01 -9.617902338504791260e-02
1.672000000000000000e+03 7.765638732910156250e+01 -7.812906056642532349e-02 -1.106452941894531250e+00 9.829753875732421875e+00 2.616990327835083008e+00 1.315321177244186401e-01
1.673000000000000000e+03 7.635043334960937500e+01 8.935711383819580078e-01 -3.103781461715698242e+00 7.539233207702636719e+00 1.330635547637939453e+00 -6.525986194610595703e-01
1.674000000000000000e+03 6.526304626464843750e+01 8.174533843994140625e+00 1.833328962326049805e+00 3.528276920318603516e+00 1.608481764793395996e+00 2.176594734191894531e+00
1.675000000000000000e+03 3.137460708618164062e+00 3.296583890914916992e+00 -2.747440303210169077e-04 -7.256700773723423481e-04 -3.001242293976247311e-04 5.031321197748184204e-04
1.676000000000000000e+03 3.543641805648803711e+00 4.249933242797851562e+00 -2.799672773107886314e-03 -5.197291611693799496e-04 -9.958205046132206917e-04 1.587852719239890575e-03
1.677000000000000000e+03 6.908441162109375000e+01 1.308235168457031250e+01 2.289821058511734009e-01 1.194627094268798828e+01 3.652575969696044922e+00 2.175498723983764648e+00
1.678000000000000000e+03 2.400421142578125000e+01 1.091723155975341797e+01 -3.952336497604846954e-03 4.401687532663345337e-02 1.201936136931180954e-02 1.973184570670127869e-02
1.679000000000000000e+03 2.519813346862792969e+01 9.953073501586914062e+00 -3.792608156800270081e-02 -1.630810671485960484e-03 -1.186706777662038803e-02 -2.851508744060993195e-02
1.680000000000000000e+03 6.986534118652343750e+01 1.165654468536376953e+01 4.071112155914306641e+00 9.220438003540039062e+00 3.987464904785156250e+00 4.076377868652343750e+00
1.681000000000000000e+03 2.358674430847167969e+01 8.445605278015136719e+00 -3.252321854233741760e-02 8.931143209338188171e-03 -7.077622693032026291e-03 -1.852483302354812622e-02
1.682000000000000000e+03 6.380999374389648438e+01 1.481846332550048828e+01 -7.329300045967102051e-01 2.150916337966918945e+00 4.253959059715270996e-01 -2.531846761703491211e+00
1.683000000000000000e+03 7.037026977539062500e+01 -9.589598178863525391e-01 -2.992699384689331055e+00 5.916491985321044922e+00 8.771377205848693848e-01 -3.866825580596923828e+00
1.684000000000000000e+03 6.867166900634765625e+01 1.133236765861511230e+00 -8.808041214942932129e-01 1.015649127960205078e+01 2.782706022262573242e+00 -5.246770381927490234e-01
1.685000000000000000e+03 3.267631149291992188e+01 1.815067672729492188e+01 -4.840590357780456543e-01 -7.945565134286880493e-02 -1.690544039011001587e-01 2.616277039051055908e-01
1.686000000000000000e+03 6.284640121459960938e+01 -1.309168100357055664e+00 -3.859766006469726562e+00 6.561223983764648438e+00 8.104375004768371582e-01 2.778753042221069336e+00
1.687000000000000000e+03 4.937619018554687500e+01 -1.997937583923339844e+01 -4.082408249378204346e-01 5.955584645271301270e-01 5.619530007243156433e-02 -1.725867688655853271e-01
1.688000000000000000e+03 7.500938415527343750e+01 -1.424680328369140625e+01 7.222786545753479004e-01 9.312184333801269531e+00 3.010339021682739258e+00 -4.093838930130004883e-01
1.689000000000000000e+03 6.710007476806640625e+01 4.761143207550048828e+00 2.649052858352661133e+00 1.012399673461914062e+01 3.831914901733398438e+00 7.665795683860778809e-01
1.690000000000000000e+03 6.844155883789062500e+01 2.366734981536865234e+00 1.915282130241394043e+00 1.129586601257324219e+01 3.963344573974609375e+00 7.318843603134155273e-01
1.691000000000000000e+03 2.452387237548828125e+01 1.163602256774902344e+01 -1.018482539802789688e-02 6.632692366838455200e-02 1.684262976050376892e-02 9.956418536603450775e-03
1.692000000000000000e+03 2.634399795532226562e+01 1.142634010314941406e+01 -4.216588288545608521e-02 -2.337488904595375061e-02 -1.966223120689392090e-02 -3.256864845752716064e-02
1.693000000000000000e+03 4.788576889038085938e+01 -1.742492485046386719e+01 -4.885454475879669189e-01 6.059400439262390137e-01 3.521836921572685242e-02 -2.248883014544844627e-03
1.694000000000000000e+03 3.080187988281250000e+01 -1.050014877319335938e+01 -4.596388339996337891e-02 5.350577831268310547e-01 1.467281579971313477e-01 -6.095196306705474854e-02
1.695000000000000000e+03 2.986122131347656250e+01 -9.610932350158691406e+00 -1.320179998874664307e-01 2.459386289119720459e-01 3.417619317770004272e-02 -1.081911623477935791e-01
1.696000000000000000e+03 2.856743049621582031e+01 7.994371652603149414e-01 -7.468972206115722656e-01 1.638732254505157471e-01 -1.749072074890136719e-01 -2.210470661520957947e-02
1.697000000000000000e+03 4.376871490478515625e+01 -1.400872898101806641e+01 -3.070233166217803955e-01 -6.735251843929290771e-02 -1.123127490282058716e-01 -4.044452607631683350e-01
1.698000000000000000e+03 4.711206817626953125e+01 1.984282016754150391e+00 -7.315728664398193359e-01 1.916082501411437988e-01 -1.619893908500671387e-01 -1.641702055931091309e-01
1.699000000000000000e+03 4.273930358886718750e+01 -1.200845050811767578e+01 1.562896072864532471e-01 -8.268249779939651489e-02 2.208213321864604950e-02 -3.026449978351593018e-01
1.700000000000000000e+03 3.576505661010742188e+01 4.495604038238525391e+00 -9.846498817205429077e-02 3.961951937526464462e-03 -2.835091203451156616e-02 -1.093753501772880554e-01
1.701000000000000000e+03 3.797101974487304688e+01 6.495946884155273438e+00 1.890760473906993866e-02 1.383678428828716278e-02 9.823316708207130432e-03 -2.450557239353656769e-02
1.702000000000000000e+03 2.526598739624023438e+01 -1.118817234039306641e+01 -1.095868423581123352e-01 -1.039456367492675781e+00 -3.447129428386688232e-01 -9.275060892105102539e-02
1.703000000000000000e+03 6.197851943969726562e+01 -2.857124328613281250e+00 4.959248900413513184e-01 6.895896434783935547e+00 2.217546463012695312e+00 8.775994181632995605e-01
1.704000000000000000e+03 3.341247940063476562e+01 -1.449949455261230469e+01 -2.194700986146926880e-01 3.793472051620483398e-01 4.796313121914863586e-02 -3.040605224668979645e-02
1.705000000000000000e+03 3.052074050903320312e+01 7.242396473884582520e-03 -2.513204574584960938e+00 -1.620989918708801270e+00 -1.240258336067199707e+00 -6.124504804611206055e-01
1.706000000000000000e+03 7.441921997070312500e+01 1.138582801818847656e+01 8.637578487396240234e-01 5.642425537109375000e+00 1.951855063438415527e+00 -2.089265108108520508e+00
1.707000000000000000e+03 4.336759185791015625e+01 -1.659042000770568848e+00 -9.350269436836242676e-01 -7.573346793651580811e-02 -3.032281100749969482e-01 1.186797693371772766e-01
1.708000000000000000e+03 4.288666152954101562e+01 -3.417053222656250000e+00 -3.450537621974945068e-01 -1.792332381010055542e-01 -1.572860926389694214e-01 1.169556304812431335e-01
1.709000000000000000e+03 7.335747528076171875e+01 1.120632934570312500e+01 2.955868959426879883e+00 4.021938800811767578e+00 2.093342304229736328e+00 -1.888007283210754395e+00
1.710000000000000000e+03 7.234392547607421875e+01 1.133528804779052734e+01 4.323512554168701172e+00 3.306042671203613281e+00 2.288866519927978516e+00 -6.873981654644012451e-02
1.711000000000000000e+03 1.554882907867431641e+01 1.674252128601074219e+01 -7.289647310972213745e-02 1.675211265683174133e-02 -1.684330776333808899e-02 3.058033250272274017e-02
1.712000000000000000e+03 6.847450256347656250e+01 -1.723204231262207031e+01 -1.107418417930603027e+00 6.426705121994018555e-01 -1.394243687391281128e-01 1.829221397638320923e-01
1.713000000000000000e+03 7.053435516357421875e+01 -1.824345016479492188e+01 -8.052571415901184082e-01 2.785999298095703125e+00 5.942226648330688477e-01 2.079966068267822266e+00
1.714000000000000000e+03 6.730017852783203125e+01 -1.525994181632995605e+00 -3.064692497253417969e+00 3.800058841705322266e+00 2.206099182367324829e-01 -3.672258555889129639e-01
1.715000000000000000e+03 3.842171478271484375e+01 -7.533360719680786133e-01 -2.227571964263916016e+00 -4.768603742122650146e-01 -8.113296627998352051e-01 2.606329023838043213e-01
1.716000000000000000e+03 7.328761291503906250e+01 -1.558141517639160156e+01 -3.944143056869506836e-01 8.668789863586425781e+00 2.482312917709350586e+00 -5.825024843215942383e-01
1.717000000000000000e+03 4.806288146972656250e+01 2.643176078796386719e+00 -6.696061491966247559e-01 1.928799748420715332e-01 -1.430178582668304443e-01 -1.334499120712280273e-01
1.718000000000000000e+03 3.525857543945312500e+01 1.072048902511596680e+00 -9.019528627395629883e-01 4.817288219928741455e-01 -1.260672211647033691e-01 5.417572334408760071e-02
1.719000000000000000e+03 3.698762130737304688e+01 1.327213048934936523e+00 -6.214553713798522949e-01 1.388194859027862549e-01 -1.447907686233520508e-01 3.861923515796661377e-01
1.720000000000000000e+03 6.434889221191406250e+01 -1.352372264862060547e+01 -1.359370708465576172e+00 3.005854368209838867e+00 4.939450621604919434e-01 3.718687593936920166e-02
1.721000000000000000e+03 6.478664398193359375e+01 -1.440652179718017578e+01 -1.297852396965026855e+00 2.607658386230468750e+00 3.929417729377746582e-01 -1.767216250300407410e-02
1.722000000000000000e+03 5.607531356811523438e+01 -2.053770637512207031e+01 -7.855791449546813965e-01 3.005167484283447266e+00 6.658765077590942383e-01 7.015097141265869141e-01
1.723000000000000000e+03 6.021718597412109375e+01 -2.228446769714355469e+01 -3.290539383888244629e-01 3.079179525375366211e+00 8.250376582145690918e-01 -2.061009407043457031e-01
1.724000000000000000e+03 2.144958114624023438e+01 -1.038224029541015625e+01 -6.408846974372863770e-01 -3.996339067816734314e-02 -2.042544335126876831e-01 -2.902482450008392334e-01
1.725000000000000000e+03 1.235634803771972656e+01 1.636895942687988281e+01 -4.186875373125076294e-02 1.008984446525573730e-02 -9.533673524856567383e-03 2.220087498426437378e-02
1.726000000000000000e+03 5.297119140625000000e+01 -1.239873051643371582e+00 -1.030654191970825195e+00 -2.924591116607189178e-02 -3.179700374603271484e-01 -6.338474154472351074e-01
1.727000000000000000e+03 7.668321228027343750e+01 -2.938220405578613281e+01 6.342820078134536743e-02 7.024415969848632812e+00 2.126353263854980469e+00 4.062000215053558350e-01
1.728000000000000000e+03 7.643440246582031250e+01 -2.469824600219726562e+01 -1.978633366525173187e-02 7.371524810791015625e+00 2.205521583557128906e+00 5.380191206932067871e-01
1.729000000000000000e+03 7.628099060058593750e+01 -2.628999328613281250e+01 1.082118880003690720e-02 7.100030899047851562e+00 2.133255720138549805e+00 5.326958894729614258e-01
1.730000000000000000e+03 7.699629211425781250e+01 -3.161450004577636719e+01 4.738621786236763000e-02 6.904755115509033203e+00 2.085642337799072266e+00 2.944644987583160400e-01
1.731000000000000000e+03 7.674540710449218750e+01 -3.274033355712890625e+01 7.114433497190475464e-02 6.820893764495849609e+00 2.067611455917358398e+00 2.763673067092895508e-01
1.732000000000000000e+03 7.699237823486328125e+01 1.724218559265136719e+01 9.589790715835988522e-04 6.497708797454833984e+00 1.949600458145141602e+00 5.096719264984130859e-01
1.733000000000000000e+03 7.657835388183593750e+01 -2.320258522033691406e+01 -1.756927818059921265e-01 7.634095668792724609e+00 2.237520933151245117e+00 4.618225097656250000e-01
1.734000000000000000e+03 7.698458099365234375e+01 -3.058046150207519531e+01 6.470067799091339111e-02 6.995449542999267578e+00 2.118045091629028320e+00 3.520279824733734131e-01
1.735000000000000000e+03 7.679956054687500000e+01 2.360413169860839844e+01 -1.342312991619110107e-01 6.940290927886962891e+00 2.041817903518676758e+00 2.063463181257247925e-01
1.736000000000000000e+03 7.661508178710937500e+01 1.596996784210205078e+01 1.135024502873420715e-01 6.496968746185302734e+00 1.983141303062438965e+00 4.559594392776489258e-01
1.737000000000000000e+03 7.645923614501953125e+01 1.361004352569580078e+01 1.676549017429351807e-01 6.545888423919677734e+00 2.014062881469726562e+00 7.036897540092468262e-02
1.738000000000000000e+03 7.518775177001953125e+01 2.615739440917968750e+01 -1.499270945787429810e-01 6.741391181945800781e+00 1.977439284324645996e+00 7.984380424022674561e-02
1.739000000000000000e+03 7.648665618896484375e+01 2.633898925781250000e+01 -1.123212203383445740e-01 6.904468059539794922e+00 2.037644147872924805e+00 6.946998089551925659e-02
1.740000000000000000e+03 7.677481079101562500e+01 1.214367103576660156e+01 -2.687295377254486084e-01 7.213971138000488281e+00 2.083572387695312500e+00 -2.209806591272354126e-01
1.741000000000000000e+03 7.709095764160156250e+01 9.605775833129882812e+00 2.992748916149139404e-01 8.470006942749023438e+00 2.630784511566162109e+00 -6.531579792499542236e-02
1.742000000000000000e+03 7.821296691894531250e+01 9.614974975585937500e+00 -6.116880103945732117e-02 6.619493007659912109e+00 1.967497348785400391e+00 5.584449172019958496e-01
1.743000000000000000e+03 7.693967437744140625e+01 -1.773339462280273438e+01 -5.289409756660461426e-01 8.564990043640136719e+00 2.410814523696899414e+00 -4.126626849174499512e-01
1.744000000000000000e+03 7.690110015869140625e+01 -1.644252204895019531e+01 -9.650570154190063477e-02 8.487038612365722656e+00 2.517159938812255859e+00 -6.864092350006103516e-01
1.745000000000000000e+03 7.670482635498046875e+01 -1.507969474792480469e+01 1.017766520380973816e-01 8.633327484130859375e+00 2.620531082153320312e+00 -6.520140171051025391e-01
1.746000000000000000e+03 7.621710205078125000e+01 -1.376378345489501953e+01 7.695919871330261230e-01 8.656938552856445312e+00 2.827959060668945312e+00 -4.942263960838317871e-01
1.747000000000000000e+03 7.827473449707031250e+01 -1.252905368804931641e+01 2.432137429714202881e-01 7.955628871917724609e+00 2.459652900695800781e+00 -1.583356410264968872e-01
1.748000000000000000e+03 7.672003173828125000e+01 -7.332159519195556641e+00 2.619843482971191406e-01 8.505059242248535156e+00 2.630112886428833008e+00 1.159582495689392090e+00
1.749000000000000000e+03 7.693413543701171875e+01 -8.606915473937988281e+00 3.841419517993927002e-01 8.595551490783691406e+00 2.693907976150512695e+00 1.036138176918029785e+00
1.750000000000000000e+03 7.732222747802734375e+01 9.564296603202819824e-01 -2.296490907669067383e+00 9.303231239318847656e+00 2.102022171020507812e+00 -6.015264391899108887e-01
1.751000000000000000e+03 7.741536712646484375e+01 7.867099285125732422e+00 2.277244091033935547e+00 9.248590469360351562e+00 3.457750320434570312e+00 -1.023990631103515625e+00
1.752000000000000000e+03 7.691963195800781250e+01 2.102239799499511719e+01 -1.128754615783691406e-01 6.835934162139892578e+00 2.016917467117309570e+00 3.733073770999908447e-01
1.753000000000000000e+03 7.702446746826171875e+01 1.975110816955566406e+01 -7.967008650302886963e-02 6.759798526763916016e+00 2.004038572311401367e+00 4.559155404567718506e-01
1.754000000000000000e+03 7.686810302734375000e+01 2.230379104614257812e+01 -1.190953925251960754e-01 6.902338027954101562e+00 2.034972906112670898e+00 3.090880215167999268e-01
1.755000000000000000e+03 7.848024749755859375e+01 4.046255111694335938e+00 -1.755749732255935669e-01 8.930974960327148438e+00 2.626620054244995117e+00 -3.002375125885009766e+00
1.756000000000000000e+03 7.611590576171875000e+01 -2.592792272567749023e+00 -3.771496713161468506e-01 7.033926963806152344e+00 1.997033238410949707e+00 8.985884189605712891e-01
1.757000000000000000e+03 7.804691314697265625e+01 -1.246872305870056152e+00 -5.589823126792907715e-01 1.045059204101562500e+01 2.967482805252075195e+00 7.977341413497924805e-01
1.758000000000000000e+03 7.676439666748046875e+01 -3.464012861251831055e+00 -3.702777996659278870e-02 8.326698303222656250e+00 2.486901044845581055e+00 1.115539908409118652e+00
1.759000000000000000e+03 7.705321502685546875e+01 -9.871624946594238281e+00 5.235044360160827637e-01 8.393909454345703125e+00 2.675224304199218750e+00 7.027245163917541504e-01
1.760000000000000000e+03 7.590603637695312500e+01 -1.002358341217041016e+01 8.604812026023864746e-01 8.796535491943359375e+00 2.897104978561401367e+00 6.135435104370117188e-01
1.761000000000000000e+03 7.687521362304687500e+01 -1.902752494812011719e+01 -3.067556619644165039e-01 8.352843284606933594e+00 2.413826465606689453e+00 -8.547458052635192871e-02
1.762000000000000000e+03 7.679577636718750000e+01 -2.037944221496582031e+01 -4.205907583236694336e-01 8.146674156188964844e+00 2.317825078964233398e+00 1.031572595238685608e-01
1.763000000000000000e+03 7.708480834960937500e+01 1.849932670593261719e+01 -2.618964575231075287e-02 6.616775035858154297e+00 1.977175593376159668e+00 4.767934083938598633e-01
1.764000000000000000e+03 5.070917510986328125e+01 3.575118780136108398e+00 -6.020958423614501953e-01 5.517115071415901184e-02 -1.640774160623550415e-01 2.237709462642669678e-01
1.765000000000000000e+03 3.727807617187500000e+01 -1.442121148109436035e+00 -9.759927988052368164e-01 4.770874381065368652e-01 -1.496715992689132690e-01 -1.711582243442535400e-01
1.766000000000000000e+03 4.227519607543945312e+01 -2.230196714401245117e+00 -8.131805062294006348e-01 -2.446042597293853760e-01 -3.173354268074035645e-01 6.381684541702270508e-02
1.767000000000000000e+03 3.757940530776977539e+00 3.060254478454589844e+01 1.460581901483237743e-03 -1.018757000565528870e-01 -3.012453392148017883e-02 3.445246443152427673e-02
1.768000000000000000e+03 3.637949228286743164e+00 3.206488800048828125e+01 3.852446097880601883e-03 -1.133048608899116516e-01 -3.283572569489479065e-02 3.145919740200042725e-02
1.769000000000000000e+03 3.206451416015625000e+00 2.331363105773925781e+01 -4.978833254426717758e-03 -4.621616750955581665e-02 -1.535850018262863159e-02 2.138251252472400665e-02
1.770000000000000000e+03 3.370425939559936523e+00 2.470431518554687500e+01 -4.567498341202735901e-03 -5.582912266254425049e-02 -1.811898499727249146e-02 2.706358395516872406e-02
1.771000000000000000e+03 3.758605480194091797e+00 2.910982894897460938e+01 2.246303629362955689e-04 -9.044598042964935303e-02 -2.706640399992465973e-02 3.426454216241836548e-02
1.772000000000000000e+03 4.887003421783447266e+00 3.746696472167968750e+01 1.039549708366394043e-02 -1.408633440732955933e-01 -3.914035484194755554e-02 2.470082230865955353e-02
1.773000000000000000e+03 3.673232078552246094e+00 2.760954475402832031e+01 -1.960746012628078461e-03 -7.818150520324707031e-02 -2.404267527163028717e-02 3.412520885467529297e-02
1.774000000000000000e+03 4.380403041839599609e+00 -2.754760360717773438e+01 2.734538400545716286e-03 -2.199035882949829102e-01 -6.515071541070938110e-02 -7.548087090253829956e-02
1.775000000000000000e+03 4.307576179504394531e+00 -3.144744300842285156e+01 1.575263962149620056e-02 -2.750049531459808350e-01 -7.777569442987442017e-02 -6.676483154296875000e-02
1.776000000000000000e+03 2.535249948501586914e+00 -5.526271343231201172e+00 -8.580941357649862766e-04 4.794852808117866516e-03 1.181027502752840519e-03 5.138218868523836136e-03
1.777000000000000000e+03 2.941634178161621094e+00 -1.088710689544677734e+01 -1.128183584660291672e-02 -1.186435809358954430e-03 -3.740481333807110786e-03 -8.392733521759510040e-03
1.778000000000000000e+03 3.002160787582397461e+00 -9.574157714843750000e+00 -4.039960913360118866e-03 9.966508951038122177e-04 -9.129930404014885426e-04 -3.415123093873262405e-03
1.779000000000000000e+03 3.070358991622924805e+00 -1.354631710052490234e+01 -1.413884386420249939e-02 -1.848733797669410706e-02 -9.787854738533496857e-03 -2.361580170691013336e-02
1.780000000000000000e+03 2.965915441513061523e+00 -1.221215343475341797e+01 -4.803257528692483902e-03 -9.587161242961883545e-03 -4.317125771194696426e-03 -1.597719267010688782e-02
1.781000000000000000e+03 3.303650617599487305e+00 -1.767082023620605469e+01 -5.135019309818744659e-03 -6.611754000186920166e-02 -2.137576788663864136e-02 -4.928614571690559387e-02
1.782000000000000000e+03 3.324612855911254883e+00 -1.627176475524902344e+01 -1.363803166896104813e-02 -4.801996052265167236e-02 -1.849739812314510345e-02 -4.091011732816696167e-02
1.783000000000000000e+03 3.047540426254272461e+00 1.310195446014404297e+01 1.065069111064076424e-03 -1.345677580684423447e-02 -3.717511892318725586e-03 2.465665806084871292e-03
1.784000000000000000e+03 3.361679553985595703e+00 1.622261238098144531e+01 -3.011798951774835587e-03 -1.798354089260101318e-02 -6.298602093011140823e-03 4.153484012931585312e-03
1.785000000000000000e+03 3.223603010177612305e+00 1.779267692565917969e+01 -3.647382138296961784e-03 -2.122537419199943542e-02 -7.461827248334884644e-03 6.283131893724203110e-03
1.786000000000000000e+03 2.896504878997802734e+00 8.029644966125488281e+00 -9.595134179107844830e-05 -6.743671838194131851e-03 -2.051887102425098419e-03 7.752279285341501236e-03
1.787000000000000000e+03 4.343782424926757812e+00 -2.057026100158691406e+01 -3.956032916903495789e-03 -1.146965622901916504e-01 -3.559577837586402893e-02 -7.601189613342285156e-02
1.788000000000000000e+03 3.039492130279541016e+00 -1.894978523254394531e+01 -9.834959171712398529e-03 -8.124852925539016724e-02 -2.732504718005657196e-02 -4.940534383058547974e-02
1.789000000000000000e+03 4.419920921325683594e+00 -2.347387504577636719e+01 -5.965213291347026825e-03 -1.558275669813156128e-01 -4.853783547878265381e-02 -8.551063388586044312e-02
1.790000000000000000e+03 3.681545972824096680e+00 -2.231162643432617188e+01 -1.162354135885834694e-03 -1.366607695817947388e-01 -4.134693741798400879e-02 -6.684572249650955200e-02
1.791000000000000000e+03 5.341398239135742188e+00 -3.507949066162109375e+01 1.961823366582393646e-02 -2.920718193054199219e-01 -8.173607289791107178e-02 -5.828509107232093811e-02
1.792000000000000000e+03 3.345653533935546875e+00 -4.815344333648681641e+00 1.719136373139917850e-03 5.059682764112949371e-03 2.033645752817392349e-03 1.170262601226568222e-02
1.793000000000000000e+03 3.238066434860229492e+00 -2.114842224121093750e+01 -7.812974043190479279e-03 -1.168647408485412598e-01 -3.740331530570983887e-02 -5.890597775578498840e-02
1.794000000000000000e+03 4.281958580017089844e+00 -1.345596599578857422e+01 -1.295085344463586807e-02 -2.843098156154155731e-02 -1.241455040872097015e-02 -3.285871446132659912e-02
1.795000000000000000e+03 3.143987894058227539e+00 -8.264991760253906250e+00 -8.997724391520023346e-03 4.591243807226419449e-03 -1.321944175288081169e-03 2.041422994807362556e-03
1.796000000000000000e+03 2.719328880310058594e+00 6.093352794647216797e+00 -4.133316688239574432e-03 -2.971714129671454430e-03 -2.131509128957986832e-03 4.795296583324670792e-03
1.797000000000000000e+03 2.664068460464477539e+00 1.053120326995849609e+01 2.758010523393750191e-03 -1.117188390344381332e-02 -2.524161944165825844e-03 5.406548734754323959e-03
1.798000000000000000e+03 3.215382337570190430e+00 -1.489846038818359375e+01 -6.130896508693695068e-03 -3.367298841476440430e-02 -1.194116566330194473e-02 -3.370069712400436401e-02
1.799000000000000000e+03 2.819975137710571289e+00 1.177238273620605469e+01 1.708981115370988846e-03 -1.323740649968385696e-02 -3.458527615293860435e-03 1.538505428470671177e-03
1.800000000000000000e+03 2.681557893753051758e+00 9.307104110717773438e+00 1.211094320751726627e-03 -9.251721203327178955e-03 -2.412188099697232246e-03 4.412996582686901093e-03
1.801000000000000000e+03 3.133828639984130859e+00 1.922861099243164062e+01 -4.833355080336332321e-03 -2.574514038860797882e-02 -9.173548780381679535e-03 1.020040269941091537e-02
1.802000000000000000e+03 3.087831735610961914e+00 2.059866905212402344e+01 -4.653802141547203064e-03 -3.097965940833091736e-02 -1.069003809243440628e-02 1.286320760846138000e-02
1.803000000000000000e+03 3.103525876998901367e+00 2.194828987121582031e+01 -5.182136315852403641e-03 -3.785746544599533081e-02 -1.291188038885593414e-02 1.789700239896774292e-02
1.804000000000000000e+03 3.440464019775390625e+01 3.338746309280395508e+00 -2.902879714965820312e-01 -3.505063429474830627e-02 -9.760158509016036987e-02 -2.981542944908142090e-01
1.805000000000000000e+03 1.702653884887695312e+01 -5.675221920013427734e+00 -1.984419504879042506e-04 2.010022848844528198e-02 5.970536265522241592e-03 -1.242363476194441319e-03
1.806000000000000000e+03 6.632855224609375000e+01 5.705589294433593750e+00 1.354604125022888184e+00 8.741291046142578125e+00 3.028768539428710938e+00 1.702023386955261230e+00
1.807000000000000000e+03 1.017667293548583984e+01 8.074007034301757812e+00 2.563822828233242035e-02 3.887150809168815613e-02 1.935292035341262817e-02 1.721480116248130798e-02
1.808000000000000000e+03 4.780105972290039062e+01 1.770185279846191406e+01 -1.153300642967224121e+00 -5.516573190689086914e-01 -5.114874243736267090e-01 4.638993740081787109e-01
1.809000000000000000e+03 5.271976852416992188e+01 -2.946417570114135742e+00 -2.077942788600921631e-01 -2.150099277496337891e-01 -1.268412619829177856e-01 -4.795238673686981201e-01
1.810000000000000000e+03 5.343880462646484375e+01 -5.945815563201904297e+00 4.771062135696411133e-01 -4.651199877262115479e-01 3.595863701775670052e-03 -1.066550686955451965e-01
1.811000000000000000e+03 3.957202529907226562e+01 -1.922684860229492188e+01 -2.694834172725677490e-01 -3.445896804332733154e-01 -1.842219382524490356e-01 -4.090328812599182129e-01
1.812000000000000000e+03 2.612837409973144531e+01 -3.510177850723266602e+00 3.900261968374252319e-02 -3.084681630134582520e-01 -8.083966374397277832e-02 -4.806121587753295898e-01
1.813000000000000000e+03 2.652290725708007812e+01 -9.186478257179260254e-01 -4.250012636184692383e-01 1.304256767034530640e-01 -8.837267756462097168e-02 -2.323254048824310303e-01
1.814000000000000000e+03 4.474436187744140625e+01 -1.023394012451171875e+01 3.681868016719818115e-01 2.960489392280578613e-01 1.992707103490829468e-01 -3.891016542911529541e-01
1.815000000000000000e+03 3.855236434936523438e+01 7.476521015167236328e+00 -1.898514456115663052e-03 1.068853028118610382e-02 2.637004712596535683e-03 -8.612998761236667633e-03
1.816000000000000000e+03 3.637921142578125000e+01 1.667053794860839844e+01 -7.416811585426330566e-01 -5.851702764630317688e-02 -2.400594651699066162e-01 1.081006824970245361e-01
1.817000000000000000e+03 1.965457534790039062e+01 1.889372253417968750e+01 -2.290400862693786621e-01 1.270803064107894897e-02 -6.489961594343185425e-02 1.190547868609428406e-01
1.818000000000000000e+03 5.452230834960937500e+01 -3.286374807357788086e+00 1.278304606676101685e-01 -3.016943335533142090e-01 -5.215916410088539124e-02 -4.986210167407989502e-01
1.819000000000000000e+03 3.189636802673339844e+01 2.717653989791870117e+00 -2.215901166200637817e-01 -3.329919278621673584e-01 -1.663746088743209839e-01 -3.090503215789794922e-01
1.820000000000000000e+03 4.263952255249023438e+01 -6.944119453430175781e+00 3.464593887329101562e-01 -5.944073945283889771e-02 8.610559999942779541e-02 -1.574913561344146729e-01
1.821000000000000000e+03 4.213808059692382812e+01 -9.477535247802734375e+00 3.669465780258178711e-01 -8.264878392219543457e-02 8.528933674097061157e-02 -3.487798571586608887e-01
1.822000000000000000e+03 5.941859436035156250e+01 -1.730185317993164062e+01 -2.476500719785690308e-01 3.577970027923583984e+00 9.990959763526916504e-01 1.335952579975128174e-01
1.823000000000000000e+03 5.888622283935546875e+01 -1.602344512939453125e+01 -1.635690778493881226e-01 3.785655260086059570e+00 1.086625814437866211e+00 4.756902158260345459e-01
1.824000000000000000e+03 7.128648376464843750e+01 -3.033933877944946289e+00 -2.063095808029174805e+00 5.078447341918945312e+00 9.046055078506469727e-01 -2.467505216598510742e+00
1.825000000000000000e+03 5.925053787231445312e+01 7.236732244491577148e-01 -2.519739151000976562e+00 1.589289069175720215e+00 -2.791350185871124268e-01 4.620325267314910889e-01
1.826000000000000000e+03 6.048274612426757812e+01 -1.034855842590332031e+00 -9.243369698524475098e-01 4.012042045593261719e+00 9.263114333152770996e-01 7.359246015548706055e-01
1.827000000000000000e+03 5.833317947387695312e+01 -1.491200733184814453e+01 -1.366100609302520752e-01 3.626247167587280273e+00 1.046891212463378906e+00 8.607857823371887207e-01
1.828000000000000000e+03 5.789429092407226562e+01 -1.391525459289550781e+01 -2.416862398386001587e-01 3.767200708389282227e+00 1.057654380798339844e+00 1.036655545234680176e+00
1.829000000000000000e+03 7.609470367431640625e+01 9.416461944580078125e+00 -6.684444099664688110e-02 1.154392814636230469e+01 3.443125247955322266e+00 -1.125740647315979004e+00
1.830000000000000000e+03 5.157593917846679688e+01 8.048013687133789062e+00 2.693862654268741608e-02 -3.221512585878372192e-02 -1.582950353622436523e-03 -1.438016165047883987e-02
1.831000000000000000e+03 5.266539382934570312e+01 5.674102306365966797e+00 -4.427479580044746399e-02 -5.605917796492576599e-02 -3.010019101202487946e-02 2.189218252897262573e-02
1.832000000000000000e+03 6.404547882080078125e+01 3.092000722885131836e+00 9.075243473052978516e-01 3.792023420333862305e+00 1.409864425659179688e+00 2.740042209625244141e+00
1.833000000000000000e+03 6.522429656982421875e+01 3.602066516876220703e+00 2.094614028930664062e+00 5.074072360992431641e+00 2.150605916976928711e+00 2.679543733596801758e+00
1.834000000000000000e+03 2.862754821777343750e+01 -9.101000785827636719e+00 -2.816125452518463135e-01 -5.418444052338600159e-02 -1.007390990853309631e-01 -1.781222224235534668e-01
1.835000000000000000e+03 5.773407363891601562e+01 -9.119992256164550781e+00 1.064856052398681641e-01 2.489205121994018555e+00 7.787072062492370605e-01 9.177864193916320801e-01
1.836000000000000000e+03 5.675788879394531250e+01 -1.157293987274169922e+01 -4.985961914062500000e-01 2.557244539260864258e+00 6.175944805145263672e-01 7.526996135711669922e-01
1.837000000000000000e+03 4.497817611694335938e+01 -6.107972860336303711e-01 -1.094992399215698242e+00 1.825828999280929565e-01 -2.737228572368621826e-01 -1.286480426788330078e-01
1.838000000000000000e+03 4.409334182739257812e+01 3.844926655292510986e-01 -1.079331636428833008e+00 1.635131053626537323e-02 -3.188940882682800293e-01 -3.107832670211791992e-01
1.839000000000000000e+03 3.318486022949218750e+01 3.004384756088256836e+00 -1.097253188490867615e-01 -1.817623078823089600e-01 -8.744628727436065674e-02 -3.566029369831085205e-01
1.840000000000000000e+03 3.316345596313476562e+01 1.504796385765075684e+00 -1.101108193397521973e+00 -1.206966489553451538e-02 -3.339533805847167969e-01 -6.453074812889099121e-01
1.841000000000000000e+03 4.691024780273437500e+01 8.769254088401794434e-01 -9.277360439300537109e-01 2.243715822696685791e-01 -2.110093384981155396e-01 -1.792143136262893677e-01
1.842000000000000000e+03 6.598950958251953125e+01 7.431025028228759766e+00 7.683289647102355957e-01 8.050216674804687500e+00 2.645563602447509766e+00 3.287550926208496094e+00
1.843000000000000000e+03 4.546014785766601562e+01 -1.469670581817626953e+01 -4.351485073566436768e-01 4.446826279163360596e-01 2.860239939764142036e-03 -2.135346978902816772e-01
1.844000000000000000e+03 7.573932647705078125e+01 -8.792136192321777344e+00 7.232047915458679199e-01 8.509182929992675781e+00 2.769716262817382812e+00 8.954609036445617676e-01
1.845000000000000000e+03 7.323274230957031250e+01 -9.367039680480957031e+00 1.327869176864624023e+00 9.782711029052734375e+00 3.333173990249633789e+00 -4.419160485267639160e-01
1.846000000000000000e+03 5.385073089599609375e+01 -2.289694023132324219e+01 -3.810677677392959595e-02 1.120441317558288574e+00 3.247003555297851562e-01 5.129463672637939453e-01
1.847000000000000000e+03 5.597115325927734375e+01 -2.255389595031738281e+01 -4.397558867931365967e-01 2.268507242202758789e+00 5.486254692077636719e-01 3.752638995647430420e-01
1.848000000000000000e+03 2.858113670349121094e+01 -7.611063480377197266e+00 -1.021895483136177063e-01 -2.233788818120956421e-01 -9.767053276300430298e-02 -4.171596467494964600e-01
1.849000000000000000e+03 2.761616134643554688e+01 -2.510553836822509766e+00 -3.154169619083404541e-01 -2.413250952959060669e-01 -1.670226156711578369e-01 -6.966437101364135742e-01
1.850000000000000000e+03 3.988175582885742188e+01 7.884343624114990234e+00 -1.094852667301893234e-02 7.765590213239192963e-03 -9.548808448016643524e-04 5.255244323052465916e-04
1.851000000000000000e+03 4.488154220581054688e+01 1.698287391662597656e+01 -1.250860571861267090e+00 7.905065268278121948e-02 -3.515429496765136719e-01 4.357920885086059570e-01
1.852000000000000000e+03 4.243642044067382812e+01 1.502724647521972656e+01 -9.070011973381042480e-01 1.654465645551681519e-01 -2.224663943052291870e-01 1.806399412453174591e-02
1.853000000000000000e+03 6.326019668579101562e+01 3.839035034179687500e+00 1.397092342376708984e+00 2.730008125305175781e+00 1.238130211830139160e+00 2.175315618515014648e+00
1.854000000000000000e+03 6.811593627929687500e+01 5.820315361022949219e+00 -4.037479683756828308e-02 1.579020404815673828e+01 4.724948883056640625e+00 -1.800134181976318359e-01
1.855000000000000000e+03 5.518432235717773438e+01 -6.262776851654052734e+00 6.862831711769104004e-01 1.476451605558395386e-01 2.501784861087799072e-01 -8.558485656976699829e-03
1.856000000000000000e+03 4.347362136840820312e+01 -6.377585887908935547e+00 2.006427794694900513e-01 1.889596506953239441e-02 6.586162000894546509e-02 -4.535015672445297241e-02
1.857000000000000000e+03 6.747127532958984375e+01 -1.818671226501464844e+01 -6.930643320083618164e-01 1.609661221504211426e+00 2.749790549278259277e-01 -3.701155632734298706e-02
1.858000000000000000e+03 4.616850280761718750e+01 -1.727523994445800781e+01 -5.279163122177124023e-01 5.461968183517456055e-01 5.484142340719699860e-03 7.883447105996310711e-04
1.859000000000000000e+03 5.080756759643554688e+01 -1.241006135940551758e+00 -7.983561754226684570e-01 2.161786705255508423e-01 -1.746532469987869263e-01 -2.915761470794677734e-01
1.860000000000000000e+03 4.970164489746093750e+01 -2.365145444869995117e+00 -5.245851874351501465e-01 1.835783720016479492e-01 -1.023020520806312561e-01 -2.360970824956893921e-01
1.861000000000000000e+03 5.982806015014648438e+01 -1.799113392829895020e+00 -5.387783050537109375e-01 3.208137273788452148e+00 8.008077144622802734e-01 7.716292142868041992e-01
1.862000000000000000e+03 2.653509521484375000e+01 1.378706550598144531e+01 -2.765375003218650818e-02 -4.799154028296470642e-02 -2.269358746707439423e-02 5.004043877124786377e-02
1.863000000000000000e+03 2.765736198425292969e+01 1.342488479614257812e+01 -1.168342232704162598e-01 -2.831999212503433228e-02 -4.354626685380935669e-02 2.332947403192520142e-02
1.864000000000000000e+03 5.206730651855468750e+01 -1.878498554229736328e+00 -5.984128117561340332e-01 1.871904730796813965e-02 -1.739081293344497681e-01 -3.795728087425231934e-01
1.865000000000000000e+03 3.617594909667968750e+01 -1.962764739990234375e+01 -4.443997740745544434e-01 1.562513709068298340e-01 -8.644451946020126343e-02 -3.092481195926666260e-01
1.866000000000000000e+03 3.796655273437500000e+01 -1.933341979980468750e+01 -5.845937132835388184e-01 -9.786099195480346680e-02 -2.047364115715026855e-01 -5.336489081382751465e-01
1.867000000000000000e+03 7.003057861328125000e+01 -3.108410596847534180e+00 -3.337570667266845703e+00 4.892232418060302734e+00 4.663985967636108398e-01 -1.909245610237121582e+00
1.868000000000000000e+03 3.572211456298828125e+01 7.381753444671630859e+00 9.322080761194229126e-02 -2.928927168250083923e-02 1.917945966124534607e-02 -2.131243050098419189e-02
1.869000000000000000e+03 1.614320373535156250e+01 -5.026244640350341797e+00 -3.620704403147101402e-03 -1.286329887807369232e-02 -4.945200867950916290e-03 -1.087047997862100601e-02
1.870000000000000000e+03 2.728819274902343750e+01 1.236045646667480469e+01 -4.833886399865150452e-02 -4.625083506107330322e-02 -2.837690897285938263e-02 -3.395905345678329468e-02
1.871000000000000000e+03 9.475251197814941406e+00 1.198848724365234375e+01 9.912548586726188660e-03 3.118897089734673500e-03 3.909433726221323013e-03 6.074295844882726669e-03
1.872000000000000000e+03 4.985444259643554688e+01 2.852322340011596680e+00 -6.665500998497009277e-01 1.856012195348739624e-01 -1.442846655845642090e-01 -1.949067600071430206e-02
1.873000000000000000e+03 3.425630950927734375e+01 -1.990203475952148438e+01 -3.469157814979553223e-01 1.607118993997573853e-01 -5.586116015911102295e-02 -2.573307752609252930e-01
1.874000000000000000e+03 7.508683776855468750e+01 -1.153243446350097656e+01 1.253296017646789551e+00 9.390003204345703125e+00 3.192989587783813477e+00 -3.323267772793769836e-02
1.875000000000000000e+03 7.707906341552734375e+01 -1.110562229156494141e+01 5.122083425521850586e-01 8.410933494567871094e+00 2.676942586898803711e+00 3.021999895572662354e-01
1.876000000000000000e+03 7.481538391113281250e+01 -1.686174964904785156e+01 -6.255224943161010742e-01 8.885446548461914062e+00 2.477977275848388672e+00 4.246775060892105103e-02
1.877000000000000000e+03 7.278964233398437500e+01 -1.660304260253906250e+01 -2.050983905792236328e+00 9.399948120117187500e+00 2.204689264297485352e+00 7.644684910774230957e-01
1.878000000000000000e+03 6.092507934570312500e+01 -5.486639499664306641e+00 1.595166683197021484e+00 5.387904644012451172e+00 2.094921350479125977e+00 1.116471529006958008e+00
1.879000000000000000e+03 5.979117965698242188e+01 -5.449223518371582031e+00 1.497605443000793457e+00 3.909432649612426758e+00 1.622111439704895020e+00 1.016796469688415527e+00
1.880000000000000000e+03 5.602214813232421875e+01 -7.314419269561767578e+00 4.896807372570037842e-01 9.050639271736145020e-01 4.184233844280242920e-01 2.649275064468383789e-01
1.881000000000000000e+03 4.002062606811523438e+01 -4.574223041534423828e+00 3.570092320442199707e-01 -3.255046308040618896e-01 9.451375342905521393e-03 -1.720643639564514160e-01
1.882000000000000000e+03 6.885097503662109375e+01 -2.336259186267852783e-01 -2.534294605255126953e+00 7.374975204467773438e+00 1.452204227447509766e+00 -1.681199312210083008e+00
1.883000000000000000e+03 1.958558654785156250e+01 -1.021723270416259766e+01 -4.075389802455902100e-01 2.784977667033672333e-02 -1.139067634940147400e-01 -1.445477306842803955e-01
1.884000000000000000e+03 7.273011779785156250e+01 -8.334842920303344727e-01 -9.895259737968444824e-01 2.217031478881835938e+00 3.682516515254974365e-01 -3.225461006164550781e+00
1.885000000000000000e+03 4.209096145629882812e+01 -7.675131320953369141e+00 4.515430927276611328e-01 -1.576776504516601562e-01 8.815963566303253174e-02 -2.568046748638153076e-01
1.886000000000000000e+03 6.570948028564453125e+01 1.235711669921875000e+01 2.663751840591430664e+00 6.477388858795166016e+00 2.742342233657836914e+00 -4.175565719604492188e+00
1.887000000000000000e+03 6.596837615966796875e+01 1.192423057556152344e+01 2.085332632064819336e+00 6.232458114624023438e+00 2.495337247848510742e+00 -4.450588703155517578e+00
1.888000000000000000e+03 6.583130645751953125e+01 8.227773666381835938e+00 1.729202032089233398e+00 5.933172702789306641e+00 2.298712491989135742e+00 3.841042041778564453e+00
1.889000000000000000e+03 6.696495056152343750e+01 1.237233448028564453e+01 5.249865055084228516e-01 1.249964523315429688e+01 3.907389402389526367e+00 -4.046610355377197266e+00
1.890000000000000000e+03 6.735125732421875000e+01 1.294804286956787109e+01 -2.778711616992950439e-01 1.204948329925537109e+01 3.531483411788940430e+00 -1.738254785537719727e+00
1.891000000000000000e+03 6.554516601562500000e+01 8.049245834350585938e+00 1.761190295219421387e+00 5.255692005157470703e+00 2.105064630508422852e+00 3.167709350585937500e+00
1.892000000000000000e+03 6.542535400390625000e+01 7.599849700927734375e+00 1.134812235832214355e+00 5.123073101043701172e+00 1.877365708351135254e+00 2.831427335739135742e+00
1.893000000000000000e+03 8.079313278198242188e+00 -3.827181100845336914e+00 6.895073689520359039e-03 -8.473205380141735077e-03 -4.734395479317754507e-04 3.616406582295894623e-03
1.894000000000000000e+03 6.642091369628906250e+01 1.323638439178466797e+01 2.745525836944580078e-01 9.038208007812500000e+00 2.793828248977661133e+00 -2.820604801177978516e+00
1.895000000000000000e+03 6.792471313476562500e+01 1.245588684082031250e+01 -1.356651037931442261e-01 1.434948158264160156e+01 4.264144897460937500e+00 2.874785363674163818e-01
1.896000000000000000e+03 2.368709754943847656e+01 1.297825723886489868e-01 -4.885403439402580261e-02 1.272673606872558594e-01 2.352399937808513641e-02 8.629561960697174072e-02
1.897000000000000000e+03 2.448875808715820312e+01 -2.439220190048217773e+00 -5.439897626638412476e-02 -3.333534300327301025e-02 -2.632029540836811066e-02 -4.757689684629440308e-02
1.898000000000000000e+03 3.480693817138671875e+00 -2.540304183959960938e+00 6.823939736932516098e-03 -1.469913695473223925e-04 2.003084635362029076e-03 7.894637994468212128e-03
1.899000000000000000e+03 3.677410602569580078e+00 -3.850316286087036133e+00 3.042652737349271774e-03 3.346812678501009941e-03 1.916839624755084515e-03 1.145986281335353851e-02
1.900000000000000000e+03 5.280460739135742188e+01 1.515464591979980469e+01 -1.572792172431945801e+00 2.504737377166748047e-01 -3.966955244541168213e-01 5.048922300338745117e-01
1.901000000000000000e+03 6.719895935058593750e+01 5.695421218872070312e+00 1.573574542999267578e+00 1.194482421875000000e+01 4.055519580841064453e+00 9.388145059347152710e-02
1.902000000000000000e+03 1.118014049530029297e+01 -4.279145717620849609e+00 -5.190886557102203369e-03 -2.241270849481225014e-03 -2.229647245258092880e-03 3.670101286843419075e-03
1.903000000000000000e+03 9.770716667175292969e+00 -3.991673231124877930e+00 9.695261251181364059e-04 -2.814568812027573586e-03 -5.535127711482346058e-04 6.411309354007244110e-03
1.904000000000000000e+03 3.889556884765625000e+01 1.548018836975097656e+01 -7.275807261466979980e-01 1.524882614612579346e-01 -1.725277304649353027e-01 8.713448792695999146e-02
1.905000000000000000e+03 3.914280700683593750e+01 1.457799339294433594e+01 -7.000635266304016113e-01 1.259390711784362793e-01 -1.722373366355895996e-01 1.072106361389160156e-01
1.906000000000000000e+03 7.253701019287109375e+01 1.245369815826416016e+01 2.436785697937011719e+00 5.075099945068359375e+00 2.253565549850463867e+00 6.065010428428649902e-01
1.907000000000000000e+03 3.785417556762695312e+01 1.440605926513671875e+01 -6.928418278694152832e-01 4.493572190403938293e-02 -1.943718343973159790e-01 1.350560039281845093e-01
1.908000000000000000e+03 1.092065715789794922e+01 -5.067467689514160156e+00 -6.770959123969078064e-03 -1.830586418509483337e-02 -7.523046806454658508e-03 -4.819534718990325928e-03
1.909000000000000000e+03 1.192731189727783203e+01 -4.431939125061035156e+00 -1.093153376132249832e-03 -1.921262592077255249e-02 -6.091733928769826889e-03 -5.437603686004877090e-03
1.910000000000000000e+03 5.390166473388671875e+01 1.523290061950683594e+01 -1.373283743858337402e+00 3.561250567436218262e-01 -3.051476180553436279e-01 4.232583045959472656e-01
1.911000000000000000e+03 3.761437988281250000e+01 1.656674957275390625e+01 -7.161957621574401855e-01 7.540357857942581177e-02 -1.922376602888107300e-01 9.809651970863342285e-02
1.912000000000000000e+03 1.044655323028564453e+01 -4.148097991943359375e+00 4.286078328732401133e-04 -1.440458372235298157e-02 -4.192792810499668121e-03 -3.495806362479925156e-03
1.913000000000000000e+03 7.225284099578857422e+00 -3.495968580245971680e+00 7.331430446356534958e-03 -1.904319855384528637e-03 1.628133235499262810e-03 9.652879089117050171e-03
1.914000000000000000e+03 5.640434265136718750e+01 1.538576984405517578e+01 -1.195508360862731934e+00 5.406175851821899414e-01 -1.964672505855560303e-01 1.327501386404037476e-01
1.915000000000000000e+03 2.067057609558105469e+01 8.287053108215332031e+00 -1.807377487421035767e-02 1.562474481761455536e-02 -7.347089122049510479e-04 -4.874919075518846512e-03
1.916000000000000000e+03 2.245275688171386719e+01 7.098376274108886719e+00 -3.884849697351455688e-02 8.953855372965335846e-03 -8.968392387032508850e-03 -2.330477908253669739e-02
1.917000000000000000e+03 4.144591140747070312e+01 1.571103096008300781e+01 -8.593875765800476074e-01 1.765090525150299072e-01 -2.048635631799697876e-01 1.161823868751525879e-01
1.918000000000000000e+03 6.724188995361328125e+01 6.547700881958007812e+00 -8.679956197738647461e-01 1.362438011169433594e+01 3.826915502548217773e+00 9.273343086242675781e-01
1.919000000000000000e+03 6.663423919677734375e+01 7.396035671234130859e+00 -7.288154959678649902e-01 1.250215148925781250e+01 3.532000780105590820e+00 3.236844778060913086e+00
1.920000000000000000e+03 4.069538116455078125e+01 1.573635387420654297e+01 -8.175987601280212402e-01 2.214306294918060303e-01 -1.788504421710968018e-01 5.361173301935195923e-02
1.921000000000000000e+03 5.553732299804687500e+01 1.547319221496582031e+01 -1.205682873725891113e+00 4.740558564662933350e-01 -2.194881141185760498e-01 2.836422324180603027e-01
1.922000000000000000e+03 5.467274093627929688e+01 1.543475341796875000e+01 -1.267971038818359375e+00 4.050054252147674561e-01 -2.588896751403808594e-01 2.930186390876770020e-01
1.923000000000000000e+03 8.207305908203125000e+00 8.618030548095703125e+00 1.175846252590417862e-02 -6.745197810232639313e-03 1.503979437984526157e-03 7.286868523806333542e-03
1.924000000000000000e+03 7.186000823974609375e+01 1.303627872467041016e+01 2.690613269805908203e+00 5.913650512695312500e+00 2.581279039382934570e+00 1.443565964698791504e+00
1.925000000000000000e+03 6.830781555175781250e+01 1.329923057556152344e+01 -4.053980708122253418e-01 1.212544822692871094e+01 3.516015052795410156e+00 5.464566946029663086e-01
1.926000000000000000e+03 1.338776969909667969e+01 -4.931824684143066406e+00 -7.203876040875911713e-03 -2.218268997967243195e-02 -8.815970271825790405e-03 -7.058185525238513947e-03
1.927000000000000000e+03 3.779213666915893555e+00 5.154625892639160156e+00 -7.198555395007133484e-03 3.731323813553899527e-04 -2.047627000138163567e-03 4.158516414463520050e-03
1.928000000000000000e+03 5.288464736938476562e+01 7.893907070159912109e+00 -1.007884275168180466e-02 -1.878140307962894440e-02 -8.658073842525482178e-03 -2.722845785319805145e-02
1.929000000000000000e+03 6.351465988159179688e+01 1.649689483642578125e+01 -3.838811516761779785e-01 2.680978536605834961e+00 6.891292333602905273e-01 -2.088788032531738281e+00
1.930000000000000000e+03 6.435004425048828125e+01 1.575967597961425781e+01 -4.073915481567382812e-01 3.599924087524414062e+00 9.577597975730895996e-01 -2.524387598037719727e+00
1.931000000000000000e+03 5.195058345794677734e+00 7.745357990264892578e+00 1.061284929164685309e-04 -7.197810802608728409e-03 -2.127504674717783928e-03 1.239825878292322159e-02
1.932000000000000000e+03 1.411247062683105469e+01 -5.280531883239746094e+00 -9.450265206396579742e-03 1.522549311630427837e-03 -2.378314966335892677e-03 5.133804865181446075e-03
1.933000000000000000e+03 5.040232849121093750e+01 7.699329853057861328e+00 2.491131611168384552e-02 -1.917743682861328125e-02 1.720164087601006031e-03 -7.962185889482498169e-03
1.934000000000000000e+03 6.472594261169433594e+00 -3.894640922546386719e+00 -1.088418066501617432e-03 -9.627646068111062050e-04 -6.153548019938170910e-04 5.996393971145153046e-03
1.935000000000000000e+03 1.485725784301757812e+01 -5.705303668975830078e+00 -2.604514732956886292e-02 -1.872369647026062012e-02 -1.343065313994884491e-02 -4.885443486273288727e-03
1.936000000000000000e+03 5.287381649017333984e+00 -4.743416309356689453e+00 2.540091518312692642e-03 -2.275030128657817841e-03 7.951840962050482631e-05 9.792298078536987305e-03
1.937000000000000000e+03 6.741188049316406250e+00 -4.847023487091064453e+00 -6.418289151042699814e-03 -6.195771042257547379e-03 -3.784218104556202888e-03 3.139713313430547714e-03
1.938000000000000000e+03 7.133304595947265625e+01 1.143008136749267578e+01 3.951483488082885742e+00 3.917988300323486328e+00 2.360841512680053711e+00 2.405056953430175781e+00
1.939000000000000000e+03 2.446776390075683594e+01 9.172467231750488281e+00 -5.245928093791007996e-02 4.000948742032051086e-03 -1.453749928623437881e-02 -2.150201611220836639e-02
1.940000000000000000e+03 6.515294647216796875e+01 1.392821693420410156e+01 4.830683171749114990e-01 5.930028915405273438e+00 1.923929214477539062e+00 -2.620629787445068359e+00
1.941000000000000000e+03 4.112537765502929688e+01 -2.263028621673583984e+00 -8.511762619018554688e-01 -6.745675802230834961e-01 -4.577231705188751221e-01 2.401128411293029785e-01
1.942000000000000000e+03 6.078167724609375000e+01 -1.894975543022155762e+00 -4.133951663970947266e-01 4.495983600616455078e+00 1.224776506423950195e+00 7.986163496971130371e-01
1.943000000000000000e+03 5.969458007812500000e+01 -2.937555551528930664e+00 5.825477838516235352e-01 2.978243827819824219e+00 1.068237423896789551e+00 6.018756031990051270e-01
1.944000000000000000e+03 2.294401741027832031e+01 7.691668510437011719e+00 -5.029266700148582458e-02 7.659381255507469177e-03 -1.278998609632253647e-02 -1.732430420815944672e-02
1.945000000000000000e+03 6.542619323730468750e+01 5.809981346130371094e+00 1.553695797920227051e+00 5.933313369750976562e+00 2.246102809906005859e+00 2.215550422668457031e+00
1.946000000000000000e+03 6.325067138671875000e+01 1.526583552360534668e+00 -8.105744123458862305e-01 3.997882127761840820e+00 9.561923146247863770e-01 3.289471626281738281e+00
1.947000000000000000e+03 6.594516754150390625e+01 1.398844599723815918e+00 8.571263551712036133e-01 5.132009029388427734e+00 1.796740651130676270e+00 3.503891944885253906e+00
1.948000000000000000e+03 2.964039564132690430e+00 -3.412130832672119141e+00 4.540896974503993988e-03 2.355886157602071762e-03 2.069034846499562263e-03 8.919309824705123901e-03
1.949000000000000000e+03 6.659896850585937500e+01 -1.916568374633789062e+01 -4.030411839485168457e-01 2.091230869293212891e+00 5.064569115638732910e-01 -3.387600779533386230e-01
1.950000000000000000e+03 7.473180389404296875e+01 1.435340785980224609e+01 8.514910340309143066e-01 6.352973461151123047e+00 2.161339282989501953e+00 3.909772336483001709e-01
1.951000000000000000e+03 7.333568572998046875e+01 1.235794162750244141e+01 2.088330507278442383e+00 5.152528762817382812e+00 2.172257900238037109e+00 -1.110751852393150330e-01
1.952000000000000000e+03 7.422619628906250000e+01 1.264222812652587891e+01 1.803869485855102539e+00 5.667372226715087891e+00 2.241372585296630859e+00 -4.513145089149475098e-01
1.953000000000000000e+03 3.287280559539794922e+00 5.002313137054443359e+00 -5.382196977734565735e-03 -1.296048285439610481e-03 -2.003473462536931038e-03 3.240646095946431160e-03
1.954000000000000000e+03 3.029610061645507812e+01 -1.139144515991210938e+01 -1.852374821901321411e-01 2.610464990139007568e-01 2.274270169436931610e-02 9.813039004802703857e-02
1.955000000000000000e+03 2.108163642883300781e+01 -1.245304965972900391e+01 -4.223492741584777832e-01 -1.554619073867797852e-01 -1.733433604240417480e-01 -3.303850889205932617e-01
1.956000000000000000e+03 7.589321899414062500e+01 -4.167572498321533203e+00 -2.461581677198410034e-01 7.554450035095214844e+00 2.192487478256225586e+00 1.069759964942932129e+00
1.957000000000000000e+03 3.596251296997070312e+01 3.732965290546417236e-01 -1.322975516319274902e+00 6.087586879730224609e-01 -2.142650634050369263e-01 3.347302377223968506e-01
1.958000000000000000e+03 3.595241546630859375e+01 1.950451254844665527e+00 -5.917749404907226562e-01 2.876591980457305908e-01 -9.123471379280090332e-02 1.370892524719238281e-01
1.959000000000000000e+03 3.494454956054687500e+01 2.466741323471069336e+00 -5.827862620353698730e-01 1.977123022079467773e-01 -1.155221909284591675e-01 -2.000626176595687866e-01
1.960000000000000000e+03 7.484136962890625000e+01 -6.183338165283203125e+00 -1.034821793437004089e-01 7.622339725494384766e+00 2.255657196044921875e+00 7.661554217338562012e-01
1.961000000000000000e+03 7.264012145996093750e+01 -5.963144302368164062e+00 -9.954185783863067627e-02 6.943744659423828125e+00 2.053260803222656250e+00 -5.423184633255004883e-01
1.962000000000000000e+03 4.443696594238281250e+01 -1.747055292129516602e+00 -9.806256890296936035e-01 2.759569883346557617e-01 -2.114006131887435913e-01 6.036071851849555969e-02
1.963000000000000000e+03 1.795091438293457031e+01 -6.486679553985595703e+00 -2.345878817141056061e-02 -3.520186990499496460e-03 -8.093692362308502197e-03 -8.410973474383354187e-03
1.964000000000000000e+03 6.066226959228515625e+01 -1.463150596618652344e+01 -7.924610376358032227e-01 4.082315921783447266e+00 9.869564771652221680e-01 6.781386733055114746e-01
1.965000000000000000e+03 4.439757347106933594e+00 2.319963645935058594e+01 -8.951943367719650269e-03 -4.573614895343780518e-02 -1.640642806887626648e-02 3.014707006514072418e-02
1.966000000000000000e+03 6.188834381103515625e+01 1.639083099365234375e+01 -3.025225698947906494e-01 1.005545377731323242e+00 2.109068483114242554e-01 -1.095026016235351562e+00
1.967000000000000000e+03 6.021592712402343750e+01 1.641203689575195312e+01 -5.152304768562316895e-01 7.142614722251892090e-01 5.970930680632591248e-02 -4.473814368247985840e-01
1.968000000000000000e+03 2.032071113586425781e+01 -1.129051971435546875e+01 -3.768352866172790527e-01 -6.979145109653472900e-02 -1.339880228042602539e-01 -2.007859349250793457e-01
1.969000000000000000e+03 7.447283172607421875e+01 -8.947543144226074219e+00 9.479635953903198242e-01 9.030287742614746094e+00 2.993475437164306641e+00 5.295668840408325195e-01
1.970000000000000000e+03 3.235238647460937500e+01 -1.696490859985351562e+01 -3.229099214076995850e-01 2.457094639539718628e-01 -2.316013723611831665e-02 -2.744673378765583038e-02
1.971000000000000000e+03 3.372306060791015625e+01 -1.557579326629638672e+01 -3.356697559356689453e-01 3.694894015789031982e-01 1.014589052647352219e-02 -4.493588209152221680e-02
1.972000000000000000e+03 5.982704162597656250e+01 -1.522567653656005859e+01 -4.886856973171234131e-01 3.845667600631713867e+00 1.007094621658325195e+00 7.298758029937744141e-01
1.973000000000000000e+03 5.926350784301757812e+01 -1.421084022521972656e+01 -4.842975735664367676e-01 3.895689487457275391e+00 1.023417592048645020e+00 8.926694989204406738e-01
1.974000000000000000e+03 3.787758636474609375e+01 -2.462667465209960938e+00 -7.091332077980041504e-01 3.871483495458960533e-03 -2.115785181522369385e-01 -4.081571996212005615e-01
1.975000000000000000e+03 3.889276123046875000e+01 -5.398542404174804688e+00 5.944620966911315918e-01 7.843676954507827759e-02 2.018696665763854980e-01 -4.507165551185607910e-01
1.976000000000000000e+03 5.036857223510742188e+01 1.145667195320129395e+00 -9.496889710426330566e-01 3.009368181228637695e-01 -1.946256607770919800e-01 -4.310474917292594910e-02
1.977000000000000000e+03 5.352043151855468750e+01 -4.052681446075439453e+00 3.539014458656311035e-01 -3.806090950965881348e-01 -8.012299425899982452e-03 -3.370479643344879150e-01
1.978000000000000000e+03 5.585437011718750000e+01 -5.063649415969848633e-01 -1.608386516571044922e+00 -7.545922994613647461e-01 -7.088935971260070801e-01 -8.042207956314086914e-01
1.979000000000000000e+03 7.556677246093750000e+01 -1.262539577484130859e+01 7.551728487014770508e-01 9.168472290039062500e+00 2.977093458175659180e+00 -5.560174584388732910e-02
1.980000000000000000e+03 3.088021659851074219e+01 1.625906562805175781e+01 -5.023052096366882324e-01 8.703694678843021393e-03 -1.480804532766342163e-01 2.272052913904190063e-01
1.981000000000000000e+03 4.903314590454101562e+01 1.628935098648071289e+00 -8.570848107337951660e-01 2.522421777248382568e-01 -1.814527958631515503e-01 -7.340253144502639771e-02
1.982000000000000000e+03 2.948511362075805664e+00 -2.004578781127929688e+01 9.260897786589339375e-05 -9.987676143646240234e-02 -2.993524447083473206e-02 -5.244649946689605713e-02
1.983000000000000000e+03 4.005147457122802734e+00 -3.023458290100097656e+01 3.797754878178238869e-03 -2.592792510986328125e-01 -7.664445042610168457e-02 -6.481956690549850464e-02
1.984000000000000000e+03 5.143327713012695312e+01 1.617774963378906250e+01 -2.123082876205444336e+00 4.070605710148811340e-02 -6.247130632400512695e-01 1.416244357824325562e-01
1.985000000000000000e+03 2.771922111511230469e+01 -9.722919464111328125e-01 -7.558022141456604004e-01 3.676360100507736206e-02 -2.157115787267684937e-01 -4.374861419200897217e-01
1.986000000000000000e+03 2.645742416381835938e+01 3.600579500198364258e-01 -3.530772626399993896e-01 3.142612278461456299e-01 -1.164481323212385178e-02 4.076353833079338074e-02
1.987000000000000000e+03 7.445942687988281250e+01 1.730893325805664062e+01 2.039952762424945831e-02 6.789190769195556641e+00 2.042877197265625000e+00 6.881858110427856445e-01
1.988000000000000000e+03 4.327536010742187500e+01 1.549209785461425781e+01 -9.782541990280151367e-01 2.119790762662887573e-01 -2.298825383186340332e-01 -2.355349436402320862e-02
1.989000000000000000e+03 4.985525512695312500e+01 1.789550590515136719e+01 -9.989600777626037598e-01 -6.191745996475219727e-01 -4.854404032230377197e-01 1.453648656606674194e-01
1.990000000000000000e+03 7.296869659423828125e+01 -3.957633018493652344e+00 -9.506120085716247559e-01 5.905656814575195312e+00 1.486513495445251465e+00 -1.284429192543029785e+00
1.991000000000000000e+03 7.475202941894531250e+01 -1.032814884185791016e+01 1.309871196746826172e+00 9.179306030273437500e+00 3.146753311157226562e+00 3.392580151557922363e-01
1.992000000000000000e+03 2.224151039123535156e+01 9.045961380004882812e+00 -3.333865106105804443e-02 2.427362464368343353e-02 -2.719507785513997078e-03 -3.601032076403498650e-03
1.993000000000000000e+03 6.747160339355468750e+01 7.578251957893371582e-01 -2.947200238704681396e-01 6.940277576446533203e+00 1.993667364120483398e+00 1.061720371246337891e+00
1.994000000000000000e+03 6.663776397705078125e+01 -7.692571878433227539e-01 -1.781840324401855469e+00 2.982627630233764648e+00 3.602361977100372314e-01 1.277885913848876953e+00
1.995000000000000000e+03 4.680448913574218750e+01 1.892182922363281250e+01 -9.795323014259338379e-01 -2.631910741329193115e-01 -3.728170096874237061e-01 5.098881721496582031e-01
1.996000000000000000e+03 4.580607604980468750e+01 1.792340469360351562e+01 -1.106191992759704590e+00 -1.509606242179870605e-01 -3.771457970142364502e-01 4.220062494277954102e-01
1.997000000000000000e+03 4.904229354858398438e+01 3.718579292297363281e+00 -5.569658279418945312e-01 1.311547607183456421e-01 -1.277433335781097412e-01 3.973876591771841049e-04
1.998000000000000000e+03 1.830067634582519531e+01 1.998781585693359375e+01 -1.728223115205764771e-01 2.874490572139620781e-03 -5.098434910178184509e-02 1.281803548336029053e-01
1.999000000000000000e+03 1.706674194335937500e+01 1.845981025695800781e+01 -1.353491842746734619e-01 1.587922871112823486e-02 -3.584098815917968750e-02 7.231817394495010376e-02
2.000000000000000000e+03 6.644945526123046875e+01 4.008690357208251953e+00 2.373965263366699219e+00 7.773376941680908203e+00 3.044202566146850586e+00 1.819348096847534180e+00
2.001000000000000000e+03 1.673114204406738281e+01 -8.291357040405273438e+00 -1.189717054367065430e-01 -7.035084534436464310e-03 -3.780203685164451599e-02 -6.125455256551504135e-03
2.002000000000000000e+03 7.237690734863281250e+01 -1.851388812065124512e+00 -1.778914570808410645e+00 4.045538425445556641e+00 6.799871921539306641e-01 -3.203515529632568359e+00
2.003000000000000000e+03 6.249273681640625000e+01 -8.774574846029281616e-02 -1.941860675811767578e+00 5.163544178009033203e+00 9.665051102638244629e-01 3.442353487014770508e+00
2.004000000000000000e+03 4.355412292480468750e+01 -1.273364830017089844e+01 -5.227493122220039368e-02 -4.459725692868232727e-02 -2.906165644526481628e-02 -2.868655323982238770e-01
2.005000000000000000e+03 4.445063018798828125e+01 -1.200204563140869141e+01 2.287551313638687134e-01 1.839503347873687744e-01 1.238116398453712463e-01 -3.354053199291229248e-01
2.006000000000000000e+03 6.798546600341796875e+01 6.598840713500976562e+00 -5.241385102272033691e-01 1.521437358856201172e+01 4.407070159912109375e+00 1.850343197584152222e-01
2.007000000000000000e+03 4.572736263275146484e+00 -1.475340843200683594e+01 -2.415895275771617889e-02 -3.881445154547691345e-02 -1.889202184975147247e-02 -4.479800909757614136e-02
2.008000000000000000e+03 4.988427734375000000e+01 -1.152437210083007812e+00 -7.731552124023437500e-01 2.684568464756011963e-01 -1.514095067977905273e-01 -2.127749174833297729e-01
2.009000000000000000e+03 3.563874053955078125e+01 1.957270812988281250e+01 -4.266296029090881348e-01 -4.545195028185844421e-02 -1.416244655847549438e-01 2.249306440353393555e-01
2.010000000000000000e+03 3.972855758666992188e+01 -3.368996858596801758e+00 -1.086908504366874695e-01 -4.224238693714141846e-01 -1.593344211578369141e-01 -1.493650674819946289e-01
2.011000000000000000e+03 7.524261474609375000e+01 -2.292658996582031250e+01 -1.806156337261199951e-01 7.104032039642333984e+00 2.077024936676025391e+00 6.791673898696899414e-01
2.012000000000000000e+03 7.534490966796875000e+01 -2.987567329406738281e+01 1.144353300333023071e-01 6.526675224304199219e+00 1.992333173751831055e+00 4.687256813049316406e-01
2.013000000000000000e+03 7.824427032470703125e+01 5.256683826446533203e+00 6.607934236526489258e-01 8.989257812500000000e+00 2.895015478134155273e+00 -2.604961156845092773e+00
2.014000000000000000e+03 4.282058715820312500e+00 1.268006038665771484e+01 1.912118284963071346e-03 -1.413430087268352509e-02 -3.666654927656054497e-03 2.363666426390409470e-03
2.015000000000000000e+03 5.984210968017578125e+00 1.341576862335205078e+01 7.537071360275149345e-04 -1.170076057314872742e-02 -3.284115809947252274e-03 3.038040362298488617e-03
2.016000000000000000e+03 7.655519866943359375e+01 -3.403555679321289062e+01 4.158643633127212524e-02 6.633238315582275391e+00 2.002447366714477539e+00 2.739468514919281006e-01
2.017000000000000000e+03 7.437439727783203125e+01 -1.574532699584960938e+01 -1.048771381378173828e+00 9.293688774108886719e+00 2.473475217819213867e+00 -6.619533300399780273e-01
2.018000000000000000e+03 3.186451148986816406e+01 -1.267507934570312500e+01 -1.394843310117721558e-01 4.519444406032562256e-01 9.373803436756134033e-02 2.228567004203796387e-02
2.019000000000000000e+03 6.621919250488281250e+01 4.817848682403564453e+00 2.126668691635131836e+00 7.661804199218750000e+00 2.936541795730590820e+00 1.913810729980468750e+00
2.020000000000000000e+03 6.687621307373046875e+01 3.069051027297973633e+00 2.395220041275024414e+00 8.049158096313476562e+00 3.133313417434692383e+00 2.123862028121948242e+00
2.021000000000000000e+03 2.929800748825073242e+00 3.483851242065429688e+01 4.841831978410482407e-03 -1.363177895545959473e-01 -3.944278880953788757e-02 2.085512317717075348e-02
2.022000000000000000e+03 4.390326499938964844e+00 1.935346031188964844e+01 -7.919967174530029297e-03 -2.615174092352390289e-02 -1.022151298820972443e-02 1.444607321172952652e-02
2.023000000000000000e+03 2.636159515380859375e+01 -1.076891422271728516e+01 -4.094554483890533447e-01 -8.227820396423339844e-01 -3.696712553501129150e-01 7.612317800521850586e-02
2.024000000000000000e+03 3.067234611511230469e+01 2.436309099197387695e+00 3.793489187955856323e-02 -4.803914129734039307e-01 -1.327369511127471924e-01 -3.067968189716339111e-01
2.025000000000000000e+03 4.621174240112304688e+01 1.787567734718322754e+00 -8.022855520248413086e-01 1.062757596373558044e-01 -2.088029384613037109e-01 -2.421553432941436768e-01
2.026000000000000000e+03 4.605421066284179688e+01 -1.058532595634460449e+00 -8.990301489830017090e-01 2.707623541355133057e-01 -1.884803473949432373e-01 1.636206917464733124e-02
2.027000000000000000e+03 4.403533554077148438e+01 -1.574101924896240234e+01 -4.846359193325042725e-01 3.041775226593017578e-01 -5.413751676678657532e-02 -6.979783624410629272e-02
2.028000000000000000e+03 4.187493133544921875e+01 -4.338005542755126953e+00 7.371453195810317993e-02 -4.022461175918579102e-01 -9.855947643518447876e-02 6.680405139923095703e-02
2.029000000000000000e+03 2.939638519287109375e+01 1.467251205444335938e+01 -3.280846476554870605e-01 3.876019734889268875e-03 -9.726259112358093262e-02 4.795743152499198914e-02
2.030000000000000000e+03 7.134761047363281250e+01 -1.580805063247680664e+00 -2.698850393295288086e+00 5.191534042358398438e+00 7.478051185607910156e-01 -3.165074110031127930e+00
2.031000000000000000e+03 4.317155838012695312e+01 1.710251235961914062e+01 -1.049582242965698242e+00 1.816605925559997559e-01 -2.603765130043029785e-01 3.295695483684539795e-01
2.032000000000000000e+03 5.135275650024414062e+01 5.238903999328613281e+00 -1.825100928544998169e-01 -3.167242184281349182e-02 -6.425475329160690308e-02 3.940105065703392029e-02
2.033000000000000000e+03 2.947760200500488281e+01 -5.790087699890136719e+00 2.482961863279342651e-01 -1.254172716289758682e-02 7.072633504867553711e-02 -6.167042255401611328e-01
2.034000000000000000e+03 2.828107070922851562e+01 -6.111146450042724609e+00 7.290376722812652588e-02 -2.876774966716766357e-01 -6.443211436271667480e-02 -6.621593832969665527e-01
2.035000000000000000e+03 5.158333206176757812e+01 -9.293901920318603516e-01 -9.506595134735107422e-01 1.951727122068405151e-01 -2.266460359096527100e-01 -3.509951233863830566e-01
2.036000000000000000e+03 6.847058105468750000e+01 -1.924420738220214844e+01 -1.947923898696899414e-01 1.868250489234924316e+00 5.020374655723571777e-01 4.042774736881256104e-01
2.037000000000000000e+03 5.891498947143554688e+01 -1.119404077529907227e+00 -6.204677820205688477e-01 1.848113775253295898e+00 3.682937920093536377e-01 3.717265427112579346e-01
2.038000000000000000e+03 7.337876892089843750e+01 -1.831804466247558594e+01 -1.494103908538818359e+00 7.530266284942626953e+00 1.810848712921142578e+00 6.050436496734619141e-01
2.039000000000000000e+03 1.122292518615722656e+01 1.258093833923339844e+01 2.455820562317967415e-03 1.017884444445371628e-02 3.790399525314569473e-03 9.677035734057426453e-03
2.040000000000000000e+03 1.217893791198730469e+01 1.159734344482421875e+01 1.681520603597164154e-02 1.877337135374546051e-02 1.067657396197319031e-02 1.566049829125404358e-02
2.041000000000000000e+03 5.205587387084960938e+01 7.493514537811279297e+00 -5.714220460504293442e-03 -3.587998449802398682e-02 -1.247826125472784042e-02 -8.799036964774131775e-03
2.042000000000000000e+03 5.688528060913085938e+01 -8.298970222473144531e+00 3.435612916946411133e-01 1.835181117057800293e+00 6.536227464675903320e-01 6.891579627990722656e-01
2.043000000000000000e+03 4.285576629638671875e+01 -1.024379730224609375e+01 3.482587039470672607e-01 8.505331352353096008e-03 1.070292070508003235e-01 -3.376015424728393555e-01
2.044000000000000000e+03 5.686142730712890625e+01 -2.173983955383300781e+01 -4.505047202110290527e-01 2.698325634002685547e+00 6.743462681770324707e-01 2.838508188724517822e-01
2.045000000000000000e+03 3.097640419006347656e+01 1.794021987915039062e+01 -4.641392827033996582e-01 -1.109842862933874130e-02 -1.425713151693344116e-01 2.552792727947235107e-01
2.046000000000000000e+03 4.100220489501953125e+01 -5.424149990081787109e+00 4.512649774551391602e-01 -2.623345255851745605e-01 5.667914077639579773e-02 -1.642854809761047363e-01
2.047000000000000000e+03 4.501376342773437500e+01 -1.295141887664794922e+01 -8.734390884637832642e-02 3.139431774616241455e-01 6.797978281974792480e-02 -3.224213719367980957e-01
2.048000000000000000e+03 5.543901062011718750e+01 -1.670938372611999512e+00 -5.094684362411499023e-01 -3.334702849388122559e-01 -2.528816163539886475e-01 -4.893192350864410400e-01
2.049000000000000000e+03 5.605020046234130859e+00 3.585189056396484375e+01 1.418680232018232346e-02 -1.326929181814193726e-01 -3.555183485150337219e-02 3.212583065032958984e-02
2.050000000000000000e+03 6.560304260253906250e+01 2.502657175064086914e+00 1.046096801757812500e+00 5.261167049407958984e+00 1.892179131507873535e+00 2.868968009948730469e+00
2.051000000000000000e+03 3.414312744140625000e+01 -1.821077728271484375e+01 -4.012770354747772217e-01 2.539492249488830566e-01 -4.419834166765213013e-02 -1.485738903284072876e-01
2.052000000000000000e+03 3.188491630554199219e+01 1.324917912483215332e+00 -5.243179202079772949e-01 -5.783286690711975098e-01 -3.307939767837524414e-01 -8.001695275306701660e-01
2.053000000000000000e+03 6.718661499023437500e+01 1.922659993171691895e+00 1.138633728027343750e+00 7.247538566589355469e+00 2.515851736068725586e+00 1.561803102493286133e+00
2.054000000000000000e+03 6.084170150756835938e+01 -2.965585470199584961e+00 5.542353391647338867e-01 5.129311084747314453e+00 1.705063819885253906e+00 9.001833200454711914e-01
2.055000000000000000e+03 5.772747802734375000e+01 -5.642982006072998047e+00 1.015118241310119629e+00 1.564368486404418945e+00 7.738460302352905273e-01 4.540307819843292236e-01
2.056000000000000000e+03 5.839868927001953125e+01 -1.069595336914062500e+01 -3.538308441638946533e-01 3.487611293792724609e+00 9.401341080665588379e-01 1.146819472312927246e+00
2.057000000000000000e+03 7.518525695800781250e+01 -3.736547470092773438e+01 6.796722859144210815e-02 6.262367248535156250e+00 1.899100303649902344e+00 1.028376296162605286e-01
2.058000000000000000e+03 6.118957519531250000e+01 -1.129069709777832031e+01 -6.138006448745727539e-01 4.705718040466308594e+00 1.227575182914733887e+00 9.181808233261108398e-01
2.059000000000000000e+03 5.975815963745117188e+01 -1.112368488311767578e+01 -2.938727736473083496e-01 4.337726593017578125e+00 1.213156104087829590e+00 1.352833151817321777e+00
2.060000000000000000e+03 6.639159679412841797e+00 -3.388891220092773438e+01 3.670743107795715332e-02 -2.806608974933624268e-01 -7.318603992462158203e-02 -7.124684751033782959e-02
2.061000000000000000e+03 2.747569274902343750e+01 -1.048877620697021484e+01 -5.330101847648620605e-01 -5.776489377021789551e-01 -3.331977427005767822e-01 1.253200024366378784e-01
2.062000000000000000e+03 4.195271682739257812e+01 -6.138190269470214844e+00 3.560127317905426025e-01 -2.326649129390716553e-01 3.700435161590576172e-02 -1.248991414904594421e-01
2.063000000000000000e+03 4.401555538177490234e+00 -8.591500282287597656e+00 -1.003987155854701996e-02 -5.686784628778696060e-03 -4.717996809631586075e-03 -2.232389058917760849e-03
2.064000000000000000e+03 5.543012142181396484e+00 -5.508980751037597656e+00 -9.069517254829406738e-03 -3.609220031648874283e-03 -3.803621046245098114e-03 4.457796923816204071e-03
2.065000000000000000e+03 4.848522663116455078e+00 6.553803443908691406e+00 -3.927649464458227158e-03 -2.358718542382121086e-03 -1.885910402052104473e-03 1.127250585705041885e-02
2.066000000000000000e+03 2.800480461120605469e+01 1.749111557006835938e+01 -3.936207294464111328e-01 3.213275223970413208e-02 -1.084463968873023987e-01 1.822555810213088989e-01
2.067000000000000000e+03 3.785233306884765625e+01 8.239985466003417969e+00 1.787547208368778229e-02 -5.213278345763683319e-03 3.798658028244972229e-03 -1.305939815938472748e-02
2.068000000000000000e+03 4.836083889007568359e+00 -2.599859428405761719e+01 4.862579517066478729e-03 -1.937557160854339600e-01 -5.666794255375862122e-02 -9.248127788305282593e-02
2.069000000000000000e+03 5.786934375762939453e+00 -2.922813034057617188e+01 8.510184474289417267e-03 -2.319442331790924072e-01 -6.703021377325057983e-02 -8.880313485860824585e-02
2.070000000000000000e+03 6.100646209716796875e+01 -8.268460273742675781e+00 4.551743268966674805e-01 5.549420833587646484e+00 1.801378488540649414e+00 1.045730829238891602e+00
2.071000000000000000e+03 5.127518844604492188e+01 -2.303661155700683594e+01 -2.534446679055690765e-02 7.575728893280029297e-01 2.196685224771499634e-01 8.402220159769058228e-02
2.072000000000000000e+03 4.367368316650390625e+01 -1.484382247924804688e+01 -6.405077576637268066e-01 2.424139827489852905e-01 -1.194281280040740967e-01 -3.097233474254608154e-01
2.073000000000000000e+03 5.608700942993164062e+01 -5.439670085906982422e+00 7.352190613746643066e-01 4.891489744186401367e-01 3.673104047775268555e-01 5.599238444119691849e-03
2.074000000000000000e+03 2.996796226501464844e+01 1.555936908721923828e+01 -4.750544726848602295e-01 5.023659020662307739e-02 -1.274453699588775635e-01 1.153874993324279785e-01
2.075000000000000000e+03 3.002382659912109375e+01 1.727139091491699219e+01 -4.306576848030090332e-01 1.025859825313091278e-02 -1.261197328567504883e-01 2.010139226913452148e-01
2.076000000000000000e+03 2.643326377868652344e+01 -2.228554487228393555e+00 -2.913464009761810303e-01 -1.095965281128883362e-01 -1.202828809618949890e-01 -3.925278782844543457e-01
2.077000000000000000e+03 7.457053375244140625e+01 2.777787744998931885e-01 -2.356901884078979492e+00 2.608426809310913086e+00 7.545745372772216797e-02 7.870021462440490723e-01
2.078000000000000000e+03 7.374330139160156250e+01 -1.415161609649658203e+00 -1.218386888504028320e+00 2.612992525100708008e+00 4.183816611766815186e-01 -8.403720259666442871e-01
2.079000000000000000e+03 5.379349136352539062e+01 -6.173041462898254395e-01 -1.563733339309692383e+00 -6.684274971485137939e-02 -4.891728460788726807e-01 -5.226554274559020996e-01
2.080000000000000000e+03 1.256255531311035156e+01 1.774858665466308594e+01 -5.489173531532287598e-02 4.741224460303783417e-03 -1.504515297710895538e-02 3.542377427220344543e-02
2.081000000000000000e+03 4.883359432220458984e+00 -1.619299125671386719e+01 -1.589358039200305939e-02 -5.833202227950096130e-02 -2.226768061518669128e-02 -5.978572741150856018e-02
2.082000000000000000e+03 4.968913078308105469e+00 -1.888811111450195312e+01 -8.897405117750167847e-03 -9.508786350488662720e-02 -3.119558095932006836e-02 -7.871592044830322266e-02
2.083000000000000000e+03 6.594610595703125000e+01 1.280735588073730469e+01 2.046095371246337891e+00 7.107658863067626953e+00 2.746126413345336914e+00 -3.492127895355224609e+00
2.084000000000000000e+03 6.592862701416015625e+01 1.217885303497314453e+01 2.538426160812377930e+00 6.377632141113281250e+00 2.674817562103271484e+00 -4.264292240142822266e+00
2.085000000000000000e+03 6.779845428466796875e+01 1.315097713470458984e+01 -4.846906960010528564e-01 1.244608688354492188e+01 3.588418960571289062e+00 -6.201711893081665039e-01
2.086000000000000000e+03 9.392317771911621094e+00 -4.771609783172607422e+00 -8.111968636512756348e-03 -1.199574396014213562e-02 -6.032313685864210129e-03 -3.319601295515894890e-03
2.087000000000000000e+03 6.711166381835937500e+01 1.394166564941406250e+01 -4.494513869285583496e-01 9.800710678100585938e+00 2.805377721786499023e+00 -1.644460439682006836e+00
2.088000000000000000e+03 6.573903656005859375e+01 6.682951450347900391e+00 1.037186384201049805e+00 7.235273838043212891e+00 2.481738090515136719e+00 2.718086957931518555e+00
2.089000000000000000e+03 5.087105178833007812e+01 8.346078872680664062e+00 -7.371908286586403847e-04 -1.519510988146066666e-02 -4.779689945280551910e-03 1.714661344885826111e-02
2.090000000000000000e+03 6.873494720458984375e+01 1.370239925384521484e+01 -2.873795330524444580e-01 1.097314071655273438e+01 3.205728292465209961e+00 9.971035718917846680e-01
2.091000000000000000e+03 1.016184043884277344e+01 -4.952553272247314453e+00 -1.128292828798294067e-02 -3.413638565689325333e-03 -4.408970009535551071e-03 6.322123575955629349e-03
2.092000000000000000e+03 9.202598571777343750e+00 -3.800565004348754883e+00 1.041330164298415184e-03 -1.104481052607297897e-02 -3.001044271513819695e-03 1.295288559049367905e-03
2.093000000000000000e+03 3.973858642578125000e+01 1.675489234924316406e+01 -7.667891383171081543e-01 1.843817830085754395e-01 -1.747222095727920532e-01 1.439968198537826538e-01
2.094000000000000000e+03 3.874087142944335938e+01 1.649233055114746094e+01 -7.501389384269714355e-01 9.992314130067825317e-02 -1.950647383928298950e-01 1.323702186346054077e-01
2.095000000000000000e+03 1.164258289337158203e+01 -5.205595970153808594e+00 -1.642840355634689331e-02 -2.656378783285617828e-03 -5.725434981286525726e-03 3.740654326975345612e-03
2.096000000000000000e+03 8.180474281311035156e+00 -4.618428230285644531e+00 -9.055446833372116089e-03 -2.979652257636189461e-03 -3.610529704019427299e-03 6.560687907040119171e-03
2.097000000000000000e+03 6.434736251831054688e+00 -3.378892660140991211e+00 7.102312054485082626e-03 -2.414981368929147720e-03 1.406199298799037933e-03 8.030540309846401215e-03
2.098000000000000000e+03 5.763790893554687500e+01 1.586637496948242188e+01 -1.051546573638916016e+00 6.504579186439514160e-01 -1.203265935182571411e-01 3.338552266359329224e-02
2.099000000000000000e+03 5.716518783569335938e+01 1.518279933929443359e+01 -1.137743473052978516e+00 5.171871185302734375e-01 -1.861668974161148071e-01 1.430739015340805054e-01
2.100000000000000000e+03 4.190742492675781250e+00 5.485044002532958984e+00 -5.279579199850559235e-03 -9.989194804802536964e-04 -1.883549615740776062e-03 4.434545524418354034e-03
2.101000000000000000e+03 4.484323501586914062e+00 5.983322620391845703e+00 -9.477039799094200134e-03 -2.443505451083183289e-03 -3.576163435354828835e-03 7.865649648010730743e-03
2.102000000000000000e+03 5.687752914428710938e+01 1.728130722045898438e+01 -7.784215807914733887e-01 7.191841006278991699e-01 -1.777124591171741486e-02 -6.603201478719711304e-02
2.103000000000000000e+03 4.208722305297851562e+01 1.589918899536132812e+01 -9.097353816032409668e-01 2.295158505439758301e-01 -2.040658593177795410e-01 8.630881458520889282e-02
2.104000000000000000e+03 6.507732391357421875e+01 1.510733318328857422e+01 -8.631042242050170898e-01 5.151676654815673828e+00 1.286571741104125977e+00 -2.807981014251708984e+00
2.105000000000000000e+03 6.564132690429687500e+01 1.445341682434082031e+01 -4.907138943672180176e-01 6.737981796264648438e+00 1.874180436134338379e+00 -2.449061393737792969e+00
2.106000000000000000e+03 4.912982940673828125e+00 8.854210853576660156e+00 3.113278653472661972e-03 -1.104036159813404083e-02 -2.378124976530671120e-03 1.134676765650510788e-02
2.107000000000000000e+03 6.969695568084716797e+00 -4.432881832122802734e+00 -3.119017928838729858e-03 -1.605041208676993847e-03 -1.417217776179313660e-03 5.399359390139579773e-03
2.108000000000000000e+03 7.498915672302246094e+00 -4.571795463562011719e+00 -2.342243213206529617e-03 -7.726218551397323608e-03 -3.020538482815027237e-03 4.514955449849367142e-03
2.109000000000000000e+03 6.234819412231445312e+00 -5.158921241760253906e+00 -5.808069836348295212e-04 -2.739618299528956413e-03 -9.961276082322001457e-04 8.738377131521701813e-03
2.110000000000000000e+03 4.134054183959960938e+00 -6.825202465057373047e+00 -7.534536998718976974e-03 -3.056414658203721046e-03 -3.177285427227616310e-03 1.982836518436670303e-03
2.111000000000000000e+03 6.474295043945312500e+01 8.572385311126708984e-01 -1.081052541732788086e+00 4.461297512054443359e+00 1.014073371887207031e+00 3.839034557342529297e+00
2.112000000000000000e+03 3.051536560058593750e+00 -4.090969562530517578e+00 -2.067212713882327080e-03 4.101410973817110062e-03 6.102594197727739811e-04 6.994158495217561722e-03
2.113000000000000000e+03 3.948290824890136719e+00 -4.334945201873779297e+00 6.840121932327747345e-04 -3.516501164995133877e-04 9.970863175112754107e-05 8.080809377133846283e-03
2.114000000000000000e+03 5.228781127929687500e+01 6.651085853576660156e+00 -6.161931157112121582e-02 -3.422015905380249023e-02 -2.875184081494808197e-02 -1.161744352430105209e-02
2.115000000000000000e+03 5.528528594970703125e+01 -4.406701564788818359e+00 7.144095301628112793e-01 -2.856004051864147186e-02 2.057548463344573975e-01 -2.184984385967254639e-01
2.116000000000000000e+03 3.620905685424804688e+01 5.707323074340820312e+00 5.017523095011711121e-02 -5.025377869606018066e-02 -2.356447839702013880e-05 -1.021514907479286194e-01
2.117000000000000000e+03 3.132720565795898438e+01 -1.150927543640136719e+01 -1.144793406128883362e-01 4.997501075267791748e-01 1.155812293291091919e-01 -1.614678092300891876e-02
2.118000000000000000e+03 3.232478713989257812e+01 -1.573140525817871094e+01 -2.965203523635864258e-01 2.832880318164825439e-01 -3.969692159444093704e-03 2.144553232938051224e-03
2.119000000000000000e+03 6.418052673339843750e+01 -1.502554321289062500e+01 -1.400648951530456543e+00 2.902249813079833984e+00 4.504802525043487549e-01 -9.649386256933212280e-02
2.120000000000000000e+03 2.540749168395996094e+01 -8.172479867935180664e-01 -2.292663753032684326e-01 1.294631212949752808e-01 -2.994097396731376648e-02 -5.018213391304016113e-02
2.121000000000000000e+03 7.599064636230468750e+01 -6.526382923126220703e+00 2.997841238975524902e-01 8.480584144592285156e+00 2.634110689163208008e+00 1.232760787010192871e+00
2.122000000000000000e+03 1.241347026824951172e+01 -6.571780681610107422e+00 -4.155753552913665771e-02 -1.669066771864891052e-02 -1.747446134686470032e-02 -9.113761596381664276e-03
2.123000000000000000e+03 1.507821750640869141e+01 -7.363472938537597656e+00 -7.495312392711639404e-02 -1.377787906676530838e-02 -2.661930024623870850e-02 -2.527042524889111519e-03
2.124000000000000000e+03 6.628076934814453125e+01 2.752478420734405518e-01 -9.219680428504943848e-01 3.190918684005737305e+00 6.806852221488952637e-01 2.539741039276123047e+00
2.125000000000000000e+03 7.241374206542968750e+01 -2.860663890838623047e+00 -1.392270088195800781e+00 5.046848297119140625e+00 1.096373558044433594e+00 -1.964371204376220703e+00
2.126000000000000000e+03 6.505240631103515625e+01 1.657866668701171875e+01 -7.952342033386230469e-01 4.826436042785644531e+00 1.209360480308532715e+00 -2.270600080490112305e+00
2.127000000000000000e+03 6.338242721557617188e+01 1.829588508605957031e+01 -3.246656656265258789e-01 3.062304735183715820e+00 8.212916851043701172e-01 -1.708695769309997559e+00
2.128000000000000000e+03 1.296880817413330078e+01 1.460585403442382812e+01 -2.470231615006923676e-02 1.437816582620143890e-02 -3.097245236858725548e-03 1.168418303132057190e-02
2.129000000000000000e+03 1.123184394836425781e+01 1.445442962646484375e+01 -1.807097904384136200e-02 7.203802932053804398e-03 -3.260152880102396011e-03 1.042100787162780762e-02
2.130000000000000000e+03 5.940563583374023438e+01 1.727234268188476562e+01 -4.756467044353485107e-01 9.714620709419250488e-01 1.487446129322052002e-01 -4.131825566291809082e-01
2.131000000000000000e+03 5.935733795166015625e+01 1.562322711944580078e+01 -9.457312226295471191e-01 6.074851751327514648e-01 -1.014738231897354126e-01 -1.835233569145202637e-01
2.132000000000000000e+03 6.021986389160156250e+01 -1.341590881347656250e+01 -6.846458911895751953e-01 4.070538997650146484e+00 1.015767931938171387e+00 9.945600032806396484e-01
2.133000000000000000e+03 7.703833007812500000e+01 -2.466258049011230469e+00 -3.988416194915771484e-01 8.644895553588867188e+00 2.473816156387329102e+00 1.184685468673706055e+00
2.134000000000000000e+03 4.998118591308593750e+01 -1.010861992835998535e-01 -9.618631005287170410e-01 3.082506358623504639e-01 -1.960837393999099731e-01 -1.691113263368606567e-01
2.135000000000000000e+03 1.646282577514648438e+01 -6.740722179412841797e+00 -4.812366515398025513e-02 -1.217143703252077103e-02 -1.808853074908256531e-02 3.616836620494723320e-04
2.136000000000000000e+03 5.234618377685546875e+01 -2.600341439247131348e-01 -1.252442121505737305e+00 2.701372206211090088e-01 -2.946914732456207275e-01 -1.842570751905441284e-01
2.137000000000000000e+03 5.157538986206054688e+01 6.382608413696289062e-01 -1.128367066383361816e+00 2.145835310220718384e-01 -2.741350531578063965e-01 -5.406543612480163574e-02
2.138000000000000000e+03 1.812073326110839844e+01 -8.220273971557617188e+00 -1.331866234540939331e-01 -2.105160092469304800e-04 -4.001913964748382568e-02 -5.228517577052116394e-03
2.139000000000000000e+03 6.210126495361328125e+01 1.067169070243835449e+00 -1.543162941932678223e+00 3.822902441024780273e+00 6.839218139648437500e-01 2.244294643402099609e+00
2.140000000000000000e+03 5.539463996887207031e+00 1.207263755798339844e+01 6.015050690621137619e-03 -1.152660511434078217e-02 -1.653466257266700268e-03 5.025209393352270126e-03
2.141000000000000000e+03 3.936896800994873047e+00 1.142847919464111328e+01 4.211996681988239288e-03 -1.177700795233249664e-02 -2.269503427669405937e-03 5.270617082715034485e-03
2.142000000000000000e+03 2.934596252441406250e+01 1.442296952009201050e-01 -1.219250082969665527e+00 -3.842019736766815186e-01 -4.810356199741363525e-01 -1.975480765104293823e-01
2.143000000000000000e+03 6.143937301635742188e+01 -5.409664511680603027e-01 -2.840566158294677734e+00 5.025962352752685547e+00 6.556187868118286133e-01 1.944847464561462402e+00
2.144000000000000000e+03 3.945889711380004883e+00 8.431544303894042969e+00 9.658122435212135315e-04 -7.655231747776269913e-03 -2.006825990974903107e-03 8.291604928672313690e-03
2.145000000000000000e+03 7.390364074707031250e+01 -2.260255622863769531e+01 -3.412261307239532471e-01 6.434358119964599609e+00 1.827939629554748535e+00 9.115718007087707520e-01
2.146000000000000000e+03 7.540293884277343750e+01 -2.150339889526367188e+01 -4.689457714557647705e-01 7.397346973419189453e+00 2.078520298004150391e+00 5.172366499900817871e-01
2.147000000000000000e+03 3.671237564086914062e+01 1.806440544128417969e+01 -5.533121824264526367e-01 -4.324229434132575989e-02 -1.789663285017013550e-01 1.428446173667907715e-01
2.148000000000000000e+03 6.341964721679687500e+00 -1.030195426940917969e+01 -3.127769380807876587e-02 -1.573752984404563904e-02 -1.410456746816635132e-02 -2.027491480112075806e-02
2.149000000000000000e+03 5.295851135253906250e+01 1.649758720397949219e+01 -1.578378558158874512e+00 3.767932057380676270e-01 -3.604756295680999756e-01 7.506860047578811646e-02
2.150000000000000000e+03 5.855445480346679688e+01 -8.415387153625488281e+00 5.460221767425537109e-01 3.121321439743041992e+00 1.100203037261962891e+00 1.082292318344116211e+00
2.151000000000000000e+03 5.853772354125976562e+01 -6.452795505523681641e+00 1.180460333824157715e+00 2.801325082778930664e+00 1.194535613059997559e+00 9.319084286689758301e-01
2.152000000000000000e+03 3.796223449707031250e+01 -4.237839221954345703e+00 3.814215362071990967e-01 1.690670102834701538e-01 1.651465594768524170e-01 -5.364183187484741211e-01
2.153000000000000000e+03 7.243235015869140625e+01 1.395521831512451172e+01 1.370361924171447754e+00 6.414374351501464844e+00 2.335420846939086914e+00 1.133284211158752441e+00
2.154000000000000000e+03 5.007709503173828125e+01 4.652530193328857422e+00 -2.692231833934783936e-01 -1.795120351016521454e-02 -8.615231513977050781e-02 4.392623901367187500e-02
2.155000000000000000e+03 5.371920013427734375e+01 -2.215553760528564453e+00 -3.254903256893157959e-01 -3.320372700691223145e-01 -1.972582638263702393e-01 -5.773130655288696289e-01
2.156000000000000000e+03 4.298992633819580078e+00 2.192304611206054688e+01 -8.698683232069015503e-03 -3.777466341853141785e-02 -1.394200325012207031e-02 2.294652536511421204e-02
2.157000000000000000e+03 5.594289779663085938e+00 2.300163650512695312e+01 -1.365155354142189026e-02 -4.359935224056243896e-02 -1.717527210712432861e-02 3.514141589403152466e-02
2.158000000000000000e+03 5.291875839233398438e+00 3.231501770019531250e+01 5.840010941028594971e-03 -1.114966198801994324e-01 -3.169698268175125122e-02 4.275905713438987732e-02
2.159000000000000000e+03 6.440529632568359375e+01 1.990808606147766113e+00 6.992465257644653320e-01 4.239654064178466797e+00 1.481670260429382324e+00 3.450191259384155273e+00
2.160000000000000000e+03 7.569695281982421875e+01 1.671547317504882812e+01 1.256781816482543945e-01 6.557449817657470703e+00 2.004938364028930664e+00 5.713374614715576172e-01
2.161000000000000000e+03 2.789269638061523438e+01 -1.175063800811767578e+01 -1.927937716245651245e-01 -3.581587672233581543e-01 -1.652857512235641479e-01 1.697270572185516357e-01
2.162000000000000000e+03 5.984426498413085938e+01 -9.667037010192871094e+00 -9.458309412002563477e-02 4.332110881805419922e+00 1.271258234977722168e+00 1.196297049522399902e+00
2.163000000000000000e+03 5.930015182495117188e+01 -1.240120601654052734e+01 -6.695680022239685059e-01 4.072443008422851562e+00 1.020862579345703125e+00 1.158871650695800781e+00
2.164000000000000000e+03 7.304658508300781250e+01 1.322318458557128906e+01 2.100003242492675781e+00 5.840003490447998047e+00 2.382002115249633789e+00 5.376126170158386230e-01
2.165000000000000000e+03 4.420981597900390625e+01 -1.337856292724609375e+01 3.296697884798049927e-02 7.191666215658187866e-02 3.146509081125259399e-02 -3.087781667709350586e-01
2.166000000000000000e+03 7.579037475585937500e+01 -1.649988937377929688e+01 -5.525385737419128418e-01 8.822801589965820312e+00 2.481078863143920898e+00 -5.168117284774780273e-01
2.167000000000000000e+03 7.632250976562500000e+01 -3.539983367919921875e+01 3.856800496578216553e-02 6.528120040893554688e+00 1.970006465911865234e+00 2.013515681028366089e-01
2.168000000000000000e+03 7.524871063232421875e+01 -3.365382385253906250e+01 1.218417510390281677e-01 6.335536479949951172e+00 1.937213420867919922e+00 3.184893727302551270e-01
2.169000000000000000e+03 7.526508331298828125e+01 1.753490257263183594e+01 5.519016832113265991e-02 6.736187458038330078e+00 2.037413358688354492e+00 6.930442452430725098e-01
2.170000000000000000e+03 7.576730346679687500e+01 -1.755014038085937500e+01 -4.695085585117340088e-01 8.266347885131835938e+00 2.339051961898803711e+00 -3.242077529430389404e-01
2.171000000000000000e+03 4.177595615386962891e+00 -9.788619995117187500e+00 -1.542692631483078003e-02 -4.977114032953977585e-03 -6.121212150901556015e-03 -7.267860695719718933e-03
2.172000000000000000e+03 5.928323745727539062e+00 -8.070648193359375000e+00 -1.813226751983165741e-02 -1.099976059049367905e-02 -8.739608339965343475e-03 -6.106245797127485275e-03
2.173000000000000000e+03 7.183003234863281250e+01 -1.885783958435058594e+01 -1.290751576423645020e+00 5.229700088500976562e+00 1.181684613227844238e+00 2.151711702346801758e+00
2.174000000000000000e+03 5.701919937133789062e+01 -1.094275116920471191e+00 -8.071703314781188965e-01 -3.633552193641662598e-01 -3.511576652526855469e-01 -1.322714090347290039e-01
2.175000000000000000e+03 4.080437469482421875e+01 -7.599251747131347656e+00 5.251052975654602051e-01 -6.363372504711151123e-02 1.384414732456207275e-01 -3.323474228382110596e-01
2.176000000000000000e+03 5.563611602783203125e+01 1.643041229248046875e+01 -1.085821390151977539e+00 5.721668601036071777e-01 -1.540963351726531982e-01 9.240569919347763062e-02
2.177000000000000000e+03 6.089560699462890625e+01 -4.182835102081298828e+00 1.427187919616699219e+00 5.306053161621093750e+00 2.019972324371337891e+00 9.981035590171813965e-01
2.178000000000000000e+03 4.443809127807617188e+01 -1.795173835754394531e+01 -6.215121746063232422e-01 2.981076836585998535e-01 -9.702135622501373291e-02 -4.905105382204055786e-02
2.179000000000000000e+03 5.690865325927734375e+01 -2.464369392395019531e+01 -1.888960599899291992e-01 2.331125259399414062e+00 6.426687240600585938e-01 1.994203180074691772e-01
2.180000000000000000e+03 7.367916107177734375e+01 -2.408656120300292969e+01 2.589531429111957550e-02 6.076566696166992188e+00 1.830738544464111328e+00 8.761427998542785645e-01
2.181000000000000000e+03 2.300583457946777344e+01 -1.277551269531250000e+01 -3.876194953918457031e-01 -4.057547748088836670e-01 -2.380122840404510498e-01 -4.351976215839385986e-01
2.182000000000000000e+03 2.191055870056152344e+01 -1.376184272766113281e+01 -2.286901175975799561e-01 -3.394287228584289551e-01 -1.704356521368026733e-01 -3.356389701366424561e-01
2.183000000000000000e+03 6.080958843231201172e+00 1.019817066192626953e+01 1.207939162850379944e-02 -1.182495057582855225e-02 7.633248605998232961e-05 8.991702459752559662e-03
2.184000000000000000e+03 7.565974712371826172e+00 8.589559555053710938e+00 1.418137457221746445e-02 -1.020406279712915421e-02 1.193193485960364342e-03 8.929512463510036469e-03
2.185000000000000000e+03 6.426791191101074219e+00 -1.575491046905517578e+01 -3.856766596436500549e-02 -5.825928226113319397e-02 -2.904808335006237030e-02 -7.436516135931015015e-02
2.186000000000000000e+03 6.100990772247314453e+00 -1.244077777862548828e+01 -3.248805925250053406e-02 -2.557938173413276672e-02 -1.742023229598999023e-02 -3.731178492307662964e-02
2.187000000000000000e+03 5.970235061645507812e+01 -6.793794155120849609e+00 1.112063527107238770e+00 3.836268901824951172e+00 1.484499692916870117e+00 1.087029814720153809e+00
2.188000000000000000e+03 5.868264007568359375e+01 -9.538628578186035156e+00 7.365167140960693359e-02 3.622986316680908203e+00 1.108991384506225586e+00 1.316571950912475586e+00
2.189000000000000000e+03 7.325602722167968750e+01 -2.365418434143066406e+00 -5.716317892074584961e-01 4.417866706848144531e+00 1.153870463371276855e+00 -1.683337450027465820e+00
2.190000000000000000e+03 5.870017242431640625e+01 -4.198542594909667969e+00 1.080198526382446289e+00 2.364200592041015625e+00 1.033319711685180664e+00 5.424456000328063965e-01
2.191000000000000000e+03 7.423578643798828125e+01 2.063405799865722656e+01 -3.592683672904968262e-01 6.827834606170654297e+00 1.940569877624511719e+00 4.214306175708770752e-01
2.192000000000000000e+03 5.434179782867431641e+00 3.070329856872558594e+01 4.895616322755813599e-03 -1.018171757459640503e-01 -2.907646819949150085e-02 4.588123783469200134e-02
2.193000000000000000e+03 7.526416778564453125e+01 1.307378673553466797e+01 5.874319076538085938e-01 6.301289081573486328e+00 2.066616296768188477e+00 -4.731467962265014648e-01
2.194000000000000000e+03 3.232076263427734375e+01 -1.836360359191894531e+01 -3.224309086799621582e-01 1.864251494407653809e-01 -4.080173000693321228e-02 -1.083728969097137451e-01
2.195000000000000000e+03 4.140516281127929688e+00 -2.895258140563964844e+01 8.776064962148666382e-03 -2.409210503101348877e-01 -6.964349746704101562e-02 -7.385858893394470215e-02
2.196000000000000000e+03 7.539375305175781250e+01 -3.224934005737304688e+01 1.104165762662887573e-01 6.399737358093261719e+00 1.953046083450317383e+00 3.988125026226043701e-01
2.197000000000000000e+03 3.815486145019531250e+01 -2.133047485351562500e+01 -1.241964474320411682e-01 -9.679157286882400513e-02 -6.629640609025955200e-02 -3.115665912628173828e-01
2.198000000000000000e+03 5.271617507934570312e+01 1.512186169624328613e+00 -1.368964314460754395e+00 3.191677033901214600e-01 -3.149389624595642090e-01 1.677822917699813843e-01
2.199000000000000000e+03 5.798308944702148438e+01 -2.047157526016235352e+00 -2.372257411479949951e-01 9.900586605072021484e-01 2.258498668670654297e-01 3.521559238433837891e-01
2.200000000000000000e+03 6.057461929321289062e+01 -1.692924118041992188e+01 -4.777904450893402100e-01 3.605048894882202148e+00 9.381775259971618652e-01 7.958547025918960571e-02
2.201000000000000000e+03 6.166007995605468750e+01 -1.580315303802490234e+01 -8.090080022811889648e-01 3.614522218704223633e+00 8.416543006896972656e-01 9.591124951839447021e-02
2.202000000000000000e+03 1.574441719055175781e+01 1.861124992370605469e+01 -1.097087934613227844e-01 1.827085576951503754e-02 -2.743138186633586884e-02 5.769310519099235535e-02
2.203000000000000000e+03 1.597324180603027344e+01 2.037269973754882812e+01 -1.139717176556587219e-01 -2.098437165841460228e-03 -3.482104465365409851e-02 9.787238389253616333e-02
2.204000000000000000e+03 1.054608535766601562e+01 1.703415107727050781e+01 -3.362369909882545471e-02 -3.247857093811035156e-04 -1.018454506993293762e-02 2.334197424352169037e-02
2.205000000000000000e+03 5.779307937622070312e+01 -1.294657611846923828e+01 -5.831758379936218262e-01 3.579654693603515625e+00 8.989436626434326172e-01 1.003835678100585938e+00
2.206000000000000000e+03 7.604602336883544922e+00 -2.537284660339355469e+01 3.139904583804309368e-04 -1.797552555799484253e-01 -5.383237823843955994e-02 -1.287693679332733154e-01
2.207000000000000000e+03 3.537082672119140625e+00 2.613336181640625000e+01 -3.494103671982884407e-03 -6.654997169971466064e-02 -2.101322263479232788e-02 3.012917004525661469e-02
2.208000000000000000e+03 8.968309402465820312e+00 1.037321472167968750e+01 1.796850748360157013e-02 4.010744392871856689e-03 6.593775469809770584e-03 9.367794729769229889e-03
2.209000000000000000e+03 7.136868286132812500e+01 -2.013953781127929688e+01 -2.497919499874114990e-01 4.520466804504394531e+00 1.281202554702758789e+00 1.575377464294433594e+00
2.210000000000000000e+03 6.018344497680664062e+01 1.797758674621582031e+01 -2.629044950008392334e-01 1.167314767837524414e+00 2.713230848312377930e-01 -6.739067435264587402e-01
2.211000000000000000e+03 5.717116546630859375e+01 -2.301493453979492188e+01 -3.715075552463531494e-01 2.713648080825805664e+00 7.026421427726745605e-01 3.177068829536437988e-01
2.212000000000000000e+03 5.714121341705322266e+00 1.956730651855468750e+01 -1.442468073219060898e-02 -2.648277208209037781e-02 -1.227223593741655350e-02 2.140464819967746735e-02
2.213000000000000000e+03 4.497424602508544922e+00 1.796510314941406250e+01 -8.219446055591106415e-03 -2.169974334537982941e-02 -8.975756354629993439e-03 1.078930031508207321e-02
2.214000000000000000e+03 7.503663635253906250e+01 -2.442549705505371094e+01 -9.849879890680313110e-02 6.773836612701416016e+00 2.002601385116577148e+00 7.029005885124206543e-01
2.215000000000000000e+03 7.379152679443359375e+01 -2.870374298095703125e+01 1.958718746900558472e-01 5.953133583068847656e+00 1.844701647758483887e+00 5.910630822181701660e-01
2.216000000000000000e+03 4.642845153808593750e+00 1.408981323242187500e+01 -4.483677912503480911e-05 -1.410886738449335098e-02 -4.246111027896404266e-03 3.603575285524129868e-03
2.217000000000000000e+03 6.076569080352783203e+00 1.568305778503417969e+01 -6.024290341883897781e-03 -1.392954122275114059e-02 -5.986149422824382782e-03 5.889343097805976868e-03
2.218000000000000000e+03 7.385005187988281250e+01 -3.027503967285156250e+01 1.888123601675033569e-01 5.945250511169433594e+00 1.840218901634216309e+00 5.177048444747924805e-01
2.219000000000000000e+03 5.186245441436767578e+00 -1.114048194885253906e+01 -2.434453926980495453e-02 -1.568530499935150146e-02 -1.200895290821790695e-02 -2.150733582675457001e-02
2.220000000000000000e+03 5.941310882568359375e+01 -2.066373062133789062e+01 -6.109701395034790039e-01 3.263558387756347656e+00 7.957764863967895508e-01 -2.354620397090911865e-01
2.221000000000000000e+03 2.470459175109863281e+01 1.945182609558105469e+01 -2.520216405391693115e-01 -1.094722375273704529e-01 -1.084481626749038696e-01 1.486378461122512817e-01
2.222000000000000000e+03 4.861631393432617188e+01 -1.863369178771972656e+01 -7.277429699897766113e-01 5.957594513893127441e-01 -3.959505632519721985e-02 -1.025152057409286499e-01
2.223000000000000000e+03 1.787165641784667969e+01 -9.901153564453125000e+00 -2.746747136116027832e-01 2.894988656044006348e-02 -7.371744513511657715e-02 -7.799355685710906982e-02
2.224000000000000000e+03 7.451184844970703125e+01 -7.491334438323974609e+00 5.385560989379882812e-01 8.410417556762695312e+00 2.684692144393920898e+00 6.836715340614318848e-01
2.225000000000000000e+03 7.390016937255859375e+01 2.463946151733398438e+01 -2.938082516193389893e-01 6.586255550384521484e+00 1.887734174728393555e+00 9.412653744220733643e-02
2.226000000000000000e+03 5.427542209625244141e+00 -1.319414329528808594e+01 -3.184485062956809998e-02 -3.045804984867572784e-02 -1.869087107479572296e-02 -4.134804010391235352e-02
2.227000000000000000e+03 2.926490211486816406e+01 1.838382148742675781e+01 -4.012195169925689697e-01 3.306836821138858795e-03 -1.193738058209419250e-01 2.339069247245788574e-01
2.228000000000000000e+03 2.881587600708007812e+01 -1.137287235260009766e+01 -3.317583501338958740e-01 -1.526668965816497803e-01 -1.453275680541992188e-01 1.908391714096069336e-01
2.229000000000000000e+03 2.940381813049316406e+01 -1.067588138580322266e+01 -2.592906057834625244e-01 8.109614253044128418e-02 -5.345833674073219299e-02 2.786233276128768921e-02
2.230000000000000000e+03 4.172452926635742188e+00 3.536502838134765625e+01 8.460281416773796082e-03 -1.346360146999359131e-01 -3.785271942615509033e-02 2.751596271991729736e-02
2.231000000000000000e+03 7.567621612548828125e+01 -7.584778785705566406e+00 3.776470720767974854e-01 8.452734947204589844e+00 2.649114608764648438e+00 1.124406456947326660e+00
2.232000000000000000e+03 7.229119300842285156e+00 3.590109252929687500e+01 2.074499987065792084e-02 -1.288376003503799438e-01 -3.242778033018112183e-02 4.146797955036163330e-02
2.233000000000000000e+03 4.316904544830322266e+00 2.066314125061035156e+01 -9.107274934649467468e-03 -3.194724768400192261e-02 -1.231635734438896179e-02 1.965023204684257507e-02
2.234000000000000000e+03 7.377974987030029297e+00 -1.706059837341308594e+01 -3.354186564683914185e-02 -7.605767995119094849e-02 -3.287986293435096741e-02 -9.306316077709197998e-02
2.235000000000000000e+03 4.686993789672851562e+01 -1.811083221435546875e+01 -6.624366641044616699e-01 5.382640957832336426e-01 -3.725177794694900513e-02 -8.252422511577606201e-02
2.236000000000000000e+03 4.704714965820312500e+01 -1.639944648742675781e+01 -5.876394510269165039e-01 5.323339104652404785e-01 -1.659166254103183746e-02 -1.323144733905792236e-01
2.237000000000000000e+03 3.385068130493164062e+01 2.130186653137207031e+01 -3.112037181854248047e-01 -7.131123542785644531e-02 -1.147544831037521362e-01 2.877940535545349121e-01
2.238000000000000000e+03 3.159964179992675781e+01 1.877619171142578125e+01 -3.898668885231018066e-01 -3.381650522351264954e-02 -1.271050125360488892e-01 2.610945105552673340e-01
2.239000000000000000e+03 6.826070404052734375e+01 1.393924617767333984e+01 -6.511752009391784668e-01 1.091038417816162109e+01 3.077762603759765625e+00 3.092733956873416901e-02
2.240000000000000000e+03 6.617533111572265625e+01 1.496575927734375000e+01 -9.652521014213562012e-01 7.474984169006347656e+00 1.952919602394104004e+00 -2.285857439041137695e+00
2.241000000000000000e+03 6.658629608154296875e+01 1.277108764648437500e+01 1.133195042610168457e+00 9.780520439147949219e+00 3.274114847183227539e+00 -3.731895446777343750e+00
2.242000000000000000e+03 6.659714508056640625e+01 1.430206012725830078e+01 -6.705628037452697754e-01 8.666851043701171875e+00 2.398886680603027344e+00 -2.114317178726196289e+00
2.243000000000000000e+03 6.567005920410156250e+01 1.573193359375000000e+01 -8.535929918289184570e-01 6.079292297363281250e+00 1.567709803581237793e+00 -2.331481218338012695e+00
2.244000000000000000e+03 6.697273254394531250e+01 1.281954002380371094e+01 3.827973082661628723e-02 1.167758178710937500e+01 3.514758586883544922e+00 -2.959535837173461914e+00
2.245000000000000000e+03 6.697595214843750000e+01 1.332635879516601562e+01 -2.909420430660247803e-01 1.047629928588867188e+01 3.055607318878173828e+00 -2.380886554718017578e+00
2.246000000000000000e+03 6.087594509124755859e+00 -6.112286567687988281e+00 -8.231555111706256866e-03 -1.364090479910373688e-03 -2.878693630918860435e-03 7.261543534696102142e-03
2.247000000000000000e+03 8.838678359985351562e+00 -4.362174987792968750e+00 3.383949398994445801e-03 -6.616136990487575531e-03 -9.696562192402780056e-04 7.151781115680932999e-03
2.248000000000000000e+03 6.989804840087890625e+01 1.275887203216552734e+01 1.952765703201293945e+00 9.682583808898925781e+00 3.490604639053344727e+00 3.475825309753417969e+00
2.249000000000000000e+03 9.867440223693847656e+00 -6.774617195129394531e+00 -3.454592078924179077e-02 -6.492389366030693054e-03 -1.231149304658174515e-02 -1.547368476167321205e-03
2.250000000000000000e+03 1.172985172271728516e+01 -7.162619113922119141e+00 -3.551622852683067322e-02 -1.081169862300157547e-02 -1.389837823808193207e-02 -2.238090382888913155e-03
2.251000000000000000e+03 5.848706436157226562e+01 1.653354454040527344e+01 -7.060033082962036133e-01 7.076004147529602051e-01 4.791186656802892685e-04 -9.780932962894439697e-02
2.252000000000000000e+03 4.544253349304199219e+00 -4.677720069885253906e+00 -2.701742108911275864e-03 2.388011664152145386e-03 -9.411915380042046309e-05 1.034530811011791229e-02
2.253000000000000000e+03 4.086165904998779297e+00 -5.439071655273437500e+00 -2.308639697730541229e-03 -9.338937234133481979e-04 -9.727600263431668282e-04 4.938148893415927887e-03
2.254000000000000000e+03 3.794195175170898438e+01 1.787361145019531250e+01 -6.893128752708435059e-01 6.629665940999984741e-02 -1.869048625230789185e-01 1.878062337636947632e-01
2.255000000000000000e+03 1.297171306610107422e+01 -7.157799720764160156e+00 -4.460105672478675842e-02 -4.090278875082731247e-03 -1.460739970207214355e-02 9.687801939435303211e-04
2.256000000000000000e+03 5.970492362976074219e+00 -4.569219112396240234e+00 -5.400345660746097565e-03 -1.895621302537620068e-03 -2.188790123909711838e-03 5.391824059188365936e-03
2.257000000000000000e+03 5.999711036682128906e+00 7.878193855285644531e+00 3.084352472797036171e-03 -1.095005124807357788e-02 -2.359709469601511955e-03 1.766918599605560303e-02
2.258000000000000000e+03 6.805503845214843750e+00 8.798303604125976562e+00 1.477699726819992065e-02 -1.452912483364343643e-02 7.436194573529064655e-05 1.452948711812496185e-02
2.259000000000000000e+03 9.042275428771972656e+00 -5.701238155364990234e+00 -1.601410098373889923e-02 -4.337168764322996140e-03 -6.105381064116954803e-03 6.075259763747453690e-03
2.260000000000000000e+03 3.912706375122070312e+01 1.754265403747558594e+01 -7.658700346946716309e-01 1.350153237581253052e-01 -1.892564147710800171e-01 1.498835384845733643e-01
2.261000000000000000e+03 4.159311294555664062e+01 1.649921417236328125e+01 -9.540145993232727051e-01 2.313860505819320679e-01 -2.167885601520538330e-01 1.455441415309906006e-01
2.262000000000000000e+03 9.933478355407714844e+00 -5.822847366333007812e+00 -1.301925629377365112e-02 -1.691242866218090057e-02 -8.979505859315395355e-03 -3.725838847458362579e-03
2.263000000000000000e+03 6.836048889160156250e+01 1.481214618682861328e+01 -9.974891543388366699e-01 9.634721755981445312e+00 2.591169834136962891e+00 -1.053532734513282776e-01
2.264000000000000000e+03 6.771658325195312500e+01 1.391959476470947266e+01 -8.024373054504394531e-01 1.066850662231445312e+01 2.959820747375488281e+00 -8.710374832153320312e-01
2.265000000000000000e+03 7.009630203247070312e+00 -3.933912515640258789e+00 1.260467222891747952e-03 -4.565823357552289963e-03 -9.916068520396947861e-04 7.736868225038051605e-03
2.266000000000000000e+03 7.399285888671875000e+01 1.563961887359619141e+01 3.754963874816894531e-01 6.665742874145507812e+00 2.112371683120727539e+00 7.640264630317687988e-01
2.267000000000000000e+03 4.054919433593750000e+01 -6.548482418060302734e+00 5.103583931922912598e-01 -1.281118839979171753e-01 1.146739497780799866e-01 -3.000467419624328613e-01
2.268000000000000000e+03 2.957796478271484375e+01 -1.238773918151855469e+01 -2.001908123493194580e-01 5.858978629112243652e-02 -4.248030856251716614e-02 1.777577251195907593e-01
2.269000000000000000e+03 2.836085510253906250e+01 -1.415815925598144531e+01 -1.411578506231307983e-01 -1.767122894525527954e-01 -9.536103904247283936e-02 1.384924650192260742e-01
2.270000000000000000e+03 6.403787994384765625e+01 -1.677485084533691406e+01 -1.230707049369812012e+00 2.818149805068969727e+00 4.762328267097473145e-01 -4.617468118667602539e-01
2.271000000000000000e+03 6.556658172607421875e+01 -1.823189353942871094e+01 -8.148691058158874512e-01 2.305980443954467773e+00 4.473333656787872314e-01 -4.663391411304473877e-01
2.272000000000000000e+03 1.442452907562255859e+01 -8.625577926635742188e+00 -1.046268269419670105e-01 6.706675980240106583e-03 -2.937604486942291260e-02 -1.271057594567537308e-02
2.273000000000000000e+03 1.360298442840576172e+01 -6.262773990631103516e+00 -3.846858814358711243e-02 -1.895636878907680511e-02 -1.722748763859272003e-02 -6.681503262370824814e-03
2.274000000000000000e+03 7.396574401855468750e+01 -4.604156494140625000e+00 -5.973770618438720703e-01 6.505801677703857422e+00 1.772527337074279785e+00 4.560672864317893982e-02
2.275000000000000000e+03 7.482038879394531250e+01 -1.690004587173461914e+00 -7.206929326057434082e-01 4.821916580200195312e+00 1.230367064476013184e+00 2.812902927398681641e-01
2.276000000000000000e+03 6.427276611328125000e+00 -7.229801177978515625e+00 -1.638855785131454468e-02 -3.140488173812627792e-03 -5.858713760972023010e-03 5.128570366650819778e-03
2.277000000000000000e+03 5.333708190917968750e+01 1.746207427978515625e+01 -1.079694628715515137e+00 2.513786852359771729e-01 -2.484947741031646729e-01 1.453243643045425415e-01
2.278000000000000000e+03 5.182443237304687500e+01 1.800609588623046875e+01 -1.055489659309387207e+00 -8.065243065357208252e-02 -3.408426344394683838e-01 1.073000207543373108e-01
2.279000000000000000e+03 7.381193542480468750e+01 1.379508781433105469e+01 1.082599997520446777e+00 6.132166862487792969e+00 2.164430141448974609e+00 3.637092113494873047e-01
2.280000000000000000e+03 5.023407459259033203e+00 1.082291793823242188e+01 4.169804975390434265e-03 -1.300368458032608032e-02 -2.650164067745208740e-03 5.195965524762868881e-03
2.281000000000000000e+03 3.634299278259277344e+00 9.445191383361816406e+00 3.004417754709720612e-03 -1.066418271511793137e-02 -2.297929255291819572e-03 9.067198261618614197e-03
2.282000000000000000e+03 7.559613800048828125e+01 -1.874882698059082031e+01 -8.680422902107238770e-01 8.169872283935546875e+00 2.190548896789550781e+00 -3.861435875296592712e-02
2.283000000000000000e+03 8.148522377014160156e+00 1.114975166320800781e+01 8.094401098787784576e-03 -5.118296481668949127e-03 8.928313036449253559e-04 8.932775817811489105e-04
2.284000000000000000e+03 7.535384178161621094e+00 1.049227523803710938e+01 1.644947938621044159e-02 -6.096701137721538544e-03 3.105833427980542183e-03 9.270899929106235504e-03
2.285000000000000000e+03 1.430779457092285156e+01 -6.796733856201171875e+00 -4.454008862376213074e-02 1.040186034515500069e-03 -1.304997038096189499e-02 3.885275218635797501e-03
2.286000000000000000e+03 4.082944488525390625e+01 -3.576688528060913086e+00 -9.093818813562393188e-02 -4.884161651134490967e-01 -1.738063097000122070e-01 -3.049539960920810699e-02
2.287000000000000000e+03 5.861571884155273438e+01 -3.091206789016723633e+00 5.491651296615600586e-01 2.099791765213012695e+00 7.946870923042297363e-01 3.847969174385070801e-01
2.288000000000000000e+03 7.044399738311767578e+00 9.715662002563476562e+00 9.490397758781909943e-03 -1.015011966228485107e-02 -1.979164517251774669e-04 5.397636909037828445e-03
2.289000000000000000e+03 5.552314376831054688e+01 -2.706735134124755859e+00 2.257596999406814575e-01 -2.431167662143707275e-01 -5.207119043916463852e-03 -4.489691555500030518e-01
2.290000000000000000e+03 6.066375732421875000e+01 1.884037590026855469e+01 -1.450680494308471680e-01 1.611561894416809082e+00 4.399481415748596191e-01 -9.039465188980102539e-01
2.291000000000000000e+03 4.442162704467773438e+01 -1.957396888732910156e+01 -5.098587870597839355e-01 3.251310586929321289e-01 -5.541832372546195984e-02 -2.675035595893859863e-02
2.292000000000000000e+03 5.988242721557617188e+01 -2.101805657148361206e-01 -2.156428098678588867e+00 2.889012575149536133e+00 2.197754085063934326e-01 1.063978552818298340e+00
2.293000000000000000e+03 4.431452751159667969e+00 9.867739677429199219e+00 7.681022863835096359e-03 -1.094887312501668930e-02 -9.803550783544778824e-04 7.413568440824747086e-03
2.294000000000000000e+03 7.516119384765625000e+01 -4.997125625610351562e+00 -4.401094093918800354e-02 7.444332122802734375e+00 2.220096349716186523e+00 7.013098001480102539e-01
2.295000000000000000e+03 7.394970703125000000e+01 -3.390485048294067383e+00 -4.042464494705200195e-01 5.253153324127197266e+00 1.454672098159790039e+00 -3.393635749816894531e-01
2.296000000000000000e+03 6.278646850585937500e+01 -1.712839317321777344e+01 -8.287767767906188965e-01 3.244181871414184570e+00 7.246215343475341797e-01 -3.194753229618072510e-01
2.297000000000000000e+03 3.702360534667968750e+01 1.955613899230957031e+01 -5.077056884765625000e-01 -6.821197923272848129e-03 -1.543580740690231323e-01 2.560259103775024414e-01
2.298000000000000000e+03 3.453734588623046875e+01 1.879065704345703125e+01 -4.743934273719787598e-01 -1.028506085276603699e-01 -1.731732189655303955e-01 2.459200769662857056e-01
2.299000000000000000e+03 5.451803970336914062e+01 1.752962303161621094e+01 -1.033651590347290039e+00 4.982090890407562256e-01 -1.606327593326568604e-01 -3.315839683637022972e-03
2.300000000000000000e+03 5.456067276000976562e+01 1.637128067016601562e+01 -1.264224648475646973e+00 4.634702801704406738e-01 -2.402262985706329346e-01 2.327390909194946289e-01
2.301000000000000000e+03 1.997299957275390625e+01 -1.329040622711181641e+01 -2.731448411941528320e-01 -1.579820811748504639e-01 -1.293380707502365112e-01 -2.735275328159332275e-01
2.302000000000000000e+03 6.939838409423828125e+00 1.581629753112792969e+01 -1.194002665579319000e-02 -1.210189517587423325e-02 -7.212576456367969513e-03 1.008706539869308472e-02
2.303000000000000000e+03 7.112989044189453125e+01 1.241096115112304688e+01 3.437849998474121094e+00 6.078783035278320312e+00 2.854990005493164062e+00 2.514888286590576172e+00
2.304000000000000000e+03 6.345799255371093750e+01 -1.562113666534423828e+01 -1.384794473648071289e+00 3.280447959899902344e+00 5.686960220336914062e-01 -1.756185740232467651e-01
2.305000000000000000e+03 6.105568885803222656e+00 2.423186111450195312e+01 -1.265527214854955673e-02 -5.128899589180946350e-02 -1.918327994644641876e-02 4.377224296331405640e-02
2.306000000000000000e+03 4.612878417968750000e+01 -1.384331703186035156e+01 -9.358103573322296143e-02 6.048193573951721191e-01 1.533714979887008667e-01 -2.051898390054702759e-01
2.307000000000000000e+03 7.408956909179687500e+01 -2.118892860412597656e+01 -5.006266832351684570e-01 6.956780433654785156e+00 1.936846137046813965e+00 8.899102210998535156e-01
2.308000000000000000e+03 7.306689453125000000e+01 -1.945885848999023438e+01 -1.045721769332885742e+00 7.062120914459228516e+00 1.804919719696044922e+00 1.363309979438781738e+00
2.309000000000000000e+03 1.922018051147460938e+01 -1.208891868591308594e+01 -3.631686270236968994e-01 -3.941259905695915222e-02 -1.207743734121322632e-01 -2.193380147218704224e-01
2.310000000000000000e+03 6.163967514038085938e+01 -1.705464935302734375e+01 -8.484114408493041992e-01 3.370824575424194336e+00 7.567239403724670410e-01 -8.088310062885284424e-02
2.311000000000000000e+03 2.099663352966308594e+01 1.948043060302734375e+01 -2.219600826501846313e-01 -4.986537620425224304e-02 -8.154764026403427124e-02 1.726667284965515137e-01
2.312000000000000000e+03 2.044546508789062500e+01 2.094377899169921875e+01 -1.641099452972412109e-01 -5.105447769165039062e-02 -6.454932689666748047e-02 1.648002266883850098e-01
2.313000000000000000e+03 1.496206188201904297e+01 2.242030525207519531e+01 -8.279396593570709229e-02 -2.520322054624557495e-02 -3.239915519952774048e-02 1.131950020790100098e-01
2.314000000000000000e+03 6.854499816894531250e+01 -2.121075248718261719e+01 1.661212593317031860e-01 2.908926248550415039e+00 9.225142598152160645e-01 5.300012826919555664e-01
2.315000000000000000e+03 7.483856201171875000e+01 1.942310142517089844e+01 -1.779190301895141602e-01 6.907886028289794922e+00 2.018990039825439453e+00 6.371338963508605957e-01
2.316000000000000000e+03 7.586508941650390625e+01 1.972263717651367188e+01 -1.726781278848648071e-01 6.786694526672363281e+00 1.984204888343811035e+00 5.252259373664855957e-01
2.317000000000000000e+03 4.829515933990478516e+00 -6.085649490356445312e+00 -5.100002977997064590e-03 1.668941229581832886e-03 -1.029318547807633877e-03 9.443745017051696777e-03
2.318000000000000000e+03 6.662157535552978516e+00 2.733194732666015625e+01 -6.733251735568046570e-03 -7.402581721544265747e-02 -2.422772161662578583e-02 5.925726890563964844e-02
2.319000000000000000e+03 7.331967163085937500e+01 -2.557132720947265625e+01 8.147759735584259033e-02 5.825968742370605469e+00 1.772233843803405762e+00 7.537213563919067383e-01
2.320000000000000000e+03 7.091574859619140625e+01 -2.825772094726562500e+01 3.507879376411437988e-01 4.920032978057861328e+00 1.581246376037597656e+00 6.021103858947753906e-01
2.321000000000000000e+03 7.516297149658203125e+01 1.850123596191406250e+01 -8.447860181331634521e-02 6.777442455291748047e+00 2.007889270782470703e+00 5.908798575401306152e-01
2.322000000000000000e+03 6.151821899414062500e+01 -2.130542945861816406e+01 -3.920390903949737549e-01 3.099591016769409180e+00 8.122655749320983887e-01 -3.883683383464813232e-01
2.323000000000000000e+03 2.570224952697753906e+01 2.223220634460449219e+01 -1.693561673164367676e-01 -9.992381185293197632e-02 -8.078399300575256348e-02 2.064402550458908081e-01
2.324000000000000000e+03 5.874660873413085938e+01 -2.490711593627929688e+01 -1.371960639953613281e-01 2.704543113708496094e+00 7.702041268348693848e-01 7.314660400152206421e-02
2.325000000000000000e+03 7.735960483551025391e+00 -2.967784500122070312e+01 2.168629318475723267e-02 -2.252999097108840942e-01 -6.108408421277999878e-02 -1.178338378667831421e-01
2.326000000000000000e+03 3.914265441894531250e+01 -2.286002159118652344e+01 -9.280308336019515991e-02 -4.487499222159385681e-02 -4.130342230200767517e-02 -3.430666029453277588e-01
2.327000000000000000e+03 3.035942649841308594e+01 2.013189125061035156e+01 -3.196134567260742188e-01 -3.358735516667366028e-02 -1.059602424502372742e-01 2.585622072219848633e-01
2.328000000000000000e+03 6.259267807006835938e+00 -1.134075736999511719e+01 -2.983607724308967590e-02 -2.401723340153694153e-02 -1.615599356591701508e-02 -2.806329727172851562e-02
2.329000000000000000e+03 6.504048347473144531e+00 -9.342720031738281250e+00 -2.647843770682811737e-02 -1.565938442945480347e-02 -1.264134701341390610e-02 -1.403804589062929153e-02
2.330000000000000000e+03 5.868069076538085938e+01 -5.335519313812255859e+00 1.211415886878967285e+00 2.538864374160766602e+00 1.125084042549133301e+00 7.474153041839599609e-01
2.331000000000000000e+03 7.402212524414062500e+01 -3.369046401977539062e+01 1.779094189405441284e-01 5.951455116271972656e+00 1.838809370994567871e+00 3.629447221755981445e-01
2.332000000000000000e+03 7.045851898193359375e+01 -3.486435699462890625e+01 3.100596070289611816e-01 4.964271545410156250e+00 1.582299470901489258e+00 3.276785612106323242e-01
2.333000000000000000e+03 3.373950481414794922e+00 3.348510742187500000e+01 4.552445374429225922e-03 -1.245930120348930359e-01 -3.601216897368431091e-02 2.781237661838531494e-02
2.334000000000000000e+03 7.219998359680175781e+00 3.275550842285156250e+01 1.472832635045051575e-02 -1.142837330698966980e-01 -2.986662276089191437e-02 5.345173552632331848e-02
2.335000000000000000e+03 9.674576759338378906e+00 3.559817504882812500e+01 3.471584990620613098e-02 -1.307027041912078857e-01 -2.879605442285537720e-02 5.325191095471382141e-02
2.336000000000000000e+03 5.443842697143554688e+01 -2.579733276367187500e+01 9.518028050661087036e-02 1.620121121406555176e+00 5.145904421806335449e-01 2.990271747112274170e-01
2.337000000000000000e+03 1.649645233154296875e+01 -9.265776634216308594e+00 -1.885262429714202881e-01 2.792482823133468628e-02 -4.818042367696762085e-02 -3.112803399562835693e-02
2.338000000000000000e+03 1.850101089477539062e+01 -1.097562599182128906e+01 -2.904011607170104980e-01 -1.121490262448787689e-02 -9.048481285572052002e-02 -1.107914373278617859e-01
2.339000000000000000e+03 9.162757873535156250e+00 -2.411625671386718750e+01 6.064626853913068771e-03 -1.714166849851608276e-01 -4.960561916232109070e-02 -1.436344087123870850e-01
2.340000000000000000e+03 5.446238327026367188e+01 -1.356320023536682129e+00 -7.807068824768066406e-01 -5.277656912803649902e-01 -3.925417661666870117e-01 -8.645372986793518066e-01
2.341000000000000000e+03 7.346198272705078125e+01 1.859457015991210938e+01 -3.099647462368011475e-01 7.027795314788818359e+00 2.015349149703979492e+00 6.486420035362243652e-01
2.342000000000000000e+03 7.350755310058593750e+01 1.708856010437011719e+01 1.031685322523117065e-01 6.923059463500976562e+00 2.107868432998657227e+00 8.472914099693298340e-01
2.343000000000000000e+03 5.113963317871093750e+01 1.927131843566894531e+01 -7.951748371124267578e-01 -8.166184276342391968e-02 -2.630510032176971436e-01 1.280659926123917103e-03
2.344000000000000000e+03 4.457316970825195312e+01 -2.125446128845214844e+01 -3.000833094120025635e-01 2.359988689422607422e-01 -1.922533661127090454e-02 -4.191769659519195557e-02
2.345000000000000000e+03 7.441599273681640625e+01 -1.860522270202636719e+01 -8.275648355484008789e-01 8.123533248901367188e+00 2.188790559768676758e+00 6.615562438964843750e-01
2.346000000000000000e+03 6.707552337646484375e+01 1.464003372192382812e+01 -1.121940255165100098e+00 9.034976959228515625e+00 2.373910903930664062e+00 -1.494923591613769531e+00
2.347000000000000000e+03 6.675559234619140625e+01 1.535748195648193359e+01 -1.033141732215881348e+00 8.010866165161132812e+00 2.093317508697509766e+00 -1.710941791534423828e+00
2.348000000000000000e+03 6.635004425048828125e+01 1.619495964050292969e+01 -1.152134180068969727e+00 6.873386383056640625e+00 1.716375589370727539e+00 -1.873023509979248047e+00
2.349000000000000000e+03 1.072758197784423828e+01 -5.864720344543457031e+00 -2.593817748129367828e-02 -3.976336680352687836e-03 -8.974353782832622528e-03 2.343360800296068192e-03
2.350000000000000000e+03 1.218687820434570312e+01 -7.905301094055175781e+00 -6.817971169948577881e-02 -1.140684634447097778e-02 -2.387596853077411652e-02 -1.483277976512908936e-02
2.351000000000000000e+03 1.000887584686279297e+01 -7.784860610961914062e+00 -3.376629576086997986e-02 -1.486239861696958542e-02 -1.458860840648412704e-02 -9.222163818776607513e-03
2.352000000000000000e+03 1.362809753417968750e+01 -7.842010974884033203e+00 -7.754486054182052612e-02 -1.396216638386249542e-02 -2.745210751891136169e-02 -1.402343902736902237e-02
2.353000000000000000e+03 5.869695663452148438e+01 1.818970680236816406e+01 -3.811710476875305176e-01 1.007078528404235840e+00 1.877722442150115967e-01 -3.316158652305603027e-01
2.354000000000000000e+03 5.574780273437500000e+01 1.750032234191894531e+01 -8.694376349449157715e-01 5.795447230339050293e-01 -8.696786314249038696e-02 4.340427368879318237e-02
2.355000000000000000e+03 3.981936264038085938e+01 1.881901741027832031e+01 -7.011668682098388672e-01 1.246823146939277649e-01 -1.729453504085540771e-01 2.844400405883789062e-01
2.356000000000000000e+03 1.071121692657470703e+01 -6.689727783203125000e+00 -2.316830866038799286e-02 -1.611495018005371094e-02 -1.178497727960348129e-02 -3.499158192425966263e-03
2.357000000000000000e+03 5.560255050659179688e+00 -6.753015041351318359e+00 -1.079821586608886719e-02 -7.544741034507751465e-03 -5.502887070178985596e-03 3.501985629554837942e-04
2.358000000000000000e+03 6.691079616546630859e+00 -5.724132061004638672e+00 -1.492319907993078232e-02 -4.731111228466033936e-03 -5.896293092519044876e-03 3.521624486893415451e-03
2.359000000000000000e+03 3.836198425292968750e+01 1.926868057250976562e+01 -5.419564843177795410e-01 3.453170135617256165e-02 -1.522274315357208252e-01 2.290175855159759521e-01
2.360000000000000000e+03 6.520777130126953125e+01 1.838628959655761719e+01 -7.456443309783935547e-01 4.857594490051269531e+00 1.233585119247436523e+00 -1.757493019104003906e+00
2.361000000000000000e+03 6.428969573974609375e+01 1.745578956604003906e+01 -4.543505012989044189e-01 3.833584547042846680e+00 1.013770222663879395e+00 -2.068583965301513672e+00
2.362000000000000000e+03 7.310832977294921875e+01 1.490915203094482422e+01 9.147928953170776367e-01 6.697897911071777344e+00 2.283807277679443359e+00 9.516603946685791016e-01
2.363000000000000000e+03 6.767768859863281250e+01 1.481719970703125000e+01 -9.969545006752014160e-01 9.269032478332519531e+00 2.481623411178588867e+00 -8.666579723358154297e-01
2.364000000000000000e+03 7.389525413513183594e+00 -7.641075134277343750e+00 -2.623720467090606689e-02 -1.293606590479612350e-02 -1.175198145210742950e-02 -9.064164943993091583e-03
2.365000000000000000e+03 1.142144012451171875e+01 -6.518735408782958984e+00 -3.989274799823760986e-02 -9.449111297726631165e-03 -1.480255741626024246e-02 -5.415402352809906006e-03
2.366000000000000000e+03 7.634891510009765625e+00 -1.500238895416259766e+01 -4.086408764123916626e-02 -5.465679988265037537e-02 -2.865626662969589233e-02 -7.695862650871276855e-02
2.367000000000000000e+03 7.217950344085693359e+00 -1.271611022949218750e+01 -3.851129859685897827e-02 -3.655985370278358459e-02 -2.252134494483470917e-02 -4.757350683212280273e-02
2.368000000000000000e+03 6.971774291992187500e+01 1.420846652984619141e+01 9.271216578781604767e-03 9.532303810119628906e+00 2.862472295761108398e+00 1.760418057441711426e+00
2.369000000000000000e+03 6.737589263916015625e+01 1.563967323303222656e+01 -1.203981995582580566e+00 8.359138488769531250e+00 2.146546840667724609e+00 -1.164939522743225098e+00
2.370000000000000000e+03 7.170134735107421875e+01 1.455738925933837891e+01 1.178078293800354004e+00 7.140453815460205078e+00 2.495559692382812500e+00 1.516454577445983887e+00
2.371000000000000000e+03 6.382677078247070312e+01 -1.972915458679199219e+01 -3.872657120227813721e-01 2.774687051773071289e+00 7.162263989448547363e-01 -4.576815366744995117e-01
2.372000000000000000e+03 6.485234069824218750e+01 -1.909536361694335938e+01 -5.410029292106628418e-01 2.605002880096435547e+00 6.191999316215515137e-01 -5.524675250053405762e-01
2.373000000000000000e+03 2.971189498901367188e+01 -1.600026130676269531e+01 -2.080369591712951660e-01 2.496022358536720276e-02 -5.492302030324935913e-02 7.005038857460021973e-02
2.374000000000000000e+03 5.701169586181640625e+01 -4.641504287719726562e+00 9.671975374221801758e-01 8.983621597290039062e-01 5.596678853034973145e-01 1.700994521379470825e-01
2.375000000000000000e+03 6.315140533447265625e+01 -1.847917366027832031e+01 -7.638568878173828125e-01 3.014096736907958984e+00 6.750719547271728516e-01 -5.286778807640075684e-01
2.376000000000000000e+03 2.724858093261718750e+01 -1.524449157714843750e+01 -1.278972029685974121e-01 -2.712556719779968262e-01 -1.197458654642105103e-01 1.702367700636386871e-02
2.377000000000000000e+03 1.961498641967773438e+01 2.238532066345214844e+01 -1.247223615646362305e-01 -5.544741824269294739e-02 -5.405093356966972351e-02 1.740263998508453369e-01
2.378000000000000000e+03 1.867360687255859375e+01 2.119779968261718750e+01 -1.345797032117843628e-01 -3.003282286226749420e-02 -4.938375577330589294e-02 1.417671293020248413e-01
2.379000000000000000e+03 7.053569030761718750e+01 -2.122544097900390625e+01 -1.508225351572036743e-01 4.157492160797119141e+00 1.202000975608825684e+00 1.127386093139648438e+00
2.380000000000000000e+03 5.446630477905273438e+01 2.047904777526855469e+01 -3.726859390735626221e-01 6.166691780090332031e-01 7.319497317075729370e-02 -1.856485307216644287e-01
2.381000000000000000e+03 7.331673145294189453e+00 2.349585914611816406e+01 -2.079306170344352722e-02 -4.387109354138374329e-02 -1.939924620091915131e-02 4.840611666440963745e-02
2.382000000000000000e+03 6.520365715026855469e+00 2.239749336242675781e+01 -1.655741967260837555e-02 -3.887220844626426697e-02 -1.662888936698436737e-02 3.804272785782814026e-02
2.383000000000000000e+03 1.544124031066894531e+01 -9.161908149719238281e+00 -1.422655433416366577e-01 -8.271483704447746277e-03 -4.516110569238662720e-02 -2.865686826407909393e-02
2.384000000000000000e+03 1.590890502929687500e+01 -7.864156246185302734e+00 -9.207311272621154785e-02 1.295072399079799652e-02 -2.373671717941761017e-02 6.089948117733001709e-03
2.385000000000000000e+03 2.393051719665527344e+01 -1.404963779449462891e+01 -7.339871674776077271e-02 -5.944225788116455078e-01 -2.003463953733444214e-01 -2.384113222360610962e-01
2.386000000000000000e+03 1.721188545227050781e+01 -1.349807071685791016e+01 -2.441477924585342407e-01 -5.127566680312156677e-02 -8.862703293561935425e-02 -1.940334290266036987e-01
2.387000000000000000e+03 1.956063270568847656e+01 -1.532834815979003906e+01 -1.767273098230361938e-01 -1.940392404794692993e-01 -1.112299636006355286e-01 -2.759905457496643066e-01
2.388000000000000000e+03 1.538443660736083984e+01 -1.064924144744873047e+01 -1.838311254978179932e-01 8.441078476607799530e-03 -5.261701345443725586e-02 -6.950260698795318604e-02
2.389000000000000000e+03 8.743806838989257812e+00 1.427138996124267578e+01 -4.605612717568874359e-03 -3.424112917855381966e-03 -2.408917760476469994e-03 7.189426571130752563e-03
2.390000000000000000e+03 4.626319885253906250e+01 -2.133891296386718750e+01 -3.387149572372436523e-01 4.768190383911132812e-01 4.143122956156730652e-02 -7.477051019668579102e-02
2.391000000000000000e+03 4.790979766845703125e+01 -2.091369056701660156e+01 -3.612926006317138672e-01 5.231997370719909668e-01 4.857214912772178650e-02 -8.714536577463150024e-02
2.392000000000000000e+03 5.602105712890625000e+01 1.874808502197265625e+01 -6.150172352790832520e-01 7.406443953514099121e-01 3.768816217780113220e-02 -1.658771932125091553e-01
2.393000000000000000e+03 6.509645843505859375e+01 2.050672721862792969e+01 -5.332948565483093262e-01 4.449592113494873047e+00 1.174889206886291504e+00 -1.381140828132629395e+00
2.394000000000000000e+03 6.235146713256835938e+01 1.905636787414550781e+01 -1.327486485242843628e-01 2.466246843338012695e+00 7.000494599342346191e-01 -1.385238528251647949e+00
2.395000000000000000e+03 2.401248931884765625e+01 2.116227912902832031e+01 -1.999605745077133179e-01 -1.035756692290306091e-01 -9.106087684631347656e-02 1.873960196971893311e-01
2.396000000000000000e+03 3.059516525268554688e+01 2.153003501892089844e+01 -2.687796056270599365e-01 -6.550433486700057983e-02 -1.002851799130439758e-01 2.681553661823272705e-01
2.397000000000000000e+03 3.048151397705078125e+01 1.887736511230468750e+01 -3.880586028099060059e-01 -2.266612462699413300e-02 -1.232174187898635864e-01 2.411460280418395996e-01
2.398000000000000000e+03 3.390997695922851562e+01 2.320126342773437500e+01 -1.850760877132415771e-01 -8.103173971176147461e-02 -7.983235269784927368e-02 3.122337758541107178e-01
2.399000000000000000e+03 5.324669837951660156e+00 -3.050291252136230469e+01 1.208074949681758881e-02 -2.458256185054779053e-01 -7.012345641851425171e-02 -8.827283978462219238e-02
2.400000000000000000e+03 7.122788238525390625e+01 1.606775283813476562e+01 -5.014714226126670837e-02 7.743941307067871094e+00 2.308138132095336914e+00 1.075851917266845703e+00
2.401000000000000000e+03 3.436064910888671875e+01 -2.179803085327148438e+01 -2.185421884059906006e-01 1.186524406075477600e-01 -2.996692433953285217e-02 -2.786921858787536621e-01
2.402000000000000000e+03 3.228149795532226562e+01 -2.005101013183593750e+01 -2.511225938796997070e-01 1.330848485231399536e-01 -3.541132062673568726e-02 -1.522968113422393799e-01
2.403000000000000000e+03 6.980510711669921875e+00 2.122124481201171875e+01 -2.073394507169723511e-02 -3.270430490374565125e-02 -1.603147387504577637e-02 3.587649390101432800e-02
2.404000000000000000e+03 4.794779205322265625e+01 -2.384117126464843750e+01 -3.881635516881942749e-02 5.324593186378479004e-01 1.480928808450698853e-01 -4.074192792177200317e-02
2.405000000000000000e+03 6.116900253295898438e+01 1.982438659667968750e+01 -9.773278236389160156e-02 1.975819587707519531e+00 5.634260177612304688e-01 -9.980444312095642090e-01
2.406000000000000000e+03 5.999998474121093750e+01 2.102167510986328125e+01 -5.381911993026733398e-02 1.843428850173950195e+00 5.368829369544982910e-01 -7.960006594657897949e-01
2.407000000000000000e+03 1.735190200805664062e+01 -1.168444156646728516e+01 -2.753633856773376465e-01 -3.818245371803641319e-03 -8.375448733568191528e-02 -1.384226381778717041e-01
2.408000000000000000e+03 7.665460968017578125e+01 2.494933509826660156e+01 -8.645690232515335083e-02 6.940415382385253906e+00 2.056187629699707031e+00 1.365420967340469360e-01
2.409000000000000000e+03 7.348495483398437500e+00 -1.149698925018310547e+01 -4.511374235153198242e-02 -2.309110015630722046e-02 -2.046145312488079071e-02 -3.761779889464378357e-02
2.410000000000000000e+03 1.317523002624511719e+01 2.100445938110351562e+01 -7.053183764219284058e-02 -1.257027871906757355e-02 -2.493063546717166901e-02 7.617345452308654785e-02
2.411000000000000000e+03 7.218748474121093750e+01 -3.030041885375976562e+01 2.771755456924438477e-01 5.402451515197753906e+00 1.703888058662414551e+00 5.211790800094604492e-01
2.412000000000000000e+03 8.031371116638183594e+00 2.707173919677734375e+01 -1.131137553602457047e-02 -6.993018090724945068e-02 -2.437246590852737427e-02 6.582830846309661865e-02
2.413000000000000000e+03 3.574857330322265625e+01 -2.523070335388183594e+01 4.844003915786743164e-02 1.802374795079231262e-02 1.993913576006889343e-02 -2.861133813858032227e-01
2.414000000000000000e+03 7.802728176116943359e+00 -6.639341354370117188e+00 -2.014675922691822052e-02 -4.676123149693012238e-03 -7.446864619851112366e-03 3.557996125891804695e-03
2.415000000000000000e+03 9.046455383300781250e+00 -7.930708408355712891e+00 -4.176907241344451904e-02 -9.815109893679618835e-03 -1.547525450587272644e-02 -7.697280496358871460e-03
2.416000000000000000e+03 6.873674011230468750e+01 1.686727523803710938e+01 -1.077811717987060547e+00 7.907549858093261719e+00 2.048921346664428711e+00 -2.207669764757156372e-01
2.417000000000000000e+03 7.256228446960449219e+00 -5.259912490844726562e+00 -5.813619121909141541e-03 -2.350128488615155220e-03 -2.449124353006482124e-03 8.019523695111274719e-03
2.418000000000000000e+03 6.693464660644531250e+01 1.745129776000976562e+01 -1.098486423492431641e+00 6.601395130157470703e+00 1.650872707366943359e+00 -1.348860859870910645e+00
2.419000000000000000e+03 7.009542846679687500e+01 1.518367385864257812e+01 -1.181557402014732361e-01 8.665906906127929688e+00 2.564325571060180664e+00 1.238355159759521484e+00
2.420000000000000000e+03 1.090773963928222656e+01 -7.553115367889404297e+00 -5.182044580578804016e-02 -9.985347278416156769e-03 -1.854173652827739716e-02 -9.528584778308868408e-03
2.421000000000000000e+03 6.848677635192871094e+00 -8.476086616516113281e+00 -2.477150969207286835e-02 -8.617524057626724243e-03 -1.001671049743890762e-02 -4.801603499799966812e-03
2.422000000000000000e+03 4.222442245483398438e+01 1.718197822570800781e+01 -8.905119299888610840e-01 1.942785084247589111e-01 -2.088700234889984131e-01 2.968366444110870361e-01
2.423000000000000000e+03 4.132478713989257812e+01 1.810621261596679688e+01 -8.350583314895629883e-01 1.564217358827590942e-01 -2.035909742116928101e-01 2.441342771053314209e-01
2.424000000000000000e+03 8.215394973754882812e+00 1.529512214660644531e+01 -1.498470734804868698e-02 -6.655358243733644485e-03 -6.492019630968570709e-03 9.262208826839923859e-03
2.425000000000000000e+03 6.592253875732421875e+01 1.725886535644531250e+01 -9.052307605743408203e-01 5.800725460052490234e+00 1.468648314476013184e+00 -1.876120090484619141e+00
2.426000000000000000e+03 7.154203414916992188e+00 -1.396787929534912109e+01 -4.716219753026962280e-02 -4.002426192164421082e-02 -2.615593746304512024e-02 -6.107509508728981018e-02
2.427000000000000000e+03 1.126956844329833984e+01 -8.484775543212890625e+00 -5.522740632295608521e-02 -1.226150430738925934e-02 -2.024667337536811829e-02 -1.461683213710784912e-02
2.428000000000000000e+03 1.276952457427978516e+01 -8.739617347717285156e+00 -7.517397403717041016e-02 -5.745911505073308945e-03 -2.427596598863601685e-02 -1.375668868422508240e-02
2.429000000000000000e+03 1.539972496032714844e+01 -1.200408077239990234e+01 -1.984603852033615112e-01 -2.270305156707763672e-02 -6.634902954101562500e-02 -1.176950335502624512e-01
2.430000000000000000e+03 6.213508224487304688e+01 2.259445762634277344e+01 -4.509385302662849426e-02 2.927141666412353516e+00 8.646143674850463867e-01 -1.048695564270019531e+00
2.431000000000000000e+03 9.291148185729980469e+00 1.317412853240966797e+01 -3.296818584203720093e-03 -8.532828651368618011e-04 -1.245030434802174568e-03 5.748668685555458069e-03
2.432000000000000000e+03 6.658171844482421875e+01 -2.114325523376464844e+01 4.862251505255699158e-02 2.621211051940917969e+00 8.009500503540039062e-01 -1.201006919145584106e-01
2.433000000000000000e+03 5.262685394287109375e+01 2.179490089416503906e+01 -2.360679656267166138e-01 2.903123199939727783e-01 1.627331227064132690e-02 -9.050535410642623901e-02
2.434000000000000000e+03 9.635850906372070312e+00 3.285032653808593750e+01 2.353905700147151947e-02 -1.154984161257743835e-01 -2.758780680596828461e-02 6.942364573478698730e-02
2.435000000000000000e+03 9.307732582092285156e+00 3.046994781494140625e+01 1.025893632322549820e-02 -9.947428852319717407e-02 -2.676460519433021545e-02 7.568853348493576050e-02
2.436000000000000000e+03 5.143663883209228516e+00 -1.220272922515869141e+01 -1.786397211253643036e-02 -2.434180118143558502e-02 -1.266173180192708969e-02 -2.710144780576229095e-02
2.437000000000000000e+03 6.089166259765625000e+01 2.297342681884765625e+01 2.131154946982860565e-02 2.389346361160278320e+00 7.231974005699157715e-01 -8.988710641860961914e-01
2.438000000000000000e+03 7.435128784179687500e+01 1.854896163940429688e+01 -1.107443273067474365e-01 6.857907772064208984e+00 2.024148941040039062e+00 6.922013163566589355e-01
2.439000000000000000e+03 3.812994384765625000e+01 -2.432949066162109375e+01 -5.071850493550300598e-03 -7.311553345061838627e-04 -1.740901847369968891e-03 -2.818563878536224365e-01
2.440000000000000000e+03 1.572792148590087891e+01 -1.351061058044433594e+01 -1.969665139913558960e-01 -4.280498251318931580e-02 -7.193144410848617554e-02 -1.569996774196624756e-01
2.441000000000000000e+03 1.640655326843261719e+01 -1.255512046813964844e+01 -2.071182131767272949e-01 -2.743870392441749573e-02 -7.036707550287246704e-02 -1.335912793874740601e-01
2.442000000000000000e+03 5.714294433593750000e+01 1.821652030944824219e+01 -5.390350818634033203e-01 8.113366365432739258e-01 8.169046789407730103e-02 -1.732398122549057007e-01
2.443000000000000000e+03 2.818214988708496094e+01 -1.666147804260253906e+01 -1.304580122232437134e-01 -1.237891763448715210e-01 -7.627415657043457031e-02 2.768444083631038666e-02
2.444000000000000000e+03 3.378820419311523438e+01 1.729374122619628906e+01 -4.796916842460632324e-01 -1.110486239194869995e-01 -1.772220879793167114e-01 2.244867831468582153e-01
2.445000000000000000e+03 3.339567184448242188e+01 1.956303977966308594e+01 -3.687721788883209229e-01 -7.317554205656051636e-02 -1.325843185186386108e-01 2.716775834560394287e-01
2.446000000000000000e+03 2.217727851867675781e+01 2.411371231079101562e+01 -8.856446295976638794e-02 -1.003179550170898438e-01 -5.666472762823104858e-02 2.037364095449447632e-01
2.447000000000000000e+03 2.175068855285644531e+01 2.175811195373535156e+01 -1.608412712812423706e-01 -7.697293162345886230e-02 -7.134425640106201172e-02 1.883276402950286865e-01
2.448000000000000000e+03 1.434252548217773438e+01 1.894343948364257812e+01 -8.414172381162643433e-02 6.936314515769481659e-03 -2.316162176430225372e-02 5.716134980320930481e-02
2.449000000000000000e+03 1.530787849426269531e+01 2.423682212829589844e+01 -6.177405267953872681e-02 -4.710573330521583557e-02 -3.266393765807151794e-02 1.270709037780761719e-01
2.450000000000000000e+03 1.386016178131103516e+01 2.437073326110839844e+01 -5.233550071716308594e-02 -4.553725570440292358e-02 -2.936182729899883270e-02 1.143722161650657654e-01
2.451000000000000000e+03 6.638456344604492188e+00 1.128023624420166016e+01 5.214673001319169998e-03 -1.111548207700252533e-02 -1.770242699421942234e-03 3.030581865459680557e-03
2.452000000000000000e+03 5.707609176635742188e+01 -2.890888929367065430e+00 4.498450160026550293e-01 3.668731153011322021e-01 2.450154423713684082e-01 -1.149162277579307556e-01
2.453000000000000000e+03 2.515353012084960938e+01 -1.445910644531250000e+01 -1.331004798412322998e-01 -4.879550635814666748e-01 -1.863166540861129761e-01 -1.707505434751510620e-01
2.454000000000000000e+03 5.884029769897460938e+01 2.010523033142089844e+01 -1.647508293390274048e-01 1.341813206672668457e+00 3.531187176704406738e-01 -5.703917741775512695e-01
2.455000000000000000e+03 5.026863098144531250e+01 -2.140490150451660156e+01 -2.585605680942535400e-01 5.444090962409973145e-01 8.575456589460372925e-02 -3.620171919465065002e-02
2.456000000000000000e+03 4.964037704467773438e+01 -2.399241828918457031e+01 5.924294143915176392e-02 7.321333289146423340e-01 2.374128848314285278e-01 -1.582043804228305817e-02
2.457000000000000000e+03 8.294713020324707031e+00 -2.086858749389648438e+01 -1.956923492252826691e-02 -1.245036944746971130e-01 -4.322187975049018860e-02 -1.300171911716461182e-01
2.458000000000000000e+03 8.482466697692871094e+00 -2.251776313781738281e+01 -1.745418086647987366e-02 -1.440211832523345947e-01 -4.844260960817337036e-02 -1.374912858009338379e-01
2.459000000000000000e+03 8.180632591247558594e+00 -8.310792922973632812e+00 -2.834466286003589630e-02 -1.088780909776687622e-02 -1.176974177360534668e-02 -5.621592048555612564e-03
2.460000000000000000e+03 7.580510616302490234e+00 -8.906815528869628906e+00 -3.429998457431793213e-02 -1.602960377931594849e-02 -1.509887631982564926e-02 -1.722867414355278015e-02
2.461000000000000000e+03 7.990350246429443359e+00 -9.519776344299316406e+00 -3.294777125120162964e-02 -1.643866859376430511e-02 -1.481593120843172073e-02 -1.419684384018182755e-02
2.462000000000000000e+03 9.067687988281250000e+00 -9.918659210205078125e+00 -4.713461548089981079e-02 -1.408320385962724686e-02 -1.836534589529037476e-02 -2.001051604747772217e-02
2.463000000000000000e+03 8.615829467773437500e+00 -9.178627014160156250e+00 -4.821459203958511353e-02 -1.418853271752595901e-02 -1.872093789279460907e-02 -2.441513352096080780e-02
2.464000000000000000e+03 6.814573287963867188e+00 -6.420838356018066406e+00 -9.251522831618785858e-03 -1.144204568117856979e-02 -6.208070553839206696e-03 -1.994409249164164066e-04
2.465000000000000000e+03 6.789749145507812500e+01 1.719564056396484375e+01 -1.144381642341613770e+00 7.613402366638183594e+00 1.940706133842468262e+00 -7.611098289489746094e-01
2.466000000000000000e+03 4.199619674682617188e+01 2.445740318298339844e+01 -1.173389554023742676e-01 -2.786325290799140930e-02 -4.356066137552261353e-02 3.941456079483032227e-01
2.467000000000000000e+03 4.116840362548828125e+01 2.186956596374511719e+01 -3.241994380950927734e-01 2.406173944473266602e-02 -9.004131704568862915e-02 3.956205546855926514e-01
2.468000000000000000e+03 8.247262001037597656e+00 1.297017097473144531e+01 4.165831021964550018e-03 -2.803286304697394371e-03 4.087634442839771509e-04 4.973978269845247269e-03
2.469000000000000000e+03 6.443968772888183594e+00 2.573654174804687500e+01 -1.280194707214832306e-02 -5.954189971089363098e-02 -2.170315384864807129e-02 5.025491118431091309e-02
2.470000000000000000e+03 8.407634735107421875e+00 1.197754478454589844e+01 4.346881993114948273e-03 -4.318464081734418869e-03 8.525305020157247782e-06 4.796885885298252106e-03
2.471000000000000000e+03 8.470854759216308594e+00 1.775921058654785156e+01 -2.580634132027626038e-02 -1.198773086071014404e-02 -1.133822184056043625e-02 2.314821444451808929e-02
2.472000000000000000e+03 7.540034770965576172e+00 1.752799415588378906e+01 -1.764681935310363770e-02 -1.378676015883684158e-02 -9.430074132978916168e-03 1.843520812690258026e-02
2.473000000000000000e+03 7.051514434814453125e+01 1.751485252380371094e+01 -6.317662596702575684e-01 7.623386859893798828e+00 2.097486019134521484e+00 4.567944705486297607e-01
2.474000000000000000e+03 6.894161987304687500e+01 1.789496803283691406e+01 -1.018292665481567383e+00 7.493205070495605469e+00 1.942473649978637695e+00 -3.092861771583557129e-01
2.475000000000000000e+03 8.543481826782226562e+00 -1.146163845062255859e+01 -5.190923810005187988e-02 -2.723817341029644012e-02 -2.374422363936901093e-02 -4.278413578867912292e-02
2.476000000000000000e+03 6.615998840332031250e+01 1.945129203796386719e+01 -7.866998910903930664e-01 5.380955219268798828e+00 1.378276586532592773e+00 -1.386709809303283691e+00
2.477000000000000000e+03 7.249407196044921875e+01 1.875095939636230469e+01 -4.594358205795288086e-01 7.046766757965087891e+00 1.976199388504028320e+00 5.471394062042236328e-01
2.478000000000000000e+03 7.142797851562500000e+01 1.739714813232421875e+01 -4.318031668663024902e-01 7.425003528594970703e+00 2.097960233688354492e+00 7.235294580459594727e-01
2.479000000000000000e+03 7.879701137542724609e+00 2.572614860534667969e+01 -1.733925007283687592e-02 -5.870626121759414673e-02 -2.281365357339382172e-02 6.318522989749908447e-02
2.480000000000000000e+03 9.857977867126464844e+00 -1.320198154449462891e+01 -8.323676139116287231e-02 -3.734045848250389099e-02 -3.617316484451293945e-02 -7.777223736047744751e-02
2.481000000000000000e+03 2.402041625976562500e+01 -1.685766410827636719e+01 -3.944366425275802612e-02 -3.851541280746459961e-01 -1.273793429136276245e-01 -1.942050457000732422e-01
2.482000000000000000e+03 8.522401809692382812e+00 2.150175476074218750e+01 -2.922404371201992035e-02 -2.909781038761138916e-02 -1.749655604362487793e-02 4.597080871462821960e-02
2.483000000000000000e+03 5.674125289916992188e+01 1.988557624816894531e+01 -3.311671018600463867e-01 8.948695659637451172e-01 1.691107302904129028e-01 -3.033749759197235107e-01
2.484000000000000000e+03 5.603384399414062500e+01 2.098285293579101562e+01 -2.225954830646514893e-01 8.897074460983276367e-01 2.001335918903350830e-01 -2.789846062660217285e-01
2.485000000000000000e+03 1.785601806640625000e+01 -1.456602764129638672e+01 -2.007240056991577148e-01 -1.103245392441749573e-01 -9.331456571817398071e-02 -2.294414490461349487e-01
2.486000000000000000e+03 1.403944969177246094e+01 -1.093757724761962891e+01 -1.357536911964416504e-01 -1.600905135273933411e-02 -4.552882164716720581e-02 -6.069227308034896851e-02
2.487000000000000000e+03 1.436697483062744141e+01 -1.218238925933837891e+01 -1.754819899797439575e-01 -1.267482619732618332e-02 -5.644704401493072510e-02 -1.055312305688858032e-01
2.488000000000000000e+03 6.365152359008789062e+01 -2.345961570739746094e+01 2.085579559206962585e-02 2.994950771331787109e+00 9.047420024871826172e-01 -2.068571299314498901e-01
2.489000000000000000e+03 8.128894805908203125e+00 -1.933427810668945312e+01 -3.447749465703964233e-02 -1.017105355858802795e-01 -4.085640981793403625e-02 -1.178875043988227844e-01
2.490000000000000000e+03 9.511869430541992188e+00 -1.905802536010742188e+01 -3.921407088637351990e-02 -1.057655960321426392e-01 -4.349390044808387756e-02 -1.343332380056381226e-01
2.491000000000000000e+03 4.229343795776367188e+01 -2.553559303283691406e+01 1.337620466947555542e-01 1.839381456375122070e-01 9.531005471944808960e-02 -1.996560692787170410e-01
2.492000000000000000e+03 6.261847686767578125e+01 -1.587374496459960938e+01 -1.267662048339843750e+00 3.495246171951293945e+00 6.682752370834350586e-01 -2.312809973955154419e-02
2.493000000000000000e+03 2.653440666198730469e+01 -1.751007080078125000e+01 -8.006727695465087891e-02 -2.438816428184509277e-01 -9.718467295169830322e-02 -8.480049669742584229e-02
2.494000000000000000e+03 7.009834289550781250e+01 -2.614260673522949219e+01 3.699072897434234619e-01 4.517434597015380859e+00 1.466202616691589355e+00 6.686211228370666504e-01
2.495000000000000000e+03 7.307771301269531250e+01 1.989191436767578125e+01 -3.999779224395751953e-01 6.969498634338378906e+00 1.970856189727783203e+00 4.601422250270843506e-01
2.496000000000000000e+03 1.889615821838378906e+01 -1.399189472198486328e+01 -2.686248123645782471e-01 -9.979004412889480591e-02 -1.105244532227516174e-01 -2.493692338466644287e-01
2.497000000000000000e+03 1.816677856445312500e+01 -1.280791282653808594e+01 -2.526297271251678467e-01 -6.940677016973495483e-02 -9.661095589399337769e-02 -1.953107118606567383e-01
2.498000000000000000e+03 1.347881221771240234e+01 -9.707890510559082031e+00 -1.230230033397674561e-01 -7.212703581899404526e-03 -3.907071053981781006e-02 -4.157729446887969971e-02
2.499000000000000000e+03 5.708270549774169922e+00 -2.119507598876953125e+01 -7.968350313603878021e-03 -1.258466690778732300e-01 -4.014450311660766602e-02 -1.016800925135612488e-01
2.500000000000000000e+03 6.150452423095703125e+01 2.441842079162597656e+01 -2.268039388582110405e-03 2.722060680389404297e+00 8.159377574920654297e-01 -8.889867067337036133e-01
2.501000000000000000e+03 5.936791610717773438e+01 2.278601264953613281e+01 3.417514637112617493e-02 1.884680151939392090e+00 5.756565928459167480e-01 -7.242851257324218750e-01
2.502000000000000000e+03 9.348277091979980469e+00 -9.042688369750976562e+00 -4.709654673933982849e-02 -1.914136484265327454e-02 -1.987137459218502045e-02 -2.088253386318683624e-02
2.503000000000000000e+03 1.177040481567382812e+01 -9.460147857666015625e+00 -9.213359653949737549e-02 -9.438943117856979370e-03 -3.047176264226436615e-02 -2.994309365749359131e-02
2.504000000000000000e+03 6.949140167236328125e+01 1.854296302795410156e+01 -9.168667793273925781e-01 7.188388824462890625e+00 1.881456494331359863e+00 -1.661839038133621216e-01
2.505000000000000000e+03 7.037515258789062500e+01 1.631913375854492188e+01 -5.173355937004089355e-01 8.008855819702148438e+00 2.247456073760986328e+00 8.041096925735473633e-01
2.506000000000000000e+03 9.670606613159179688e+00 -1.089834499359130859e+01 -7.208503782749176025e-02 -2.422281913459300995e-02 -2.889235876500606537e-02 -4.700023680925369263e-02
2.507000000000000000e+03 6.716245269775390625e+01 1.860759162902832031e+01 -1.019892811775207520e+00 6.311500549316406250e+00 1.587482333183288574e+00 -1.191786050796508789e+00
2.508000000000000000e+03 6.320243453979492188e+01 2.132561302185058594e+01 -2.260401546955108643e-01 3.389029979705810547e+00 9.488968849182128906e-01 -1.250630021095275879e+00
2.509000000000000000e+03 1.033701992034912109e+01 1.366265869140625000e+01 -3.486286615952849388e-03 4.809912759810686111e-03 3.970878315158188343e-04 7.395771332085132599e-03
2.510000000000000000e+03 1.048974514007568359e+01 1.537951374053955078e+01 -2.089060470461845398e-02 2.960770158097147942e-03 -5.378950387239456177e-03 1.346575282514095306e-02
2.511000000000000000e+03 9.759044647216796875e+00 1.091568470001220703e+01 9.750601835548877716e-03 6.032824050635099411e-03 4.735027905553579330e-03 6.276693660765886307e-03
2.512000000000000000e+03 7.783441066741943359e+00 1.383623886108398438e+01 -5.840827710926532745e-03 -6.491570267826318741e-03 -3.699719440191984177e-03 4.477787297219038010e-03
2.513000000000000000e+03 9.849282264709472656e+00 1.617804336547851562e+01 -2.509208023548126221e-02 -2.285722177475690842e-03 -8.213341236114501953e-03 1.568960584700107574e-02
2.514000000000000000e+03 9.655207633972167969e+00 1.474056053161621094e+01 -1.610004156827926636e-02 -1.072686281986534595e-03 -5.151818040758371353e-03 8.923263289034366608e-03
2.515000000000000000e+03 6.810666656494140625e+01 1.824443244934082031e+01 -1.100029706954956055e+00 7.074292182922363281e+00 1.792278766632080078e+00 -6.828712821006774902e-01
2.516000000000000000e+03 6.712734985351562500e+01 2.060752677917480469e+01 -7.954979538917541504e-01 5.727478981018066406e+00 1.479594230651855469e+00 -9.408794045448303223e-01
2.517000000000000000e+03 5.578815460205078125e+01 2.274790191650390625e+01 -4.013837873935699463e-02 9.662066102027893066e-01 2.778204679489135742e-01 -3.587835133075714111e-01
2.518000000000000000e+03 5.414836502075195312e+01 2.204894447326660156e+01 -1.518746465444564819e-01 6.201450824737548828e-01 1.404811292886734009e-01 -1.925352960824966431e-01
2.519000000000000000e+03 6.942681312561035156e+00 1.675573348999023438e+01 -1.441626157611608505e-02 -1.493407972157001495e-02 -8.805102668702602386e-03 1.230448763817548752e-02
2.520000000000000000e+03 5.911827564239501953e+00 1.684066581726074219e+01 -1.170798391103744507e-02 -1.631261780858039856e-02 -8.406180888414382935e-03 1.153306197375059128e-02
2.521000000000000000e+03 9.486368179321289062e+00 1.754241752624511719e+01 -3.020864911377429962e-02 -7.607036270201206207e-03 -1.134470570832490921e-02 2.337188459932804108e-02
2.522000000000000000e+03 8.615387916564941406e+00 -1.803227233886718750e+01 -4.641297832131385803e-02 -8.955331146717071533e-02 -4.078988730907440186e-02 -1.207729205489158630e-01
2.523000000000000000e+03 8.254457473754882812e+00 -1.405398845672607422e+01 -5.837761610746383667e-02 -4.755923524498939514e-02 -3.178105503320693970e-02 -7.616388052701950073e-02
2.524000000000000000e+03 1.492538928985595703e+01 -1.301138782501220703e+01 -1.720794588327407837e-01 -3.338771313428878784e-02 -6.164015457034111023e-02 -1.317312866449356079e-01
2.525000000000000000e+03 3.569211196899414062e+01 2.331374359130859375e+01 -1.865541487932205200e-01 -5.437814071774482727e-02 -7.227968424558639526e-02 3.151362240314483643e-01
2.526000000000000000e+03 4.146972656250000000e+01 2.060096931457519531e+01 -6.029450893402099609e-01 6.297630071640014648e-02 -1.619906425476074219e-01 3.596811294555664062e-01
2.527000000000000000e+03 4.472618865966796875e+01 1.922599601745605469e+01 -8.514279127120971680e-01 -9.620172902941703796e-03 -2.583144307136535645e-01 5.046339035034179688e-01
2.528000000000000000e+03 4.479949951171875000e+01 2.165144729614257812e+01 -4.172505140304565430e-01 -3.762031719088554382e-02 -1.364612430334091187e-01 4.669618010520935059e-01
2.529000000000000000e+03 7.093897342681884766e+00 1.985022544860839844e+01 -2.029731869697570801e-02 -2.411359362304210663e-02 -1.332327444106340408e-02 2.879361435770988464e-02
2.530000000000000000e+03 1.024803924560546875e+01 2.327630615234375000e+01 -3.577090427279472351e-02 -3.745300695300102234e-02 -2.196717262268066406e-02 6.898044049739837646e-02
2.531000000000000000e+03 9.897070884704589844e+00 2.503111648559570312e+01 -2.709504589438438416e-02 -5.293405801057815552e-02 -2.400873042643070221e-02 7.686384767293930054e-02
2.532000000000000000e+03 4.889521026611328125e+01 1.901961898803710938e+01 -9.021006822586059570e-01 -5.719945430755615234e-01 -4.422285854816436768e-01 3.034299612045288086e-01
2.533000000000000000e+03 4.974554061889648438e+00 2.597898864746093750e+01 -6.690554786473512650e-03 -6.446201354265213013e-02 -2.134576998651027679e-02 4.150807112455368042e-02
2.534000000000000000e+03 5.749124908447265625e+01 2.104100418090820312e+01 -1.482445150613784790e-01 1.205965042114257812e+00 3.173161447048187256e-01 -4.422222673892974854e-01
2.535000000000000000e+03 2.018237876892089844e+01 -1.690382957458496094e+01 -1.389125436544418335e-01 -1.982555389404296875e-01 -1.011504232883453369e-01 -2.647460103034973145e-01
2.536000000000000000e+03 1.131816196441650391e+01 -1.110910224914550781e+01 -1.007344126701354980e-01 -1.579278893768787384e-02 -3.495815768837928772e-02 -5.310226604342460632e-02
2.537000000000000000e+03 6.210989761352539062e+01 2.154847335815429688e+01 -9.159962087869644165e-02 2.763002395629882812e+00 8.014208674430847168e-01 -1.088111400604248047e+00
2.538000000000000000e+03 8.365772247314453125e+00 2.442230033874511719e+01 -2.167924121022224426e-02 -4.885876551270484924e-02 -2.116140164434909821e-02 5.847071856260299683e-02
2.539000000000000000e+03 1.018060779571533203e+01 2.769979858398437500e+01 -1.297118607908487320e-02 -7.349614799022674561e-02 -2.594019845128059387e-02 8.512553572654724121e-02
2.540000000000000000e+03 1.251446056365966797e+01 -2.265377235412597656e+01 -1.110227033495903015e-02 -1.587689667940139771e-01 -5.096137151122093201e-02 -1.873568147420883179e-01
2.541000000000000000e+03 1.115451526641845703e+01 -2.066675567626953125e+01 -3.998237475752830505e-02 -1.291032880544662476e-01 -5.072569847106933594e-02 -1.725624799728393555e-01
2.542000000000000000e+03 2.506373405456542969e+01 -1.854619789123535156e+01 -5.717458203434944153e-02 -2.294335812330245972e-01 -8.598244935274124146e-02 -1.286173611879348755e-01
2.543000000000000000e+03 5.010963439941406250e+01 2.538823127746582031e+01 1.957140713930130005e-01 2.581827044486999512e-01 1.361690312623977661e-01 4.953837394714355469e-02
2.544000000000000000e+03 4.870937347412109375e+01 2.151484489440917969e+01 -3.156821131706237793e-01 -2.183393687009811401e-01 -1.602064371109008789e-01 2.616854310035705566e-01
2.545000000000000000e+03 1.284547615051269531e+01 -1.161402034759521484e+01 -1.300558149814605713e-01 -1.503671891987323761e-02 -4.352776333689689636e-02 -7.770936936140060425e-02
2.546000000000000000e+03 6.969698333740234375e+01 1.757632255554199219e+01 -8.795425295829772949e-01 7.633555412292480469e+00 2.026203870773315430e+00 1.579048186540603638e-01
2.547000000000000000e+03 1.047161960601806641e+01 1.162650489807128906e+01 1.011678110808134079e-02 9.420323185622692108e-03 5.861131474375724792e-03 7.476696744561195374e-03
2.548000000000000000e+03 7.041141510009765625e+01 1.876815605163574219e+01 -8.137148618698120117e-01 7.163460254669189453e+00 1.904923558235168457e+00 1.506127119064331055e-01
2.549000000000000000e+03 1.131312274932861328e+01 1.615972709655761719e+01 -3.472459316253662109e-02 3.189721144735813141e-03 -9.460461325943470001e-03 1.988986134529113770e-02
2.550000000000000000e+03 8.229685783386230469e+00 1.690696907043457031e+01 -2.056430466473102570e-02 -9.803973138332366943e-03 -9.110483340919017792e-03 1.446149125695228577e-02
2.551000000000000000e+03 1.070752716064453125e+01 -1.009649372100830078e+01 -7.068075239658355713e-02 -1.513760723173618317e-02 -2.574550732970237732e-02 -3.478859364986419678e-02
2.552000000000000000e+03 6.428469848632812500e+01 2.156198310852050781e+01 -3.419584333896636963e-01 3.939804315567016602e+00 1.079353809356689453e+00 -1.268854618072509766e+00
2.553000000000000000e+03 7.002578735351562500e+01 2.000793266296386719e+01 -7.775891423225402832e-01 6.824902534484863281e+00 1.814193964004516602e+00 -9.369539469480514526e-02
2.554000000000000000e+03 8.523659706115722656e+00 2.003139686584472656e+01 -3.012522310018539429e-02 -2.115840651094913483e-02 -1.538508944213390350e-02 3.659426048398017883e-02
2.555000000000000000e+03 9.786936759948730469e+00 1.864933204650878906e+01 -3.623339161276817322e-02 -1.049613021314144135e-02 -1.401885692030191422e-02 3.284761682152748108e-02
2.556000000000000000e+03 4.241238021850585938e+01 2.159581756591796875e+01 -4.539809525012969971e-01 2.463769912719726562e-02 -1.288029849529266357e-01 4.222009479999542236e-01
2.557000000000000000e+03 6.263903427124023438e+01 2.345365715026855469e+01 -8.157938718795776367e-02 3.155381917953491211e+00 9.221407175064086914e-01 -9.723727107048034668e-01
2.558000000000000000e+03 6.751422405242919922e+00 -1.954206657409667969e+01 -1.911501213908195496e-02 -1.046058833599090576e-01 -3.711627051234245300e-02 -1.059548407793045044e-01
2.559000000000000000e+03 6.807690429687500000e+01 2.186180877685546875e+01 -6.918620467185974121e-01 5.758414745330810547e+00 1.519965767860412598e+00 -6.587655544281005859e-01
2.560000000000000000e+03 6.603451538085937500e+01 2.163975524902343750e+01 -5.584067702293395996e-01 4.890697002410888672e+00 1.299687147140502930e+00 -1.081919193267822266e+00
2.561000000000000000e+03 7.191296100616455078e+00 1.854290771484375000e+01 -2.059592492878437042e-02 -1.887899264693260193e-02 -1.184247527271509171e-02 2.178139612078666687e-02
2.562000000000000000e+03 4.781536102294921875e+01 2.007921409606933594e+01 -5.732306838035583496e-01 -3.143824338912963867e-01 -2.662839293479919434e-01 4.156535863876342773e-01
2.563000000000000000e+03 1.085688400268554688e+01 -1.817470741271972656e+01 -6.621880084276199341e-02 -9.476941823959350586e-02 -4.829646646976470947e-02 -1.527132391929626465e-01
2.564000000000000000e+03 9.897580146789550781e+00 -1.687376976013183594e+01 -5.741656944155693054e-02 -7.532314956188201904e-02 -3.982191532850265503e-02 -1.158479750156402588e-01
2.565000000000000000e+03 1.835132408142089844e+01 -1.579592895507812500e+01 -1.802533864974975586e-01 -1.278594881296157837e-01 -9.243386238813400269e-02 -2.439595609903335571e-01
2.566000000000000000e+03 6.381940460205078125e+01 2.401391410827636719e+01 -1.653769612312316895e-01 3.668912410736083984e+00 1.051060676574707031e+00 -9.609755277633666992e-01
2.567000000000000000e+03 4.790873718261718750e+01 2.596613121032714844e+01 2.032683938741683960e-01 1.359186619520187378e-01 1.017561182379722595e-01 1.925147473812103271e-01
2.568000000000000000e+03 9.986194610595703125e+00 1.996862602233886719e+01 -4.030190035700798035e-02 -1.469619292765855789e-02 -1.649942807853221893e-02 4.294451698660850525e-02
2.569000000000000000e+03 3.097888755798339844e+01 -1.455443000793457031e+01 -2.325585037469863892e-01 2.508933544158935547e-01 5.500451661646366119e-03 8.517922461032867432e-02
2.570000000000000000e+03 8.490733146667480469e+00 1.877518844604492188e+01 -2.762651070952415466e-02 -1.484296005219221115e-02 -1.274084113538265228e-02 2.838420122861862183e-02
2.571000000000000000e+03 1.052857971191406250e+01 -1.199321079254150391e+01 -8.248108625411987305e-02 -2.045087702572345734e-02 -3.087958879768848419e-02 -5.933253094553947449e-02
2.572000000000000000e+03 7.014658355712890625e+01 2.197334480285644531e+01 -6.863753199577331543e-01 6.314778327941894531e+00 1.688520908355712891e+00 -2.383666336536407471e-01
2.573000000000000000e+03 6.535099029541015625e+01 2.386378288269042969e+01 -3.364237844944000244e-01 4.315380096435546875e+00 1.193686842918395996e+00 -9.395452737808227539e-01
2.574000000000000000e+03 6.544961547851562500e+01 2.838182067871093750e+01 -2.997466549277305603e-02 4.173723697662353516e+00 1.243124723434448242e+00 -6.026369333267211914e-01
2.575000000000000000e+03 7.104648590087890625e+01 2.054781341552734375e+01 -6.766159534454345703e-01 6.824701309204101562e+00 1.844425678253173828e+00 7.699897885322570801e-02
2.576000000000000000e+03 1.013473892211914062e+01 2.149889945983886719e+01 -4.197214171290397644e-02 -2.415331453084945679e-02 -1.983763650059700012e-02 5.731010809540748596e-02
2.577000000000000000e+03 1.379978752136230469e+01 2.594301605224609375e+01 -2.958321943879127502e-02 -6.567098200321197510e-02 -2.857626043260097504e-02 1.183544322848320007e-01
2.578000000000000000e+03 4.127498626708984375e+01 2.322829437255859375e+01 -2.651825845241546631e-01 -8.118521422147750854e-03 -8.199033141136169434e-02 4.012817740440368652e-01
2.579000000000000000e+03 1.189661502838134766e+01 -1.932190132141113281e+01 -5.302681773900985718e-02 -1.135028302669525146e-01 -4.995889589190483093e-02 -1.630812734365463257e-01
2.580000000000000000e+03 3.018680191040039062e+01 2.434380149841308594e+01 -1.215172260999679565e-01 -9.413983672857284546e-02 -6.469711661338806152e-02 2.759515345096588135e-01
2.581000000000000000e+03 2.022247886657714844e+01 -2.220888900756835938e+01 1.130276732146739960e-02 -2.117196023464202881e-01 -6.012505292892456055e-02 -2.257154434919357300e-01
2.582000000000000000e+03 2.182581138610839844e+01 -2.085726737976074219e+01 -2.571956813335418701e-02 -2.051246762275695801e-01 -6.925327330827713013e-02 -2.203627973794937134e-01
2.583000000000000000e+03 1.112080383300781250e+01 1.822546386718750000e+01 -4.547231271862983704e-02 -1.503413077443838120e-03 -1.409271825104951859e-02 3.376178443431854248e-02
2.584000000000000000e+03 1.142202472686767578e+01 -1.584988307952880859e+01 -9.215044230222702026e-02 -6.573235243558883667e-02 -4.736483842134475708e-02 -1.337318569421768188e-01
2.585000000000000000e+03 4.585347747802734375e+01 2.391592407226562500e+01 -9.306719154119491577e-02 -2.224711328744888306e-02 -3.459429368376731873e-02 3.794089257717132568e-01
2.586000000000000000e+03 1.313693904876708984e+01 -2.013229179382324219e+01 -5.738040432333946228e-02 -1.306010186672210693e-01 -5.639442801475524902e-02 -1.984483599662780762e-01
2.587000000000000000e+03 1.148246002197265625e+01 2.959519004821777344e+01 7.495130877941846848e-03 -9.457650035619735718e-02 -2.612441219389438629e-02 9.766524285078048706e-02
2.588000000000000000e+03 2.366018676757812500e+01 -2.507267570495605469e+01 6.209311261773109436e-02 -1.728249937295913696e-01 -3.321956470608711243e-02 -1.898837685585021973e-01
2.589000000000000000e+03 1.403290462493896484e+01 -1.803409004211425781e+01 -8.495083451271057129e-02 -1.168228387832641602e-01 -6.053210049867630005e-02 -1.951403319835662842e-01
2.590000000000000000e+03 1.542137145996093750e+01 -1.831119728088378906e+01 -8.778186142444610596e-02 -1.194012090563774109e-01 -6.215491890907287598e-02 -2.048981189727783203e-01
2.591000000000000000e+03 1.167348670959472656e+01 2.132521820068359375e+01 -5.480119213461875916e-02 -1.733145490288734436e-02 -2.163979411125183105e-02 6.488257646560668945e-02
2.592000000000000000e+03 1.211630630493164062e+01 -1.357483863830566406e+01 -1.225027814507484436e-01 -3.268795087933540344e-02 -4.655721783638000488e-02 -1.059794574975967407e-01
2.593000000000000000e+03 1.072719478607177734e+01 -1.434206390380859375e+01 -8.313746750354766846e-02 -4.855891689658164978e-02 -3.950891643762588501e-02 -9.699416905641555786e-02
2.594000000000000000e+03 1.835095214843750000e+01 2.344532203674316406e+01 -9.052271395921707153e-02 -5.649819597601890564e-02 -4.410627484321594238e-02 1.613792777061462402e-01
2.595000000000000000e+03 1.535134410858154297e+01 -1.455823516845703125e+01 -1.614476144313812256e-01 -5.886286124587059021e-02 -6.609314680099487305e-02 -1.697813719511032104e-01
2.596000000000000000e+03 1.380458354949951172e+01 -1.911075592041015625e+01 -6.317430734634399414e-02 -1.219042092561721802e-01 -5.552355572581291199e-02 -1.851171106100082397e-01
2.597000000000000000e+03 1.546771144866943359e+01 -1.676497840881347656e+01 -1.240572705864906311e-01 -1.081494465470314026e-01 -6.966201215982437134e-02 -2.036997228860855103e-01
2.598000000000000000e+03 1.335375785827636719e+01 -1.286254787445068359e+01 -1.312652677297592163e-01 -3.092188760638237000e-02 -4.865614697337150574e-02 -9.689294546842575073e-02
2.599000000000000000e+03 1.528164768218994141e+01 2.863752555847167969e+01 3.902485594153404236e-03 -9.764356166124343872e-02 -2.812232263386249542e-02 1.305190175771713257e-01
2.600000000000000000e+03 1.670124435424804688e+01 -2.054355621337890625e+01 -4.144820570945739746e-02 -1.643123626708984375e-01 -6.172816827893257141e-02 -2.207000553607940674e-01
2.601000000000000000e+03 1.245129108428955078e+01 -2.130700683593750000e+01 -3.272701054811477661e-02 -1.383934020996093750e-01 -5.133612081408500671e-02 -1.788960397243499756e-01
2.602000000000000000e+03 1.579541015625000000e+01 -2.193190002441406250e+01 -3.074278496205806732e-02 -1.656967699527740479e-01 -5.893186852335929871e-02 -2.241487056016921997e-01
2.603000000000000000e+03 1.855461120605468750e+01 -2.319222068786621094e+01 8.767948485910892487e-03 -1.852544397115707397e-01 -5.294594541192054749e-02 -2.198439985513687134e-01
2.604000000000000000e+03 1.859729957580566406e+01 -2.113615989685058594e+01 -3.325804322957992554e-02 -1.949145495891571045e-01 -6.845177710056304932e-02 -2.474799156188964844e-01
2.605000000000000000e+03 1.346733379364013672e+01 -2.424762153625488281e+01 3.574063768610358238e-03 -1.708562821149826050e-01 -5.018466711044311523e-02 -1.933277547359466553e-01
2.606000000000000000e+03 7.239382171630859375e+01 -2.378002548217773438e+01 7.601829245686531067e-03 5.412910461425781250e+00 1.626153707504272461e+00 8.717134594917297363e-01
2.607000000000000000e+03 7.199639129638671875e+01 -2.520025634765625000e+01 2.106316834688186646e-01 5.272552490234375000e+00 1.644955277442932129e+00 8.362591266632080078e-01
2.608000000000000000e+03 6.850264739990234375e+01 -2.326552581787109375e+01 3.012500703334808350e-01 3.442222356796264648e+00 1.123041749000549316e+00 4.846579432487487793e-01
2.609000000000000000e+03 7.253049468994140625e+01 -2.228619194030761719e+01 -1.328555345535278320e-01 5.518604755401611328e+00 1.615724802017211914e+00 1.158534049987792969e+00
2.610000000000000000e+03 4.882375335693359375e+01 -2.241264343261718750e+01 -1.749554723501205444e-01 6.169160604476928711e-01 1.325881779193878174e-01 -9.702464193105697632e-02
2.611000000000000000e+03 7.344046783447265625e+01 2.224591636657714844e+01 -3.877652883529663086e-01 6.754346370697021484e+00 1.909974336624145508e+00 2.486572116613388062e-01
2.612000000000000000e+03 9.407982826232910156e+00 -1.452238178253173828e+01 -6.712456792593002319e-02 -4.859397932887077332e-02 -3.471556305885314941e-02 -9.099705517292022705e-02
2.613000000000000000e+03 6.763793182373046875e+01 2.440998649597167969e+01 -4.603016674518585205e-01 5.211873531341552734e+00 1.425471544265747070e+00 -6.505414247512817383e-01
2.614000000000000000e+03 6.600868988037109375e+01 2.550960350036621094e+01 -2.475362420082092285e-01 4.482050895690917969e+00 1.270354509353637695e+00 -7.589735388755798340e-01
2.615000000000000000e+03 6.632923889160156250e+01 -2.328146362304687500e+01 2.308539003133773804e-01 3.054793357849121094e+00 9.856941699981689453e-01 3.022839501500129700e-02
2.616000000000000000e+03 6.751332092285156250e+01 -2.224362564086914062e+01 2.734590768814086914e-01 3.016806364059448242e+00 9.870796203613281250e-01 2.842657268047332764e-01
2.617000000000000000e+03 7.518962097167968750e+01 3.402932739257812500e+01 -1.218838803470134735e-02 6.395781993865966797e+00 1.915078043937683105e+00 -9.613311290740966797e-02
2.618000000000000000e+03 7.559332275390625000e+01 3.208781433105468750e+01 -4.137591458857059479e-03 6.565595626831054688e+00 1.968437433242797852e+00 -9.505476802587509155e-02
2.619000000000000000e+03 5.488389205932617188e+01 2.463007545471191406e+01 1.673419624567031860e-01 9.376287460327148438e-01 3.314912021160125732e-01 -3.017407059669494629e-01
2.620000000000000000e+03 4.181289672851562500e+01 -2.304157257080078125e+01 -8.849064260721206665e-02 7.796410471200942993e-02 -3.157961415126919746e-03 -1.715071350336074829e-01
2.621000000000000000e+03 7.107012939453125000e+01 2.906496810913085938e+01 -1.663216501474380493e-01 5.769643306732177734e+00 1.680996417999267578e+00 -2.654982209205627441e-01
2.622000000000000000e+03 3.766131210327148438e+01 2.356728744506835938e+01 -2.155451923608779907e-01 -3.530539199709892273e-02 -7.525517791509628296e-02 3.475055098533630371e-01
2.623000000000000000e+03 3.544859313964843750e+01 2.522422790527343750e+01 -8.751230686902999878e-02 -7.532351464033126831e-02 -4.885074496269226074e-02 3.386551141738891602e-01
2.624000000000000000e+03 6.251656341552734375e+01 -2.252520942687988281e+01 -1.377479583024978638e-01 2.999094009399414062e+00 8.584038019180297852e-01 -3.384982943534851074e-01
2.625000000000000000e+03 2.337653350830078125e+01 2.553324890136718750e+01 -5.015691369771957397e-02 -1.166355684399604797e-01 -5.003774538636207581e-02 2.156409323215484619e-01
2.626000000000000000e+03 6.357822799682617188e+01 -2.162078475952148438e+01 -1.708067208528518677e-01 2.908828258514404297e+00 8.214064836502075195e-01 -3.611324727535247803e-01
2.627000000000000000e+03 2.743829727172851562e+01 -1.879697799682617188e+01 -9.748660027980804443e-02 -1.293097436428070068e-01 -6.803890317678451538e-02 -6.169852614402770996e-02
2.628000000000000000e+03 2.876355934143066406e+01 -1.816141510009765625e+01 -1.689513623714447021e-01 -4.162153974175453186e-02 -6.317187100648880005e-02 -3.678482025861740112e-02
2.629000000000000000e+03 7.492617797851562500e+01 2.990410041809082031e+01 -6.866092979907989502e-02 6.486465930938720703e+00 1.925341486930847168e+00 -9.308795630931854248e-02
2.630000000000000000e+03 7.618500518798828125e+01 2.920721244812011719e+01 -6.828032433986663818e-02 6.792376041412353516e+00 2.017228603363037109e+00 -4.235379397869110107e-02
2.631000000000000000e+03 6.060868453979492188e+01 -2.533067512512207031e+01 -4.547908157110214233e-02 2.828896045684814453e+00 8.350251317024230957e-01 -9.403650462627410889e-02
2.632000000000000000e+03 6.229191207885742188e+01 2.960176086425781250e+01 2.081887871026992798e-01 3.209554910659790039e+00 1.025323152542114258e+00 -5.767379999160766602e-01
2.633000000000000000e+03 4.449645996093750000e+00 -3.685017776489257812e+01 1.819215901196002960e-02 -3.328944742679595947e-01 -9.441069513559341431e-02 -3.773650527000427246e-02
2.634000000000000000e+03 1.982223892211914062e+01 2.765660476684570312e+01 4.069942224305123091e-04 -1.141632050275802612e-01 -3.412686288356781006e-02 1.802184432744979858e-01
2.635000000000000000e+03 1.246936225891113281e+01 3.220743179321289062e+01 3.211250156164169312e-02 -1.174000501632690430e-01 -2.558626607060432434e-02 9.357820451259613037e-02
2.636000000000000000e+03 1.650688362121582031e+01 -2.361883163452148438e+01 1.169337518513202667e-02 -1.913416832685470581e-01 -5.389449372887611389e-02 -2.210985422134399414e-01
2.637000000000000000e+03 3.965976333618164062e+01 2.356398963928222656e+01 -1.981701999902725220e-01 -1.402863673865795135e-02 -6.365964561700820923e-02 3.697912991046905518e-01
2.638000000000000000e+03 7.258080291748046875e+01 -3.438226318359375000e+01 2.285292148590087891e-01 5.538936138153076172e+00 1.730239629745483398e+00 3.315960466861724854e-01
2.639000000000000000e+03 5.007719039916992188e+01 -2.834769630432128906e+01 3.596948683261871338e-01 9.736772775650024414e-01 4.000116288661956787e-01 4.037828743457794189e-02
2.640000000000000000e+03 4.058205032348632812e+01 2.852437210083007812e+01 2.243920117616653442e-01 -3.425320237874984741e-02 5.704164132475852966e-02 3.336500823497772217e-01
2.641000000000000000e+03 2.290368461608886719e+01 2.868989372253417969e+01 4.007060453295707703e-02 -1.411103308200836182e-01 -3.031191602349281311e-02 2.032245993614196777e-01
2.642000000000000000e+03 5.832254028320312500e+01 2.802614402770996094e+01 3.148836195468902588e-01 2.041453838348388672e+00 7.069012522697448730e-01 -4.907689690589904785e-01
2.643000000000000000e+03 6.152826309204101562e+01 2.710123634338378906e+01 1.315749138593673706e-01 2.903131008148193359e+00 9.104117751121520996e-01 -7.098479866981506348e-01
2.644000000000000000e+03 5.472902679443359375e+01 2.814132118225097656e+01 4.084974825382232666e-01 1.137421131134033203e+00 4.637755751609802246e-01 -2.647139132022857666e-01
2.645000000000000000e+03 5.076285934448242188e+01 3.096212005615234375e+01 5.551122426986694336e-01 6.693650484085083008e-01 3.673431873321533203e-01 -5.788798630237579346e-02
2.646000000000000000e+03 6.535916137695312500e+01 -2.923418807983398438e+01 3.987211883068084717e-01 3.535811901092529297e+00 1.180359959602355957e+00 2.019058763980865479e-01
2.647000000000000000e+03 2.636395454406738281e+01 2.569919776916503906e+01 -5.365989729762077332e-02 -1.226742118597030640e-01 -5.290023237466812134e-02 2.370186150074005127e-01
2.648000000000000000e+03 2.997811317443847656e+01 -2.183310699462890625e+01 -9.928446263074874878e-02 -4.461321048438549042e-03 -3.112373501062393188e-02 -1.639614701271057129e-01
2.649000000000000000e+03 6.235924148559570312e+01 -2.613189888000488281e+01 1.481768339872360229e-01 3.017210483551025391e+00 9.496161937713623047e-01 -5.920425802469253540e-02
2.650000000000000000e+03 6.404082489013671875e+01 -2.690983772277832031e+01 2.969766557216644287e-01 3.213569879531860352e+00 1.053163886070251465e+00 5.716973543167114258e-02
2.651000000000000000e+03 6.900028228759765625e+01 2.321604919433593750e+01 -5.721996426582336426e-01 5.846066474914550781e+00 1.582159996032714844e+00 -4.672482311725616455e-01
2.652000000000000000e+03 2.792560195922851562e+01 -2.107033157348632812e+01 -9.754562377929687500e-02 -7.089457660913467407e-02 -5.053206160664558411e-02 -1.381249874830245972e-01
2.653000000000000000e+03 7.376192474365234375e+01 2.879046821594238281e+01 -1.115230470895767212e-01 6.354755878448486328e+00 1.872969746589660645e+00 -1.076963841915130615e-01
2.654000000000000000e+03 7.074345397949218750e+01 -2.476628875732421875e+01 2.256627082824707031e-01 4.641072273254394531e+00 1.460020542144775391e+00 7.690953016281127930e-01
2.655000000000000000e+03 7.250409698486328125e+01 2.403973197937011719e+01 -4.164086580276489258e-01 6.419647693634033203e+00 1.800971746444702148e+00 -5.356757435947656631e-03
2.656000000000000000e+03 2.690382766723632812e+01 -2.284250068664550781e+01 5.385355907492339611e-04 -1.285609751939773560e-01 -3.840672969818115234e-02 -1.695896685123443604e-01
2.657000000000000000e+03 6.738987731933593750e+01 -2.450279235839843750e+01 3.677948713302612305e-01 3.434809684753417969e+00 1.140781283378601074e+00 3.064264357089996338e-01
2.658000000000000000e+03 6.980374145507812500e+01 2.747557449340820312e+01 -2.559975683689117432e-01 5.505145549774169922e+00 1.574744462966918945e+00 -3.322236239910125732e-01
2.659000000000000000e+03 7.007082366943359375e+01 2.451877784729003906e+01 -4.861454367637634277e-01 5.894354343414306641e+00 1.622462749481201172e+00 -3.084236979484558105e-01
2.660000000000000000e+03 4.572779846191406250e+01 -2.523986434936523438e+01 1.030306890606880188e-01 4.240341484546661377e-01 1.581194549798965454e-01 -9.061788767576217651e-02
2.661000000000000000e+03 2.632871818542480469e+01 2.918791961669921875e+01 7.661401480436325073e-02 -1.532150655984878540e-01 -2.298031561076641083e-02 2.296872884035110474e-01
2.662000000000000000e+03 2.853390884399414062e+01 -2.531847190856933594e+01 5.655043572187423706e-02 -8.552819490432739258e-02 -8.693327195942401886e-03 -1.981272548437118530e-01
2.663000000000000000e+03 1.409467124938964844e+01 -2.636917114257812500e+01 4.155788198113441467e-02 -1.997146159410476685e-01 -4.744701832532882690e-02 -1.907337605953216553e-01
2.664000000000000000e+03 6.849588775634765625e+01 -2.961170578002929688e+01 4.211796224117279053e-01 4.261993408203125000e+00 1.404951930046081543e+00 4.298848509788513184e-01
2.665000000000000000e+03 3.906166458129882812e+01 2.709060859680175781e+01 7.431820034980773926e-02 -5.412237718701362610e-02 6.058747414499521255e-03 3.444038629531860352e-01
2.666000000000000000e+03 3.448418807983398438e+01 2.675961112976074219e+01 3.628112748265266418e-02 -1.036910712718963623e-01 -2.022298425436019897e-02 3.248313665390014648e-01
2.667000000000000000e+03 6.563597869873046875e+01 -2.755931282043457031e+01 3.832843899726867676e-01 3.429052591323852539e+00 1.143701076507568359e+00 2.062751352787017822e-01
2.668000000000000000e+03 6.950338745117187500e+01 -2.217146301269531250e+01 2.468562126159667969e-01 3.642374038696289062e+00 1.166769027709960938e+00 8.379833102226257324e-01
2.669000000000000000e+03 6.693579864501953125e+01 -2.855047988891601562e+01 3.912736177444458008e-01 3.792212009429931641e+00 1.255045652389526367e+00 2.823756635189056396e-01
2.670000000000000000e+03 6.639475250244140625e+01 -2.598505401611328125e+01 3.673910796642303467e-01 3.405367612838745117e+00 1.131827592849731445e+00 1.755865216255187988e-01
2.671000000000000000e+03 7.621784210205078125e+01 2.780109024047851562e+01 -7.921994477510452271e-02 6.832391262054443359e+00 2.025951385498046875e+00 -3.293995512649416924e-03
2.672000000000000000e+03 5.843725204467773438e+01 -2.709837722778320312e+01 7.703401148319244385e-02 2.449717760086059570e+00 7.580255866050720215e-01 8.940511196851730347e-02
2.673000000000000000e+03 2.996096229553222656e+01 2.871418952941894531e+01 8.285432308912277222e-02 -1.471336036920547485e-01 -1.928378082811832428e-02 2.670553922653198242e-01
2.674000000000000000e+03 3.118620109558105469e+01 2.693138313293457031e+01 1.233405899256467819e-02 -1.225602701306343079e-01 -3.306786343455314636e-02 2.821724414825439453e-01
2.675000000000000000e+03 2.930673217773437500e+01 2.585029411315917969e+01 -5.196405947208404541e-02 -1.208826974034309387e-01 -5.185402929782867432e-02 2.703454494476318359e-01
2.676000000000000000e+03 6.949736785888671875e+01 3.085533332824707031e+01 -5.305371806025505066e-02 5.232720851898193359e+00 1.553900241851806641e+00 -2.828660607337951660e-01
2.677000000000000000e+03 7.131424713134765625e+01 2.584711647033691406e+01 -3.532586693763732910e-01 6.071389198303222656e+00 1.715439081192016602e+00 -1.999589502811431885e-01
2.678000000000000000e+03 2.621838951110839844e+01 2.656219244003295898e+00 8.419705033302307129e-01 7.835946977138519287e-02 2.760989964008331299e-01 3.036178946495056152e-01
2.679000000000000000e+03 5.146730804443359375e+01 1.460681247711181641e+01 -1.578020095825195312e+00 -9.490574896335601807e-02 -5.018777251243591309e-01 7.067048549652099609e-01
2.680000000000000000e+03 5.531756210327148438e+01 7.976975917816162109e+00 -6.731238216161727905e-03 3.776467591524124146e-02 9.310030378401279449e-03 -5.143660586327314377e-03
2.681000000000000000e+03 6.512220764160156250e+01 8.453129768371582031e+00 1.997078776359558105e+00 2.140143871307373047e+00 1.241166830062866211e+00 1.937045335769653320e+00
2.682000000000000000e+03 6.671038818359375000e+01 1.182553195953369141e+01 1.026100158691406250e+00 1.192208099365234375e+01 3.884454250335693359e+00 -5.498946189880371094e+00
2.683000000000000000e+03 6.684865570068359375e+01 1.199557304382324219e+01 8.627406954765319824e-01 1.237880325317382812e+01 3.972463130950927734e+00 -4.873883247375488281e+00
2.684000000000000000e+03 6.742736816406250000e+01 1.184447193145751953e+01 -2.919737994670867920e-01 1.755009460449218750e+01 5.177436351776123047e+00 -3.098307847976684570e+00
2.685000000000000000e+03 2.395818328857421875e+01 5.888289451599121094e+00 -2.737082540988922119e-02 -3.303668648004531860e-02 -1.812225393950939178e-02 -3.054316714406013489e-02
2.686000000000000000e+03 6.724975585937500000e+00 -2.617079734802246094e+00 1.014171447604894638e-02 -3.972343634814023972e-03 1.850811415351927280e-03 3.206863533705472946e-03
2.687000000000000000e+03 1.931081199645996094e+01 2.518440723419189453e+00 -1.163785997778177261e-02 1.047326135449111462e-03 -3.177160164341330528e-03 -8.022372494451701641e-04
2.688000000000000000e+03 6.938871765136718750e+01 1.232885932922363281e+01 2.273336410522460938e+00 1.181102657318115234e+01 4.225308895111083984e+00 3.861423254013061523e+00
2.689000000000000000e+03 4.854760646820068359e+00 -3.160848855972290039e+00 3.299992531538009644e-03 1.776377786882221699e-03 1.522911130450665951e-03 9.529793635010719299e-03
2.690000000000000000e+03 1.572379589080810547e+01 -3.317156076431274414e+00 2.039320208132266998e-02 -8.208832703530788422e-03 3.655310487374663353e-03 -1.832737214863300323e-02
2.691000000000000000e+03 2.019546127319335938e+01 7.539861202239990234e-01 -1.571091823279857635e-02 -1.282447483390569687e-02 -8.560618385672569275e-03 1.733118318952620029e-03
2.692000000000000000e+03 7.765782165527343750e+01 3.384308815002441406e+00 -8.191745877265930176e-01 1.038135910034179688e+01 2.868655443191528320e+00 -3.413184165954589844e+00
2.693000000000000000e+03 7.826844024658203125e+01 7.188945770263671875e+00 1.823077440261840820e+00 7.843929767608642578e+00 2.900102138519287109e+00 -1.262385845184326172e+00
2.694000000000000000e+03 7.667379760742187500e+01 8.630443572998046875e+00 1.126143097877502441e+00 1.050842380523681641e+01 3.490370035171508789e+00 -6.318935006856918335e-02
2.695000000000000000e+03 7.081811523437500000e+01 4.737775772809982300e-02 -4.004274845123291016e+00 7.242097377777099609e+00 9.713467955589294434e-01 -4.193621158599853516e+00
2.696000000000000000e+03 6.803747558593750000e+01 7.302465915679931641e+00 -2.904175758361816406e+00 1.662256431579589844e+01 4.115516662597656250e+00 4.861641526222229004e-01
2.697000000000000000e+03 5.265809249877929688e+01 -2.154372596740722656e+01 -8.016962558031082153e-02 7.385116219520568848e-01 1.975025981664657593e-01 1.925970315933227539e-01
2.698000000000000000e+03 4.244677543640136719e+00 -3.125056505203247070e+00 5.217581521719694138e-03 1.103105256333947182e-03 1.896205940283834934e-03 9.623514488339424133e-03
2.699000000000000000e+03 1.321124362945556641e+01 -2.898116350173950195e+00 1.102235633879899979e-02 1.577433897182345390e-03 3.779937047511339188e-03 -5.780320614576339722e-03
2.700000000000000000e+03 6.494764328002929688e+00 -2.949882745742797852e+00 5.340235307812690735e-03 2.328534843400120735e-03 2.300631022080779076e-03 8.680125698447227478e-03
2.701000000000000000e+03 6.625597381591796875e+01 1.255960178375244141e+01 1.583824038505554199e+00 8.486855506896972656e+00 3.021203994750976562e+00 -4.187614917755126953e+00
2.702000000000000000e+03 5.997438049316406250e+01 -1.863056945800781250e+01 -3.475805819034576416e-01 3.316550254821777344e+00 8.906908631324768066e-01 -1.841946840286254883e-01
2.703000000000000000e+03 5.234027481079101562e+01 1.708359146118164062e+01 -1.208064079284667969e+00 9.208633750677108765e-02 -3.347933292388916016e-01 -5.955818295478820801e-02
2.704000000000000000e+03 4.196826457977294922e+00 -3.783319234848022461e+00 1.342413597740232944e-03 1.224468694999814034e-03 7.700647111050784588e-04 9.570652619004249573e-03
2.705000000000000000e+03 7.665806579589843750e+01 -2.802618145942687988e-01 -1.648133397102355957e+00 8.033429145812988281e+00 1.915588736534118652e+00 6.612102985382080078e-01
2.706000000000000000e+03 2.945238113403320312e+01 2.141287326812744141e+00 8.439059555530548096e-02 -3.556938469409942627e-01 -8.139097690582275391e-02 1.176427602767944336e-01
2.707000000000000000e+03 6.616249847412109375e+01 8.020414352416992188e+00 9.710823297500610352e-01 8.785510063171386719e+00 2.926977634429931641e+00 4.151517391204833984e+00
2.708000000000000000e+03 2.795278167724609375e+01 -4.714063644409179688e+00 2.886724770069122314e-01 -7.156256437301635742e-01 -1.280859559774398804e-01 -8.436225652694702148e-01
2.709000000000000000e+03 3.437390518188476562e+01 1.510773420333862305e+00 -8.267644047737121582e-01 4.000886082649230957e-01 -1.280027478933334351e-01 -1.711250692605972290e-01
2.710000000000000000e+03 2.413400650024414062e+01 -1.185165977478027344e+01 -3.022296726703643799e-01 -9.361135959625244141e-01 -3.715029954910278320e-01 -4.778961539268493652e-01
2.711000000000000000e+03 2.688673973083496094e+01 -3.361802673339843750e+01 2.733820080757141113e-01 -1.566907465457916260e-01 3.500738367438316345e-02 -1.708419620990753174e-01
2.712000000000000000e+03 7.082360267639160156e+00 -3.551092910766601562e+01 2.913578972220420837e-02 -2.830591201782226562e-01 -7.617700099945068359e-02 -6.135151907801628113e-02
2.713000000000000000e+03 2.452853679656982422e+00 3.133752346038818359e+00 -1.447780639864504337e-03 -4.678520199377089739e-04 -5.746898241341114044e-04 -6.448015337809920311e-04
2.714000000000000000e+03 5.808992385864257812e+01 -2.126156806945800781e+01 -5.147359371185302734e-01 3.207717895507812500e+00 8.078945875167846680e-01 1.377523839473724365e-01
2.715000000000000000e+03 7.482833862304687500e+01 -6.021612286567687988e-01 -2.116286039352416992e+00 4.333823680877685547e+00 6.652613282203674316e-01 1.094123050570487976e-01
2.716000000000000000e+03 7.048752593994140625e+01 1.100028896331787109e+01 4.720419883728027344e+00 6.830786228179931641e+00 3.465361833572387695e+00 3.498029947280883789e+00
2.717000000000000000e+03 6.544397735595703125e+01 8.339673995971679688e+00 1.978882431983947754e+00 3.737787961959838867e+00 1.715001106262207031e+00 3.023912668228149414e+00
2.718000000000000000e+03 2.215984725952148438e+01 6.634994029998779297e+00 -4.192841425538063049e-02 7.514015771448612213e-03 -1.032431982457637787e-02 -2.128540724515914917e-02
2.719000000000000000e+03 6.667194366455078125e+01 1.239058780670166016e+01 8.821886181831359863e-01 1.069985961914062500e+01 3.474614620208740234e+00 -4.330660343170166016e+00
2.720000000000000000e+03 1.367297291755676270e+00 3.144163370132446289e+00 4.405478830449283123e-05 6.861141446279361844e-05 3.379986083018593490e-05 -2.732342691160738468e-04
2.721000000000000000e+03 2.246180295944213867e+00 3.685196685791015625e+01 2.680651610717177391e-03 -1.504357308149337769e-01 -4.432652518153190613e-02 1.235991530120372772e-02
2.722000000000000000e+03 7.067206573486328125e+01 9.688740730285644531e+00 3.329391002655029297e+00 4.026254653930664062e+00 2.206693649291992188e+00 1.868180871009826660e+00
2.723000000000000000e+03 3.388562679290771484e+00 5.640725612640380859e+00 -2.402677666395902634e-03 -1.706452225334942341e-03 -1.232738955877721310e-03 5.411061458289623260e-03
2.724000000000000000e+03 1.992077112197875977e+00 3.568822097778320312e+01 2.523766597732901573e-03 -1.451258361339569092e-01 -4.278061911463737488e-02 1.244113873690366745e-02
2.725000000000000000e+03 1.266532611846923828e+01 -4.649896621704101562e+00 -7.242709863930940628e-03 -1.728827715851366520e-03 -2.691461239010095596e-03 1.746297930367290974e-03
2.726000000000000000e+03 7.403002166748046875e+01 -3.798646628856658936e-01 -1.431969761848449707e+00 1.656711578369140625e+00 6.742254644632339478e-02 -3.696988224983215332e-01
2.727000000000000000e+03 4.389868164062500000e+01 -7.552963256835937500e+00 2.370661348104476929e-01 1.665763556957244873e-01 1.210927441716194153e-01 -1.922091841697692871e-01
2.728000000000000000e+03 4.128274917602539062e+01 -1.028855037689208984e+01 2.838061451911926270e-01 -1.528611779212951660e-01 3.928348794579505920e-02 -2.586678564548492432e-01
2.729000000000000000e+03 7.774403381347656250e+01 -3.694058990478515625e+01 2.348605915904045105e-02 6.790277957916259766e+00 2.044129133224487305e+00 1.447522789239883423e-01
2.730000000000000000e+03 8.307455062866210938e+00 9.778918266296386719e+00 8.519572205841541290e-03 -2.969271503388881683e-03 1.665090094320476055e-03 2.624557120725512505e-03
2.731000000000000000e+03 3.813743972778320312e+01 1.505954551696777344e+01 -7.504524588584899902e-01 1.045703813433647156e-01 -1.937646269798278809e-01 1.157104745507240295e-01
2.732000000000000000e+03 2.583820724487304688e+01 -1.261583042144775391e+01 -2.453078776597976685e-01 -6.623272895812988281e-01 -2.722905576229095459e-01 -1.177754476666450500e-01
2.733000000000000000e+03 7.034638214111328125e+01 1.301907634735107422e+01 2.233201980590820312e+00 7.824304580688476562e+00 3.017251968383789062e+00 2.660748004913330078e+00
2.734000000000000000e+03 6.962452697753906250e+01 1.342416858673095703e+01 8.326617479324340820e-01 1.018207550048828125e+01 3.304421186447143555e+00 2.422731876373291016e+00
2.735000000000000000e+03 3.193782806396484375e+01 1.998753929138183594e+01 -3.557960391044616699e-01 -6.491573899984359741e-02 -1.262135356664657593e-01 2.796913385391235352e-01
2.736000000000000000e+03 4.525347518920898438e+01 -1.385201835632324219e+01 -4.505318030714988708e-02 2.791561782360076904e-01 7.023089379072189331e-02 -2.359471768140792847e-01
2.737000000000000000e+03 2.590989685058593750e+01 3.272638702392578125e+01 1.813334822654724121e-01 -1.819387376308441162e-01 -1.815756550058722496e-04 1.865440309047698975e-01
2.738000000000000000e+03 6.938307952880859375e+01 -1.837750816345214844e+01 -2.454321384429931641e-01 1.725724577903747559e+00 4.440877437591552734e-01 1.341515064239501953e+00
2.739000000000000000e+03 4.941030120849609375e+01 2.328338432312011719e+01 -4.622909799218177795e-02 1.004336960613727570e-02 -1.085571944713592529e-02 1.484068483114242554e-01
2.740000000000000000e+03 4.611371994018554688e+01 -1.552210330963134766e+01 -3.292756676673889160e-01 5.093259811401367188e-01 5.401509627699851990e-02 -9.313606470823287964e-02
2.741000000000000000e+03 6.342751312255859375e+01 -1.394177627563476562e+01 -1.177942514419555664e+00 3.550065994262695312e+00 7.116370201110839844e-01 1.463935971260070801e-01
2.742000000000000000e+03 6.273595428466796875e+01 -1.477056407928466797e+01 -1.106158614158630371e+00 3.693840026855468750e+00 7.763044238090515137e-01 1.374003887176513672e-01
2.743000000000000000e+03 4.449308776855468750e+01 -1.405785274505615234e+01 -3.853356838226318359e-01 3.771252930164337158e-01 -2.463117241859436035e-03 -2.760440111160278320e-01
2.744000000000000000e+03 4.138198089599609375e+01 -6.976763248443603516e+00 4.814054369926452637e-01 -1.671568155288696289e-01 9.427458792924880981e-02 -2.530331313610076904e-01
2.745000000000000000e+03 4.147765350341796875e+01 -8.511887550354003906e+00 4.438492357730865479e-01 -8.977647125720977783e-02 1.062218323349952698e-01 -3.221652805805206299e-01
2.746000000000000000e+03 1.231404209136962891e+01 -5.446823120117187500e+00 -1.600862480700016022e-02 -2.120880596339702606e-02 -1.116522960364818573e-02 -6.851593498140573502e-03
2.747000000000000000e+03 4.454780578613281250e+01 -1.490102863311767578e+01 -3.584791123867034912e-01 2.258158922195434570e-01 -3.979896754026412964e-02 -1.636886000633239746e-01
2.748000000000000000e+03 7.511056900024414062e+00 -3.925893545150756836e+00 -2.462176373228430748e-03 -2.427898347377777100e-03 -1.467022462747991085e-03 5.216346122324466705e-03
2.749000000000000000e+03 6.945839691162109375e+01 -2.024705886840820312e+01 8.941025286912918091e-02 3.015708446502685547e+00 9.315356016159057617e-01 1.142564654350280762e+00
2.750000000000000000e+03 7.428939819335937500e+01 -1.985780715942382812e+01 -9.207698702812194824e-01 7.308747768402099609e+00 1.916393280029296875e+00 5.586519241333007812e-01
2.751000000000000000e+03 6.932012176513671875e+01 1.552745342254638672e+01 -7.653179764747619629e-01 8.848711013793945312e+00 2.425017833709716797e+00 6.159850358963012695e-01
2.752000000000000000e+03 6.905113983154296875e+01 1.451326560974121094e+01 -5.096392631530761719e-01 9.952323913574218750e+00 2.832805395126342773e+00 8.698419332504272461e-01
2.753000000000000000e+03 7.046075344085693359e+00 -2.843678951263427734e+00 6.205447949469089508e-03 2.825258765369653702e-03 2.709212014451622963e-03 8.826195262372493744e-03
2.754000000000000000e+03 7.087085723876953125e+01 1.319566440582275391e+01 1.881889700889587402e+00 7.707402706146240234e+00 2.876787662506103516e+00 2.205972671508789062e+00
2.755000000000000000e+03 7.131517028808593750e+01 1.367508125305175781e+01 1.562441110610961914e+00 7.227012157440185547e+00 2.636836051940917969e+00 2.026484489440917969e+00
2.756000000000000000e+03 2.844121551513671875e+01 -1.291604137420654297e+01 -1.846449524164199829e-01 -2.043673247098922729e-01 -1.167036816477775574e-01 1.312862038612365723e-01
2.757000000000000000e+03 3.219583892822265625e+01 2.146789932250976562e+01 -2.698059380054473877e-01 -6.776979565620422363e-02 -1.012727245688438416e-01 2.881924510002136230e-01
2.758000000000000000e+03 7.426117420196533203e+00 1.191949844360351562e+01 8.821435272693634033e-03 -6.592584773898124695e-03 6.686551496386528015e-04 4.785236902534961700e-03
2.759000000000000000e+03 3.722988510131835938e+01 2.590704727172851562e+01 -1.228041853755712509e-02 -6.166374310851097107e-02 -2.218324877321720123e-02 3.538109660148620605e-01
2.760000000000000000e+03 3.897904872894287109e+00 -1.950926017761230469e+01 -1.138493139296770096e-02 -9.650936722755432129e-02 -3.236829116940498352e-02 -6.663900613784790039e-02
2.761000000000000000e+03 5.972795486450195312e+01 -8.222125053405761719e+00 6.938260197639465332e-01 4.235786437988281250e+00 1.478883743286132812e+00 1.325277566909790039e+00
2.762000000000000000e+03 4.968817901611328125e+01 -2.606997680664062500e+01 1.601332277059555054e-01 7.696074247360229492e-01 2.789222002029418945e-01 1.088355854153633118e-02
2.763000000000000000e+03 4.785942077636718750e+01 2.810863685607910156e+01 3.613503277301788330e-01 2.550316154956817627e-01 1.849145740270614624e-01 1.468140780925750732e-01
2.764000000000000000e+03 6.170452880859375000e+01 1.809921646118164062e+01 -1.506295353174209595e-01 1.778729438781738281e+00 4.884299635887145996e-01 -1.144716382026672363e+00
2.765000000000000000e+03 5.194430923461914062e+01 2.435535621643066406e+01 1.295628994703292847e-01 4.301318228244781494e-01 1.679084151983261108e-01 -7.623340934514999390e-02
2.766000000000000000e+03 4.556158065795898438e+01 2.604966926574707031e+01 1.276156753301620483e-01 2.697421237826347351e-02 4.637696966528892517e-02 3.151367902755737305e-01
2.767000000000000000e+03 4.611047744750976562e+01 2.223930168151855469e+01 -2.809827625751495361e-01 -1.100811585783958435e-01 -1.173191741108894348e-01 4.203450977802276611e-01
2.768000000000000000e+03 4.675929260253906250e+01 2.105575370788574219e+01 -4.882658421993255615e-01 -1.837926805019378662e-01 -2.016175538301467896e-01 4.276751875877380371e-01
2.769000000000000000e+03 7.090059661865234375e+01 1.489765834808349609e+01 3.767777681350708008e-01 8.000947952270507812e+00 2.513317584991455078e+00 1.549214601516723633e+00
2.770000000000000000e+03 7.073026275634765625e+01 1.392913818359375000e+01 1.245389938354492188e+00 8.012604713439941406e+00 2.777398347854614258e+00 2.071680784225463867e+00
2.771000000000000000e+03 5.620684814453125000e+01 -3.679321050643920898e+00 4.690539538860321045e-01 1.628010571002960205e-01 1.895564943552017212e-01 -1.935701370239257812e-01
2.772000000000000000e+03 5.863162994384765625e+01 -1.334758663177490234e+01 -4.283104240894317627e-01 3.784035682678222656e+00 1.006717562675476074e+00 1.155206203460693359e+00
2.773000000000000000e+03 4.751462173461914062e+01 -2.603327560424804688e+01 1.728551834821701050e-01 5.679740905761718750e-01 2.222487926483154297e-01 -4.720224440097808838e-02
2.774000000000000000e+03 5.298068523406982422e+00 -1.005365276336669922e+01 -1.885003224015235901e-02 -1.396924536675214767e-02 -9.845783002674579620e-03 -1.335320994257926941e-02
2.775000000000000000e+03 4.961176300048828125e+01 2.894459724426269531e+01 4.382438659667968750e-01 4.395091235637664795e-01 2.633258998394012451e-01 2.559077367186546326e-02
2.776000000000000000e+03 1.932845687866210938e+01 2.024069023132324219e+01 -1.677133738994598389e-01 -2.435512468218803406e-02 -5.762054771184921265e-02 1.516730934381484985e-01
2.777000000000000000e+03 1.885752677917480469e+01 -9.182266235351562500e+00 -2.689713835716247559e-01 3.673676773905754089e-02 -6.967038661241531372e-02 1.667682453989982605e-02
2.778000000000000000e+03 4.347975730895996094e+00 7.386925220489501953e+00 -2.611597068607807159e-03 -6.430931389331817627e-03 -2.712758490815758705e-03 1.085461024194955826e-02
2.779000000000000000e+03 6.441027832031250000e+01 -1.801754570007324219e+01 -8.073459267616271973e-01 2.671433210372924805e+00 5.592262148857116699e-01 -5.150155425071716309e-01
2.780000000000000000e+03 7.034415435791015625e+01 -2.303723526000976562e+01 1.565003395080566406e-01 4.154593944549560547e+00 1.293328285217285156e+00 8.780131936073303223e-01
2.781000000000000000e+03 7.127188873291015625e+01 -2.234436988830566406e+01 4.292921721935272217e-02 4.698834896087646484e+00 1.422529220581054688e+00 1.067107200622558594e+00
2.782000000000000000e+03 5.539543533325195312e+01 1.457509899139404297e+01 -1.243232607841491699e+00 3.731787800788879395e-01 -2.610161602497100830e-01 2.604889571666717529e-01
2.783000000000000000e+03 4.292318725585937500e+01 -2.407404899597167969e+01 3.856795653700828552e-02 1.701372712850570679e-01 6.261156499385833740e-02 -1.353931725025177002e-01
2.784000000000000000e+03 4.434840393066406250e+01 -2.450994491577148438e+01 2.781545557081699371e-02 2.601557075977325439e-01 8.639134466648101807e-02 -1.176220104098320007e-01
2.785000000000000000e+03 4.427952575683593750e+01 -2.612457275390625000e+01 1.676406115293502808e-01 3.343698978424072266e-01 1.506031453609466553e-01 -1.243319362401962280e-01
2.786000000000000000e+03 2.943244934082031250e+01 2.217465209960937500e+01 -2.200523018836975098e-01 -5.824059993028640747e-02 -8.348787575960159302e-02 2.615781426429748535e-01
2.787000000000000000e+03 7.604906463623046875e+01 1.858340454101562500e+01 -3.075261041522026062e-02 6.708283424377441406e+00 2.003259181976318359e+00 6.062132120132446289e-01
2.788000000000000000e+03 6.494526863098144531e+00 -2.667103958129882812e+01 1.016492489725351334e-02 -1.986638456583023071e-01 -5.654967948794364929e-02 -1.088175177574157715e-01
2.789000000000000000e+03 4.074643707275390625e+01 1.686081123352050781e+01 -8.418445587158203125e-01 1.797850430011749268e-01 -1.986178457736968994e-01 2.015334069728851318e-01
2.790000000000000000e+03 5.438980102539062500e+00 -2.231619453430175781e+01 -6.537878420203924179e-03 -1.420259624719619751e-01 -4.456914961338043213e-02 -9.426271170377731323e-02
2.791000000000000000e+03 5.463607788085937500e+00 -2.002858161926269531e+01 -1.633998192846775055e-02 -1.091400459408760071e-01 -3.764400631189346313e-02 -8.848911523818969727e-02
2.792000000000000000e+03 6.505424976348876953e+00 -4.417889595031738281e+00 1.360435970127582550e-03 -2.865898888558149338e-03 -4.516388580668717623e-04 9.483890607953071594e-03
2.793000000000000000e+03 6.852578735351562500e+01 1.584776401519775391e+01 -1.042961835861206055e+00 8.730581283569335938e+00 2.306285858154296875e+00 -1.959512382745742798e-01
2.794000000000000000e+03 6.955376434326171875e+01 1.656063270568847656e+01 -7.924329042434692383e-01 8.194082260131835938e+00 2.220494985580444336e+00 3.385310471057891846e-01
2.795000000000000000e+03 6.184404373168945312e+01 2.065864562988281250e+01 -1.005372852087020874e-01 2.472368717193603516e+00 7.115494608879089355e-01 -1.115526556968688965e+00
2.796000000000000000e+03 6.298060226440429688e+01 2.804610633850097656e+01 9.166493266820907593e-02 3.344274520874023438e+00 1.030781865119934082e+00 -6.745207309722900391e-01
2.797000000000000000e+03 3.068190765380859375e+01 2.289299583435058594e+01 -1.831875145435333252e-01 -8.497498184442520142e-02 -8.044874668121337891e-02 2.848435938358306885e-01
2.798000000000000000e+03 1.187266635894775391e+01 -2.632938957214355469e+01 2.400813437998294830e-02 -1.894112378358840942e-01 -4.962093383073806763e-02 -1.629173010587692261e-01
2.799000000000000000e+03 1.348760795593261719e+01 2.272805404663085938e+01 -6.526920944452285767e-02 -2.781657129526138306e-02 -2.792573533952236176e-02 9.734612703323364258e-02
2.800000000000000000e+03 1.093293476104736328e+01 -2.320673561096191406e+01 -1.313128229230642319e-02 -1.538137346506118774e-01 -5.008350312709808350e-02 -1.706901192665100098e-01
2.801000000000000000e+03 4.358975601196289062e+01 2.059637260437011719e+01 -5.581875443458557129e-01 -3.424967639148235321e-03 -1.684837490320205688e-01 4.487444758415222168e-01
2.802000000000000000e+03 6.061448669433593750e+01 -2.913795852661132812e+01 2.970898747444152832e-01 2.759763479232788086e+00 9.170560240745544434e-01 8.719591051340103149e-02
2.803000000000000000e+03 2.091376495361328125e+01 2.325378990173339844e+01 -1.046685650944709778e-01 -7.985085248947143555e-02 -5.535582453012466431e-02 1.866907179355621338e-01
2.804000000000000000e+03 1.140567398071289062e+01 -5.899132251739501953e+00 -1.605714112520217896e-02 -2.008826471865177155e-02 -1.084362156689167023e-02 -5.071149673312902451e-03
2.805000000000000000e+03 2.875912284851074219e+01 2.345143890380859375e+01 -1.596363633871078491e-01 -9.168823808431625366e-02 -7.539737969636917114e-02 2.515548467636108398e-01
2.806000000000000000e+03 3.099901199340820312e+01 -1.572976779937744141e+01 -2.672149837017059326e-01 1.977270990610122681e-01 -2.084636129438877106e-02 6.978856772184371948e-02
2.807000000000000000e+03 4.740586090087890625e+01 -2.880368041992187500e+01 3.466273844242095947e-01 6.600961089134216309e-01 3.020170629024505615e-01 -3.099965862929821014e-02
2.808000000000000000e+03 8.672376632690429688e+00 -3.751018762588500977e+00 -2.815840300172567368e-03 -6.201433134265244007e-04 -1.030795043334364891e-03 4.243317060172557831e-03
2.809000000000000000e+03 6.496176147460937500e+01 -2.382222557067871094e+01 2.029901444911956787e-01 3.037042856216430664e+00 9.720098972320556641e-01 -6.729099899530410767e-02
2.810000000000000000e+03 6.445240783691406250e+01 -2.266050529479980469e+01 3.163560107350349426e-02 2.928626060485839844e+00 8.880785107612609863e-01 -2.517166435718536377e-01
2.811000000000000000e+03 1.672336196899414062e+01 -1.046486282348632812e+01 -2.090964317321777344e-01 -5.369364749640226364e-03 -6.433974206447601318e-02 -6.743808090686798096e-02
2.812000000000000000e+03 1.869492912292480469e+01 -1.727439117431640625e+01 -1.180394887924194336e-01 -1.876734048128128052e-01 -9.171386808156967163e-02 -2.619231641292572021e-01
2.813000000000000000e+03 1.705929565429687500e+01 -1.879853820800781250e+01 -8.406246453523635864e-02 -1.605085581541061401e-01 -7.337130606174468994e-02 -2.398751527070999146e-01
2.814000000000000000e+03 5.223617076873779297e+00 1.522482967376708984e+01 -5.029079969972372055e-03 -1.486426778137683868e-02 -5.968004465103149414e-03 4.760750569403171539e-03
2.815000000000000000e+03 9.791929244995117188e+00 -2.045840072631835938e+01 -3.961012884974479675e-02 -1.164074912667274475e-01 -4.680528491735458374e-02 -1.464169621467590332e-01
2.816000000000000000e+03 7.124684143066406250e+01 -2.354320716857910156e+01 1.323951780796051025e-01 4.883786201477050781e+00 1.504854321479797363e+00 9.886183142662048340e-01
2.817000000000000000e+03 1.169437122344970703e+01 -2.474077224731445312e+01 1.665221154689788818e-02 -1.808290332555770874e-01 -4.925304651260375977e-02 -1.746843606233596802e-01
2.818000000000000000e+03 6.776569366455078125e+01 1.622761154174804688e+01 -1.191099405288696289e+00 8.014576911926269531e+00 2.047043323516845703e+00 -8.107395768165588379e-01
2.819000000000000000e+03 6.499252319335937500e+01 2.245499610900878906e+01 -3.798550665378570557e-01 4.280019283294677734e+00 1.170049190521240234e+00 -1.153377652168273926e+00
2.820000000000000000e+03 7.284189605712890625e+01 -2.702083587646484375e+01 2.386662364006042480e-01 5.640183448791503906e+00 1.763654947280883789e+00 7.116596698760986328e-01
2.821000000000000000e+03 7.453132629394531250e+01 2.305672645568847656e+01 -3.073531389236450195e-01 6.701583862304687500e+00 1.918269276618957520e+00 2.320637702941894531e-01
2.822000000000000000e+03 1.509991550445556641e+01 -1.970755195617675781e+01 -6.711035966873168945e-02 -1.420652121305465698e-01 -6.275267153978347778e-02 -2.190537601709365845e-01
2.823000000000000000e+03 5.784804153442382812e+01 1.748040580749511719e+01 -6.509429812431335449e-01 7.960981130599975586e-01 4.354654997587203979e-02 -1.560118794441223145e-01
2.824000000000000000e+03 9.085249900817871094e+00 1.659216117858886719e+01 -2.414982020854949951e-02 -4.851718898862600327e-03 -8.700462058186531067e-03 1.733460836112499237e-02
2.825000000000000000e+03 1.363197040557861328e+01 -2.199074745178222656e+01 -2.791643887758255005e-02 -1.547457277774810791e-01 -5.479865148663520813e-02 -2.044690847396850586e-01
2.826000000000000000e+03 6.400533294677734375e+01 2.267854309082031250e+01 -2.366889268159866333e-01 3.748614788055419922e+00 1.053577780723571777e+00 -1.111529111862182617e+00
2.827000000000000000e+03 6.903060150146484375e+01 1.971517372131347656e+01 -9.369372129440307617e-01 6.656548976898193359e+00 1.715883612632751465e+00 -3.952842652797698975e-01
2.828000000000000000e+03 6.922575378417968750e+01 2.095013999938964844e+01 -7.923452854156494141e-01 6.400839805603027344e+00 1.682548284530639648e+00 -4.502054452896118164e-01
2.829000000000000000e+03 1.379723072052001953e+01 -1.662924385070800781e+01 -1.154780387878417969e-01 -7.829274982213973999e-02 -5.813123658299446106e-02 -1.742412447929382324e-01
2.830000000000000000e+03 8.241973876953125000e+00 -1.035674762725830078e+01 -5.606687813997268677e-02 -1.664159260690212250e-02 -2.181254141032695770e-02 -3.030055016279220581e-02
2.831000000000000000e+03 1.589579105377197266e+01 -1.558873558044433594e+01 -1.472245603799819946e-01 -8.185750246047973633e-02 -6.872461736202239990e-02 -1.906985342502593994e-01
2.832000000000000000e+03 1.306039714813232422e+01 -1.507471942901611328e+01 -1.138115897774696350e-01 -6.276254355907440186e-02 -5.297223851084709167e-02 -1.418922841548919678e-01
2.833000000000000000e+03 5.625389862060546875e+01 1.133603668212890625e+01 -1.261711001396179199e+00 3.111210651695728302e-03 -3.775799572467803955e-01 1.199664920568466187e-01
2.834000000000000000e+03 5.638205337524414062e+01 1.206803607940673828e+01 -1.217994570732116699e+00 1.185683682560920715e-01 -3.298278450965881348e-01 8.694160729646682739e-02
2.835000000000000000e+03 5.856589126586914062e+01 1.172538852691650391e+01 -1.219925045967102051e+00 1.491087973117828369e-01 -3.212448656558990479e-01 -3.164265155792236328e-01
2.836000000000000000e+03 5.552968597412109375e+01 1.144010448455810547e+01 -1.332795262336730957e+00 1.878337189555168152e-02 -3.942035436630249023e-01 1.863835453987121582e-01
2.837000000000000000e+03 5.768267440795898438e+01 1.111745452880859375e+01 -8.693843483924865723e-01 1.343087404966354370e-01 -2.205226868391036987e-01 -5.525340884923934937e-02
2.838000000000000000e+03 5.833404159545898438e+01 1.100277614593505859e+01 -5.024119019508361816e-01 -8.189275860786437988e-02 -1.752914041280746460e-01 -1.257435828447341919e-01
2.839000000000000000e+03 5.787995910644531250e+01 1.184319686889648438e+01 -1.162547826766967773e+00 2.026551663875579834e-01 -2.879678010940551758e-01 -1.457677632570266724e-01
2.840000000000000000e+03 5.562327957153320312e+01 1.217523193359375000e+01 -1.201084613800048828e+00 3.032958880066871643e-02 -3.512264788150787354e-01 1.258166432380676270e-01
2.841000000000000000e+03 5.908870315551757812e+01 1.140463638305664062e+01 -7.589434385299682617e-01 -1.344439089298248291e-01 -2.680162191390991211e-01 -3.955792486667633057e-01
2.842000000000000000e+03 5.697513580322265625e+01 1.122857379913330078e+01 -1.110296010971069336e+00 2.322937734425067902e-02 -3.261199891567230225e-01 7.081011682748794556e-02
2.843000000000000000e+03 5.713785552978515625e+01 1.195744419097900391e+01 -1.205786943435668945e+00 1.959409266710281372e-01 -3.029537796974182129e-01 -1.037631779909133911e-01
2.844000000000000000e+03 5.328820800781250000e+01 1.160719490051269531e+01 -8.311547636985778809e-01 -1.261429935693740845e-01 -2.871893346309661865e-01 1.577433347702026367e-01
2.845000000000000000e+03 5.253549957275390625e+01 1.165647983551025391e+01 -4.942106902599334717e-01 1.716077029705047607e-01 -9.678089618682861328e-02 2.528617978096008301e-01
2.846000000000000000e+03 5.479130554199218750e+01 1.151412296295166016e+01 -1.277070283889770508e+00 -7.573515921831130981e-02 -4.058416485786437988e-01 1.555617898702621460e-01
2.847000000000000000e+03 5.334827423095703125e+01 1.234487724304199219e+01 -8.829246163368225098e-01 7.559306174516677856e-02 -2.421994805335998535e-01 4.566282033920288086e-01
2.848000000000000000e+03 5.404014587402343750e+01 1.155970287322998047e+01 -1.067203760147094727e+00 8.093041181564331055e-02 -2.958819866180419922e-01 1.984499543905258179e-01
2.849000000000000000e+03 5.486436843872070312e+01 1.225100231170654297e+01 -1.129180073738098145e+00 5.860009044408798218e-02 -3.211739957332611084e-01 2.985046803951263428e-01
2.850000000000000000e+03 5.258906936645507812e+01 1.239457130432128906e+01 -7.899897098541259766e-01 -4.833040758967399597e-02 -2.514960467815399170e-01 3.922243118286132812e-01
2.851000000000000000e+03 5.410670852661132812e+01 1.229697513580322266e+01 -1.068014740943908691e+00 -2.817692607641220093e-02 -3.288574814796447754e-01 3.059665858745574951e-01
2.852000000000000000e+03 5.079259490966796875e+01 1.175848960876464844e+01 -1.088122874498367310e-01 1.116895526647567749e-01 8.631797390989959240e-04 -2.324613742530345917e-02
2.853000000000000000e+03 5.168463134765625000e+01 1.170880699157714844e+01 -1.654143482446670532e-01 -2.460783272981643677e-01 -1.234477981925010681e-01 9.889363497495651245e-02
2.854000000000000000e+03 5.173221206665039062e+01 1.244730472564697266e+01 -5.467385053634643555e-01 -1.109310537576675415e-01 -1.973008662462234497e-01 4.834030568599700928e-01
2.855000000000000000e+03 5.029224395751953125e+01 1.235795402526855469e+01 2.344831824302673340e-01 3.971977531909942627e-01 1.895042806863784790e-01 -2.527569532394409180e-01
2.856000000000000000e+03 5.083468627929687500e+01 1.249738883972167969e+01 1.198671162128448486e-01 -5.102226138114929199e-01 -1.171066537499427795e-01 3.026329576969146729e-01
2.857000000000000000e+03 5.060892486572265625e+01 1.101505851745605469e+01 4.947654902935028076e-03 -1.732869422994554043e-03 9.644355741329491138e-04 9.340412914752960205e-03
2.858000000000000000e+03 5.112440109252929688e+01 1.070893383026123047e+01 1.145427208393812180e-02 -3.715268801897764206e-03 2.321701031178236008e-03 5.581917706876993179e-03
2.859000000000000000e+03 5.041934967041015625e+01 1.028696346282958984e+01 1.830786280333995819e-02 7.009918335825204849e-03 7.595334202051162720e-03 1.035134214907884598e-02
2.860000000000000000e+03 5.004220962524414062e+01 1.050694465637207031e+01 1.293181907385587692e-02 1.641154848039150238e-02 8.803010918200016022e-03 4.966988228261470795e-03
2.861000000000000000e+03 5.178373336791992188e+01 1.017061328887939453e+01 2.095078676939010620e-02 -4.772724118083715439e-03 4.853419028222560883e-03 4.839512519538402557e-03
2.862000000000000000e+03 5.085367965698242188e+01 1.018546295166015625e+01 2.309706434607505798e-02 -6.623482331633567810e-03 4.942074418067932129e-03 9.173604659736156464e-03
2.863000000000000000e+03 5.128680419921875000e+01 1.014740562438964844e+01 2.096259035170078278e-02 -1.209191512316465378e-02 2.661202335730195045e-03 7.001933176070451736e-03
2.864000000000000000e+03 5.171361923217773438e+01 1.091773223876953125e+01 1.885036379098892212e-02 -6.497955881059169769e-03 3.705722047016024590e-03 1.667344011366367340e-03
2.865000000000000000e+03 5.551848602294921875e+01 1.065485763549804688e+01 2.574842656031250954e-03 6.033882033079862595e-03 2.582617569714784622e-03 -4.649664741009473801e-03
2.866000000000000000e+03 5.716370010375976562e+01 1.041251468658447266e+01 2.395615214481949806e-03 3.613154331105761230e-05 7.295240066014230251e-04 -1.091574449674226344e-04
2.867000000000000000e+03 5.542705535888671875e+01 9.919204711914062500e+00 3.013273235410451889e-03 -8.810868486762046814e-03 -1.739278552122414112e-03 1.447621471015736461e-04
2.868000000000000000e+03 5.779384613037109375e+01 1.013771343231201172e+01 -4.134680784773081541e-04 -1.186026143841445446e-03 -4.798482696060091257e-04 5.110422353027388453e-05
2.869000000000000000e+03 5.637057495117187500e+01 1.053330230712890625e+01 -1.880948781035840511e-03 -8.319514454342424870e-04 -8.138700504787266254e-04 2.097470220178365707e-03
2.870000000000000000e+03 5.701178741455078125e+01 9.680922508239746094e+00 -1.358686108142137527e-02 -2.985559171065688133e-03 -4.971726331859827042e-03 6.959588266909122467e-03
2.871000000000000000e+03 5.624890518188476562e+01 9.799672126770019531e+00 4.966696724295616150e-03 1.410366129130125046e-02 5.721107590943574905e-03 -1.089007221162319183e-02
2.872000000000000000e+03 3.058919191360473633e+00 3.710482716560363770e-01 1.029497128911316395e-03 -8.136366523103788495e-05 2.844400296453386545e-04 1.271494693355634809e-04
2.873000000000000000e+03 3.884933710098266602e+00 3.823724985122680664e-01 5.079506081528961658e-04 1.383896451443433762e-04 1.939020730787888169e-04 5.327117833076044917e-05
2.874000000000000000e+03 4.025801181793212891e+00 1.122372508049011230e+00 1.098438515327870846e-03 -2.705229853745549917e-04 2.483746502548456192e-04 4.797096480615437031e-04
2.875000000000000000e+03 1.729085445404052734e+00 1.105241179466247559e+00 4.152025212533771992e-05 -1.885808160295709968e-04 -4.411816917126998305e-05 -4.396565782371908426e-04
2.876000000000000000e+03 1.433710694313049316e+00 3.652411401271820068e-01 3.969218523707240820e-04 1.355008425889536738e-04 1.597268128534778953e-04 -1.063978415913879871e-04
2.877000000000000000e+03 6.956086158752441406e-01 3.891016840934753418e-01 3.114743158221244812e-04 1.357253349851816893e-04 1.341598981525748968e-04 1.661087007960304618e-04
2.878000000000000000e+03 3.642284870147705078e-01 9.534841775894165039e-01 -4.405408981256186962e-04 -7.098502101143822074e-05 -1.534577750135213137e-04 -1.817175943870097399e-04
2.879000000000000000e+03 2.239435195922851562e+00 3.632993698120117188e-01 4.725678008981049061e-04 -1.622965792194008827e-04 9.308136213803663850e-05 -2.498759422451257706e-04
2.880000000000000000e+03 3.251289129257202148e+00 1.111048340797424316e+00 -1.205777152790687978e-04 -2.352516894461587071e-04 -1.067488192347809672e-04 -3.240666410420089960e-04
2.881000000000000000e+03 2.483307361602783203e+00 1.103299379348754883e+00 7.153102778829634190e-04 -1.364794006804004312e-04 1.736492558848112822e-04 -5.925492132519138977e-06
2.882000000000000000e+03 1.042485833168029785e+00 1.129101634025573730e+00 1.584938872838392854e-04 5.300264456309378147e-04 2.065560984192416072e-04 -4.359685699455440044e-04
2.883000000000000000e+03 8.019037246704101562e+00 -5.698001384735107422e-01 2.088466286659240723e-02 -2.986266918014734983e-04 6.175810471177101135e-03 -5.290966946631669998e-04
2.884000000000000000e+03 8.802864074707031250e+00 -1.147397160530090332e+00 1.971211284399032593e-02 2.385478699579834938e-03 6.629277486354112625e-03 3.351418767124414444e-03
2.885000000000000000e+03 7.366508960723876953e+00 -1.208535552024841309e+00 1.714953407645225525e-02 -8.502903801854699850e-05 5.119351204484701157e-03 5.857939831912517548e-03
2.886000000000000000e+03 9.578845977783203125e+00 -1.131019115447998047e+00 2.330988086760044098e-02 -5.555178504437208176e-03 5.326410755515098572e-03 1.273662783205509186e-03
2.887000000000000000e+03 8.069246292114257812e+00 -1.189969897270202637e+00 2.239486202597618103e-02 -4.990676883608102798e-03 5.221255589276552200e-03 4.227619618177413940e-03
2.888000000000000000e+03 9.559395790100097656e+00 -3.910191655158996582e-01 2.933734096586704254e-02 3.621390787884593010e-03 9.887619875371456146e-03 9.885239705909043550e-05
2.889000000000000000e+03 7.455066680908203125e+00 -6.983375549316406250e-01 1.863252557814121246e-02 4.065106913913041353e-04 5.711710546165704727e-03 5.577952601015567780e-03
2.890000000000000000e+03 7.593650817871093750e+00 -2.498020380735397339e-01 2.665761299431324005e-02 4.381048958748579025e-03 9.311598725616931915e-03 3.767619607970118523e-03
2.891000000000000000e+03 8.711921691894531250e+00 -4.073971211910247803e-01 2.774502523243427277e-02 -3.801608923822641373e-03 7.183025125414133072e-03 1.482088351622223854e-03
2.892000000000000000e+03 5.357113838195800781e+00 -3.411730229854583740e-01 2.106006257236003876e-03 1.979192020371556282e-03 1.225559506565332413e-03 -1.816640142351388931e-03
2.893000000000000000e+03 4.608037471771240234e+00 -2.835304141044616699e-01 5.359573755413293839e-03 -2.451843582093715668e-03 8.723190985620021820e-04 -1.380981178954243660e-03
2.894000000000000000e+03 4.710992336273193359e+00 -1.023530364036560059e+00 1.246526651084423065e-02 -3.116954118013381958e-03 2.804493764415383339e-03 2.487776335328817368e-03
2.895000000000000000e+03 6.835397243499755859e+00 -7.025487422943115234e-01 1.698990538716316223e-02 -4.118858836591243744e-03 3.861313685774803162e-03 7.727509364485740662e-03
2.896000000000000000e+03 6.662335872650146484e+00 -1.208234548568725586e+00 2.347076870501041412e-02 -3.263361286371946335e-03 6.062222644686698914e-03 3.130085533484816551e-03
2.897000000000000000e+03 5.497839450836181641e+00 -1.081173062324523926e+00 2.399520948529243469e-02 7.870430126786231995e-03 9.559691883623600006e-03 3.900079056620597839e-03
2.898000000000000000e+03 6.861754417419433594e+00 -2.543141841888427734e-01 1.578968018293380737e-02 -4.713047295808792114e-03 3.322989679872989655e-03 2.108194166794419289e-03
2.899000000000000000e+03 6.181279182434082031e+00 -9.049344062805175781e-01 2.470787428319454193e-02 3.555309958755970001e-03 8.478955365717411041e-03 6.374733522534370422e-03
2.900000000000000000e+03 6.095579147338867188e+00 -3.066433668136596680e-01 5.531943868845701218e-03 3.417135216295719147e-03 2.684723818674683571e-03 4.329464398324489594e-03
2.901000000000000000e+03 6.431427001953125000e+00 1.820162296295166016e+00 -6.399534177035093307e-04 -6.050931915524415672e-06 -1.938013010658323765e-04 3.169300034642219543e-04
2.902000000000000000e+03 7.159246444702148438e+00 1.673283696174621582e+00 7.009744294919073582e-04 -7.472537254216149449e-05 1.878747279988601804e-04 -5.089542246423661709e-04
2.903000000000000000e+03 1.469936847686767578e+01 1.773380279541015625e+00 1.381508423946797848e-03 6.526792887598276138e-03 2.372490474954247475e-03 -2.253596670925617218e-03
2.904000000000000000e+03 1.445661830902099609e+01 2.640754699707031250e+00 7.797402795404195786e-04 2.647386630997061729e-03 1.028138096444308758e-03 3.853476664517074823e-04
2.905000000000000000e+03 9.594597816467285156e+00 2.746501922607421875e+00 4.223458527121692896e-04 9.406380704604089260e-04 4.088951682206243277e-04 2.308979601366445422e-04
2.906000000000000000e+03 7.967365264892578125e+00 1.639453649520874023e+00 4.481729047256521881e-05 3.872187517117708921e-04 1.296108093811199069e-04 8.034828351810574532e-05
2.907000000000000000e+03 1.256250381469726562e+01 1.591072559356689453e+00 1.798833720386028290e-03 -4.601118271239101887e-04 4.016165621578693390e-04 -2.175997069571167231e-04
2.908000000000000000e+03 1.195436763763427734e+01 1.626313209533691406e+00 1.293077482841908932e-03 7.903033983893692493e-04 6.250143051147460938e-04 -6.321036198642104864e-05
2.909000000000000000e+03 1.176981258392333984e+01 2.315680503845214844e+00 3.645379794761538506e-03 1.541470264783129096e-04 1.139858039095997810e-03 7.415568688884377480e-04
2.910000000000000000e+03 1.128148365020751953e+01 1.782198309898376465e+00 -1.312935375608503819e-03 -6.782246637158095837e-04 -5.973480292595922947e-04 -2.580816217232495546e-04
2.911000000000000000e+03 1.052827453613281250e+01 2.693688869476318359e+00 3.083096235059201717e-04 -3.555682196747511625e-04 -1.417757721355883405e-05 -3.444477333687245846e-04
2.912000000000000000e+03 9.096383094787597656e+00 2.099678754806518555e+00 -1.406924333423376083e-03 -7.058384362608194351e-04 -6.338288076221942902e-04 -6.364880246110260487e-04
2.913000000000000000e+03 1.042359733581542969e+01 1.879573464393615723e+00 -9.726602002047002316e-05 4.100521618966013193e-05 -1.687824078544508666e-05 2.652441908139735460e-04
2.914000000000000000e+03 8.796865463256835938e+00 1.672843456268310547e+00 4.499379137996584177e-04 -9.128082892857491970e-04 -1.388610980939120054e-04 -2.605681656859815121e-04
2.915000000000000000e+03 1.232376384735107422e+01 1.987425327301025391e+00 -3.370270598679780960e-03 -4.410969631862826645e-05 -1.024314085952937603e-03 1.944617979461327195e-04
2.916000000000000000e+03 1.316373729705810547e+01 1.650711774826049805e+00 -1.659493078477680683e-03 -8.890401659300550818e-05 -5.245191277936100960e-04 8.287590462714433670e-04
2.917000000000000000e+03 1.512185192108154297e+01 2.405154466629028320e+00 -3.173145698383450508e-03 -2.982847159728407860e-03 -1.846797880716621876e-03 1.389026409015059471e-03
2.918000000000000000e+03 1.427688312530517578e+01 2.106805086135864258e+00 -4.861882887780666351e-03 6.400548736564815044e-04 -1.266548410058021545e-03 -1.028846367262303829e-03
2.919000000000000000e+03 1.373222541809082031e+01 2.722819328308105469e+00 -1.509722787886857986e-03 -8.083748980425298214e-04 -6.954292766749858856e-04 1.622250420041382313e-04
2.920000000000000000e+03 1.373459720611572266e+01 1.684970498085021973e+00 9.223118540830910206e-04 7.771982345730066299e-04 5.098530091345310211e-04 -2.034444594755768776e-03
2.921000000000000000e+03 1.140512371063232422e+01 2.768403291702270508e+00 -1.774327014572918415e-03 -9.041206794790923595e-04 -8.035342907533049583e-04 -4.054470628034323454e-04
2.922000000000000000e+03 1.369023799896240234e+01 2.191561698913574219e+00 3.843302838504314423e-04 -3.876568516716361046e-04 -9.979740980270435102e-07 1.088973251171410084e-03
2.923000000000000000e+03 8.758806228637695312e+00 2.800725221633911133e+00 -9.892788511933758855e-05 -9.799825493246316910e-04 -3.236731572542339563e-04 -3.871812077704817057e-04
2.924000000000000000e+03 9.561607360839843750e+00 1.777740120887756348e+00 9.843209991231560707e-04 1.019312185235321522e-03 6.010899669490754604e-04 5.553817027248442173e-04
2.925000000000000000e+03 8.247145652770996094e+00 2.106858730316162109e+00 5.886668986931908876e-06 5.774268065579235554e-04 1.749940420268103480e-04 4.225145676173269749e-04
2.926000000000000000e+03 1.293806552886962891e+01 2.733785867691040039e+00 3.973775310441851616e-04 -4.248080367688089609e-04 -8.229151717387139797e-06 5.584877799265086651e-04
2.927000000000000000e+03 1.215185070037841797e+01 2.787881851196289062e+00 -5.427948781289160252e-04 1.585739431902766228e-03 3.128833486698567867e-04 -5.789296119473874569e-04
2.928000000000000000e+03 1.426091766357421875e+01 1.688389539718627930e+00 3.117425134405493736e-03 -1.936171553097665310e-03 3.543760685715824366e-04 6.452680099755525589e-05
2.929000000000000000e+03 1.298928642272949219e+01 2.174380540847778320e+00 2.025299472734332085e-03 2.647477085702121258e-04 6.870141369290649891e-04 -1.847686711698770523e-03
2.930000000000000000e+03 7.861133575439453125e+00 4.031277179718017578e+00 -4.353779368102550507e-04 -1.387987518683075905e-03 -5.470096366479992867e-04 4.939289647154510021e-04
2.931000000000000000e+03 7.410462379455566406e+00 3.546055316925048828e+00 1.163299893960356712e-03 9.557859157212078571e-04 6.357257370837032795e-04 -8.127397741191089153e-04
2.932000000000000000e+03 7.613649845123291016e+00 2.915391683578491211e+00 -3.675637417472898960e-04 -4.223117721267044544e-04 -2.369626454310491681e-04 -2.141613367712125182e-05
2.933000000000000000e+03 6.688477516174316406e+00 2.444559097290039062e+00 8.120940765365958214e-04 4.996925126761198044e-04 3.935359709430485964e-04 -4.006924864370375872e-04
2.934000000000000000e+03 8.198487281799316406e+00 3.243148326873779297e+00 4.094819014426320791e-04 1.474549761041998863e-03 5.652094841934740543e-04 -2.144438076356891543e-05
2.935000000000000000e+03 7.040536880493164062e+00 3.044068336486816406e+00 -1.050807186402380466e-03 -5.644123302772641182e-04 -4.845658259000629187e-04 9.655409376136958599e-04
2.936000000000000000e+03 7.417679786682128906e+00 2.185935020446777344e+00 -2.601723826956003904e-04 -5.472368793562054634e-04 -2.422227844363078475e-04 -4.309662836021743715e-05
2.937000000000000000e+03 2.034901237487792969e+01 5.342971324920654297e+00 -5.137168243527412415e-02 2.183584496378898621e-03 -1.475642900913953781e-02 -1.255035400390625000e-02
2.938000000000000000e+03 2.110828781127929688e+01 5.289262771606445312e+00 -4.505995661020278931e-02 4.184683784842491150e-03 -1.226258184760808945e-02 -1.410057954490184784e-02
2.939000000000000000e+03 1.883009910583496094e+01 5.447298526763916016e+00 -6.177042797207832336e-02 -4.055816680192947388e-03 -1.974787376821041107e-02 -1.101785525679588318e-02
2.940000000000000000e+03 1.954028892517089844e+01 4.657379150390625000e+00 -7.523671537637710571e-02 2.014772268012166023e-03 -2.196658216416835785e-02 -4.789012600667774677e-04
2.941000000000000000e+03 2.104417419433593750e+01 4.551930904388427734e+00 -4.915011674165725708e-02 2.294012578204274178e-03 -1.405683066695928574e-02 -3.628498874604701996e-03
2.942000000000000000e+03 1.878804969787597656e+01 4.708437442779541016e+00 -8.872010558843612671e-02 -2.518622903153300285e-03 -2.737161889672279358e-02 -1.537071657367050648e-03
2.943000000000000000e+03 2.029225349426269531e+01 4.605130195617675781e+00 -6.281094998121261597e-02 -2.643227635417133570e-04 -1.892258226871490479e-02 -2.344241132959723473e-03
2.944000000000000000e+03 1.958969306945800781e+01 5.395730018615722656e+00 -5.765710771083831787e-02 4.320167005062103271e-03 -1.600108295679092407e-02 -1.099848747253417969e-02
2.945000000000000000e+03 1.637983322143554688e+01 4.803785800933837891e+00 -1.243216469883918762e-01 1.307523809373378754e-03 -3.690423816442489624e-02 -6.198404007591307163e-04
2.946000000000000000e+03 1.298356437683105469e+01 4.704628467559814453e+00 -2.538148164749145508e-01 -7.391909603029489517e-03 -7.836201786994934082e-02 2.492927573621273041e-02
2.947000000000000000e+03 1.177423858642578125e+01 4.763041496276855469e+00 -8.729802370071411133e-01 -5.005890969187021255e-03 -2.633958160877227783e-01 3.820452466607093811e-02
2.948000000000000000e+03 1.018246746063232422e+01 5.674672126770019531e+00 7.295590825378894806e-03 7.591260224580764771e-02 2.496245689690113068e-02 -5.711195059120655060e-03
2.949000000000000000e+03 1.013370227813720703e+01 5.089568614959716797e+00 -9.268042445182800293e-02 -3.617114946246147156e-02 -3.865547105669975281e-02 4.873722419142723083e-02
2.950000000000000000e+03 9.284529685974121094e+00 5.854344367980957031e+00 -5.605489388108253479e-02 -5.892472341656684875e-02 -3.449388593435287476e-02 3.661536425352096558e-02
2.951000000000000000e+03 9.335826873779296875e+00 5.327028274536132812e+00 -5.949861183762550354e-02 3.980692103505134583e-02 -5.907507147639989853e-03 6.284505873918533325e-02
2.952000000000000000e+03 1.803861427307128906e+01 5.487761020660400391e+00 -6.381937861442565918e-02 4.219579510390758514e-03 -1.787993870675563812e-02 -1.036908477544784546e-02
2.953000000000000000e+03 1.639271926879882812e+01 5.543782234191894531e+00 -7.099415361881256104e-02 5.337231792509555817e-03 -1.969707757234573364e-02 -7.027964107692241669e-03
2.954000000000000000e+03 1.474550819396972656e+01 5.590154647827148438e+00 2.983732707798480988e-02 3.152554109692573547e-02 1.840885914862155914e-02 8.202633820474147797e-03
2.955000000000000000e+03 1.390083026885986328e+01 4.819621562957763672e+00 -2.507867217063903809e-01 1.871663890779018402e-02 -6.962102651596069336e-02 -4.177674651145935059e-03
2.956000000000000000e+03 1.220392990112304688e+01 4.634844303131103516e+00 -1.948770135641098022e-01 1.099991705268621445e-02 -5.516313016414642334e-02 -2.470825985074043274e-02
2.957000000000000000e+03 8.498252868652343750e+00 5.874431133270263672e+00 -1.325119007378816605e-02 -6.198104936629533768e-03 -5.834788549691438675e-03 2.770513296127319336e-02
2.958000000000000000e+03 8.731795310974121094e+00 5.240024566650390625e+00 -1.183555349707603455e-01 -6.991590559482574463e-02 -5.648143216967582703e-02 -9.156804298982024193e-04
2.959000000000000000e+03 7.731923580169677734e+00 5.859321117401123047e+00 -2.703619375824928284e-02 -1.931578107178211212e-02 -1.390559226274490356e-02 3.570263832807540894e-02
2.960000000000000000e+03 8.089856147766113281e+00 5.106512069702148438e+00 -8.513656258583068848e-02 -1.558402739465236664e-02 -3.021617606282234192e-02 1.303412206470966339e-02
2.961000000000000000e+03 1.065108299255371094e+01 4.762430191040039062e+00 -4.575662612915039062e-01 5.227694660425186157e-02 -1.215867996215820312e-01 6.697566062211990356e-02
2.962000000000000000e+03 1.380731105804443359e+01 5.398728847503662109e+00 5.002586916089057922e-02 1.444450579583644867e-03 1.544109545648097992e-02 1.111403922550380230e-03
2.963000000000000000e+03 1.556646156311035156e+01 4.829121589660644531e+00 -1.480079442262649536e-01 -1.042178831994533539e-02 -4.752891883254051208e-02 -1.129781454801559448e-02
2.964000000000000000e+03 1.556915283203125000e+01 5.569469928741455078e+00 -5.423920601606369019e-02 -3.119904734194278717e-02 -2.563147619366645813e-02 -1.533728092908859253e-02
2.965000000000000000e+03 1.719260978698730469e+01 4.777213573455810547e+00 -1.136749386787414551e-01 -9.491723030805587769e-04 -3.438723459839820862e-02 -1.103484537452459335e-03
2.966000000000000000e+03 1.800533866882324219e+01 4.748468875885009766e+00 -1.023695915937423706e-01 1.912888837978243828e-03 -3.013701178133487701e-02 -1.826958032324910164e-03
2.967000000000000000e+03 9.937987327575683594e+00 4.809810638427734375e+00 -2.893354296684265137e-01 -7.049383223056793213e-02 -1.079487726092338562e-01 4.795445594936609268e-03
2.968000000000000000e+03 1.475301074981689453e+01 4.849453449249267578e+00 -1.997052878141403198e-01 1.738241371640469879e-05 -5.990637466311454773e-02 -2.408760599792003632e-02
2.969000000000000000e+03 1.721569061279296875e+01 5.516857624053955078e+00 -6.808317452669143677e-02 -1.465354347601532936e-03 -2.086455747485160828e-02 -9.834470227360725403e-03
2.970000000000000000e+03 1.273300933837890625e+01 4.954238891601562500e+00 -2.567949891090393066e-01 -5.965153686702251434e-03 -7.882804423570632935e-02 -2.481944859027862549e-02
2.971000000000000000e+03 1.144375038146972656e+01 4.709188938140869141e+00 -5.109002590179443359e-01 -1.077415235340595245e-02 -1.565023362636566162e-01 7.056194823235273361e-03
2.972000000000000000e+03 9.219163894653320312e+00 4.895892620086669922e+00 -1.295887529850006104e-01 7.993584126234054565e-02 -1.489587128162384033e-02 7.683131098747253418e-02
2.973000000000000000e+03 6.064543247222900391e+00 3.573476552963256836e+00 2.217872068285942078e-03 -9.770732140168547630e-04 3.722396504599601030e-04 -8.359240600839257240e-04
2.974000000000000000e+03 6.481155872344970703e+00 4.280267238616943359e+00 -1.927704922854900360e-02 -1.535229152068495750e-03 -6.243683397769927979e-03 -5.783633794635534286e-03
2.975000000000000000e+03 5.616716861724853516e+00 2.920150279998779297e+00 -2.661851700395345688e-03 8.262578630819916725e-04 -5.506781744770705700e-04 2.431744505884125829e-04
2.976000000000000000e+03 6.529135227203369141e+00 3.343321800231933594e+00 -2.614560798974707723e-05 1.725935842841863632e-03 5.099370609968900681e-04 9.442322188988327980e-04
2.977000000000000000e+03 6.083950042724609375e+00 2.712398290634155273e+00 7.286180625669658184e-04 9.523865301162004471e-04 5.043013370595872402e-04 1.366339740343391895e-03
2.978000000000000000e+03 6.081230640411376953e+00 4.429358959197998047e+00 -1.182718761265277863e-02 3.496137214824557304e-03 -2.499315189197659492e-03 1.742420368827879429e-03
2.979000000000000000e+03 7.072127342224121094e+00 5.498886585235595703e+00 -2.931343205273151398e-02 5.562433041632175446e-03 -7.125299889594316483e-03 1.549546886235475540e-02
2.980000000000000000e+03 5.160166740417480469e+00 3.122973203659057617e+00 2.063210122287273407e-03 -7.326934719458222389e-04 3.991549892816692591e-04 -4.174190107733011246e-04
2.981000000000000000e+03 5.633822441101074219e+00 3.782831668853759766e+00 -9.002584964036941528e-03 9.903568570734933019e-05 -2.671064808964729309e-03 -2.416103379800915718e-03
2.982000000000000000e+03 6.546886920928955078e+00 4.943883895874023438e+00 -2.333655208349227905e-02 4.631027113646268845e-03 -5.611657630652189255e-03 3.566178260371088982e-03
2.983000000000000000e+03 6.969904899597167969e+00 4.040812969207763672e+00 -4.584907088428735733e-03 2.633951953612267971e-04 -1.296453527174890041e-03 -1.819960540160536766e-03
2.984000000000000000e+03 7.447043418884277344e+00 4.761515140533447266e+00 -3.782564401626586914e-02 -2.215226879343390465e-03 -1.201226189732551575e-02 -5.957818590104579926e-03
2.985000000000000000e+03 5.466835975646972656e+00 1.780064940452575684e+00 -1.157627324573695660e-03 9.473317913943901658e-05 -3.188682312611490488e-04 1.314764027483761311e-03
2.986000000000000000e+03 5.362783908843994141e+00 2.328254699707031250e+00 2.978222444653511047e-03 1.023463672026991844e-03 1.200505881570279598e-03 3.074768756050616503e-04
2.987000000000000000e+03 4.886854648590087891e+00 2.462563276290893555e+00 -2.496271394193172455e-03 -1.427343813702464104e-03 -1.177084515802562237e-03 7.401494804071262479e-05
2.988000000000000000e+03 5.811068058013916016e+00 2.087705373764038086e+00 1.263050129637122154e-03 1.876265625469386578e-03 9.417947148904204369e-04 -2.956360112875699997e-04
2.989000000000000000e+03 4.849430561065673828e+00 1.816301584243774414e+00 2.097535412758588791e-03 -2.558837877586483955e-05 6.215840694494545460e-04 5.002185353077948093e-04
2.990000000000000000e+03 6.373782157897949219e+00 -1.653981924057006836e+00 1.351632736623287201e-02 3.997444175183773041e-03 5.254131276160478592e-03 4.501204937696456909e-03
2.991000000000000000e+03 4.977878570556640625e+00 -1.675424814224243164e+00 1.427244674414396286e-02 3.809278598055243492e-03 5.424517672508955002e-03 9.384774602949619293e-03
2.992000000000000000e+03 5.699524402618408203e+00 -1.621715664863586426e+00 1.293162535876035690e-02 3.116695908829569817e-03 4.814496263861656189e-03 6.942753680050373077e-03
2.993000000000000000e+03 5.394181728363037109e+00 -1.995555639266967773e+00 1.159299816936254501e-02 2.536332234740257263e-03 4.238799214363098145e-03 8.013008162379264832e-03
2.994000000000000000e+03 5.981556415557861328e+00 -1.885626554489135742e+00 1.139145996421575546e-02 1.786533626727759838e-03 3.953398205339908600e-03 5.378324072808027267e-03
2.995000000000000000e+03 1.799764633178710938e+01 3.976000785827636719e+00 1.625896431505680084e-03 6.490123923867940903e-03 2.434805966913700104e-03 2.046666108071804047e-03
2.996000000000000000e+03 1.802036094665527344e+01 3.234774589538574219e+00 -1.306565012782812119e-03 -1.290666591376066208e-02 -4.263969138264656067e-03 -1.006993930786848068e-03
2.997000000000000000e+03 1.661771774291992188e+01 3.299204349517822266e+00 -7.191268377937376499e-04 -1.337250694632530212e-03 -6.169132539071142673e-04 3.732279175892472267e-03
2.998000000000000000e+03 1.595736217498779297e+01 3.689948797225952148e+00 -6.381548475474119186e-03 -1.214933302253484726e-02 -5.559264216572046280e-03 6.335707381367683411e-03
2.999000000000000000e+03 1.739968109130859375e+01 3.258831262588500977e+00 1.283392123878002167e-02 1.134284865111112595e-02 7.253031246364116669e-03 -1.906310091726481915e-03
3.000000000000000000e+03 1.468982219696044922e+01 4.175592422485351562e+00 1.279781223274767399e-03 4.210041370242834091e-03 1.646946766413748264e-03 1.341357943601906300e-03
3.001000000000000000e+03 1.387075328826904297e+01 4.179982185363769531e+00 -5.029073217883706093e-04 -3.794529708102345467e-03 -1.289231120608747005e-03 -6.337678059935569763e-04
3.002000000000000000e+03 1.305658531188964844e+01 4.214945316314697266e+00 -6.229299469850957394e-04 4.101705271750688553e-03 1.043632626533508301e-03 1.493151299655437469e-03
3.003000000000000000e+03 1.212989234924316406e+01 3.302501678466796875e+00 -2.832585247233510017e-03 -2.339139580726623535e-03 -1.551517401821911335e-03 2.160156611353158951e-03
3.004000000000000000e+03 1.151010513305664062e+01 4.324381351470947266e+00 1.078194123692810535e-03 2.593672601506114006e-03 1.101560075767338276e-03 3.775822406169027090e-04
3.005000000000000000e+03 9.949157714843750000e+00 4.366832733154296875e+00 -5.814084033772815019e-06 2.661199076101183891e-03 7.966154953464865685e-04 -2.331209980184212327e-04
3.006000000000000000e+03 9.932945251464843750e+00 3.384121179580688477e+00 -3.734590718522667885e-04 -8.229188097175210714e-05 -1.367252843920141459e-04 -4.623942077159881592e-04
3.007000000000000000e+03 9.204218864440917969e+00 4.346347332000732422e+00 -4.216376983094960451e-04 -2.340998733416199684e-03 -8.287909440696239471e-04 3.662842500489205122e-04
3.008000000000000000e+03 8.465202331542968750e+00 4.316827774047851562e+00 2.101350983139127493e-04 1.700185355730354786e-03 5.730961565859615803e-04 -5.304961814545094967e-04
3.009000000000000000e+03 8.824538230895996094e+00 3.563970327377319336e+00 -1.530235749669373035e-04 -1.510682981461286545e-03 -4.991119494661688805e-04 3.298621450085192919e-04
3.010000000000000000e+03 1.567019557952880859e+01 3.252961874008178711e+00 1.276568695902824402e-02 2.147437818348407745e-02 1.027201954275369644e-02 -1.455754227936267853e-02
3.011000000000000000e+03 1.384450912475585938e+01 3.663609027862548828e+00 3.467162372544407845e-03 5.384832154959440231e-03 2.655598334968090057e-03 -2.461556345224380493e-03
3.012000000000000000e+03 1.383718013763427734e+01 3.223686933517456055e+00 -1.466046553105115891e-03 4.315148107707500458e-03 8.547305478714406490e-04 1.078348606824874878e-03
3.013000000000000000e+03 1.321729660034179688e+01 3.334477663040161133e+00 -2.695183269679546356e-03 -3.697321284562349319e-03 -1.917751389555633068e-03 7.848052191548049450e-04
3.014000000000000000e+03 1.215228843688964844e+01 3.795787334442138672e+00 2.435005968436598778e-03 -1.223631436005234718e-03 3.634123422671109438e-04 -8.433671901002526283e-04
3.015000000000000000e+03 1.070322895050048828e+01 3.859316349029541016e+00 6.991662667132914066e-04 1.318798516876995564e-03 6.053894176147878170e-04 -5.406442214734852314e-04
3.016000000000000000e+03 9.443907737731933594e+00 3.722287416458129883e+00 6.044097826816141605e-04 2.475134097039699554e-03 9.238631464540958405e-04 -4.518337082117795944e-04
3.017000000000000000e+03 1.542356109619140625e+01 4.099992275238037109e+00 2.369395224377512932e-03 -3.769718576222658157e-03 -4.200970579404383898e-04 -1.726193295326083899e-04
3.018000000000000000e+03 1.725479507446289062e+01 4.004279136657714844e+00 -4.852557089179754257e-03 -6.159953307360410690e-03 -3.303753212094306946e-03 3.250968176871538162e-03
3.019000000000000000e+03 1.228913879394531250e+01 4.288514137268066406e+00 -1.435913029126822948e-03 -3.315047826617956161e-03 -1.425288268364965916e-03 -1.562008168548345566e-03
3.020000000000000000e+03 1.145178890228271484e+01 3.832140445709228516e+00 -1.476755132898688316e-03 -7.891223649494349957e-04 -6.797632668167352676e-04 6.606093375012278557e-04
3.021000000000000000e+03 1.072398853302001953e+01 4.351354122161865234e+00 -1.817125594243407249e-04 -2.584806410595774651e-03 -8.299556793645024300e-04 2.311375574208796024e-04
3.022000000000000000e+03 1.001038265228271484e+01 3.872972011566162109e+00 -1.586341822985559702e-04 -1.934090163558721542e-03 -6.278172950260341167e-04 8.730510016903281212e-04
3.023000000000000000e+03 1.456358337402343750e+01 3.201005935668945312e+00 -1.410106662660837173e-03 1.246578176505863667e-04 -3.856346593238413334e-04 -2.706212922930717468e-03
3.024000000000000000e+03 1.521894454956054688e+01 3.585825443267822266e+00 -9.936663322150707245e-03 2.152961213141679764e-03 -2.335110679268836975e-03 -4.482501652091741562e-03
3.025000000000000000e+03 1.651922035217285156e+01 4.021458148956298828e+00 4.248597193509340286e-03 1.167369727045297623e-02 4.776688292622566223e-03 -8.163515478372573853e-03
3.026000000000000000e+03 1.525548934936523438e+01 3.170724391937255859e+00 7.150014396756887436e-03 -6.908631417900323868e-03 7.241486309794709086e-05 3.601653967052698135e-03
3.027000000000000000e+03 1.271649932861328125e+01 3.606709003448486328e+00 2.299563726410269737e-03 1.935605541802942753e-03 1.270550768822431564e-03 -3.187534457538276911e-04
3.028000000000000000e+03 1.064930152893066406e+01 3.358359575271606445e+00 -7.798516307957470417e-04 -4.776938876602798700e-04 -3.772636409848928452e-04 8.872837061062455177e-04
3.029000000000000000e+03 1.141008567810058594e+01 3.330572128295898438e+00 1.276152092032134533e-03 8.570916834287345409e-04 6.399731501005589962e-04 -1.115391496568918228e-03
3.030000000000000000e+03 1.459164142608642578e+01 3.664122581481933594e+00 1.237165415659546852e-04 -3.797292243689298630e-03 -1.102072768844664097e-03 3.197872545570135117e-03
3.031000000000000000e+03 1.948812866210937500e+01 3.877326726913452148e+00 -8.375185425393283367e-04 9.294313378632068634e-03 2.537038410082459450e-03 -1.717588631436228752e-03
3.032000000000000000e+03 2.017558670043945312e+01 3.088615179061889648e+00 -2.523633185774087906e-03 6.485341582447290421e-03 1.188512542285025120e-03 -8.257504552602767944e-03
3.033000000000000000e+03 2.097657775878906250e+01 3.774520874023437500e+00 -7.107492536306381226e-03 2.340795705094933510e-03 -1.430009026080369949e-03 -3.977110143750905991e-03
3.034000000000000000e+03 1.870165252685546875e+01 3.189713239669799805e+00 -2.727679442614316940e-03 6.032846868038177490e-03 9.915501577779650688e-04 -1.400996407028287649e-04
3.035000000000000000e+03 1.874370384216308594e+01 3.928573846817016602e+00 1.866129226982593536e-03 -1.001073047518730164e-02 -2.443380421027541161e-03 -1.520014367997646332e-03
3.036000000000000000e+03 2.091246414184570312e+01 3.037189483642578125e+00 3.223030071239918470e-04 -3.997817635536193848e-03 -1.102654496207833290e-03 3.397376509383320808e-03
3.037000000000000000e+03 1.943872451782226562e+01 3.138975620269775391e+00 1.616312307305634022e-03 -8.332507684826850891e-03 -2.014858415350317955e-03 -2.778656489681452513e-04
3.038000000000000000e+03 2.023234558105468750e+01 3.826456785202026367e+00 -2.957053482532501221e-03 -6.544391624629497528e-03 -2.850433578714728355e-03 3.000682627316564322e-04
3.039000000000000000e+03 2.338276290893554688e+01 2.962652921676635742e+00 8.674173615872859955e-03 5.198728104005567729e-05 2.617848105728626251e-03 7.406923919916152954e-03
3.040000000000000000e+03 2.264334869384765625e+01 2.863679885864257812e+00 9.182752110064029694e-03 3.631645813584327698e-04 2.863775007426738739e-03 8.282794617116451263e-03
3.041000000000000000e+03 2.270840263366699219e+01 3.601070642471313477e+00 -1.696257479488849640e-02 -6.203999277204275131e-03 -6.949972361326217651e-03 -4.475920926779508591e-03
3.042000000000000000e+03 2.175264739990234375e+01 2.959368467330932617e+00 1.497593475505709648e-03 5.321248900145292282e-03 2.045652829110622406e-03 -7.084631826728582382e-03
3.043000000000000000e+03 2.181952476501464844e+01 3.696549654006958008e+00 -9.771500714123249054e-03 2.707283012568950653e-03 -2.119265496730804443e-03 2.588684670627117157e-03
3.044000000000000000e+03 2.345920753479003906e+01 4.853706359863281250e+00 -6.727650295943021774e-03 -1.024452038109302521e-02 -5.091651342809200287e-03 -7.174961734563112259e-03
3.045000000000000000e+03 2.276159095764160156e+01 4.334619045257568359e+00 -8.289618417620658875e-03 2.091688802465796471e-03 -1.859378768131136894e-03 -4.929733462631702423e-03
3.046000000000000000e+03 2.174504089355468750e+01 5.324580192565917969e+00 -3.822671249508857727e-02 5.540097132325172424e-03 -9.805984795093536377e-03 -1.718726567924022675e-02
3.047000000000000000e+03 2.223744201660156250e+01 5.344407081604003906e+00 -3.566994518041610718e-02 3.292727749794721603e-03 -9.713164530694484711e-03 -1.899469271302223206e-02
3.048000000000000000e+03 2.311081886291503906e+01 5.164704799652099609e+00 -2.584147267043590546e-02 -7.622100412845611572e-03 -1.003907248377799988e-02 -2.159659937024116516e-02
3.049000000000000000e+03 2.188203620910644531e+01 4.431602478027343750e+00 -3.131020441651344299e-02 -7.133841281756758690e-04 -9.607076644897460938e-03 -4.493498243391513824e-03
3.050000000000000000e+03 2.270535469055175781e+01 5.283616065979003906e+00 -3.557867929339408875e-02 2.659141900949180126e-04 -1.059382967650890350e-02 -2.209420688450336456e-02
3.051000000000000000e+03 2.265127754211425781e+01 4.880835533142089844e+00 -2.752682007849216461e-02 -2.432065317407250404e-03 -8.987665176391601562e-03 -1.554950978606939316e-02
3.052000000000000000e+03 2.204319572448730469e+01 4.953784942626953125e+00 -3.538589924573898315e-02 4.161086864769458771e-03 -9.367444552481174469e-03 -1.622694358229637146e-02
3.053000000000000000e+03 6.957012653350830078e+00 3.898485600948333740e-01 1.415204023942351341e-04 2.858981247300107498e-07 4.254189116181805730e-05 -1.303096796618774533e-04
3.054000000000000000e+03 7.073252201080322266e+00 1.129848599433898926e+00 -2.939692058134824038e-04 -1.529384171590209007e-04 -1.340722956229001284e-04 2.234494750155135989e-04
3.055000000000000000e+03 6.319694042205810547e+00 1.129848599433898926e+00 2.079274127027019858e-04 1.049569691531360149e-04 9.386531746713444591e-05 -1.260784192709252238e-04
3.056000000000000000e+03 6.201207637786865234e+00 3.898485600948333740e-01 -3.358392132213339210e-05 4.350001836428418756e-05 2.974828703372622840e-06 2.767751539067830890e-06
3.057000000000000000e+03 8.670824050903320312e+00 3.840262591838836670e-01 -7.748455391265451908e-05 3.138020401820540428e-04 7.089524297043681145e-05 -1.189807517221197486e-05
3.058000000000000000e+03 7.878619670867919922e+00 1.127028346061706543e+00 1.190909006254514679e-05 -8.902428817236796021e-05 -2.313455843250267208e-05 -2.265551156597211957e-04
3.059000000000000000e+03 7.779973506927490234e+00 3.870283365249633789e-01 5.103108924231491983e-05 -1.968122087419033051e-04 -4.373433694127015769e-05 1.620674738660454750e-04
3.060000000000000000e+03 9.562618255615234375e+00 3.869979083538055420e-01 -9.830820090428460389e-06 -1.901653740787878633e-04 -5.999885615892708302e-05 -1.154512647190131247e-04
3.061000000000000000e+03 9.595384597778320312e+00 1.126997947692871094e+00 -2.462671545799821615e-04 -3.489961454761214554e-05 -8.435003110207617283e-05 8.512522617820650339e-05
3.062000000000000000e+03 8.736529350280761719e+00 1.124026298522949219e+00 1.889260311145335436e-04 1.845024526119232178e-04 1.120285451179370284e-04 2.288840769324451685e-04
3.063000000000000000e+03 3.818112134933471680e+00 -2.739334106445312500e-01 6.740948185324668884e-03 1.642276183702051640e-03 2.514967229217290878e-03 1.266624778509140015e-03
3.064000000000000000e+03 3.930468320846557617e+00 -1.013933420181274414e+00 6.533983163535594940e-03 -5.834926851093769073e-04 1.785147120244801044e-03 1.786487991921603680e-03
3.065000000000000000e+03 3.030747890472412109e+00 -3.350256085395812988e-01 3.811903530731797218e-03 -1.132465666159987450e-03 8.038313826546072960e-04 5.186671041883528233e-04
3.066000000000000000e+03 2.223073005676269531e+00 -3.565944731235504150e-01 2.051212824881076813e-03 6.376380333676934242e-04 8.066552109085023403e-04 1.125943963415920734e-03
3.067000000000000000e+03 1.423210144042968750e+00 -3.682287633419036865e-01 5.326598184183239937e-04 6.825501623097807169e-05 1.802744518499821424e-04 1.667955257289577276e-05
3.068000000000000000e+03 3.579095304012298584e-01 -9.568480253219604492e-01 1.045812154188752174e-03 6.961113540455698967e-04 5.225770873948931694e-04 1.857447641668841243e-04
3.069000000000000000e+03 6.884766817092895508e-01 -3.942328691482543945e-01 -2.369598514633253217e-04 -1.974027982214465737e-04 -1.303087919950485229e-04 7.389354868791997433e-04
3.070000000000000000e+03 3.199677228927612305e+00 -1.075025558471679688e+00 5.768773145973682404e-03 3.997439634986221790e-04 1.850555068813264370e-03 3.845395287498831749e-03
3.071000000000000000e+03 2.448575496673583984e+00 -1.096594452857971191e+00 2.999240532517433167e-03 -1.422882778570055962e-04 8.570856298319995403e-04 1.957133878022432327e-03
3.072000000000000000e+03 1.705285787582397461e+00 -1.108228802680969238e+00 2.040917985141277313e-03 1.610446022823452950e-03 1.095409155823290348e-03 2.769225975498557091e-03
3.073000000000000000e+03 1.027125477790832520e+00 -1.134232878684997559e+00 2.400328376097604632e-04 2.685108920559287071e-04 1.525631087133660913e-04 -2.746603786363266408e-05
3.074000000000000000e+03 4.037366485595703125e+01 1.113951778411865234e+01 -1.883838921785354614e-01 -2.589761512354016304e-03 -5.729209631681442261e-02 2.713893912732601166e-02
3.075000000000000000e+03 3.962160873413085938e+01 1.131359195709228516e+01 -2.198157459497451782e-01 -1.597494003362953663e-03 -6.642397493124008179e-02 3.748676925897598267e-02
3.076000000000000000e+03 4.275807952880859375e+01 1.133976268768310547e+01 -1.700605899095535278e-01 -8.499201387166976929e-03 -5.356793850660324097e-02 -4.763332009315490723e-02
3.077000000000000000e+03 3.886851119995117188e+01 1.148583889007568359e+01 -2.162087261676788330e-01 -3.662613453343510628e-04 -6.497249752283096313e-02 5.970355123281478882e-02
3.078000000000000000e+03 4.112229919433593750e+01 1.096372222900390625e+01 -1.461888551712036133e-01 3.093214705586433411e-02 -3.457701206207275391e-02 -7.310982909984886646e-04
3.079000000000000000e+03 4.054919052124023438e+01 1.186267280578613281e+01 -2.975243330001831055e-01 4.756911098957061768e-02 -7.498656958341598511e-02 -6.155553273856639862e-03
3.080000000000000000e+03 4.185790634155273438e+01 1.078891849517822266e+01 -7.587592303752899170e-02 -2.635544724762439728e-02 -3.066941164433956146e-02 -1.547131780534982681e-02
3.081000000000000000e+03 4.253778457641601562e+01 1.062180137634277344e+01 -2.053013443946838379e-02 5.311407893896102905e-02 9.775184094905853271e-03 -1.954696141183376312e-02
3.082000000000000000e+03 4.325923919677734375e+01 1.099616241455078125e+01 -5.980075523257255554e-02 -4.518963769078254700e-02 -3.149711713194847107e-02 -1.634353585541248322e-02
3.083000000000000000e+03 3.901419448852539062e+01 1.221245574951171875e+01 -3.139460086822509766e-01 2.426291257143020630e-02 -8.690492808818817139e-02 8.721721172332763672e-02
3.084000000000000000e+03 4.131274795532226562e+01 1.168514633178710938e+01 -2.471653521060943604e-01 1.892826147377490997e-02 -6.847112625837326050e-02 -6.255690939724445343e-03
3.085000000000000000e+03 4.206327819824218750e+01 1.150861167907714844e+01 -2.408892810344696045e-01 3.840555995702743530e-02 -6.074511632323265076e-02 -4.408687725663185120e-02
3.086000000000000000e+03 3.978221511840820312e+01 1.203847694396972656e+01 -3.142938017845153809e-01 2.104292064905166626e-02 -8.797526359558105469e-02 5.095094069838523865e-02
3.087000000000000000e+03 3.674169540405273438e+01 1.212182044982910156e+01 -3.918576613068580627e-02 -1.213041394948959351e-01 -4.814697429537773132e-02 7.648974657058715820e-02
3.088000000000000000e+03 3.698434829711914062e+01 1.262278556823730469e+01 -2.657938301563262939e-01 -4.377356544137001038e-02 -9.287022054195404053e-02 1.409528404474258423e-01
3.089000000000000000e+03 3.825864791870117188e+01 1.234777259826660156e+01 -3.087947666645050049e-01 7.508710026741027832e-03 -9.038581699132919312e-02 1.366564631462097168e-01
3.090000000000000000e+03 3.804425811767578125e+01 1.163198184967041016e+01 -1.442510932683944702e-01 -1.171335391700267792e-02 -4.678933322429656982e-02 6.891443580389022827e-02
3.091000000000000000e+03 3.756306838989257812e+01 1.246899890899658203e+01 -3.153810203075408936e-01 -3.477504104375839233e-02 -1.050468161702156067e-01 1.895164549350738525e-01
3.092000000000000000e+03 3.719634628295898438e+01 1.177657890319824219e+01 -2.144624479115009308e-02 -1.987174525856971741e-02 -1.239539682865142822e-02 4.582124948501586914e-02
3.093000000000000000e+03 3.663000488281250000e+01 1.268585968017578125e+01 -2.531762421131134033e-01 -1.876262426376342773e-01 -1.322407573461532593e-01 1.971754431724548340e-01
3.094000000000000000e+03 3.645061874389648438e+01 1.246910285949707031e+01 -9.024895727634429932e-02 -1.704329997301101685e-01 -7.820458710193634033e-02 1.093407422304153442e-01
3.095000000000000000e+03 5.397003936767578125e+01 1.078238105773925781e+01 1.498480141162872314e-02 9.429420344531536102e-03 7.324266713112592697e-03 -3.990266006439924240e-03
3.096000000000000000e+03 5.390347290039062500e+01 1.004510879516601562e+01 5.980643443763256073e-03 -6.943488493561744690e-03 -2.888535673264414072e-04 -9.650042280554771423e-03
3.097000000000000000e+03 5.471431732177734375e+01 1.073740196228027344e+01 7.515278179198503494e-03 -7.852607406675815582e-03 -1.011986969388090074e-04 -2.483195159584283829e-03
3.098000000000000000e+03 5.322494125366210938e+01 1.082944869995117188e+01 1.861401088535785675e-02 -8.452511392533779144e-03 3.048449754714965820e-03 -4.048620350658893585e-03
3.099000000000000000e+03 5.242547225952148438e+01 1.014035129547119141e+01 1.178568229079246521e-02 -9.526429697871208191e-03 6.777756498195230961e-04 -1.415887381881475449e-03
3.100000000000000000e+03 5.247904205322265625e+01 1.087844371795654297e+01 2.444853819906711578e-02 5.857746116816997528e-03 9.091884829103946686e-03 -1.832024427130818367e-03
3.101000000000000000e+03 5.464125442504882812e+01 1.000053882598876953e+01 4.543862305581569672e-03 1.374929212033748627e-02 5.487946327775716782e-03 -1.004475913941860199e-02
3.102000000000000000e+03 5.316487503051757812e+01 1.009176635742187500e+01 1.747615449130535126e-02 2.369720721617341042e-03 5.953762680292129517e-03 -7.837037555873394012e-03
3.103000000000000000e+03 3.871810150146484375e+01 1.072134113311767578e+01 -6.807117257267236710e-03 -5.137031432241201401e-03 -3.583244513720273972e-03 -1.762459520250558853e-03
3.104000000000000000e+03 3.946144485473632812e+01 1.055411434173583984e+01 -2.015616977587342262e-03 6.811485160142183304e-03 1.438760431483387947e-03 3.863941645249724388e-03
3.105000000000000000e+03 4.214028167724609375e+01 9.757813453674316406e+00 6.420735735446214676e-04 3.136858140351250768e-05 2.020326501224189997e-04 1.820197649067267776e-04
3.106000000000000000e+03 3.857750320434570312e+01 9.993584632873535156e+00 3.283398458734154701e-03 5.317717324942350388e-03 2.580334665253758430e-03 6.596524268388748169e-03
3.107000000000000000e+03 4.160499191284179688e+01 1.006451320648193359e+01 -3.310815896838903427e-03 -1.506559667177498341e-03 -1.445212634280323982e-03 -4.674759111367166042e-04
3.108000000000000000e+03 4.144534683227539062e+01 9.334435462951660156e+00 9.974343702197074890e-03 3.514943644404411316e-03 4.046786110848188400e-03 -1.828226260840892792e-03
3.109000000000000000e+03 4.092973709106445312e+01 1.022012138366699219e+01 8.990767528302967548e-04 3.311564447358250618e-03 1.263192389160394669e-03 1.785756758181378245e-04
3.110000000000000000e+03 4.020204162597656250e+01 1.038670063018798828e+01 -2.752586035057902336e-03 -7.182840723544359207e-03 -2.980628050863742828e-03 5.540177226066589355e-04
3.111000000000000000e+03 4.077485275268554688e+01 9.490621566772460938e+00 -3.542315214872360229e-03 -7.777318358421325684e-03 -3.395890118554234505e-03 2.000123029574751854e-03
3.112000000000000000e+03 4.005191802978515625e+01 9.657777786254882812e+00 3.523455699905753136e-03 3.567019244655966759e-03 2.127142623066902161e-03 2.356257755309343338e-03
3.113000000000000000e+03 3.931608200073242188e+01 9.825769424438476562e+00 -2.770189195871353149e-03 -4.399542231112718582e-03 -2.150919521227478981e-03 -5.776644684374332428e-04
3.114000000000000000e+03 1.463219356536865234e+01 1.208772420883178711e+00 4.010837059468030930e-03 3.685499075800180435e-03 2.308900933712720871e-03 -7.735129329375922680e-04
3.115000000000000000e+03 1.413865852355957031e+01 3.089686632156372070e-01 -6.955607095733284950e-04 1.496250857599079609e-03 2.402070385869592428e-04 1.539242475701030344e-05
3.116000000000000000e+03 1.413591098785400391e+01 8.441513180732727051e-01 -1.076351967640221119e-03 -1.505453954450786114e-03 -7.745418115518987179e-04 2.390791429206728935e-03
3.117000000000000000e+03 1.324289608001708984e+01 1.113969683647155762e+00 1.656575361266732216e-03 9.475201950408518314e-04 7.812286494299769402e-04 1.005614421956124716e-06
3.118000000000000000e+03 1.484628582000732422e+01 5.796153545379638672e-01 -1.383946364512667060e-04 -1.038396148942410946e-03 -3.530372341629117727e-04 -4.288195632398128510e-04
3.119000000000000000e+03 1.338759136199951172e+01 2.497024983167648315e-01 -1.027445105137303472e-04 -1.028907718136906624e-03 -3.394956584088504314e-04 2.190448576584458351e-04
3.120000000000000000e+03 1.422421169281005859e+01 1.250681281089782715e+00 1.851139473728835583e-03 3.692301470437087119e-05 5.664187483489513397e-04 -1.088032848201692104e-03
3.121000000000000000e+03 1.355335903167724609e+01 8.086416125297546387e-01 -1.389220822602510452e-03 2.675800060387700796e-04 -3.364922304172068834e-04 -7.490521529689431190e-04
3.122000000000000000e+03 1.374464988708496094e+01 1.230049014091491699e+00 1.837911084294319153e-03 -1.866547972895205021e-03 -8.591086952947080135e-06 1.612792955711483955e-03
3.123000000000000000e+03 1.038163661956787109e+01 3.719484806060791016e-01 1.100347290048375726e-04 -7.589021697640419006e-05 1.024335415422683582e-05 1.115154373110271990e-04
3.124000000000000000e+03 1.112833786010742188e+01 3.352923989295959473e-01 -3.712078250828199089e-05 3.429995267651975155e-04 9.176362800644710660e-05 -7.540509250247851014e-05
3.125000000000000000e+03 1.187404060363769531e+01 3.023687005043029785e-01 9.586579108145087957e-05 -5.639672162942588329e-04 -1.404304348398000002e-04 6.138976459624245763e-05
3.126000000000000000e+03 1.187335777282714844e+01 1.043116807937622070e+00 -2.673335548024624586e-04 5.391425220295786858e-04 8.154269016813486814e-05 1.939682551892474294e-04
3.127000000000000000e+03 1.261872673034667969e+01 2.733090519905090332e-01 -5.495797086041420698e-05 7.420032052323222160e-04 2.061135746771469712e-04 -4.338659346103668213e-05
3.128000000000000000e+03 1.261125278472900391e+01 1.014356493949890137e+00 -2.359457575948908925e-04 -4.780156305059790611e-04 -2.141884178854525089e-04 2.224815252702683210e-04
3.129000000000000000e+03 1.039453697204589844e+01 1.112098097801208496e+00 -1.689459895715117455e-04 3.179922641720622778e-04 4.471388456295244396e-05 -5.026637227274477482e-04
3.130000000000000000e+03 1.113444709777832031e+01 1.075741291046142578e+00 5.091152270324528217e-04 -7.309201755560934544e-04 -6.654147000517696142e-05 1.993011828744783998e-04
3.131000000000000000e+03 5.544353008270263672e+00 1.129850029945373535e+00 2.676521544344723225e-04 3.712561447173357010e-04 1.916724868351593614e-04 1.711400982458144426e-04
3.132000000000000000e+03 4.790751457214355469e+00 1.129850029945373535e+00 -3.980474430136382580e-04 5.200642408453859389e-05 -1.038123082253150642e-04 5.035591893829405308e-04
3.133000000000000000e+03 4.676749229431152344e+00 3.898500204086303711e-01 6.157587631605565548e-04 -2.159591531381011009e-04 1.199398757307790220e-04 1.106145355151966214e-04
3.134000000000000000e+03 5.432579994201660156e+00 3.898500204086303711e-01 6.100898463046178222e-05 1.659453846514225006e-04 6.808631587773561478e-05 1.696199324214830995e-04
3.135000000000000000e+03 1.112103080749511719e+01 -4.428110718727111816e-01 3.058284334838390350e-02 4.909013397991657257e-03 1.064755674451589584e-02 -1.561631332151591778e-03
3.136000000000000000e+03 1.187371921539306641e+01 -4.752737879753112793e-01 3.011234104633331299e-02 -5.772134754806756973e-03 7.302061654627323151e-03 -2.136398805305361748e-03
3.137000000000000000e+03 1.111492252349853516e+01 -1.183259963989257812e+00 2.394580654799938202e-02 -7.340992800891399384e-03 4.981444217264652252e-03 -1.399594708345830441e-03
3.138000000000000000e+03 1.262644767761230469e+01 -5.069373250007629395e-01 2.679681777954101562e-02 5.634014029055833817e-03 9.729249402880668640e-03 -3.081430215388536453e-03
3.139000000000000000e+03 1.035515594482421875e+01 -1.148333072662353516e+00 2.258062735199928284e-02 3.558930708095431328e-03 7.841867394745349884e-03 1.073221937986090779e-04
3.140000000000000000e+03 1.036805534362792969e+01 -4.081833958625793457e-01 3.065257146954536438e-02 -5.361393559724092484e-03 7.587353233247995377e-03 -6.598059553653001785e-04
3.141000000000000000e+03 1.263392257690429688e+01 -1.248021602630615234e+00 2.087298594415187836e-02 -8.888048119843006134e-03 3.595481393858790398e-03 -5.832301918417215347e-03
3.142000000000000000e+03 1.187440204620361328e+01 -1.216021895408630371e+00 2.125278860330581665e-02 4.783238284289836884e-03 7.810807786881923676e-03 -3.605335252359509468e-03
3.143000000000000000e+03 3.787689590454101562e+01 1.088152790069580078e+01 -2.242677845060825348e-03 2.299748361110687256e-03 1.712109587970189750e-05 2.734774490818381310e-03
3.144000000000000000e+03 3.687048339843750000e+01 1.029800510406494141e+01 1.256913179531693459e-03 1.044399687089025974e-04 4.084059619344770908e-04 9.617994539439678192e-03
3.145000000000000000e+03 3.774330520629882812e+01 1.015336227416992188e+01 -6.038365885615348816e-03 2.430432476103305817e-03 -1.082380069419741631e-03 -9.379748255014419556e-03
3.146000000000000000e+03 3.632341003417968750e+01 1.056402301788330078e+01 -1.543722115457057953e-02 -1.248495187610387802e-02 -8.376652374863624573e-03 -3.602304786909371614e-04
3.147000000000000000e+03 3.699481582641601562e+01 1.102758884429931641e+01 2.065242500975728035e-03 6.831564474850893021e-03 2.669041976332664490e-03 -9.043241851031780243e-03
3.148000000000000000e+03 1.483313274383544922e+01 -3.616165518760681152e-01 -2.832841593772172928e-03 -1.389082707464694977e-02 -5.017100367695093155e-03 -8.495667017996311188e-03
3.149000000000000000e+03 1.534506702423095703e+01 -8.866766691207885742e-01 6.385677028447389603e-03 1.873776875436306000e-02 7.537033874541521072e-03 3.568460000678896904e-03
3.150000000000000000e+03 1.413932895660400391e+01 -4.292643368244171143e-01 9.512951597571372986e-03 7.758417632430791855e-03 5.181410815566778183e-03 -3.520566038787364960e-03
3.151000000000000000e+03 1.338562393188476562e+01 -4.926638007164001465e-01 1.999943517148494720e-02 -7.095030508935451508e-03 3.871321678161621094e-03 -3.743235720321536064e-03
3.152000000000000000e+03 1.341033267974853516e+01 -1.234521746635437012e+00 1.799327693879604340e-02 4.096628166735172272e-03 6.626971531659364700e-03 -9.108652360737323761e-03
3.153000000000000000e+03 1.419171237945556641e+01 -1.172296047210693359e+00 1.705891638994216919e-02 -7.891525514423847198e-03 2.750216983258724213e-03 -1.040635257959365845e-02
3.154000000000000000e+03 1.491319084167480469e+01 -1.105822205543518066e+00 1.801473461091518402e-02 1.003287453204393387e-02 8.414282463490962982e-03 -7.949489168822765350e-03
3.155000000000000000e+03 6.714891052246093750e+01 1.011837482452392578e+01 3.092128944396972656e+01 3.946805000305175781e+00 1.046042823791503906e+01 9.027191162109375000e+00
3.156000000000000000e+03 6.715043640136718750e+01 1.009898757934570312e+01 3.108121681213378906e+01 1.337813377380371094e+01 1.333780479431152344e+01 2.151508903503417969e+01
3.157000000000000000e+03 6.715570068359375000e+01 1.008026599884033203e+01 3.012157249450683594e+01 2.452688407897949219e+01 1.639453697204589844e+01 2.676009368896484375e+01
3.158000000000000000e+03 6.716451263427734375e+01 1.006292724609375000e+01 2.707900238037109375e+01 3.669144821166992188e+01 1.913113403320312500e+01 2.959067916870117188e+01
3.159000000000000000e+03 6.717652130126953125e+01 1.004763221740722656e+01 2.370286560058593750e+01 4.822164154052734375e+01 2.157735061645507812e+01 2.940735054016113281e+01
3.160000000000000000e+03 6.719127655029296875e+01 1.003496456146240234e+01 2.029778099060058594e+01 5.947183990478515625e+01 2.393088722229003906e+01 2.639549255371093750e+01
3.161000000000000000e+03 6.720821380615234375e+01 1.002540874481201172e+01 1.704506874084472656e+01 6.773937988281250000e+01 2.543533515930175781e+01 2.145211601257324219e+01
3.162000000000000000e+03 6.722668457031250000e+01 1.001933002471923828e+01 1.641410446166992188e+01 7.393137359619140625e+01 2.710364151000976562e+01 1.460566329956054688e+01
3.163000000000000000e+03 6.724598693847656250e+01 1.001696014404296875e+01 1.650772094726562500e+01 7.633466339111328125e+01 2.785271644592285156e+01 7.227042675018310547e+00
3.164000000000000000e+03 6.726538848876953125e+01 1.001838874816894531e+01 1.968539810180664062e+01 7.608044433593750000e+01 2.872975349426269531e+01 4.508811235427856445e-01
3.165000000000000000e+03 6.728413391113281250e+01 1.002356243133544922e+01 2.345876502990722656e+01 7.265151977539062500e+01 2.883308601379394531e+01 -5.274723529815673828e+00
3.166000000000000000e+03 6.730151367187500000e+01 1.003228282928466797e+01 2.936009025573730469e+01 6.840760040283203125e+01 2.933030700683593750e+01 -8.576264381408691406e+00
3.167000000000000000e+03 6.731687164306640625e+01 1.004421710968017578e+01 3.446640014648437500e+01 6.204489898681640625e+01 2.895339012145996094e+01 -1.025666999816894531e+01
3.168000000000000000e+03 6.732961273193359375e+01 1.005891036987304688e+01 3.957240676879882812e+01 5.752925872802734375e+01 2.913049888610839844e+01 -9.426929473876953125e+00
3.169000000000000000e+03 6.733925628662109375e+01 1.007580089569091797e+01 4.397891616821289062e+01 5.281571960449218750e+01 2.903839111328125000e+01 -6.783105373382568359e+00
3.170000000000000000e+03 6.734542083740234375e+01 1.009424304962158203e+01 4.634688186645507812e+01 4.959730529785156250e+01 2.878325462341308594e+01 -3.335994720458984375e+00
3.171000000000000000e+03 6.734789276123046875e+01 1.011353397369384766e+01 4.763843154907226562e+01 4.889435577392578125e+01 2.895983505249023438e+01 1.023889422416687012e+00
3.172000000000000000e+03 6.734655761718750000e+01 1.013293647766113281e+01 4.699371337890625000e+01 4.950302886962890625e+01 2.894902229309082031e+01 5.509894371032714844e+00
3.173000000000000000e+03 6.734147644042968750e+01 1.015170860290527344e+01 4.483889770507812500e+01 5.260499954223632812e+01 2.923316955566406250e+01 9.604382514953613281e+00
3.174000000000000000e+03 6.733283996582031250e+01 1.016913509368896484e+01 4.072003936767578125e+01 5.565464782714843750e+01 2.891240692138671875e+01 1.258711719512939453e+01
3.175000000000000000e+03 6.732098388671875000e+01 1.018454933166503906e+01 3.664331817626953125e+01 6.270050048828125000e+01 2.980314445495605469e+01 1.344087886810302734e+01
3.176000000000000000e+03 6.730635833740234375e+01 1.019736385345458984e+01 2.956523323059082031e+01 6.748908996582031250e+01 2.911629867553710938e+01 1.311946010589599609e+01
3.177000000000000000e+03 6.728952026367187500e+01 1.020708847045898438e+01 2.481083679199218750e+01 7.340222167968750000e+01 2.946391677856445312e+01 9.801814079284667969e+00
3.178000000000000000e+03 6.727110290527343750e+01 1.021335124969482422e+01 1.925514793395996094e+01 7.701535034179687500e+01 2.888114929199218750e+01 4.570203781127929688e+00
3.179000000000000000e+03 6.725182342529296875e+01 1.021591472625732422e+01 1.617788505554199219e+01 7.856285095214843750e+01 2.842222023010253906e+01 -2.445287227630615234e+00
3.180000000000000000e+03 6.723241424560546875e+01 1.021467971801757812e+01 1.409555339813232422e+01 7.646753692626953125e+01 2.716892623901367188e+01 -1.016285800933837891e+01
3.181000000000000000e+03 6.721362304687500000e+01 1.020969390869140625e+01 1.526126003265380859e+01 7.152113342285156250e+01 2.603471755981445312e+01 -1.741164016723632812e+01
3.182000000000000000e+03 6.719615173339843750e+01 1.020114803314208984e+01 1.737222671508789062e+01 6.271445465087890625e+01 2.402600479125976562e+01 -2.364935684204101562e+01
3.183000000000000000e+03 6.718067932128906250e+01 1.018936729431152344e+01 2.115918922424316406e+01 5.210196685791015625e+01 2.197834777832031250e+01 -2.733401298522949219e+01
3.184000000000000000e+03 6.716779327392578125e+01 1.017480278015136719e+01 2.567352485656738281e+01 3.910876083374023438e+01 1.943468666076660156e+01 -2.830572509765625000e+01
3.185000000000000000e+03 6.715798187255859375e+01 1.015800952911376953e+01 2.949705314636230469e+01 2.582470130920410156e+01 1.659652709960937500e+01 -2.607901382446289062e+01
3.186000000000000000e+03 6.715162658691406250e+01 1.013962936401367188e+01 3.539535140991210938e+01 1.063932323455810547e+01 1.381040191650390625e+01 -1.671763610839843750e+01
