# el_label, x, y, sXX, sYY, sZZ, sXY
1.000000000000000000e+00 2.165163230895996094e+01 8.437659740447998047e-01 -2.322160243988037109e+00 -2.497858285903930664e+00 -1.446005582809448242e+00 -2.224204540252685547e+00
2.000000000000000000e+00 2.146045875549316406e+01 7.883552312850952148e-01 9.376444220542907715e-01 7.439769506454467773e-01 5.044864416122436523e-01 3.777545690536499023e-01
3.000000000000000000e+00 2.126928710937500000e+01 7.329445481300354004e-01 7.985145449638366699e-01 -3.046942949295043945e-01 1.481460779905319214e-01 9.334579110145568848e-02
4.000000000000000000e+00 2.107811355590820312e+01 6.775338053703308105e-01 8.950559496879577637e-01 1.932152509689331055e-01 3.264813721179962158e-01 1.484025418758392334e-01
5.000000000000000000e+00 2.167329978942871094e+01 7.895291447639465332e-01 6.699211120605468750e+00 -1.295346736907958984e+00 1.621159315109252930e+00 1.868776321411132812e+00
6.000000000000000000e+00 2.149657249450683594e+01 6.979604959487915039e-01 3.115890741348266602e+00 9.491574019193649292e-02 9.632419347763061523e-01 8.502086997032165527e-01
7.000000000000000000e+00 2.131984519958496094e+01 6.063918471336364746e-01 3.259123325347900391e+00 8.871642351150512695e-01 1.243886232376098633e+00 1.412463545799255371e+00
8.000000000000000000e+00 2.114311981201171875e+01 5.148231983184814453e-01 2.742407560348510742e+00 2.686571478843688965e-01 9.033193588256835938e-01 1.040031194686889648e+00
9.000000000000000000e+00 2.170511245727539062e+01 7.405484318733215332e-01 8.645495414733886719e+00 2.877808332443237305e+00 3.456991195678710938e+00 5.980712413787841797e+00
1.000000000000000000e+01 2.154959297180175781e+01 6.163259744644165039e-01 6.041999340057373047e+00 1.755077481269836426e+00 2.339123010635375977e+00 3.405388593673706055e+00
1.100000000000000000e+01 2.139407539367675781e+01 4.921035468578338623e-01 4.422740936279296875e+00 1.603761196136474609e+00 1.807950615882873535e+00 2.560126304626464844e+00
1.200000000000000000e+01 2.123855590820312500e+01 3.678811192512512207e-01 4.089955329895019531e+00 1.790457129478454590e+00 1.764123797416687012e+00 2.449779510498046875e+00
1.300000000000000000e+01 2.174585342407226562e+01 6.986982822418212891e-01 8.967351913452148438e+00 8.424052238464355469e+00 5.217421531677246094e+00 8.504460334777832031e+00
1.400000000000000000e+01 2.161749267578125000e+01 5.465757846832275391e-01 6.101239204406738281e+00 4.878137111663818359e+00 3.293812990188598633e+00 5.533367633819580078e+00
1.500000000000000000e+01 2.148913383483886719e+01 3.944532573223114014e-01 5.319220542907714844e+00 4.042105197906494141e+00 2.808397531509399414e+00 4.144921302795410156e+00
1.600000000000000000e+01 2.136077499389648438e+01 2.423307299613952637e-01 4.236762046813964844e+00 3.145261287689208984e+00 2.214607000350952148e+00 3.535194158554077148e+00
1.700000000000000000e+01 2.179396057128906250e+01 6.655802726745605469e-01 7.061562061309814453e+00 1.413646030426025391e+01 6.359406471252441406e+00 9.464074134826660156e+00
1.800000000000000000e+01 2.169767189025878906e+01 4.913790524005889893e-01 5.790534973144531250e+00 9.187475204467773438e+00 4.493402957916259766e+00 6.425571918487548828e+00
1.900000000000000000e+01 2.160138511657714844e+01 3.171778321266174316e-01 4.550675868988037109e+00 6.868147373199462891e+00 3.425647020339965820e+00 5.115173339843750000e+00
2.000000000000000000e+01 2.150509834289550781e+01 1.429765969514846802e-01 4.121376514434814453e+00 5.969192981719970703e+00 3.027170896530151367e+00 4.233292579650878906e+00
2.100000000000000000e+01 2.184759521484375000e+01 6.424616575241088867e-01 5.571490287780761719e+00 1.989277458190917969e+01 7.639279842376708984e+00 8.468496322631835938e+00
2.200000000000000000e+01 2.178706359863281250e+01 4.528480172157287598e-01 4.270494937896728516e+00 1.326972389221191406e+01 5.262065887451171875e+00 6.148340702056884766e+00
2.300000000000000000e+01 2.172653198242187500e+01 2.632343769073486328e-01 3.957190990447998047e+00 1.036715030670166016e+01 4.297302246093750000e+00 4.910351753234863281e+00
2.400000000000000000e+01 2.166600227355957031e+01 7.362075150012969971e-02 3.169881105422973633e+00 8.516578674316406250e+00 3.505938053131103516e+00 4.328431129455566406e+00
2.500000000000000000e+01 2.190470314025878906e+01 6.302271485328674316e-01 3.960692405700683594e+00 2.442810821533203125e+01 8.516639709472656250e+00 5.891071319580078125e+00
2.600000000000000000e+01 2.188224601745605469e+01 4.324572086334228516e-01 3.519553661346435547e+00 1.700158309936523438e+01 6.156341075897216797e+00 4.663874149322509766e+00
2.700000000000000000e+01 2.185978698730468750e+01 2.346872389316558838e-01 2.818766355514526367e+00 1.342892742156982422e+01 4.874308109283447266e+00 3.753547668457031250e+00
2.800000000000000000e+01 2.183732986450195312e+01 3.691728040575981140e-02 2.804464340209960938e+00 1.110890007019042969e+01 4.174009323120117188e+00 3.235789299011230469e+00
2.900000000000000000e+01 2.196310234069824219e+01 6.293449997901916504e-01 3.832162618637084961e+00 2.750548934936523438e+01 9.401295661926269531e+00 2.400137424468994141e+00
3.000000000000000000e+01 2.197957611083984375e+01 4.309868812561035156e-01 3.080887079238891602e+00 1.963330650329589844e+01 6.814258098602294922e+00 2.244726419448852539e+00
3.100000000000000000e+01 2.199605178833007812e+01 2.326288223266601562e-01 2.477091073989868164e+00 1.581971836090087891e+01 5.489042758941650391e+00 1.891490817070007324e+00
3.200000000000000000e+01 2.201252365112304688e+01 3.427074849605560303e-02 2.314534664154052734e+00 1.328069400787353516e+01 4.678568363189697266e+00 1.368605613708496094e+00
3.300000000000000000e+01 2.202055358886718750e+01 6.398488879203796387e-01 5.026311397552490234e+00 2.871323776245117188e+01 1.012186431884765625e+01 -1.405184388160705566e+00
3.400000000000000000e+01 2.207533073425292969e+01 4.484933912754058838e-01 3.594775676727294922e+00 2.114395141601562500e+01 7.421618461608886719e+00 -5.206439495086669922e-01
3.500000000000000000e+01 2.213010597229003906e+01 2.571378946304321289e-01 2.908597707748413086e+00 1.704364204406738281e+01 5.985671997070312500e+00 -4.413344860076904297e-01
3.600000000000000000e+01 2.218488311767578125e+01 6.578242778778076172e-02 2.312571048736572266e+00 1.457443141937255859e+01 5.066100597381591797e+00 -5.826164484024047852e-01
3.700000000000000000e+01 2.207486343383789062e+01 6.613368391990661621e-01 7.464977264404296875e+00 2.829899024963378906e+01 1.072918987274169922e+01 -4.764094352722167969e+00
3.800000000000000000e+01 2.216584396362304688e+01 4.843067228794097900e-01 5.136325359344482422e+00 2.130854797363281250e+01 7.933461666107177734e+00 -3.112468242645263672e+00
3.900000000000000000e+01 2.225682640075683594e+01 3.072765767574310303e-01 4.017560958862304688e+00 1.731595420837402344e+01 6.400054454803466797e+00 -2.819397687911987305e+00
4.000000000000000000e+01 2.234780693054199219e+01 1.302464455366134644e-01 3.430624485015869141e+00 1.453125858306884766e+01 5.388565063476562500e+00 -2.459090232849121094e+00
4.100000000000000000e+01 2.212394905090332031e+01 6.929866671562194824e-01 1.068989372253417969e+01 2.678720474243164062e+01 1.124312973022460938e+01 -7.030046939849853516e+00
4.200000000000000000e+01 2.224765396118164062e+01 5.370564460754394531e-01 7.527806282043457031e+00 2.034493064880371094e+01 8.361821174621582031e+00 -5.290661334991455078e+00
4.300000000000000000e+01 2.237136077880859375e+01 3.811261653900146484e-01 5.837775707244873047e+00 1.657829856872558594e+01 6.724822044372558594e+00 -4.485325336456298828e+00
4.400000000000000000e+01 2.249506568908691406e+01 2.251959145069122314e-01 5.033056259155273438e+00 1.385187244415283203e+01 5.665478706359863281e+00 -4.365116119384765625e+00
4.500000000000000000e+01 2.216593360900878906e+01 7.335871458053588867e-01 1.417298412322998047e+01 2.447228431701660156e+01 1.159358024597167969e+01 -8.092012405395507812e+00
4.600000000000000000e+01 2.231763076782226562e+01 6.047238707542419434e-01 1.024938869476318359e+01 1.892801284790039062e+01 8.753220558166503906e+00 -6.502512454986572266e+00
4.700000000000000000e+01 2.246932601928710938e+01 4.758605957031250000e-01 8.414774894714355469e+00 1.497904586791992188e+01 7.018146038055419922e+00 -5.708279132843017578e+00
4.800000000000000000e+01 2.262102127075195312e+01 3.469973206520080566e-01 6.767755508422851562e+00 1.246564388275146484e+01 5.770019531250000000e+00 -4.986583709716796875e+00
4.900000000000000000e+01 2.219921112060546875e+01 7.815845608711242676e-01 1.772219276428222656e+01 2.277881431579589844e+01 1.215030193328857422e+01 -7.761746406555175781e+00
5.000000000000000000e+01 2.237309265136718750e+01 6.847196221351623535e-01 1.277595138549804688e+01 1.661102294921875000e+01 8.816092491149902344e+00 -6.872811317443847656e+00
5.100000000000000000e+01 2.254697418212890625e+01 5.878546237945556641e-01 1.082239723205566406e+01 1.374740409851074219e+01 7.370940685272216797e+00 -5.810414791107177734e+00
5.200000000000000000e+01 2.272085380554199219e+01 4.909895956516265869e-01 9.526645660400390625e+00 1.069086933135986328e+01 6.065254688262939453e+00 -5.688891887664794922e+00
5.300000000000000000e+01 2.222250938415527344e+01 8.351421952247619629e-01 1.971742248535156250e+01 1.998115158081054688e+01 1.190957260131835938e+01 -6.847733497619628906e+00
5.400000000000000000e+01 2.241192054748535156e+01 7.739822864532470703e-01 1.539936351776123047e+01 1.611648178100585938e+01 9.454753875732421875e+00 -5.899633407592773438e+00
5.500000000000000000e+01 2.260133171081542969e+01 7.128223776817321777e-01 1.266314697265625000e+01 1.106770801544189453e+01 7.119256496429443359e+00 -5.581180572509765625e+00
5.600000000000000000e+01 2.279074287414550781e+01 6.516624689102172852e-01 1.100434017181396484e+01 1.087217140197753906e+01 6.562953472137451172e+00 -4.805668354034423828e+00
5.700000000000000000e+01 2.223493385314941406e+01 8.922105431556701660e-01 2.183320426940917969e+01 2.070658111572265625e+01 1.276193618774414062e+01 -4.993074417114257812e+00
5.800000000000000000e+01 2.243262672424316406e+01 8.690961599349975586e-01 1.645919227600097656e+01 1.333932113647460938e+01 8.939554214477539062e+00 -4.535026073455810547e+00
5.900000000000000000e+01 2.263031959533691406e+01 8.459817767143249512e-01 1.405847835540771484e+01 1.204823303222656250e+01 7.832013607025146484e+00 -4.427912235260009766e+00
6.000000000000000000e+01 2.282801437377929688e+01 8.228674530982971191e-01 1.200228500366210938e+01 7.326973438262939453e+00 5.798777580261230469e+00 -3.290091991424560547e+00
6.100000000000000000e+01 2.223600959777832031e+01 9.506056308746337891e-01 2.161371231079101562e+01 1.874259376525878906e+01 1.210689163208007812e+01 -2.799352407455444336e+00
6.200000000000000000e+01 2.243441963195800781e+01 9.664213657379150391e-01 1.744302177429199219e+01 1.492966365814208984e+01 9.711805343627929688e+00 -3.007708787918090820e+00
6.300000000000000000e+01 2.263283157348632812e+01 9.822370409965515137e-01 1.375085449218750000e+01 1.012239170074462891e+01 7.161973476409912109e+00 -2.430921554565429688e+00
6.400000000000000000e+01 2.283124351501464844e+01 9.980527162551879883e-01 1.309333992004394531e+01 8.503338813781738281e+00 6.479003429412841797e+00 -3.058750629425048828e+00
6.500000000000000000e+01 2.222569465637207031e+01 1.008092880249023438e+00 2.177090644836425781e+01 2.083737945556640625e+01 1.278248596191406250e+01 -1.335802674293518066e+00
6.600000000000000000e+01 2.241723060607910156e+01 1.062233328819274902e+00 1.610692977905273438e+01 1.421538162231445312e+01 9.096693038940429688e+00 -9.019319415092468262e-01
6.700000000000000000e+01 2.260876846313476562e+01 1.116373777389526367e+00 1.389764213562011719e+01 1.189010334014892578e+01 7.736323833465576172e+00 -1.260525584220886230e+00
6.800000000000000000e+01 2.280030441284179688e+01 1.170514345169067383e+00 1.080749130249023438e+01 8.738599777221679688e+00 5.863827228546142578e+00 -1.607789635658264160e+00
6.900000000000000000e+01 2.220438766479492188e+01 1.062472224235534668e+00 1.958706283569335938e+01 2.130272483825683594e+01 1.226693630218505859e+01 3.647255301475524902e-01
7.000000000000000000e+01 2.238171958923339844e+01 1.152865648269653320e+00 1.526106357574462891e+01 1.640807914733886719e+01 9.500742912292480469e+00 1.236389651894569397e-01
7.100000000000000000e+01 2.255904960632324219e+01 1.243259072303771973e+00 1.175986671447753906e+01 1.240983390808105469e+01 7.250910282135009766e+00 -3.320712968707084656e-02
7.200000000000000000e+01 2.273638153076171875e+01 1.333652496337890625e+00 9.869542121887207031e+00 1.088991451263427734e+01 6.227837085723876953e+00 -3.673090040683746338e-02
7.300000000000000000e+01 2.217290115356445312e+01 1.111662864685058594e+00 1.787173843383789062e+01 2.378929519653320312e+01 1.249830913543701172e+01 8.527864813804626465e-01
7.400000000000000000e+01 2.232924079895019531e+01 1.234850168228149414e+00 1.269807910919189453e+01 1.755215644836425781e+01 9.075070381164550781e+00 6.934465169906616211e-01
7.500000000000000000e+01 2.248558044433593750e+01 1.358037352561950684e+00 1.002617549896240234e+01 1.466230010986328125e+01 7.406542778015136719e+00 4.538069963455200195e-01
7.600000000000000000e+01 2.264192008972167969e+01 1.481224536895751953e+00 8.318223953247070312e+00 1.163681793212890625e+01 5.986512660980224609e+00 2.916880249977111816e-01
7.700000000000000000e+01 2.213244056701660156e+01 1.153782486915588379e+00 1.492077732086181641e+01 2.548879241943359375e+01 1.212287044525146484e+01 7.798088192939758301e-01
7.800000000000000000e+01 2.226180648803710938e+01 1.305049419403076172e+00 1.047992992401123047e+01 1.983819770812988281e+01 9.095438003540039062e+00 -1.197695266455411911e-02
7.900000000000000000e+01 2.239117240905761719e+01 1.456316351890563965e+00 8.000651359558105469e+00 1.554862689971923828e+01 7.064783573150634766e+00 1.529609411954879761e-01
8.000000000000000000e+01 2.252053833007812500e+01 1.607583284378051758e+00 5.904693603515625000e+00 1.380944061279296875e+01 5.914240360260009766e+00 -2.594976723194122314e-01
8.100000000000000000e+01 2.208455467224121094e+01 1.187219142913818359e+00 1.251995086669921875e+01 2.709615325927734375e+01 1.188483142852783203e+01 -5.538694262504577637e-01
8.200000000000000000e+01 2.218199539184570312e+01 1.360777258872985840e+00 8.121529579162597656e+00 2.144517898559570312e+01 8.870012283325195312e+00 -1.195197939872741699e+00
8.300000000000000000e+01 2.227943801879882812e+01 1.534335255622863770e+00 6.027747154235839844e+00 1.698035240173339844e+01 6.902430057525634766e+00 -1.746351718902587891e+00
8.400000000000000000e+01 2.237688064575195312e+01 1.707893252372741699e+00 4.179532051086425781e+00 1.390588569641113281e+01 5.425625324249267578e+00 -9.828532338142395020e-01
8.500000000000000000e+01 2.203107452392578125e+01 1.210693359375000000e+00 1.078836631774902344e+01 2.888078880310058594e+01 1.190074634552001953e+01 -3.226793050765991211e+00
8.600000000000000000e+01 2.209286308288574219e+01 1.399900913238525391e+00 6.127625465393066406e+00 2.134010124206542969e+01 8.240317344665527344e+00 -3.019266366958618164e+00
8.700000000000000000e+01 2.215465164184570312e+01 1.589108347892761230e+00 4.595495223999023438e+00 1.857361984252929688e+01 6.950734615325927734e+00 -3.749415159225463867e+00
8.800000000000000000e+01 2.221644020080566406e+01 1.778315901756286621e+00 3.013784408569335938e+00 1.419360446929931641e+01 5.162216663360595703e+00 -3.614239454269409180e+00
8.900000000000000000e+01 2.197404670715332031e+01 1.223306775093078613e+00 8.197995185852050781e+00 2.803629684448242188e+01 1.087028694152832031e+01 -5.664528846740722656e+00
9.000000000000000000e+01 2.199781799316406250e+01 1.420923233032226562e+00 6.680570125579833984e+00 2.157175064086914062e+01 8.475696563720703125e+00 -6.130236625671386719e+00
9.100000000000000000e+01 2.202158927917480469e+01 1.618539690971374512e+00 2.596504449844360352e+00 1.720095252990722656e+01 5.939237117767333984e+00 -5.119102478027343750e+00
9.200000000000000000e+01 2.204536056518554688e+01 1.816156148910522461e+00 3.376085281372070312e+00 1.657572937011718750e+01 5.985544204711914062e+00 -5.879272460937500000e+00
9.300000000000000000e+01 2.191565513610839844e+01 1.224576711654663086e+00 9.753063201904296875e+00 2.702101898193359375e+01 1.103222465515136719e+01 -9.148509025573730469e+00
9.400000000000000000e+01 2.190049934387207031e+01 1.423039793968200684e+00 5.178157329559326172e+00 1.942835426330566406e+01 7.381953716278076172e+00 -8.214581489562988281e+00
9.500000000000000000e+01 2.188534355163574219e+01 1.621502995491027832e+00 4.675566196441650391e+00 1.613676071166992188e+01 6.243697643280029297e+00 -7.524012565612792969e+00
9.600000000000000000e+01 2.187018775939941406e+01 1.819966077804565430e+00 1.623141884803771973e+00 1.313022327423095703e+01 4.426009654998779297e+00 -6.530124664306640625e+00
9.700000000000000000e+01 2.185813522338867188e+01 1.214454650878906250e+00 9.933595657348632812e+00 2.354018592834472656e+01 1.004213428497314453e+01 -1.190900039672851562e+01
9.800000000000000000e+01 2.180463218688964844e+01 1.406169772148132324e+00 7.204243659973144531e+00 1.678829002380371094e+01 7.197760105133056641e+00 -1.017619228363037109e+01
9.900000000000000000e+01 2.175112724304199219e+01 1.597884893417358398e+00 4.769774436950683594e+00 1.329027175903320312e+01 5.418014049530029297e+00 -8.805233955383300781e+00
1.000000000000000000e+02 2.169762420654296875e+01 1.789599895477294922e+00 3.336230278015136719e+00 1.051669025421142578e+01 4.155876159667968750e+00 -8.858675956726074219e+00
1.010000000000000000e+02 2.180368614196777344e+01 1.193327903747558594e+00 1.212054729461669922e+01 1.892462921142578125e+01 9.313552856445312500e+00 -1.381314468383789062e+01
1.020000000000000000e+02 2.171388244628906250e+01 1.370958566665649414e+00 8.692759513854980469e+00 1.319995975494384766e+01 6.567815780639648438e+00 -1.075146484375000000e+01
1.030000000000000000e+02 2.162407875061035156e+01 1.548589110374450684e+00 6.253168582916259766e+00 9.712367057800292969e+00 4.789660453796386719e+00 -1.000428962707519531e+01
1.040000000000000000e+02 2.153427314758300781e+01 1.726219654083251953e+00 4.199496746063232422e+00 9.341414451599121094e+00 4.062273502349853516e+00 -8.786007881164550781e+00
1.050000000000000000e+02 2.175439071655273438e+01 1.162004947662353516e+00 1.491359519958496094e+01 1.414568996429443359e+01 8.717785835266113281e+00 -1.367131233215332031e+01
1.060000000000000000e+02 2.163172340393066406e+01 1.318753480911254883e+00 1.013641357421875000e+01 8.405695915222167969e+00 5.562632560729980469e+00 -1.079900932312011719e+01
1.070000000000000000e+02 2.150905609130859375e+01 1.475502133369445801e+00 7.496565341949462891e+00 7.398130893707275391e+00 4.468408584594726562e+00 -9.143724441528320312e+00
1.080000000000000000e+02 2.138638877868652344e+01 1.632250666618347168e+00 5.601517200469970703e+00 5.296556472778320312e+00 3.269422054290771484e+00 -8.423411369323730469e+00
1.090000000000000000e+02 2.171213722229003906e+01 1.121684312820434570e+00 1.663987159729003906e+01 7.719278812408447266e+00 7.307744979858398438e+00 -1.236716842651367188e+01
1.100000000000000000e+02 2.156130027770996094e+01 1.251552581787109375e+00 1.144517135620117188e+01 5.477777957916259766e+00 5.076884746551513672e+00 -8.902646064758300781e+00
1.110000000000000000e+02 2.141046524047851562e+01 1.381420731544494629e+00 8.072935104370117188e+00 3.353964328765869141e+00 3.428069829940795898e+00 -7.775539875030517578e+00
1.120000000000000000e+02 2.125962829589843750e+01 1.511289000511169434e+00 6.260274410247802734e+00 3.848868370056152344e+00 3.032742738723754883e+00 -7.092330455780029297e+00
1.130000000000000000e+02 2.167854118347167969e+01 1.073909163475036621e+00 1.781236648559570312e+01 3.872092008590698242e+00 6.505337238311767578e+00 -8.978960990905761719e+00
1.140000000000000000e+02 2.150530815124511719e+01 1.171927332878112793e+00 1.096119022369384766e+01 1.377161383628845215e+00 3.701505422592163086e+00 -6.361542701721191406e+00
1.150000000000000000e+02 2.133207511901855469e+01 1.269945383071899414e+00 8.071012496948242188e+00 2.084421634674072266e+00 3.046630144119262695e+00 -5.503603458404541016e+00
1.160000000000000000e+02 2.115884017944335938e+01 1.367963433265686035e+00 5.720156192779541016e+00 9.385420680046081543e-01 1.997609496116638184e+00 -5.079163551330566406e+00
1.170000000000000000e+02 2.165488815307617188e+01 1.020507693290710449e+00 1.590172100067138672e+01 -6.506171226501464844e-01 4.575331211090087891e+00 -4.784312725067138672e+00
1.180000000000000000e+02 2.146588897705078125e+01 1.082924723625183105e+00 9.643039703369140625e+00 5.335442423820495605e-01 3.052975177764892578e+00 -3.213579654693603516e+00
1.190000000000000000e+02 2.127688789367675781e+01 1.145341753959655762e+00 6.128459453582763672e+00 -5.126770213246345520e-02 1.823157548904418945e+00 -3.113543748855590820e+00
1.200000000000000000e+02 2.108788490295410156e+01 1.207758903503417969e+00 4.854634284973144531e+00 6.691027283668518066e-01 1.657121181488037109e+00 -3.266283750534057617e+00
1.210000000000000000e+02 2.164208602905273438e+01 9.635233283042907715e-01 1.192135143280029297e+01 -1.427000522613525391e+00 3.148305177688598633e+00 -7.607657462358474731e-02
1.220000000000000000e+02 2.144454956054687500e+01 9.879508018493652344e-01 5.360035896301269531e+00 -5.341851711273193359e-01 1.447755217552185059e+00 -7.799413800239562988e-01
1.230000000000000000e+02 2.124701309204101562e+01 1.012378334999084473e+00 4.494028568267822266e+00 5.273141264915466309e-01 1.506402850151062012e+00 -1.660356283187866211e+00
1.240000000000000000e+02 2.104947662353515625e+01 1.036805748939514160e+00 2.581068038940429688e+00 -8.642719984054565430e-01 5.150387883186340332e-01 -1.298209071159362793e+00
1.250000000000000000e+02 2.164062309265136719e+01 9.051367640495300293e-01 1.432294845581054688e+00 -1.746195316314697266e+00 -9.417015314102172852e-02 2.069236755371093750e+00
1.260000000000000000e+02 2.144211006164550781e+01 8.906399011611938477e-01 3.394178152084350586e+00 9.819504618644714355e-01 1.312838554382324219e+00 -5.799168348312377930e-01
1.270000000000000000e+02 2.124359703063964844e+01 8.761430382728576660e-01 1.213819861412048340e+00 -7.645089626312255859e-01 1.347932666540145874e-01 3.349471837282180786e-02
1.280000000000000000e+02 2.104508399963378906e+01 8.616461753845214844e-01 3.145457506179809570e-01 2.944645583629608154e-01 1.827030926942825317e-01 -5.259382128715515137e-01
1.290000000000000000e+02 1.638479995727539062e+01 -2.291260659694671631e-01 -1.357670545578002930e+00 2.444162778556346893e-02 -3.999686837196350098e-01 6.057404726743698120e-02
1.300000000000000000e+02 1.767346382141113281e+01 -9.543517827987670898e-01 -1.124004647135734558e-01 1.823382973670959473e-01 2.098135091364383698e-02 6.736756563186645508e-01
1.310000000000000000e+02 1.899173545837402344e+01 -7.428597807884216309e-01 7.390702366828918457e-01 3.068439662456512451e-01 3.137742578983306885e-01 9.737766385078430176e-01
1.320000000000000000e+02 1.639985847473144531e+01 -9.708271622657775879e-01 -8.231664299964904785e-01 1.052056401968002319e-01 -2.153882384300231934e-01 4.334389865398406982e-01
1.330000000000000000e+02 1.892323112487792969e+01 -9.824577569961547852e-01 8.232877254486083984e-01 4.311077594757080078e-01 3.763186335563659668e-01 1.176514744758605957e+00
1.340000000000000000e+02 1.895301437377929688e+01 -1.942254751920700073e-01 4.144597053527832031e-01 1.388547718524932861e-01 1.659943461418151855e-01 4.457359611988067627e-01
1.350000000000000000e+02 1.836691856384277344e+01 -5.503124371170997620e-02 -2.432694435119628906e-01 -1.079532969743013382e-02 -7.621943205595016479e-02 1.558760553598403931e-01
1.360000000000000000e+02 1.712001037597656250e+01 -1.670367866754531860e-01 -9.709872007369995117e-01 2.315710484981536865e-02 -2.843490242958068848e-01 9.392996132373809814e-02
1.370000000000000000e+02 1.902460289001464844e+01 -5.520957112312316895e-01 7.049790620803833008e-01 2.608792781829833984e-01 2.897574901580810547e-01 7.966610193252563477e-01
1.380000000000000000e+02 1.877803421020507812e+01 -3.080941140651702881e-01 3.549248278141021729e-01 1.839639693498611450e-01 1.616666465997695923e-01 5.166584849357604980e-01
1.390000000000000000e+02 1.795348739624023438e+01 -5.830347537994384766e-01 -1.706271469593048096e-01 1.309706419706344604e-01 -1.189695298671722412e-02 5.150549411773681641e-01
1.400000000000000000e+02 1.871756172180175781e+01 2.182425558567047119e-01 -2.381971031427383423e-01 1.484125945717096329e-02 -6.700675189495086670e-02 4.067137837409973145e-02
1.410000000000000000e+02 1.836092567443847656e+01 -4.563750624656677246e-01 -5.308376625180244446e-02 1.134475320577621460e-01 1.810912974178791046e-02 4.929425120353698730e-01
1.420000000000000000e+02 1.887117385864257812e+01 -2.701810561120510101e-03 1.710301935672760010e-01 1.226179301738739014e-01 8.809443563222885132e-02 2.851905524730682373e-01
1.430000000000000000e+02 1.900959777832031250e+01 -3.771094381809234619e-01 6.159366965293884277e-01 1.836362630128860474e-01 2.398718893527984619e-01 6.186209917068481445e-01
1.440000000000000000e+02 1.864488220214843750e+01 -1.766929030418395996e-01 1.192961707711219788e-01 1.227970719337463379e-01 7.262796908617019653e-02 3.568691909313201904e-01
1.450000000000000000e+02 1.818033790588378906e+01 -9.720416069030761719e-01 2.912485003471374512e-01 2.776495516300201416e-01 1.706694215536117554e-01 8.752347230911254883e-01
1.460000000000000000e+02 1.854744529724121094e+01 -8.088757991790771484e-01 4.359859228134155273e-01 2.884145379066467285e-01 2.173201292753219604e-01 8.973448276519775391e-01
1.470000000000000000e+02 1.887731170654296875e+01 -4.644598066806793213e-01 5.302419066429138184e-01 1.900910288095474243e-01 2.160998880863189697e-01 6.566419005393981934e-01
1.480000000000000000e+02 1.707072639465332031e+01 -9.146098494529724121e-01 -5.034616589546203613e-01 1.375918537378311157e-01 -1.097609475255012512e-01 5.277472734451293945e-01
1.490000000000000000e+02 1.783614921569824219e+01 -6.120263412594795227e-02 -6.242275834083557129e-01 9.616442024707794189e-03 -1.843833476305007935e-01 1.070049330592155457e-01
1.500000000000000000e+02 1.861538696289062500e+01 -3.990953266620635986e-01 2.101753801107406616e-01 1.715652048587799072e-01 1.145221740007400513e-01 5.374902486801147461e-01
1.510000000000000000e+02 1.874605941772460938e+01 -6.112808585166931152e-01 4.574249982833862305e-01 2.518908381462097168e-01 2.127947509288787842e-01 7.744125723838806152e-01
1.520000000000000000e+02 2.141003227233886719e+01 -6.302062422037124634e-02 3.369506120681762695e+00 4.960090637207031250e+00 2.498878955841064453e+00 3.790727853775024414e+00
1.530000000000000000e+02 2.273360443115234375e+01 2.221516966819763184e-01 5.966034889221191406e+00 1.084990310668945312e+01 5.044781684875488281e+00 -4.427525997161865234e+00
1.540000000000000000e+02 2.126895523071289062e+01 1.789348721504211426e+00 4.163127899169921875e+00 5.958178043365478516e+00 3.036391735076904297e+00 -7.687379360198974609e+00
1.550000000000000000e+02 2.156075477600097656e+01 2.251924514770507812e+00 9.438709020614624023e-01 9.032503128051757812e+00 2.992912292480468750e+00 -7.308435916900634766e+00
1.560000000000000000e+02 2.249917030334472656e+01 1.553654298186302185e-02 3.780492067337036133e+00 1.266834449768066406e+01 4.934650897979736328e+00 -2.825880050659179688e+00
1.570000000000000000e+02 2.166910362243652344e+01 -5.246780514717102051e-01 2.000400781631469727e+00 7.124112129211425781e+00 2.737353801727294922e+00 3.007510423660278320e+00
1.580000000000000000e+02 2.076618766784667969e+01 3.320967853069305420e-01 2.239434242248535156e+00 2.454690635204315186e-01 7.454710006713867188e-01 8.946278691291809082e-01
1.590000000000000000e+02 1.927108001708984375e+01 -9.706497788429260254e-01 1.096909642219543457e+00 6.549965143203735352e-01 5.255718827247619629e-01 1.345849514007568359e+00
1.600000000000000000e+02 2.016097450256347656e+01 -4.578919708728790283e-01 1.951343059539794922e+00 8.401217460632324219e-01 8.374394774436950684e-01 1.533625960350036621e+00
1.610000000000000000e+02 2.209481239318847656e+01 -4.352303743362426758e-01 1.624654412269592285e+00 9.473923683166503906e+00 3.329573392868041992e+00 1.452975273132324219e+00
1.620000000000000000e+02 2.205384063720703125e+01 -1.838907897472381592e-01 2.258651018142700195e+00 1.088737010955810547e+01 3.943806409835815430e+00 1.066947102546691895e+00
1.630000000000000000e+02 1.990639686584472656e+01 4.192616343498229980e-01 4.530016183853149414e-01 6.744671612977981567e-02 1.561345010995864868e-01 1.508679091930389404e-01
1.640000000000000000e+02 2.005107116699218750e+01 -7.966200113296508789e-01 1.766483902931213379e+00 1.051910758018493652e+00 8.455184102058410645e-01 1.765256404876708984e+00
1.650000000000000000e+02 1.891179466247558594e+01 1.785473704338073730e+00 -8.818268179893493652e-01 3.767865598201751709e-01 -1.515120714902877808e-01 -1.929050326347351074e+00
1.660000000000000000e+02 2.103364753723144531e+01 2.159041643142700195e+00 2.260214328765869141e+00 5.067513942718505859e+00 2.198318481445312500e+00 -6.472335815429687500e+00
1.670000000000000000e+02 2.074523735046386719e+01 1.564314603805541992e+00 3.305624485015869141e+00 1.180230855941772461e+00 1.345756530761718750e+00 -4.152444839477539062e+00
1.680000000000000000e+02 2.121326828002929688e+01 2.224571228027343750e+00 2.048516750335693359e+00 5.546443939208984375e+00 2.278488159179687500e+00 -7.186911582946777344e+00
1.690000000000000000e+02 1.906254196166992188e+01 5.389561057090759277e-01 -4.184784889221191406e+00 -8.635112643241882324e-02 -1.281340837478637695e+00 -6.594140529632568359e-01
1.700000000000000000e+02 1.981008529663085938e+01 8.670647740364074707e-01 -2.697123050689697266e+00 -1.391419172286987305e-01 -8.508794903755187988e-01 -9.211845397949218750e-01
1.710000000000000000e+02 1.894482040405273438e+01 1.557973265647888184e+00 -1.493115186691284180e+00 3.719897270202636719e-01 -3.363376259803771973e-01 -1.572580814361572266e+00
1.720000000000000000e+02 2.032325935363769531e+01 1.779124498367309570e+00 2.055129528045654297e+00 7.562965750694274902e-01 8.434278368949890137e-01 -3.929431438446044922e+00
1.730000000000000000e+02 1.979567718505859375e+01 1.047732591629028320e+00 -1.612236857414245605e+00 -3.486073017120361328e-02 -4.941292703151702881e-01 -1.300009250640869141e+00
1.740000000000000000e+02 2.089195251464843750e+01 1.331257700920104980e+00 3.717569828033447266e+00 4.111003130674362183e-03 1.116504192352294922e+00 -3.387946605682373047e+00
1.750000000000000000e+02 2.082451057434082031e+01 8.685424327850341797e-01 -6.958545446395874023e-01 -5.228548645973205566e-01 -3.656128346920013428e-01 -5.337033867835998535e-01
1.760000000000000000e+02 2.269939994812011719e+01 1.685744285583496094e+00 5.488333702087402344e+00 1.148450851440429688e+01 5.091852664947509766e+00 -6.022561788558959961e-01
1.770000000000000000e+02 2.236507034301757812e+01 2.021320581436157227e+00 4.815841913223266602e-01 1.148285007476806641e+01 3.589330196380615234e+00 -3.268936872482299805e+00
1.780000000000000000e+02 2.143268775939941406e+01 1.915504932403564453e+00 3.048750877380371094e+00 7.117610454559326172e+00 3.049908399581909180e+00 -8.079133033752441406e+00
1.790000000000000000e+02 2.088579750061035156e+01 6.219761371612548828e-01 8.749625086784362793e-01 -9.247898310422897339e-02 2.347450554370880127e-01 2.004138231277465820e-01
1.800000000000000000e+02 2.049381637573242188e+01 5.218029618263244629e-01 7.347680926322937012e-01 9.873107075691223145e-03 2.233923524618148804e-01 1.948976814746856689e-01
1.810000000000000000e+02 2.122206687927246094e+01 4.464608058333396912e-02 3.756507873535156250e+00 3.178468227386474609e+00 2.080492734909057617e+00 3.179183721542358398e+00
1.820000000000000000e+02 2.259843063354492188e+01 1.216824278235435486e-01 4.811176776885986328e+00 1.307385253906250000e+01 5.365509033203125000e+00 -4.314937591552734375e+00
1.830000000000000000e+02 2.025168609619140625e+01 -7.490111589431762695e-01 1.938749670982360840e+00 1.377132415771484375e+00 9.947646856307983398e-01 1.951415538787841797e+00
1.840000000000000000e+02 1.985188102722167969e+01 -8.447474241256713867e-01 1.593788862228393555e+00 9.191347360610961914e-01 7.538771033287048340e-01 1.613871335983276367e+00
1.850000000000000000e+02 1.936015319824218750e+01 8.745711296796798706e-02 4.560857117176055908e-01 1.093416661024093628e-01 1.696282178163528442e-01 2.970068752765655518e-01
1.860000000000000000e+02 1.914207839965820312e+01 7.031397521495819092e-02 2.418402880430221558e-01 3.675461560487747192e-02 8.357847481966018677e-02 2.848575711250305176e-01
1.870000000000000000e+02 1.910580825805664062e+01 2.868812680244445801e-01 4.634179174900054932e-02 1.577321812510490417e-02 1.863450184464454651e-02 7.911752909421920776e-02
1.880000000000000000e+02 2.272151947021484375e+01 1.994364500045776367e+00 1.848341703414916992e+00 1.092911529541015625e+01 3.833237171173095703e+00 -1.393573164939880371e+00
1.890000000000000000e+02 2.205880737304687500e+01 2.142795562744140625e+00 -1.127228021621704102e+00 1.182398128509521484e+01 3.209026098251342773e+00 -4.951378822326660156e+00
1.900000000000000000e+02 2.175608253479003906e+01 2.095130681991577148e+00 7.356020212173461914e-01 9.857349395751953125e+00 3.177885293960571289e+00 -6.753098011016845703e+00
1.910000000000000000e+02 2.022790145874023438e+01 7.346889376640319824e-01 -2.767950296401977539e+00 -7.209187746047973633e-02 -8.520126342773437500e-01 -7.435815930366516113e-01
1.920000000000000000e+02 2.045142173767089844e+01 1.088061094284057617e+00 2.169425636529922485e-01 -1.182951331138610840e-01 2.959422953426837921e-02 -1.353341698646545410e+00
1.930000000000000000e+02 2.081551170349121094e+01 1.122264146804809570e+00 2.030993700027465820e+00 1.952478140592575073e-01 6.678724288940429688e-01 -1.950789093971252441e+00
1.940000000000000000e+02 2.293161392211914062e+01 1.233642339706420898e+00 9.606744766235351562e+00 7.849468708038330078e+00 5.236864089965820312e+00 -1.945320963859558105e+00
1.950000000000000000e+02 2.277849960327148438e+01 1.546826601028442383e+00 7.902509212493896484e+00 1.103619003295898438e+01 5.681609630584716797e+00 2.763504087924957275e-01
1.960000000000000000e+02 2.026044082641601562e+01 2.020707607269287109e+00 1.675593256950378418e+00 1.571943044662475586e+00 9.742608666419982910e-01 -4.228929519653320312e+00
1.970000000000000000e+02 2.160758018493652344e+01 2.001635551452636719e+00 1.384927988052368164e+00 1.045063781738281250e+01 3.550669670104980469e+00 -7.756588459014892578e+00
1.980000000000000000e+02 2.300642967224121094e+01 1.060760974884033203e+00 1.116365814208984375e+01 6.225581645965576172e+00 5.216771602630615234e+00 -2.632771492004394531e+00
1.990000000000000000e+02 2.326377487182617188e+01 8.326494097709655762e-01 1.026334095001220703e+01 3.606230258941650391e+00 4.160871028900146484e+00 -3.628040790557861328e+00
2.000000000000000000e+02 2.286292266845703125e+01 1.386025428771972656e+00 8.760841369628906250e+00 9.184082984924316406e+00 5.383477210998535156e+00 -3.323881924152374268e-01
2.010000000000000000e+02 2.293157768249511719e+01 7.715845108032226562e-02 6.417140960693359375e+00 8.453455924987792969e+00 4.461178779602050781e+00 -4.285662651062011719e+00
2.020000000000000000e+02 2.268768882751464844e+01 7.553971558809280396e-02 5.118648529052734375e+00 1.128797340393066406e+01 4.921986579895019531e+00 -4.105138778686523438e+00
2.030000000000000000e+02 2.161234855651855469e+01 -1.517030447721481323e-01 2.826571941375732422e+00 7.648025512695312500e+00 3.142379283905029297e+00 3.616862297058105469e+00
2.040000000000000000e+02 2.108508491516113281e+01 -5.755610466003417969e-01 2.621562242507934570e+00 3.642815589904785156e+00 1.879313349723815918e+00 2.973685026168823242e+00
2.050000000000000000e+02 2.295438003540039062e+01 3.694999814033508301e-01 7.998226642608642578e+00 7.804389953613281250e+00 4.740785121917724609e+00 -4.759745121002197266e+00
2.060000000000000000e+02 2.306540298461914062e+01 5.928862690925598145e-01 9.030660629272460938e+00 5.617424011230468750e+00 4.394425392150878906e+00 -4.008554458618164062e+00
2.070000000000000000e+02 2.095971679687500000e+01 4.184600114822387695e-01 2.456188201904296875e+00 4.803237617015838623e-01 8.809536099433898926e-01 9.909390807151794434e-01
2.080000000000000000e+02 2.106718254089355469e+01 2.124840766191482544e-01 3.456601619720458984e+00 1.270487546920776367e+00 1.418126702308654785e+00 2.184866666793823242e+00
2.090000000000000000e+02 2.248624801635742188e+01 -2.797526419162750244e-01 2.460845947265625000e+00 1.081832122802734375e+01 3.983750104904174805e+00 -1.658251166343688965e+00
2.100000000000000000e+02 2.083434295654296875e+01 2.112577199935913086e+00 2.560747861862182617e+00 3.242773771286010742e+00 1.741056442260742188e+00 -6.261963367462158203e+00
2.110000000000000000e+02 2.063695526123046875e+01 2.086036205291748047e+00 2.239300727844238281e+00 2.867763042449951172e+00 1.532119154930114746e+00 -5.257891178131103516e+00
2.120000000000000000e+02 2.138441276550292969e+01 2.243424654006958008e+00 1.062311172485351562e+00 7.633586883544921875e+00 2.608769416809082031e+00 -6.348328113555908203e+00
2.130000000000000000e+02 1.910659599304199219e+01 1.830266952514648438e+00 -7.320913672447204590e-01 6.441265344619750977e-01 -2.638944238424301147e-02 -2.007028102874755859e+00
2.140000000000000000e+02 2.003760147094726562e+01 6.974210739135742188e-01 -3.271837234497070312e+00 -1.264697611331939697e-01 -1.019492030143737793e+00 -6.863362789154052734e-01
2.150000000000000000e+02 2.007101249694824219e+01 1.984727621078491211e+00 1.451425552368164062e+00 9.381518959999084473e-01 7.168732285499572754e-01 -3.820288181304931641e+00
2.160000000000000000e+02 1.964390563964843750e+01 6.620542407035827637e-01 -3.778487205505371094e+00 -1.518480777740478516e-01 -1.179100632667541504e+00 -7.240260243415832520e-01
2.170000000000000000e+02 1.918816184997558594e+01 7.877559065818786621e-01 -3.545653581619262695e+00 -8.190257847309112549e-02 -1.088266849517822266e+00 -7.381002902984619141e-01
2.180000000000000000e+02 2.016143608093261719e+01 1.159027218818664551e+00 -2.603293657302856445e-01 -2.939271554350852966e-02 -8.691662549972534180e-02 -1.595534682273864746e+00
2.190000000000000000e+02 2.060543823242187500e+01 8.469089865684509277e-01 -1.261332273483276367e+00 2.961262315511703491e-02 -3.695158958435058594e-01 -8.753626942634582520e-01
2.200000000000000000e+02 1.917451858520507812e+01 -1.449702829122543335e-01 5.790945291519165039e-01 1.212165877223014832e-01 2.100933343172073364e-01 4.742170274257659912e-01
2.210000000000000000e+02 2.056282997131347656e+01 -1.416554152965545654e-01 2.462198972702026367e+00 9.887320995330810547e-01 1.035279273986816406e+00 1.571551918983459473e+00
2.220000000000000000e+02 2.015238761901855469e+01 2.081310898065567017e-01 1.246224761009216309e+00 1.917541176080703735e-01 4.313936829566955566e-01 5.423424243927001953e-01
2.230000000000000000e+02 1.921929740905761719e+01 -5.636423230171203613e-01 8.792070746421813965e-01 3.065526187419891357e-01 3.557279109954833984e-01 8.671384453773498535e-01
2.240000000000000000e+02 1.931070518493652344e+01 3.168937563896179199e-01 1.604092568159103394e-01 3.633897751569747925e-02 5.902447178959846497e-02 9.184265881776809692e-02
2.250000000000000000e+02 2.086789512634277344e+01 -6.133946180343627930e-01 2.420336723327636719e+00 2.783982038497924805e+00 1.561295628547668457e+00 2.723622322082519531e+00
2.260000000000000000e+02 2.132876014709472656e+01 -3.082948625087738037e-01 3.018340349197387695e+00 4.984202861785888672e+00 2.400763034820556641e+00 3.479581356048583984e+00
2.270000000000000000e+02 2.129632186889648438e+01 -5.732902884483337402e-01 2.329177141189575195e+00 4.573686599731445312e+00 2.070859193801879883e+00 3.137072563171386719e+00
2.280000000000000000e+02 1.971224594116210938e+01 3.813549876213073730e-01 3.613322079181671143e-01 2.681895159184932709e-02 1.164453476667404175e-01 1.317346990108489990e-01
2.290000000000000000e+02 2.186727714538574219e+01 -4.665447473526000977e-01 1.834013104438781738e+00 8.731795310974121094e+00 3.169742584228515625e+00 1.992283821105957031e+00
2.300000000000000000e+02 2.111029624938964844e+01 -2.400555759668350220e-01 3.063202619552612305e+00 3.031795263290405273e+00 1.828499436378479004e+00 3.073577880859375000e+00
2.310000000000000000e+02 1.913992691040039062e+01 1.289636135101318359e+00 -1.929598808288574219e+00 8.412496000528335571e-02 -5.536421537399291992e-01 -1.306253075599670410e+00
2.320000000000000000e+02 1.925133514404296875e+01 5.786184072494506836e-01 -4.113566398620605469e+00 -4.941172152757644653e-02 -1.248893380165100098e+00 -7.494647502899169922e-01
2.330000000000000000e+02 1.894893646240234375e+01 1.346271753311157227e+00 -1.854558706283569336e+00 1.250631213188171387e-01 -5.188486576080322266e-01 -1.252895951271057129e+00
2.340000000000000000e+02 1.920159530639648438e+01 -3.577544987201690674e-01 7.380496859550476074e-01 2.207994312047958374e-01 2.876547574996948242e-01 6.729726195335388184e-01
2.350000000000000000e+02 1.924022102355957031e+01 -7.664371132850646973e-01 9.829216003417968750e-01 5.135539770126342773e-01 4.489426910877227783e-01 1.139747142791748047e+00
2.360000000000000000e+02 1.943622016906738281e+01 -3.713499009609222412e-01 1.008249998092651367e+00 3.002861142158508301e-01 3.925608396530151367e-01 8.246981501579284668e-01
2.370000000000000000e+02 2.069094657897949219e+01 5.692608356475830078e-01 8.087950944900512695e-01 1.055700927972793579e-01 2.743095457553863525e-01 2.007607817649841309e-01
2.380000000000000000e+02 1.968778038024902344e+01 1.891535162925720215e+00 4.562243521213531494e-01 6.950021982192993164e-01 3.453679680824279785e-01 -3.001218080520629883e+00
2.390000000000000000e+02 1.928013801574707031e+01 1.868596792221069336e+00 -1.684377640485763550e-01 5.212689638137817383e-01 1.058493629097938538e-01 -2.452876329421997070e+00
2.400000000000000000e+02 2.085374450683593750e+01 1.865385651588439941e+00 3.191420555114746094e+00 2.708669424057006836e+00 1.770027041435241699e+00 -5.664950847625732422e+00
2.410000000000000000e+02 2.100817871093750000e+01 1.799881696701049805e+00 3.774737834930419922e+00 3.817418336868286133e+00 2.277646780014038086e+00 -6.557029724121093750e+00
2.420000000000000000e+02 1.997504806518554688e+01 1.693192124366760254e+00 7.606884837150573730e-01 4.426631033420562744e-01 3.610054850578308105e-01 -3.002012968063354492e+00
2.430000000000000000e+02 1.947959899902343750e+01 1.864949703216552734e+00 -7.149563729763031006e-02 6.146930456161499023e-01 1.629592329263687134e-01 -2.483450174331665039e+00
2.440000000000000000e+02 2.055887222290039062e+01 1.265088677406311035e+00 1.494829654693603516e+00 -2.436981350183486938e-01 3.753394484519958496e-01 -2.248486280441284180e+00
2.450000000000000000e+02 1.962646102905273438e+01 1.081466913223266602e+00 -1.845220088958740234e+00 -5.136627331376075745e-02 -5.689758658409118652e-01 -1.172800183296203613e+00
2.460000000000000000e+02 1.935037994384765625e+01 8.633882999420166016e-01 -3.082725048065185547e+00 4.166003316640853882e-03 -9.235677123069763184e-01 -8.719702959060668945e-01
2.470000000000000000e+02 1.997774887084960938e+01 1.705901622772216797e-01 1.005255818367004395e+00 1.499608010053634644e-01 3.465649783611297607e-01 4.484753012657165527e-01
2.480000000000000000e+02 1.951291465759277344e+01 3.485112786293029785e-01 2.593560218811035156e-01 3.509135171771049500e-02 8.833421766757965088e-02 1.178138405084609985e-01
2.490000000000000000e+02 1.978665542602539062e+01 1.220610886812210083e-01 8.489112854003906250e-01 1.427835822105407715e-01 2.975084781646728516e-01 4.286309480667114258e-01
2.500000000000000000e+02 2.058616256713867188e+01 -3.940375745296478271e-01 2.492983102798461914e+00 1.473576903343200684e+00 1.189967989921569824e+00 2.128408670425415039e+00
2.510000000000000000e+02 1.898343467712402344e+01 9.474068880081176758e-01 -3.183686017990112305e+00 -1.502053588628768921e-01 -1.000167489051818848e+00 -8.542426824569702148e-01
2.520000000000000000e+02 1.946800231933593750e+01 -9.376507401466369629e-01 1.238872885704040527e+00 6.676511168479919434e-01 5.719572305679321289e-01 1.398288011550903320e+00
2.530000000000000000e+02 2.112904739379882812e+01 1.648802280426025391e+00 5.021096706390380859e+00 2.630404233932495117e+00 2.295450210571289062e+00 -6.637898445129394531e+00
2.540000000000000000e+02 2.044917678833007812e+01 2.053669691085815430e+00 2.177933216094970703e+00 1.709863424301147461e+00 1.166338920593261719e+00 -4.891594886779785156e+00
2.550000000000000000e+02 2.056273651123046875e+01 2.514670491218566895e-01 1.928573608398437500e+00 3.531063795089721680e-01 6.845040321350097656e-01 8.160406947135925293e-01
2.560000000000000000e+02 1.946113014221191406e+01 1.609008669853210449e+00 -3.891153335571289062e-01 3.845878541469573975e-01 -1.358238048851490021e-03 -2.166563987731933594e+00
2.570000000000000000e+02 1.958091735839843750e+01 -6.875594854354858398e-01 1.300671935081481934e+00 5.656589865684509277e-01 5.598992705345153809e-01 1.258127331733703613e+00
2.580000000000000000e+02 2.086567687988281250e+01 9.446082264184951782e-02 2.953969717025756836e+00 1.295528650283813477e+00 1.274849534034729004e+00 1.877722740173339844e+00
2.590000000000000000e+02 2.065657043457031250e+01 -6.704462170600891113e-01 2.294101238250732422e+00 2.090343713760375977e+00 1.315333485603332520e+00 2.390461921691894531e+00
2.600000000000000000e+02 1.961435127258300781e+01 -1.282924562692642212e-01 9.805784821510314941e-01 2.070189416408538818e-01 3.562792241573333740e-01 5.979233980178833008e-01
2.610000000000000000e+02 1.996046447753906250e+01 -5.409836173057556152e-01 1.655631542205810547e+00 7.186566591262817383e-01 7.122864723205566406e-01 1.394282341003417969e+00
2.620000000000000000e+02 1.966334533691406250e+01 -3.636714518070220947e-01 1.288364529609680176e+00 3.894982039928436279e-01 5.033587813377380371e-01 9.873624444007873535e-01
2.630000000000000000e+02 1.924570846557617188e+01 1.682972669601440430e+00 -8.002265095710754395e-01 2.836844921112060547e-01 -1.549626141786575317e-01 -1.947775006294250488e+00
2.640000000000000000e+02 2.067981529235839844e+01 1.831938505172729492e+00 2.837875366210937500e+00 1.775996565818786621e+00 1.384161591529846191e+00 -5.232350349426269531e+00
2.650000000000000000e+02 2.035318374633789062e+01 1.389972567558288574e+00 1.084345221519470215e+00 4.077110290527343750e-01 4.476169049739837646e-01 -2.568637371063232422e+00
2.660000000000000000e+02 1.993730545043945312e+01 1.399288058280944824e+00 -4.116216674447059631e-02 4.973588883876800537e-02 2.572116907685995102e-03 -2.140391588211059570e+00
2.670000000000000000e+02 1.940084648132324219e+01 -1.402581036090850830e-01 7.721207141876220703e-01 1.652095615863800049e-01 2.811990976333618164e-01 5.591041445732116699e-01
2.680000000000000000e+02 1.986140251159667969e+01 -3.174576759338378906e-01 1.499815940856933594e+00 5.139642357826232910e-01 6.041340827941894531e-01 1.082554817199707031e+00
2.690000000000000000e+02 1.960226249694824219e+01 1.300931930541992188e+00 -1.076835393905639648e+00 3.969432786107063293e-02 -3.111422955989837646e-01 -1.670262098312377930e+00
2.700000000000000000e+02 1.942456626892089844e+01 -7.489120960235595703e-01 1.136681556701660156e+00 5.785878300666809082e-01 5.145808458328247070e-01 1.242767095565795898e+00
2.710000000000000000e+02 1.965991592407226562e+01 -8.943346738815307617e-01 1.400406479835510254e+00 7.915742993354797363e-01 6.575942635536193848e-01 1.526516318321228027e+00
2.720000000000000000e+02 1.975401496887207031e+01 -6.046851277351379395e-01 1.438264369964599609e+00 6.542111635208129883e-01 6.277426481246948242e-01 1.306207895278930664e+00
2.730000000000000000e+02 2.045260047912597656e+01 -7.077838778495788574e-01 2.119697570800781250e+00 1.688797593116760254e+00 1.142548561096191406e+00 2.205366373062133789e+00
2.740000000000000000e+02 2.037241172790527344e+01 -4.055312275886535645e-01 2.221704483032226562e+00 1.076393604278564453e+00 9.894294142723083496e-01 1.721771359443664551e+00
2.750000000000000000e+02 2.035551071166992188e+01 -9.798453003168106079e-02 2.008076906204223633e+00 6.023432016372680664e-01 7.831260561943054199e-01 1.244696497917175293e+00
2.760000000000000000e+02 2.078314399719238281e+01 -3.487094044685363770e-01 2.867080926895141602e+00 2.010946989059448242e+00 1.463408350944519043e+00 2.474824428558349609e+00
2.770000000000000000e+02 1.902254486083984375e+01 7.461161613464355469e-01 -3.801723241806030273e+00 -2.535448037087917328e-02 -1.148123264312744141e+00 -7.870758771896362305e-01
2.780000000000000000e+02 1.944265174865722656e+01 6.315032839775085449e-01 -3.931675434112548828e+00 -1.497613936662673950e-01 -1.224431037902832031e+00 -7.689387798309326172e-01
2.790000000000000000e+02 1.912207031250000000e+01 9.664478898048400879e-01 -2.988854408264160156e+00 1.573134399950504303e-02 -8.919368982315063477e-01 -9.635667204856872559e-01
2.800000000000000000e+02 1.984518241882324219e+01 6.719631552696228027e-01 -3.563386917114257812e+00 -1.112936735153198242e-01 -1.102404236793518066e+00 -7.089251875877380371e-01
2.810000000000000000e+02 2.015010643005371094e+01 9.191170930862426758e-01 -1.821580410003662109e+00 -1.402211487293243408e-01 -5.885404944419860840e-01 -9.748034477233886719e-01
2.820000000000000000e+02 2.041493225097656250e+01 7.836623191833496094e-01 -2.158267498016357422e+00 -1.648361682891845703e-01 -6.969311237335205078e-01 -6.986447572708129883e-01
2.830000000000000000e+02 2.056200218200683594e+01 1.529320359230041504e+00 2.638120889663696289e+00 5.782419443130493164e-01 9.649088382720947266e-01 -3.687702894210815430e+00
2.840000000000000000e+02 2.100659561157226562e+01 1.493575334548950195e+00 4.780933856964111328e+00 2.005189657211303711e+00 2.035836935043334961e+00 -5.182905673980712891e+00
2.850000000000000000e+02 2.149097442626953125e+01 -5.703889727592468262e-01 2.178142070770263672e+00 5.829112529754638672e+00 2.402176380157470703e+00 2.946902513504028320e+00
2.860000000000000000e+02 2.182953453063964844e+01 -1.956947743892669678e-01 2.116030454635620117e+00 9.402799606323242188e+00 3.455648899078369141e+00 2.963924884796142578e+00
2.870000000000000000e+02 2.231507110595703125e+01 -1.024863570928573608e-01 2.629080057144165039e+00 1.299255180358886719e+01 4.686489582061767578e+00 -1.480337262153625488e+00
2.880000000000000000e+02 1.895823669433593750e+01 1.145892143249511719e+00 -2.465218305587768555e+00 3.184792399406433105e-02 -7.300111651420593262e-01 -1.099829673767089844e+00
2.890000000000000000e+02 1.917900657653808594e+01 1.490323901176452637e+00 -1.165594220161437988e+00 2.582101821899414062e-01 -2.722152173519134521e-01 -1.712153196334838867e+00
2.900000000000000000e+02 1.910557365417480469e+01 1.122754216194152832e+00 -2.350839376449584961e+00 -3.028381243348121643e-02 -7.143369913101196289e-01 -1.140960931777954102e+00
2.910000000000000000e+02 2.010050582885742188e+01 4.546541869640350342e-01 5.596491098403930664e-01 1.992924697697162628e-02 1.738735139369964600e-01 1.825187355279922485e-01
2.920000000000000000e+02 2.029691886901855469e+01 4.841112196445465088e-01 6.582804322242736816e-01 6.358426809310913086e-02 2.165594100952148438e-01 1.817080229520797729e-01
2.930000000000000000e+02 1.988248062133789062e+01 1.943030714988708496e+00 9.388979077339172363e-01 8.601275682449340820e-01 5.397076606750488281e-01 -3.265778779983520508e+00
2.940000000000000000e+02 1.980041313171386719e+01 1.625400185585021973e+00 1.824569255113601685e-01 4.355452060699462891e-01 1.854006350040435791e-01 -2.484206676483154297e+00
2.950000000000000000e+02 2.009425735473632812e+01 1.464832544326782227e+00 5.225648283958435059e-01 2.948678135871887207e-01 2.452297955751419067e-01 -2.380573987960815430e+00
2.960000000000000000e+02 2.050483512878417969e+01 1.800102591514587402e+00 2.361060142517089844e+00 1.483915925025939941e+00 1.153492808341979980e+00 -4.355820655822753906e+00
2.970000000000000000e+02 2.130525588989257812e+01 2.074092626571655273e+00 2.367332935333251953e+00 7.405614852905273438e+00 2.931884288787841797e+00 -7.482077121734619141e+00
2.980000000000000000e+02 2.255136871337890625e+01 1.833594918251037598e+00 3.857666015625000000e+00 1.281605434417724609e+01 5.002116203308105469e+00 -8.477107882499694824e-01
2.990000000000000000e+02 2.303613853454589844e+01 8.358536362648010254e-01 1.197099590301513672e+01 6.702531337738037109e+00 5.602058410644531250e+00 -3.740842819213867188e+00
3.000000000000000000e+02 2.315346527099609375e+01 1.212297201156616211e+00 9.159178733825683594e+00 5.305603981018066406e+00 4.339434623718261719e+00 -2.243496179580688477e+00
3.010000000000000000e+02 2.296276855468750000e+01 1.358593583106994629e+00 8.497406959533691406e+00 8.419762611389160156e+00 5.075150966644287109e+00 -1.162738084793090820e+00
3.020000000000000000e+02 2.288597869873046875e+01 1.567879438400268555e+00 7.453574180603027344e+00 9.329777717590332031e+00 5.035005569458007812e+00 -1.129441633820533752e-01
3.030000000000000000e+02 1.942710685729980469e+01 -5.739336609840393066e-01 1.126409173011779785e+00 4.486450254917144775e-01 4.725162684917449951e-01 1.047567725181579590e+00
3.040000000000000000e+02 1.957127189636230469e+01 1.072275415062904358e-01 6.495749354362487793e-01 1.149054393172264099e-01 2.293441146612167358e-01 3.533856570720672607e-01
3.050000000000000000e+02 1.948020553588867188e+01 9.994863271713256836e-01 -2.344224929809570312e+00 -1.669277101755142212e-01 -7.533457875251770020e-01 -1.034913778305053711e+00
3.060000000000000000e+02 1.923460960388183594e+01 1.035198807716369629e+00 -2.575679302215576172e+00 -8.318985253572463989e-02 -7.976607084274291992e-01 -9.958593845367431641e-01
3.070000000000000000e+02 2.089975166320800781e+01 -1.684014350175857544e-01 3.038230419158935547e+00 2.079814910888671875e+00 1.535413503646850586e+00 2.465986251831054688e+00
3.080000000000000000e+02 2.066468811035156250e+01 2.687196619808673859e-02 2.412314176559448242e+00 7.826093435287475586e-01 9.584770798683166504e-01 1.520874142646789551e+00
3.090000000000000000e+02 2.072725296020507812e+01 -1.562287956476211548e-01 2.816424131393432617e+00 1.218474984169006348e+00 1.210469722747802734e+00 2.004384040832519531e+00
3.100000000000000000e+02 1.939910507202148438e+01 1.378444671630859375e+00 -1.303912043571472168e+00 -8.631612290628254414e-04 -3.914325833320617676e-01 -1.517480015754699707e+00
3.110000000000000000e+02 1.965526199340820312e+01 1.500402569770812988e+00 -3.754642009735107422e-01 7.511977851390838623e-02 -9.010332077741622925e-02 -2.087465047836303711e+00
3.120000000000000000e+02 2.309237670898437500e+01 1.564020276069641113e+00 7.466693401336669922e+00 6.916201591491699219e+00 4.314868450164794922e+00 -1.304372906684875488e+00
3.130000000000000000e+02 2.012667274475097656e+01 -2.224024198949337006e-02 1.609656333923339844e+00 3.699867725372314453e-01 5.938929319381713867e-01 8.724454641342163086e-01
3.140000000000000000e+02 2.035232925415039062e+01 2.042202204465866089e-01 1.607267498970031738e+00 2.156207263469696045e-01 5.468664765357971191e-01 6.852598190307617188e-01
3.150000000000000000e+02 2.014497947692871094e+01 1.746223211288452148e+00 1.230054020881652832e+00 7.357891201972961426e-01 5.897529721260070801e-01 -3.204145193099975586e+00
3.160000000000000000e+02 2.022665405273437500e+01 1.538944482803344727e+00 1.144799351692199707e+00 2.564787268638610840e-01 4.203834235668182373e-01 -2.975476026535034180e+00
3.170000000000000000e+02 2.089330101013183594e+01 1.661811709403991699e+00 4.090334415435791016e+00 1.451182603836059570e+00 1.662455081939697266e+00 -5.315764427185058594e+00
3.180000000000000000e+02 1.977553558349609375e+01 1.327514410018920898e+00 -6.406853795051574707e-01 9.119402617216110229e-02 -1.648474037647247314e-01 -1.729283094406127930e+00
3.190000000000000000e+02 2.114035987854003906e+01 1.951887845993041992e+00 3.289978981018066406e+00 4.307011604309082031e+00 2.279097318649291992e+00 -7.061079978942871094e+00
3.200000000000000000e+02 2.153577804565429688e+01 -3.735850155353546143e-01 2.448559045791625977e+00 6.330164909362792969e+00 2.633617162704467773e+00 3.249607801437377930e+00
3.210000000000000000e+02 1.932820701599121094e+01 1.176918029785156250e+00 -1.971488833427429199e+00 8.497473597526550293e-02 -5.659542083740234375e-01 -1.336631655693054199e+00
3.220000000000000000e+02 1.981899261474609375e+01 -1.153835207223892212e-01 1.267974376678466797e+00 2.568645477294921875e-01 4.574517011642456055e-01 7.107492685317993164e-01
3.230000000000000000e+02 2.001609611511230469e+01 -2.108890861272811890e-01 1.597261786460876465e+00 4.292894303798675537e-01 6.079653501510620117e-01 1.031702518463134766e+00
3.240000000000000000e+02 2.025447082519531250e+01 1.271216988563537598e+00 4.834121763706207275e-01 -1.317678540945053101e-01 1.054932922124862671e-01 -2.138696908950805664e+00
3.250000000000000000e+02 2.030348777770996094e+01 9.900194406509399414e-01 -9.993245005607604980e-01 -1.694706678390502930e-01 -3.506385684013366699e-01 -1.163475751876831055e+00
3.260000000000000000e+02 2.037413024902343750e+01 1.558362603187561035e+00 1.586926579475402832e+00 4.274826645851135254e-01 6.043227910995483398e-01 -2.985019922256469727e+00
3.270000000000000000e+02 2.000915908813476562e+01 1.218537092208862305e+00 -3.007990419864654541e-01 -1.526354849338531494e-01 -1.360303610563278198e-01 -1.698776006698608398e+00
3.280000000000000000e+02 1.998290252685546875e+01 8.775760531425476074e-01 -2.289510726928710938e+00 -1.189294382929801941e-01 -7.225320935249328613e-01 -9.862565994262695312e-01
3.290000000000000000e+02 1.963255500793457031e+01 8.813814520835876465e-01 -2.739247322082519531e+00 -1.365434378385543823e-01 -8.627372384071350098e-01 -9.535700678825378418e-01
3.300000000000000000e+02 2.006402587890625000e+01 1.076735854148864746e+00 -1.104160547256469727e+00 -1.680395156145095825e-01 -3.816600441932678223e-01 -1.248506069183349609e+00
3.310000000000000000e+02 1.993550872802734375e+01 1.036597728729248047e+00 -1.469154000282287598e+00 -2.015812844038009644e-01 -5.012205839157104492e-01 -1.191696047782897949e+00
3.320000000000000000e+02 1.986256408691406250e+01 1.169488310813903809e+00 -9.140238165855407715e-01 -1.359725296497344971e-01 -3.149988949298858643e-01 -1.520662069320678711e+00
3.330000000000000000e+02 1.859043693542480469e+01 1.139480352401733398e+00 -2.754054784774780273e+00 1.142202168703079224e-01 -7.919504046440124512e-01 -1.037326335906982422e+00
3.340000000000000000e+02 1.783143424987792969e+01 1.103192567825317383e+00 -3.446849822998046875e+00 5.691812187433242798e-02 -1.016979575157165527e+00 -7.631273269653320312e-01
3.350000000000000000e+02 1.819639778137207031e+01 8.474089503288269043e-01 -3.961230754852294922e+00 1.849375665187835693e-02 -1.182821154594421387e+00 -7.356719970703125000e-01
3.360000000000000000e+02 1.875704002380371094e+01 9.744628667831420898e-01 -3.170664548873901367e+00 1.223842501640319824e-01 -9.144840836524963379e-01 -9.964773058891296387e-01
3.370000000000000000e+02 1.749501037597656250e+01 4.904002249240875244e-01 -5.163910388946533203e+00 -3.107202053070068359e-02 -1.558494687080383301e+00 -4.545105695724487305e-01
3.380000000000000000e+02 1.852678108215332031e+01 1.741513848304748535e+00 -1.508530497550964355e+00 3.480762839317321777e-01 -3.481362760066986084e-01 -1.550680279731750488e+00
3.390000000000000000e+02 1.871710205078125000e+01 1.316025018692016602e+00 -2.181603670120239258e+00 8.845988661050796509e-02 -6.279430985450744629e-01 -1.226532459259033203e+00
3.400000000000000000e+02 1.864511299133300781e+01 1.514022469520568848e+00 -1.853537678718566895e+00 6.943981349468231201e-02 -5.352293252944946289e-01 -1.338614821434020996e+00
3.410000000000000000e+02 1.630650901794433594e+01 1.286724328994750977e+00 -3.632246494293212891e+00 1.559212058782577515e-01 -1.042897582054138184e+00 -3.973255157470703125e-01
3.420000000000000000e+02 1.693934631347656250e+01 5.099220275878906250e-01 -5.162507057189941406e+00 -1.334371883422136307e-02 -1.552755236625671387e+00 -4.132187068462371826e-01
3.430000000000000000e+02 1.809115219116210938e+01 5.208079814910888672e-01 -5.070147991180419922e+00 -3.531044721603393555e-02 -1.531637549400329590e+00 -4.697823524475097656e-01
3.440000000000000000e+02 1.632290077209472656e+01 5.451448559761047363e-01 -5.072322845458984375e+00 1.536184269934892654e-02 -1.517088294029235840e+00 -3.535175621509552002e-01
3.450000000000000000e+02 1.870223426818847656e+01 7.635158896446228027e-01 -3.977062702178955078e+00 4.485474526882171631e-02 -1.179662466049194336e+00 -7.442517876625061035e-01
3.460000000000000000e+02 1.868346023559570312e+01 5.130231976509094238e-01 -4.637712955474853516e+00 -9.278587065637111664e-03 -1.394097566604614258e+00 -5.437853336334228516e-01
3.470000000000000000e+02 1.827058982849121094e+01 1.167047858238220215e+00 -2.965045928955078125e+00 1.432671248912811279e-01 -8.465335965156555176e-01 -9.500294923782348633e-01
3.480000000000000000e+02 1.771892929077148438e+01 1.546712756156921387e+00 -2.530467510223388672e+00 1.601898968219757080e-01 -7.110832929611206055e-01 -1.002656936645507812e+00
3.490000000000000000e+02 1.824926376342773438e+01 1.524263024330139160e+00 -2.163671016693115234e+00 3.547235727310180664e-01 -5.426842570304870605e-01 -1.225097298622131348e+00
3.500000000000000000e+02 1.730343055725097656e+01 9.013992547988891602e-01 -4.233305454254150391e+00 3.277897834777832031e-02 -1.260157942771911621e+00 -6.123024821281433105e-01
3.510000000000000000e+02 1.704484748840332031e+01 1.411670804023742676e+00 -3.119149446487426758e+00 2.334986031055450439e-01 -8.656952381134033203e-01 -6.676084995269775391e-01
3.520000000000000000e+02 1.878278541564941406e+01 1.146546244621276855e+00 -2.518899440765380859e+00 4.250948503613471985e-02 -7.429169416427612305e-01 -9.633223414421081543e-01
3.530000000000000000e+02 1.485382461547851562e+01 4.748390913009643555e-01 -5.152222633361816406e+00 2.028387226164340973e-02 -1.539581656455993652e+00 -1.234109923243522644e-01
3.540000000000000000e+02 1.408120155334472656e+01 1.187072157859802246e+00 -3.804370403289794922e+00 1.379931420087814331e-01 -1.099913120269775391e+00 1.011930480599403381e-01
3.550000000000000000e+02 1.555697250366210938e+01 1.239178419113159180e+00 -3.827386379241943359e+00 2.070588767528533936e-01 -1.086098313331604004e+00 -2.319705039262771606e-01
3.560000000000000000e+02 1.334496879577636719e+01 1.158104777336120605e+00 -3.760250091552734375e+00 1.281035393476486206e-01 -1.089643955230712891e+00 2.132403999567031860e-01
3.570000000000000000e+02 1.481854820251464844e+01 1.214042663574218750e+00 -3.807475090026855469e+00 1.532124578952789307e-01 -1.096278786659240723e+00 -7.958545535802841187e-02
3.580000000000000000e+02 1.336430931091308594e+01 4.183164834976196289e-01 -4.784100532531738281e+00 3.593791276216506958e-02 -1.424448728561401367e+00 2.493554493412375450e-03
3.590000000000000000e+02 1.560021686553955078e+01 5.002670884132385254e-01 -5.101089000701904297e+00 7.724741101264953613e-02 -1.507152557373046875e+00 -2.366395443677902222e-01
3.600000000000000000e+02 1.410851097106933594e+01 4.475762248039245605e-01 -5.029356479644775391e+00 3.103567846119403839e-02 -1.499496340751647949e+00 -6.799539923667907715e-02
3.610000000000000000e+02 1.111325168609619141e+01 1.138490676879882812e+00 -3.205562114715576172e+00 4.521042853593826294e-02 -9.481054544448852539e-01 4.383929073810577393e-01
3.620000000000000000e+02 1.186833381652832031e+01 4.020517766475677490e-01 -4.319344997406005859e+00 6.612617988139390945e-03 -1.293819665908813477e+00 1.371137201786041260e-01
3.630000000000000000e+02 1.037295722961425781e+01 3.924405574798583984e-01 -3.681242942810058594e+00 5.232146475464105606e-03 -1.102803230285644531e+00 1.751872450113296509e-01
3.640000000000000000e+02 1.260390949249267578e+01 1.143149375915527344e+00 -3.620277404785156250e+00 1.063410565257072449e-01 -1.054180860519409180e+00 2.824112474918365479e-01
3.650000000000000000e+02 1.261756992340087891e+01 4.032067656517028809e-01 -4.544811248779296875e+00 4.547441750764846802e-02 -1.349801063537597656e+00 8.313141763210296631e-02
3.660000000000000000e+02 1.036947441101074219e+01 1.132432341575622559e+00 -2.977586030960083008e+00 3.421735018491744995e-02 -8.830106258392333984e-01 4.728639125823974609e-01
3.670000000000000000e+02 1.185806560516357422e+01 1.142010807991027832e+00 -3.414510726928710938e+00 7.164542376995086670e-02 -1.002859592437744141e+00 3.566955924034118652e-01
3.680000000000000000e+02 1.112012767791748047e+01 3.985152244567871094e-01 -4.022571563720703125e+00 1.345786731690168381e-02 -1.202734112739562988e+00 1.554828137159347534e-01
3.690000000000000000e+02 8.749180793762207031e+00 3.899427950382232666e-01 -2.891190767288208008e+00 1.643830328248441219e-04 -8.673079013824462891e-01 1.987491995096206665e-01
3.700000000000000000e+02 7.082522392272949219e+00 3.898618221282958984e-01 -2.040873527526855469e+00 -2.956995973363518715e-03 -6.131491661071777344e-01 1.944416463375091553e-01
3.710000000000000000e+02 6.247702121734619141e+00 1.129743337631225586e+00 -1.414835572242736816e+00 -2.240214683115482330e-02 -4.311713278293609619e-01 5.069093108177185059e-01
3.720000000000000000e+02 4.581694126129150391e+00 3.896949291229248047e-01 -8.715099692344665527e-01 -9.965562261641025543e-03 -2.644426524639129639e-01 1.535227894783020020e-01
3.730000000000000000e+02 3.748422384262084961e+00 3.898865282535552979e-01 -5.554810166358947754e-01 -1.220759563148021698e-02 -1.703065782785415649e-01 1.307640075683593750e-01
3.740000000000000000e+02 3.747751951217651367e+00 1.129886507987976074e+00 -5.785484910011291504e-01 -5.621062219142913818e-02 -1.904277354478836060e-01 3.594441413879394531e-01
3.750000000000000000e+02 2.915430068969726562e+00 3.901152908802032471e-01 -3.014386594295501709e-01 -1.656051725149154663e-02 -9.539975225925445557e-02 9.781914949417114258e-02
3.760000000000000000e+02 2.914908647537231445e+00 1.130115270614624023e+00 -3.668221831321716309e-01 -7.341433316469192505e-02 -1.320709586143493652e-01 2.830696702003479004e-01
3.770000000000000000e+02 2.082287311553955078e+00 3.901598453521728516e-01 -1.223640367388725281e-01 -1.669582724571228027e-02 -4.171795770525932312e-02 6.220868602395057678e-02
3.780000000000000000e+02 2.081915140151977539e+00 1.130159854888916016e+00 -2.030648142099380493e-01 -7.881826907396316528e-02 -8.456492424011230469e-02 1.831820756196975708e-01
3.790000000000000000e+02 1.249198555946350098e+00 1.130092263221740723e+00 -8.463953435420989990e-02 -7.791879773139953613e-02 -4.876749962568283081e-02 8.964731544256210327e-02
3.800000000000000000e+02 4.164851903915405273e-01 1.130014061927795410e+00 -1.767130941152572632e-02 -2.040070481598377228e-02 -1.142160408198833466e-02 1.868862099945545197e-02
3.810000000000000000e+02 4.165596663951873779e-01 3.900140523910522461e-01 -1.721550710499286652e-03 -9.725005947984755039e-04 -8.082154090516269207e-04 1.719831954687833786e-03
3.820000000000000000e+02 4.580874919891357422e+00 1.129694938659667969e+00 -8.269779086112976074e-01 -4.577659815549850464e-02 -2.618263661861419678e-01 4.272651672363281250e-01
3.830000000000000000e+02 5.414232254028320312e+00 1.129676342010498047e+00 -1.111320018768310547e+00 -3.187813982367515564e-02 -3.429594635963439941e-01 4.711246192455291748e-01
3.840000000000000000e+02 5.415200710296630859e+00 3.896763324737548828e-01 -1.232210040092468262e+00 -7.303683087229728699e-03 -3.718541264533996582e-01 1.732351928949356079e-01
3.850000000000000000e+02 6.248819828033447266e+00 3.897433280944824219e-01 -1.626703619956970215e+00 -5.349978804588317871e-03 -4.896160662174224854e-01 1.850252002477645874e-01
3.860000000000000000e+02 7.081255912780761719e+00 1.129861831665039062e+00 -1.735544204711914062e+00 -1.232971996068954468e-02 -5.243621468544006348e-01 5.227336883544921875e-01
3.870000000000000000e+02 7.915904998779296875e+00 3.899158239364624023e-01 -2.466139078140258789e+00 -1.714273006655275822e-03 -7.403559684753417969e-01 1.970771253108978271e-01
3.880000000000000000e+02 9.582430839538574219e+00 3.899797797203063965e-01 -3.302568435668945312e+00 7.207749411463737488e-03 -9.886081814765930176e-01 1.877590119838714600e-01
3.890000000000000000e+02 9.580718994140625000e+00 1.129979729652404785e+00 -2.695738077163696289e+00 2.187248133122920990e-02 -8.021596670150756836e-01 5.083807110786437988e-01
3.900000000000000000e+02 1.249422073364257812e+00 3.900922536849975586e-01 -2.861290238797664642e-02 -1.819712668657302856e-02 -1.404300890862941742e-02 2.190627343952655792e-02
3.910000000000000000e+02 7.914489746093750000e+00 1.129915833473205566e+00 -2.059599637985229492e+00 -3.962609916925430298e-03 -6.190686821937561035e-01 5.335821509361267090e-01
3.920000000000000000e+02 8.747616767883300781e+00 1.129942774772644043e+00 -2.380612373352050781e+00 7.232524920254945755e-03 -7.120139598846435547e-01 5.215988755226135254e-01
3.930000000000000000e+02 1.338494110107421875e+01 -3.624081611633300781e-01 -2.178592920303344727e+00 3.937666304409503937e-03 -6.523965597152709961e-01 -2.801810763776302338e-02
3.940000000000000000e+02 1.492772197723388672e+01 -1.047161340713500977e+00 -1.342314362525939941e+00 8.069233596324920654e-02 -3.784866034984588623e-01 2.352390438318252563e-01
3.950000000000000000e+02 1.340428161621093750e+01 -1.102196455001831055e+00 -1.623281836509704590e+00 5.052285641431808472e-02 -4.718277156352996826e-01 7.876924425363540649e-02
3.960000000000000000e+02 1.489244556427001953e+01 -3.079577088356018066e-01 -1.874127864837646484e+00 2.146114595234394073e-02 -5.558000206947326660e-01 2.097849175333976746e-02
3.970000000000000000e+02 1.568929195404052734e+01 -1.018365263938903809e+00 -1.087010264396667480e+00 8.916568756103515625e-02 -2.993533611297607422e-01 3.409985899925231934e-01
3.980000000000000000e+02 1.564604759216308594e+01 -2.794539332389831543e-01 -1.662695050239562988e+00 2.042750827968120575e-03 -4.981956779956817627e-01 4.311709478497505188e-02
3.990000000000000000e+02 1.413872909545898438e+01 -3.356079757213592529e-01 -2.044226884841918945e+00 1.141634490340948105e-02 -6.098431348800659180e-01 -1.125907246023416519e-02
4.000000000000000000e+02 1.416603755950927734e+01 -1.075103878974914551e+00 -1.519462108612060547e+00 7.288068532943725586e-02 -4.339744150638580322e-01 1.607381254434585571e-01
4.010000000000000000e+02 3.308265686035156250e+00 -1.968775629997253418e+00 -2.884121239185333252e-01 -9.494843333959579468e-02 -1.150081604719161987e-01 -3.336858749389648438e-01
4.020000000000000000e+02 4.021640300750732422e+00 -1.924697518348693848e+00 -3.913452029228210449e-01 -6.161172315478324890e-02 -1.358870714902877808e-01 -3.753247559070587158e-01
4.030000000000000000e+02 9.726795196533203125e+00 -1.856118679046630859e+00 -1.233961820602416992e+00 7.810782641172409058e-02 -3.467561900615692139e-01 -2.928021550178527832e-01
4.040000000000000000e+02 1.423252487182617188e+01 -1.752369880676269531e+00 -1.105319023132324219e+00 1.701396107673645020e-01 -2.805538177490234375e-01 3.074240684509277344e-01
4.050000000000000000e+02 1.196111202239990234e+01 -1.832002639770507812e+00 -1.328067898750305176e+00 1.159088239073753357e-01 -3.636477291584014893e-01 -4.769115522503852844e-02
4.060000000000000000e+02 5.298140048980712891e-01 -1.074722766876220703e+01 8.326639421284198761e-03 -2.140791416168212891e+00 -6.397394537925720215e-01 -1.097820028662681580e-01
4.070000000000000000e+02 1.217861461639404297e+01 -1.760881805419921875e+01 1.217647194862365723e+00 4.445268630981445312e+00 1.698874711990356445e+00 8.571719527244567871e-01
4.080000000000000000e+02 1.419110107421875000e+01 -1.971248435974121094e+01 5.912261605262756348e-01 6.781891345977783203e+00 2.211935281753540039e+00 -2.552136480808258057e-01
4.090000000000000000e+02 1.348761463165283203e+01 -1.705815887451171875e+01 1.100835442543029785e+00 6.617692470550537109e+00 2.315558433532714844e+00 1.162684559822082520e+00
4.100000000000000000e+02 1.412661170959472656e+01 -1.830344009399414062e+01 3.531143665313720703e-01 7.250051498413085938e+00 2.280949831008911133e+00 5.465102791786193848e-01
4.110000000000000000e+02 1.331584262847900391e+01 -1.527711963653564453e+01 1.975236415863037109e+00 5.066553592681884766e+00 2.112536907196044922e+00 1.323678255081176758e+00
4.120000000000000000e+02 1.802398300170898438e+01 -1.187203598022460938e+01 3.502158641815185547e+00 1.707309961318969727e+00 1.562840580940246582e+00 2.257179021835327148e+00
4.130000000000000000e+02 1.941495895385742188e+01 -1.155650711059570312e+01 1.807258844375610352e+00 6.010587215423583984e-01 7.224952578544616699e-01 1.072164058685302734e+00
4.140000000000000000e+02 2.336951828002929688e+01 -1.069404983520507812e+01 -7.708504796028137207e-01 9.744507819414138794e-02 -2.020216137170791626e-01 -1.473050266504287720e-01
4.150000000000000000e+02 2.561842155456542969e+01 -9.440299987792968750e+00 -1.732611298561096191e+00 -2.684640586376190186e-01 -6.003226041793823242e-01 -8.747322559356689453e-01
4.160000000000000000e+02 2.659015464782714844e+01 -8.686593055725097656e+00 -3.312645912170410156e+00 -5.456754565238952637e-01 -1.157496452331542969e+00 -9.440550804138183594e-01
4.170000000000000000e+02 2.855397224426269531e+01 -7.970411777496337891e+00 -5.268144607543945312e+00 -6.112247109413146973e-01 -1.763810873031616211e+00 -4.831936359405517578e-01
4.180000000000000000e+02 3.137741279602050781e+01 -8.615962982177734375e+00 -1.822161078453063965e+00 2.185658454895019531e+00 1.090492606163024902e-01 -8.582620620727539062e-01
4.190000000000000000e+02 3.256532287597656250e+01 -9.672988891601562500e+00 6.288980841636657715e-01 4.609113216400146484e+00 1.571403384208679199e+00 -2.441004514694213867e+00
4.200000000000000000e+02 3.352934265136718750e+01 -1.084743404388427734e+01 2.293575525283813477e+00 8.418156623840332031e+00 3.213519573211669922e+00 -4.229877948760986328e+00
4.210000000000000000e+02 3.431582641601562500e+01 -1.208885765075683594e+01 2.562536478042602539e+00 1.203252792358398438e+01 4.378519535064697266e+00 -4.660563468933105469e+00
4.220000000000000000e+02 4.461920547485351562e+01 -1.582948684692382812e+01 1.459357738494873047e+00 6.743769645690917969e+00 2.460938215255737305e+00 5.172177553176879883e-01
4.230000000000000000e+02 4.645028305053710938e+01 -1.687515830993652344e+01 2.609665155410766602e+00 6.125434398651123047e+00 2.620529890060424805e+00 3.029620170593261719e+00
4.240000000000000000e+02 4.751515197753906250e+01 -1.610129547119140625e+01 3.074807882308959961e+00 2.738508224487304688e+00 1.743994832038879395e+00 2.543003559112548828e+00
4.250000000000000000e+02 4.875519180297851562e+01 -1.550898456573486328e+01 2.673005819320678711e+00 1.232626676559448242e+00 1.171689748764038086e+00 1.451415896415710449e+00
4.260000000000000000e+02 5.013835906982421875e+01 -1.509789657592773438e+01 1.203611850738525391e+00 1.328728049993515015e-01 4.009453952312469482e-01 7.860803008079528809e-01
4.270000000000000000e+02 5.968850708007812500e+01 -1.389651298522949219e+01 -2.390495777130126953e+00 2.842736802995204926e-02 -7.086205482482910156e-01 -6.519639492034912109e-01
4.280000000000000000e+02 6.023887634277343750e+01 -1.230548381805419922e+01 -2.563402175903320312e+00 4.613189399242401123e-01 -6.306249499320983887e-01 -3.349083065986633301e-01
4.290000000000000000e+02 6.493466186523437500e+01 -1.041454601287841797e+01 -1.108007907867431641e+00 1.711348652839660645e+00 1.810022145509719849e-01 -2.305037021636962891e+00
4.300000000000000000e+02 6.650178527832031250e+01 -1.311224079132080078e+01 1.326525807380676270e+00 4.000127792358398438e+00 1.597996115684509277e+00 -2.214540958404541016e+00
4.310000000000000000e+02 6.753500366210937500e+01 -1.405154037475585938e+01 2.469820022583007812e+00 7.798376083374023438e+00 3.080458641052246094e+00 -4.436563491821289062e+00
4.320000000000000000e+02 6.926805877685546875e+01 -1.388212490081787109e+01 -7.902155630290508270e-03 1.158135795593261719e+01 3.472036600112915039e+00 -6.992556452751159668e-01
4.330000000000000000e+02 6.892671203613281250e+01 -1.197688484191894531e+01 -1.761604428291320801e+00 9.345594406127929688e+00 2.275197029113769531e+00 -1.166977286338806152e+00
4.340000000000000000e+02 6.977649688720703125e+01 -1.594330692291259766e+01 2.497271299362182617e+00 1.446452426910400391e+01 5.088538646697998047e+00 -1.500140070915222168e+00
4.350000000000000000e+02 7.068556213378906250e+01 -1.800505828857421875e+01 2.404954910278320312e+00 1.266856670379638672e+01 4.522056579589843750e+00 -6.776587963104248047e-01
4.360000000000000000e+02 6.873587036132812500e+01 -2.001378250122070312e+01 9.620962142944335938e-01 1.709989738464355469e+01 5.418598175048828125e+00 1.987594008445739746e+00
4.370000000000000000e+02 6.979895782470703125e+01 -2.053528213500976562e+01 1.503941178321838379e+00 1.386547565460205078e+01 4.610825061798095703e+00 8.354422450065612793e-01
4.380000000000000000e+02 6.801313781738281250e+01 -2.483340835571289062e+01 -1.550258249044418335e-01 7.887233257293701172e+00 2.319662094116210938e+00 1.545739054679870605e+00
4.390000000000000000e+02 6.251214599609375000e+01 -3.003325462341308594e+01 -1.330002784729003906e+00 9.440670609474182129e-01 -1.157807111740112305e-01 3.206737637519836426e-01
4.400000000000000000e+02 6.121150207519531250e+01 -3.118624877929687500e+01 -1.195936083793640137e+00 5.085659623146057129e-01 -2.062110304832458496e-01 1.367746889591217041e-01
4.410000000000000000e+02 5.685670852661132812e+01 -3.451009750366210938e+01 -6.584904342889785767e-02 1.176772415637969971e-01 1.554846018552780151e-02 -4.110388755798339844e-01
4.420000000000000000e+02 5.190194702148437500e+01 -3.047835731506347656e+01 -6.622964143753051758e-01 4.464006721973419189e-01 -6.476871669292449951e-02 -6.898893117904663086e-01
4.430000000000000000e+02 5.169268798828125000e+01 -3.218980026245117188e+01 -2.944365143775939941e-01 1.346802830696105957e+00 3.157098889350891113e-01 -1.685086607933044434e+00
4.440000000000000000e+02 4.914422225952148438e+01 -2.941212463378906250e+01 2.143513917922973633e+00 2.862665176391601562e+00 1.501853704452514648e+00 -2.453951358795166016e+00
4.450000000000000000e+02 5.005322647094726562e+01 -3.172941017150878906e+01 -5.237597599625587463e-02 2.744150638580322266e+00 8.075323700904846191e-01 -2.198347091674804688e+00
4.460000000000000000e+02 4.650696563720703125e+01 -3.160597801208496094e+01 -5.904366374015808105e-01 6.081151008605957031e+00 1.647214412689208984e+00 -1.760903716087341309e+00
4.470000000000000000e+02 3.330858230590820312e+01 -2.614048385620117188e+01 1.350502848625183105e+00 3.212050199508666992e+00 1.368765830993652344e+00 2.068264007568359375e+00
4.480000000000000000e+02 3.090572357177734375e+01 -3.005006790161132812e+01 -6.142712831497192383e-01 1.791664838790893555e+00 3.532180786132812500e-01 1.103585243225097656e+00
4.490000000000000000e+02 2.880570030212402344e+01 -2.936974716186523438e+01 -1.348158001899719238e+00 1.651990413665771484e-01 -3.548876941204071045e-01 9.373880177736282349e-02
4.500000000000000000e+02 2.811162757873535156e+01 -3.127866554260253906e+01 -9.535298347473144531e-01 4.371135234832763672e-01 -1.549248993396759033e-01 6.746265888214111328e-01
4.510000000000000000e+02 2.460819816589355469e+01 -2.987148666381835938e+01 -2.354873418807983398e+00 -1.645841896533966064e-01 -7.558373212814331055e-01 2.636840641498565674e-01
4.520000000000000000e+02 2.231190490722656250e+01 -2.929986000061035156e+01 -1.774497985839843750e+00 -2.282674759626388550e-01 -6.008296012878417969e-01 3.758068382740020752e-01
4.530000000000000000e+02 2.123296928405761719e+01 -2.846533584594726562e+01 -1.042007446289062500e+00 -8.282131701707839966e-02 -3.374486267566680908e-01 3.887082934379577637e-01
4.540000000000000000e+02 1.803191566467285156e+01 -2.782357788085937500e+01 -6.731504797935485840e-01 9.343924522399902344e-01 7.837259024381637573e-02 -1.615944653749465942e-01
4.550000000000000000e+02 1.534319877624511719e+01 -2.234638404846191406e+01 7.502881288528442383e-01 3.116763114929199219e+00 1.160115361213684082e+00 -1.396427392959594727e+00
4.560000000000000000e+02 1.454018115997314453e+01 -2.112601280212402344e+01 9.356961846351623535e-01 5.779399871826171875e+00 2.014528751373291016e+00 -1.091041684150695801e+00
4.570000000000000000e+02 3.248393058776855469e+00 -3.921400070190429688e+01 -5.874415859580039978e-02 1.290462374687194824e+00 3.695154488086700439e-01 1.009679734706878662e-01
4.580000000000000000e+02 7.832415103912353516e-01 -3.734339141845703125e+01 -3.363124793395400047e-03 1.290454864501953125e+00 3.861275315284729004e-01 2.923285216093063354e-02
4.590000000000000000e+02 7.539163827896118164e-01 -3.050214195251464844e+01 -3.721829969435930252e-03 5.125991106033325195e-01 1.526631861925125122e-01 1.380501985549926758e-01
4.600000000000000000e+02 6.318190097808837891e-01 -2.341564178466796875e+01 -1.275909366086125374e-03 -1.256843090057373047e+00 -3.774357140064239502e-01 1.790881752967834473e-01
4.610000000000000000e+02 6.047719717025756836e-01 -1.776910400390625000e+01 1.867245696485042572e-02 -2.506017208099365234e+00 -7.462034225463867188e-01 7.500844448804855347e-02
4.620000000000000000e+02 1.591893196105957031e+00 -1.086573123931884766e+01 3.730262443423271179e-02 -1.653638124465942383e+00 -4.849006533622741699e-01 -2.965029776096343994e-01
4.630000000000000000e+02 6.461699008941650391e-01 -2.482733917236328125e+01 5.143318790942430496e-03 -8.559555411338806152e-01 -2.552436590194702148e-01 1.833287477493286133e-01
4.640000000000000000e+02 7.921431064605712891e-01 -3.193293952941894531e+01 -1.287451665848493576e-02 7.514792680740356445e-01 2.215814292430877686e-01 1.232671737670898438e-01
4.650000000000000000e+02 8.035679817199707031e+00 -4.110223007202148438e+01 -2.191345393657684326e-01 1.173611044883728027e+00 2.863429486751556396e-01 6.416898220777511597e-02
4.660000000000000000e+02 1.263819217681884766e+01 -4.096163177490234375e+01 -3.226406574249267578e-01 1.039298057556152344e+00 2.149972319602966309e-01 -1.395470742136240005e-02
4.670000000000000000e+02 5.712129116058349609e+00 -3.189727973937988281e+01 -2.663174569606781006e-01 1.102711915969848633e+00 2.509183287620544434e-01 5.579057931900024414e-01
4.680000000000000000e+02 1.310350036621093750e+01 -2.586687660217285156e+01 -5.798338651657104492e-01 2.550880670547485352e+00 5.913140773773193359e-01 3.553884625434875488e-01
4.690000000000000000e+02 1.276470375061035156e+01 -1.990238189697265625e+01 9.617880582809448242e-01 4.837529182434082031e+00 1.739795207977294922e+00 4.416125118732452393e-01
4.700000000000000000e+02 1.832556343078613281e+01 -3.804264831542968750e+01 -3.211165070533752441e-01 7.841376066207885742e-01 1.389063447713851929e-01 -1.591443717479705811e-01
4.710000000000000000e+02 1.508386802673339844e+01 -3.641393280029296875e+01 -4.986151754856109619e-01 1.074894428253173828e+00 1.728837639093399048e-01 -9.327975660562515259e-02
4.720000000000000000e+02 2.239356613159179688e+01 -3.887974548339843750e+01 -1.472878158092498779e-01 6.697310209274291992e-01 1.567329615354537964e-01 -6.978898495435714722e-02
4.730000000000000000e+02 2.706813049316406250e+01 -4.127093887329101562e+01 -2.483559101819992065e-01 1.403129816055297852e+00 3.464321792125701904e-01 9.108675271272659302e-02
4.740000000000000000e+02 4.238417434692382812e+01 -4.085335159301757812e+01 -1.731715798377990723e+00 5.395550251007080078e+00 1.099150419235229492e+00 -1.170233041048049927e-01
4.750000000000000000e+02 4.736096954345703125e+01 -4.098349380493164062e+01 -1.093365430831909180e+00 4.295357704162597656e+00 9.605977535247802734e-01 -3.199775815010070801e-01
4.760000000000000000e+02 5.941878890991210938e+01 -3.953946304321289062e+01 8.490514159202575684e-01 1.236011862754821777e+00 6.255189776420593262e-01 -9.195062331855297089e-03
4.770000000000000000e+02 6.081283569335937500e+01 -3.701595687866210938e+01 5.214658975601196289e-01 1.331064820289611816e+00 5.557591915130615234e-01 2.261483967304229736e-01
4.780000000000000000e+02 6.966392517089843750e+01 -3.678012847900390625e+01 -1.577793210744857788e-01 5.933447837829589844e+00 1.732700586318969727e+00 2.480992525815963745e-01
4.790000000000000000e+02 7.797272491455078125e+01 -4.166097640991210938e+01 1.926760971546173096e-01 1.005213737487792969e+01 3.073444128036499023e+00 5.407153815031051636e-02
4.800000000000000000e+02 7.766242980957031250e+01 -3.691749572753906250e+01 -6.007275730371475220e-02 9.831468582153320312e+00 2.931418895721435547e+00 -5.486226291395723820e-04
4.810000000000000000e+02 7.928664398193359375e+01 -3.325569152832031250e+01 -1.201670430600643158e-02 1.041661739349365234e+01 3.121380329132080078e+00 -1.015987843275070190e-01
4.820000000000000000e+02 7.798800659179687500e+01 -3.014287567138671875e+01 -9.957376122474670410e-02 9.424571990966796875e+00 2.797499656677246094e+00 -4.616544842720031738e-01
4.830000000000000000e+02 7.937621307373046875e+01 -2.633904266357421875e+01 1.943794265389442444e-02 8.512163162231445312e+00 2.559480428695678711e+00 -2.981439232826232910e-01
4.840000000000000000e+02 6.889263916015625000e+01 -2.345126342773437500e+01 3.694241046905517578e-01 1.009212589263916016e+01 3.138465166091918945e+00 1.099517226219177246e+00
4.850000000000000000e+02 7.818350982666015625e+01 -2.330763435363769531e+01 2.152895927429199219e-02 7.625099182128906250e+00 2.293988466262817383e+00 -7.709876894950866699e-01
4.860000000000000000e+02 7.940269470214843750e+01 -2.216191482543945312e+01 -1.070822123438119888e-02 6.581868171691894531e+00 1.971347928047180176e+00 -2.569034993648529053e-01
4.870000000000000000e+02 7.829748535156250000e+01 -1.656682968139648438e+01 1.945717930793762207e-01 6.511495113372802734e+00 2.011820077896118164e+00 2.132761776447296143e-01
4.880000000000000000e+02 7.805325317382812500e+01 -9.534498214721679688e+00 -1.253729462623596191e-01 7.843897819519042969e+00 2.315557479858398438e+00 4.146512448787689209e-01
4.890000000000000000e+02 7.803211212158203125e+01 -2.620828628540039062e+00 -7.446651160717010498e-02 7.788753032684326172e+00 2.314285993576049805e+00 -2.385103702545166016e-01
4.900000000000000000e+02 7.803742218017578125e+01 4.333950996398925781e+00 3.827649727463722229e-02 6.841445922851562500e+00 2.063916683197021484e+00 -3.150904476642608643e-01
4.910000000000000000e+02 7.803900146484375000e+01 1.130076599121093750e+01 4.915079846978187561e-02 6.270005226135253906e+00 1.895746707916259766e+00 -4.400195181369781494e-02
4.920000000000000000e+02 7.804529571533203125e+01 1.967999839782714844e+01 2.057547867298126221e-02 6.737541198730468750e+00 2.027435064315795898e+00 2.854367792606353760e-01
4.930000000000000000e+02 7.676243591308593750e+01 2.252906036376953125e+01 -1.428123190999031067e-02 7.073319435119628906e+00 2.117711544036865234e+00 4.257032275199890137e-01
4.940000000000000000e+02 7.924466705322265625e+01 3.202439498901367188e+01 -4.224946256726980209e-03 8.097153663635253906e+00 2.427878618240356445e+00 3.595085814595222473e-02
4.950000000000000000e+02 7.522879791259765625e+01 3.858038330078125000e+01 -6.416384130716323853e-02 7.397604465484619141e+00 2.200032234191894531e+00 2.607250027358531952e-02
4.960000000000000000e+02 7.888085174560546875e+01 3.886824417114257812e+01 -3.610612079501152039e-02 8.091426849365234375e+00 2.416596174240112305e+00 -5.032265186309814453e-02
4.970000000000000000e+02 6.854626464843750000e+01 3.854928207397460938e+01 9.621699340641498566e-03 5.860461711883544922e+00 1.761024951934814453e+00 -8.397122472524642944e-02
4.980000000000000000e+02 7.105700683593750000e+01 3.269722747802734375e+01 -2.211685031652450562e-01 6.648733615875244141e+00 1.928269624710083008e+00 1.913620159029960632e-02
4.990000000000000000e+02 7.270764160156250000e+01 2.339693832397460938e+01 -1.818168610334396362e-01 7.110953807830810547e+00 2.078741073608398438e+00 5.999746322631835938e-01
5.000000000000000000e+02 6.758504486083984375e+01 1.707292747497558594e+01 7.638241052627563477e-01 7.636428833007812500e+00 2.520075798034667969e+00 4.107386767864227295e-01
5.010000000000000000e+02 6.608822631835937500e+01 9.085563659667968750e+00 9.470499157905578613e-01 7.957125663757324219e+00 2.671252489089965820e+00 2.224259078502655029e-01
5.020000000000000000e+02 5.973515701293945312e+01 -2.129207372665405273e+00 1.361050128936767578e+00 3.124325752258300781e+00 1.345612764358520508e+00 1.272826552391052246e+00
5.030000000000000000e+02 6.320661544799804688e+01 -1.214935111999511719e+01 -4.916103839874267578e+00 -7.078844904899597168e-01 -1.687196493148803711e+00 -1.306638002395629883e+00
5.040000000000000000e+02 5.777270507812500000e+01 4.081646347045898438e+01 3.786466717720031738e-01 3.457925081253051758e+00 1.150971531867980957e+00 -3.720958530902862549e-02
5.050000000000000000e+02 6.276033782958984375e+01 4.091246032714843750e+01 2.200924605131149292e-01 4.511998653411865234e+00 1.419627308845520020e+00 -6.587572395801544189e-02
5.060000000000000000e+02 6.173072433471679688e+01 2.958115577697753906e+01 -2.648512423038482666e-01 4.245934009552001953e+00 1.194324851036071777e+00 -7.854833602905273438e-01
5.070000000000000000e+02 6.166067123413085938e+01 1.987615013122558594e+01 1.356115818023681641e+00 7.589464187622070312e+00 2.683674097061157227e+00 -2.239013910293579102e+00
5.080000000000000000e+02 6.075193786621093750e+01 2.091738891601562500e+01 -5.291981622576713562e-02 3.795798063278198242e+00 1.122863531112670898e+00 -1.871734261512756348e+00
5.090000000000000000e+02 6.302885818481445312e+01 1.896540832519531250e+01 1.216957569122314453e+00 8.962238311767578125e+00 3.053758859634399414e+00 -1.197850823402404785e+00
5.100000000000000000e+02 6.252064514160156250e+01 1.638270378112792969e+01 3.490575850009918213e-01 1.141234207153320312e+01 3.528419971466064453e+00 -6.745969057083129883e-01
5.110000000000000000e+02 6.431162261962890625e+01 1.709627532958984375e+01 1.168847560882568359e+00 8.527292251586914062e+00 2.908841848373413086e+00 -2.362974137067794800e-01
5.120000000000000000e+02 6.216782760620117188e+01 1.228691291809082031e+01 2.600690126419067383e-01 1.102420997619628906e+01 3.385283708572387695e+00 8.076613545417785645e-01
5.130000000000000000e+02 6.190068435668945312e+01 9.542487144470214844e+00 7.885379195213317871e-01 1.045624446868896484e+01 3.373434782028198242e+00 1.912376046180725098e+00
5.140000000000000000e+02 6.157914733886718750e+01 8.126471519470214844e+00 7.391744852066040039e-01 9.144229888916015625e+00 2.965021133422851562e+00 2.315399646759033203e+00
5.150000000000000000e+02 6.275913238525390625e+01 2.796295166015625000e+00 8.772274851799011230e-01 5.955329418182373047e+00 2.049767017364501953e+00 9.699742794036865234e-01
5.160000000000000000e+02 5.887274551391601562e+01 3.046008348464965820e+00 1.617466926574707031e+00 3.794668674468994141e+00 1.623640656471252441e+00 2.404887437820434570e+00
5.170000000000000000e+02 5.648587036132812500e+01 -4.038786590099334717e-01 2.013203144073486328e+00 3.383387804031372070e+00 1.618977308273315430e+00 2.416607856750488281e+00
5.180000000000000000e+02 5.561837387084960938e+01 -1.519710063934326172e+00 2.278419494628906250e+00 3.021625041961669922e+00 1.590013384819030762e+00 2.525101184844970703e+00
5.190000000000000000e+02 5.493031311035156250e+01 -4.474262714385986328e+00 1.906340956687927246e+00 2.218647003173828125e+00 1.237496376037597656e+00 1.902932167053222656e+00
5.200000000000000000e+02 5.375470733642578125e+01 -3.637914419174194336e+00 2.434473991394042969e+00 2.603699445724487305e+00 1.511452078819274902e+00 2.509738445281982422e+00
5.210000000000000000e+02 5.079794311523437500e+01 -5.433386802673339844e+00 8.406488299369812012e-01 7.470460534095764160e-01 4.763084650039672852e-01 1.535452604293823242e+00
5.220000000000000000e+02 4.945827102661132812e+01 -5.349439620971679688e+00 -1.891461849212646484e+00 -1.748960167169570923e-01 -6.199073195457458496e-01 9.053890109062194824e-01
5.230000000000000000e+02 4.674528121948242188e+01 -4.784880638122558594e+00 -3.787937879562377930e+00 -3.543130159378051758e-01 -1.242675185203552246e+00 1.189857006072998047e+00
5.240000000000000000e+02 4.285538864135742188e+01 -5.409893989562988281e+00 -1.561000943183898926e+00 3.492311239242553711e+00 5.793930888175964355e-01 -1.738154649734497070e+00
5.250000000000000000e+02 4.282251358032226562e+01 -3.783142089843750000e+00 -1.377390623092651367e+00 1.788877487182617188e+00 1.234460696578025818e-01 -8.974138498306274414e-01
5.260000000000000000e+02 4.042233657836914062e+01 -1.398799419403076172e+00 2.258763790130615234e+00 9.666375160217285156e+00 3.577541589736938477e+00 -3.958242654800415039e+00
5.270000000000000000e+02 4.022468185424804688e+01 -4.229410648345947266e+00 -1.433936119079589844e+00 7.986618995666503906e+00 1.965804815292358398e+00 -2.351096630096435547e+00
5.280000000000000000e+02 2.832333755493164062e+01 -1.003217339515686035e+00 5.970123767852783203e+00 4.098320007324218750e-01 1.913986682891845703e+00 8.666167408227920532e-02
5.290000000000000000e+02 2.830635833740234375e+01 1.152704730629920959e-01 6.904273033142089844e+00 6.200510263442993164e-01 2.257297039031982422e+00 -1.037240505218505859e+00
5.300000000000000000e+02 2.702822494506835938e+01 4.066066443920135498e-01 4.927316188812255859e+00 -1.654310226440429688e-01 1.428565502166748047e+00 -8.850312232971191406e-01
5.310000000000000000e+02 2.377145385742187500e+01 8.185352087020874023e-01 8.136343002319335938e+00 3.116404056549072266e+00 3.375823974609375000e+00 -2.483475923538208008e+00
5.320000000000000000e+02 2.383077239990234375e+01 -8.577180504798889160e-01 4.188932895660400391e+00 3.200655221939086914e+00 2.216876506805419922e+00 -2.639149665832519531e+00
5.330000000000000000e+02 2.527840995788574219e+01 1.448848247528076172e+00 1.613631725311279297e+00 -1.251819133758544922e+00 1.085437610745429993e-01 3.875460028648376465e-01
5.340000000000000000e+02 2.336083602905273438e+01 -2.222916781902313232e-01 5.706240177154541016e+00 5.898920059204101562e+00 3.481548070907592773e+00 -4.022626876831054688e+00
5.350000000000000000e+02 2.224777793884277344e+01 -7.824736237525939941e-01 1.524138927459716797e+00 8.480192184448242188e+00 3.001299381256103516e+00 4.262306392192840576e-01
5.360000000000000000e+02 2.195621490478515625e+01 -7.503666281700134277e-01 1.523193240165710449e+00 7.425609588623046875e+00 2.684640884399414062e+00 1.684698462486267090e+00
5.370000000000000000e+02 1.951575660705566406e+01 -1.286968111991882324e+00 1.277335882186889648e+00 9.495346546173095703e-01 6.680611371994018555e-01 1.721118450164794922e+00
5.380000000000000000e+02 1.574167633056640625e+01 -1.668854355812072754e+00 -7.147183418273925781e-01 2.181677222251892090e-01 -1.489651799201965332e-01 5.923929810523986816e-01
5.390000000000000000e+02 1.939054870605468750e+01 -1.044597148895263672e+01 1.140464425086975098e+00 1.259732604026794434e+00 7.200590968132019043e-01 1.825092911720275879e+00
5.400000000000000000e+02 5.845273590087890625e+01 3.742809677124023438e+01 3.239830136299133301e-01 3.511007547378540039e+00 1.150497198104858398e+00 -1.081550046801567078e-01
5.410000000000000000e+02 5.858984375000000000e+01 3.099202919006347656e+01 1.382642984390258789e-01 3.129180669784545898e+00 9.802334904670715332e-01 -4.662851095199584961e-01
5.420000000000000000e+02 5.609224700927734375e+01 2.154780578613281250e+01 -3.145910263061523438e+00 1.515699625015258789e-01 -8.983020782470703125e-01 -3.615195155143737793e-01
5.430000000000000000e+02 5.464506912231445312e+01 2.145962715148925781e+01 -2.767787218093872070e+00 -9.829016029834747314e-02 -8.598232269287109375e-01 -2.247135937213897705e-01
5.440000000000000000e+02 5.989262771606445312e+01 2.230218505859375000e+01 -1.119551420211791992e+00 2.482513427734375000e+00 4.088886082172393799e-01 -1.456405639648437500e+00
5.450000000000000000e+02 5.281448745727539062e+01 4.050796508789062500e+01 2.970972061157226562e-01 2.930626630783081055e+00 9.683171510696411133e-01 8.018524199724197388e-02
5.460000000000000000e+02 4.738309097290039062e+01 3.668540573120117188e+01 -4.313250258564949036e-02 2.830662488937377930e+00 8.362589478492736816e-01 4.676553905010223389e-01
5.470000000000000000e+02 5.028593063354492188e+01 2.925078773498535156e+01 -1.069767959415912628e-02 2.144297838211059570e+00 6.400800347328186035e-01 9.432092308998107910e-01
5.480000000000000000e+02 4.974580383300781250e+01 2.136860275268554688e+01 -6.888216733932495117e-01 1.091053962707519531e+00 1.206696704030036926e-01 9.380680918693542480e-01
5.490000000000000000e+02 4.915642547607421875e+01 1.934251785278320312e+01 6.366518884897232056e-02 6.630085110664367676e-01 2.180021256208419800e-01 5.536085963249206543e-01
5.500000000000000000e+02 5.178655242919921875e+01 2.058811569213867188e+01 -1.509556412696838379e+00 9.606672823429107666e-02 -4.240469038486480713e-01 -5.257642641663551331e-02
5.510000000000000000e+02 3.769039154052734375e+01 4.051126480102539062e+01 -6.400197744369506836e-01 3.068420648574829102e+00 7.285202741622924805e-01 5.477344617247581482e-02
5.520000000000000000e+02 4.264784240722656250e+01 4.062185668945312500e+01 -3.901787996292114258e-01 3.036813735961914062e+00 7.939904928207397461e-01 1.408698409795761108e-01
5.530000000000000000e+02 4.091759490966796875e+01 3.198672676086425781e+01 -7.440964579582214355e-01 3.497840642929077148e+00 8.261232376098632812e-01 6.445630192756652832e-01
5.540000000000000000e+02 4.469302749633789062e+01 1.584422016143798828e+01 1.979927778244018555e+00 2.587742328643798828e+00 1.370301008224487305e+00 2.252338886260986328e+00
5.550000000000000000e+02 3.441646194458007812e+01 1.079733562469482422e+01 6.482207775115966797e-01 1.037427425384521484e+01 3.306748628616333008e+00 -1.200714588165283203e+00
5.560000000000000000e+02 4.263202667236328125e+01 1.385561180114746094e+01 2.651006460189819336e+00 4.834675312042236328e+00 2.245704650878906250e+00 3.393777608871459961e+00
5.570000000000000000e+02 3.680225753784179688e+01 3.114765357971191406e+01 -9.806675910949707031e-01 3.754287958145141602e+00 8.320861458778381348e-01 2.392333298921585083e-01
5.580000000000000000e+02 3.466252517700195312e+01 2.223003578186035156e+01 -6.364582180976867676e-01 5.394748210906982422e+00 1.427487015724182129e+00 -1.665547490119934082e-01
5.590000000000000000e+02 3.406712722778320312e+01 1.666625022888183594e+01 6.045258045196533203e-01 7.314824104309082031e+00 2.375804901123046875e+00 -1.244187116622924805e+00
5.600000000000000000e+02 3.384340286254882812e+01 5.112775325775146484e+00 1.908011138439178467e-01 1.478534793853759766e+01 4.492844581604003906e+00 3.685128688812255859e-01
5.610000000000000000e+02 3.954573440551757812e+01 3.549407422542572021e-01 1.374842762947082520e+00 1.217755031585693359e+01 4.065718173980712891e+00 -3.143146514892578125e+00
5.620000000000000000e+02 3.928807449340820312e+01 1.674187183380126953e+00 1.092177152633666992e+00 1.356589984893798828e+01 4.397422790527343750e+00 -2.120979070663452148e+00
5.630000000000000000e+02 3.259814453125000000e+01 4.062255096435546875e+01 -6.574483513832092285e-01 2.792973756790161133e+00 6.406576037406921387e-01 -3.376933187246322632e-02
5.640000000000000000e+02 2.756585121154785156e+01 3.774383926391601562e+01 -4.768776297569274902e-01 2.200872898101806641e+00 5.171985626220703125e-01 -2.237814217805862427e-01
5.650000000000000000e+02 2.885886955261230469e+01 2.855566978454589844e+01 -7.427735924720764160e-01 2.601489305496215820e+00 5.576146841049194336e-01 -8.809468150138854980e-01
5.660000000000000000e+02 2.821179389953613281e+01 2.121216773986816406e+01 9.493465423583984375e-01 1.741900920867919922e+00 8.073742389678955078e-01 -1.379753708839416504e+00
5.670000000000000000e+02 2.694953155517578125e+01 2.154832649230957031e+01 -2.744534313678741455e-01 2.741227149963378906e-01 -9.921423043124377728e-05 -3.877492547035217285e-01
5.680000000000000000e+02 3.004696083068847656e+01 1.991638565063476562e+01 1.476374983787536621e+00 4.531516075134277344e+00 1.802367329597473145e+00 -2.309180736541748047e+00
5.690000000000000000e+02 2.969313621520996094e+01 2.126106452941894531e+01 6.902648806571960449e-01 3.719353199005126953e+00 1.322885394096374512e+00 -1.578451633453369141e+00
5.700000000000000000e+02 3.065448570251464844e+01 1.871056747436523438e+01 1.441847443580627441e+00 5.987453460693359375e+00 2.228790283203125000e+00 -2.663744926452636719e+00
5.710000000000000000e+02 3.165693092346191406e+01 1.611784172058105469e+01 8.896053433418273926e-01 7.561980247497558594e+00 2.535475730895996094e+00 -2.450668334960937500e+00
5.720000000000000000e+02 3.210102462768554688e+01 1.479166316986083984e+01 8.110474944114685059e-01 8.003774642944335938e+00 2.644446611404418945e+00 -2.383279561996459961e+00
5.730000000000000000e+02 3.342248153686523438e+01 9.321148872375488281e+00 4.718973338603973389e-01 1.061978340148925781e+01 3.327504396438598633e+00 -1.454796910285949707e+00
5.740000000000000000e+02 3.794449615478515625e+01 1.737934231758117676e+00 1.855909347534179688e+00 1.242302227020263672e+01 4.283679485321044922e+00 -8.968464732170104980e-01
5.750000000000000000e+02 3.273957443237304688e+01 1.155927777290344238e+00 5.676500797271728516e+00 9.469141006469726562e+00 4.543692588806152344e+00 5.785676479339599609e+00
5.760000000000000000e+02 3.099174499511718750e+01 -1.668773591518402100e-02 9.099741935729980469e+00 3.351809501647949219e+00 3.735465526580810547e+00 3.114696741104125977e+00
5.770000000000000000e+02 1.782750320434570312e+01 4.084296798706054688e+01 -1.957901716232299805e-01 1.377269029617309570e+00 3.544436693191528320e-01 -1.890420727431774139e-02
5.780000000000000000e+02 2.269515037536621094e+01 4.093719482421875000e+01 -2.826137244701385498e-01 1.686773300170898438e+00 4.212478697299957275e-01 -3.831576928496360779e-02
5.790000000000000000e+02 2.041860580444335938e+01 2.993692016601562500e+01 -3.015226125717163086e-01 9.626953601837158203e-01 1.983518302440643311e-01 -1.671110093593597412e-02
5.800000000000000000e+02 2.008278846740722656e+01 2.245718383789062500e+01 -2.129539012908935547e+00 -4.413601756095886230e-02 -6.521025300025939941e-01 -2.071910500526428223e-01
5.810000000000000000e+02 2.330809783935546875e+01 2.378760719299316406e+01 -1.182639479637145996e+00 6.119252741336822510e-02 -3.364340662956237793e-01 -3.189560770988464355e-01
5.820000000000000000e+02 2.432326126098632812e+01 2.219822502136230469e+01 -1.657412290573120117e+00 -3.306648135185241699e-02 -5.071436166763305664e-01 1.379957199096679688e-01
5.830000000000000000e+02 1.603030204772949219e+01 3.116871452331542969e+01 -4.433339238166809082e-01 1.321419239044189453e+00 2.634255886077880859e-01 1.140345782041549683e-01
5.840000000000000000e+02 1.864816093444824219e+01 2.216238784790039062e+01 -1.707178354263305664e+00 1.480867713689804077e-02 -5.077108740806579590e-01 -1.624434888362884521e-01
5.850000000000000000e+02 1.852755355834960938e+01 2.358708953857421875e+01 -1.133634209632873535e+00 3.436784148216247559e-01 -2.369867265224456787e-01 3.017016947269439697e-01
5.860000000000000000e+02 1.287805461883544922e+01 4.091518020629882812e+01 -1.622372716665267944e-01 1.228304982185363770e+00 3.198203146457672119e-01 -6.230369675904512405e-03
5.870000000000000000e+02 8.166227340698242188e+00 4.103354263305664062e+01 -9.973274171352386475e-02 1.138085007667541504e+00 3.115057051181793213e-01 -2.678318694233894348e-02
5.880000000000000000e+02 7.752969264984130859e+00 3.086848258972167969e+01 -3.876264095306396484e-01 1.266570448875427246e+00 2.636832296848297119e-01 -3.806449770927429199e-01
5.890000000000000000e+02 6.848146915435791016e+00 2.301395797729492188e+01 -2.521613836288452148e-01 1.221652746200561523e+00 2.908473908901214600e-01 -1.089434981346130371e+00
5.900000000000000000e+02 1.274257946014404297e+01 1.559293174743652344e+01 9.156291484832763672e-01 5.491767883300781250e+00 1.922219038009643555e+00 -1.233141064643859863e+00
5.910000000000000000e+02 1.375466442108154297e+01 9.487088203430175781e+00 2.701588869094848633e+00 4.144420146942138672e+00 2.053802728652954102e+00 -1.771191358566284180e+00
5.920000000000000000e+02 4.194634556770324707e-01 3.569344043731689453e+00 -8.837271481752395630e-03 -4.875892698764801025e-01 -1.489279568195343018e-01 1.182154044508934021e-01
5.930000000000000000e+02 1.037966442108154297e+01 1.890205740928649902e+00 -2.289458751678466797e+00 8.052162081003189087e-02 -6.626811027526855469e-01 6.919822096824645996e-01
5.940000000000000000e+02 1.113238906860351562e+01 1.891770243644714355e+00 -2.451903820037841797e+00 1.171058565378189087e-01 -7.004393935203552246e-01 6.112146973609924316e-01
5.950000000000000000e+02 1.118216991424560547e+01 2.653875589370727539e+00 -1.745932698249816895e+00 2.219511568546295166e-01 -4.571944773197174072e-01 7.262476086616516113e-01
5.960000000000000000e+02 1.700884246826171875e+01 3.503721237182617188e+00 -7.451590150594711304e-03 1.421977400779724121e+00 4.243577122688293457e-01 -1.620216727256774902e+00
5.970000000000000000e+02 1.697258758544921875e+01 2.059383153915405273e+00 -2.052795171737670898e+00 4.517374038696289062e-01 -4.803173542022705078e-01 -9.320357441902160645e-01
5.980000000000000000e+02 2.309836387634277344e+01 2.592574119567871094e+00 -1.450243353843688965e+00 3.653284788131713867e+00 6.609124541282653809e-01 7.099319696426391602e-01
5.990000000000000000e+02 2.422521781921386719e+01 2.149330615997314453e+00 -8.329366445541381836e-01 -1.227829098701477051e+00 -6.182297468185424805e-01 1.722318768501281738e+00
6.000000000000000000e+02 2.008413791656494141e+00 4.164550781250000000e+01 -8.161170408129692078e-03 1.131740927696228027e+00 3.370739221572875977e-01 -2.363576320931315422e-03
6.010000000000000000e+02 4.174697875976562500e+00 3.796710205078125000e+01 -4.806151986122131348e-02 1.081729769706726074e+00 3.101004660129547119e-01 -8.057350665330886841e-02
6.020000000000000000e+02 2.308043003082275391e+00 3.566453933715820312e+01 -3.063873201608657837e-02 1.022084832191467285e+00 2.974338233470916748e-01 -8.023560047149658203e-02
6.030000000000000000e+02 1.946832537651062012e+00 2.888052368164062500e+01 -4.596555233001708984e-02 5.258333086967468262e-01 1.439603269100189209e-01 -2.803047895431518555e-01
6.040000000000000000e+02 2.075181484222412109e+00 2.336194038391113281e+01 -3.991258516907691956e-02 -3.847021758556365967e-01 -1.273844391107559204e-01 -5.328664779663085938e-01
6.050000000000000000e+02 1.908839821815490723e+00 1.762394905090332031e+01 5.105746909976005554e-02 -1.623545527458190918e+00 -4.717464148998260498e-01 -3.981797695159912109e-01
6.060000000000000000e+02 1.896797180175781250e+00 1.195326137542724609e+01 1.203931942582130432e-01 -2.052605152130126953e+00 -5.796636343002319336e-01 1.394657641649246216e-01
6.070000000000000000e+02 1.763466477394104004e+00 9.116954803466796875e+00 7.578112185001373291e-02 -1.784883737564086914e+00 -5.127307772636413574e-01 4.319312572479248047e-01
6.080000000000000000e+02 1.881690788269042969e+01 2.134546756744384766e+00 -5.198107957839965820e-01 7.219409346580505371e-01 6.063903123140335083e-02 -2.197977304458618164e+00
6.090000000000000000e+02 1.625896453857421875e+01 2.014687061309814453e+00 -2.275731563568115234e+00 4.614614248275756836e-01 -5.442810654640197754e-01 -6.194077730178833008e-01
6.100000000000000000e+02 1.697247695922851562e+01 2.760236740112304688e+00 -8.983362317085266113e-01 9.208900332450866699e-01 6.766134407371282578e-03 -1.283255815505981445e+00
6.110000000000000000e+02 1.396007061004638672e+01 1.043262195587158203e+01 2.806354045867919922e+00 5.024279594421386719e+00 2.349189996719360352e+00 -2.078279495239257812e+00
6.120000000000000000e+02 1.441287899017333984e+01 1.400015830993652344e+01 7.758477926254272461e-01 8.374077796936035156e+00 2.744977712631225586e+00 -1.744602680206298828e+00
6.130000000000000000e+02 1.421724510192871094e+01 1.539805412292480469e+01 6.470849514007568359e-01 7.891044616699218750e+00 2.561438798904418945e+00 -8.737893104553222656e-01
6.140000000000000000e+02 1.422344589233398438e+01 1.836359024047851562e+01 6.930437684059143066e-01 6.641279220581054688e+00 2.200296878814697266e+00 2.113713473081588745e-01
6.150000000000000000e+02 1.150082588195800781e+01 1.703864669799804688e+01 1.071269631385803223e+00 3.771496772766113281e+00 1.452829957008361816e+00 -9.953864216804504395e-01
6.160000000000000000e+02 1.464748954772949219e+01 1.994106101989746094e+01 5.046402812004089355e-01 4.939142704010009766e+00 1.633134841918945312e+00 8.925319910049438477e-01
6.170000000000000000e+02 1.579834365844726562e+01 2.110931777954101562e+01 -1.087322607636451721e-01 1.847053170204162598e+00 5.214962959289550781e-01 7.958047986030578613e-01
6.180000000000000000e+02 1.694877433776855469e+01 2.315693283081054688e+01 -9.164752960205078125e-01 9.794567227363586426e-01 1.889442838728427887e-02 6.855444312095642090e-01
6.190000000000000000e+02 3.288605117797851562e+01 1.209030723571777344e+01 6.131754517555236816e-01 9.333950042724609375e+00 2.984137773513793945e+00 -1.971659421920776367e+00
6.200000000000000000e+02 4.382664871215820312e+01 1.702074241638183594e+01 1.185337781906127930e+00 3.697310209274291992e+00 1.464794397354125977e+00 2.176745176315307617e+00
6.210000000000000000e+02 4.682606887817382812e+01 1.771009445190429688e+01 1.190705537796020508e+00 1.491077780723571777e+00 8.045349717140197754e-01 1.382354140281677246e+00
6.220000000000000000e+02 6.697535705566406250e+01 -2.390454101562500000e+01 1.579026460647583008e+00 5.484860420227050781e+00 2.119166135787963867e+00 2.938663244247436523e+00
6.230000000000000000e+02 6.399092483520507812e+01 -2.698521423339843750e+01 -2.975710332393646240e-01 9.348042607307434082e-01 1.911699622869491577e-01 2.271630018949508667e-01
6.240000000000000000e+02 4.787541580200195312e+01 -2.857287406921386719e+01 2.865449666976928711e+00 5.454446315765380859e+00 2.495968818664550781e+00 -3.478202104568481445e+00
6.250000000000000000e+02 4.548507308959960938e+01 -2.489176368713378906e+01 2.074719667434692383e+00 1.352784538269042969e+01 4.680769443511962891e+00 -3.450740814208984375e+00
6.260000000000000000e+02 4.518750762939453125e+01 -2.272402191162109375e+01 8.832371830940246582e-01 1.357593917846679688e+01 4.337752819061279297e+00 -1.353550791740417480e+00
6.270000000000000000e+02 3.534120941162109375e+01 -2.318663406372070312e+01 1.334857702255249023e+00 9.303647041320800781e+00 3.191551446914672852e+00 2.289955377578735352e+00
6.280000000000000000e+02 3.425717163085937500e+01 -2.519750022888183594e+01 1.695773720741271973e+00 5.711958408355712891e+00 2.222319602966308594e+00 2.565637588500976562e+00
6.290000000000000000e+02 3.623706817626953125e+01 -2.589423561096191406e+01 7.446223497390747070e-01 6.951881408691406250e+00 2.308951139450073242e+00 8.631920218467712402e-01
6.300000000000000000e+02 3.561155319213867188e+01 -2.456168556213378906e+01 1.437320113182067871e+00 7.676410198211669922e+00 2.734118938446044922e+00 1.753059148788452148e+00
6.310000000000000000e+02 4.210397338867187500e+01 -2.269715881347656250e+01 2.003580331802368164e+00 9.864891052246093750e+00 3.560541391372680664e+00 -1.451359987258911133e+00
6.320000000000000000e+02 4.538783264160156250e+01 -2.010344696044921875e+01 5.105643272399902344e-01 1.221832752227783203e+01 3.818667650222778320e+00 4.459412992000579834e-01
6.330000000000000000e+02 4.533428955078125000e+01 -2.143504524230957031e+01 8.672055602073669434e-02 1.196689033508300781e+01 3.616083383560180664e+00 -2.048425823450088501e-01
6.340000000000000000e+02 3.680407333374023438e+01 -1.747715377807617188e+01 9.923530220985412598e-01 1.186938571929931641e+01 3.858521699905395508e+00 -1.718110799789428711e+00
6.350000000000000000e+02 3.547342681884765625e+01 -1.626802444458007812e+01 6.822957396507263184e-01 1.401207733154296875e+01 4.408311843872070312e+00 -2.030694007873535156e+00
6.360000000000000000e+02 3.613116455078125000e+01 -1.293008327484130859e+01 1.715008378028869629e+00 1.122276306152343750e+01 3.881331443786621094e+00 -2.562528133392333984e+00
6.370000000000000000e+02 3.559403610229492188e+01 -2.047785186767578125e+01 4.919732213020324707e-01 1.219233226776123047e+01 3.805291652679443359e+00 3.744167089462280273e-01
6.380000000000000000e+02 5.714035034179687500e+01 -3.734900283813476562e+01 5.603935122489929199e-01 6.907174587249755859e-01 3.753332793712615967e-01 -3.049614727497100830e-01
6.390000000000000000e+02 5.627993392944335938e+01 -3.056767463684082031e+01 -2.971205234527587891e+00 -1.734365522861480713e-01 -9.433925151824951172e-01 -4.718071818351745605e-01
6.400000000000000000e+02 4.808744049072265625e+01 -5.118429660797119141e+00 -3.414723634719848633e+00 -3.404874801635742188e-01 -1.126563310623168945e+00 1.139937639236450195e+00
6.410000000000000000e+02 4.778717422485351562e+01 -7.352071285247802734e+00 -1.493950337171554565e-01 2.768615782260894775e-01 3.823995962738990784e-02 1.581342577934265137e+00
6.420000000000000000e+02 5.842106246948242188e+01 -1.421792602539062500e+01 -2.320291996002197266e+00 1.768586970865726471e-02 -6.907818317413330078e-01 -3.072770237922668457e-01
6.430000000000000000e+02 5.710431671142578125e+01 -1.440448093414306641e+01 -2.281203746795654297e+00 8.115950971841812134e-02 -6.600132584571838379e-01 -1.432868093252182007e-01
6.440000000000000000e+02 5.802946090698242188e+01 -1.303197097778320312e+01 -1.977028489112854004e+00 3.429759442806243896e-01 -4.902157485485076904e-01 -7.125709205865859985e-02
6.450000000000000000e+02 1.322164058685302734e+01 -1.279725360870361328e+01 1.722326874732971191e+00 3.819364786148071289e+00 1.662507534027099609e+00 8.664456605911254883e-01
6.460000000000000000e+02 1.250786399841308594e+01 -1.433309364318847656e+01 1.872143864631652832e+00 3.909436702728271484e+00 1.734474182128906250e+00 8.962526321411132812e-01
6.470000000000000000e+02 1.562291526794433594e+01 -1.276979255676269531e+01 2.893753767013549805e+00 4.946885108947753906e+00 2.352191686630249023e+00 2.833526372909545898e+00
6.480000000000000000e+02 2.473760986328125000e+01 -6.566176414489746094e+00 -5.395349860191345215e-01 1.293423175811767578e+00 2.261664569377899170e-01 1.025313377380371094e+00
6.490000000000000000e+02 2.966829490661621094e+01 -6.947414577007293701e-02 8.669465065002441406e+00 4.097612500190734863e-01 2.723767995834350586e+00 3.976776078343391418e-02
6.500000000000000000e+02 2.997101593017578125e+01 -8.024912834167480469e+00 -4.651836872100830078e+00 2.133565545082092285e-01 -1.331544160842895508e+00 -9.047535061836242676e-02
6.510000000000000000e+02 3.488665008544921875e+01 -1.343798732757568359e+01 1.792003154754638672e+00 1.384767532348632812e+01 4.691903591156005859e+00 -4.100337028503417969e+00
6.520000000000000000e+02 4.684218978881835938e+01 -1.086677169799804688e+01 7.728475928306579590e-01 2.525907278060913086e+00 9.896264672279357910e-01 1.380424499511718750e+00
6.530000000000000000e+02 4.414030838012695312e+01 -6.886940956115722656e+00 -1.009631514549255371e+00 2.601048946380615234e+00 4.774252474308013916e-01 -7.364110946655273438e-01
6.540000000000000000e+02 5.024937438964843750e+01 -1.304377365112304688e+01 9.234978556632995605e-01 8.573355674743652344e-01 5.342500209808349609e-01 1.806646823883056641e+00
6.550000000000000000e+02 7.935725402832031250e+01 -5.505170822143554688e+00 3.495196113362908363e-03 8.221261024475097656e+00 2.467427015304565430e+00 -8.462359197437763214e-03
6.560000000000000000e+02 7.086157989501953125e+01 -2.090266227722167969e+00 -3.148711919784545898e-01 6.891209602355957031e+00 1.972901582717895508e+00 -9.818665385246276855e-01
6.570000000000000000e+02 7.150575256347656250e+01 -6.807011604309082031e+00 -1.086323976516723633e+00 7.784337043762207031e+00 2.009403944015502930e+00 -8.090919256210327148e-01
6.580000000000000000e+02 9.010193824768066406e+00 -1.858597755432128906e+00 -1.157468080520629883e+00 5.821868777275085449e-02 -3.297747969627380371e-01 -3.430814445018768311e-01
6.590000000000000000e+02 7.933625030517578125e+01 -1.250236606597900391e+01 5.540879792533814907e-04 6.847074508666992188e+00 2.054288625717163086e+00 2.352676540613174438e-01
6.600000000000000000e+02 1.234253597259521484e+01 -2.316817092895507812e+01 -5.016808211803436279e-02 3.230696916580200195e+00 9.541586041450500488e-01 6.372129321098327637e-01
6.610000000000000000e+02 1.427248859405517578e+01 -2.317332267761230469e+01 -1.164454147219657898e-01 3.766766548156738281e+00 1.095096349716186523e+00 -3.039555251598358154e-01
6.620000000000000000e+02 7.536014080047607422e+00 -3.146215820312500000e+01 -4.265070259571075439e-01 1.324888586997985840e+00 2.695144712924957275e-01 5.891247391700744629e-01
6.630000000000000000e+02 1.846356201171875000e+01 -3.003894233703613281e+01 -9.991918802261352539e-01 9.338591098785400391e-01 -1.959982700645923615e-02 -2.638986408710479736e-01
6.640000000000000000e+02 3.728500366210937500e+01 -4.083407592773437500e+01 -1.571766018867492676e+00 4.804275512695312500e+00 9.697529077529907227e-01 2.353457957506179810e-01
6.650000000000000000e+02 3.523451995849609375e+01 -2.882137680053710938e+01 -2.627139687538146973e-01 5.378924369812011719e+00 1.534863233566284180e+00 1.181726455688476562e+00
6.660000000000000000e+02 4.263961410522460938e+01 -3.167597007751464844e+01 -8.206317424774169922e-01 7.244877338409423828e+00 1.927273750305175781e+00 -3.875064551830291748e-01
6.670000000000000000e+02 5.210084533691406250e+01 -4.120378875732421875e+01 5.202655121684074402e-02 2.276787757873535156e+00 6.986442804336547852e-01 -2.770498991012573242e-01
6.680000000000000000e+02 6.048230743408203125e+01 -2.955382537841796875e+01 -2.560255765914916992e+00 -3.687568008899688721e-01 -8.787037134170532227e-01 -7.774280309677124023e-01
6.690000000000000000e+02 7.346996307373046875e+01 -3.172241210937500000e+01 -6.177067160606384277e-01 8.297461509704589844e+00 2.303926229476928711e+00 -3.605718612670898438e-01
6.700000000000000000e+02 7.407395935058593750e+01 -3.298298263549804688e+01 -4.748652279376983643e-01 8.423929214477539062e+00 2.384719133377075195e+00 -2.202537357807159424e-01
6.710000000000000000e+02 7.185166168212890625e+01 -3.836871337890625000e+01 -4.962507262825965881e-02 6.899158000946044922e+00 2.054859876632690430e+00 1.493673175573348999e-01
6.720000000000000000e+02 2.091230010986328125e+01 -3.087256431579589844e+01 -1.028149127960205078e+00 4.300225079059600830e-01 -1.794379800558090210e-01 -3.000029623508453369e-01
6.730000000000000000e+02 7.300354766845703125e+01 4.646023273468017578e+00 2.346081137657165527e-01 6.893533706665039062e+00 2.138442516326904297e+00 -6.591987609863281250e-01
6.740000000000000000e+02 7.934534454345703125e+01 2.840598821640014648e+00 1.989113539457321167e-02 7.042687416076660156e+00 2.118773460388183594e+00 -1.235684677958488464e-01
6.750000000000000000e+02 6.077538299560546875e+01 3.502283334732055664e+00 1.140725135803222656e+00 5.683845996856689453e+00 2.047371387481689453e+00 2.002733945846557617e+00
6.760000000000000000e+02 5.898088455200195312e+01 -3.313662290573120117e+00 1.469612479209899902e+00 2.592133522033691406e+00 1.218523859977722168e+00 1.279656171798706055e+00
6.770000000000000000e+02 6.586589813232421875e+01 1.189856529235839844e+01 9.667354226112365723e-01 8.445013046264648438e+00 2.823524475097656250e+00 2.518748342990875244e-01
6.780000000000000000e+02 7.934587860107421875e+01 8.411352157592773438e+00 2.288534119725227356e-02 6.189801216125488281e+00 1.863806009292602539e+00 -6.629908829927444458e-02
6.790000000000000000e+02 7.300599670410156250e+01 1.608030128479003906e+01 3.871765136718750000e-01 6.936215877532958984e+00 2.197017669677734375e+00 3.822824060916900635e-01
6.800000000000000000e+02 7.934461975097656250e+01 1.677681732177734375e+01 9.285824373364448547e-03 6.234634399414062500e+00 1.873176097869873047e+00 7.740782946348190308e-02
6.810000000000000000e+02 7.239154815673828125e+01 2.497936439514160156e+01 -2.537730336189270020e-01 7.089535236358642578e+00 2.050728559494018555e+00 5.034918189048767090e-01
6.820000000000000000e+02 7.933692169189453125e+01 2.373936080932617188e+01 3.193960292264819145e-03 7.273096084594726562e+00 2.182887077331542969e+00 1.106041669845581055e-01
6.830000000000000000e+02 3.445470809936523438e+01 1.536506843566894531e+01 6.902765035629272461e-01 7.976888179779052734e+00 2.600149393081665039e+00 -1.250623464584350586e+00
6.840000000000000000e+02 3.503416824340820312e+01 6.494082450866699219e+00 6.763849854469299316e-01 1.351153755187988281e+01 4.256376743316650391e+00 6.349636316299438477e-01
6.850000000000000000e+02 7.103799438476562500e+01 2.830390548706054688e+01 -3.743110001087188721e-01 6.873769283294677734e+00 1.949837446212768555e+00 2.456858754158020020e-01
6.860000000000000000e+02 7.938552093505859375e+01 2.926162719726562500e+01 -1.672357553616166115e-03 7.931649684906005859e+00 2.378993034362792969e+00 5.577652901411056519e-02
6.870000000000000000e+02 5.911901855468750000e+01 2.392158699035644531e+01 -9.464154839515686035e-01 1.942185759544372559e+00 2.987310886383056641e-01 -1.492157459259033203e+00
6.880000000000000000e+02 5.662697982788085938e+01 2.264245986938476562e+01 -1.687455892562866211e+00 -3.057617880403995514e-02 -5.154095888137817383e-01 -1.204131245613098145e-01
6.890000000000000000e+02 5.113519287109375000e+01 2.206840133666992188e+01 -9.948354363441467285e-01 7.672624588012695312e-01 -6.827189028263092041e-02 7.075089812278747559e-01
6.900000000000000000e+02 4.324963760375976562e+01 2.176600646972656250e+01 -4.064301848411560059e-01 4.043899536132812500e+00 1.091240763664245605e+00 1.602419257164001465e+00
6.910000000000000000e+02 3.527009963989257812e+01 2.359072113037109375e+01 -8.496922254562377930e-01 5.201691150665283203e+00 1.305599689483642578e+00 -3.116079606115818024e-03
6.920000000000000000e+02 5.958482360839843750e+01 3.435460662841796875e+01 2.219591289758682251e-01 3.604546308517456055e+00 1.147951602935791016e+00 -2.813516557216644287e-01
6.930000000000000000e+02 4.673526382446289062e+01 3.352370071411132812e+01 -1.950384229421615601e-01 2.821923017501831055e+00 7.880653738975524902e-01 7.682451605796813965e-01
6.940000000000000000e+02 4.263882064819335938e+01 2.954742431640625000e+01 -6.819052100181579590e-01 3.531096220016479492e+00 8.547572493553161621e-01 1.024047970771789551e+00
6.950000000000000000e+02 3.553309249877929688e+01 3.541886901855468750e+01 -8.034955263137817383e-01 3.225743532180786133e+00 7.266744375228881836e-01 2.640643902122974396e-02
6.960000000000000000e+02 3.025844955444335938e+01 3.166549110412597656e+01 -7.687273621559143066e-01 2.816408157348632812e+00 6.143041849136352539e-01 -5.414377450942993164e-01
6.970000000000000000e+02 1.908211135864257812e+01 3.158958435058593750e+01 -2.982717156410217285e-01 1.155009865760803223e+00 2.570214569568634033e-01 2.933945506811141968e-02
6.980000000000000000e+02 7.534997463226318359e+00 3.281528854370117188e+01 -2.861824631690979004e-01 1.213355302810668945e+00 2.781518697738647461e-01 -2.550657987594604492e-01
6.990000000000000000e+02 2.074162006378173828e+00 3.163809776306152344e+01 -3.546421602368354797e-02 7.985736727714538574e-01 2.289328277111053467e-01 -1.836532503366470337e-01
7.000000000000000000e+02 1.558186912536621094e+01 1.086492919921875000e+01 3.085157394409179688e+00 7.982096672058105469e+00 3.320176124572753906e+00 -4.200871467590332031e+00
7.010000000000000000e+02 1.325816440582275391e+01 1.172284698486328125e+01 2.206181764602661133e+00 5.142973899841308594e+00 2.204746723175048828e+00 -1.632672667503356934e+00
7.020000000000000000e+02 1.910248279571533203e+00 1.623199462890625000e+01 9.805646538734436035e-02 -1.833721280097961426e+00 -5.206994414329528809e-01 -3.073094785213470459e-01
7.030000000000000000e+02 3.905763626098632812e+01 4.525847911834716797e+00 4.112721085548400879e-01 1.468866157531738281e+01 4.529980182647705078e+00 3.253773450851440430e-01
7.040000000000000000e+02 3.461881256103515625e+01 9.358629226684570312e+00 7.129510045051574707e-01 1.126749420166015625e+01 3.594133377075195312e+00 -6.845312118530273438e-01
7.050000000000000000e+02 4.606476974487304688e+01 -2.613670539855957031e+01 2.644557952880859375e+00 1.128002166748046875e+01 4.177373886108398438e+00 -4.581923961639404297e+00
7.060000000000000000e+02 1.819615960121154785e+00 -1.778299713134765625e+01 7.899831980466842651e-02 -1.738757252693176270e+00 -4.979276955127716064e-01 2.089431285858154297e-01
7.070000000000000000e+02 8.295016288757324219e+00 -1.859089851379394531e+00 -1.065245985984802246e+00 4.705806449055671692e-02 -3.054563701152801514e-01 -3.877797424793243408e-01
7.080000000000000000e+02 6.868149757385253906e+00 -1.860721349716186523e+00 -8.486298918724060059e-01 1.435920689254999161e-02 -2.502811849117279053e-01 -4.306079149246215820e-01
7.090000000000000000e+02 4.733314990997314453e+00 -1.894929170608520508e+00 -4.992222487926483154e-01 -4.505542293190956116e-02 -1.632833033800125122e-01 -4.073731005191802979e-01
7.100000000000000000e+02 2.590143918991088867e+00 -2.027681589126586914e+00 -1.938374191522598267e-01 -1.252968311309814453e-01 -9.574027359485626221e-02 -2.734313607215881348e-01
7.110000000000000000e+02 2.819046020507812500e+00 -3.039920568466186523e+00 -1.852715313434600830e-01 -2.189198434352874756e-01 -1.212574094533920288e-01 -4.124801456928253174e-01
7.120000000000000000e+02 1.863625049591064453e+00 -2.095006465911865234e+00 -1.136149764060974121e-01 -1.520776003599166870e-01 -7.970777153968811035e-02 -1.993664205074310303e-01
7.130000000000000000e+02 1.126708984375000000e+00 -2.157406091690063477e+00 -4.347189888358116150e-02 -1.488356441259384155e-01 -5.769225955009460449e-02 -1.141148060560226440e-01
7.140000000000000000e+02 3.778148889541625977e-01 -2.196076393127441406e+00 -4.600124433636665344e-03 -9.545006603002548218e-02 -3.001505695283412933e-02 -3.787315636873245239e-02
7.150000000000000000e+02 1.997176766395568848e+00 -4.163769912719726562e+01 -8.600507862865924835e-03 1.366662979125976562e+00 4.074187278747558594e-01 2.351406030356884003e-03
7.160000000000000000e+02 5.882325649261474609e+00 -3.815281295776367188e+01 -1.973327696323394775e-01 1.197356462478637695e+00 3.000071048736572266e-01 1.916031390428543091e-01
7.170000000000000000e+02 9.487448930740356445e-01 -3.870976257324218750e+01 1.490364200435578823e-03 1.337660193443298340e+00 4.017451405525207520e-01 2.868668362498283386e-02
7.180000000000000000e+02 7.036640644073486328e-01 -3.481053543090820312e+01 -4.785317927598953247e-02 1.104537844657897949e+00 3.170054256916046143e-01 7.395458966493606567e-02
7.190000000000000000e+02 8.470516800880432129e-01 -3.341915512084960938e+01 -4.490485414862632751e-03 9.531949162483215332e-01 2.846113145351409912e-01 1.073848977684974670e-01
7.200000000000000000e+02 7.173382639884948730e-01 -2.907849884033203125e+01 -1.378135662525892258e-02 2.297569364309310913e-01 6.479267030954360962e-02 1.553296446800231934e-01
7.210000000000000000e+02 6.879039406776428223e-01 -2.765823554992675781e+01 -5.341371870599687099e-04 -9.788793325424194336e-02 -2.952662110328674316e-02 1.696251034736633301e-01
7.220000000000000000e+02 6.641433238983154297e-01 -2.624153900146484375e+01 -8.716744370758533478e-03 -4.637832343578338623e-01 -1.417499929666519165e-01 1.794964969158172607e-01
7.230000000000000000e+02 6.213482618331909180e-01 -2.200408554077148438e+01 1.146639324724674225e-02 -1.647331953048706055e+00 -4.907596707344055176e-01 1.673783063888549805e-01
7.240000000000000000e+02 6.148862838745117188e-01 -2.059225273132324219e+01 9.842077270150184631e-03 -2.000162124633789062e+00 -5.970960259437561035e-01 1.428774893283843994e-01
7.250000000000000000e+02 1.843727827072143555e+00 -2.059674453735351562e+01 5.556659027934074402e-02 -1.333189845085144043e+00 -3.832869827747344971e-01 3.959681391716003418e-01
7.260000000000000000e+02 5.938438177108764648e-01 -1.635750961303710938e+01 1.197115983814001083e-02 -2.631085872650146484e+00 -7.857344150543212891e-01 3.894533216953277588e-02
7.270000000000000000e+02 5.752730965614318848e-01 -1.494888496398925781e+01 2.256084978580474854e-02 -2.663435220718383789e+00 -7.922623157501220703e-01 -2.881185850128531456e-03
7.280000000000000000e+02 5.535574555397033691e-01 -1.354434585571289062e+01 1.138472277671098709e-02 -2.589145898818969727e+00 -7.733283042907714844e-01 -4.487949609756469727e-02
7.290000000000000000e+02 1.662381410598754883e+00 -1.358351325988769531e+01 7.925269752740859985e-02 -1.914737939834594727e+00 -5.506455898284912109e-01 -1.330756694078445435e-01
7.300000000000000000e+02 5.375035405158996582e-01 -9.355403900146484375e+00 5.795246455818414688e-03 -1.809003710746765137e+00 -5.409625768661499023e-01 -1.272546201944351196e-01
7.310000000000000000e+02 5.641458630561828613e-01 -7.959299564361572266e+00 1.447897125035524368e-02 -1.427588701248168945e+00 -4.239329099655151367e-01 -1.539764106273651123e-01
7.320000000000000000e+02 1.688078403472900391e+00 -8.219215393066406250e+00 2.191789448261260986e-02 -1.173814296722412109e+00 -3.455689251422882080e-01 -3.965039253234863281e-01
7.330000000000000000e+02 1.868727326393127441e+00 -6.900962829589843750e+00 7.754260674118995667e-03 -8.764990568161010742e-01 -2.606234252452850342e-01 -4.445141553878784180e-01
7.340000000000000000e+02 7.510433197021484375e+01 -4.050051498413085938e+01 4.124359041452407837e-02 8.697154998779296875e+00 2.621519565582275391e+00 -1.774048954248428345e-01
7.350000000000000000e+02 3.205285263061523438e+01 -4.093258285522460938e+01 -9.106744527816772461e-01 3.171036958694458008e+00 6.781087517738342285e-01 2.351544052362442017e-01
7.360000000000000000e+02 1.215796852111816406e+01 -3.798337173461914062e+01 -3.961213529109954834e-01 1.144918918609619141e+00 2.246392667293548584e-01 3.648383170366287231e-02
7.370000000000000000e+02 7.859660339355468750e+01 4.023662948608398438e+01 -5.336207896471023560e-02 8.011225700378417969e+00 2.387358903884887695e+00 -9.667310863733291626e-02
7.380000000000000000e+02 7.806244659423828125e+01 4.173529815673828125e+01 1.335671842098236084e-01 7.945128440856933594e+00 2.423608779907226562e+00 -3.741247951984405518e-02
7.390000000000000000e+02 7.748062133789062500e+01 3.795960235595703125e+01 -6.549745798110961914e-02 7.857697486877441406e+00 2.337659835815429688e+00 1.638758182525634766e-02
7.400000000000000000e+02 7.909676361083984375e+01 3.485805892944335938e+01 4.642675630748271942e-03 8.166877746582031250e+00 2.451456069946289062e+00 2.014616318047046661e-02
7.410000000000000000e+02 7.518532562255859375e+01 3.469914245605468750e+01 -7.044160366058349609e-02 7.319538116455078125e+00 2.174728870391845703e+00 7.251624017953872681e-02
7.420000000000000000e+02 7.915776062011718750e+01 3.343816757202148438e+01 -9.289247915148735046e-03 8.139523506164550781e+00 2.439070224761962891e+00 2.394739538431167603e-02
7.430000000000000000e+02 7.933010864257812500e+01 3.063149261474609375e+01 -6.503826472908258438e-03 8.028998374938964844e+00 2.406748294830322266e+00 4.640517011284828186e-02
7.440000000000000000e+02 7.581050109863281250e+01 2.824909210205078125e+01 -1.037139147520065308e-01 7.368040084838867188e+00 2.179297924041748047e+00 2.881577908992767334e-01
7.450000000000000000e+02 7.931307220458984375e+01 2.654375457763671875e+01 -4.192011896520853043e-03 7.654291152954101562e+00 2.295029640197753906e+00 8.636704087257385254e-02
7.460000000000000000e+02 7.670241546630859375e+01 2.520978546142578125e+01 -6.219349429011344910e-02 7.291778087615966797e+00 2.168875455856323242e+00 3.644672036170959473e-01
7.470000000000000000e+02 7.931855773925781250e+01 2.514416885375976562e+01 -1.137054339051246643e-02 7.478713989257812500e+00 2.240203142166137695e+00 1.028618365526199341e-01
7.480000000000000000e+02 7.934443664550781250e+01 2.095443725585937500e+01 6.019143387675285339e-03 6.825701713562011719e+00 2.049516201019287109e+00 1.140261441469192505e-01
7.490000000000000000e+02 7.934637451171875000e+01 1.956594848632812500e+01 8.190961088985204697e-04 6.606847286224365234e+00 1.982299923896789551e+00 1.072021648287773132e-01
7.500000000000000000e+02 7.934680175781250000e+01 1.817312049865722656e+01 8.697835728526115417e-03 6.405147075653076172e+00 1.924153447151184082e+00 9.676324576139450073e-02
7.510000000000000000e+02 7.934131622314453125e+01 1.398664283752441406e+01 1.729753986001014709e-02 6.017054557800292969e+00 1.810305595397949219e+00 3.274457156658172607e-02
7.520000000000000000e+02 7.934205627441406250e+01 1.259340572357177734e+01 4.153054673224687576e-03 5.982094287872314453e+00 1.795874118804931641e+00 1.132296212017536163e-02
7.530000000000000000e+02 7.934320831298828125e+01 1.119956302642822266e+01 2.210908383131027222e-02 5.999062061309814453e+00 1.806351304054260254e+00 -1.828950084745883942e-02
7.540000000000000000e+02 7.934605407714843750e+01 7.018949985504150391e+00 -5.459241569042205811e-03 6.355142116546630859e+00 1.904904842376708984e+00 -8.260150253772735596e-02
7.550000000000000000e+02 7.934576416015625000e+01 5.626462459564208984e+00 2.205383591353893280e-02 6.556894302368164062e+00 1.973684430122375488e+00 -1.026896163821220398e-01
7.560000000000000000e+02 7.934502410888671875e+01 4.233580589294433594e+00 -1.112586911767721176e-02 6.789895057678222656e+00 2.033630847930908203e+00 -1.116588935256004333e-01
7.570000000000000000e+02 7.934164428710937500e+01 5.490593612194061279e-02 1.536665670573711395e-02 7.568047046661376953e+00 2.275024175643920898e+00 -1.213253885507583618e-01
7.580000000000000000e+02 7.934108734130859375e+01 -1.338912129402160645e+00 -2.949367277324199677e-02 7.808830738067626953e+00 2.333801031112670898e+00 -1.029149666428565979e-01
7.590000000000000000e+02 7.804975891113281250e+01 -3.999888896942138672e+00 -6.135857477784156799e-02 7.917212963104248047e+00 2.356756448745727539e+00 -1.609352231025695801e-01
7.600000000000000000e+02 7.935052490234375000e+01 -4.118260860443115234e+00 -4.285398870706558228e-02 8.157843589782714844e+00 2.434497117996215820e+00 -4.682053253054618835e-02
7.610000000000000000e+02 7.935459136962890625e+01 -8.282980918884277344e+00 -1.302521396428346634e-02 8.020811080932617188e+00 2.402335882186889648e+00 1.094733700156211853e-01
7.620000000000000000e+02 7.800482940673828125e+01 -1.097862243652343750e+01 -8.225613832473754883e-02 7.645770072937011719e+00 2.269054174423217773e+00 5.329913496971130371e-01
7.630000000000000000e+02 7.933095550537109375e+01 -1.109087085723876953e+01 -1.117821317166090012e-02 7.313896656036376953e+00 2.190815687179565430e+00 2.255317270755767822e-01
7.640000000000000000e+02 7.940530395507812500e+01 -1.528973579406738281e+01 6.664141267538070679e-02 5.882120132446289062e+00 1.784628391265869141e+00 1.704365462064743042e-01
7.650000000000000000e+02 7.832172393798828125e+01 -1.786382675170898438e+01 1.654906868934631348e-01 6.455121040344238281e+00 1.986183524131774902e+00 -1.268261857330799103e-02
7.660000000000000000e+02 7.944261169433593750e+01 -1.802787208557128906e+01 7.873206585645675659e-02 5.480677604675292969e+00 1.667822837829589844e+00 -1.773209497332572937e-02
7.670000000000000000e+02 7.939100646972656250e+01 -2.355829238891601562e+01 4.695257544517517090e-02 7.215245723724365234e+00 2.178659439086914062e+00 -3.104421794414520264e-01
7.680000000000000000e+02 7.814437103271484375e+01 -2.469801139831542969e+01 1.338262576609849930e-02 8.051988601684570312e+00 2.419611454010009766e+00 -7.941587567329406738e-01
7.690000000000000000e+02 7.938237762451171875e+01 -2.495182418823242188e+01 -3.497286140918731689e-02 7.878793716430664062e+00 2.353146314620971680e+00 -3.055090308189392090e-01
7.700000000000000000e+02 7.935523986816406250e+01 -2.910424995422363281e+01 -2.178658964112401009e-03 9.563115119934082031e+00 2.868281126022338867e+00 -2.229651808738708496e-01
7.710000000000000000e+02 7.790904998779296875e+01 -3.150679969787597656e+01 -1.011485233902931213e-01 9.605259895324707031e+00 2.851233243942260742e+00 -3.812833428382873535e-01
7.720000000000000000e+02 7.930802154541015625e+01 -3.186953544616699219e+01 -2.281636931002140045e-02 1.022355747222900391e+01 3.060222387313842773e+00 -1.333667486906051636e-01
7.730000000000000000e+02 7.924863433837890625e+01 -3.602798080444335938e+01 6.731040775775909424e-03 1.053846549987792969e+01 3.163558959960937500e+00 -1.942272856831550598e-02
7.740000000000000000e+02 7.917326354980468750e+01 -3.739846038818359375e+01 -7.516079396009445190e-02 1.045853710174560547e+01 3.115012884140014648e+00 6.488711386919021606e-02
7.750000000000000000e+02 7.900028991699218750e+01 -3.874919509887695312e+01 9.335855022072792053e-03 1.031284999847412109e+01 3.096655607223510742e+00 9.350763261318206787e-02
7.760000000000000000e+02 7.866422271728515625e+01 -4.012182617187500000e+01 -7.434792816638946533e-02 1.013457965850830078e+01 3.018069505691528320e+00 1.561218649148941040e-01
7.770000000000000000e+02 2.756722068786621094e+01 4.089742279052734375e+01 -4.787952601909637451e-01 2.216567039489746094e+00 5.213315486907958984e-01 -8.494035899639129639e-02
7.780000000000000000e+02 4.769760894775390625e+01 4.046490478515625000e+01 1.197998318821191788e-02 2.867923974990844727e+00 8.639711737632751465e-01 1.611829847097396851e-01
7.790000000000000000e+02 6.767654418945312500e+01 4.110019302368164062e+01 6.098731607198715210e-02 5.630989551544189453e+00 1.707593083381652832e+00 -3.143215179443359375e-02
7.800000000000000000e+02 4.123851358890533447e-01 2.188506126403808594e+00 -1.982896775007247925e-02 -1.538539975881576538e-01 -5.210489034652709961e-02 6.892512738704681396e-02
7.810000000000000000e+02 2.115451574325561523e+00 3.312102317810058594e+00 -1.482736915349960327e-01 -4.449429512023925781e-01 -1.779650002717971802e-01 5.178456902503967285e-01
7.820000000000000000e+02 4.671434879302978516e+00 2.941921472549438477e+00 -5.551853775978088379e-01 -2.052967250347137451e-01 -2.281446307897567749e-01 8.683737516403198242e-01
7.830000000000000000e+02 3.177356481552124023e+00 6.421671390533447266e+00 4.175946488976478577e-02 -8.894422650337219238e-01 -2.543048560619354248e-01 8.409802317619323730e-01
7.840000000000000000e+02 5.946572422981262207e-01 9.219490051269531250e+00 2.875211462378501892e-02 -2.401055574417114258e+00 -7.116910219192504883e-01 1.564540565013885498e-01
7.850000000000000000e+02 6.316094398498535156e-01 1.205760765075683594e+01 3.764397650957107544e-02 -2.892607450485229492e+00 -8.564890623092651367e-01 3.987273573875427246e-02
7.860000000000000000e+02 6.395491957664489746e-01 1.630283927917480469e+01 8.063535460678394884e-06 -2.657822847366333008e+00 -7.973444461822509766e-01 -1.127945780754089355e-01
7.870000000000000000e+02 6.403049230575561523e-01 1.771105194091796875e+01 3.307091444730758667e-02 -2.369046926498413086e+00 -7.007927894592285156e-01 -1.518680155277252197e-01
7.880000000000000000e+02 6.875408291816711426e-01 2.197272872924804688e+01 -1.361526455730199814e-02 -1.178828239440917969e+00 -3.577330410480499268e-01 -2.072564661502838135e-01
7.890000000000000000e+02 6.858649253845214844e-01 2.338824272155761719e+01 -7.366828154772520065e-03 -7.798968553543090820e-01 -2.361790984869003296e-01 -1.857701539993286133e-01
7.900000000000000000e+02 6.656588912010192871e-01 2.479605102539062500e+01 -8.941469714045524597e-03 -4.106230735778808594e-01 -1.258693635463714600e-01 -1.690904647111892700e-01
7.910000000000000000e+02 6.504348516464233398e-01 2.900811576843261719e+01 -1.291031297296285629e-02 4.589167237281799316e-01 1.338019222021102905e-01 -9.713021665811538696e-02
7.920000000000000000e+02 6.674337983131408691e-01 3.041094017028808594e+01 -4.502802155911922455e-03 6.469516754150390625e-01 1.927346587181091309e-01 -7.963071763515472412e-02
7.930000000000000000e+02 2.016260147094726562e+00 3.025899124145507812e+01 -4.697414487600326538e-02 6.799317598342895508e-01 1.898872703313827515e-01 -2.267445921897888184e-01
7.940000000000000000e+02 6.812440156936645508e-01 3.181032371520996094e+01 -1.089762989431619644e-02 7.931769490242004395e-01 2.346837967634201050e-01 -6.242141500115394592e-02
7.950000000000000000e+02 7.706538438796997070e-01 3.599071884155273438e+01 -1.909641723614186049e-04 1.045909285545349121e+00 3.137155175209045410e-01 -2.770217508077621460e-02
7.960000000000000000e+02 2.702671289443969727e+00 3.819738006591796875e+01 -2.466205134987831116e-02 1.081531763076782227e+00 3.170609176158905029e-01 -5.003469064831733704e-02
7.970000000000000000e+02 9.841219782829284668e-01 3.873474502563476562e+01 3.485259599983692169e-03 1.111325144767761230e+00 3.344431221485137939e-01 -1.702409051358699799e-02
7.980000000000000000e+02 1.294782280921936035e+00 4.010527420043945312e+01 -9.186397306621074677e-03 1.127538800239562988e+00 3.355057239532470703e-01 -1.007190719246864319e-02
7.990000000000000000e+02 9.592757225036621094e+00 1.890855193138122559e+00 -2.106857538223266602e+00 5.340186506509780884e-02 -6.160367131233215332e-01 7.336637973785400391e-01
8.000000000000000000e+02 7.942006587982177734e+00 1.903603434562683105e+00 -1.653384566307067871e+00 3.150258853565901518e-04 -4.959208667278289795e-01 7.861483097076416016e-01
8.010000000000000000e+02 7.110968589782714844e+00 1.914938330650329590e+00 -1.411916732788085938e+00 -2.310974709689617157e-02 -4.305079579353332520e-01 7.914704680442810059e-01
8.020000000000000000e+02 5.439438343048095703e+00 1.952876448631286621e+00 -9.394230842590332031e-01 -7.827764004468917847e-02 -3.053102195262908936e-01 7.298964858055114746e-01
8.030000000000000000e+02 4.601253986358642578e+00 1.980993986129760742e+00 -7.250137329101562500e-01 -1.087832525372505188e-01 -2.501391172409057617e-01 6.643778681755065918e-01
8.040000000000000000e+02 3.762947320938110352e+00 2.017480373382568359e+00 -5.260757207870483398e-01 -1.514803767204284668e-01 -2.032668292522430420e-01 5.837860703468322754e-01
8.050000000000000000e+02 2.079408884048461914e+00 2.103925466537475586e+00 -2.038872838020324707e-01 -2.293355166912078857e-01 -1.299668401479721069e-01 3.492814302444458008e-01
8.060000000000000000e+02 1.241727948188781738e+00 2.148611068725585938e+00 -8.686708658933639526e-02 -2.272096872329711914e-01 -9.422302991151809692e-02 2.042151987552642822e-01
8.070000000000000000e+02 1.262694168090820312e+01 1.900285124778747559e+00 -2.697916984558105469e+00 1.979404240846633911e-01 -7.499929666519165039e-01 4.165875613689422607e-01
8.080000000000000000e+02 1.336200809478759766e+01 1.909566998481750488e+00 -2.740780115127563477e+00 2.501699030399322510e-01 -7.471830248832702637e-01 2.885645925998687744e-01
8.090000000000000000e+02 1.553960514068603516e+01 1.972842693328857422e+00 -2.541470050811767578e+00 3.621713221073150635e-01 -6.537896394729614258e-01 -3.175215125083923340e-01
8.100000000000000000e+02 1.877765655517578125e+01 6.079388141632080078e+00 3.584445953369140625e+00 3.855722427368164062e+00 2.232050418853759766e+00 -3.909476995468139648e+00
8.110000000000000000e+02 1.835560798645019531e+01 2.123177766799926758e+00 -9.840785264968872070e-01 5.696588754653930664e-01 -1.243259012699127197e-01 -1.806005120277404785e+00
8.120000000000000000e+02 2.002735710144042969e+01 2.216601848602294922e+00 1.137051224708557129e+00 1.622218608856201172e+00 8.277809619903564453e-01 -3.946244955062866211e+00
8.130000000000000000e+02 2.038558006286621094e+01 2.293510198593139648e+00 1.631347060203552246e+00 2.461062669754028320e+00 1.227722883224487305e+00 -4.951239109039306641e+00
8.140000000000000000e+02 2.116911697387695312e+01 2.464293718338012695e+00 9.615696668624877930e-01 6.241926670074462891e+00 2.161048889160156250e+00 -6.106866359710693359e+00
8.150000000000000000e+02 2.211363983154296875e+01 2.735718488693237305e+00 -1.075869202613830566e+00 8.659869194030761719e+00 2.275199890136718750e+00 -4.085514545440673828e+00
8.160000000000000000e+02 2.154904556274414062e+01 -1.201568961143493652e+00 1.416381001472473145e+00 5.272195816040039062e+00 2.006573200225830078e+00 2.499595165252685547e+00
8.170000000000000000e+02 2.075323104858398438e+01 -9.625788331031799316e-01 2.092006921768188477e+00 2.727755069732666016e+00 1.445928573608398438e+00 2.646340370178222656e+00
8.180000000000000000e+02 2.194277191162109375e+01 -9.988670945167541504e-01 1.415961146354675293e+00 6.941104888916015625e+00 2.507119655609130859e+00 1.726032733917236328e+00
8.190000000000000000e+02 2.037094497680664062e+01 -1.066605329513549805e+00 1.910335302352905273e+00 1.858517646789550781e+00 1.130655884742736816e+00 2.321438312530517578e+00
8.200000000000000000e+02 1.885195541381835938e+01 -1.366606354713439941e+00 7.957320213317871094e-01 6.311596035957336426e-01 4.280674755573272705e-01 1.406729817390441895e+00
8.210000000000000000e+02 1.767460823059082031e+01 -1.487066388130187988e+00 3.476918488740921021e-02 3.443414270877838135e-01 1.137331798672676086e-01 1.006433486938476562e+00
8.220000000000000000e+02 1.643250656127929688e+01 -1.617837905883789062e+00 -4.487591981887817383e-01 2.427885532379150391e-01 -6.179119274020195007e-02 7.501040697097778320e-01
8.230000000000000000e+02 1.271478557586669922e+01 -1.817383766174316406e+00 -1.291519880294799805e+00 1.347486227750778198e-01 -3.470313847064971924e-01 5.894026905298233032e-02
8.240000000000000000e+02 1.347240447998046875e+01 -1.790528774261474609e+00 -1.222244143486022949e+00 1.492843031883239746e-01 -3.218879401683807373e-01 1.821566224098205566e-01
8.250000000000000000e+02 1.498995113372802734e+01 -1.711156487464904785e+00 -9.371189475059509277e-01 1.846032440662384033e-01 -2.257547080516815186e-01 4.492093622684478760e-01
8.260000000000000000e+02 1.045938396453857422e+01 -1.850315809249877930e+00 -1.296679019927978516e+00 9.001997858285903931e-02 -3.619977235794067383e-01 -2.223057299852371216e-01
8.270000000000000000e+02 2.565188217163085938e+01 2.186321067810058594e+01 -1.127778053283691406e+00 1.698101013898849487e-01 -2.873903810977935791e-01 -1.456054742448031902e-03
8.280000000000000000e+02 3.119003677368164062e+01 1.743116950988769531e+01 1.276923894882202148e+00 7.083590030670166016e+00 2.508154153823852539e+00 -2.623863458633422852e+00
8.290000000000000000e+02 3.252955245971679688e+01 1.345482826232910156e+01 7.928659915924072266e-01 8.838035583496093750e+00 2.889270305633544922e+00 -2.272104740142822266e+00
8.300000000000000000e+02 3.855862045288085938e+01 9.288132667541503906e+00 2.029720306396484375e+00 1.355903530120849609e+01 4.676626682281494141e+00 2.187894344329833984e+00
8.310000000000000000e+02 3.639339065551757812e+01 4.846893310546875000e+00 1.873349428176879883e+00 1.377905464172363281e+01 4.695721149444580078e+00 1.729688048362731934e+00
8.320000000000000000e+02 3.908397293090820312e+01 5.990872859954833984e+00 4.877717494964599609e-01 1.599721050262451172e+01 4.945494651794433594e+00 1.246595740318298340e+00
8.330000000000000000e+02 2.238182258605957031e+01 4.271167755126953125e+00 4.533280730247497559e-01 2.577675580978393555e+00 9.093011021614074707e-01 -1.553611516952514648e+00
8.340000000000000000e+02 2.056429672241210938e+01 2.332336187362670898e+00 1.857737660408020020e+00 2.644726753234863281e+00 1.350739359855651855e+00 -5.407330513000488281e+00
8.350000000000000000e+02 1.925854492187500000e+01 6.875236034393310547e+00 5.126065731048583984e+00 4.783761024475097656e+00 2.972948074340820312e+00 -4.698593139648437500e+00
8.360000000000000000e+02 1.723571586608886719e+01 8.831326484680175781e+00 4.915475368499755859e+00 6.122593402862548828e+00 3.311420679092407227e+00 -4.945210456848144531e+00
8.370000000000000000e+02 1.453164482116699219e+01 1.149701213836669922e+01 2.522527694702148438e+00 7.200139045715332031e+00 2.916800022125244141e+00 -2.937830686569213867e+00
8.380000000000000000e+02 1.424488639831542969e+01 1.683936882019042969e+01 -7.281976938247680664e-02 6.843378067016601562e+00 2.031167507171630859e+00 -2.827621400356292725e-01
8.390000000000000000e+02 2.152322578430175781e+01 2.259353256225585938e+01 -2.420011997222900391e+00 -1.396898925304412842e-01 -7.679105997085571289e-01 -7.466281205415725708e-02
8.400000000000000000e+02 6.244141387939453125e+01 1.500636100769042969e+01 2.063057273626327515e-01 1.114400386810302734e+01 3.405092954635620117e+00 -1.166273429989814758e-01
8.410000000000000000e+02 6.232740020751953125e+01 1.363589763641357422e+01 1.679483950138092041e-01 1.126206970214843750e+01 3.429005384445190430e+00 3.329760134220123291e-01
8.420000000000000000e+02 6.308818435668945312e+01 1.199177265167236328e+01 3.967063128948211670e-01 1.035676765441894531e+01 3.226042032241821289e+00 6.778111457824707031e-01
8.430000000000000000e+02 6.111270141601562500e+01 6.723916530609130859e+00 1.283315062522888184e+00 8.322406768798828125e+00 2.881716489791870117e+00 2.638016223907470703e+00
8.440000000000000000e+02 5.804627227783203125e+01 1.916745781898498535e+00 1.444530129432678223e+00 3.248098611831665039e+00 1.407788634300231934e+00 2.169289827346801758e+00
8.450000000000000000e+02 5.727254104614257812e+01 7.597593069076538086e-01 1.511352539062500000e+00 3.308690071105957031e+00 1.446012735366821289e+00 2.215968132019042969e+00
8.460000000000000000e+02 5.469496536254882812e+01 -2.590658426284790039e+00 2.377666711807250977e+00 2.703811645507812500e+00 1.524443507194519043e+00 2.454420089721679688e+00
8.470000000000000000e+02 5.279969024658203125e+01 -4.604862213134765625e+00 2.674800634384155273e+00 2.385762691497802734e+00 1.518169045448303223e+00 2.329510211944580078e+00
8.480000000000000000e+02 4.409404754638671875e+01 -4.118687629699707031e+00 -3.043554306030273438e+00 2.004449963569641113e-01 -8.529328107833862305e-01 4.192593097686767578e-01
8.490000000000000000e+02 4.152527999877929688e+01 -3.817797660827636719e+00 -7.969116568565368652e-01 4.777606010437011719e+00 1.194208383560180664e+00 -2.098763465881347656e+00
8.500000000000000000e+02 3.377726745605468750e+01 6.532452583312988281e+00 3.534146547317504883e-01 1.301418113708496094e+01 4.010278701782226562e+00 -2.579061388969421387e-01
8.510000000000000000e+02 3.363461303710937500e+01 7.933279037475585938e+00 3.672735691070556641e-01 1.190763854980468750e+01 3.682473659515380859e+00 -9.286695122718811035e-01
8.520000000000000000e+02 3.960228729248046875e+01 8.815302848815917969e+00 2.197323799133300781e+00 1.646726226806640625e+01 5.599375724792480469e+00 4.451224803924560547e+00
8.530000000000000000e+02 4.074078369140625000e+01 1.153213691711425781e+01 2.672804355621337891e+00 9.280375480651855469e+00 3.585953950881958008e+00 4.442712783813476562e+00
8.540000000000000000e+02 4.159596633911132812e+01 1.279212093353271484e+01 2.824941158294677734e+00 7.040622234344482422e+00 2.959669113159179688e+00 3.902194261550903320e+00
8.550000000000000000e+02 4.364975357055664062e+01 1.486747360229492188e+01 2.411046266555786133e+00 3.593232393264770508e+00 1.801283597946166992e+00 2.795139074325561523e+00
8.560000000000000000e+02 4.795380783081054688e+01 1.855937004089355469e+01 7.016299962997436523e-01 1.088509678840637207e+00 5.370419025421142578e-01 9.485911130905151367e-01
8.570000000000000000e+02 5.044046783447265625e+01 2.003459548950195312e+01 -7.669798731803894043e-01 3.278454840183258057e-01 -1.317403167486190796e-01 1.801434457302093506e-01
8.580000000000000000e+02 5.317451477050781250e+01 2.104516983032226562e+01 -2.104368209838867188e+00 3.978233039379119873e-02 -6.193757653236389160e-01 -2.171845883131027222e-01
8.590000000000000000e+02 5.736405563354492188e+01 2.162313652038574219e+01 -3.616380214691162109e+00 -2.390979081392288208e-01 -1.156643509864807129e+00 -3.137588202953338623e-01
8.600000000000000000e+02 6.842102813720703125e+01 -1.508455276489257812e+01 2.764339685440063477e+00 1.433802700042724609e+01 5.130710124969482422e+00 -4.088606834411621094e+00
8.610000000000000000e+02 6.897515106201171875e+01 -1.864445304870605469e+01 5.800858736038208008e-01 1.817135047912597656e+01 5.625431060791015625e+00 6.245602965354919434e-01
8.620000000000000000e+02 6.599641418457031250e+01 -2.496359062194824219e+01 9.320347309112548828e-01 3.104731321334838867e+00 1.211029767990112305e+00 1.670952796936035156e+00
8.630000000000000000e+02 6.293215942382812500e+01 -2.795007324218750000e+01 -1.177690625190734863e+00 1.674714386463165283e-01 -3.030657768249511719e-01 -2.792741060256958008e-01
8.640000000000000000e+02 6.176267242431640625e+01 -2.881893539428710938e+01 -1.991539597511291504e+00 -1.599260121583938599e-01 -6.454396843910217285e-01 -7.146292328834533691e-01
8.650000000000000000e+02 5.910910797119140625e+01 -3.004786109924316406e+01 -2.826163768768310547e+00 -2.545649409294128418e-01 -9.242185950279235840e-01 -7.440786957740783691e-01
8.660000000000000000e+02 5.484704208374023438e+01 -3.068928718566894531e+01 -2.453143119812011719e+00 -3.672580420970916748e-02 -7.469606995582580566e-01 -3.321044147014617920e-01
8.670000000000000000e+02 5.047696304321289062e+01 -3.006681060791015625e+01 7.725457549095153809e-01 1.286068201065063477e+00 6.175841689109802246e-01 -1.392235755920410156e+00
8.680000000000000000e+02 4.681137084960937500e+01 -2.745368766784667969e+01 3.013307571411132812e+00 8.360207557678222656e+00 3.412054777145385742e+00 -4.250413894653320312e+00
8.690000000000000000e+02 4.448287582397460938e+01 -2.398593902587890625e+01 2.158524513244628906e+00 1.243269920349121094e+01 4.377367019653320312e+00 -2.214740753173828125e+00
8.700000000000000000e+02 4.521880722045898438e+01 -1.734283828735351562e+01 2.103035688400268555e+00 8.497772216796875000e+00 3.180242300033569336e+00 1.630260586738586426e+00
8.710000000000000000e+02 5.304531097412109375e+01 -1.475730419158935547e+01 -6.160717010498046875e-01 6.863006204366683960e-02 -1.642324924468994141e-01 3.111260533332824707e-01
8.720000000000000000e+02 5.442071533203125000e+01 -1.466146564483642578e+01 -1.345116138458251953e+00 1.218492612242698669e-01 -3.669800460338592529e-01 1.421406716108322144e-01
8.730000000000000000e+02 5.576644515991210938e+01 -1.454552555084228516e+01 -1.936729788780212402e+00 1.594895683228969574e-02 -5.762342810630798340e-01 8.977908641099929810e-03
8.740000000000000000e+02 3.561046218872070312e+01 -1.908142471313476562e+01 2.275011837482452393e-01 1.244039916992187500e+01 3.800370216369628906e+00 -5.296884179115295410e-01
8.750000000000000000e+02 3.232164001464843750e+01 -2.709004974365234375e+01 9.740951657295227051e-01 2.242923974990844727e+00 9.651057720184326172e-01 1.464759230613708496e+00
8.760000000000000000e+02 3.128860092163085938e+01 -2.804264450073242188e+01 5.020943284034729004e-01 1.462933540344238281e+00 5.895083546638488770e-01 9.799374341964721680e-01
8.770000000000000000e+02 2.742400741577148438e+01 -2.971150398254394531e+01 -2.015861749649047852e+00 1.134723145514726639e-02 -6.013543605804443359e-01 2.274435758590698242e-02
8.780000000000000000e+02 2.020317840576171875e+01 -2.753106117248535156e+01 -5.862973928451538086e-01 7.333678007125854492e-02 -1.538881808519363403e-01 1.600787937641143799e-01
8.790000000000000000e+02 1.914708328247070312e+01 -2.660552406311035156e+01 -2.455401271581649780e-01 3.193273246288299561e-01 2.213615737855434418e-02 -4.663355275988578796e-02
8.800000000000000000e+02 1.624147224426269531e+01 -2.346950721740722656e+01 4.899258911609649658e-01 1.745933175086975098e+00 6.707577109336853027e-01 -9.120700359344482422e-01
8.810000000000000000e+02 1.441447162628173828e+01 -1.621115303039550781e+01 1.166967391967773438e+00 8.248070716857910156e+00 2.824511289596557617e+00 1.825051784515380859e+00
8.820000000000000000e+02 1.547732925415039062e+01 -1.398993587493896484e+01 3.086075782775878906e+00 6.452470779418945312e+00 2.861563920974731445e+00 3.681608676910400391e+00
8.830000000000000000e+02 2.080676841735839844e+01 -1.138523864746093750e+01 4.073852002620697021e-01 1.837681233882904053e-01 1.773459911346435547e-01 4.025788903236389160e-01
8.840000000000000000e+02 2.211347579956054688e+01 -1.109141540527343750e+01 -3.347141742706298828e-01 1.296753287315368652e-01 -6.151165068149566650e-02 1.687368899583816528e-01
8.850000000000000000e+02 2.454836082458496094e+01 -1.015551757812500000e+01 -1.219468355178833008e+00 -1.091229021549224854e-01 -3.985773921012878418e-01 -3.761687278747558594e-01
8.860000000000000000e+02 1.945526695251464844e+01 2.182820558547973633e+00 5.283665060997009277e-01 1.173051118850708008e+00 5.104253292083740234e-01 -3.183980464935302734e+00
8.870000000000000000e+02 1.925746345520019531e+01 2.159491062164306641e+00 1.104957088828086853e-01 1.010827183723449707e+00 3.363968729972839355e-01 -2.660237550735473633e+00
8.880000000000000000e+02 2.023957824707031250e+01 3.168694496154785156e+00 7.895837426185607910e-01 3.765273094177246094e+00 1.366456985473632812e+00 -4.555590152740478516e+00
8.890000000000000000e+02 2.095803260803222656e+01 2.478724002838134766e+00 1.604361176490783691e+00 4.551541328430175781e+00 1.846770763397216797e+00 -6.300605297088623047e+00
8.900000000000000000e+02 1.937864875793457031e+01 2.767034053802490234e+00 6.885586380958557129e-01 2.041632652282714844e+00 8.190574049949645996e-01 -3.605131149291992188e+00
8.910000000000000000e+02 1.983814048767089844e+01 2.213199615478515625e+00 1.105862975120544434e+00 1.146376132965087891e+00 6.756716966629028320e-01 -3.677579402923583984e+00
8.920000000000000000e+02 2.020193099975585938e+01 2.254962921142578125e+00 1.605873942375183105e+00 1.711561441421508789e+00 9.952306151390075684e-01 -4.637948989868164062e+00
8.930000000000000000e+02 1.964534759521484375e+01 2.182811021804809570e+00 9.002618789672851562e-01 1.062884926795959473e+00 5.889440774917602539e-01 -3.358198404312133789e+00
8.940000000000000000e+02 1.767936134338378906e+01 2.093982458114624023e+00 -1.570917248725891113e+00 5.150049328804016113e-01 -3.167736828327178955e-01 -1.349073410034179688e+00
8.950000000000000000e+02 2.066615676879882812e+01 3.021820545196533203e+00 6.805251240730285645e-01 4.473743438720703125e+00 1.546280503273010254e+00 -5.664126873016357422e+00
8.960000000000000000e+02 2.120625686645507812e+01 2.712799310684204102e+00 6.101417541503906250e-01 7.008284091949462891e+00 2.285527706146240234e+00 -6.297406196594238281e+00
8.970000000000000000e+02 2.040627479553222656e+01 2.499421596527099609e+00 1.733369469642639160e+00 2.877163171768188477e+00 1.383159756660461426e+00 -5.233867645263671875e+00
8.980000000000000000e+02 2.598386192321777344e+01 -8.957815766334533691e-01 5.693505287170410156e+00 -2.889276146888732910e-01 1.621373414993286133e+00 -9.152223467826843262e-01
8.990000000000000000e+02 2.229504585266113281e+01 -1.162161588668823242e+00 1.343218088150024414e+00 7.232040405273437500e+00 2.572577476501464844e+00 4.313001930713653564e-01
9.000000000000000000e+02 2.093306732177734375e+01 -9.146263003349304199e-01 2.127592325210571289e+00 3.344251632690429688e+00 1.641553282737731934e+00 2.773605823516845703e+00
9.010000000000000000e+02 2.056267166137695312e+01 -1.011282324790954590e+00 2.047101974487304688e+00 2.264919519424438477e+00 1.293606400489807129e+00 2.458117246627807617e+00
9.020000000000000000e+02 2.017676734924316406e+01 -1.141281247138977051e+00 1.758042931556701660e+00 1.634755015373229980e+00 1.017839431762695312e+00 2.169291734695434570e+00
9.030000000000000000e+02 1.926584815979003906e+01 -1.326581835746765137e+00 1.112266063690185547e+00 8.112594485282897949e-01 5.770576596260070801e-01 1.620397925376892090e+00
9.040000000000000000e+02 1.960096168518066406e+01 -1.791106581687927246e+00 1.177378058433532715e+00 1.360551357269287109e+00 7.613788247108459473e-01 2.070569276809692383e+00
9.050000000000000000e+02 2.114926910400390625e+01 -9.182381033897399902e-01 1.872206687927246094e+00 3.975723743438720703e+00 1.754379153251647949e+00 2.799621582031250000e+00
9.060000000000000000e+02 1.986128616333007812e+01 -1.687515258789062500e+00 1.328118205070495605e+00 1.547941446304321289e+00 8.628178834915161133e-01 2.175685882568359375e+00
9.070000000000000000e+02 1.827547836303710938e+01 -1.421388506889343262e+00 4.433412253856658936e-01 4.428526163101196289e-01 2.658581435680389404e-01 1.168567657470703125e+00
9.080000000000000000e+02 1.591782665252685547e+01 -2.824482440948486328e+00 -2.695170342922210693e-01 5.588043928146362305e-01 8.678620308637619019e-02 1.022226333618164062e+00
9.090000000000000000e+02 1.883768844604492188e+01 -1.871056675910949707e+00 8.036686778068542480e-01 8.767358660697937012e-01 5.041213631629943848e-01 1.689299583435058594e+00
9.100000000000000000e+02 1.714208030700683594e+01 -2.091866493225097656e+00 -1.547687780112028122e-02 4.582474231719970703e-01 1.328311711549758911e-01 1.142551660537719727e+00
9.110000000000000000e+02 1.831994438171386719e+01 -1.930803060531616211e+00 5.153725743293762207e-01 6.748358607292175293e-01 3.570625185966491699e-01 1.511265873908996582e+00
9.120000000000000000e+02 1.705980110168457031e+01 -1.554372429847717285e+00 -2.082199603319168091e-01 3.091164231300354004e-01 3.026893734931945801e-02 8.890266418457031250e-01
9.130000000000000000e+02 1.650399971008300781e+01 -2.170402765274047852e+00 -2.462133467197418213e-01 4.168621897697448730e-01 5.119465664029121399e-02 9.868508577346801758e-01
9.140000000000000000e+02 1.775008010864257812e+01 -2.008737564086914062e+00 2.774770855903625488e-01 5.428765416145324707e-01 2.461060881614685059e-01 1.317528009414672852e+00
9.150000000000000000e+02 7.893334388732910156e+00 -3.292492151260375977e+00 -6.512398123741149902e-01 1.051789298653602600e-01 -1.638182699680328369e-01 -5.581301450729370117e-01
9.160000000000000000e+02 1.120892238616943359e+01 -1.842310309410095215e+00 -1.328292846679687500e+00 1.071664765477180481e-01 -3.663379251956939697e-01 -1.461387574672698975e-01
9.170000000000000000e+02 6.156338691711425781e+00 -1.865601897239685059e+00 -7.323375940322875977e-01 -8.570070378482341766e-03 -2.222722917795181274e-01 -4.323952794075012207e-01
9.180000000000000000e+02 8.449793815612792969e+00 -2.577685594558715820e+00 -8.772625327110290527e-01 8.922898769378662109e-02 -2.364100664854049683e-01 -4.584319293498992920e-01
9.190000000000000000e+02 3.530088901519775391e+00 -2.868159770965576172e+00 -2.691211700439453125e-01 -1.505480408668518066e-01 -1.259007602930068970e-01 -4.577198028564453125e-01
9.200000000000000000e+02 6.326149940490722656e+00 -2.589230775833129883e+00 -6.331946253776550293e-01 2.378531033173203468e-03 -1.892448216676712036e-01 -5.379596948623657227e-01
9.210000000000000000e+02 5.444798946380615234e+00 -1.876039266586303711e+00 -6.154366731643676758e-01 -1.909923739731311798e-02 -1.903607696294784546e-01 -4.261349141597747803e-01
9.220000000000000000e+02 7.580910205841064453e+00 -1.859144091606140137e+00 -9.618964195251464844e-01 2.539429068565368652e-02 -2.809506356716156006e-01 -4.118918478488922119e-01
9.230000000000000000e+02 7.737105846405029297e+00 -2.576141834259033203e+00 -8.027601838111877441e-01 6.292611360549926758e-02 -2.219502180814743042e-01 -5.035444498062133789e-01
9.240000000000000000e+02 7.029741287231445312e+00 -2.578437328338623047e+00 -7.209421992301940918e-01 2.630470879375934601e-02 -2.083912491798400879e-01 -5.247914791107177734e-01
9.250000000000000000e+02 5.625310897827148438e+00 -2.614269733428955078e+00 -5.402197241783142090e-01 -3.549839556217193604e-02 -1.727154403924942017e-01 -5.338101387023925781e-01
9.260000000000000000e+02 2.987409114837646484e+00 -7.457073211669921875e+00 2.237671613693237305e-02 -7.110742330551147461e-01 -2.066092640161514282e-01 -6.223487257957458496e-01
9.270000000000000000e+02 6.378870010375976562e-01 -6.519816398620605469e+00 5.906753707677125931e-03 -1.016027450561523438e+00 -3.030362129211425781e-01 -1.758652776479721069e-01
9.280000000000000000e+02 3.007549524307250977e+00 -5.205609321594238281e+00 -8.358314633369445801e-02 -4.203655719757080078e-01 -1.511846184730529785e-01 -5.719879269599914551e-01
9.290000000000000000e+02 4.434458911418914795e-01 -3.589721918106079102e+00 -2.130194939672946930e-02 -3.191150724887847900e-01 -1.021251082420349121e-01 -8.530355244874954224e-02
9.300000000000000000e+02 5.902937054634094238e-01 -5.034342288970947266e+00 -2.489405684173107147e-02 -6.751348972320556641e-01 -2.100086957216262817e-01 -1.538150310516357422e-01
9.310000000000000000e+02 1.912318992614746094e+01 2.445626497268676758e+00 2.980733513832092285e-01 9.996742010116577148e-01 3.893242478370666504e-01 -2.760292530059814453e+00
9.320000000000000000e+02 1.820458602905273438e+01 7.816195011138916016e+00 4.886701583862304688e+00 4.943999290466308594e+00 2.949210166931152344e+00 -4.990913867950439453e+00
9.330000000000000000e+02 1.554627513885498047e+01 2.699713468551635742e+00 -1.467920422554016113e+00 6.988816857337951660e-01 -2.307116389274597168e-01 -4.948878586292266846e-01
9.340000000000000000e+02 1.767057800292968750e+01 2.744845867156982422e+00 -5.833482146263122559e-01 9.488248825073242188e-01 1.096429899334907532e-01 -1.785727620124816895e+00
9.350000000000000000e+02 1.354731845855712891e+01 3.468609333038330078e+00 -9.172551035881042480e-01 7.017940878868103027e-01 -6.463830173015594482e-02 1.442898064851760864e-01
9.360000000000000000e+02 1.481287670135498047e+01 1.941764354705810547e+00 -2.714318752288818359e+00 3.853439390659332275e-01 -6.986924409866333008e-01 -7.185352593660354614e-02
9.370000000000000000e+02 1.408731365203857422e+01 1.921776890754699707e+00 -2.745417118072509766e+00 2.931185960769653320e-01 -7.356895208358764648e-01 1.314427554607391357e-01
9.380000000000000000e+02 1.483402156829833984e+01 2.651309967041015625e+00 -1.669338226318359375e+00 5.904347300529479980e-01 -3.236710429191589355e-01 -1.864820867776870728e-01
9.390000000000000000e+02 1.124657249450683594e+01 3.396237850189208984e+00 -1.126393318176269531e+00 3.375868201255798340e-01 -2.366419434547424316e-01 7.475079298019409180e-01
9.400000000000000000e+02 8.770064353942871094e+00 1.895596265792846680e+00 -1.887384891510009766e+00 2.531402371823787689e-02 -5.586212873458862305e-01 7.763896584510803223e-01
9.410000000000000000e+02 1.188178730010986328e+01 1.895090818405151367e+00 -2.589983701705932617e+00 1.713027656078338623e-01 -7.256042361259460449e-01 5.298501253128051758e-01
9.420000000000000000e+02 1.194086933135986328e+01 2.657959938049316406e+00 -1.808874487876892090e+00 2.801088094711303711e-01 -4.586296975612640381e-01 6.005514860153198242e-01
9.430000000000000000e+02 1.269316291809082031e+01 2.671629190444946289e+00 -1.814598441123962402e+00 3.753174245357513428e-01 -4.317843019962310791e-01 4.488349854946136475e-01
9.440000000000000000e+02 1.135667419433593750e+01 -2.544367074966430664e+00 -1.033678054809570312e+00 2.047569453716278076e-01 -2.486763149499893188e-01 -1.220719218254089355e-01
9.450000000000000000e+02 1.061826133728027344e+01 -2.561568260192871094e+00 -1.020911097526550293e+00 1.829540282487869263e-01 -2.513871192932128906e-01 -2.363406270742416382e-01
9.460000000000000000e+02 1.210008049011230469e+01 -2.518633604049682617e+00 -1.018327474594116211e+00 2.349677085876464844e-01 -2.350079119205474854e-01 1.510579371824860573e-03
9.470000000000000000e+02 9.167745590209960938e+00 -2.577934503555297852e+00 -9.393125176429748535e-01 1.251263916492462158e-01 -2.442558407783508301e-01 -4.041977822780609131e-01
9.480000000000000000e+02 9.889252662658691406e+00 -2.572964906692504883e+00 -9.906519651412963867e-01 1.503525078296661377e-01 -2.520898580551147461e-01 -3.249824345111846924e-01
9.490000000000000000e+02 1.581805610656738281e+01 -2.241132974624633789e+00 -4.616694748401641846e-01 3.619926571846008301e-01 -2.990304492413997650e-02 8.175318837165832520e-01
9.500000000000000000e+02 1.284710311889648438e+01 -2.482575654983520508e+00 -9.815211296081542969e-01 2.560693323612213135e-01 -2.176355421543121338e-01 1.468401849269866943e-01
9.510000000000000000e+02 1.434657001495361328e+01 -2.375115633010864258e+00 -8.020142912864685059e-01 3.045234978199005127e-01 -1.492472290992736816e-01 4.681024849414825439e-01
9.520000000000000000e+02 1.659920310974121094e+01 -2.732764482498168945e+00 -8.323923498392105103e-02 5.877587795257568359e-01 1.513558626174926758e-01 1.215113878250122070e+00
9.530000000000000000e+02 2.210235023498535156e+01 3.560756206512451172e+00 -1.423833727836608887e+00 7.167682170867919922e+00 1.723154425621032715e+00 -2.867433547973632812e+00
9.540000000000000000e+02 2.373842430114746094e+01 1.426294207572937012e+00 6.972522258758544922e+00 1.550505161285400391e+00 2.556908130645751953e+00 -3.983547389507293701e-01
9.550000000000000000e+02 2.398607254028320312e+01 1.438188552856445312e-01 6.912122726440429688e+00 1.651387691497802734e+00 2.569053173065185547e+00 -3.480719804763793945e+00
9.560000000000000000e+02 2.276363372802734375e+01 -6.368297338485717773e-01 2.461994886398315430e+00 8.141798019409179688e+00 3.181137800216674805e+00 -1.655502080917358398e+00
9.570000000000000000e+02 2.316389846801757812e+01 3.488633155822753906e+00 -2.012278795242309570e+00 2.838617861270904541e-01 -5.185250639915466309e-01 8.518562316894531250e-01
9.580000000000000000e+02 2.445841407775878906e+01 9.862402081489562988e-01 5.792994022369384766e+00 -3.018280744552612305e+00 8.324140310287475586e-01 -9.992436766624450684e-01
9.590000000000000000e+02 2.319258117675781250e+01 -1.195607185363769531e+00 2.806199550628662109e+00 5.650889873504638672e+00 2.537126779556274414e+00 -1.752417206764221191e+00
9.600000000000000000e+02 6.276771068572998047e+00 1.931605100631713867e+00 -1.173107624053955078e+00 -4.830211773514747620e-02 -3.664229214191436768e-01 7.665128707885742188e-01
9.610000000000000000e+02 1.735842108726501465e+00 7.632747173309326172e+00 5.418636277318000793e-02 -1.492457628250122070e+00 -4.314813613891601562e-01 5.228167176246643066e-01
9.620000000000000000e+02 3.112349510192871094e+00 4.283655166625976562e+00 -1.632815152406692505e-01 -5.283749103546142578e-01 -2.074969261884689331e-01 8.147662878036499023e-01
9.630000000000000000e+02 5.809895515441894531e+00 4.610597610473632812e+00 -2.539950907230377197e-01 -2.303786128759384155e-01 -1.453121155500411987e-01 1.131468057632446289e+00
9.640000000000000000e+02 2.921794176101684570e+00 2.059016466140747070e+00 -3.543598055839538574e-01 -1.868954002857208252e-01 -1.623765677213668823e-01 4.727438688278198242e-01
9.650000000000000000e+02 1.262474656105041504e+00 3.452185869216918945e+00 -5.672827735543251038e-02 -5.116590261459350586e-01 -1.705161780118942261e-01 3.497974276542663574e-01
9.660000000000000000e+02 8.827801704406738281e+00 2.690893411636352539e+00 -1.396667957305908203e+00 5.525650829076766968e-02 -4.024234414100646973e-01 9.394447207450866699e-01
9.670000000000000000e+02 7.282308578491210938e+00 3.569733142852783203e+00 -7.220847010612487793e-01 -3.185085952281951904e-02 -2.261806577444076538e-01 1.109745860099792480e+00
9.680000000000000000e+02 5.512597560882568359e+00 2.854423761367797852e+00 -7.209247350692749023e-01 -1.390120983123779297e-01 -2.579810619354248047e-01 9.272560477256774902e-01
9.690000000000000000e+02 6.352312088012695312e+00 2.790861606597900391e+00 -8.912474513053894043e-01 -8.400696516036987305e-02 -2.925763428211212158e-01 9.729363322257995605e-01
9.700000000000000000e+02 1.041720294952392578e+01 2.660337448120117188e+00 -1.659969210624694824e+00 1.517254114151000977e-01 -4.524731636047363281e-01 8.122722506523132324e-01
9.710000000000000000e+02 9.633863449096679688e+00 2.673008918762207031e+00 -1.536048173904418945e+00 1.078662052750587463e-01 -4.284545779228210449e-01 8.987827897071838379e-01
9.720000000000000000e+02 5.562829971313476562e+01 2.385878181457519531e+01 -8.842903375625610352e-01 3.897683024406433105e-01 -1.483566164970397949e-01 -8.315559476613998413e-02
9.730000000000000000e+02 4.546577835083007812e+01 -1.879195022583007812e+01 1.577993750572204590e+00 1.118705844879150391e+01 3.829515695571899414e+00 2.065879821777343750e+00
9.740000000000000000e+02 6.534574127197265625e+01 -1.232557582855224609e+01 -2.736737489700317383e+00 8.960964679718017578e-01 -5.521923303604125977e-01 -1.166668534278869629e+00
9.750000000000000000e+02 6.206917953491210938e+01 -1.275891685485839844e+01 -3.734252691268920898e+00 -5.176984667778015137e-01 -1.275585293769836426e+00 -1.460111856460571289e+00
9.760000000000000000e+02 2.881954956054687500e+01 2.372988319396972656e+01 -5.277996063232421875e-01 2.774652481079101562e+00 6.740558743476867676e-01 -1.338417410850524902e+00
9.770000000000000000e+02 2.964931297302246094e+01 -1.160634636878967285e+00 6.493486404418945312e+00 1.941411852836608887e+00 2.530469417572021484e+00 1.016149163246154785e+00
9.780000000000000000e+02 3.055754089355468750e+01 -5.075260162353515625e+00 7.643372416496276855e-01 2.725246667861938477e+00 1.046875119209289551e+00 -9.351623058319091797e-01
9.790000000000000000e+02 3.136454391479492188e+01 2.177578735351562500e+01 -2.352811098098754883e-01 4.911893844604492188e+00 1.402983784675598145e+00 -1.135527729988098145e+00
9.800000000000000000e+02 1.635372352600097656e+01 9.851508140563964844e+00 3.800134658813476562e+00 6.853426933288574219e+00 3.196068525314331055e+00 -4.888650894165039062e+00
9.810000000000000000e+02 1.474466705322265625e+01 1.271302032470703125e+01 1.593388676643371582e+00 8.542667388916015625e+00 3.040816783905029297e+00 -2.870036125183105469e+00
9.820000000000000000e+02 2.580480194091796875e+01 3.899645507335662842e-01 4.839677333831787109e+00 -5.632194876670837402e-01 1.282937407493591309e+00 -6.148924827575683594e-01
9.830000000000000000e+02 2.610196876525878906e+01 -6.078650951385498047e+00 -1.985865235328674316e-01 5.366887450218200684e-01 1.014306619763374329e-01 8.562581539154052734e-01
9.840000000000000000e+02 2.294589042663574219e+01 2.248492622375488281e+01 -2.191196680068969727e+00 -3.643579408526420593e-02 -6.682897210121154785e-01 1.115345954895019531e-01
9.850000000000000000e+02 3.210105514526367188e+01 -2.916198921203613281e+01 -1.698596328496932983e-01 2.602577924728393555e+00 7.298155426979064941e-01 1.276018977165222168e+00
9.860000000000000000e+02 3.011860084533691406e+01 -2.883323860168457031e+01 -3.944450020790100098e-01 6.568695902824401855e-01 7.872738689184188843e-02 4.617201387882232666e-01
9.870000000000000000e+02 1.721858406066894531e+01 2.174577522277832031e+01 -1.051103949546813965e+00 2.978570461273193359e-01 -2.259740531444549561e-01 9.949600696563720703e-02
9.880000000000000000e+02 5.159807205200195312e+01 -1.485219192504882812e+01 2.706987261772155762e-01 2.941372990608215332e-01 1.694508045911788940e-01 5.368933677673339844e-01
9.890000000000000000e+02 1.534577083587646484e+01 2.269130706787109375e+01 -1.053193688392639160e+00 2.467588663101196289e+00 4.243184924125671387e-01 6.757426857948303223e-01
9.900000000000000000e+02 3.378805160522460938e+01 3.682230472564697266e+00 1.994406580924987793e+00 1.767378616333007812e+01 5.900457859039306641e+00 2.535716772079467773e+00
9.910000000000000000e+02 3.340666580200195312e+01 2.332938671112060547e+00 3.611217975616455078e+00 1.550907230377197266e+01 5.736087322235107422e+00 5.452608585357666016e+00
9.920000000000000000e+02 2.956566238403320312e+01 -5.372631549835205078e+00 9.675198793411254883e-01 1.505073308944702148e+00 7.417779564857482910e-01 -4.083619117736816406e-01
9.930000000000000000e+02 3.330130386352539062e+01 1.506159210205078125e+01 7.043375968933105469e-01 8.153955459594726562e+00 2.657487869262695312e+00 -1.826478362083435059e+00
9.940000000000000000e+02 3.246030044555664062e+01 1.772790908813476562e+01 9.396874308586120605e-01 6.627553939819335938e+00 2.270172357559204102e+00 -1.782716870307922363e+00
9.950000000000000000e+02 2.019091796875000000e+01 2.555773353576660156e+01 -6.720306873321533203e-01 3.235985934734344482e-01 -1.045296266674995422e-01 1.433407068252563477e-01
9.960000000000000000e+02 3.748328018188476562e+01 9.906599998474121094e+00 1.696609139442443848e+00 1.206096267700195312e+01 4.127271652221679688e+00 1.121041059494018555e+00
9.970000000000000000e+02 1.322638130187988281e+01 2.092790031433105469e+01 -3.520537912845611572e-01 3.830325603485107422e+00 1.043481469154357910e+00 -5.538420081138610840e-01
9.980000000000000000e+02 1.218129730224609375e+01 1.972537422180175781e+01 3.450216948986053467e-01 3.738873481750488281e+00 1.225168585777282715e+00 -8.619112968444824219e-01
9.990000000000000000e+02 1.437262248992919922e+01 -1.272908210754394531e+01 1.891513824462890625e+00 4.733416557312011719e+00 1.987479090690612793e+00 1.448354482650756836e+00
1.000000000000000000e+03 2.013595962524414062e+01 2.391636848449707031e+01 -1.262950897216796875e+00 2.125446125864982605e-02 -3.725089430809020996e-01 1.222072392702102661e-01
1.001000000000000000e+03 2.175419616699218750e+01 2.399943161010742188e+01 -1.221178412437438965e+00 -5.734343454241752625e-02 -3.835565447807312012e-01 -1.071451753377914429e-01
1.002000000000000000e+03 3.483892059326171875e+01 7.947369575500488281e+00 9.126819372177124023e-01 1.232764148712158203e+01 3.972097158432006836e+00 6.305810064077377319e-02
1.003000000000000000e+03 3.924539184570312500e+01 7.429330348968505859e+00 1.214008688926696777e+00 1.757306480407714844e+01 5.636122226715087891e+00 2.612147569656372070e+00
1.004000000000000000e+03 4.583391571044921875e+01 -1.542757415771484375e+01 1.446856379508972168e+00 5.910759449005126953e+00 2.207284688949584961e+00 1.316138982772827148e+00
1.005000000000000000e+03 2.710652160644531250e+01 2.276210212707519531e+01 -2.136618196964263916e-01 1.266313552856445312e+00 3.157955408096313477e-01 -1.176577448844909668e+00
1.006000000000000000e+03 2.829191589355468750e+01 2.263240623474121094e+01 -4.715389609336853027e-01 2.499007940292358398e+00 6.082406640052795410e-01 -1.462661743164062500e+00
1.007000000000000000e+03 3.170113372802734375e+01 2.039085197448730469e+01 2.632838487625122070e-01 5.359250068664550781e+00 1.686760187149047852e+00 -1.126317501068115234e+00
1.008000000000000000e+03 2.135769271850585938e+01 5.110706329345703125e+00 2.277736425399780273e+00 3.682808160781860352e+00 1.788163423538208008e+00 -3.289154052734375000e+00
1.009000000000000000e+03 2.033018875122070312e+01 6.016349315643310547e+00 4.558192253112792969e+00 4.227584838867187500e+00 2.635733127593994141e+00 -4.662157535552978516e+00
1.010000000000000000e+03 2.595877838134765625e+01 2.292794799804687500e+01 -6.304424405097961426e-01 3.814154863357543945e-01 -7.470808178186416626e-02 -5.687122941017150879e-01
1.011000000000000000e+03 3.286437225341796875e+01 1.640155410766601562e+01 8.727712035179138184e-01 7.370932102203369141e+00 2.473110914230346680e+00 -1.956276297569274902e+00
1.012000000000000000e+03 1.472902679443359375e+01 9.863299369812011719e+00 2.885715007781982422e+00 5.177590847015380859e+00 2.418991804122924805e+00 -2.469038009643554688e+00
1.013000000000000000e+03 1.547146511077880859e+01 8.998756408691406250e+00 3.424047470092773438e+00 5.272500991821289062e+00 2.608964443206787109e+00 -3.039655923843383789e+00
1.014000000000000000e+03 1.728710937500000000e+01 7.131231307983398438e+00 3.655024290084838867e+00 4.320905685424804688e+00 2.392779111862182617e+00 -3.583810329437255859e+00
1.015000000000000000e+03 1.552656078338623047e+01 3.428560018539428711e+00 -6.222518682479858398e-01 1.043151497840881348e+00 1.262698769569396973e-01 -6.710177659988403320e-01
1.016000000000000000e+03 3.317342758178710938e+01 1.070686721801757812e+01 4.108285307884216309e-01 9.722432136535644531e+00 3.039978265762329102e+00 -1.738160252571105957e+00
1.017000000000000000e+03 1.278222179412841797e+01 1.840119552612304688e+01 7.688744664192199707e-01 4.748505592346191406e+00 1.655213952064514160e+00 -3.596858680248260498e-01
1.018000000000000000e+03 4.340576171875000000e+01 -2.522098541259765625e+01 2.194038152694702148e+00 9.628495216369628906e+00 3.546759843826293945e+00 -1.629899859428405762e+00
1.019000000000000000e+03 6.914781951904296875e+01 -1.730978584289550781e+01 1.535281777381896973e+00 1.815753555297851562e+01 5.907845020294189453e+00 -1.554047226905822754e+00
1.020000000000000000e+03 2.715043258666992188e+01 -7.684693336486816406e+00 -3.056364536285400391e+00 -2.582624554634094238e-01 -9.943881034851074219e-01 -1.776345223188400269e-01
1.021000000000000000e+03 6.839205932617187500e+01 -2.139231109619140625e+01 1.680729150772094727e+00 1.473005771636962891e+01 4.923235893249511719e+00 3.522018432617187500e+00
1.022000000000000000e+03 6.782152557373046875e+01 -2.272205352783203125e+01 2.253388881683349609e+00 1.017567729949951172e+01 3.728719711303710938e+00 3.859468460083007812e+00
1.023000000000000000e+03 3.550815582275390625e+01 -2.186414527893066406e+01 7.131508588790893555e-01 1.134093761444091797e+01 3.616226673126220703e+00 1.477398753166198730e+00
1.024000000000000000e+03 6.605971527099609375e+01 -1.130554580688476562e+01 -1.799813151359558105e+00 3.958725214004516602e+00 6.476735472679138184e-01 -2.997737884521484375e+00
1.025000000000000000e+03 7.022432708740234375e+01 -2.550707626342773438e+01 -7.275888323783874512e-01 9.117931365966796875e+00 2.517102718353271484e+00 -5.298078432679176331e-02
1.026000000000000000e+03 7.138856506347656250e+01 -1.680004501342773438e+01 2.006862163543701172e+00 1.139688205718994141e+01 4.021123409271240234e+00 9.993106126785278320e-02
1.027000000000000000e+03 6.789234161376953125e+01 -1.112547588348388672e+01 -1.848800659179687500e+00 7.758778095245361328e+00 1.772993326187133789e+00 -2.528713226318359375e+00
1.028000000000000000e+03 6.824072265625000000e+01 -1.304647254943847656e+01 -3.421767950057983398e-01 1.000417232513427734e+01 2.898598670959472656e+00 -2.336992979049682617e+00
1.029000000000000000e+03 5.768936157226562500e+01 -3.033543777465820312e+01 -2.981124639511108398e+00 -2.336996048688888550e-01 -9.644472599029541016e-01 -6.480981111526489258e-01
1.030000000000000000e+03 2.325979804992675781e+01 -3.039071464538574219e+01 -1.798112750053405762e+00 -1.746066808700561523e-01 -5.918158292770385742e-01 1.518153846263885498e-01
1.031000000000000000e+03 2.599662208557128906e+01 -2.986062622070312500e+01 -2.339234113693237305e+00 -5.382795631885528564e-02 -7.179186344146728516e-01 9.012171626091003418e-02
1.032000000000000000e+03 4.856043243408203125e+01 -3.101019668579101562e+01 2.045833766460418701e-01 4.448756694793701172e+00 1.396001935005187988e+00 -2.497002601623535156e+00
1.033000000000000000e+03 6.367747497558593750e+01 -2.900981330871582031e+01 -1.155733704566955566e+00 1.645970106124877930e+00 1.470709145069122314e-01 4.432951211929321289e-01
1.034000000000000000e+03 5.149403762817382812e+01 -3.410819625854492188e+01 -2.957136631011962891e-01 2.059497833251953125e+00 5.291352868080139160e-01 -1.771816015243530273e+00
1.035000000000000000e+03 6.479831695556640625e+01 -2.803488159179687500e+01 -8.293952345848083496e-01 2.357925176620483398e+00 4.585589766502380371e-01 7.396647930145263672e-01
1.036000000000000000e+03 5.337523269653320312e+01 -3.066207504272460938e+01 -1.716769695281982422e+00 1.109246537089347839e-01 -4.817534983158111572e-01 -3.747441470623016357e-01
1.037000000000000000e+03 4.952935028076171875e+01 -1.393967628479003906e+01 1.370672821998596191e+00 1.197043776512145996e+00 7.703149914741516113e-01 1.679394602775573730e+00
1.038000000000000000e+03 5.329543685913085938e+01 -6.316361427307128906e+00 8.128923773765563965e-01 2.197772026062011719e+00 9.031993746757507324e-01 1.958647251129150391e+00
1.039000000000000000e+03 6.090158843994140625e+01 -1.339253139495849609e+01 -2.821716547012329102e+00 -2.807760834693908691e-01 -9.307478070259094238e-01 -1.009286642074584961e+00
1.040000000000000000e+03 1.491152763366699219e+01 -1.509601020812988281e+01 1.778246521949768066e+00 8.193251609802246094e+00 2.991449594497680664e+00 3.245645523071289062e+00
1.041000000000000000e+03 1.682382392883300781e+01 -1.246944999694824219e+01 3.964340448379516602e+00 3.863481760025024414e+00 2.348346710205078125e+00 3.311985492706298828e+00
1.042000000000000000e+03 5.765256881713867188e+01 -1.180164527893066406e+01 -1.497633099555969238e+00 6.342189908027648926e-01 -2.590242326259613037e-01 4.613638222217559814e-01
1.043000000000000000e+03 2.541533470153808594e+01 -7.927095890045166016e+00 -1.695725321769714355e+00 9.239441752433776855e-01 -2.315343618392944336e-01 6.128568649291992188e-01
1.044000000000000000e+03 2.294177436828613281e+01 -9.802043914794921875e+00 -7.268039584159851074e-01 5.081897377967834473e-01 -6.558425724506378174e-02 4.206855297088623047e-01
1.045000000000000000e+03 1.994134902954101562e+01 -2.974368858337402344e+01 -1.116501688957214355e+00 5.597053170204162598e-01 -1.670389026403427124e-01 -1.290574073791503906e-01
1.046000000000000000e+03 5.509813308715820312e+01 -3.235500717163085938e+01 -1.031839489936828613e+00 7.088982965797185898e-04 -3.093391656875610352e-01 -7.137914896011352539e-01
1.047000000000000000e+03 6.126691055297851562e+01 -1.170646953582763672e+01 -2.883736371994018555e+00 3.589920997619628906e-01 -7.574232816696166992e-01 -1.176375374197959900e-01
1.048000000000000000e+03 5.659923934936523438e+01 -3.203452682495117188e+01 -1.332656145095825195e+00 -2.338477522134780884e-01 -4.699511826038360596e-01 -4.927954375743865967e-01
1.049000000000000000e+03 3.646993255615234375e+01 -1.044182777404785156e+01 -1.854664981365203857e-01 9.897699356079101562e+00 2.913669824600219727e+00 -1.653385519981384277e+00
1.050000000000000000e+03 3.450566864013671875e+01 -1.012489891052246094e+01 -6.632859259843826294e-02 9.307472229003906250e+00 2.772343158721923828e+00 -2.357304811477661133e+00
1.051000000000000000e+03 5.050476455688476562e+01 -6.706339836120605469e+00 -7.636344432830810547e-02 9.547495245933532715e-01 2.635158300399780273e-01 2.617860078811645508e+00
1.052000000000000000e+03 1.830598258972167969e+01 -1.016436576843261719e+01 1.241014003753662109e+00 2.199947595596313477e+00 1.032288432121276855e+00 2.342226982116699219e+00
1.053000000000000000e+03 1.639122009277343750e+01 -1.117998600006103516e+01 1.494153261184692383e+00 3.695558547973632812e+00 1.556913495063781738e+00 1.917051076889038086e+00
1.054000000000000000e+03 4.315680313110351562e+01 -2.336022949218750000e+01 2.048972606658935547e+00 1.016746425628662109e+01 3.664931058883666992e+00 -1.547364592552185059e+00
1.055000000000000000e+03 6.221364212036132812e+01 -1.103482341766357422e+01 -1.847239494323730469e+00 1.928857117891311646e-01 -4.963061511516571045e-01 -6.024761497974395752e-02
1.056000000000000000e+03 5.964386749267578125e+01 -1.134576606750488281e+01 -1.984384298324584961e+00 6.678369641304016113e-01 -3.949641883373260498e-01 2.532045245170593262e-01
1.057000000000000000e+03 7.189240264892578125e+01 -1.883138465881347656e+01 1.940588593482971191e+00 1.108071136474609375e+01 3.906389951705932617e+00 -3.040262162685394287e-01
1.058000000000000000e+03 5.561432266235351562e+01 -1.338620090484619141e+01 -1.310323357582092285e+00 2.911642491817474365e-01 -3.057477474212646484e-01 4.791976213455200195e-01
1.059000000000000000e+03 5.684307098388671875e+01 -1.326419544219970703e+01 -1.673995375633239746e+00 2.613534331321716309e-01 -4.237926006317138672e-01 2.061606943607330322e-01
1.060000000000000000e+03 6.672317504882812500e+01 -2.806870651245117188e+01 -9.043326377868652344e-01 4.779150009155273438e+00 1.162445187568664551e+00 1.072417020797729492e+00
1.061000000000000000e+03 5.304319763183593750e+01 -1.349341964721679688e+01 -3.316312432289123535e-01 3.865324854850769043e-01 1.647037640213966370e-02 9.599659442901611328e-01
1.062000000000000000e+03 4.901756286621093750e+01 -7.592313766479492188e+00 -5.908725038170814514e-02 5.127509236335754395e-01 1.360991001129150391e-01 2.273357152938842773e+00
1.063000000000000000e+03 5.958577346801757812e+01 -3.181995582580566406e+01 -1.233486533164978027e+00 5.174056068062782288e-02 -3.545237779617309570e-01 -9.712479263544082642e-02
1.064000000000000000e+03 5.338356781005859375e+01 -3.236589050292968750e+01 -6.646407842636108398e-01 5.144777297973632812e-01 -4.504892602562904358e-02 -1.109727025032043457e+00
1.065000000000000000e+03 4.426280975341796875e+01 -2.000550460815429688e+01 1.367410182952880859e+00 1.072752094268798828e+01 3.628479242324829102e+00 4.636374115943908691e-01
1.066000000000000000e+03 4.415317916870117188e+01 -2.116331863403320312e+01 8.989677429199218750e-01 1.202850627899169922e+01 3.878242254257202148e+00 -8.121674656867980957e-01
1.067000000000000000e+03 6.499843597412109375e+01 -2.598360252380371094e+01 2.528790235519409180e-01 1.684186697006225586e+00 5.811197161674499512e-01 9.403148293495178223e-01
1.068000000000000000e+03 3.423372268676757812e+01 -2.742546272277832031e+01 3.517986536026000977e-01 4.993387222290039062e+00 1.603555798530578613e+00 1.791045784950256348e+00
1.069000000000000000e+03 6.586289215087890625e+01 -2.700987243652343750e+01 -4.120963215827941895e-01 3.567790269851684570e+00 9.467082023620605469e-01 1.090832114219665527e+00
1.070000000000000000e+03 4.380188369750976562e+01 -2.225224876403808594e+01 1.604135751724243164e+00 1.095362091064453125e+01 3.767326831817626953e+00 -1.779815316200256348e+00
1.071000000000000000e+03 2.583060455322265625e+01 -7.060810565948486328e+00 -1.007816076278686523e+00 6.828600764274597168e-01 -9.748678654432296753e-02 7.937895059585571289e-01
1.072000000000000000e+03 2.365594100952148438e+01 -3.186935997009277344e+01 -1.066498160362243652e+00 5.575789138674736023e-03 -3.182767331600189209e-01 -4.690713435411453247e-02
1.073000000000000000e+03 2.065008163452148438e+01 -1.037225818634033203e+01 5.806832313537597656e-01 6.830043792724609375e-01 3.791062831878662109e-01 1.211328148841857910e+00
1.074000000000000000e+03 3.525598907470703125e+01 -1.485065364837646484e+01 1.220709085464477539e+00 1.442773437500000000e+01 4.694532871246337891e+00 -3.081804275512695312e+00
1.075000000000000000e+03 3.786025238037109375e+01 -1.424972534179687500e+01 1.759845733642578125e+00 1.012333202362060547e+01 3.564953327178955078e+00 -2.067334175109863281e+00
1.076000000000000000e+03 3.360955810546875000e+01 -8.865086555480957031e+00 -1.326709270477294922e+00 7.612016677856445312e+00 1.885592222213745117e+00 -2.283015012741088867e+00
1.077000000000000000e+03 3.543932723999023438e+01 -1.142393207550048828e+01 1.085912942886352539e+00 1.049254322052001953e+01 3.473536968231201172e+00 -2.398695945739746094e+00
1.078000000000000000e+03 3.557636642456054688e+01 -1.767897415161132812e+01 4.047434628009796143e-01 1.310682392120361328e+01 4.053470134735107422e+00 -1.157282948493957520e+00
1.079000000000000000e+03 3.673079299926757812e+01 -1.601836967468261719e+01 1.460809111595153809e+00 1.192940902709960938e+01 4.017065525054931641e+00 -2.254776477813720703e+00
1.080000000000000000e+03 3.200666046142578125e+01 -7.361186027526855469e+00 -1.864420890808105469e+00 4.664003372192382812e+00 8.398748040199279785e-01 -2.065286636352539062e+00
1.081000000000000000e+03 5.859628295898437500e+01 2.180832099914550781e+01 -2.282232284545898438e+00 4.782234728336334229e-01 -5.412026643753051758e-01 -7.109606862068176270e-01
1.082000000000000000e+03 3.320353698730468750e+01 -2.827496719360351562e+01 2.782523632049560547e-01 3.528255462646484375e+00 1.141952276229858398e+00 1.545802354812622070e+00
1.083000000000000000e+03 1.811603355407714844e+01 -2.563403701782226562e+01 2.092278329655528069e-03 6.557538509368896484e-01 1.973538398742675781e-01 -3.002854287624359131e-01
1.084000000000000000e+03 1.715344619750976562e+01 -2.457514953613281250e+01 2.576592266559600830e-01 1.106198668479919434e+00 4.091573655605316162e-01 -5.875212550163269043e-01
1.085000000000000000e+03 3.678865051269531250e+01 -1.889416694641113281e+01 9.289199113845825195e-01 1.161623096466064453e+01 3.763545274734497070e+00 -8.917775750160217285e-01
1.086000000000000000e+03 1.516540241241455078e+01 -2.433183479309082031e+01 -1.380827724933624268e-01 2.518734216690063477e+00 7.141954302787780762e-01 -5.751332640647888184e-01
1.087000000000000000e+03 7.728439331054687500e+01 -3.810046768188476562e+01 -1.536190658807754517e-01 9.695870399475097656e+00 2.862675428390502930e+00 1.105520352721214294e-01
1.088000000000000000e+03 7.927281188964843750e+01 -3.464241790771484375e+01 -4.259849339723587036e-02 1.050986289978027344e+01 3.140179157257080078e+00 -4.010494053363800049e-02
1.089000000000000000e+03 7.936940002441406250e+01 -2.772198104858398438e+01 -3.960448503494262695e-02 9.085397720336914062e+00 2.713737964630126953e+00 -2.612322270870208740e-01
1.090000000000000000e+03 7.745017242431640625e+01 3.335129165649414062e+01 -2.835643477737903595e-02 7.752089500427246094e+00 2.317119836807250977e+00 8.020240068435668945e-02
1.091000000000000000e+03 7.907752227783203125e+01 3.626565170288085938e+01 -3.178596124053001404e-02 8.178111076354980469e+00 2.443897485733032227e+00 9.940803283825516701e-04
1.092000000000000000e+03 7.941957855224609375e+01 -2.077391242980957031e+01 6.475827097892761230e-02 6.042947769165039062e+00 1.832311868667602539e+00 -2.112986147403717041e-01
1.093000000000000000e+03 7.810666656494140625e+01 -2.743536567687988281e+01 -6.717668473720550537e-02 8.862665176391601562e+00 2.638646602630615234e+00 -6.849548816680908203e-01
1.094000000000000000e+03 7.812180328369140625e+01 -2.607226943969726562e+01 -5.921409651637077332e-02 8.483792304992675781e+00 2.527373552322387695e+00 -7.720746397972106934e-01
1.095000000000000000e+03 7.933280181884765625e+01 -3.048656845092773438e+01 -2.732891030609607697e-02 9.948322296142578125e+00 2.976298093795776367e+00 -1.846768856048583984e-01
1.096000000000000000e+03 7.781815338134765625e+01 -3.426975250244140625e+01 -8.890646696090698242e-02 9.833091735839843750e+00 2.923255443572998047e+00 -1.753565520048141479e-01
1.097000000000000000e+03 7.783985900878906250e+01 -3.288553619384765625e+01 -1.139191687107086182e-01 9.717462539672851562e+00 2.881062984466552734e+00 -2.496440112590789795e-01
1.098000000000000000e+03 7.531208038330078125e+01 -3.815951919555664062e+01 -1.388644427061080933e-01 8.802309036254882812e+00 2.599033355712890625e+00 -2.954341471195220947e-01
1.099000000000000000e+03 7.653588104248046875e+01 -3.926300430297851562e+01 -3.505977243185043335e-02 9.708701133728027344e+00 2.902092456817626953e+00 -9.896490722894668579e-03
1.100000000000000000e+03 7.802910614013671875e+01 1.408845138549804688e+01 5.055993795394897461e-02 6.290670871734619141e+00 1.902369260787963867e+00 9.477940201759338379e-02
1.101000000000000000e+03 7.934225463867187500e+01 1.538096523284912109e+01 7.533866446465253830e-03 6.102835655212402344e+00 1.833110928535461426e+00 6.005917116999626160e-02
1.102000000000000000e+03 7.803711700439453125e+01 2.105770111083984375e+01 2.238728106021881104e-03 6.899858951568603516e+00 2.070629358291625977e+00 2.968540191650390625e-01
1.103000000000000000e+03 7.934373474121093750e+01 2.234349060058593750e+01 -6.069152150303125381e-03 7.051326274871826172e+00 2.113577127456665039e+00 1.144154071807861328e-01
1.104000000000000000e+03 7.773114013671875000e+01 3.188723945617675781e+01 -3.747541829943656921e-02 7.766103744506835938e+00 2.318588495254516602e+00 1.006296128034591675e-01
1.105000000000000000e+03 7.805904388427734375e+01 2.806312179565429688e+01 -3.308765217661857605e-02 7.619721412658691406e+00 2.275990009307861328e+00 1.825506538152694702e-01
1.106000000000000000e+03 7.936105346679687500e+01 2.791003417968750000e+01 -1.114128343760967255e-02 7.800827980041503906e+00 2.336905956268310547e+00 7.102668285369873047e-02
1.107000000000000000e+03 7.797304534912109375e+01 2.523797607421875000e+01 -2.843408286571502686e-02 7.367265701293945312e+00 2.201649427413940430e+00 2.598243057727813721e-01
1.108000000000000000e+03 7.803715515136718750e+01 2.382080841064453125e+01 -1.658286899328231812e-02 7.220864295959472656e+00 2.161284446716308594e+00 2.817864716053009033e-01
1.109000000000000000e+03 7.805061340332031250e+01 1.829036903381347656e+01 2.977369166910648346e-02 6.586336135864257812e+00 1.984832882881164551e+00 2.496000677347183228e-01
1.110000000000000000e+03 7.803223419189453125e+01 1.548656463623046875e+01 5.007696524262428284e-02 6.356438159942626953e+00 1.921954631805419922e+00 1.483133882284164429e-01
1.111000000000000000e+03 7.804107666015625000e+01 1.688942337036132812e+01 4.176853224635124207e-02 6.454935073852539062e+00 1.949011087417602539e+00 2.116156667470932007e-01
1.112000000000000000e+03 7.803319549560546875e+01 1.269569969177246094e+01 6.259144842624664307e-02 6.258533000946044922e+00 1.896337389945983887e+00 1.804918237030506134e-02
1.113000000000000000e+03 7.676036071777343750e+01 1.139496517181396484e+01 1.417854279279708862e-01 6.464019298553466797e+00 1.981741428375244141e+00 -6.747156381607055664e-02
1.114000000000000000e+03 7.804673004150390625e+01 8.508739471435546875e+00 3.752036765217781067e-02 6.403645038604736328e+00 1.932349562644958496e+00 -1.746704727411270142e-01
1.115000000000000000e+03 7.934489440917968750e+01 9.804891586303710938e+00 -2.734275949478615075e-05 6.070036888122558594e+00 1.821002840995788574e+00 -3.988357260823249817e-02
1.116000000000000000e+03 7.943746185302734375e+01 -1.939633941650390625e+01 6.782582029700279236e-03 5.648060321807861328e+00 1.696452856063842773e+00 -1.114043295383453369e-01
1.117000000000000000e+03 7.935944366455078125e+01 -6.892398357391357422e+00 -4.841202870011329651e-02 8.186361312866210938e+00 2.441384792327880859e+00 4.600029811263084412e-02
1.118000000000000000e+03 7.936582183837890625e+01 -1.390480422973632812e+01 -6.412718445062637329e-03 6.343739509582519531e+00 1.901198148727416992e+00 2.429842203855514526e-01
1.119000000000000000e+03 7.803208923339843750e+01 1.617282778024673462e-01 -3.431428223848342896e-02 7.432832241058349609e+00 2.219555377960205078e+00 -3.295408189296722412e-01
1.120000000000000000e+03 7.934436798095703125e+01 1.448364734649658203e+00 -1.855615153908729553e-02 7.308088302612304688e+00 2.186859607696533203e+00 -1.219234541058540344e-01
1.121000000000000000e+03 7.675573730468750000e+01 7.214440822601318359e+00 9.032114595174789429e-02 6.645757198333740234e+00 2.020823478698730469e+00 -3.294953107833862305e-01
1.122000000000000000e+03 7.819489288330078125e+01 2.922967147827148438e+01 -1.648240536451339722e-02 7.736943244934082031e+00 2.316138267517089844e+00 1.385869979858398438e-01
1.123000000000000000e+03 7.913654327392578125e+01 3.759865951538085938e+01 6.148915737867355347e-03 8.159587860107421875e+00 2.449721097946166992e+00 -2.008245512843132019e-02
1.124000000000000000e+03 7.493551635742187500e+01 3.655397415161132812e+01 -6.512533128261566162e-02 7.297520637512207031e+00 2.169718742370605469e+00 3.169307857751846313e-02
1.125000000000000000e+03 7.804418182373046875e+01 9.902951240539550781e+00 6.242911517620086670e-02 6.315357685089111328e+00 1.913336038589477539e+00 -1.183153316378593445e-01
1.126000000000000000e+03 7.674071502685546875e+01 2.601464092731475830e-01 -2.512808144092559814e-02 7.322812557220458984e+00 2.189305305480957031e+00 -5.030035376548767090e-01
1.127000000000000000e+03 7.803966522216796875e+01 2.941114902496337891e+00 -1.379065914079546928e-03 7.033790588378906250e+00 2.109723329544067383e+00 -3.328909575939178467e-01
1.128000000000000000e+03 7.802603912353515625e+01 -1.233685731887817383e+00 -1.974753104150295258e-02 7.619975090026855469e+00 2.280068159103393555e+00 -3.027506172657012939e-01
1.129000000000000000e+03 7.934431457519531250e+01 -2.729879617691040039e+00 1.051044184714555740e-02 8.011402130126953125e+00 2.406573772430419922e+00 -8.588329702615737915e-02
1.130000000000000000e+03 7.808044433593750000e+01 -8.128701210021972656e+00 -1.436377316713333130e-01 7.977116107940673828e+00 2.350043535232543945e+00 2.291261255741119385e-01
1.131000000000000000e+03 7.807340240478515625e+01 -5.373853683471679688e+00 -1.190288662910461426e-01 8.009958267211914062e+00 2.367278814315795898e+00 -4.702228307723999023e-02
1.132000000000000000e+03 7.934334564208984375e+01 -9.682047843933105469e+00 -4.188059270381927490e-02 7.725286960601806641e+00 2.305022001266479492e+00 1.716103255748748779e-01
1.133000000000000000e+03 7.822422027587890625e+01 -1.525625705718994141e+01 1.179407685995101929e-01 6.750681400299072266e+00 2.060586690902709961e+00 4.500990808010101318e-01
1.134000000000000000e+03 7.800979614257812500e+01 -1.244607162475585938e+01 -3.195293992757797241e-02 7.356140136718750000e+00 2.197256088256835938e+00 6.241528987884521484e-01
1.135000000000000000e+03 7.943276214599609375e+01 -1.666180610656738281e+01 1.852434594184160233e-03 5.568150520324707031e+00 1.671000838279724121e+00 9.327960759401321411e-02
1.136000000000000000e+03 7.830876922607421875e+01 -1.916606903076171875e+01 2.139777988195419312e-01 6.565516471862792969e+00 2.033848285675048828e+00 -2.805103063583374023e-01
1.137000000000000000e+03 3.059530448913574219e+01 -3.242609786987304688e+01 -6.897653937339782715e-01 2.008579969406127930e+00 3.956443965435028076e-01 1.219951272010803223e+00
1.138000000000000000e+03 2.394354248046875000e+01 -9.334313392639160156e+00 -1.086918830871582031e+00 5.225657224655151367e-01 -1.693059206008911133e-01 6.086123362183570862e-02
1.139000000000000000e+03 2.478630638122558594e+01 -8.692094802856445312e+00 -1.928473591804504395e+00 6.352389454841613770e-01 -3.879703879356384277e-01 8.399374037981033325e-02
1.140000000000000000e+03 2.183333778381347656e+01 -1.014528560638427734e+01 -1.027039587497711182e-01 5.190420150756835938e-01 1.249014213681221008e-01 6.709510684013366699e-01
1.141000000000000000e+03 2.654828262329101562e+01 -3.149404716491699219e+01 -1.118878602981567383e+00 1.022614538669586182e-01 -3.049851655960083008e-01 4.080070257186889648e-01
1.142000000000000000e+03 2.505938911437988281e+01 -3.158011627197265625e+01 -1.020433068275451660e+00 -7.606519013643264771e-02 -3.289494812488555908e-01 1.099244579672813416e-01
1.143000000000000000e+03 3.692669677734375000e+01 -2.293730163574218750e+01 1.486310958862304688e+00 9.120442390441894531e+00 3.182025909423828125e+00 1.978787481784820557e-01
1.144000000000000000e+03 3.788630294799804688e+01 -2.133455467224121094e+01 1.564756035804748535e+00 9.751277923583984375e+00 3.394809961318969727e+00 -4.936965405941009521e-01
1.145000000000000000e+03 3.519780349731445312e+01 -2.658389091491699219e+01 3.200584352016448975e-01 6.195099830627441406e+00 1.954547524452209473e+00 1.296912789344787598e+00
1.146000000000000000e+03 1.698679542541503906e+01 -2.673383331298828125e+01 -4.398733079433441162e-01 1.287429690361022949e+00 2.542669177055358887e-01 -2.668084800243377686e-01
1.147000000000000000e+03 1.244993972778320312e+01 -1.597371006011962891e+01 1.780568003654479980e+00 4.496478080749511719e+00 1.883113861083984375e+00 1.182791471481323242e+00
1.148000000000000000e+03 5.210612869262695312e+01 -5.747464656829833984e+00 1.394378900527954102e+00 2.020074605941772461e+00 1.024335980415344238e+00 2.106946945190429688e+00
1.149000000000000000e+03 5.442269134521484375e+01 -6.457434177398681641e+00 8.842693567276000977e-01 2.000633239746093750e+00 8.654707670211791992e-01 1.832953095436096191e+00
1.150000000000000000e+03 6.200429153442382812e+01 2.202256393432617188e+01 -1.322903871536254883e+00 6.640690803527832031e+00 1.595336079597473145e+00 -1.391820907592773438e+00
1.151000000000000000e+03 6.474874877929687500e+01 1.827280426025390625e+01 8.268930912017822266e-01 8.304080009460449219e+00 2.739291906356811523e+00 1.081582307815551758e-01
1.152000000000000000e+03 6.253010940551757812e+01 1.770074272155761719e+01 9.509230852127075195e-01 1.081260585784912109e+01 3.529058694839477539e+00 -1.564594030380249023e+00
1.153000000000000000e+03 3.820172500610351562e+01 -1.912155151367187500e+00 3.887163400650024414e-01 1.003764152526855469e+01 3.127907276153564453e+00 -1.521894097328186035e+00
1.154000000000000000e+03 5.411162185668945312e+01 2.316820526123046875e+01 -1.140102744102478027e+00 2.943315207958221436e-01 -2.537313699722290039e-01 3.574399650096893311e-01
1.155000000000000000e+03 4.106126022338867188e+01 -2.442906618118286133e+00 1.141156315803527832e+00 5.863126754760742188e+00 2.101284980773925781e+00 -2.968393802642822266e+00
1.156000000000000000e+03 5.698555755615234375e+01 2.469396209716796875e+01 -5.307966470718383789e-01 9.936960935592651367e-01 1.388698369264602661e-01 -5.727233290672302246e-01
1.157000000000000000e+03 5.785188674926757812e+01 2.330773925781250000e+01 -7.415308356285095215e-01 7.318491339683532715e-01 -2.904504071921110153e-03 -1.053157448768615723e+00
1.158000000000000000e+03 4.012446212768554688e+01 1.015740966796875000e+01 2.498965263366699219e+00 1.255188369750976562e+01 4.515254497528076172e+00 4.991903305053710938e+00
1.159000000000000000e+03 6.289834213256835938e+01 2.102988815307617188e+01 -8.712547421455383301e-01 7.284678936004638672e+00 1.924027323722839355e+00 -2.270787954330444336e-01
1.160000000000000000e+03 4.662617492675781250e+01 -5.943476676940917969e+00 -1.807225942611694336e+00 3.678341582417488098e-02 -5.311327576637268066e-01 8.083890676498413086e-01
1.161000000000000000e+03 6.050685882568359375e+01 5.389577865600585938e+00 1.772853851318359375e+00 6.871394157409667969e+00 2.593274354934692383e+00 2.977442264556884766e+00
1.162000000000000000e+03 5.972406005859375000e+01 4.180541038513183594e+00 1.761450529098510742e+00 4.931842327117919922e+00 2.007987737655639648e+00 2.762822389602661133e+00
1.163000000000000000e+03 6.203815841674804688e+01 1.093522739410400391e+01 2.534502446651458740e-01 1.076871299743652344e+01 3.306648969650268555e+00 1.299942970275878906e+00
1.164000000000000000e+03 5.750873184204101562e+01 -9.863000512123107910e-01 1.874304294586181641e+00 2.998116731643676758e+00 1.461726307868957520e+00 2.039191246032714844e+00
1.165000000000000000e+03 3.911444473266601562e+01 3.076959371566772461e+00 6.300167441368103027e-01 1.439979171752929688e+01 4.508942604064941406e+00 -7.582067251205444336e-01
1.166000000000000000e+03 3.811930847167968750e+01 4.439103901386260986e-01 1.948747277259826660e+00 1.141382408142089844e+01 4.008771419525146484e+00 -1.485937833786010742e+00
1.167000000000000000e+03 3.774638366699218750e+01 6.351973533630371094e+00 1.419045448303222656e+00 1.454120731353759766e+01 4.788075923919677734e+00 1.980011463165283203e+00
1.168000000000000000e+03 4.407776260375976562e+01 -5.522609710693359375e+00 -1.330603122711181641e+00 1.504148602485656738e+00 5.206365510821342468e-02 -6.993348598480224609e-01
1.169000000000000000e+03 5.903684234619140625e+01 1.307588577270507812e+00 1.403018236160278320e+00 3.824320554733276367e+00 1.568201661109924316e+00 2.197865486145019531e+00
1.170000000000000000e+03 6.299073791503906250e+01 1.086754608154296875e+01 6.789169907569885254e-01 1.006081104278564453e+01 3.221918344497680664e+00 1.073190450668334961e+00
1.171000000000000000e+03 4.542219924926757812e+01 -4.427484512329101562e+00 -3.539116382598876953e+00 -6.892085075378417969e-02 -1.082411170005798340e+00 9.273610115051269531e-01
1.172000000000000000e+03 3.811039733886718750e+01 1.340824794769287109e+01 8.239716887474060059e-01 9.498990058898925781e+00 3.096888542175292969e+00 9.734659194946289062e-01
1.173000000000000000e+03 6.163304519653320312e+01 4.789026260375976562e+00 1.205474257469177246e+00 6.648259639739990234e+00 2.356120109558105469e+00 1.675641775131225586e+00
1.174000000000000000e+03 6.225266647338867188e+01 6.288278102874755859e+00 1.185024619102478027e+00 7.592160701751708984e+00 2.633155584335327148e+00 1.749000072479248047e+00
1.175000000000000000e+03 4.293091964721679688e+01 1.815531921386718750e+01 4.918670058250427246e-01 4.402742862701416016e+00 1.468382954597473145e+00 1.976234197616577148e+00
1.176000000000000000e+03 4.278005218505859375e+01 1.601868820190429688e+01 1.366853356361389160e+00 4.586183547973632812e+00 1.785910964012145996e+00 2.486171007156372070e+00
1.177000000000000000e+03 5.582194137573242188e+01 -3.297519922256469727e+00 1.952140569686889648e+00 2.519179344177246094e+00 1.341395974159240723e+00 2.069238185882568359e+00
1.178000000000000000e+03 4.574678802490234375e+01 1.680022430419921875e+01 1.617775797843933105e+00 2.023028850555419922e+00 1.092241406440734863e+00 1.772473931312561035e+00
1.179000000000000000e+03 5.256727218627929688e+01 2.267494392395019531e+01 -1.270041227340698242e+00 4.458526372909545898e-01 -2.472565919160842896e-01 6.034879088401794434e-01
1.180000000000000000e+03 3.934224700927734375e+01 1.355791378021240234e+01 1.135408043861389160e+00 8.761919975280761719e+00 2.969198226928710938e+00 1.965119004249572754e+00
1.181000000000000000e+03 3.939704513549804688e+01 1.206084251403808594e+01 1.605003237724304199e+00 1.002989387512207031e+01 3.490469217300415039e+00 2.558464527130126953e+00
1.182000000000000000e+03 4.838119888305664062e+01 2.062765502929687500e+01 -2.906960844993591309e-01 1.562516331672668457e+00 3.815460503101348877e-01 1.097525119781494141e+00
1.183000000000000000e+03 3.638885498046875000e+01 3.212058305740356445e+00 2.376623153686523438e+00 1.305992221832275391e+01 4.630963325500488281e+00 1.002740025520324707e+00
1.184000000000000000e+03 4.533914184570312500e+01 -7.001387119293212891e+00 -6.203215122222900391e-01 1.303477406501770020e+00 2.049467861652374268e-01 1.289464707951992750e-04
1.185000000000000000e+03 6.284774017333984375e+01 7.846953868865966797e+00 9.499953985214233398e-01 8.707428932189941406e+00 2.897227287292480469e+00 1.408971071243286133e+00
1.186000000000000000e+03 6.401754760742187500e+01 1.585128307342529297e+01 9.060465097427368164e-01 9.497482299804687500e+00 3.121058464050292969e+00 -5.104622244834899902e-01
1.187000000000000000e+03 3.818051147460937500e+01 -7.455946803092956543e-01 1.326845169067382812e+00 1.045458793640136719e+01 3.534429788589477539e+00 -1.548933982849121094e+00
1.188000000000000000e+03 3.948152542114257812e+01 -8.062769770622253418e-01 2.018035888671875000e+00 1.068822574615478516e+01 3.811878442764282227e+00 -3.146317005157470703e+00
1.189000000000000000e+03 5.982780456542968750e+01 2.416426897048950195e+00 1.286556243896484375e+00 4.437866687774658203e+00 1.717326760292053223e+00 2.163493871688842773e+00
1.190000000000000000e+03 5.668216323852539062e+01 -2.145202875137329102e+00 2.011683225631713867e+00 2.801141738891601562e+00 1.443847537040710449e+00 1.999429702758789062e+00
1.191000000000000000e+03 4.059839630126953125e+01 1.412408351898193359e+01 1.353666901588439941e+00 7.503627777099609375e+00 2.657188415527343750e+00 2.547339439392089844e+00
1.192000000000000000e+03 5.828766632080078125e+01 1.731211245059967041e-01 1.725090980529785156e+00 3.286631584167480469e+00 1.503516793251037598e+00 2.148846387863159180e+00
1.193000000000000000e+03 6.344621276855468750e+01 1.317593574523925781e+01 5.660533308982849121e-01 1.017066001892089844e+01 3.221014022827148438e+00 3.549847304821014404e-01
1.194000000000000000e+03 3.772183609008789062e+01 4.711338043212890625e+00 1.173844099044799805e+00 1.436737155914306641e+01 4.662364959716796875e+00 1.079509973526000977e+00
1.195000000000000000e+03 6.067843627929687500e+01 1.776454091072082520e+00 1.080913424491882324e+00 4.859215259552001953e+00 1.782038569450378418e+00 1.835435032844543457e+00
1.196000000000000000e+03 1.269381642341613770e+00 -4.008731842041015625e+01 -1.755918376147747040e-02 1.362078428268432617e+00 4.033557772636413574e-01 1.318623684346675873e-02
1.197000000000000000e+03 8.496394157409667969e-01 3.736568450927734375e+01 -8.586914278566837311e-03 1.084019541740417480e+00 3.226297795772552490e-01 -1.799095794558525085e-02
1.198000000000000000e+03 7.179205417633056641e-01 3.460229110717773438e+01 -8.967601694166660309e-03 9.874827265739440918e-01 2.935545444488525391e-01 -3.461980074644088745e-02
1.199000000000000000e+03 6.923198699951171875e-01 3.320634078979492188e+01 -3.730946918949484825e-03 9.056705832481384277e-01 2.705819010734558105e-01 -4.867035150527954102e-02
1.200000000000000000e+03 6.389242410659790039e-01 2.760598945617675781e+01 -8.189450018107891083e-03 2.210302501916885376e-01 6.385224312543869019e-02 -1.211921572685241699e-01
1.201000000000000000e+03 6.442317962646484375e-01 2.620230484008789062e+01 -1.328795868903398514e-02 -7.300052046775817871e-02 -2.588654309511184692e-02 -1.443676948547363281e-01
1.202000000000000000e+03 6.180601119995117188e-01 -3.605033493041992188e+01 1.181173045188188553e-02 1.236238837242126465e+00 3.744151890277862549e-01 2.430189028382301331e-02
1.203000000000000000e+03 2.454478263854980469e+00 -3.341005706787109375e+01 -6.889059394598007202e-02 9.539741277694702148e-01 2.655250430107116699e-01 2.623400390148162842e-01
1.204000000000000000e+03 3.149106025695800781e+00 2.616416931152343750e+01 -1.109391972422599792e-01 3.763359487056732178e-01 7.961902767419815063e-02 -5.728988647460937500e-01
1.205000000000000000e+03 3.323808670043945312e+00 2.484622383117675781e+01 -1.094950139522552490e-01 2.417834997177124023e-01 3.968654572963714600e-02 -6.850450634956359863e-01
1.206000000000000000e+03 2.152470350265502930e+00 3.434128570556640625e+01 -3.019731864333152771e-02 9.723245501518249512e-01 2.826381623744964600e-01 -1.111199185252189636e-01
1.207000000000000000e+03 2.091032981872558594e+00 3.299783325195312500e+01 -3.730028122663497925e-02 8.918025493621826172e-01 2.563506960868835449e-01 -1.446345001459121704e-01
1.208000000000000000e+03 3.334835529327392578e+00 3.925470352172851562e+01 -2.385293506085872650e-02 1.100716948509216309e+00 3.230592012405395508e-01 -5.074221640825271606e-02
1.209000000000000000e+03 2.161359071731567383e+00 -2.906641578674316406e+01 -4.390924051403999329e-02 4.052646756172180176e-01 1.084066331386566162e-01 4.276306033134460449e-01
1.210000000000000000e+03 1.994177579879760742e+00 -2.622053337097167969e+01 -2.044243179261684418e-02 -1.412396728992462158e-01 -4.850462824106216431e-02 4.884372949600219727e-01
1.211000000000000000e+03 1.613922357559204102e+00 -9.536211967468261719e+00 3.452846407890319824e-02 -1.428992986679077148e+00 -4.183393716812133789e-01 -3.576977252960205078e-01
1.212000000000000000e+03 2.299528121948242188e+00 -3.681587600708007812e+01 -2.658947184681892395e-02 1.201412677764892578e+00 3.524469435214996338e-01 1.283405572175979614e-01
1.213000000000000000e+03 1.789231061935424805e+00 -1.636994171142578125e+01 8.177483081817626953e-02 -1.860143184661865234e+00 -5.335105061531066895e-01 9.102691709995269775e-02
1.214000000000000000e+03 6.697266697883605957e-01 2.054851913452148438e+01 2.246805652976036072e-02 -1.600200176239013672e+00 -4.733196198940277100e-01 -1.993164569139480591e-01
1.215000000000000000e+03 6.500317454338073730e-01 1.912502861022949219e+01 -5.637138150632381439e-03 -2.005486249923706055e+00 -6.033370494842529297e-01 -1.794120818376541138e-01
1.216000000000000000e+03 6.430625915527343750e-01 1.488946437835693359e+01 4.150875285267829895e-02 -2.853793382644653320e+00 -8.436853885650634766e-01 -6.934828311204910278e-02
1.217000000000000000e+03 6.436920166015625000e-01 1.347285938262939453e+01 1.014413405209779739e-02 -2.933469295501708984e+00 -8.769975304603576660e-01 -1.053651142865419388e-02
1.218000000000000000e+03 5.763438940048217773e-01 7.789197444915771484e+00 -6.984386127442121506e-03 -1.977303385734558105e+00 -5.952863097190856934e-01 1.853438764810562134e-01
1.219000000000000000e+03 5.240690112113952637e-01 6.362955570220947266e+00 8.079428225755691528e-03 -1.503221631050109863e+00 -4.485426545143127441e-01 1.826914846897125244e-01
1.220000000000000000e+03 4.822283744812011719e+00 -4.037530517578125000e+01 -1.007181555032730103e-01 1.253727078437805176e+00 3.459026813507080078e-01 8.280228823423385620e-02
1.221000000000000000e+03 3.928098917007446289e+00 -3.621931838989257812e+01 -1.298220604658126831e-01 1.160491704940795898e+00 3.092008829116821289e-01 2.415919303894042969e-01
1.222000000000000000e+03 1.766072630882263184e+00 -3.552346420288085938e+01 -4.119595885276794434e-02 1.129711508750915527e+00 3.265546858310699463e-01 1.408236026763916016e-01
1.223000000000000000e+03 2.381512880325317383e+00 -3.195693206787109375e+01 -4.952934384346008301e-02 8.129725456237792969e-01 2.290329635143280029e-01 3.233782947063446045e-01
1.224000000000000000e+03 2.067552566528320312e+00 -2.763747787475585938e+01 -4.213056340813636780e-02 1.449543684720993042e-01 3.084714151918888092e-02 4.626071453094482422e-01
1.225000000000000000e+03 3.332351684570312500e+00 -2.615574073791503906e+01 -5.934757366776466370e-02 2.014423310756683350e-01 4.262842610478401184e-02 7.177315950393676758e-01
1.226000000000000000e+03 1.862377285957336426e+00 -2.200061035156250000e+01 3.075789473950862885e-02 -1.057630896568298340e+00 -3.080619275569915771e-01 4.516826868057250977e-01
1.227000000000000000e+03 1.940622210502624512e+00 -2.480993461608886719e+01 -1.298547536134719849e-02 -4.435978829860687256e-01 -1.369750052690505981e-01 5.001767873764038086e-01
1.228000000000000000e+03 1.833525180816650391e+00 -1.919309043884277344e+01 6.951933354139328003e-02 -1.562548041343688965e+00 -4.479086399078369141e-01 3.057591319084167480e-01
1.229000000000000000e+03 6.103543639183044434e-01 -1.918094635009765625e+01 1.482397597283124924e-02 -2.292522192001342773e+00 -6.833094954490661621e-01 1.141490414738655090e-01
1.230000000000000000e+03 2.675044536590576172e+00 -1.226730537414550781e+01 1.329432129859924316e-01 -1.298786163330078125e+00 -3.497528731822967529e-01 -3.225545287132263184e-01
1.231000000000000000e+03 5.360612273216247559e-01 -1.214345550537109375e+01 1.534509845077991486e-02 -2.411305665969848633e+00 -7.187881469726562500e-01 -7.938744872808456421e-02
1.232000000000000000e+03 1.609280705451965332e+00 -1.221526527404785156e+01 6.187444180250167847e-02 -1.818702101707458496e+00 -5.270482897758483887e-01 -2.363735437393188477e-01
1.233000000000000000e+03 3.817877769470214844e+00 -3.678048133850097656e+00 -2.355314195156097412e-01 -2.055604606866836548e-01 -1.323275715112686157e-01 -5.599579215049743652e-01
1.234000000000000000e+03 2.078600168228149414e+00 -3.249468326568603516e+00 -1.045089066028594971e-01 -2.905521988868713379e-01 -1.185183301568031311e-01 -3.386106789112091064e-01
1.235000000000000000e+03 1.292708277702331543e+00 -3.459975957870483398e+00 -4.983119294047355652e-02 -3.459848761558532715e-01 -1.187448203563690186e-01 -2.310562729835510254e-01
1.236000000000000000e+03 4.572701454162597656e-01 4.957986354827880859e+00 -1.985327713191509247e-02 -9.737342000007629395e-01 -2.980762422084808350e-01 1.691113412380218506e-01
1.237000000000000000e+03 2.242609977722167969e+00 4.521969795227050781e+00 -7.169696688652038574e-02 -7.127217054367065430e-01 -2.353256046772003174e-01 6.562482714653015137e-01
1.238000000000000000e+03 1.818340301513671875e+00 1.053738594055175781e+01 1.343509554862976074e-01 -1.972906708717346191e+00 -5.515667200088500977e-01 2.955403029918670654e-01
1.239000000000000000e+03 6.109298467636108398e-01 1.064123725891113281e+01 1.761708594858646393e-02 -2.717852592468261719e+00 -8.100706338882446289e-01 1.039040833711624146e-01
1.240000000000000000e+03 1.937361717224121094e+00 1.338169574737548828e+01 1.342515498399734497e-01 -2.047088861465454102e+00 -5.738511681556701660e-01 -3.008424676954746246e-02
1.241000000000000000e+03 1.989958286285400391e+00 2.046915626525878906e+01 9.226738475263118744e-03 -9.960052371025085449e-01 -2.960335314273834229e-01 -5.428404211997985840e-01
1.242000000000000000e+03 1.928114533424377441e+00 1.902999114990234375e+01 6.609500944614410400e-02 -1.351403951644897461e+00 -3.855926692485809326e-01 -4.787818193435668945e-01
1.243000000000000000e+03 1.997495055198669434e+00 2.476803207397460938e+01 -3.908876702189445496e-02 -1.132636442780494690e-01 -4.570572450757026672e-02 -4.662204384803771973e-01
1.244000000000000000e+03 3.414119720458984375e+01 1.226013374328613281e+01 7.311189770698547363e-01 9.464561462402343750e+00 3.058704137802124023e+00 -1.552347660064697266e+00
1.245000000000000000e+03 3.095942497253417969e+01 -1.279279112815856934e+00 5.068313121795654297e+00 4.277412891387939453e+00 2.803717851638793945e+00 1.352874040603637695e+00
1.246000000000000000e+03 3.232532882690429688e+01 -9.493146091699600220e-02 6.185685157775878906e+00 6.852208614349365234e+00 3.911368131637573242e+00 3.309097051620483398e+00
1.247000000000000000e+03 2.007013893127441406e+01 2.412754535675048828e+00 1.464115738868713379e+00 2.168756008148193359e+00 1.089861512184143066e+00 -4.572748661041259766e+00
1.248000000000000000e+03 1.973894500732421875e+01 -1.234761595726013184e+00 1.434037327766418457e+00 1.121814489364624023e+00 7.667555212974548340e-01 1.829853773117065430e+00
1.249000000000000000e+03 2.137000274658203125e+01 -8.884134292602539062e-01 1.935569405555725098e+00 4.919204235076904297e+00 2.056432008743286133e+00 2.715022802352905273e+00
1.250000000000000000e+03 2.181178092956542969e+01 -1.400090813636779785e+00 1.155696511268615723e+00 5.673301219940185547e+00 2.048699378967285156e+00 1.769942402839660645e+00
1.251000000000000000e+03 1.783799743652343750e+01 -2.552423954010009766e+00 3.398090004920959473e-01 7.693334817886352539e-01 3.327427506446838379e-01 1.596876382827758789e+00
1.252000000000000000e+03 1.723922157287597656e+01 -2.640803575515747070e+00 1.372000873088836670e-01 6.751483678817749023e-01 2.437045425176620483e-01 1.402708530426025391e+00
1.253000000000000000e+03 1.508846664428710938e+01 -2.308861732482910156e+00 -6.521277427673339844e-01 3.380698859691619873e-01 -9.421736001968383789e-02 6.375824809074401855e-01
1.254000000000000000e+03 1.520409011840820312e+01 -2.914341211318969727e+00 -4.323982894420623779e-01 5.072789788246154785e-01 2.246419526636600494e-02 8.279438614845275879e-01
1.255000000000000000e+03 1.880144500732421875e+01 2.606392383575439453e+00 2.133885622024536133e-01 1.047884583473205566e+00 3.783819675445556641e-01 -2.746717453002929688e+00
1.256000000000000000e+03 2.401637840270996094e+01 -8.109574317932128906e+00 -1.007834792137145996e+00 1.149836778640747070e+00 4.260061681270599365e-02 8.918636441230773926e-01
1.257000000000000000e+03 1.423805332183837891e+01 3.370461463928222656e+00 -8.888108730316162109e-01 7.563429474830627441e-01 -3.974038362503051758e-02 -5.636269599199295044e-02
1.258000000000000000e+03 1.626007843017578125e+01 2.745466232299804688e+00 -1.269408345222473145e+00 7.706467509269714355e-01 -1.496284753084182739e-01 -8.340992927551269531e-01
1.259000000000000000e+03 6.502297401428222656e+00 -3.299999475479125977e+00 -5.280371904373168945e-01 9.546953253448009491e-03 -1.555470675230026245e-01 -6.108207702636718750e-01
1.260000000000000000e+03 4.229162693023681641e+00 -2.744272708892822266e+00 -3.554129004478454590e-01 -1.095830276608467102e-01 -1.394987851381301880e-01 -4.960502982139587402e-01
1.261000000000000000e+03 5.817872524261474609e+00 -3.325623035430908203e+00 -4.615681767463684082e-01 -2.818589843809604645e-02 -1.469262242317199707e-01 -6.162900924682617188e-01
1.262000000000000000e+03 5.142837524414062500e+00 -3.383744478225708008e+00 -3.855499327182769775e-01 -8.443473279476165771e-02 -1.409953981637954712e-01 -6.053909659385681152e-01
1.263000000000000000e+03 4.926534175872802734e+00 -2.662895917892456055e+00 -4.497088789939880371e-01 -6.124522909522056580e-02 -1.532862335443496704e-01 -5.204445123672485352e-01
1.264000000000000000e+03 8.759519577026367188e+00 -4.022991180419921875e+00 -5.375663638114929199e-01 2.413091510534286499e-01 -8.887716382741928101e-02 -5.265673995018005371e-01
1.265000000000000000e+03 5.359127521514892578e+00 -4.059527397155761719e+00 -3.250347971916198730e-01 -7.768867909908294678e-02 -1.208170428872108459e-01 -6.696259379386901855e-01
1.266000000000000000e+03 3.320696353912353516e+00 -6.563192367553710938e+00 -1.852966099977493286e-02 -5.530079603195190430e-01 -1.714612841606140137e-01 -6.503891944885253906e-01
1.267000000000000000e+03 4.476790904998779297e+00 -3.493592739105224609e+00 -3.141727149486541748e-01 -1.278168857097625732e-01 -1.325968801975250244e-01 -5.872792005538940430e-01
1.268000000000000000e+03 1.626522779464721680e+00 -4.775783061981201172e+00 -4.210811480879783630e-02 -5.401523113250732422e-01 -1.746781170368194580e-01 -3.579816222190856934e-01
1.269000000000000000e+03 2.348674058914184570e+00 -5.859353065490722656e+00 -4.178442433476448059e-02 -6.327647566795349121e-01 -2.023647576570510864e-01 -4.977959990501403809e-01
1.270000000000000000e+03 8.603920936584472656e+00 -3.297918081283569336e+00 -6.998940110206604004e-01 1.604881137609481812e-01 -1.618217676877975464e-01 -5.081651210784912109e-01
1.271000000000000000e+03 1.343030548095703125e+01 2.675561428070068359e+00 -1.823630213737487793e+00 3.930681347846984863e-01 -4.291686415672302246e-01 2.784862816333770752e-01
1.272000000000000000e+03 1.276147747039794922e+01 3.432044744491577148e+00 -1.044081091880798340e+00 5.479686260223388672e-01 -1.488337367773056030e-01 4.119107723236083984e-01
1.273000000000000000e+03 1.626552772521972656e+01 3.509112358093261719e+00 -2.256822884082794189e-01 1.263210415840148926e+00 3.112584352493286133e-01 -1.152544736862182617e+00
1.274000000000000000e+03 1.603381156921386719e+01 -3.413446187973022461e+00 -1.337791085243225098e-01 7.473057508468627930e-01 1.840579956769943237e-01 1.217051148414611816e+00
1.275000000000000000e+03 1.782929420471191406e+01 6.173089027404785156e+00 3.349437475204467773e+00 3.939746379852294922e+00 2.186755180358886719e+00 -3.371014833450317383e+00
1.276000000000000000e+03 1.413617324829101562e+01 2.651515722274780273e+00 -1.811631679534912109e+00 5.499728322029113770e-01 -3.784976601600646973e-01 8.242396265268325806e-02
1.277000000000000000e+03 1.439037322998046875e+01 4.486201286315917969e+00 2.211669832468032837e-01 1.279076457023620605e+00 4.500730335712432861e-01 -3.810049593448638916e-01
1.278000000000000000e+03 1.132789707183837891e+01 4.122096061706542969e+00 -5.251798629760742188e-01 5.127105712890625000e-01 -3.740789368748664856e-03 7.313545346260070801e-01
1.279000000000000000e+03 1.048392963409423828e+01 3.421004295349121094e+00 -1.069967985153198242e+00 2.607861757278442383e-01 -2.427545487880706787e-01 8.839848637580871582e-01
1.280000000000000000e+03 1.152254581451416016e+01 -3.259563446044921875e+00 -7.776554226875305176e-01 3.476058840751647949e-01 -1.290148496627807617e-01 -7.878856360912322998e-02
1.281000000000000000e+03 1.359773063659667969e+01 -2.434790849685668945e+00 -9.073809981346130371e-01 2.873991727828979492e-01 -1.859945505857467651e-01 3.002582192420959473e-01
1.282000000000000000e+03 9.327850341796875000e+00 -3.301961421966552734e+00 -7.415097951889038086e-01 2.065260261297225952e-01 -1.604951322078704834e-01 -4.282416105270385742e-01
1.283000000000000000e+03 1.005655479431152344e+01 -3.299110889434814453e+00 -7.676617503166198730e-01 2.601564526557922363e-01 -1.522515863180160522e-01 -3.345164656639099121e-01
1.284000000000000000e+03 1.447694301605224609e+01 -3.003688573837280273e+00 -5.602426528930664062e-01 4.929830729961395264e-01 -2.017787843942642212e-02 6.266356110572814941e-01
1.285000000000000000e+03 1.299818897247314453e+01 -3.157306909561157227e+00 -7.192395329475402832e-01 4.252126216888427734e-01 -8.820806443691253662e-02 2.454735338687896729e-01
1.286000000000000000e+03 1.225933361053466797e+01 -3.216496467590332031e+00 -7.622224092483520508e-01 3.813372552394866943e-01 -1.142655536532402039e-01 7.733129709959030151e-02
1.287000000000000000e+03 8.009701728820800781e+00 2.713370800018310547e+00 -1.238591194152832031e+00 1.400139555335044861e-02 -3.673769533634185791e-01 9.791610240936279297e-01
1.288000000000000000e+03 2.975407361984252930e+00 3.175276994705200195e+00 -2.643871307373046875e-01 -3.728913366794586182e-01 -1.911835372447967529e-01 6.686857938766479492e-01
1.289000000000000000e+03 5.635653495788574219e+00 3.745582818984985352e+00 -4.830742776393890381e-01 -1.974091976881027222e-01 -2.041450440883636475e-01 1.068402051925659180e+00
1.290000000000000000e+03 3.968859910964965820e+00 4.089694023132324219e+00 -2.567934989929199219e-01 -4.054449200630187988e-01 -1.986715197563171387e-01 9.187019467353820801e-01
1.291000000000000000e+03 3.828684806823730469e+00 3.053024291992187500e+00 -4.061983525753021240e-01 -2.762826383113861084e-01 -2.047442942857742310e-01 7.805752158164978027e-01
1.292000000000000000e+03 1.360548853874206543e+00 4.773374080657958984e+00 -3.292025253176689148e-02 -8.339481949806213379e-01 -2.600605487823486328e-01 4.393773674964904785e-01
1.293000000000000000e+03 7.184789657592773438e+00 2.744446039199829102e+00 -1.069521546363830566e+00 -3.228953108191490173e-02 -3.305433094501495361e-01 9.811087250709533691e-01
1.294000000000000000e+03 6.461446762084960938e+00 3.638110876083374023e+00 -6.102148890495300293e-01 -1.077219098806381226e-01 -2.153810411691665649e-01 1.094087362289428711e+00
1.295000000000000000e+03 8.909413337707519531e+00 3.493528604507446289e+00 -9.240146875381469727e-01 1.133197769522666931e-01 -2.432084679603576660e-01 1.044739007949829102e+00
1.296000000000000000e+03 9.707131385803222656e+00 3.457929372787475586e+00 -1.006545901298522949e+00 1.748006790876388550e-01 -2.495235502719879150e-01 9.633148908615112305e-01
1.297000000000000000e+03 2.735158920288085938e+01 -5.309136390686035156e+00 1.036621928215026855e+00 3.229953646659851074e-01 4.078851938247680664e-01 5.800166130065917969e-01
1.298000000000000000e+03 2.477028083801269531e+01 2.276278287172317505e-01 6.188485145568847656e+00 -1.205562353134155273e+00 1.494876742362976074e+00 -1.222069740295410156e+00
1.299000000000000000e+03 5.915713882446289062e+01 -1.273796939849853516e+01 -2.278864860534667969e+00 3.776496350765228271e-01 -5.703645348548889160e-01 -2.040884792804718018e-01
1.300000000000000000e+03 5.537699127197265625e+01 -7.930920124053955078e+00 2.299849092960357666e-01 1.634078025817871094e+00 5.592188835144042969e-01 1.589465260505676270e+00
1.301000000000000000e+03 2.257693099975585938e+01 -8.931008338928222656e+00 -4.961685836315155029e-01 9.256026148796081543e-01 1.288302093744277954e-01 8.978282213211059570e-01
1.302000000000000000e+03 5.162153244018554688e+01 -1.345566940307617188e+01 3.833252489566802979e-01 4.308012127876281738e-01 2.442379295825958252e-01 1.247341752052307129e+00
1.303000000000000000e+03 5.436085128784179688e+01 -1.344239521026611328e+01 -8.921759724617004395e-01 2.431371212005615234e-01 -1.947116553783416748e-01 6.938351988792419434e-01
1.304000000000000000e+03 6.046381759643554688e+01 -1.074533367156982422e+01 -1.453314542770385742e+00 6.141061782836914062e-01 -2.517625093460083008e-01 2.592912912368774414e-01
1.305000000000000000e+03 3.375851821899414062e+01 1.368925285339355469e+01 7.715396285057067871e-01 8.736423492431640625e+00 2.852389097213745117e+00 -1.646838188171386719e+00
1.306000000000000000e+03 3.722185897827148438e+01 1.736290931701660156e+01 1.050722897052764893e-01 7.077531814575195312e+00 2.154781341552734375e+00 2.806118130683898926e-01
1.307000000000000000e+03 2.632051277160644531e+01 -5.120269775390625000e+00 9.455860257148742676e-01 6.410657167434692383e-01 4.759955108165740967e-01 8.666409850120544434e-01
1.308000000000000000e+03 1.257299327850341797e+01 1.293788051605224609e+01 1.925745368003845215e+00 4.561218738555908203e+00 1.946089148521423340e+00 -1.259290933609008789e+00
1.309000000000000000e+03 1.284809589385986328e+01 1.694720840454101562e+01 6.813614964485168457e-01 5.903616428375244141e+00 1.975493311882019043e+00 -6.267989873886108398e-01
1.310000000000000000e+03 2.056786727905273438e+01 -9.407416343688964844e+00 3.370938599109649658e-01 1.227417111396789551e+00 4.693532884120941162e-01 1.683783411979675293e+00
1.311000000000000000e+03 6.128285217285156250e+01 -1.006324291229248047e+01 -1.212404847145080566e+00 6.425920128822326660e-01 -1.709438413381576538e-01 -6.392805278301239014e-02
1.312000000000000000e+03 1.973779296875000000e+01 5.387484550476074219e+00 2.728070020675659180e+00 4.278584003448486328e+00 2.101996183395385742e+00 -3.919957160949707031e+00
1.313000000000000000e+03 5.891488265991210938e+01 -1.067161846160888672e+01 -1.140415072441101074e+00 7.649742364883422852e-01 -1.126322522759437561e-01 5.971370935440063477e-01
1.314000000000000000e+03 2.342941284179687500e+01 -8.604688644409179688e+00 -1.119583129882812500e+00 1.051421761512756348e+00 -2.044840902090072632e-02 8.165661692619323730e-01
1.315000000000000000e+03 1.640656471252441406e+01 8.103006362915039062e+00 3.653200387954711914e+00 4.770978450775146484e+00 2.527253627777099609e+00 -3.435142755508422852e+00
1.316000000000000000e+03 5.034953689575195312e+01 2.356874656677246094e+01 -6.533856987953186035e-01 1.319197535514831543e+00 1.997435390949249268e-01 1.174387574195861816e+00
1.317000000000000000e+03 1.912432861328125000e+01 -2.870207977294921875e+01 -8.346186876296997070e-01 6.631566882133483887e-01 -5.143859237432479858e-02 -4.535964503884315491e-02
1.318000000000000000e+03 2.227793502807617188e+01 -3.172936439514160156e+01 -9.530827999114990234e-01 9.051619470119476318e-02 -2.587699592113494873e-01 -2.021106630563735962e-01
1.319000000000000000e+03 3.509057617187500000e+01 4.971719741821289062e+00 1.479950666427612305e+00 1.446542453765869141e+01 4.783612251281738281e+00 1.895418763160705566e+00
1.320000000000000000e+03 4.310348129272460938e+01 -8.138800621032714844e+00 -6.105191707611083984e-01 4.378108501434326172e+00 1.130276799201965332e+00 -1.037318229675292969e+00
1.321000000000000000e+03 6.206808090209960938e+01 -9.327774047851562500e+00 -7.914792299270629883e-01 9.810214042663574219e-01 5.686264485120773315e-02 -1.573959141969680786e-01
1.322000000000000000e+03 6.416211700439453125e+01 -1.138852977752685547e+01 -3.262492656707763672e+00 -1.915946453809738159e-01 -1.036226153373718262e+00 -1.258349299430847168e+00
1.323000000000000000e+03 5.795062255859375000e+01 -3.179947662353515625e+01 -1.532172799110412598e+00 -1.904828250408172607e-01 -5.167966485023498535e-01 -3.421547114849090576e-01
1.324000000000000000e+03 5.700918579101562500e+01 -3.927374362945556641e+00 1.692144036293029785e+00 2.332102537155151367e+00 1.207273960113525391e+00 1.591777324676513672e+00
1.325000000000000000e+03 1.493183994293212891e+01 -2.638626289367675781e+01 -5.802866220474243164e-01 2.160164356231689453e+00 4.739633500576019287e-01 -1.466427296400070190e-01
1.326000000000000000e+03 1.994642639160156250e+01 4.103686332702636719e+00 1.010853409767150879e+00 3.858445644378662109e+00 1.460789799690246582e+00 -4.206096649169921875e+00
1.327000000000000000e+03 3.479441833496093750e+01 -7.569392323493957520e-01 2.158770322799682617e+00 1.007705211639404297e+01 3.670746803283691406e+00 3.342635035514831543e-01
1.328000000000000000e+03 6.391914367675781250e+01 1.129094505310058594e+01 8.129422068595886230e-01 9.357922554016113281e+00 3.051259517669677734e+00 6.618641018867492676e-01
1.329000000000000000e+03 6.374983596801757812e+01 1.451274681091308594e+01 5.712197422981262207e-01 1.008629226684570312e+01 3.197253465652465820e+00 -2.690959908068180084e-02
1.330000000000000000e+03 2.467834472656250000e+01 2.678334617614746094e+01 -4.665359258651733398e-01 9.932615756988525391e-01 1.580176800489425659e-01 -7.586400508880615234e-01
1.331000000000000000e+03 2.473163032531738281e+01 2.339044761657714844e+01 -1.018580198287963867e+00 3.506358563899993896e-01 -2.003833204507827759e-01 -4.721155166625976562e-01
1.332000000000000000e+03 4.481318664550781250e+01 -2.708914566040039062e+01 1.847878456115722656e+00 9.667736053466796875e+00 3.454684257507324219e+00 -2.009727716445922852e+00
1.333000000000000000e+03 4.273710632324218750e+01 -2.172741317749023438e+01 1.837020516395568848e+00 1.020268821716308594e+01 3.611912488937377930e+00 -1.055405855178833008e+00
1.334000000000000000e+03 1.151202869415283203e+01 1.813776588439941406e+01 6.529226899147033691e-01 3.832715511322021484e+00 1.345691442489624023e+00 -1.106499433517456055e+00
1.335000000000000000e+03 6.776788330078125000e+01 -2.702968788146972656e+01 -8.890928030014038086e-01 6.310973167419433594e+00 1.626564025878906250e+00 1.089540481567382812e+00
1.336000000000000000e+03 6.690988922119140625e+01 -2.595209884643554688e+01 -2.112029641866683960e-01 5.069805622100830078e+00 1.457580685615539551e+00 1.607019424438476562e+00
1.337000000000000000e+03 2.710193252563476562e+01 -8.822082281112670898e-01 5.910727977752685547e+00 -5.700558051466941833e-02 1.756116747856140137e+00 -1.382746249437332153e-01
1.338000000000000000e+03 7.779969787597656250e+01 -3.563423156738281250e+01 -1.309509724378585815e-01 9.849174499511718750e+00 2.915467023849487305e+00 -2.167450077831745148e-02
1.339000000000000000e+03 7.408944702148437500e+01 -3.866487121582031250e+01 -7.423057407140731812e-02 7.881103992462158203e+00 2.342061996459960938e+00 -9.475813806056976318e-02
1.340000000000000000e+03 7.640324401855468750e+01 -3.647945022583007812e+01 -2.240702360868453979e-01 9.301588058471679688e+00 2.723255395889282227e+00 -1.173409260809421539e-02
1.341000000000000000e+03 7.476892089843750000e+01 -2.234560394287109375e+01 4.458693861961364746e-01 8.819001197814941406e+00 2.779461145401000977e+00 -1.302579402923583984e+00
1.342000000000000000e+03 7.806259918212890625e+01 -2.878943061828613281e+01 -1.080569922924041748e-01 9.205719947814941406e+00 2.729298830032348633e+00 -5.933377146720886230e-01
1.343000000000000000e+03 7.546238708496093750e+01 1.569598102569580078e+01 2.072422355413436890e-01 6.692884445190429688e+00 2.070038080215454102e+00 2.787479758262634277e-01
1.344000000000000000e+03 7.673532104492187500e+01 1.559249401092529297e+01 1.167828068137168884e-01 6.545451641082763672e+00 1.998670339584350586e+00 2.348519712686538696e-01
1.345000000000000000e+03 7.717510223388671875e+01 3.641688537597656250e+01 -2.982624247670173645e-02 7.749077320098876953e+00 2.315775394439697266e+00 3.625898435711860657e-02
1.346000000000000000e+03 7.571144104003906250e+01 3.304679870605468750e+01 -8.027442544698715210e-02 7.394821166992187500e+00 2.194364070892333984e+00 9.986192733049392700e-02
1.347000000000000000e+03 7.822045898437500000e+01 -2.190016746520996094e+01 1.384278535842895508e-01 7.173578262329101562e+00 2.193601846694946289e+00 -6.750984787940979004e-01
1.348000000000000000e+03 7.689198303222656250e+01 -2.445220184326171875e+01 -2.050780132412910461e-02 8.336141586303710938e+00 2.494690179824829102e+00 -1.118286848068237305e+00
1.349000000000000000e+03 7.648657989501953125e+01 -3.113397026062011719e+01 -2.588577568531036377e-01 9.135981559753417969e+00 2.663137197494506836e+00 -4.956472218036651611e-01
1.350000000000000000e+03 7.662799072265625000e+01 -2.977990341186523438e+01 -2.475300431251525879e-01 9.115246772766113281e+00 2.660315275192260742e+00 -6.919529438018798828e-01
1.351000000000000000e+03 7.568997955322265625e+01 -2.701296806335449219e+01 -3.028762340545654297e-01 8.871404647827148438e+00 2.570558547973632812e+00 -1.099787950515747070e+00
1.352000000000000000e+03 7.685771942138671875e+01 -2.717928695678710938e+01 -1.769868880510330200e-01 8.825166702270507812e+00 2.594453811645507812e+00 -1.003681540489196777e+00
1.353000000000000000e+03 7.684877014160156250e+01 -2.582933425903320312e+01 -8.202909678220748901e-02 8.566761970520019531e+00 2.545419931411743164e+00 -1.069338321685791016e+00
1.354000000000000000e+03 7.630619049072265625e+01 -3.254090881347656250e+01 -2.335648238658905029e-01 9.132206916809082031e+00 2.669592618942260742e+00 -3.830557465553283691e-01
1.355000000000000000e+03 7.485805511474609375e+01 -3.413891983032226562e+01 -3.283554613590240479e-01 8.519385337829589844e+00 2.457309007644653320e+00 -1.742585301399230957e-01
1.356000000000000000e+03 7.641643524169921875e+01 -3.534212112426757812e+01 -1.834499686956405640e-01 9.266906738281250000e+00 2.725036859512329102e+00 -1.635119318962097168e-01
1.357000000000000000e+03 7.804450225830078125e+01 2.243377685546875000e+01 -4.781235940754413605e-03 7.061521530151367188e+00 2.117022037506103516e+00 2.955590486526489258e-01
1.358000000000000000e+03 7.675621032714843750e+01 1.978402709960937500e+01 3.746350482106208801e-02 6.840787410736083984e+00 2.063475131988525391e+00 4.170584082603454590e-01
1.359000000000000000e+03 7.546745300292968750e+01 2.270651817321777344e+01 -4.417100921273231506e-02 7.094730377197265625e+00 2.115167856216430664e+00 5.215187072753906250e-01
1.360000000000000000e+03 7.671807098388671875e+01 2.116169166564941406e+01 5.350059829652309418e-03 6.956766605377197266e+00 2.088634967803955078e+00 4.324671626091003418e-01
1.361000000000000000e+03 7.673831939697265625e+01 1.279249763488769531e+01 1.304190754890441895e-01 6.471076011657714844e+00 1.980448484420776367e+00 4.581329599022865295e-02
1.362000000000000000e+03 7.551575469970703125e+01 8.699860572814941406e+00 1.947661489248275757e-01 6.678594589233398438e+00 2.062008142471313477e+00 -2.941755056381225586e-01
1.363000000000000000e+03 7.672721862792968750e+01 1.418529129028320312e+01 1.308913528919219971e-01 6.493500232696533203e+00 1.987317442893981934e+00 1.286040246486663818e-01
1.364000000000000000e+03 7.680441284179687500e+01 2.386525535583496094e+01 -4.473933205008506775e-02 7.189285278320312500e+00 2.143363714218139648e+00 4.004269540309906006e-01
1.365000000000000000e+03 7.787326049804687500e+01 2.672367858886718750e+01 -3.619993478059768677e-02 7.499129295349121094e+00 2.238878726959228516e+00 2.283512055873870850e-01
1.366000000000000000e+03 7.825602722167968750e+01 -2.050776481628417969e+01 1.121474355459213257e-01 6.811172485351562500e+00 2.076996088027954102e+00 -4.794102907180786133e-01
1.367000000000000000e+03 7.700618743896484375e+01 -2.307158851623535156e+01 1.205842494964599609e-01 8.006343841552734375e+00 2.438078403472900391e+00 -1.066151618957519531e+00
1.368000000000000000e+03 7.798371887207031250e+01 3.049651718139648438e+01 -2.436634711921215057e-02 7.768527507781982422e+00 2.323248386383056641e+00 1.259663701057434082e-01
1.369000000000000000e+03 7.641431427001953125e+01 2.666851615905761719e+01 -7.941545546054840088e-02 7.369498252868652344e+00 2.187024831771850586e+00 3.312118053436279297e-01
1.370000000000000000e+03 7.358331298828125000e+01 -2.063882637023925781e+01 1.212783098220825195e+00 9.584651947021484375e+00 3.239230632781982422e+00 -9.915300011634826660e-01
1.371000000000000000e+03 7.568849945068359375e+01 -9.213264465332031250e+00 -4.590725600719451904e-01 8.153894424438476562e+00 2.308446645736694336e+00 4.498609304428100586e-01
1.372000000000000000e+03 7.683243560791015625e+01 -1.399043750762939453e+01 1.057286411523818970e-01 7.676180362701416016e+00 2.334572792053222656e+00 7.696556448936462402e-01
1.373000000000000000e+03 7.539558410644531250e+01 -1.035711288452148438e+00 -1.196556538343429565e-01 7.359766960144042969e+00 2.172033309936523438e+00 -6.082196235656738281e-01
1.374000000000000000e+03 7.684149932861328125e+01 -7.981810092926025391e+00 -2.723007798194885254e-01 7.994291782379150391e+00 2.316597223281860352e+00 2.687245011329650879e-01
1.375000000000000000e+03 7.804091644287109375e+01 5.727359294891357422e+00 2.037075720727443695e-02 6.672410964965820312e+00 2.007834672927856445e+00 -2.738796472549438477e-01
1.376000000000000000e+03 7.673922729492187500e+01 3.020558595657348633e+00 4.894578456878662109e-02 7.012308597564697266e+00 2.118376255035400391e+00 -4.962768256664276123e-01
1.377000000000000000e+03 7.804512786865234375e+01 7.118271827697753906e+00 5.157380923628807068e-02 6.521375656127929688e+00 1.971884846687316895e+00 -2.346052825450897217e-01
1.378000000000000000e+03 7.674147796630859375e+01 5.823003768920898438e+00 9.133970737457275391e-02 6.749018669128417969e+00 2.052107572555541992e+00 -4.077041745185852051e-01
1.379000000000000000e+03 7.671292114257812500e+01 -2.522682666778564453e+00 -1.155536696314811707e-01 7.627726078033447266e+00 2.253651618957519531e+00 -3.910201191902160645e-01
1.380000000000000000e+03 7.682699584960937500e+01 -9.374894142150878906e+00 -2.973002195358276367e-01 8.038249015808105469e+00 2.322284460067749023e+00 4.272894263267517090e-01
1.381000000000000000e+03 7.715513610839843750e+01 -1.652118492126464844e+01 4.042263925075531006e-01 7.255389690399169922e+00 2.297884702682495117e+00 2.628324329853057861e-01
1.382000000000000000e+03 7.625791168212890625e+01 3.155827713012695312e+01 -7.325790822505950928e-02 7.490662574768066406e+00 2.225221395492553711e+00 1.478715538978576660e-01
1.383000000000000000e+03 7.678299713134765625e+01 1.840983581542968750e+01 7.763402909040451050e-02 6.713510036468505859e+00 2.037343263626098633e+00 3.748805522918701172e-01
1.384000000000000000e+03 7.677173614501953125e+01 9.993920326232910156e+00 1.211155429482460022e-01 6.501856803894042969e+00 1.986891627311706543e+00 -1.595793515443801880e-01
1.385000000000000000e+03 7.808696746826171875e+01 -6.747078895568847656e+00 -9.858419746160507202e-02 8.015181541442871094e+00 2.374979257583618164e+00 9.181591868400573730e-02
1.386000000000000000e+03 7.809986114501953125e+01 -1.388803482055664062e+01 6.122248247265815735e-02 7.046802997589111328e+00 2.132407665252685547e+00 5.486118793487548828e-01
1.387000000000000000e+03 7.707810211181640625e+01 -1.533775806427001953e+01 3.391642272472381592e-01 7.367112159729003906e+00 2.311882972717285156e+00 5.971330404281616211e-01
1.388000000000000000e+03 7.804035186767578125e+01 1.553395748138427734e+00 1.463720109313726425e-02 7.230144977569580078e+00 2.173434734344482422e+00 -3.458450436592102051e-01
1.389000000000000000e+03 7.671445465087890625e+01 -1.136115670204162598e+00 -9.568589180707931519e-02 7.484000682830810547e+00 2.216494321823120117e+00 -4.574506580829620361e-01
1.390000000000000000e+03 7.723003387451171875e+01 3.486606597900390625e+01 -3.443770483136177063e-02 7.733654499053955078e+00 2.309765100479125977e+00 4.350426793098449707e-02
1.391000000000000000e+03 7.673297882080078125e+01 4.419554233551025391e+00 4.860477894544601440e-02 6.880729198455810547e+00 2.078800201416015625e+00 -4.531446099281311035e-01
1.392000000000000000e+03 7.674623870849609375e+01 -3.898841381072998047e+00 -1.943894028663635254e-01 7.775549411773681641e+00 2.274348020553588867e+00 -2.784534692764282227e-01
1.393000000000000000e+03 7.679828643798828125e+01 -5.261739730834960938e+00 -2.185482978820800781e-01 7.881949424743652344e+00 2.299020290374755859e+00 -1.319393813610076904e-01
1.394000000000000000e+03 7.539337158203125000e+01 -1.268597412109375000e+01 -1.128207221627235413e-01 8.401560783386230469e+00 2.486621856689453125e+00 9.410886764526367188e-01
1.395000000000000000e+03 7.669045257568359375e+01 -1.085354709625244141e+01 -2.350655943155288696e-01 7.984891414642333984e+00 2.324947834014892578e+00 7.101418375968933105e-01
1.396000000000000000e+03 7.707277679443359375e+01 -2.021718978881835938e+01 3.596785068511962891e-01 7.483783721923828125e+00 2.353038549423217773e+00 -6.261240839958190918e-01
1.397000000000000000e+03 7.718152618408203125e+01 -1.891653060913085938e+01 4.469805657863616943e-01 7.275744915008544922e+00 2.316817522048950195e+00 -3.578454852104187012e-01
1.398000000000000000e+03 1.166269874572753906e+01 -1.975541114807128906e+01 1.008884191513061523e+00 3.554147958755493164e+00 1.368909716606140137e+00 9.210551977157592773e-01
1.399000000000000000e+03 1.267523479461669922e+01 -1.866888809204101562e+01 1.129891514778137207e+00 5.143330097198486328e+00 1.881966471672058105e+00 6.812976002693176270e-01
1.400000000000000000e+03 5.479298019409179688e+01 2.535202217102050781e+01 -3.003540039062500000e-01 8.730200529098510742e-01 1.717998087406158447e-01 1.896016448736190796e-01
1.401000000000000000e+03 6.406191253662109375e+01 7.283760070800781250e+00 9.913592338562011719e-01 7.871704578399658203e+00 2.658919095993041992e+00 7.855868935585021973e-01
1.402000000000000000e+03 6.539748382568359375e+01 1.524627494812011719e+01 9.958788156509399414e-01 8.572829246520996094e+00 2.870612621307373047e+00 8.463708311319351196e-02
1.403000000000000000e+03 4.708517074584960938e+01 1.986787605285644531e+01 1.473394185304641724e-01 1.989825844764709473e+00 6.411495804786682129e-01 1.334545612335205078e+00
1.404000000000000000e+03 4.613178634643554688e+01 2.137163162231445312e+01 -2.517642378807067871e-01 2.769531726837158203e+00 7.553302049636840820e-01 1.559193372726440430e+00
1.405000000000000000e+03 4.486183166503906250e+01 1.803854751586914062e+01 8.625435829162597656e-01 2.930969476699829102e+00 1.138053894042968750e+00 1.851661205291748047e+00
1.406000000000000000e+03 4.090163803100585938e+01 1.630349159240722656e+01 6.498088240623474121e-01 6.252891063690185547e+00 2.070810079574584961e+00 1.958634853363037109e+00
1.407000000000000000e+03 1.901550054550170898e+00 2.751551628112792969e+01 -4.927379637956619263e-02 3.384282588958740234e-01 8.674634248018264771e-02 -3.301036357879638672e-01
1.408000000000000000e+03 3.377450227737426758e+00 3.007080459594726562e+01 -1.046499907970428467e-01 7.646788954734802246e-01 1.980086714029312134e-01 -3.567298054695129395e-01
1.409000000000000000e+03 1.919285058975219727e+00 2.614897346496582031e+01 -5.049825087189674377e-02 1.268045753240585327e-01 2.289189584553241730e-02 -3.998705446720123291e-01
1.410000000000000000e+03 3.119848489761352539e+00 2.743572235107421875e+01 -1.170580014586448669e-01 5.219862461090087891e-01 1.214784756302833557e-01 -4.914013743400573730e-01
1.411000000000000000e+03 4.815730094909667969e+00 3.340130615234375000e+01 -1.362900137901306152e-01 1.032466530799865723e+00 2.688529491424560547e-01 -2.445706427097320557e-01
1.412000000000000000e+03 3.575875520706176758e+00 3.149729347229003906e+01 -1.050512790679931641e-01 8.732810616493225098e-01 2.304689288139343262e-01 -2.914080619812011719e-01
1.413000000000000000e+03 3.227575302124023438e+00 2.872595405578613281e+01 -1.134026572108268738e-01 6.480668187141418457e-01 1.603992432355880737e-01 -4.100793600082397461e-01
1.414000000000000000e+03 2.496421098709106445e+00 3.695977020263671875e+01 -1.917034573853015900e-02 1.059044957160949707e+00 3.119623959064483643e-01 -6.703377515077590942e-02
1.415000000000000000e+03 3.549609661102294922e+00 3.405531692504882812e+01 -7.442867755889892578e-02 9.884723424911499023e-01 2.742131054401397705e-01 -1.658072173595428467e-01
1.416000000000000000e+03 6.049335479736328125e+00 2.951859855651855469e+01 -3.119279444217681885e-01 1.106853246688842773e+00 2.384775727987289429e-01 -4.885194599628448486e-01
1.417000000000000000e+03 3.111563682556152344e+00 -3.474751281738281250e+01 -8.745449036359786987e-02 1.083532214164733887e+00 2.988233268260955811e-01 2.642728090286254883e-01
1.418000000000000000e+03 2.598222970962524414e+00 -3.811540603637695312e+01 -4.394153505563735962e-02 1.247029304504394531e+00 3.609263300895690918e-01 1.010645627975463867e-01
1.419000000000000000e+03 2.274301290512084961e+00 -3.050757598876953125e+01 -6.710495799779891968e-02 6.344333291053771973e-01 1.701985150575637817e-01 3.789417147636413574e-01
1.420000000000000000e+03 3.612413167953491211e+00 -2.899263191223144531e+01 -1.294551789760589600e-01 6.371822357177734375e-01 1.523181051015853882e-01 6.246104240417480469e-01
1.421000000000000000e+03 2.069379568099975586e+00 2.192334175109863281e+01 -8.884732611477375031e-03 -6.709970235824584961e-01 -2.039645314216613770e-01 -5.406184792518615723e-01
1.422000000000000000e+03 3.537461280822753906e+00 2.340075492858886719e+01 -8.188857138156890869e-02 1.093320176005363464e-01 8.233033120632171631e-03 -7.653663754463195801e-01
1.423000000000000000e+03 2.653780460357666016e+00 -1.098938083648681641e+01 1.048771962523460388e-01 -1.206358313560485840e+00 -3.304443359375000000e-01 -4.276227653026580811e-01
1.424000000000000000e+03 3.490690231323242188e+00 2.186021041870117188e+01 -4.653963074088096619e-02 -1.109153628349304199e-01 -4.723649844527244568e-02 -8.226363658905029297e-01
1.425000000000000000e+03 3.188125848770141602e+00 1.180754280090332031e+01 3.395574390888214111e-01 -1.325967669486999512e+00 -2.959230840206146240e-01 1.783460080623626709e-01
1.426000000000000000e+03 4.282699584960937500e+00 1.888314437866210938e+01 1.958254426717758179e-01 -2.197633534669876099e-01 -7.181372959166765213e-03 -8.491404652595520020e-01
1.427000000000000000e+03 3.249338388442993164e+00 2.036075592041015625e+01 5.735095590353012085e-02 -4.746142327785491943e-01 -1.251789927482604980e-01 -7.720803618431091309e-01
1.428000000000000000e+03 3.050156116485595703e+00 -1.778624725341796875e+01 2.008155882358551025e-01 -1.064451575279235840e+00 -2.590908110141754150e-01 3.175084590911865234e-01
1.429000000000000000e+03 1.731996893882751465e+00 -1.496788692474365234e+01 8.301807194948196411e-02 -1.916472673416137695e+00 -5.500363707542419434e-01 -2.217110618948936462e-02
1.430000000000000000e+03 3.067940235137939453e+00 -1.919955825805664062e+01 1.643787920475006104e-01 -9.098187685012817383e-01 -2.236319929361343384e-01 4.715167880058288574e-01
1.431000000000000000e+03 6.678360939025878906e+00 -4.007380485534667969e+00 -4.246153235435485840e-01 4.349145293235778809e-02 -1.143371611833572388e-01 -6.684714555740356445e-01
1.432000000000000000e+03 3.151947021484375000e+00 -3.951020956039428711e+00 -1.648740321397781372e-01 -2.745541036128997803e-01 -1.318284422159194946e-01 -5.198614001274108887e-01
1.433000000000000000e+03 2.887200117111206055e+00 7.655601501464843750e+00 1.374218910932540894e-01 -1.133386611938476562e+00 -2.987894415855407715e-01 7.477539777755737305e-01
1.434000000000000000e+03 1.579698562622070312e+00 6.151178836822509766e+00 1.164730405434966087e-03 -1.176984667778015137e+00 -3.527459800243377686e-01 5.370199084281921387e-01
1.435000000000000000e+03 1.923136234283447266e+00 1.481686305999755859e+01 1.037847101688385010e-01 -1.970758438110351562e+00 -5.600921511650085449e-01 -1.765682697296142578e-01
1.436000000000000000e+03 3.165518999099731445e+00 1.619239234924316406e+01 1.863570064306259155e-01 -1.125332951545715332e+00 -2.816928029060363770e-01 -4.430250525474548340e-01
1.437000000000000000e+03 2.443243265151977539e+00 -4.313564777374267578e+00 -9.984598308801651001e-02 -3.935272097587585449e-01 -1.480119526386260986e-01 -4.704841673374176025e-01
1.438000000000000000e+03 2.909882783889770508e+00 9.055438995361328125e+00 1.881812214851379395e-01 -1.331807374954223633e+00 -3.430878221988677979e-01 5.805626511573791504e-01
1.439000000000000000e+03 3.451451778411865234e+00 -2.756214904785156250e+01 -8.644985407590866089e-02 4.295249879360198975e-01 1.029225438833236694e-01 6.868550777435302734e-01
1.440000000000000000e+03 3.073915719985961914e+00 -2.058778762817382812e+01 1.294037997722625732e-01 -7.351619601249694824e-01 -1.817274540662765503e-01 5.760037302970886230e-01
1.441000000000000000e+03 2.690251350402832031e+00 -9.750187873840332031e+00 7.344346493482589722e-02 -1.068307399749755859e+00 -2.984591722488403320e-01 -4.965296089649200439e-01
1.442000000000000000e+03 2.788507223129272461e+00 -8.555274009704589844e+00 5.933145806193351746e-02 -8.894528746604919434e-01 -2.490364164113998413e-01 -5.668183565139770508e-01
1.443000000000000000e+03 4.037220001220703125e+00 -3.785632324218750000e+01 -9.985287487506866455e-02 1.231184720993041992e+00 3.393995463848114014e-01 1.752723604440689087e-01
1.444000000000000000e+03 1.895949482917785645e+00 -2.340494537353515625e+01 1.632625609636306763e-02 -7.572425603866577148e-01 -2.222748845815658569e-01 4.914770424365997314e-01
1.445000000000000000e+03 3.099534988403320312e+00 -2.197290229797363281e+01 8.899266272783279419e-02 -5.221642255783081055e-01 -1.299514621496200562e-01 6.780500411987304688e-01
1.446000000000000000e+03 2.907594203948974609e+00 -1.494286823272705078e+01 2.017954736948013306e-01 -1.275506615638732910e+00 -3.221133351325988770e-01 -2.478296123445034027e-02
1.447000000000000000e+03 3.999670743942260742e+00 -3.197438240051269531e+01 -1.687454730272293091e-01 9.526922702789306641e-01 2.351840436458587646e-01 4.691322743892669678e-01
1.448000000000000000e+03 4.001489639282226562e+00 -3.358423614501953125e+01 -1.423264443874359131e-01 1.040971159934997559e+00 2.695933878421783447e-01 3.740615248680114746e-01
1.449000000000000000e+03 4.429444313049316406e+00 -2.327973747253417969e+01 3.316325321793556213e-02 1.961912512779235840e-01 6.880635023117065430e-02 8.832009434700012207e-01
1.450000000000000000e+03 3.241971969604492188e+00 -2.475577735900878906e+01 -2.056611329317092896e-02 -2.872712537646293640e-02 -1.478797197341918945e-02 7.330681681632995605e-01
1.451000000000000000e+03 2.767608404159545898e+00 -1.358337211608886719e+01 1.989117711782455444e-01 -1.312952995300292969e+00 -3.342123627662658691e-01 -1.963179409503936768e-01
1.452000000000000000e+03 2.999155521392822266e+00 1.041026210784912109e+01 2.641390860080718994e-01 -1.389781594276428223e+00 -3.376927673816680908e-01 4.334507882595062256e-01
1.453000000000000000e+03 5.141575336456298828e+00 1.229703903198242188e+01 6.364955902099609375e-01 -4.459115564823150635e-01 5.717521905899047852e-02 6.325016170740127563e-02
1.454000000000000000e+03 3.260737657546997070e+00 1.329608535766601562e+01 2.963530421257019043e-01 -1.265672802925109863e+00 -2.907959520816802979e-01 -3.596390783786773682e-02
1.455000000000000000e+03 3.147980213165283203e+00 1.894046783447265625e+01 1.082774251699447632e-01 -7.446712255477905273e-01 -1.909181475639343262e-01 -7.064391374588012695e-01
1.456000000000000000e+03 3.901948928833007812e+01 1.062718009948730469e+01 1.774408817291259766e+00 1.209323120117187500e+01 4.160292148590087891e+00 2.604333877563476562e+00
1.457000000000000000e+03 2.536343574523925781e+01 2.460203170776367188e+01 -6.237891912460327148e-01 8.103610277175903320e-01 5.597155541181564331e-02 -8.575598597526550293e-01
1.458000000000000000e+03 6.890489196777343750e+01 -2.604806900024414062e+01 -8.230308890342712402e-01 8.043003082275390625e+00 2.165991783142089844e+00 5.736244916915893555e-01
1.459000000000000000e+03 5.554738235473632812e+01 -1.216183948516845703e+01 -8.974881768226623535e-01 5.626014471054077148e-01 -1.004660204052925110e-01 8.798775076866149902e-01
1.460000000000000000e+03 6.153256225585937500e+01 2.557038068771362305e+00 9.499331712722778320e-01 5.543074607849121094e+00 1.947902321815490723e+00 1.413793444633483887e+00
1.461000000000000000e+03 3.578940200805664062e+01 9.365595817565917969e+00 1.168277740478515625e+00 1.163002109527587891e+01 3.839489698410034180e+00 4.753150790929794312e-02
1.462000000000000000e+03 3.650650787353515625e+01 -1.451880550384521484e+01 1.676182270050048828e+00 1.176293373107910156e+01 4.031734943389892578e+00 -2.583260536193847656e+00
1.463000000000000000e+03 5.524703216552734375e+01 -3.402549743652343750e+01 -2.821420729160308838e-01 2.728984951972961426e-01 -2.773074433207511902e-03 -8.447939157485961914e-01
1.464000000000000000e+03 4.193471908569335938e+01 1.717148399353027344e+01 6.787528395652770996e-01 5.271547794342041016e+00 1.785090208053588867e+00 2.108623504638671875e+00
1.465000000000000000e+03 1.604972457885742188e+01 -2.553007507324218750e+01 -2.797147333621978760e-01 1.788727760314941406e+00 4.527039229869842529e-01 -4.020046889781951904e-01
1.466000000000000000e+03 3.674858856201171875e+01 -2.027094078063964844e+01 1.027853965759277344e+00 1.102443408966064453e+01 3.615686416625976562e+00 -2.008810490369796753e-01
1.467000000000000000e+03 4.185800552368164062e+01 -2.109074783325195312e+01 2.025921583175659180e+00 9.609271049499511719e+00 3.490557670593261719e+00 -1.311555743217468262e+00
1.468000000000000000e+03 5.859985733032226562e+01 -1.564646124839782715e+00 1.714263319969177246e+00 2.996847867965698242e+00 1.413333296775817871e+00 1.720157742500305176e+00
1.469000000000000000e+03 3.676531982421875000e+01 -2.162565994262695312e+01 1.424396276473999023e+00 1.009461498260498047e+01 3.455703496932983398e+00 3.254999518394470215e-01
1.470000000000000000e+03 3.800478363037109375e+01 -1.876899337768554688e+01 1.423440098762512207e+00 1.058033847808837891e+01 3.601133584976196289e+00 -1.298668146133422852e+00
1.471000000000000000e+03 1.839451408386230469e+01 2.507520294189453125e+01 -7.982857823371887207e-01 6.129323840141296387e-01 -5.560601502656936646e-02 5.031413435935974121e-01
1.472000000000000000e+03 2.660841941833496094e+01 2.382133674621582031e+01 -5.456080436706542969e-01 1.378966450691223145e+00 2.500075399875640869e-01 -1.227650642395019531e+00
1.473000000000000000e+03 3.733807754516601562e+01 -2.430122947692871094e+01 1.234277486801147461e+00 8.482632637023925781e+00 2.915073156356811523e+00 2.643321156501770020e-01
1.474000000000000000e+03 1.580131912231445312e+01 -2.782036972045898438e+01 -7.536867856979370117e-01 1.713520407676696777e+00 2.879500985145568848e-01 -1.461413502693176270e-01
1.475000000000000000e+03 3.376566696166992188e+01 1.795618438720703125e+01 5.906780958175659180e-01 6.693242549896240234e+00 2.185176134109497070e+00 -1.144783854484558105e+00
1.476000000000000000e+03 3.685025024414062500e+01 1.097739028930664062e+01 1.147965908050537109e+00 1.110112190246582031e+01 3.674726247787475586e+00 2.425191849470138550e-01
1.477000000000000000e+03 6.444336700439453125e+01 -3.007510948181152344e+01 -1.049069404602050781e+00 2.579160451889038086e+00 4.590273201465606689e-01 8.043987154960632324e-01
1.478000000000000000e+03 6.669459533691406250e+01 1.465250015258789062e+01 9.486957192420959473e-01 8.137653350830078125e+00 2.725904703140258789e+00 1.550772339105606079e-01
1.479000000000000000e+03 6.578689575195312500e+01 1.648219680786132812e+01 8.906790614128112793e-01 8.355198860168457031e+00 2.773763418197631836e+00 1.113083139061927795e-01
1.480000000000000000e+03 1.626439094543457031e+01 4.340299606323242188e+00 6.527735590934753418e-01 1.751240015029907227e+00 7.212041020393371582e-01 -1.454475998878479004e+00
1.481000000000000000e+03 1.912706756591796875e+01 4.753888607025146484e+00 1.882625460624694824e+00 3.477285861968994141e+00 1.607973337173461914e+00 -3.650272369384765625e+00
1.482000000000000000e+03 1.677646446228027344e+01 2.465844917297363281e+01 -9.763031005859375000e-01 1.381569027900695801e+00 1.215797886252403259e-01 6.455743908882141113e-01
1.483000000000000000e+03 3.636460494995117188e+01 6.517742156982421875e+00 1.375129938125610352e+00 1.378002738952636719e+01 4.546547412872314453e+00 1.634036540985107422e+00
1.484000000000000000e+03 3.688517379760742188e+01 8.784517288208007812e+00 1.532939076423645020e+00 1.268301582336425781e+01 4.264786243438720703e+00 9.855834841728210449e-01
1.485000000000000000e+03 3.500323867797851562e+01 3.388809442520141602e+00 2.976886272430419922e+00 1.353551483154296875e+01 4.953720569610595703e+00 2.122023820877075195e+00
1.486000000000000000e+03 3.778379058837890625e+01 3.170845508575439453e+00 1.674539327621459961e+00 1.328739261627197266e+01 4.488579273223876953e+00 -2.077122963964939117e-02
1.487000000000000000e+03 6.561783599853515625e+01 -2.917254638671875000e+01 -1.014812231063842773e+00 3.633029937744140625e+00 7.854653596878051758e-01 9.629588723182678223e-01
1.488000000000000000e+03 1.469733428955078125e+01 8.058218955993652344e+00 2.635455131530761719e+00 3.699996232986450195e+00 1.900635361671447754e+00 -1.738407373428344727e+00
1.489000000000000000e+03 3.748529052734375000e+01 -1.266720199584960938e+01 1.176981329917907715e+00 9.897513389587402344e+00 3.322348356246948242e+00 -1.857815384864807129e+00
1.490000000000000000e+03 6.289994049072265625e+01 4.333364963531494141e+00 9.207019209861755371e-01 6.624232292175292969e+00 2.263480186462402344e+00 1.097656846046447754e+00
1.491000000000000000e+03 4.171917724609375000e+01 1.505212020874023438e+01 1.503203630447387695e+00 5.963458061218261719e+00 2.239998579025268555e+00 2.726400852203369141e+00
1.492000000000000000e+03 6.501296234130859375e+01 8.446889877319335938e+00 9.702104330062866211e-01 8.056605339050292969e+00 2.708044767379760742e+00 5.237902402877807617e-01
1.493000000000000000e+03 6.311547470092773438e+01 9.464747428894042969e+00 8.459997773170471191e-01 9.171004295349121094e+00 3.005101203918457031e+00 1.151704311370849609e+00
1.494000000000000000e+03 5.935250854492187500e+01 -4.045621454715728760e-01 1.473253488540649414e+00 3.530757904052734375e+00 1.501203417778015137e+00 1.774227738380432129e+00
1.495000000000000000e+03 4.898843765258789062e+01 2.272277450561523438e+01 -5.807257890701293945e-01 1.679133176803588867e+00 3.295222222805023193e-01 1.268690586090087891e+00
1.496000000000000000e+03 4.761158370971679688e+01 2.197068595886230469e+01 -4.391541779041290283e-01 2.103225708007812500e+00 4.992214441299438477e-01 1.423546433448791504e+00
1.497000000000000000e+03 3.196871948242187500e+01 -3.142360305786132812e+01 -6.361120939254760742e-01 2.740849256515502930e+00 6.314211487770080566e-01 1.376358389854431152e+00
1.498000000000000000e+03 2.958052825927734375e+01 -3.078448486328125000e+01 -7.925069928169250488e-01 1.037738800048828125e+00 7.356954365968704224e-02 9.385890364646911621e-01
1.499000000000000000e+03 1.413183689117431641e+01 7.122506618499755859e+00 2.146263599395751953e+00 2.666774511337280273e+00 1.443911433219909668e+00 -1.069359660148620605e+00
1.500000000000000000e+03 5.346458435058593750e+01 -3.418103790283203125e+01 -2.001820057630538940e-01 9.171164035797119141e-01 2.150803208351135254e-01 -1.298153996467590332e+00
1.501000000000000000e+03 5.781230163574218750e+01 -2.740453958511352539e+00 1.673578381538391113e+00 2.660720825195312500e+00 1.300289750099182129e+00 1.661096811294555664e+00
1.502000000000000000e+03 3.810350418090820312e+01 -1.734416198730468750e+01 1.596983194351196289e+00 1.059470081329345703e+01 3.657505035400390625e+00 -1.733466386795043945e+00
1.503000000000000000e+03 3.810919952392578125e+01 -1.581539344787597656e+01 1.633561015129089355e+00 1.031873226165771484e+01 3.585688114166259766e+00 -2.014059066772460938e+00
1.504000000000000000e+03 6.940673065185546875e+01 -2.192793846130371094e+01 1.498378634452819824e+00 1.237211799621582031e+01 4.161149024963378906e+00 9.753314256668090820e-01
1.505000000000000000e+03 7.126955413818359375e+01 -1.989086151123046875e+01 1.973436474800109863e+00 1.156806182861328125e+01 4.062449455261230469e+00 -4.575617015361785889e-01
1.506000000000000000e+03 3.321375656127929688e+01 2.067789459228515625e+01 -7.039733976125717163e-02 5.712121963500976562e+00 1.692517280578613281e+00 -7.353451251983642578e-01
1.507000000000000000e+03 3.206700515747070312e+01 1.905993843078613281e+01 8.588684201240539551e-01 5.915314197540283203e+00 2.032254695892333984e+00 -1.493375301361083984e+00
1.508000000000000000e+03 3.345751571655273438e+01 -1.716234564781188965e+00 2.553473711013793945e+00 8.060965538024902344e+00 3.184331655502319336e+00 5.479385256767272949e-01
1.509000000000000000e+03 2.695109176635742188e+01 -3.322533798217773438e+01 -5.571904778480529785e-01 5.328997373580932617e-01 -7.287209853529930115e-03 5.384073853492736816e-01
1.510000000000000000e+03 6.460269927978515625e+01 1.246454620361328125e+01 7.783566713333129883e-01 9.226255416870117188e+00 3.001383543014526367e+00 3.330112397670745850e-01
1.511000000000000000e+03 6.502763366699218750e+01 1.391125583648681641e+01 9.144778847694396973e-01 8.952136039733886719e+00 2.959984302520751953e+00 4.309277236461639404e-02
1.512000000000000000e+03 3.804244995117187500e+01 7.918541908264160156e+00 2.075659036636352539e+00 1.414100646972656250e+01 4.864999771118164062e+00 2.242096900939941406e+00
1.513000000000000000e+03 1.159926509857177734e+01 -1.502259826660156250e+01 1.674879074096679688e+00 3.406976699829101562e+00 1.524556756019592285e+00 6.581924557685852051e-01
1.514000000000000000e+03 7.443457031250000000e+01 -1.601441955566406250e+01 1.139893293380737305e+00 8.939490318298339844e+00 3.023815155029296875e+00 4.426559507846832275e-01
1.515000000000000000e+03 7.019510650634765625e+01 -1.922688865661621094e+01 1.645358324050903320e+00 1.446476554870605469e+01 4.833037376403808594e+00 -3.738032281398773193e-01
1.516000000000000000e+03 3.543182373046875000e+01 1.244497585296630859e+01 7.878048419952392578e-01 9.681889533996582031e+00 3.140908241271972656e+00 -8.294565081596374512e-01
1.517000000000000000e+03 7.049683380126953125e+01 -1.452858829498291016e+01 9.961526393890380859e-01 1.091341018676757812e+01 3.572869062423706055e+00 1.287853270769119263e-01
1.518000000000000000e+03 4.793061447143554688e+01 -6.200021266937255859e+00 -1.369617581367492676e+00 -2.742825150489807129e-01 -4.931700229644775391e-01 1.279826760292053223e+00
1.519000000000000000e+03 4.900535202026367188e+01 -1.287858104705810547e+01 1.051696658134460449e+00 1.674856424331665039e+00 8.179659247398376465e-01 1.930454373359680176e+00
1.520000000000000000e+03 2.950916671752929688e+01 2.265774154663085938e+01 -5.271768569946289062e-01 3.447507858276367188e+00 8.760992884635925293e-01 -1.285577535629272461e+00
1.521000000000000000e+03 5.397012329101562500e+01 -5.417532920837402344e+00 1.251851439476013184e+00 2.167193174362182617e+00 1.025713443756103516e+00 1.797395348548889160e+00
1.522000000000000000e+03 5.621807861328125000e+01 -5.182131767272949219e+00 1.218960046768188477e+00 2.109314918518066406e+00 9.984824657440185547e-01 1.564694046974182129e+00
1.523000000000000000e+03 2.114411163330078125e+01 -2.827341794967651367e+00 7.906289100646972656e-01 3.307726621627807617e+00 1.229506611824035645e+00 2.218133211135864258e+00
1.524000000000000000e+03 2.390288734436035156e+01 -4.464275360107421875e+00 9.389270544052124023e-01 2.135912895202636719e+00 9.224520325660705566e-01 9.727184176445007324e-01
1.525000000000000000e+03 1.696072769165039062e+01 -2.916053771972656250e+01 -8.324735164642333984e-01 1.321695446968078613e+00 1.467665731906890869e-01 -1.751039773225784302e-01
1.526000000000000000e+03 2.885890388488769531e+01 -3.313629531860351562e+01 -6.146872043609619141e-01 1.194055795669555664e+00 1.738105714321136475e-01 9.423182606697082520e-01
1.527000000000000000e+03 2.423515892028808594e+01 -3.531624221801757812e+01 -3.319570124149322510e-01 3.827481269836425781e-01 1.523733325302600861e-02 1.306164115667343140e-01
1.528000000000000000e+03 2.402560997009277344e+01 -3.322969818115234375e+01 -6.572563052177429199e-01 5.642296001315116882e-02 -1.802499890327453613e-01 3.847246989607810974e-02
1.529000000000000000e+03 5.948061752319335938e+01 -3.380060958862304688e+01 -2.356130480766296387e-01 4.055193066596984863e-01 5.097188055515289307e-02 9.746865928173065186e-02
1.530000000000000000e+03 6.165034103393554688e+01 -3.459363937377929688e+01 -9.842885658144950867e-03 1.333387851715087891e+00 3.970634937286376953e-01 4.133139848709106445e-01
1.531000000000000000e+03 3.757263565063476562e+01 -1.123710823059082031e+01 3.714162111282348633e-01 9.622216224670410156e+00 2.998089790344238281e+00 -1.586174488067626953e+00
1.532000000000000000e+03 7.017718505859375000e+01 -2.391263771057128906e+01 -2.979200705885887146e-02 1.012672328948974609e+01 3.029079198837280273e+00 -1.084100455045700073e-01
1.533000000000000000e+03 4.535160064697265625e+01 -1.408642196655273438e+01 1.235960245132446289e+00 5.206084251403808594e+00 1.932613372802734375e+00 8.666030168533325195e-01
1.534000000000000000e+03 4.382519531250000000e+01 -1.756041717529296875e+01 1.767564296722412109e+00 8.790384292602539062e+00 3.167384624481201172e+00 -1.270354241132736206e-01
1.535000000000000000e+03 3.112306022644042969e+01 -6.264493942260742188e+00 -9.659466743469238281e-01 3.039491415023803711e+00 6.220634579658508301e-01 -1.880300998687744141e+00
1.536000000000000000e+03 3.814439773559570312e+01 -2.253101921081542969e+01 1.573347926139831543e+00 9.286863327026367188e+00 3.258063554763793945e+00 -3.172732293605804443e-01
1.537000000000000000e+03 4.054682159423828125e+01 -2.275805282592773438e+01 1.945187330245971680e+00 9.247004508972167969e+00 3.357657432556152344e+00 -1.062631607055664062e+00
1.538000000000000000e+03 3.566424179077148438e+01 -7.415288448333740234e+00 -1.951539278030395508e+00 9.417823791503906250e+00 2.239885330200195312e+00 -1.864105105400085449e+00
1.539000000000000000e+03 6.402657318115234375e+01 2.017393684387207031e+01 2.333585321903228760e-01 7.423123836517333984e+00 2.296944618225097656e+00 4.528218880295753479e-02
1.540000000000000000e+03 3.471842956542968750e+01 -8.210865020751953125e+00 -1.901397705078125000e+00 8.990914344787597656e+00 2.126854896545410156e+00 -1.971235513687133789e+00
1.541000000000000000e+03 6.679292297363281250e+01 -1.028694534301757812e+01 -1.527810096740722656e+00 5.165531635284423828e+00 1.091316461563110352e+00 -2.630576848983764648e+00
1.542000000000000000e+03 6.717583465576171875e+01 -1.216192817687988281e+01 -1.580918431282043457e+00 6.407065868377685547e+00 1.447844266891479492e+00 -2.596047163009643555e+00
1.543000000000000000e+03 6.306214141845703125e+01 -1.029698944091796875e+01 -1.189224600791931152e+00 2.665739357471466064e-01 -2.767952084541320801e-01 -7.984617948532104492e-01
1.544000000000000000e+03 2.729441642761230469e+01 -6.454352855682373047e+00 -9.572287201881408691e-01 1.164552494883537292e-01 -2.522320449352264404e-01 7.417652010917663574e-01
1.545000000000000000e+03 2.855241584777832031e+01 -6.645442485809326172e+00 -8.572832345962524414e-01 -4.349477887153625488e-01 -3.876693248748779297e-01 1.840765625238418579e-01
1.546000000000000000e+03 4.951264572143554688e+01 -3.360657119750976562e+01 -5.248932838439941406e-01 3.507264375686645508e+00 8.947113156318664551e-01 -2.078579425811767578e+00
1.547000000000000000e+03 3.791342926025390625e+01 1.097213935852050781e+01 1.529683589935302734e+00 1.121228313446044922e+01 3.822590112686157227e+00 1.183497190475463867e+00
1.548000000000000000e+03 3.568422317504882812e+01 1.083089256286621094e+01 9.314940571784973145e-01 1.076971149444580078e+01 3.510361671447753906e+00 -4.490810930728912354e-01
1.549000000000000000e+03 5.309521484375000000e+01 -1.225378608703613281e+01 -1.241594403982162476e-01 5.962954759597778320e-01 1.416408121585845947e-01 1.464258909225463867e+00
1.550000000000000000e+03 5.061782836914062500e+01 -1.192635059356689453e+01 6.516008973121643066e-01 9.948052763938903809e-01 4.939218461513519287e-01 2.008571386337280273e+00
1.551000000000000000e+03 1.348740863800048828e+01 1.272190666198730469e+01 1.984624147415161133e+00 6.006056785583496094e+00 2.397204399108886719e+00 -1.866228342056274414e+00
1.552000000000000000e+03 1.288090133666992188e+01 1.067547607421875000e+01 2.573015451431274414e+00 4.242469310760498047e+00 2.044645309448242188e+00 -1.499940633773803711e+00
1.553000000000000000e+03 6.251434326171875000e+01 -3.253454208374023438e+01 -6.260874271392822266e-01 1.479378581047058105e+00 2.559873461723327637e-01 6.093214154243469238e-01
1.554000000000000000e+03 6.344638061523437500e+01 -3.103334999084472656e+01 -1.006450533866882324e+00 1.843918085098266602e+00 2.512402534484863281e-01 6.889339089393615723e-01
1.555000000000000000e+03 1.447899818420410156e+01 -2.990658187866210938e+01 -8.340574502944946289e-01 1.725181221961975098e+00 2.673371136188507080e-01 2.888508327305316925e-02
1.556000000000000000e+03 6.968807220458984375e+01 -1.091829681396484375e+01 -1.593395709991455078e+00 8.993654251098632812e+00 2.220077753067016602e+00 -1.195912957191467285e+00
1.557000000000000000e+03 1.738155746459960938e+01 -9.832324981689453125e+00 7.247500419616699219e-01 2.931988716125488281e+00 1.097021579742431641e+00 2.114475011825561523e+00
1.558000000000000000e+03 6.454944610595703125e+01 5.330137252807617188e+00 8.654629588127136230e-01 7.052776336669921875e+00 2.375471830368041992e+00 4.754877090454101562e-01
1.559000000000000000e+03 4.166191101074218750e+01 -5.433685302734375000e+00 -1.910542964935302734e+00 5.310172557830810547e+00 1.019888877868652344e+00 -1.919142723083496094e+00
1.560000000000000000e+03 4.296016311645507812e+01 -6.839461803436279297e+00 -1.124906420707702637e+00 3.899491548538208008e+00 8.323755860328674316e-01 -1.203981280326843262e+00
1.561000000000000000e+03 6.249619674682617188e+01 2.410962867736816406e+01 -1.234291315078735352e+00 5.808165073394775391e+00 1.372162103652954102e+00 -1.047143578529357910e+00
1.562000000000000000e+03 6.189607620239257812e+01 2.547803688049316406e+01 -9.203499555587768555e-01 4.811511516571044922e+00 1.167348504066467285e+00 -1.292693257331848145e+00
1.563000000000000000e+03 2.385290336608886719e+01 2.521700668334960938e+01 -6.516956686973571777e-01 4.741489291191101074e-01 -5.326401814818382263e-02 -5.945693254470825195e-01
1.564000000000000000e+03 2.209621047973632812e+01 2.564421844482421875e+01 -6.369869709014892578e-01 2.676565647125244141e-01 -1.107991263270378113e-01 -2.273044139146804810e-01
1.565000000000000000e+03 2.450189590454101562e+01 -4.412764012813568115e-01 5.756474494934082031e+00 1.081100344657897949e+00 2.051272392272949219e+00 -2.309756278991699219e+00
1.566000000000000000e+03 2.501757621765136719e+01 -1.165086507797241211e+00 4.976715087890625000e+00 7.427741289138793945e-01 1.715846776962280273e+00 -1.534153461456298828e+00
1.567000000000000000e+03 5.184972000122070312e+01 -1.223461818695068359e+01 3.082315921783447266e-01 7.007689476013183594e-01 3.027001619338989258e-01 1.772199153900146484e+00
1.568000000000000000e+03 5.172830200195312500e+01 -7.050371646881103516e+00 4.898856207728385925e-02 1.524556994438171387e+00 4.720636606216430664e-01 2.401699781417846680e+00
1.569000000000000000e+03 3.976877212524414062e+01 -3.016501665115356445e+00 -8.089100122451782227e-01 8.978717803955078125e+00 2.450942516326904297e+00 -1.949216246604919434e+00
1.570000000000000000e+03 4.044968032836914062e+01 -5.589574813842773438e+00 -1.747302174568176270e+00 7.042894363403320312e+00 1.588677644729614258e+00 -2.105211973190307617e+00
1.571000000000000000e+03 4.222539901733398438e+01 -2.461129379272460938e+01 2.185326337814331055e+00 9.506251335144042969e+00 3.507473468780517578e+00 -1.324815034866333008e+00
1.572000000000000000e+03 4.256485366821289062e+01 -1.795477104187011719e+01 1.982875466346740723e+00 8.783403396606445312e+00 3.229883670806884766e+00 -7.583360075950622559e-01
1.573000000000000000e+03 4.318710708618164062e+01 -2.086825180053710938e+01 1.906640768051147461e+00 1.004524135589599609e+01 3.585564613342285156e+00 -9.629921317100524902e-01
1.574000000000000000e+03 3.752178573608398438e+01 -2.571310234069824219e+01 1.008782267570495605e+00 7.723471641540527344e+00 2.619676113128662109e+00 4.043971896171569824e-01
1.575000000000000000e+03 2.532628440856933594e+01 -3.297924804687500000e+01 -7.675884962081909180e-01 1.716655939817428589e-01 -1.787768751382827759e-01 1.852470189332962036e-01
1.576000000000000000e+03 4.534617233276367188e+01 -5.708234786987304688e+00 -1.884115219116210938e+00 5.194293260574340820e-01 -4.094057381153106689e-01 3.117385506629943848e-01
1.577000000000000000e+03 3.415153121948242188e+01 -7.185991287231445312e+00 -1.987390398979187012e+00 8.194709777832031250e+00 1.862195730209350586e+00 -2.241769552230834961e+00
1.578000000000000000e+03 7.051444244384765625e+01 -2.240245437622070312e+01 8.307791948318481445e-01 1.108503532409667969e+01 3.574744224548339844e+00 -2.644011378288269043e-01
1.579000000000000000e+03 7.247569274902343750e+01 -1.577122497558593750e+01 1.569978713989257812e+00 1.049453353881835938e+01 3.619353532791137695e+00 3.718334436416625977e-01
1.580000000000000000e+03 1.526888370513916016e+01 2.438534355163574219e+01 -1.065232634544372559e+00 2.049004793167114258e+00 2.951316535472869873e-01 4.506058096885681152e-01
1.581000000000000000e+03 1.372970962524414062e+01 2.265530586242675781e+01 -1.045015692710876465e+00 3.323247432708740234e+00 6.834695339202880859e-01 -2.379040606319904327e-02
1.582000000000000000e+03 3.910994720458984375e+01 -4.554620742797851562e+00 -1.579690814018249512e+00 8.798247337341308594e+00 2.165566921234130859e+00 -1.780694246292114258e+00
1.583000000000000000e+03 6.538416290283203125e+01 1.945538902282714844e+01 5.908068418502807617e-01 7.895570755004882812e+00 2.545913219451904297e+00 2.010820955038070679e-01
1.584000000000000000e+03 1.524217700958251953e+01 -9.331014633178710938e+00 4.613322913646697998e-01 2.971215963363647461e+00 1.029764413833618164e+00 1.322984695434570312e+00
1.585000000000000000e+03 4.413354873657226562e+01 -1.445630836486816406e+01 1.238497376441955566e+00 6.459186553955078125e+00 2.309305191040039062e+00 2.637829780578613281e-01
1.586000000000000000e+03 4.324747085571289062e+01 -1.619966506958007812e+01 1.684710383415222168e+00 7.977737426757812500e+00 2.898734331130981445e+00 -3.362499177455902100e-01
1.587000000000000000e+03 1.334868049621582031e+01 -2.204119110107421875e+01 3.373527526855468750e-01 4.127744197845458984e+00 1.339529037475585938e+00 4.063581228256225586e-01
1.588000000000000000e+03 3.412461471557617188e+01 -2.960429573059082031e+01 -4.466948211193084717e-01 4.571954250335693359e+00 1.237577915191650391e+00 1.430658340454101562e+00
1.589000000000000000e+03 6.119914627075195312e+01 2.324692344665527344e+01 -1.030037879943847656e+00 4.682694911956787109e+00 1.095797181129455566e+00 -1.803273558616638184e+00
1.590000000000000000e+03 5.607394027709960938e+01 2.622364044189453125e+01 -7.256273180246353149e-02 1.199485778808593750e+00 3.380769193172454834e-01 -2.313168942928314209e-01
1.591000000000000000e+03 3.291919708251953125e+01 -4.316008567810058594e+00 2.558865547180175781e-01 6.673758029937744141e+00 2.078893423080444336e+00 -1.121239781379699707e+00
1.592000000000000000e+03 3.303849029541015625e+01 2.225865936279296875e+01 -5.097236037254333496e-01 5.167298316955566406e+00 1.397272467613220215e+00 -5.627359747886657715e-01
1.593000000000000000e+03 3.615224075317382812e+01 2.591812324523925781e+01 -1.076068758964538574e+00 4.658096790313720703e+00 1.074608325958251953e+00 2.011890709400177002e-01
1.594000000000000000e+03 2.989722633361816406e+01 -6.671940326690673828e+00 -1.122265100479125977e+00 8.232696056365966797e-01 -8.969866484403610229e-02 -1.181388974189758301e+00
1.595000000000000000e+03 1.184246158599853516e+01 2.170328903198242188e+01 -5.190800428390502930e-01 3.067366361618041992e+00 7.644858956336975098e-01 -7.658953666687011719e-01
1.596000000000000000e+03 1.115220928192138672e+01 2.066105461120605469e+01 -1.842591166496276855e-01 3.121370553970336914e+00 8.811334371566772461e-01 -1.058094739913940430e+00
1.597000000000000000e+03 1.209475040435791016e+01 -1.181818962097167969e+01 1.289601683616638184e+00 2.879248142242431641e+00 1.250654935836791992e+00 3.287081718444824219e-01
1.598000000000000000e+03 1.340707015991210938e+01 -1.379345035552978516e+01 1.882612228393554688e+00 4.360890865325927734e+00 1.873050928115844727e+00 9.683358669281005859e-01
1.599000000000000000e+03 6.315056991577148438e+01 2.295789718627929688e+01 -1.061235308647155762e+00 6.297297954559326172e+00 1.570818901062011719e+00 -6.624309420585632324e-01
1.600000000000000000e+03 5.832524871826171875e+01 2.539896583557128906e+01 -3.117060363292694092e-01 1.858793616294860840e+00 4.641262590885162354e-01 -9.970841407775878906e-01
1.601000000000000000e+03 8.616605758666992188e+00 -3.837351226806640625e+01 -2.782261967658996582e-01 1.180659890174865723e+00 2.707301080226898193e-01 1.558212488889694214e-01
1.602000000000000000e+03 4.909625530242919922e+00 4.036083984375000000e+01 -5.161931738257408142e-02 1.108959078788757324e+00 3.172019422054290771e-01 -3.622426465153694153e-02
1.603000000000000000e+03 2.042350387573242188e+01 -2.012244462966918945e+00 1.204695701599121094e+00 2.526640653610229492e+00 1.119400858879089355e+00 2.447604656219482422e+00
1.604000000000000000e+03 2.017989921569824219e+01 2.603908061981201172e+00 1.145711779594421387e+00 2.430109977722167969e+00 1.072746515274047852e+00 -4.898330211639404297e+00
1.605000000000000000e+03 2.098614883422851562e+01 2.865406274795532227e+00 3.907441198825836182e-01 4.792611598968505859e+00 1.555006742477416992e+00 -5.449748992919921875e+00
1.606000000000000000e+03 2.090838241577148438e+01 -1.418550848960876465e+00 1.606483340263366699e+00 3.476996898651123047e+00 1.525044083595275879e+00 2.565639972686767578e+00
1.607000000000000000e+03 1.899429893493652344e+01 3.100068330764770508e+00 5.730679631233215332e-01 1.783395767211914062e+00 7.069391012191772461e-01 -3.171424627304077148e+00
1.608000000000000000e+03 1.734430122375488281e+01 -3.199364423751831055e+00 1.937289685010910034e-01 8.866037726402282715e-01 3.240998089313507080e-01 1.627746343612670898e+00
1.609000000000000000e+03 1.842796897888183594e+01 3.339183330535888672e+00 5.848987102508544922e-01 1.644791007041931152e+00 6.689069271087646484e-01 -2.863238811492919922e+00
1.610000000000000000e+03 1.830908393859863281e+01 2.700323104858398438e+00 -2.370323687791824341e-01 1.135518074035644531e+00 2.695457041263580322e-01 -2.298697471618652344e+00
1.611000000000000000e+03 1.838784790039062500e+01 -2.470912694931030273e+00 5.817300081253051758e-01 9.346847534179687500e-01 4.549244344234466553e-01 1.771238565444946289e+00
1.612000000000000000e+03 1.670725250244140625e+01 -3.301386833190917969e+00 3.179307654500007629e-02 8.155034780502319336e-01 2.541889548301696777e-01 1.421366453170776367e+00
1.613000000000000000e+03 1.694228935241699219e+01 5.662110805511474609e+00 2.155755281448364258e+00 3.089086294174194336e+00 1.573452472686767578e+00 -2.385198354721069336e+00
1.614000000000000000e+03 1.434454917907714844e+01 5.911372661590576172e+00 1.408237814903259277e+00 2.001104831695556641e+00 1.022802829742431641e+00 -7.800357341766357422e-01
1.615000000000000000e+03 1.484425640106201172e+01 3.314028739929199219e+00 -8.717878460884094238e-01 8.827500939369201660e-01 3.288658801466226578e-03 -2.993390262126922607e-01
1.616000000000000000e+03 8.216741561889648438e+00 -4.755429267883300781e+00 -3.654941618442535400e-01 2.516390681266784668e-01 -3.415652737021446228e-02 -6.073623895645141602e-01
1.617000000000000000e+03 1.279250144958496094e+01 4.171049594879150391e+00 -3.713031411170959473e-01 7.771514058113098145e-01 1.217544823884963989e-01 3.231146335601806641e-01
1.618000000000000000e+03 7.361065387725830078e+00 -4.009080886840820312e+00 -4.676800370216369629e-01 1.019665822386741638e-01 -1.097140386700630188e-01 -6.382498741149902344e-01
1.619000000000000000e+03 3.593625307083129883e+00 -4.726531028747558594e+00 -1.431233882904052734e-01 -3.205294013023376465e-01 -1.390958428382873535e-01 -6.087315082550048828e-01
1.620000000000000000e+03 7.194323062896728516e+00 -3.291466951370239258e+00 -5.932328104972839355e-01 6.261955946683883667e-02 -1.591839790344238281e-01 -5.969003438949584961e-01
1.621000000000000000e+03 6.844575405120849609e+00 -4.730605125427246094e+00 -3.159241676330566406e-01 7.929813116788864136e-02 -7.098781317472457886e-02 -7.020443081855773926e-01
1.622000000000000000e+03 4.542802333831787109e+00 -6.390932559967041016e+00 -5.137838795781135559e-02 -2.952241003513336182e-01 -1.039807423949241638e-01 -7.363587021827697754e-01
1.623000000000000000e+03 1.078756046295166016e+01 -3.285704374313354492e+00 -7.834494709968566895e-01 3.018469214439392090e-01 -1.444807648658752441e-01 -2.123025208711624146e-01
1.624000000000000000e+03 1.200258922576904297e+01 3.400561332702636719e+00 -1.097972154617309570e+00 4.506390392780303955e-01 -1.941999495029449463e-01 5.955895185470581055e-01
1.625000000000000000e+03 1.773865509033203125e+01 3.451954126358032227e+00 3.053388893604278564e-01 1.736222147941589355e+00 6.124683022499084473e-01 -2.286677598953247070e+00
1.626000000000000000e+03 1.708354949951171875e+01 4.291345119476318359e+00 8.785453438758850098e-01 2.232461690902709961e+00 9.333021044731140137e-01 -1.994568347930908203e+00
1.627000000000000000e+03 1.074816036224365234e+01 4.964928150177001953e+00 -2.498755417764186859e-02 5.550171136856079102e-01 1.590088605880737305e-01 7.813249826431274414e-01
1.628000000000000000e+03 1.466652297973632812e+01 3.876814603805541992e+00 -3.369509577751159668e-01 1.048591613769531250e+00 2.134922146797180176e-01 -3.200316429138183594e-01
1.629000000000000000e+03 1.491391849517822266e+01 6.613867282867431641e+00 2.009964942932128906e+00 2.736466407775878906e+00 1.423929333686828613e+00 -1.314794898033142090e+00
1.630000000000000000e+03 1.058651542663574219e+01 4.182723522186279297e+00 -5.379619598388671875e-01 3.732290267944335938e-01 -4.941987618803977966e-02 8.528699278831481934e-01
1.631000000000000000e+03 1.022907066345214844e+01 -4.031986713409423828e+00 -5.747474431991577148e-01 3.924457430839538574e-01 -5.469051375985145569e-02 -3.140408694744110107e-01
1.632000000000000000e+03 1.096970176696777344e+01 -4.020888805389404297e+00 -5.727535486221313477e-01 4.625332057476043701e-01 -3.306609392166137695e-02 -1.728527545928955078e-01
1.633000000000000000e+03 1.373989105224609375e+01 -3.086628913879394531e+00 -6.572408676147460938e-01 4.514748454093933105e-01 -6.172980740666389465e-02 4.331852793693542480e-01
1.634000000000000000e+03 1.170996570587158203e+01 -3.988167285919189453e+00 -5.652326941490173340e-01 5.157416462898254395e-01 -1.484732236713171005e-02 -8.667132817208766937e-03
1.635000000000000000e+03 1.244520759582519531e+01 -3.925996303558349609e+00 -5.397049188613891602e-01 5.750670433044433594e-01 1.060863770544528961e-02 1.659284234046936035e-01
1.636000000000000000e+03 1.317403602600097656e+01 -3.840756416320800781e+00 -5.133197307586669922e-01 6.165171265602111816e-01 3.095922246575355530e-02 3.584850728511810303e-01
1.637000000000000000e+03 1.616748046875000000e+01 -4.012900352478027344e+00 -2.980567514896392822e-02 9.875347614288330078e-01 2.873187363147735596e-01 1.389050960540771484e+00
1.638000000000000000e+03 1.390240669250488281e+01 -3.742013216018676758e+00 -4.558732509613037109e-01 6.712066531181335449e-01 6.460001319646835327e-02 5.690828561782836914e-01
1.639000000000000000e+03 1.462519741058349609e+01 -3.634253263473510742e+00 -3.759413063526153564e-01 6.875076293945312500e-01 9.346989542245864868e-02 7.885426878929138184e-01
1.640000000000000000e+03 1.755079460144042969e+01 4.907274723052978516e+00 1.744977593421936035e+00 2.751679420471191406e+00 1.348997116088867188e+00 -2.654443025588989258e+00
1.641000000000000000e+03 8.098392486572265625e+00 3.527236461639404297e+00 -8.293783664703369141e-01 4.130267724394798279e-02 -2.364227175712585449e-01 1.083656787872314453e+00
1.642000000000000000e+03 6.796633720397949219e+00 6.680469036102294922e+00 3.858605921268463135e-01 -8.534508198499679565e-02 9.015464782714843750e-02 1.041815400123596191e+00
1.643000000000000000e+03 8.202093124389648438e+00 4.340548992156982422e+00 -4.236227869987487793e-01 8.275969326496124268e-02 -1.022589281201362610e-01 1.136269450187683105e+00
1.644000000000000000e+03 4.903624057769775391e+00 6.849566936492919922e+00 2.240214198827743530e-01 -5.342097878456115723e-01 -9.305650740861892700e-02 1.009997725486755371e+00
1.645000000000000000e+03 4.806931972503662109e+00 3.900520324707031250e+00 -3.637826442718505859e-01 -2.953967154026031494e-01 -1.977538019418716431e-01 1.000547289848327637e+00
1.646000000000000000e+03 3.324292182922363281e+00 5.372079849243164062e+00 -3.314009308815002441e-02 -6.632578372955322266e-01 -2.089193761348724365e-01 8.996437788009643555e-01
1.647000000000000000e+03 4.571012020111083984e+00 6.037133693695068359e+00 3.587810322642326355e-02 -5.562583804130554199e-01 -1.561140865087509155e-01 1.036887288093566895e+00
1.648000000000000000e+03 2.220687675476074219e+01 -1.560725569725036621e+00 1.227446556091308594e+00 5.789949893951416016e+00 2.105218887329101562e+00 9.932451248168945312e-01
1.649000000000000000e+03 9.815695762634277344e+00 4.251554489135742188e+00 -5.096174478530883789e-01 2.949150800704956055e-01 -6.441071629524230957e-02 9.806421399116516113e-01
1.650000000000000000e+03 9.014037132263183594e+00 4.302158355712890625e+00 -4.675240814685821533e-01 1.925414204597473145e-01 -8.249480277299880981e-02 1.072735548019409180e+00
1.651000000000000000e+03 2.358757591247558594e+01 -1.836801528930664062e+00 2.594908237457275391e+00 3.627303600311279297e+00 1.866663575172424316e+00 -1.189441442489624023e+00
1.652000000000000000e+03 5.702391052246093750e+01 -6.982658863067626953e+00 4.900570809841156006e-01 1.731842398643493652e+00 6.665698289871215820e-01 1.297149896621704102e+00
1.653000000000000000e+03 1.938882637023925781e+01 3.604136228561401367e+00 1.101373076438903809e+00 2.932075738906860352e+00 1.210034608840942383e+00 -4.032298564910888672e+00
1.654000000000000000e+03 2.321357154846191406e+01 -7.856642723083496094e+00 -5.513324141502380371e-01 1.223353505134582520e+00 2.016063183546066284e-01 1.156457424163818359e+00
1.655000000000000000e+03 2.439562797546386719e+01 -7.391505241394042969e+00 -8.303244113922119141e-01 9.801762700080871582e-01 4.495554789900779724e-02 8.873843550682067871e-01
1.656000000000000000e+03 4.014744186401367188e+01 1.753943443298339844e+01 2.402796745300292969e-01 6.222948551177978516e+00 1.938968539237976074e+00 1.426788926124572754e+00
1.657000000000000000e+03 2.834210014343261719e+01 -2.129458189010620117e+00 5.162425994873046875e+00 8.720679283142089844e-01 1.810348153114318848e+00 5.406653881072998047e-01
1.658000000000000000e+03 1.230037498474121094e+01 1.440792751312255859e+01 1.498782396316528320e+00 4.959802150726318359e+00 1.937575459480285645e+00 -1.305433750152587891e+00
1.659000000000000000e+03 2.140593910217285156e+01 -8.353913307189941406e+00 -9.000932425260543823e-02 1.447827577590942383e+00 4.073454439640045166e-01 1.688132882118225098e+00
1.660000000000000000e+03 1.227228927612304688e+01 -2.121268272399902344e+01 6.308025717735290527e-01 3.848649978637695312e+00 1.343835830688476562e+00 6.748195290565490723e-01
1.661000000000000000e+03 1.327998542785644531e+01 -2.407316780090332031e+01 -2.817532122135162354e-01 3.147053241729736328e+00 8.595899939537048340e-01 3.833391368389129639e-01
1.662000000000000000e+03 1.866530227661132812e+01 4.054251670837402344e+00 1.133832573890686035e+00 2.595813274383544922e+00 1.118893742561340332e+00 -3.251835823059082031e+00
1.663000000000000000e+03 2.160286712646484375e+01 -9.223015785217285156e+00 -1.380083858966827393e-01 1.030398726463317871e+00 2.677171230316162109e-01 1.301079988479614258e+00
1.664000000000000000e+03 1.953780364990234375e+01 -9.424118041992187500e+00 5.440735816955566406e-01 1.649604201316833496e+00 6.581033468246459961e-01 2.063340425491333008e+00
1.665000000000000000e+03 4.592061614990234375e+01 1.901514434814453125e+01 5.038103461265563965e-01 2.446695327758789062e+00 8.851516842842102051e-01 1.553999423980712891e+00
1.666000000000000000e+03 2.231606483459472656e+01 -8.037034988403320312e+00 -5.138577222824096680e-01 1.448856592178344727e+00 2.804996371269226074e-01 1.452499985694885254e+00
1.667000000000000000e+03 1.530865478515625000e+01 -1.151610851287841797e+01 1.760700821876525879e+00 3.843263864517211914e+00 1.681189417839050293e+00 1.548481583595275879e+00
1.668000000000000000e+03 1.394231891632080078e+01 -1.067858219146728516e+01 1.001942276954650879e+00 3.276540517807006836e+00 1.283544898033142090e+00 8.047332167625427246e-01
1.669000000000000000e+03 4.423239898681640625e+01 -8.185023307800292969e+00 -3.101750016212463379e-01 3.058339595794677734e+00 8.244493603706359863e-01 -3.736702203750610352e-01
1.670000000000000000e+03 1.163625621795654297e+01 -1.892950439453125000e+01 1.272499084472656250e+00 3.629383325576782227e+00 1.470564723014831543e+00 7.520878911018371582e-01
1.671000000000000000e+03 1.136812686920166016e+01 1.589752101898193359e+01 1.150902271270751953e+00 4.015704631805419922e+00 1.549982070922851562e+00 -9.505906701087951660e-01
1.672000000000000000e+03 7.731977462768554688e+00 9.572376251220703125e+00 1.146094202995300293e+00 4.044971168041229248e-01 4.651774168014526367e-01 4.667639136314392090e-01
1.673000000000000000e+03 5.534034347534179688e+01 -1.009502029418945312e+01 -3.575252294540405273e-01 1.097156167030334473e+00 2.218892872333526611e-01 1.421128511428833008e+00
1.674000000000000000e+03 2.846020317077636719e+01 -5.413663387298583984e+00 8.629524111747741699e-01 5.605032444000244141e-01 4.270366728305816650e-01 -8.407882414758205414e-03
1.675000000000000000e+03 2.832242774963378906e+01 -3.207357883453369141e+00 3.536223649978637695e+00 1.214184403419494629e+00 1.425122380256652832e+00 3.552044928073883057e-01
1.676000000000000000e+03 1.582580566406250000e+01 -1.011739540100097656e+01 8.422603607177734375e-01 3.229613304138183594e+00 1.221562147140502930e+00 1.674981713294982910e+00
1.677000000000000000e+03 3.805084609985351562e+01 1.221781921386718750e+01 1.067847967147827148e+00 1.035860824584960938e+01 3.427937030792236328e+00 1.081906199455261230e+00
1.678000000000000000e+03 7.542688751220703125e+01 1.427871036529541016e+01 2.218309193849563599e-01 6.654729366302490234e+00 2.062968015670776367e+00 1.845970302820205688e-01
1.679000000000000000e+03 7.548541259765625000e+01 3.514584600925445557e-01 -6.565798074007034302e-02 7.228135108947753906e+00 2.148743152618408203e+00 -6.342037916183471680e-01
1.680000000000000000e+03 7.532868957519531250e+01 -1.515846252441406250e+01 5.382238030433654785e-01 8.285529136657714844e+00 2.647125959396362305e+00 7.538236975669860840e-01
1.681000000000000000e+03 7.617826843261718750e+01 -1.598800659179687500e+01 5.915604829788208008e-01 7.927089214324951172e+00 2.555594921112060547e+00 4.564774334430694580e-01
1.682000000000000000e+03 7.129660034179687500e+01 -1.252148246765136719e+01 -4.928476214408874512e-01 9.850319862365722656e+00 2.807241678237915039e+00 1.578942537307739258e-01
1.683000000000000000e+03 7.567082977294921875e+01 -1.405974388122558594e+01 3.507700562477111816e-01 8.156865119934082031e+00 2.552290439605712891e+00 7.824369072914123535e-01
1.684000000000000000e+03 7.667077636718750000e+01 -1.242978668212890625e+01 -3.105277009308338165e-02 7.901777744293212891e+00 2.361217498779296875e+00 7.680199742317199707e-01
1.685000000000000000e+03 7.472745513916015625e+01 -1.140144443511962891e+01 -3.557316660881042480e-01 8.570834159851074219e+00 2.464530706405639648e+00 7.230929136276245117e-01
1.686000000000000000e+03 7.683628082275390625e+01 -6.616029262542724609e+00 -2.863624989986419678e-01 7.993708610534667969e+00 2.312203884124755859e+00 4.764107987284660339e-02
1.687000000000000000e+03 7.561978149414062500e+01 -7.867386341094970703e+00 -5.058978796005249023e-01 8.147969245910644531e+00 2.292621374130249023e+00 1.712815016508102417e-01
1.688000000000000000e+03 7.543740081787109375e+01 -3.832965135574340820e+00 -2.885570526123046875e-01 7.650060176849365234e+00 2.208451032638549805e+00 -4.213242828845977783e-01
1.689000000000000000e+03 7.536685943603515625e+01 -2.436605453491210938e+00 -2.219610810279846191e-01 7.508125305175781250e+00 2.185849189758300781e+00 -5.345910191535949707e-01
1.690000000000000000e+03 7.553962707519531250e+01 -5.190177917480468750e+00 -3.946521580219268799e-01 7.833187580108642578e+00 2.231560707092285156e+00 -2.631859183311462402e-01
1.691000000000000000e+03 7.675193786621093750e+01 1.643396615982055664e+00 -1.143767219036817551e-02 7.167708873748779297e+00 2.146881341934204102e+00 -5.070289969444274902e-01
1.692000000000000000e+03 7.548805999755859375e+01 1.700679302215576172e+00 3.055229969322681427e-02 7.094126701354980469e+00 2.137403726577758789e+00 -6.336506009101867676e-01
1.693000000000000000e+03 7.547787475585937500e+01 7.318705081939697266e+00 1.844478249549865723e-01 6.730904579162597656e+00 2.074605703353881836e+00 -4.057885408401489258e-01
1.694000000000000000e+03 7.543338012695312500e+01 4.490039825439453125e+00 1.187003478407859802e-01 6.891791820526123047e+00 2.103147745132446289e+00 -5.667311549186706543e-01
1.695000000000000000e+03 7.544998168945312500e+01 5.921065807342529297e+00 1.419087350368499756e-01 6.808961868286132812e+00 2.085261344909667969e+00 -4.828803539276123047e-01
1.696000000000000000e+03 7.410475921630859375e+01 3.022280931472778320e+00 1.057594269514083862e-01 6.964007854461669922e+00 2.120930194854736328e+00 -6.991272568702697754e-01
1.697000000000000000e+03 7.367770385742187500e+01 -1.500769042968750000e+01 8.597221970558166504e-01 9.113846778869628906e+00 2.992070674896240234e+00 7.400253415107727051e-01
1.698000000000000000e+03 7.586938476562500000e+01 -2.280673789978027344e+01 2.542968392372131348e-01 8.425523757934570312e+00 2.603946208953857422e+00 -1.222454547882080078e+00
1.699000000000000000e+03 7.709099578857421875e+01 -2.166997718811035156e+01 2.672672271728515625e-01 7.724755287170410156e+00 2.397606611251831055e+00 -9.040337800979614258e-01
1.700000000000000000e+03 7.544750976562500000e+01 -1.890670967102050781e+01 8.991189599037170410e-01 8.236713409423828125e+00 2.740749597549438477e+00 -4.267193377017974854e-01
1.701000000000000000e+03 7.718537139892578125e+01 -1.773857879638671875e+01 4.254242479801177979e-01 7.226309776306152344e+00 2.295520305633544922e+00 2.077729627490043640e-02
1.702000000000000000e+03 7.409737396240234375e+01 -2.010961151123046875e+01 1.218511223793029785e+00 9.094289779663085938e+00 3.093840360641479492e+00 -7.817398309707641602e-01
1.703000000000000000e+03 7.624951934814453125e+01 -1.815174102783203125e+01 6.802201867103576660e-01 7.872461795806884766e+00 2.565804481506347656e+00 -1.642007231712341309e-01
1.704000000000000000e+03 7.676819610595703125e+01 8.601221084594726562e+00 1.207348853349685669e-01 6.557920455932617188e+00 2.003596544265747070e+00 -2.577034831047058105e-01
1.705000000000000000e+03 7.554147338867187500e+01 1.008028984069824219e+01 2.235464453697204590e-01 6.634455204010009766e+00 2.057400465011596680e+00 -1.952579468488693237e-01
1.706000000000000000e+03 7.218036651611328125e+01 3.634439849853515625e+01 -9.785275906324386597e-02 6.714251995086669922e+00 1.984919786453247070e+00 2.114286879077553749e-03
1.707000000000000000e+03 7.552255249023437500e+01 1.147485160827636719e+01 2.342826724052429199e-01 6.627529144287109375e+00 2.058543682098388672e+00 -6.408606469631195068e-02
1.708000000000000000e+03 7.436974334716796875e+01 1.017350196838378906e+01 3.184745609760284424e-01 6.748957157135009766e+00 2.120229482650756836e+00 -1.854482591152191162e-01
1.709000000000000000e+03 7.507619476318359375e+01 -3.073577117919921875e+01 -4.359826445579528809e-01 8.833743095397949219e+00 2.519328117370605469e+00 -5.907049179077148438e-01
1.710000000000000000e+03 7.677784729003906250e+01 -2.847568321228027344e+01 -2.513251006603240967e-01 8.984233856201171875e+00 2.619872570037841797e+00 -8.156525492668151855e-01
1.711000000000000000e+03 7.557489776611328125e+01 -2.418430709838867188e+01 1.757335104048252106e-02 8.619607925415039062e+00 2.591154336929321289e+00 -1.310796380043029785e+00
1.712000000000000000e+03 7.675274658203125000e+01 1.701141357421875000e+01 9.421749413013458252e-02 6.623426437377929688e+00 2.015293121337890625e+00 3.020738363265991211e-01
1.713000000000000000e+03 7.556271362304687500e+01 1.854435157775878906e+01 1.232711821794509888e-01 6.827741146087646484e+00 2.085303544998168945e+00 4.558577537536621094e-01
1.714000000000000000e+03 7.532459259033203125e+01 2.125290870666503906e+01 1.129916496574878693e-02 7.004661560058593750e+00 2.104788303375244141e+00 5.374521613121032715e-01
1.715000000000000000e+03 7.547619628906250000e+01 1.981863975524902344e+01 6.261479854583740234e-02 6.915896415710449219e+00 2.093553304672241211e+00 5.161357522010803223e-01
1.716000000000000000e+03 7.327661132812500000e+01 1.729149436950683594e+01 3.119501173496246338e-01 6.924522399902343750e+00 2.170941829681396484e+00 4.989085793495178223e-01
1.717000000000000000e+03 7.552160644531250000e+01 -2.813052749633789062e+01 -3.976057469844818115e-01 8.920180320739746094e+00 2.556772470474243164e+00 -9.786582589149475098e-01
1.718000000000000000e+03 7.425511932373046875e+01 -2.361022949218750000e+01 1.482422500848770142e-01 9.097681045532226562e+00 2.773777008056640625e+00 -1.350894689559936523e+00
1.719000000000000000e+03 7.555097198486328125e+01 2.500227165222167969e+01 -1.094526723027229309e-01 7.235079765319824219e+00 2.137688159942626953e+00 4.368853569030761719e-01
1.720000000000000000e+03 7.460543823242187500e+01 2.437343788146972656e+01 -1.310758292675018311e-01 7.150250434875488281e+00 2.105752468109130859e+00 5.174723863601684570e-01
1.721000000000000000e+03 7.440221405029296875e+01 2.760431480407714844e+01 -1.791429966688156128e-01 7.230697631835937500e+00 2.115466356277465820e+00 3.555179536342620850e-01
1.722000000000000000e+03 7.711299896240234375e+01 2.882596206665039062e+01 -4.476198926568031311e-02 7.549800395965576172e+00 2.251511573791503906e+00 2.202536612749099731e-01
1.723000000000000000e+03 7.667208099365234375e+01 3.016164207458496094e+01 -7.025083154439926147e-02 7.525883674621582031e+00 2.236689805984497070e+00 1.839718371629714966e-01
1.724000000000000000e+03 7.536285400390625000e+01 2.975205421447753906e+01 -1.288061738014221191e-01 7.355065822601318359e+00 2.167877912521362305e+00 2.408991903066635132e-01
1.725000000000000000e+03 7.365950012207031250e+01 -3.041254806518554688e+01 -6.636294126510620117e-01 8.417816162109375000e+00 2.326256036758422852e+00 -4.848859310150146484e-01
1.726000000000000000e+03 7.429984283447265625e+01 -3.726326751708984375e+01 -1.126700341701507568e-01 8.082799911499023438e+00 2.391038894653320312e+00 -3.640159964561462402e-02
1.727000000000000000e+03 7.523000335693359375e+01 -2.936567115783691406e+01 -4.790616631507873535e-01 8.854442596435546875e+00 2.512614488601684570e+00 -7.670090794563293457e-01
1.728000000000000000e+03 7.504767608642578125e+01 -3.536559295654296875e+01 -2.100846618413925171e-01 8.494763374328613281e+00 2.485403537750244141e+00 -1.266335397958755493e-01
1.729000000000000000e+03 7.525608062744140625e+01 -3.648851013183593750e+01 -2.391503900289535522e-01 8.602208137512207031e+00 2.508917331695556641e+00 -2.081977277994155884e-01
1.730000000000000000e+03 7.290174102783203125e+01 3.410958480834960938e+01 -1.253538876771926880e-01 6.887372493743896484e+00 2.028605699539184570e+00 3.164203837513923645e-02
1.731000000000000000e+03 1.857468414306640625e+01 -9.243366241455078125e+00 5.265682339668273926e-01 2.089030504226684570e+00 7.846795916557312012e-01 2.224437713623046875e+00
1.732000000000000000e+03 6.047940063476562500e+01 -9.597044587135314941e-01 1.308074355125427246e+00 3.717633008956909180e+00 1.507712125778198242e+00 1.291251540184020996e+00
1.733000000000000000e+03 6.160208892822265625e+01 1.395227789878845215e+00 1.009584903717041016e+00 4.991265296936035156e+00 1.800254940986633301e+00 1.249580621719360352e+00
1.734000000000000000e+03 4.128742599487304688e+01 -2.200810050964355469e+01 2.041171550750732422e+00 9.361341476440429688e+00 3.420753955841064453e+00 -1.185925722122192383e+00
1.735000000000000000e+03 3.009312629699707031e+00 -1.635364341735839844e+01 2.074952572584152222e-01 -1.177587032318115234e+00 -2.910275161266326904e-01 1.452791243791580200e-01
1.736000000000000000e+03 4.123353004455566406e+00 -1.483266162872314453e+01 3.844480216503143311e-01 -6.467642188072204590e-01 -7.869485765695571899e-02 -2.955063059926033020e-02
1.737000000000000000e+03 4.799280166625976562e+00 2.148814201354980469e+01 -1.900786906480789185e-02 3.142156302928924561e-01 8.856232464313507080e-02 -9.765733480453491211e-01
1.738000000000000000e+03 5.622778415679931641e+00 2.256762695312500000e+01 -1.440977007150650024e-01 7.179553508758544922e-01 1.721572875976562500e-01 -1.008435010910034180e+00
1.739000000000000000e+03 4.296924114227294922e+00 -1.779003906250000000e+01 3.619348406791687012e-01 -4.329781234264373779e-01 -2.131298929452896118e-02 4.227753281593322754e-01
1.740000000000000000e+03 4.278205394744873047e+00 -1.630291366577148438e+01 3.853475749492645264e-01 -5.441451072692871094e-01 -4.763926938176155090e-02 1.907650530338287354e-01
1.741000000000000000e+03 4.435389518737792969e+00 1.617979431152343750e+01 3.965550959110260010e-01 -4.805381298065185547e-01 -2.519490569829940796e-02 -5.940718054771423340e-01
1.742000000000000000e+03 3.155056715011596680e+00 1.756340980529785156e+01 1.810718476772308350e-01 -9.799635410308837891e-01 -2.396675050258636475e-01 -5.860345363616943359e-01
1.743000000000000000e+03 4.414364337921142578e+00 1.756304550170898438e+01 2.820053100585937500e-01 -3.109969794750213623e-01 -8.697499521076679230e-03 -7.621333003044128418e-01
1.744000000000000000e+03 4.719615459442138672e+00 2.979756736755371094e+01 -1.942837238311767578e-01 9.053739309310913086e-01 2.133270651102066040e-01 -4.363281726837158203e-01
1.745000000000000000e+03 3.173390865325927734e+00 1.478276538848876953e+01 2.785409390926361084e-01 -1.244948744773864746e+00 -2.899223268032073975e-01 -2.758308351039886475e-01
1.746000000000000000e+03 4.830344676971435547e+00 -2.744025993347167969e+01 -1.686333566904067993e-01 7.405280470848083496e-01 1.715684086084365845e-01 8.331757783889770508e-01
1.747000000000000000e+03 3.161642313003540039e+00 -2.336272430419921875e+01 2.233676798641681671e-02 -2.667779326438903809e-01 -7.333234697580337524e-02 7.247945070266723633e-01
1.748000000000000000e+03 4.325221538543701172e+00 -2.191990280151367188e+01 1.415269672870635986e-01 1.865788549184799194e-02 4.805545508861541748e-02 8.503851294517517090e-01
1.749000000000000000e+03 4.315356254577636719e+00 -2.057816696166992188e+01 2.556036114692687988e-01 -1.884714663028717041e-01 2.013964578509330750e-02 7.465361356735229492e-01
1.750000000000000000e+03 9.447115898132324219e+00 -1.647107315063476562e+01 1.309288620948791504e+00 2.121899604797363281e+00 1.029356479644775391e+00 5.951105356216430664e-01
1.751000000000000000e+03 4.493121623992919922e+00 1.344942760467529297e+01 5.255023241043090820e-01 -6.989279389381408691e-01 -5.202768743038177490e-02 -1.311463564634323120e-01
1.752000000000000000e+03 4.654455661773681641e+00 2.515111732482910156e+01 -1.924426257610321045e-01 6.234512329101562500e-01 1.293025910854339600e-01 -7.926324605941772461e-01
1.753000000000000000e+03 5.980258941650390625e+00 2.577391815185546875e+01 -3.185150623321533203e-01 1.015517950057983398e+00 2.091008722782135010e-01 -8.376387357711791992e-01
1.754000000000000000e+03 5.872836589813232422e+00 -2.451778030395507812e+01 -2.186518348753452301e-02 8.319424390792846680e-01 2.430231720209121704e-01 1.052965521812438965e+00
1.755000000000000000e+03 4.553206443786621094e+00 -2.465877151489257812e+01 -2.350883930921554565e-02 3.783960044384002686e-01 1.064661517739295959e-01 9.013054966926574707e-01
1.756000000000000000e+03 3.758163928985595703e+00 -9.973807334899902344e+00 1.554287225008010864e-01 -7.176873087882995605e-01 -1.686775833368301392e-01 -5.848332047462463379e-01
1.757000000000000000e+03 3.840757131576538086e+00 -1.351064395904541016e+01 3.122195899486541748e-01 -8.072234988212585449e-01 -1.485011726617813110e-01 -2.223403900861740112e-01
1.758000000000000000e+03 5.204503059387207031e+00 1.056569004058837891e+01 6.756385564804077148e-01 -4.306689798831939697e-01 7.349087297916412354e-02 4.417136609554290771e-01
1.759000000000000000e+03 3.813005447387695312e+00 -3.045425987243652344e+01 -1.375878453254699707e-01 8.087142705917358398e-01 2.013379335403442383e-01 5.585588216781616211e-01
1.760000000000000000e+03 5.030768394470214844e+00 -2.885227203369140625e+01 -2.042524516582489014e-01 8.926012516021728516e-01 2.065046429634094238e-01 7.658059597015380859e-01
1.761000000000000000e+03 4.505094528198242188e+00 2.848989486694335938e+01 -1.981048136949539185e-01 8.102657198905944824e-01 1.836482733488082886e-01 -5.276246070861816406e-01
1.762000000000000000e+03 5.937293052673339844e+00 3.617741012573242188e+01 -1.267164349555969238e-01 1.112000465393066406e+00 2.955852150917053223e-01 -1.364927142858505249e-01
1.763000000000000000e+03 3.711904287338256836e+00 -1.111924457550048828e+01 1.754062920808792114e-01 -7.984575629234313965e-01 -1.869153827428817749e-01 -4.867953360080718994e-01
1.764000000000000000e+03 3.998694896697998047e+00 -7.894032001495361328e+00 6.859920918941497803e-02 -4.998690783977508545e-01 -1.293809562921524048e-01 -7.040554881095886230e-01
1.765000000000000000e+03 5.838547706604003906e+00 3.224917984008789062e+01 -2.102974206209182739e-01 1.067004203796386719e+00 2.570120394229888916e-01 -3.058114945888519287e-01
1.766000000000000000e+03 3.532868862152099609e+00 3.285980606079101562e+01 -9.355702251195907593e-02 9.417885541915893555e-01 2.544694542884826660e-01 -2.292712479829788208e-01
1.767000000000000000e+03 4.968735218048095703e+00 3.114995574951171875e+01 -1.795637309551239014e-01 9.821692109107971191e-01 2.407816499471664429e-01 -3.622822165489196777e-01
1.768000000000000000e+03 3.959878921508789062e+00 7.801884174346923828e+00 2.279178649187088013e-01 -8.449058532714843750e-01 -1.850963979959487915e-01 8.442195653915405273e-01
1.769000000000000000e+03 6.029702663421630859e+00 5.426548957824707031e+00 -2.130987308919429779e-02 -2.401713579893112183e-01 -7.844436913728713989e-02 1.159775733947753906e+00
1.770000000000000000e+03 6.173900604248046875e+00 -4.717346668243408203e+00 -2.857116758823394775e-01 -1.334007713012397289e-03 -8.611370623111724854e-02 -7.208542823791503906e-01
1.771000000000000000e+03 5.992375373840332031e+00 -3.594828414916992188e+01 -2.153372168540954590e-01 1.179947495460510254e+00 2.893830835819244385e-01 2.950115799903869629e-01
1.772000000000000000e+03 3.455065917968750000e+01 1.944057226181030273e+00 3.561466217041015625e+00 1.267139530181884766e+01 4.869858264923095703e+00 1.969045281410217285e+00
1.773000000000000000e+03 5.751399230957031250e+01 -5.682888984680175781e+00 9.962193965911865234e-01 1.980940580368041992e+00 8.931480050086975098e-01 1.268890976905822754e+00
1.774000000000000000e+03 6.766332244873046875e+01 -2.918308830261230469e+01 -1.155300736427307129e+00 5.707478523254394531e+00 1.365653276443481445e+00 8.588369488716125488e-01
1.775000000000000000e+03 1.635790634155273438e+01 6.537120819091796875e+00 2.632989168167114258e+00 3.369840383529663086e+00 1.800848841667175293e+00 -2.449625730514526367e+00
1.776000000000000000e+03 4.651975631713867188e+01 -8.394235610961914062e+00 2.193197757005691528e-01 1.368003726005554199e+00 4.761970341205596924e-01 9.149876236915588379e-01
1.777000000000000000e+03 4.826863098144531250e+01 -1.443863773345947266e+01 1.621276497840881348e+00 2.073395013809204102e+00 1.108401417732238770e+00 1.849293112754821777e+00
1.778000000000000000e+03 3.312934875488281250e+01 -7.612327575683593750e+00 -2.205697298049926758e+00 6.715564250946044922e+00 1.352960109710693359e+00 -2.279665231704711914e+00
1.779000000000000000e+03 1.560421562194824219e+01 7.352601051330566406e+00 2.814886569976806641e+00 3.833430290222167969e+00 1.994495153427124023e+00 -2.276530981063842773e+00
1.780000000000000000e+03 1.605662345886230469e+01 5.185033321380615234e+00 1.471469402313232422e+00 2.327063798904418945e+00 1.139559984207153320e+00 -1.672003507614135742e+00
1.781000000000000000e+03 6.462250518798828125e+01 -8.562025070190429688e+00 -3.928939998149871826e-01 2.421050071716308594e+00 6.084468364715576172e-01 -1.832374095916748047e+00
1.782000000000000000e+03 4.385328674316406250e+01 1.926331520080566406e+01 2.581560909748077393e-01 3.797223806381225586e+00 1.216614007949829102e+00 1.791416764259338379e+00
1.783000000000000000e+03 4.113705825805664062e+01 1.828586959838867188e+01 1.339149922132492065e-01 5.430479526519775391e+00 1.669318437576293945e+00 1.662422657012939453e+00
1.784000000000000000e+03 2.139738464355468750e+01 -1.846212983131408691e+00 1.220743536949157715e+00 4.338284015655517578e+00 1.667708277702331543e+00 2.256558656692504883e+00
1.785000000000000000e+03 3.139757728576660156e+01 -4.562077522277832031e+00 8.484865427017211914e-01 4.051111221313476562e+00 1.469879388809204102e+00 -1.116188049316406250e+00
1.786000000000000000e+03 3.222017288208007812e+01 -1.439905047416687012e+00 3.933646440505981445e+00 6.131865978240966797e+00 3.019653797149658203e+00 8.941837549209594727e-01
1.787000000000000000e+03 3.690145492553710938e+01 4.040067195892333984e-01 2.023551702499389648e+00 1.099267578125000000e+01 3.904868125915527344e+00 -6.212840080261230469e-01
1.788000000000000000e+03 3.362999725341796875e+01 -4.671396613121032715e-01 3.119331359863281250e+00 9.209479331970214844e+00 3.698643445968627930e+00 1.683237671852111816e+00
1.789000000000000000e+03 3.949167633056640625e+01 -1.737245941162109375e+01 1.808898329734802246e+00 9.608787536621093750e+00 3.425305604934692383e+00 -1.603293180465698242e+00
1.790000000000000000e+03 4.415319824218750000e+01 -1.881935882568359375e+01 2.032973527908325195e+00 9.298317909240722656e+00 3.399387359619140625e+00 8.246560394763946533e-02
1.791000000000000000e+03 4.881219863891601562e+01 -8.721357345581054688e+00 3.797088563442230225e-01 8.331581354141235352e-01 3.638601005077362061e-01 2.161175489425659180e+00
1.792000000000000000e+03 6.712834930419921875e+01 1.588301086425781250e+01 9.485138058662414551e-01 7.819623470306396484e+00 2.630441188812255859e+00 2.331505268812179565e-01
1.793000000000000000e+03 4.776826477050781250e+01 -1.328052520751953125e+01 1.269414305686950684e+00 2.770556688308715820e+00 1.211991310119628906e+00 1.925075650215148926e+00
1.794000000000000000e+03 4.314898681640625000e+01 -2.643869590759277344e+01 1.856589317321777344e+00 9.144096374511718750e+00 3.300205707550048828e+00 -1.270730733871459961e+00
1.795000000000000000e+03 4.426257705688476562e+01 -2.591712188720703125e+01 2.264758348464965820e+00 9.792578697204589844e+00 3.617201089859008789e+00 -1.792573094367980957e+00
1.796000000000000000e+03 5.436449432373046875e+01 -1.211173343658447266e+01 -5.425886511802673340e-01 6.117388606071472168e-01 2.074506506323814392e-02 1.189808011054992676e+00
1.797000000000000000e+03 5.300215530395507812e+01 -7.525500297546386719e+00 3.707291483879089355e-01 1.960142612457275391e+00 6.992615461349487305e-01 2.167304515838623047e+00
1.798000000000000000e+03 3.216047286987304688e+01 -5.425100326538085938e+00 -4.995827972888946533e-01 5.577332973480224609e+00 1.523325085639953613e+00 -1.652627468109130859e+00
1.799000000000000000e+03 3.011293029785156250e+01 -4.002303600311279297e+00 2.285306930541992188e+00 2.724868297576904297e+00 1.503052592277526855e+00 -8.182906359434127808e-02
1.800000000000000000e+03 5.339918136596679688e+01 2.490048789978027344e+01 -4.420249462127685547e-01 8.562934398651123047e-01 1.242805421352386475e-01 6.052000522613525391e-01
1.801000000000000000e+03 4.957773971557617188e+01 -1.012989330291748047e+01 5.959615111351013184e-01 1.153900027275085449e+00 5.249584913253784180e-01 2.314197540283203125e+00
1.802000000000000000e+03 1.217844772338867188e+01 -1.275797462463378906e+01 1.481210350990295410e+00 3.277835130691528320e+00 1.427713632583618164e+00 4.118462502956390381e-01
1.803000000000000000e+03 2.764807891845703125e+01 2.475981521606445312e+01 -6.740221381187438965e-01 2.075905561447143555e+00 4.205650091171264648e-01 -1.206940650939941406e+00
1.804000000000000000e+03 6.340362930297851562e+01 5.818422317504882812e+00 9.914786219596862793e-01 7.426560401916503906e+00 2.525411605834960938e+00 9.859933853149414062e-01
1.805000000000000000e+03 3.788032150268554688e+01 -2.008911895751953125e+01 1.528433203697204590e+00 1.029305267333984375e+01 3.546445846557617188e+00 -7.612242698669433594e-01
1.806000000000000000e+03 4.037155914306640625e+01 -2.087032508850097656e+01 1.967118024826049805e+00 9.482827186584472656e+00 3.434983730316162109e+00 -1.279516458511352539e+00
1.807000000000000000e+03 1.597052001953125000e+01 -3.082740783691406250e+01 -8.684019446372985840e-01 1.425005674362182617e+00 1.669811308383941650e-01 -1.574422568082809448e-01
1.808000000000000000e+03 6.627868652343750000e+01 1.334202098846435547e+01 9.553541541099548340e-01 8.323653221130371094e+00 2.783702135086059570e+00 1.675458401441574097e-01
1.809000000000000000e+03 1.118395805358886719e+01 -2.066780471801757812e+01 7.242549657821655273e-01 3.362925052642822266e+00 1.226154088973999023e+00 9.910848736763000488e-01
1.810000000000000000e+03 7.166011810302734375e+00 -2.435645484924316406e+01 -5.988959968090057373e-02 1.306229591369628906e+00 3.739019930362701416e-01 1.103442788124084473e+00
1.811000000000000000e+03 1.376507377624511719e+01 -2.708966827392578125e+01 -7.660971879959106445e-01 2.301091670989990234e+00 4.604983031749725342e-01 1.626308262348175049e-01
1.812000000000000000e+03 1.456224536895751953e+01 -2.846973037719726562e+01 -8.096957206726074219e-01 1.864815354347229004e+00 3.165358901023864746e-01 -7.021338678896427155e-04
1.813000000000000000e+03 6.418330383300781250e+01 4.088038921356201172e+00 8.008217811584472656e-01 6.678321838378906250e+00 2.243743181228637695e+00 4.942349195480346680e-01
1.814000000000000000e+03 5.569914245605468750e+01 -6.558288574218750000e+00 7.742111086845397949e-01 1.875827312469482422e+00 7.950115203857421875e-01 1.589635014533996582e+00
1.815000000000000000e+03 3.604336929321289062e+01 8.039542198181152344e+00 1.295171141624450684e+00 1.278948974609375000e+01 4.225398063659667969e+00 7.606201767921447754e-01
1.816000000000000000e+03 6.443707275390625000e+01 9.896792411804199219e+00 8.924114108085632324e-01 8.781201362609863281e+00 2.902083873748779297e+00 6.193493604660034180e-01
1.817000000000000000e+03 3.528017807006835938e+01 1.687329101562500000e+01 4.196629524230957031e-01 7.286378383636474609e+00 2.311812400817871094e+00 -6.599330902099609375e-01
1.818000000000000000e+03 1.139320755004882812e+01 -1.663741302490234375e+01 1.536200165748596191e+00 3.728330373764038086e+00 1.579359173774719238e+00 8.331903815269470215e-01
1.819000000000000000e+03 5.065662765502929688e+01 2.618743896484375000e+01 -2.458429038524627686e-01 1.592180490493774414e+00 4.039012789726257324e-01 1.113445520401000977e+00
1.820000000000000000e+03 1.782672882080078125e+01 -3.189765357971191406e+01 -7.997316122055053711e-01 1.002200722694396973e+00 6.074075773358345032e-02 -2.863037884235382080e-01
1.821000000000000000e+03 1.811470794677734375e+01 2.653182411193847656e+01 -6.562904119491577148e-01 8.899513483047485352e-01 7.009828835725784302e-02 4.452338218688964844e-01
1.822000000000000000e+03 6.039729690551757812e+01 -9.216765403747558594e+00 -6.122737526893615723e-01 1.105565667152404785e+00 1.479875892400741577e-01 4.229525625705718994e-01
1.823000000000000000e+03 5.822067260742187500e+01 -4.491642951965332031e+00 1.217360138893127441e+00 2.311364650726318359e+00 1.058617472648620605e+00 1.253535628318786621e+00
1.824000000000000000e+03 1.548593330383300781e+01 -4.144104480743408203e+00 -1.450154483318328857e-01 9.439882636070251465e-01 2.396918535232543945e-01 1.178801894187927246e+00
1.825000000000000000e+03 3.958174133300781250e+01 -1.586778259277343750e+01 1.759814381599426270e+00 9.242342948913574219e+00 3.300647258758544922e+00 -1.684757828712463379e+00
1.826000000000000000e+03 5.762012100219726562e+01 -3.314831161499023438e+01 -6.063522100448608398e-01 -8.797733485698699951e-02 -2.082988619804382324e-01 -3.734712898731231689e-01
1.827000000000000000e+03 5.574430465698242188e+01 -3.560643386840820312e+01 2.716753780841827393e-01 6.026800274848937988e-01 2.623066306114196777e-01 -6.625341176986694336e-01
1.828000000000000000e+03 7.583045196533203125e+01 4.064749908447265625e+01 -4.949772264808416367e-04 7.619379997253417969e+00 2.285665512084960938e+00 8.457718044519424438e-02
1.829000000000000000e+03 5.858879852294921875e+01 -3.573204421997070312e+01 3.695906996726989746e-01 5.622521638870239258e-01 2.795528769493103027e-01 -1.215395629405975342e-01
1.830000000000000000e+03 5.364607238769531250e+01 2.651755714416503906e+01 -3.289033100008964539e-02 1.206135630607604980e+00 3.519735932350158691e-01 5.072687268257141113e-01
1.831000000000000000e+03 1.487872123718261719e+01 5.463840007781982422e+00 1.249276280403137207e+00 1.943253636360168457e+00 9.577589631080627441e-01 -9.278777837753295898e-01
1.832000000000000000e+03 2.886123657226562500e+01 2.587131690979003906e+01 -7.354676723480224609e-01 2.744061231613159180e+00 6.025780439376831055e-01 -1.140844225883483887e+00
1.833000000000000000e+03 2.628021812438964844e+01 2.582982254028320312e+01 -5.644919872283935547e-01 1.472151875495910645e+00 2.722979784011840820e-01 -1.080838918685913086e+00
1.834000000000000000e+03 3.477388763427734375e+01 1.943073272705078125e+01 2.999803423881530762e-02 6.272017955780029297e+00 1.890604734420776367e+00 -4.569896757602691650e-01
1.835000000000000000e+03 3.501168060302734375e+01 1.398037910461425781e+01 6.757315993309020996e-01 8.837264060974121094e+00 2.853898763656616211e+00 -1.079264163970947266e+00
1.836000000000000000e+03 3.906466293334960938e+01 -1.384264659881591797e+01 1.384950995445251465e+00 9.063157081604003906e+00 3.134432315826416016e+00 -1.625802874565124512e+00
1.837000000000000000e+03 4.721667098999023438e+01 -3.020075035095214844e+01 3.869592547416687012e-01 6.301447868347167969e+00 2.006522178649902344e+00 -2.429769992828369141e+00
1.838000000000000000e+03 4.179166030883789062e+01 -6.877160072326660156e+00 -1.246654629707336426e+00 5.459515094757080078e+00 1.263858079910278320e+00 -1.744195580482482910e+00
1.839000000000000000e+03 4.077871704101562500e+01 -1.125038146972656250e+01 2.294998615980148315e-01 7.235908031463623047e+00 2.239622354507446289e+00 -1.136906385421752930e+00
1.840000000000000000e+03 6.016422271728515625e+01 -3.892496585845947266e+00 1.062897324562072754e+00 2.664807081222534180e+00 1.118311285972595215e+00 8.034592866897583008e-01
1.841000000000000000e+03 1.982012939453125000e+01 -3.277794647216796875e+01 -8.138930201530456543e-01 6.101230978965759277e-01 -6.113097444176673889e-02 -3.226267397403717041e-01
1.842000000000000000e+03 2.292833137512207031e+01 -3.421063613891601562e+01 -4.958744049072265625e-01 2.905466556549072266e-01 -6.159832701086997986e-02 -1.497892141342163086e-01
1.843000000000000000e+03 2.718655014038085938e+01 -2.049495935440063477e+00 4.859730720520019531e+00 2.988064885139465332e-01 1.547561168670654297e+00 -9.662655740976333618e-02
1.844000000000000000e+03 2.425085258483886719e+01 -1.546729087829589844e+00 3.876988410949707031e+00 2.592589378356933594e+00 1.940873384475708008e+00 -1.540869832038879395e+00
1.845000000000000000e+03 3.882835006713867188e+01 -2.112801551818847656e+01 1.769703388214111328e+00 9.617127418518066406e+00 3.416049242019653320e+00 -8.627849817276000977e-01
1.846000000000000000e+03 1.109962654113769531e+01 1.905104637145996094e+01 4.767935574054718018e-01 3.417233705520629883e+00 1.168208122253417969e+00 -1.046612262725830078e+00
1.847000000000000000e+03 6.588223266601562500e+01 7.407226085662841797e+00 9.021702408790588379e-01 7.523815155029296875e+00 2.527795553207397461e+00 2.226844429969787598e-01
1.848000000000000000e+03 6.512181091308593750e+01 6.477534770965576172e+00 9.150074720382690430e-01 7.382690906524658203e+00 2.489309549331665039e+00 3.546406626701354980e-01
1.849000000000000000e+03 3.871091461181640625e+01 -1.131405735015869141e+01 3.198614418506622314e-01 8.875939369201660156e+00 2.758740186691284180e+00 -1.413097262382507324e+00
1.850000000000000000e+03 3.877267456054687500e+01 -1.257766151428222656e+01 8.988452553749084473e-01 9.068308830261230469e+00 2.990146160125732422e+00 -1.532686471939086914e+00
1.851000000000000000e+03 6.431111145019531250e+01 -3.315576934814453125e+01 -4.657220840454101562e-01 2.831094980239868164e+00 7.096118330955505371e-01 8.234214782714843750e-01
1.852000000000000000e+03 7.086080932617187500e+01 -2.108077049255371094e+01 1.532019615173339844e+00 1.185599040985107422e+01 4.016402721405029297e+00 -4.619646072387695312e-01
1.853000000000000000e+03 7.378338623046875000e+01 -1.868264961242675781e+01 1.434872508049011230e+00 9.339331626892089844e+00 3.232261180877685547e+00 -3.275374770164489746e-01
1.854000000000000000e+03 4.654059219360351562e+01 -1.369330120086669922e+01 1.045178651809692383e+00 4.155176162719726562e+00 1.560106396675109863e+00 1.393839240074157715e+00
1.855000000000000000e+03 3.395677185058593750e+01 7.257903218269348145e-01 3.535708427429199219e+00 1.105521202087402344e+01 4.377275943756103516e+00 2.107437133789062500e+00
1.856000000000000000e+03 2.305404663085937500e+01 2.916578674316406250e+01 -3.151653110980987549e-01 1.076438784599304199e+00 2.283820360898971558e-01 -4.289166033267974854e-01
1.857000000000000000e+03 7.537636566162109375e+01 -1.700314712524414062e+01 9.437700510025024414e-01 8.272778511047363281e+00 2.764964580535888672e+00 2.027194052934646606e-01
1.858000000000000000e+03 4.299340057373046875e+01 -1.904715728759765625e+01 1.770179390907287598e+00 9.548983573913574219e+00 3.395748853683471680e+00 -5.885516405105590820e-01
1.859000000000000000e+03 2.987460136413574219e+01 -3.533431625366210938e+01 -5.866625308990478516e-01 2.003104448318481445e+00 4.249325692653656006e-01 1.005834579467773438e+00
1.860000000000000000e+03 3.199776649475097656e+01 -3.427363204956054688e+01 -7.288123965263366699e-01 2.820320844650268555e+00 6.274524927139282227e-01 1.197197914123535156e+00
1.861000000000000000e+03 4.114533615112304688e+01 -2.372478103637695312e+01 1.968179702758789062e+00 9.066044807434082031e+00 3.310267210006713867e+00 -1.132131099700927734e+00
1.862000000000000000e+03 3.710654830932617188e+01 -2.026226282119750977e+00 4.401004016399383545e-01 9.938982009887695312e+00 3.113724708557128906e+00 -1.219896793365478516e+00
1.863000000000000000e+03 2.772825622558593750e+01 -3.594697189331054688e+01 -4.322986602783203125e-01 1.364664435386657715e+00 2.797097265720367432e-01 5.327011942863464355e-01
1.864000000000000000e+03 1.101138877868652344e+01 5.785833358764648438e+00 5.674492120742797852e-01 8.632077574729919434e-01 4.291971027851104736e-01 6.064124107360839844e-01
1.865000000000000000e+03 1.261434650421142578e+01 9.634205818176269531e+00 2.401062488555908203e+00 3.125545740127563477e+00 1.657982468605041504e+00 -9.197686910629272461e-01
1.866000000000000000e+03 4.800216674804687500e+01 2.620543479919433594e+01 -3.943473696708679199e-01 2.360061645507812500e+00 5.897142887115478516e-01 1.408315777778625488e+00
1.867000000000000000e+03 6.281240844726562500e+01 1.238561749458312988e+00 7.947953343391418457e-01 5.265575408935546875e+00 1.818111300468444824e+00 7.354791164398193359e-01
1.868000000000000000e+03 6.406396484375000000e+01 2.764283657073974609e+00 7.106356024742126465e-01 6.189085006713867188e+00 2.069916248321533203e+00 4.553956091403961182e-01
1.869000000000000000e+03 6.465832519531250000e+01 -3.141078186035156250e+01 -9.037214517593383789e-01 2.930478334426879883e+00 6.080271005630493164e-01 9.104482531547546387e-01
1.870000000000000000e+03 5.354907608032226562e+01 -9.531358718872070312e+00 -4.095942154526710510e-02 1.363095045089721680e+00 3.966406881809234619e-01 2.001107692718505859e+00
1.871000000000000000e+03 5.137458038330078125e+01 -8.192575454711914062e+00 2.353293150663375854e-01 1.281119942665100098e+00 4.549347758293151855e-01 2.637952089309692383e+00
1.872000000000000000e+03 3.737584686279296875e+01 -9.290355682373046875e+00 -1.274237394332885742e+00 9.363004684448242188e+00 2.426630020141601562e+00 -1.578386068344116211e+00
1.873000000000000000e+03 5.139726257324218750e+01 -3.627701187133789062e+01 -2.610998749732971191e-01 2.416128635406494141e+00 6.465086340904235840e-01 -1.423376917839050293e+00
1.874000000000000000e+03 3.615458297729492188e+01 -2.778249931335449219e+01 1.506804227828979492e-01 6.348368167877197266e+00 1.949714541435241699e+00 1.025139093399047852e+00
1.875000000000000000e+03 3.971338653564453125e+01 -2.188873672485351562e+01 1.874858498573303223e+00 9.441291809082031250e+00 3.394845247268676758e+00 -1.086718678474426270e+00
1.876000000000000000e+03 3.284086608886718750e+01 -6.447002887725830078e+00 -1.320912957191467285e+00 6.262905120849609375e+00 1.482597589492797852e+00 -2.001210212707519531e+00
1.877000000000000000e+03 3.578675460815429688e+01 -3.677395343780517578e+00 -5.690209865570068359e-01 9.339034080505371094e+00 2.631003856658935547e+00 -1.331467390060424805e+00
1.878000000000000000e+03 2.140731239318847656e+01 2.830800056457519531e+01 -3.300715386867523193e-01 7.214260697364807129e-01 1.174063608050346375e-01 -1.213588193058967590e-01
1.879000000000000000e+03 3.778374481201171875e+01 1.442218303680419922e+01 6.419270634651184082e-01 8.574786186218261719e+00 2.765013933181762695e+00 6.250748038291931152e-01
1.880000000000000000e+03 1.087698268890380859e+01 -1.411097717285156250e+01 1.569911837577819824e+00 2.648393869400024414e+00 1.265491724014282227e+00 3.828036487102508545e-01
1.881000000000000000e+03 1.058553123474121094e+01 -1.570072650909423828e+01 1.561802625656127930e+00 2.753525495529174805e+00 1.294598460197448730e+00 6.033500432968139648e-01
1.882000000000000000e+03 3.867619705200195312e+01 -3.607955932617187500e+00 -9.614859819412231445e-01 9.084388732910156250e+00 2.436870813369750977e+00 -1.752242326736450195e+00
1.883000000000000000e+03 3.550275802612304688e+01 -9.308352470397949219e+00 -1.205426931381225586e+00 9.630483627319335938e+00 2.527517080307006836e+00 -1.803986191749572754e+00
1.884000000000000000e+03 5.302061462402343750e+01 -1.109605979919433594e+01 -4.811396822333335876e-02 9.209712743759155273e-01 2.618571817874908447e-01 1.859493255615234375e+00
1.885000000000000000e+03 5.844843673706054688e+01 -8.321440696716308594e+00 -1.296760588884353638e-01 1.350624203681945801e+00 3.662844300270080566e-01 8.806239962577819824e-01
1.886000000000000000e+03 7.364153289794921875e+01 -2.473164558410644531e+01 -1.207349896430969238e-01 9.127937316894531250e+00 2.702160596847534180e+00 -1.342298865318298340e+00
1.887000000000000000e+03 7.168855285644531250e+01 -2.274898910522460938e+01 5.710478425025939941e-01 1.033586311340332031e+01 3.272073268890380859e+00 -9.654613137245178223e-01
1.888000000000000000e+03 1.384181404113769531e+01 2.434069442749023438e+01 -1.118608593940734863e+00 2.417422533035278320e+00 3.896442055702209473e-01 1.747113466262817383e-01
1.889000000000000000e+03 3.303088760375976562e+01 -3.034404945373535156e+01 -5.335343480110168457e-01 3.425530195236206055e+00 8.675987720489501953e-01 1.378873348236083984e+00
1.890000000000000000e+03 3.429824447631835938e+01 -3.114083671569824219e+01 -8.149461746215820312e-01 4.597716808319091797e+00 1.134831190109252930e+00 1.310161113739013672e+00
1.891000000000000000e+03 7.054112243652343750e+01 -1.017185211181640625e+01 -1.539576411247253418e+00 8.639677047729492188e+00 2.130030155181884766e+00 -6.953555941581726074e-01
1.892000000000000000e+03 6.865730285644531250e+01 -1.001651763916015625e+01 -1.815038323402404785e+00 7.680711746215820312e+00 1.759701967239379883e+00 -1.682593703269958496e+00
1.893000000000000000e+03 7.189957427978515625e+01 -1.451143932342529297e+01 1.041605234146118164e+00 1.058161354064941406e+01 3.486965656280517578e+00 4.782310724258422852e-01
1.894000000000000000e+03 7.264878845214843750e+01 -1.781676292419433594e+01 1.799742817878723145e+00 1.034876918792724609e+01 3.644553661346435547e+00 -2.067289501428604126e-01
1.895000000000000000e+03 7.064423370361328125e+01 -2.701721572875976562e+01 -1.021493673324584961e+00 8.398013114929199219e+00 2.212955951690673828e+00 -1.947689950466156006e-01
1.896000000000000000e+03 7.149153900146484375e+01 -2.404342079162597656e+01 -6.874733418226242065e-02 9.792658805847167969e+00 2.917173624038696289e+00 -8.529662489891052246e-01
1.897000000000000000e+03 3.889664077758789062e+01 -2.633119583129882812e+01 8.623127341270446777e-01 7.840883731842041016e+00 2.610959053039550781e+00 4.017857462167739868e-02
1.898000000000000000e+03 3.990289306640625000e+01 -2.489330291748046875e+01 1.632157087326049805e+00 8.512143135070800781e+00 3.043290138244628906e+00 -6.160790324211120605e-01
1.899000000000000000e+03 2.161539077758789062e+01 -3.337565231323242188e+01 -7.108263373374938965e-01 3.771036565303802490e-01 -1.001168042421340942e-01 -2.799334526062011719e-01
1.900000000000000000e+03 7.079972839355468750e+01 -1.333222484588623047e+01 -2.792779505252838135e-01 1.052659702301025391e+01 3.074195861816406250e+00 2.714045159518718719e-02
1.901000000000000000e+03 7.367923736572265625e+01 -1.213571071624755859e+01 -4.101574122905731201e-01 9.119207382202148438e+00 2.612715005874633789e+00 8.411787152290344238e-01
1.902000000000000000e+03 4.059841918945312500e+01 -6.974157810211181641e+00 -1.635764837265014648e+00 6.968994617462158203e+00 1.599968910217285156e+00 -1.928078532218933105e+00
1.903000000000000000e+03 3.593253707885742188e+01 -2.186067819595336914e+00 6.160002350807189941e-01 9.817061424255371094e+00 3.129918575286865234e+00 -8.239880800247192383e-01
1.904000000000000000e+03 5.659126663208007812e+01 -1.214647865295410156e+01 -1.247588157653808594e+00 5.645315647125244141e-01 -2.049169689416885376e-01 5.947346687316894531e-01
1.905000000000000000e+03 6.623061370849609375e+01 1.766101455688476562e+01 8.739486932754516602e-01 7.878407955169677734e+00 2.625706911087036133e+00 1.872673481702804565e-01
1.906000000000000000e+03 4.277759552001953125e+01 -1.479477024078369141e+01 1.277704834938049316e+00 7.286292076110839844e+00 2.569199085235595703e+00 -5.557043552398681641e-01
1.907000000000000000e+03 4.992995452880859375e+01 -9.018126487731933594e+00 3.550476729869842529e-01 9.595733284950256348e-01 3.943862915039062500e-01 2.507420778274536133e+00
1.908000000000000000e+03 5.020354461669921875e+01 -7.871834754943847656e+00 1.469690203666687012e-01 7.903250455856323242e-01 2.811882197856903076e-01 2.488945484161376953e+00
1.909000000000000000e+03 1.930957412719726562e+01 -2.321670770645141602e+00 9.543195366859436035e-01 1.358433127403259277e+00 6.938258409500122070e-01 2.109088897705078125e+00
1.910000000000000000e+03 2.067084121704101562e+01 -1.891888260841369629e+00 1.232937216758728027e+00 2.874199628829956055e+00 1.232141017913818359e+00 2.460299253463745117e+00
1.911000000000000000e+03 1.958195686340332031e+01 2.454029798507690430e+00 7.725098133087158203e-01 1.355445146560668945e+00 6.383864879608154297e-01 -3.643652439117431641e+00
1.912000000000000000e+03 1.996605873107910156e+01 2.763109922409057617e+00 1.105373263359069824e+00 2.712875127792358398e+00 1.145474433898925781e+00 -4.413637161254882812e+00
1.913000000000000000e+03 2.119417762756347656e+01 3.653165578842163086e+00 -7.510837167501449585e-02 4.860181808471679688e+00 1.435521960258483887e+00 -4.448367595672607422e+00
1.914000000000000000e+03 1.926085853576660156e+01 -1.828920006752014160e+00 9.887473583221435547e-01 1.065624475479125977e+00 6.163115501403808594e-01 1.883329629898071289e+00
1.915000000000000000e+03 1.793612480163574219e+01 -3.115277290344238281e+00 3.790456950664520264e-01 1.032688975334167480e+00 4.235204160213470459e-01 1.817636609077453613e+00
1.916000000000000000e+03 2.254800033569335938e+01 -6.615389823913574219e+00 -2.219089418649673462e-01 1.781588792800903320e+00 4.679039716720581055e-01 1.631890773773193359e+00
1.917000000000000000e+03 2.139881324768066406e+01 -1.367755293846130371e+00 1.404296517372131348e+00 4.746154308319091797e+00 1.845135331153869629e+00 2.430424213409423828e+00
1.918000000000000000e+03 1.744761466979980469e+01 -3.759365081787109375e+00 2.171377986669540405e-01 1.133256912231445312e+00 4.051184356212615967e-01 1.800664186477661133e+00
1.919000000000000000e+03 2.502614784240722656e+01 -5.597639560699462891e+00 3.531426489353179932e-01 1.381386637687683105e+00 5.203588008880615234e-01 1.011215209960937500e+00
1.920000000000000000e+03 2.266152000427246094e+01 -1.505033493041992188e+00 1.474647402763366699e+00 6.025775432586669922e+00 2.250126838684082031e+00 -1.728148311376571655e-01
1.921000000000000000e+03 1.816172599792480469e+01 -5.983517646789550781e+00 1.336982846260070801e-01 1.885599136352539062e+00 6.057892441749572754e-01 2.232830047607421875e+00
1.922000000000000000e+03 1.541954612731933594e+01 4.140381813049316406e+00 2.217226922512054443e-01 1.526099324226379395e+00 5.243465900421142578e-01 -8.682728409767150879e-01
1.923000000000000000e+03 2.615024757385253906e+01 -3.162144422531127930e+00 3.285460948944091797e+00 7.478470802307128906e-01 1.209992408752441406e+00 6.582372635602951050e-02
1.924000000000000000e+03 2.297626113891601562e+01 -2.074654102325439453e+00 1.633628129959106445e+00 4.838236331939697266e+00 1.941559433937072754e+00 -2.169880568981170654e-01
1.925000000000000000e+03 4.155733585357666016e+00 -4.375769615173339844e+00 -2.027021944522857666e-01 -2.133803665637969971e-01 -1.248247697949409485e-01 -6.357795000076293945e-01
1.926000000000000000e+03 1.888447570800781250e+01 -2.393979310989379883e+00 7.396858334541320801e-01 1.113633513450622559e+00 5.559958219528198242e-01 1.950382709503173828e+00
1.927000000000000000e+03 1.357698917388916016e+01 4.259227752685546875e+00 -1.885155737400054932e-01 9.486819505691528320e-01 2.280499190092086792e-01 4.951230064034461975e-02
1.928000000000000000e+03 1.143724250793457031e+01 4.825765132904052734e+00 -6.396255642175674438e-02 6.610704660415649414e-01 1.791323721408843994e-01 6.534431576728820801e-01
1.929000000000000000e+03 1.830930328369140625e+01 5.392044544219970703e+00 2.244962215423583984e+00 3.330549716949462891e+00 1.672653555870056152e+00 -3.302283048629760742e+00
1.930000000000000000e+03 8.051795959472656250e+00 -4.015005588531494141e+00 -5.050888061523437500e-01 1.754427105188369751e-01 -9.889383614063262939e-02 -5.978431105613708496e-01
1.931000000000000000e+03 9.102633476257324219e+00 -5.500095367431640625e+00 -2.464606165885925293e-01 4.770025908946990967e-01 6.916259229183197021e-02 -5.146511793136596680e-01
1.932000000000000000e+03 8.921820640563964844e+00 -4.756516456604003906e+00 -3.817261457443237305e-01 3.506422638893127441e-01 -9.325162507593631744e-03 -5.375576615333557129e-01
1.933000000000000000e+03 9.489364624023437500e+00 -4.030612945556640625e+00 -5.587956309318542480e-01 3.207968473434448242e-01 -7.139962911605834961e-02 -4.382104277610778809e-01
1.934000000000000000e+03 1.556685066223144531e+01 5.960128307342529297e+00 1.796732068061828613e+00 2.733266592025756836e+00 1.358999609947204590e+00 -1.583155632019042969e+00
1.935000000000000000e+03 6.008065223693847656e+00 -4.019121170043945312e+00 -3.723886907100677490e-01 -2.747608721256256104e-02 -1.199594289064407349e-01 -6.726042628288269043e-01
1.936000000000000000e+03 7.693588733673095703e+00 -5.530427932739257812e+00 -2.146947383880615234e-01 2.487029731273651123e-01 1.020247023552656174e-02 -6.751433014869689941e-01
1.937000000000000000e+03 4.996336936950683594e+00 -5.259637355804443359e+00 -1.577465385198593140e-01 -1.643193513154983521e-01 -9.661976993083953857e-02 -7.266201972961425781e-01
1.938000000000000000e+03 4.524719715118408203e+00 -4.934047698974609375e+00 -1.736591309309005737e-01 -2.258813977241516113e-01 -1.198621615767478943e-01 -6.880457401275634766e-01
1.939000000000000000e+03 3.734093427658081055e+00 -5.883994102478027344e+00 -7.908667623996734619e-02 -4.132521152496337891e-01 -1.477016359567642212e-01 -6.678515076637268066e-01
1.940000000000000000e+03 4.738904476165771484e+00 -4.159918308258056641e+00 -2.624052464962005615e-01 -1.519020050764083862e-01 -1.242921799421310425e-01 -6.537521481513977051e-01
1.941000000000000000e+03 1.324177265167236328e+01 7.477353096008300781e+00 1.903043627738952637e+00 2.397388935089111328e+00 1.290129780769348145e+00 -6.615754961967468262e-01
1.942000000000000000e+03 1.205573272705078125e+01 4.123600482940673828e+00 -5.147484540939331055e-01 6.156935095787048340e-01 3.028351068496704102e-02 5.405734777450561523e-01
1.943000000000000000e+03 1.276954650878906250e+01 4.907109260559082031e+00 1.910994052886962891e-01 9.553042054176330566e-01 3.439210951328277588e-01 2.624903321266174316e-01
1.944000000000000000e+03 1.519712448120117188e+01 4.822607994079589844e+00 6.883802413940429688e-01 1.763602614402770996e+00 7.355948686599731445e-01 -8.553534150123596191e-01
1.945000000000000000e+03 1.116349411010742188e+01 -4.767064571380615234e+00 -3.943333029747009277e-01 6.464517116546630859e-01 7.563553005456924438e-02 -1.128759011626243591e-01
1.946000000000000000e+03 9.656124114990234375e+00 -4.759837150573730469e+00 -3.998189568519592285e-01 4.540284574031829834e-01 1.626284979283809662e-02 -4.236138164997100830e-01
1.947000000000000000e+03 1.040759658813476562e+01 -4.767748355865478516e+00 -3.995235860347747803e-01 5.590652227401733398e-01 4.786248505115509033e-02 -2.828499972820281982e-01
1.948000000000000000e+03 1.785008811950683594e+01 4.204771518707275391e+00 1.087968826293945312e+00 2.274055242538452148e+00 1.008607268333435059e+00 -2.706049203872680664e+00
1.949000000000000000e+03 1.533626270294189453e+01 -3.524575471878051758e+00 -2.662307918071746826e-01 7.317588925361633301e-01 1.396584212779998779e-01 1.003123402595520020e+00
1.950000000000000000e+03 1.682404136657714844e+01 -3.876196146011352539e+00 7.689084112644195557e-02 1.024621725082397461e+00 3.304537534713745117e-01 1.598072767257690430e+00
1.951000000000000000e+03 1.408959674835205078e+01 -4.397800445556640625e+00 -3.013506233692169189e-01 8.913230299949645996e-01 1.769917160272598267e-01 7.067860960960388184e-01
1.952000000000000000e+03 1.479300308227539062e+01 -4.267409324645996094e+00 -2.386686205863952637e-01 9.441466331481933594e-01 2.116434127092361450e-01 9.435180425643920898e-01
1.953000000000000000e+03 1.192107486724853516e+01 -4.731491565704345703e+00 -3.762596547603607178e-01 7.277150750160217285e-01 1.054366156458854675e-01 7.181160151958465576e-02
1.954000000000000000e+03 1.266355323791503906e+01 -4.647858142852783203e+00 -3.687327802181243896e-01 7.919467687606811523e-01 1.269641965627670288e-01 2.684720754623413086e-01
1.955000000000000000e+03 2.504429817199707031e+00 5.717873573303222656e+00 -1.061286870390176773e-02 -9.001398086547851562e-01 -2.732258141040802002e-01 7.382759451866149902e-01
1.956000000000000000e+03 5.017769813537597656e+00 4.833232402801513672e+00 -1.647309660911560059e-01 -3.641276657581329346e-01 -1.586575955152511597e-01 1.090116858482360840e+00
1.957000000000000000e+03 6.600316524505615234e+00 4.465666294097900391e+00 -3.246150910854339600e-01 -1.170474812388420105e-01 -1.324987709522247314e-01 1.166803240776062012e+00
1.958000000000000000e+03 4.078748226165771484e+00 6.724092960357666016e+00 1.313797980546951294e-01 -7.316761016845703125e-01 -1.800888925790786743e-01 9.541546702384948730e-01
1.959000000000000000e+03 5.313770771026611328e+00 5.698988914489746094e+00 -5.555641255341470242e-04 -3.828585147857666016e-01 -1.150242239236831665e-01 1.094802021980285645e+00
1.960000000000000000e+03 7.396772861480712891e+00 4.385653972625732422e+00 -3.878715038299560547e-01 -1.077735610306262970e-02 -1.195946559309959412e-01 1.153400897979736328e+00
1.961000000000000000e+03 4.184908866882324219e+00 5.148392200469970703e+00 -8.693508058786392212e-02 -5.124998092651367188e-01 -1.798304766416549683e-01 9.943832755088806152e-01
1.962000000000000000e+03 9.132761001586914062e+00 5.118370532989501953e+00 -1.685870811343193054e-02 2.953042089939117432e-01 8.353365212678909302e-02 1.048898339271545410e+00
1.963000000000000000e+03 9.959210395812988281e+00 5.062622070312500000e+00 -4.950482863932847977e-03 4.563851356506347656e-01 1.354303956031799316e-01 9.272454380989074707e-01
1.964000000000000000e+03 2.194997215270996094e+01 -7.228818893432617188e+00 -1.602955758571624756e-01 1.755676984786987305e+00 4.786144196987152100e-01 1.813267230987548828e+00
1.965000000000000000e+03 2.341888427734375000e+01 -7.037312030792236328e+00 -5.246189236640930176e-01 1.631197571754455566e+00 3.319736123085021973e-01 1.375943422317504883e+00
1.966000000000000000e+03 2.626803207397460938e+01 -4.192644119262695312e+00 2.226186513900756836e+00 8.059638142585754395e-01 9.096451401710510254e-01 5.718007683753967285e-01
1.967000000000000000e+03 1.753389167785644531e+01 -1.079819297790527344e+01 1.468312382698059082e+00 2.827947854995727539e+00 1.288878083229064941e+00 2.321964025497436523e+00
1.968000000000000000e+03 1.491291236877441406e+01 -1.046968841552734375e+01 9.071889519691467285e-01 3.514808177947998047e+00 1.326599121093750000e+00 1.254966259002685547e+00
1.969000000000000000e+03 1.961218643188476562e+01 -8.546015739440917969e+00 2.354392558336257935e-01 1.811402440071105957e+00 6.140524744987487793e-01 2.115073919296264648e+00
1.970000000000000000e+03 1.767323112487792969e+01 -8.955719947814941406e+00 4.893062114715576172e-01 2.530606985092163086e+00 9.059739708900451660e-01 2.179526805877685547e+00
1.971000000000000000e+03 1.646515846252441406e+01 -9.447998046875000000e+00 6.316550970077514648e-01 2.898357391357421875e+00 1.059003710746765137e+00 1.826674222946166992e+00
1.972000000000000000e+03 8.907710075378417969e+00 1.717160034179687500e+01 8.401397466659545898e-01 1.992794513702392578e+00 8.498802781105041504e-01 -1.065426111221313477e+00
1.973000000000000000e+03 8.891413688659667969e+00 1.529407691955566406e+01 1.171176195144653320e+00 1.816930413246154785e+00 8.964319825172424316e-01 -9.477651119232177734e-01
1.974000000000000000e+03 2.118677902221679688e+01 -7.589080810546875000e+00 -1.884981244802474976e-01 1.731762886047363281e+00 4.629794061183929443e-01 1.964640736579895020e+00
1.975000000000000000e+03 4.133353805541992188e+01 -1.850137519836425781e+01 1.933120012283325195e+00 9.179400444030761719e+00 3.333756208419799805e+00 -1.273211598396301270e+00
1.976000000000000000e+03 2.049787139892578125e+01 -8.529542922973632812e+00 7.398393750190734863e-02 1.595526456832885742e+00 5.008531212806701660e-01 1.968759894371032715e+00
1.977000000000000000e+03 4.276194381713867188e+01 -1.065731239318847656e+01 1.959993094205856323e-01 5.618752956390380859e+00 1.744425654411315918e+00 -6.101552248001098633e-01
1.978000000000000000e+03 1.027115726470947266e+01 1.985754394531250000e+01 3.166523575782775879e-01 2.753891229629516602e+00 9.211630821228027344e-01 -1.221863031387329102e+00
1.979000000000000000e+03 9.077269554138183594e+00 1.615762901306152344e+01 1.006527662277221680e+00 2.168401956558227539e+00 9.524788856506347656e-01 -1.019820690155029297e+00
1.980000000000000000e+03 2.378147506713867188e+01 -6.211002349853515625e+00 -8.676309883594512939e-02 1.608976006507873535e+00 4.566638767719268799e-01 1.343673348426818848e+00
1.981000000000000000e+03 1.421239566802978516e+01 -1.167682456970214844e+01 1.578686594963073730e+00 3.938686370849609375e+00 1.655211925506591797e+00 1.182068467140197754e+00
1.982000000000000000e+03 3.660111236572265625e+01 1.705116391181945801e+00 2.662923574447631836e+00 1.192365837097167969e+01 4.375974655151367188e+00 1.554735600948333740e-01
1.983000000000000000e+03 3.095055580139160156e+01 -3.637145280838012695e+00 2.139679908752441406e+00 3.690142869949340820e+00 1.748946785926818848e+00 -2.500407993793487549e-01
1.984000000000000000e+03 3.984661865234375000e+01 1.555056095123291016e+01 6.680532693862915039e-01 7.222537517547607422e+00 2.367177248001098633e+00 1.614446520805358887e+00
1.985000000000000000e+03 2.614855003356933594e+01 -2.051834821701049805e+00 4.625840663909912109e+00 5.980213880538940430e-01 1.567158579826354980e+00 -3.217986524105072021e-01
1.986000000000000000e+03 1.362423324584960938e+01 6.267792701721191406e+00 1.368167996406555176e+00 1.931057572364807129e+00 9.897676706314086914e-01 -4.494590759277343750e-01
1.987000000000000000e+03 2.931772613525390625e+01 -4.290750026702880859e+00 2.047282457351684570e+00 1.637145876884460449e+00 1.105328440666198730e+00 -1.374452114105224609e-01
1.988000000000000000e+03 5.470857620239257812e+00 -1.641456604003906250e+01 5.808718204498291016e-01 -1.849946216680109501e-03 1.737065613269805908e-01 2.809731364250183105e-01
1.989000000000000000e+03 1.034680557250976562e+01 -2.003434181213378906e+01 8.514640927314758301e-01 2.635413169860839844e+00 1.046063184738159180e+00 9.853338003158569336e-01
1.990000000000000000e+03 1.360832405090332031e+01 8.471292495727539062e+00 2.534677028656005859e+00 3.237007141113281250e+00 1.731505274772644043e+00 -1.241833925247192383e+00
1.991000000000000000e+03 3.590194320678710938e+01 -8.714983463287353516e-01 1.606646060943603516e+00 1.026828575134277344e+01 3.562479496002197266e+00 -4.815784096717834473e-01
1.992000000000000000e+03 2.959650421142578125e+01 -2.331416845321655273e+00 4.190511703491210938e+00 2.313007831573486328e+00 1.951055765151977539e+00 6.148067712783813477e-01
1.993000000000000000e+03 3.878630447387695312e+01 1.493978118896484375e+01 6.044708490371704102e-01 7.904475688934326172e+00 2.552684068679809570e+00 1.177457928657531738e+00
1.994000000000000000e+03 1.313614654541015625e+01 -1.176772403717041016e+01 1.346453309059143066e+00 3.405540227890014648e+00 1.425598025321960449e+00 5.986447930335998535e-01
1.995000000000000000e+03 5.878669738769531250e+00 -1.031627941131591797e+01 3.546947240829467773e-01 2.522314153611660004e-02 1.139753609895706177e-01 -6.286692619323730469e-01
1.996000000000000000e+03 3.190824699401855469e+01 -3.770519971847534180e+00 1.348540186882019043e+00 5.304434776306152344e+00 1.995892524719238281e+00 -7.975350022315979004e-01
1.997000000000000000e+03 1.118862342834472656e+01 1.239116573333740234e+01 1.982092738151550293e+00 3.064788103103637695e+00 1.514064311981201172e+00 -9.161696434020996094e-01
1.998000000000000000e+03 1.067254352569580078e+01 1.378642654418945312e+01 1.703055500984191895e+00 3.051195621490478516e+00 1.426275372505187988e+00 -9.587167501449584961e-01
1.999000000000000000e+03 3.838682174682617188e+01 -8.523003578186035156e+00 -1.497541666030883789e+00 9.016799926757812500e+00 2.255777597427368164e+00 -1.634791493415832520e+00
2.000000000000000000e+03 7.493945312500000000e+01 3.104019165039062500e+01 -1.244562193751335144e-01 7.289233684539794922e+00 2.149433135986328125e+00 1.716794967651367188e-01
2.001000000000000000e+03 7.404062652587890625e+01 3.008936309814453125e+01 -1.798007190227508545e-01 7.190810680389404297e+00 2.103302955627441406e+00 2.169337719678878784e-01
2.002000000000000000e+03 3.209675979614257812e+01 -2.670682907104492188e+00 2.403629541397094727e+00 5.814813613891601562e+00 2.465532779693603516e+00 7.352073490619659424e-02
2.003000000000000000e+03 1.216079711914062500e+01 1.198981094360351562e+01 2.168538570404052734e+00 3.985897302627563477e+00 1.846330761909484863e+00 -1.311419963836669922e+00
2.004000000000000000e+03 5.908800601959228516e+00 9.601694107055664062e+00 7.279764413833618164e-01 -2.783965766429901123e-01 1.348739564418792725e-01 6.124454140663146973e-01
2.005000000000000000e+03 7.485517883300781250e+01 -3.203623962402343750e+01 -4.054172635078430176e-01 8.677925109863281250e+00 2.481752395629882812e+00 -3.818076848983764648e-01
2.006000000000000000e+03 2.723744773864746094e+01 -3.151063919067382812e+00 3.806685924530029297e+00 6.506502032279968262e-01 1.337200880050659180e+00 3.498666584491729736e-01
2.007000000000000000e+03 7.413171386718750000e+01 2.313093376159667969e+01 -9.973012655973434448e-02 7.116019725799560547e+00 2.104886770248413086e+00 5.672559738159179688e-01
2.008000000000000000e+03 7.451406860351562500e+01 1.921005439758300781e+01 1.241801977157592773e-01 6.906605720520019531e+00 2.109235763549804688e+00 5.432543158531188965e-01
2.009000000000000000e+03 7.607415771484375000e+01 -2.150852775573730469e+01 4.084912538528442383e-01 8.140146255493164062e+00 2.564591169357299805e+00 -1.049510240554809570e+00
2.010000000000000000e+03 7.398351287841796875e+01 -2.151523208618164062e+01 8.077340722084045410e-01 9.165325164794921875e+00 2.991917848587036133e+00 -1.106883049011230469e+00
2.011000000000000000e+03 7.545584869384765625e+01 1.287751579284667969e+01 2.416626363992691040e-01 6.621985912322998047e+00 2.059094667434692383e+00 5.116426199674606323e-02
2.012000000000000000e+03 7.422559356689453125e+01 1.580832290649414062e+01 2.977922558784484863e-01 6.809864997863769531e+00 2.132297039031982422e+00 3.482591807842254639e-01
2.013000000000000000e+03 7.546103668212890625e+01 1.716874313354492188e+01 1.653510630130767822e-01 6.756201267242431641e+00 2.076465845108032227e+00 4.002110362052917480e-01
2.014000000000000000e+03 7.428920745849609375e+01 8.827008247375488281e+00 3.119300007820129395e-01 6.763389587402343750e+00 2.122596025466918945e+00 -3.294111490249633789e-01
2.015000000000000000e+03 7.416695404052734375e+01 4.555568218231201172e+00 1.699513942003250122e-01 6.903236865997314453e+00 2.121956586837768555e+00 -6.214997172355651855e-01
2.016000000000000000e+03 7.348857879638671875e+01 -1.685676193237304688e+01 1.446596622467041016e+00 9.490704536437988281e+00 3.281190395355224609e+00 1.886061877012252808e-01
2.017000000000000000e+03 7.432747650146484375e+01 4.662989974021911621e-01 -4.047782346606254578e-02 7.128379821777343750e+00 2.126370668411254883e+00 -7.318877577781677246e-01
2.018000000000000000e+03 7.425954437255859375e+01 1.656645774841308594e+00 1.983889192342758179e-02 7.053687095642089844e+00 2.122057676315307617e+00 -7.171605229377746582e-01
2.019000000000000000e+03 7.543781280517578125e+01 3.062095403671264648e+00 5.393939465284347534e-02 7.003327369689941406e+00 2.117180109024047852e+00 -6.025330424308776855e-01
2.020000000000000000e+03 7.325489807128906250e+01 1.032263278961181641e+01 4.338718056678771973e-01 6.836705684661865234e+00 2.181173324584960938e+00 -1.968085467815399170e-01
2.021000000000000000e+03 7.447175598144531250e+01 -7.655848026275634766e+00 -6.885457634925842285e-01 8.152152061462402344e+00 2.239081859588623047e+00 5.080780480057001114e-03
2.022000000000000000e+03 7.562035369873046875e+01 -6.509963512420654297e+00 -4.433791935443878174e-01 7.956448554992675781e+00 2.253920793533325195e+00 -5.888947099447250366e-02
2.023000000000000000e+03 7.173095703125000000e+01 -8.651371955871582031e+00 -1.276838302612304688e+00 8.402492523193359375e+00 2.137696266174316406e+00 -4.855049550533294678e-01
2.024000000000000000e+03 7.468248748779296875e+01 -1.434435653686523438e+01 4.376523792743682861e-01 8.823638916015625000e+00 2.778387308120727539e+00 8.558738827705383301e-01
2.025000000000000000e+03 7.552735137939453125e+01 -1.044425964355468750e+01 -4.364974200725555420e-01 8.376975059509277344e+00 2.382143259048461914e+00 6.408419013023376465e-01
2.026000000000000000e+03 7.206162261962890625e+01 -1.018242454528808594e+01 -1.242699980735778809e+00 8.920246124267578125e+00 2.303263902664184570e+00 -8.339081704616546631e-02
2.027000000000000000e+03 7.249581146240234375e+01 -9.220469474792480469e+00 -1.058052420616149902e+00 8.611546516418457031e+00 2.266048192977905273e+00 -1.433157622814178467e-01
2.028000000000000000e+03 7.395092010498046875e+01 -2.371767520904541016e+00 -2.686276137828826904e-01 7.332464694976806641e+00 2.119151115417480469e+00 -7.063841223716735840e-01
2.029000000000000000e+03 7.413205718994140625e+01 -3.845573186874389648e+00 -4.424916505813598633e-01 7.569319248199462891e+00 2.138048410415649414e+00 -5.889341235160827637e-01
2.030000000000000000e+03 7.429931640625000000e+01 -5.198816776275634766e+00 -5.216702222824096680e-01 7.748724937438964844e+00 2.168116331100463867e+00 -4.131851494312286377e-01
2.031000000000000000e+03 7.451032257080078125e+01 -1.784433174133300781e+01 1.281636357307434082e+00 8.942283630371093750e+00 3.067175865173339844e+00 -9.428851306438446045e-02
2.032000000000000000e+03 7.600574493408203125e+01 -2.017392539978027344e+01 6.216210722923278809e-01 8.077281951904296875e+00 2.609671115875244141e+00 -7.248861789703369141e-01
2.033000000000000000e+03 7.179387664794921875e+01 1.656166267395019531e+01 4.731796681880950928e-01 7.031472682952880859e+00 2.251395702362060547e+00 4.667081534862518311e-01
2.034000000000000000e+03 7.429264068603515625e+01 1.716282081604003906e+01 2.299102842807769775e-01 6.853283882141113281e+00 2.124958276748657227e+00 4.278157055377960205e-01
2.035000000000000000e+03 7.552259826660156250e+01 -2.566187095642089844e+01 -1.646568477153778076e-01 8.809542655944824219e+00 2.593465805053710938e+00 -1.287644982337951660e+00
2.036000000000000000e+03 7.420101165771484375e+01 7.445609569549560547e+00 2.649315297603607178e-01 6.809231281280517578e+00 2.122248888015747070e+00 -4.307721257209777832e-01
2.037000000000000000e+03 7.467504119873046875e+01 -2.728862190246582031e+01 -4.420475661754608154e-01 8.866139411926269531e+00 2.527227640151977539e+00 -1.104330301284790039e+00
2.038000000000000000e+03 7.325653839111328125e+01 2.884412956237792969e+01 -2.374543547630310059e-01 7.112939357757568359e+00 2.062645435333251953e+00 2.803156077861785889e-01
2.039000000000000000e+03 7.383336639404296875e+01 2.549064636230468750e+01 -1.855855882167816162e-01 7.162329673767089844e+00 2.093023300170898438e+00 4.849830567836761475e-01
2.040000000000000000e+03 7.507723999023437500e+01 2.620315742492675781e+01 -1.231862083077430725e-01 7.242160320281982422e+00 2.135692119598388672e+00 4.107819795608520508e-01
2.041000000000000000e+03 7.565509796142578125e+01 2.392585754394531250e+01 -7.300262898206710815e-02 7.173227787017822266e+00 2.130067586898803711e+00 4.819334447383880615e-01
2.042000000000000000e+03 7.522062683105468750e+01 -2.133359909057617188e+01 5.952428579330444336e-01 8.578415870666503906e+00 2.752097606658935547e+00 -1.059363007545471191e+00
2.043000000000000000e+03 7.243362426757812500e+01 2.771013069152832031e+01 -2.975150346755981445e-01 7.044222354888916016e+00 2.024012088775634766e+00 3.261692523956298828e-01
2.044000000000000000e+03 7.329234313964843750e+01 2.680805015563964844e+01 -2.493303120136260986e-01 7.130401611328125000e+00 2.064321279525756836e+00 4.046893119812011719e-01
2.045000000000000000e+03 7.407605743408203125e+01 1.437426280975341797e+01 3.488475084304809570e-01 6.794937133789062500e+00 2.143135309219360352e+00 1.975656002759933472e-01
2.046000000000000000e+03 7.436537170410156250e+01 1.151431179046630859e+01 3.378889262676239014e-01 6.735852718353271484e+00 2.122122526168823242e+00 -7.991194725036621094e-02
2.047000000000000000e+03 7.403652191162109375e+01 3.238050079345703125e+01 -1.399872303009033203e-01 7.152642250061035156e+00 2.103796482086181641e+00 1.110832244157791138e-01
2.048000000000000000e+03 7.188491058349609375e+01 -3.215228652954101562e+01 -7.139739990234375000e-01 7.661406040191650391e+00 2.084229707717895508e+00 -2.267878502607345581e-02
2.049000000000000000e+03 7.391738128662109375e+01 2.157422447204589844e+01 -1.131768990308046341e-02 7.040421962738037109e+00 2.108731269836425781e+00 6.204664707183837891e-01
2.050000000000000000e+03 7.379873657226562500e+01 1.823469734191894531e+01 2.212601304054260254e-01 6.943141937255859375e+00 2.149320602416992188e+00 5.315098166465759277e-01
2.051000000000000000e+03 6.568627929687500000e+01 -9.436567306518554688e+00 -1.185505867004394531e+00 3.647109985351562500e+00 7.384812235832214355e-01 -2.453136920928955078e+00
2.052000000000000000e+03 6.284934997558593750e+01 -8.539700508117675781e+00 -2.130326032638549805e-01 1.368298530578613281e+00 3.465797603130340576e-01 -6.083706021308898926e-01
2.053000000000000000e+03 7.274335479736328125e+01 -3.379160308837890625e+01 -4.712936282157897949e-01 7.674033164978027344e+00 2.160821914672851562e+00 -4.463398829102516174e-02
2.054000000000000000e+03 6.004433822631835938e+01 7.221711874008178711e-01 1.327804684638977051e+00 4.097766876220703125e+00 1.627671480178833008e+00 1.820011734962463379e+00
2.055000000000000000e+03 7.268752288818359375e+01 3.125563240051269531e+01 -2.204569131135940552e-01 6.974534988403320312e+00 2.026223421096801758e+00 1.346420645713806152e-01
2.056000000000000000e+03 5.034233093261718750e+01 -1.055086612701416016e+01 4.755303859710693359e-01 1.042435050010681152e+00 4.553896486759185791e-01 2.262188196182250977e+00
2.057000000000000000e+03 6.232210159301757812e+00 3.090455055236816406e+01 -2.796883583068847656e-01 1.115953207015991211e+00 2.508794367313385010e-01 -3.849823176860809326e-01
2.058000000000000000e+03 5.351237773895263672e+00 -3.029837608337402344e+01 -2.627696394920349121e-01 1.027258157730102539e+00 2.293465435504913330e-01 6.587526798248291016e-01
2.059000000000000000e+03 6.342690467834472656e+00 -2.864643669128417969e+01 -2.996892333030700684e-01 1.130661725997924805e+00 2.492917627096176147e-01 8.303942680358886719e-01
2.060000000000000000e+03 3.774431228637695312e+01 -2.931859970092773438e+00 -3.817157447338104248e-01 9.746123313903808594e+00 2.809322357177734375e+00 -1.542003035545349121e+00
2.061000000000000000e+03 4.261177539825439453e+00 2.733294296264648438e+01 -1.914250701665878296e-01 7.074653506278991699e-01 1.548120826482772827e-01 -5.815532803535461426e-01
2.062000000000000000e+03 4.682358741760253906e+00 -2.605037879943847656e+01 -9.351549297571182251e-02 5.750093460083007812e-01 1.444481462240219116e-01 8.973535299301147461e-01
2.063000000000000000e+03 4.789969444274902344e+00 -1.128239917755126953e+01 2.942548692226409912e-01 -4.084451794624328613e-01 -3.425708785653114319e-02 -5.117666721343994141e-01
2.064000000000000000e+03 5.950755310058593750e+01 -8.495609283447265625e+00 -1.622575819492340088e-01 1.319640398025512695e+00 3.472148478031158447e-01 6.193718910217285156e-01
2.065000000000000000e+03 5.507444381713867188e+00 -2.183520698547363281e+01 1.607947051525115967e-01 4.707982540130615234e-01 1.894778907299041748e-01 9.477953314781188965e-01
2.066000000000000000e+03 5.028704166412353516e+00 2.377657127380371094e+01 -1.632669568061828613e-01 5.947974324226379395e-01 1.294591426849365234e-01 -9.328092932701110840e-01
2.067000000000000000e+03 6.465444087982177734e+00 2.435925674438476562e+01 -3.138477504253387451e-01 1.187176942825317383e+00 2.619987428188323975e-01 -9.561852216720581055e-01
2.068000000000000000e+03 1.043218803405761719e+01 2.609356880187988281e+01 -7.607485651969909668e-01 1.988710045814514160e+00 3.683884441852569580e-01 -5.581504702568054199e-01
2.069000000000000000e+03 5.320010185241699219e+00 -1.437369537353515625e+01 5.301939249038696289e-01 -1.577774882316589355e-01 1.117249280214309692e-01 -7.094416767358779907e-02
2.070000000000000000e+03 4.337589740753173828e+00 -1.921204566955566406e+01 2.832870185375213623e-01 -3.218487501144409180e-01 -1.156852021813392639e-02 5.874363183975219727e-01
2.071000000000000000e+03 1.016915893554687500e+01 1.721994018554687500e+01 8.265014290809631348e-01 2.891816854476928711e+00 1.115495562553405762e+00 -1.159385085105895996e+00
2.072000000000000000e+03 5.285346031188964844e+00 1.894440650939941406e+01 2.293898910284042358e-01 2.278295159339904785e-01 1.371658146381378174e-01 -9.744943976402282715e-01
2.073000000000000000e+03 4.350433349609375000e+00 1.480828666687011719e+01 4.085314869880676270e-01 -6.508783698081970215e-01 -7.270405441522598267e-02 -3.599121272563934326e-01
2.074000000000000000e+03 4.380599498748779297e+00 1.139961147308349609e+01 5.495103597640991211e-01 -8.089928627014160156e-01 -7.784475386142730713e-02 2.583317160606384277e-01
2.075000000000000000e+03 5.372086524963378906e+00 1.990098762512207031e+01 1.385617554187774658e-01 3.858559727668762207e-01 1.573253124952316284e-01 -1.026333570480346680e+00
2.076000000000000000e+03 9.645213127136230469e+00 -1.834031105041503906e+01 1.132436156272888184e+00 2.267981529235839844e+00 1.020125389099121094e+00 8.226301074028015137e-01
2.077000000000000000e+03 6.035961627960205078e+00 -2.591971015930175781e+01 -1.638696044683456421e-01 9.793712496757507324e-01 2.446504831314086914e-01 9.904265999794006348e-01
2.078000000000000000e+03 5.792215347290039062e+00 2.808959197998046875e+01 -3.183289170265197754e-01 1.039786219596862793e+00 2.164371758699417114e-01 -6.079670190811157227e-01
2.079000000000000000e+03 4.298346519470214844e+00 2.630636215209960938e+01 -1.927934139966964722e-01 6.401059627532958984e-01 1.341937631368637085e-01 -6.951109170913696289e-01
2.080000000000000000e+03 5.611696243286132812e+00 1.595095825195312500e+01 5.537743568420410156e-01 1.140042692422866821e-01 2.003335803747177124e-01 -6.719910502433776855e-01
2.081000000000000000e+03 5.471834659576416016e+00 1.375824356079101562e+01 6.995743513107299805e-01 -1.707195937633514404e-01 1.586564332246780396e-01 -2.521050274372100830e-01
2.082000000000000000e+03 3.708991289138793945e+00 -1.229619598388671875e+01 2.492521554231643677e-01 -8.384670019149780273e-01 -1.767644435167312622e-01 -3.807509839534759521e-01
2.083000000000000000e+03 1.103744983673095703e+01 -1.190476799011230469e+01 1.147755026817321777e+00 2.333469152450561523e+00 1.044367194175720215e+00 1.839515566825866699e-02
2.084000000000000000e+03 6.608069896697998047e+00 2.185662269592285156e+01 -9.618060290813446045e-02 1.058266282081604004e+00 2.886257171630859375e-01 -1.131319284439086914e+00
2.085000000000000000e+03 6.092434406280517578e+00 1.936947822570800781e+01 2.244694083929061890e-01 7.310672998428344727e-01 2.866610288619995117e-01 -1.088606238365173340e+00
2.086000000000000000e+03 5.890853404998779297e+00 2.086153030395507812e+01 2.445906959474086761e-02 7.722193598747253418e-01 2.390035241842269897e-01 -1.116582274436950684e+00
2.087000000000000000e+03 5.587049484252929688e+00 -2.063838195800781250e+01 3.859167098999023438e-01 4.321545660495758057e-01 2.454213798046112061e-01 8.861279487609863281e-01
2.088000000000000000e+03 5.549786090850830078e+00 -1.778193855285644531e+01 5.341796875000000000e-01 1.133879274129867554e-01 1.942702829837799072e-01 5.171107649803161621e-01
2.089000000000000000e+03 8.036048889160156250e+00 -3.355368423461914062e+01 -4.178471863269805908e-01 1.312211275100708008e+00 2.683092355728149414e-01 4.149401783943176270e-01
2.090000000000000000e+03 5.871433258056640625e+00 -3.381334686279296875e+01 -2.648508250713348389e-01 1.154793977737426758e+00 2.669829428195953369e-01 4.236795306205749512e-01
2.091000000000000000e+03 5.101863098144531250e+01 -1.104079437255859375e+01 3.320186734199523926e-01 9.736157655715942383e-01 3.916903138160705566e-01 2.170696735382080078e+00
2.092000000000000000e+03 5.257254409790039062e+01 -8.661947250366210938e+00 3.165201842784881592e-02 1.450287222862243652e+00 4.445817768573760986e-01 2.332281351089477539e+00
2.093000000000000000e+03 6.203802585601806641e+00 -2.730711555480957031e+01 -2.390355765819549561e-01 1.063163638114929199e+00 2.472384124994277954e-01 9.191812872886657715e-01
2.094000000000000000e+03 4.164247989654541016e+00 1.025235843658447266e+01 4.392839372158050537e-01 -9.172918200492858887e-01 -1.434023678302764893e-01 5.086881518363952637e-01
2.095000000000000000e+03 1.168803310394287109e+01 1.339375972747802734e+01 1.850787401199340820e+00 3.911661863327026367e+00 1.728734731674194336e+00 -1.290877699851989746e+00
2.096000000000000000e+03 4.086464881896972656e+00 9.014908790588378906e+00 3.612264990806579590e-01 -8.665971159934997559e-01 -1.516111940145492554e-01 7.072948813438415527e-01
2.097000000000000000e+03 6.146868705749511719e+00 1.140559101104736328e+01 9.370392560958862305e-01 -4.736246168613433838e-02 2.669030427932739258e-01 2.091310173273086548e-01
2.098000000000000000e+03 6.641298675537109375e+01 -8.436183929443359375e+00 -9.037867784500122070e-01 4.577969551086425781e+00 1.102254867553710938e+00 -2.218271732330322266e+00
2.099000000000000000e+03 5.107964992523193359e+00 8.748056411743164062e+00 4.812955260276794434e-01 -5.332451462745666504e-01 -1.558488328009843826e-02 7.640204429626464844e-01
2.100000000000000000e+03 4.915160655975341797e+00 -8.222025871276855469e+00 1.039372608065605164e-01 -2.682583630084991455e-01 -4.929633066058158875e-02 -7.363440990447998047e-01
2.101000000000000000e+03 3.841482877731323242e+00 -8.880155563354492188e+00 1.117532551288604736e-01 -6.113110184669494629e-01 -1.498673409223556519e-01 -6.613354682922363281e-01
2.102000000000000000e+03 7.102594375610351562e+00 3.485042953491210938e+01 -1.926893293857574463e-01 1.141220211982727051e+00 2.845592498779296875e-01 -1.854832917451858521e-01
2.103000000000000000e+03 5.439255714416503906e+00 3.474159622192382812e+01 -1.466260105371475220e-01 1.077284932136535645e+00 2.791976928710937500e-01 -1.987371146678924561e-01
2.104000000000000000e+03 1.095891666412353516e+01 -1.937399864196777344e+01 9.577612280845642090e-01 3.309764623641967773e+00 1.280257701873779297e+00 9.232609868049621582e-01
2.105000000000000000e+03 1.146026420593261719e+01 -2.427693939208984375e+01 -2.618584930896759033e-01 2.728408575057983398e+00 7.399650812149047852e-01 8.367834687232971191e-01
2.106000000000000000e+03 6.385385894775390625e+01 -9.464043617248535156e+00 -9.110614657402038574e-01 1.049039840698242188e+00 4.139352962374687195e-02 -1.309942126274108887e+00
2.107000000000000000e+03 6.112629318237304688e+01 -8.451881408691406250e+00 -2.041971534490585327e-01 1.189320564270019531e+00 2.955370247364044189e-01 9.345515072345733643e-02
2.108000000000000000e+03 4.246759414672851562e+00 -7.068068027496337891e+00 1.658092485740780830e-03 -3.917760252952575684e-01 -1.170353814959526062e-01 -7.291781902313232422e-01
2.109000000000000000e+03 4.197104644775390625e+01 -8.221948623657226562e+00 -8.778365254402160645e-01 5.596835136413574219e+00 1.415699601173400879e+00 -1.331411719322204590e+00
2.110000000000000000e+03 4.607508087158203125e+01 -1.241590690612792969e+01 9.944700598716735840e-01 3.838427782058715820e+00 1.449869275093078613e+00 1.140113115310668945e+00
2.111000000000000000e+03 4.489677047729492188e+01 -1.276855468750000000e+01 8.317582607269287109e-01 4.999756336212158203e+00 1.749454379081726074e+00 5.757272243499755859e-01
2.112000000000000000e+03 1.080101490020751953e+01 2.326511001586914062e+01 -6.876981258392333984e-01 2.584556579589843750e+00 5.690575838088989258e-01 -7.677735686302185059e-01
2.113000000000000000e+03 4.086734771728515625e+01 -1.731582450866699219e+01 1.947945356369018555e+00 9.053112030029296875e+00 3.300317049026489258e+00 -1.370188832283020020e+00
2.114000000000000000e+03 3.674552917480468750e+01 1.242020988464355469e+01 8.592050671577453613e-01 9.983282089233398438e+00 3.252746343612670898e+00 -7.481231540441513062e-02
2.115000000000000000e+03 1.177523326873779297e+01 -1.353334236145019531e+01 1.558010816574096680e+00 3.100462913513183594e+00 1.397542119026184082e+00 4.329293966293334961e-01
2.116000000000000000e+03 3.642558670043945312e+01 -8.362507820129394531e+00 -1.741291403770446777e+00 9.644367218017578125e+00 2.370922565460205078e+00 -1.672195911407470703e+00
2.117000000000000000e+03 1.239386272430419922e+01 -2.980323791503906250e+01 -7.635212540626525879e-01 1.865564703941345215e+00 3.306130468845367432e-01 3.401279449462890625e-01
2.118000000000000000e+03 1.922527122497558594e+01 -3.523946380615234375e+01 -4.856032133102416992e-01 7.276002168655395508e-01 7.259909808635711670e-02 -2.964423000812530518e-01
2.119000000000000000e+03 3.346058273315429688e+01 1.928033447265625000e+01 2.769953608512878418e-01 6.161672115325927734e+00 1.931600213050842285e+00 -8.666893839836120605e-01
2.120000000000000000e+03 4.482193756103515625e+01 2.048483657836914062e+01 -4.151896387338638306e-02 3.246648788452148438e+00 9.615389704704284668e-01 1.685737609863281250e+00
2.121000000000000000e+03 4.204569625854492188e+01 1.912979125976562500e+01 8.798473328351974487e-02 4.886862277984619141e+00 1.492454171180725098e+00 1.773853421211242676e+00
2.122000000000000000e+03 4.565830993652343750e+01 2.297673606872558594e+01 -4.608344733715057373e-01 3.022596597671508789e+00 7.685286402702331543e-01 1.611930012702941895e+00
2.123000000000000000e+03 4.263442230224609375e+01 2.023599243164062500e+01 -1.316289454698562622e-01 4.431342124938964844e+00 1.289914011955261230e+00 1.690322756767272949e+00
2.124000000000000000e+03 1.174735164642333984e+01 -2.721011924743652344e+01 -6.632075309753417969e-01 2.224997758865356445e+00 4.685370922088623047e-01 5.547115802764892578e-01
2.125000000000000000e+03 1.412383174896240234e+01 -2.514793395996093750e+01 -5.529659390449523926e-01 2.793542861938476562e+00 6.721730828285217285e-01 -2.159015834331512451e-02
2.126000000000000000e+03 6.114731979370117188e+01 2.174255698919296265e-01 1.050283312797546387e+00 4.439051151275634766e+00 1.646800279617309570e+00 1.290169000625610352e+00
2.127000000000000000e+03 2.516520309448242188e+01 -2.986007213592529297e+00 3.019851446151733398e+00 1.381498217582702637e+00 1.320404887199401855e+00 1.671600714325904846e-02
2.128000000000000000e+03 7.225834846496582031e+00 1.348973751068115234e+01 1.123896718025207520e+00 7.508331537246704102e-01 5.624189972877502441e-01 -3.704541623592376709e-01
2.129000000000000000e+03 5.831399917602539062e+01 -7.198279857635498047e+00 4.011566638946533203e-01 1.613514780998229980e+00 6.044014692306518555e-01 1.026393651962280273e+00
2.130000000000000000e+03 5.424833297729492188e+01 -7.720420837402343750e+00 3.281516432762145996e-01 1.744865536689758301e+00 6.219051480293273926e-01 1.849202394485473633e+00
2.131000000000000000e+03 3.709600067138671875e+01 1.541823482513427734e+01 4.400637149810791016e-01 8.013622283935546875e+00 2.536105632781982422e+00 2.239170521497726440e-01
2.132000000000000000e+03 1.347268867492675781e+01 -2.900852394104003906e+01 -8.315168023109436035e-01 2.006305456161499023e+00 3.524365723133087158e-01 1.764753907918930054e-01
2.133000000000000000e+03 2.593931961059570312e+01 2.820762825012207031e+01 -4.903832376003265381e-01 1.591553092002868652e+00 3.303509652614593506e-01 -8.511471748352050781e-01
2.134000000000000000e+03 7.153987121582031250e+01 -2.537488746643066406e+01 -5.135225057601928711e-01 9.407899856567382812e+00 2.668313264846801758e+00 -8.100884556770324707e-01
2.135000000000000000e+03 5.861997604370117188e+01 -6.120182037353515625e+00 7.073209285736083984e-01 1.931212425231933594e+00 7.915599942207336426e-01 1.025837540626525879e+00
2.136000000000000000e+03 7.268238830566406250e+01 -1.282186317443847656e+01 -1.203659847378730774e-01 9.740231513977050781e+00 2.885959625244140625e+00 6.647376418113708496e-01
2.137000000000000000e+03 6.988183593750000000e+01 -1.276566123962402344e+01 -5.079338550567626953e-01 1.013003349304199219e+01 2.886629819869995117e+00 -4.846234917640686035e-01
2.138000000000000000e+03 3.951496887207031250e+01 1.877468299865722656e+01 -1.409638226032257080e-01 6.009842872619628906e+00 1.760663747787475586e+00 1.120955228805541992e+00
2.139000000000000000e+03 3.925776672363281250e+01 -1.881816673278808594e+01 1.833454847335815430e+00 9.817362785339355469e+00 3.495245218276977539e+00 -1.399680376052856445e+00
2.140000000000000000e+03 3.891530609130859375e+01 -2.005329704284667969e+01 1.735400915145874023e+00 9.815492630004882812e+00 3.465268135070800781e+00 -1.120370864868164062e+00
2.141000000000000000e+03 3.953188323974609375e+01 -8.388827323913574219e+00 -1.363205313682556152e+00 8.073787689208984375e+00 2.013174772262573242e+00 -1.637610554695129395e+00
2.142000000000000000e+03 3.705321502685546875e+01 -4.096786022186279297e+00 -1.120313525199890137e+00 9.548612594604492188e+00 2.528489589691162109e+00 -1.501130819320678711e+00
2.143000000000000000e+03 7.172502136230468750e+01 -1.334182929992675781e+01 -1.544808000326156616e-01 1.013284301757812500e+01 2.993508577346801758e+00 4.853067100048065186e-01
2.144000000000000000e+03 6.721269989013671875e+01 1.156030178070068359e+01 9.482188224792480469e-01 7.828173160552978516e+00 2.632917642593383789e+00 9.615769982337951660e-02
2.145000000000000000e+03 9.869734764099121094e+00 -1.470096874237060547e+01 1.379814386367797852e+00 2.156239271163940430e+00 1.060816049575805664e+00 3.028476834297180176e-01
2.146000000000000000e+03 6.575588226318359375e+01 1.038555717468261719e+01 9.323150515556335449e-01 8.236356735229492188e+00 2.750601530075073242e+00 2.771646678447723389e-01
2.147000000000000000e+03 7.335693359375000000e+01 1.149939346313476562e+01 4.205921590328216553e-01 6.839390277862548828e+00 2.177994728088378906e+00 -5.765729770064353943e-02
2.148000000000000000e+03 4.202267456054687500e+01 -1.679250717163085938e+01 1.798531174659729004e+00 8.392306327819824219e+00 3.057251214981079102e+00 -9.794336557388305664e-01
2.149000000000000000e+03 6.493927001953125000e+01 2.129287719726562500e+01 -5.535395741462707520e-01 7.516160011291503906e+00 2.088786125183105469e+00 1.090299338102340698e-01
2.150000000000000000e+03 3.087969970703125000e+01 2.321921157836914062e+01 -5.653794407844543457e-01 4.213099956512451172e+00 1.094316124916076660e+00 -1.103187799453735352e+00
2.151000000000000000e+03 4.392063903808593750e+01 -2.926767539978027344e+01 2.325498163700103760e-01 8.136292457580566406e+00 2.510652542114257812e+00 -9.190476536750793457e-01
2.152000000000000000e+03 4.543054580688476562e+01 -2.854763984680175781e+01 1.017054080963134766e+00 8.180689811706542969e+00 2.759323120117187500e+00 -1.996528625488281250e+00
2.153000000000000000e+03 1.516414260864257812e+01 2.595269584655761719e+01 -9.923421144485473633e-01 1.813771128654479980e+00 2.464287132024765015e-01 3.770972490310668945e-01
2.154000000000000000e+03 1.216227722167968750e+01 2.309681129455566406e+01 -7.786198854446411133e-01 2.916425943374633789e+00 6.413418054580688477e-01 -6.515688300132751465e-01
2.155000000000000000e+03 4.111159133911132812e+01 -2.592074584960937500e+01 1.541867017745971680e+00 8.445330619812011719e+00 2.996159076690673828e+00 -6.548588871955871582e-01
2.156000000000000000e+03 3.551133346557617188e+01 1.255783915519714355e+00 2.945650339126586914e+00 1.151985549926757812e+01 4.339651584625244141e+00 6.869441866874694824e-01
2.157000000000000000e+03 5.182022094726562500e+01 2.444859313964843750e+01 -4.789496660232543945e-01 1.006373405456542969e+00 1.582271158695220947e-01 9.470368623733520508e-01
2.158000000000000000e+03 5.203162765502929688e+01 2.774013710021972656e+01 4.670444875955581665e-03 1.635589122772216797e+00 4.920778870582580566e-01 7.903825044631958008e-01
2.159000000000000000e+03 2.748151588439941406e+01 2.710923004150390625e+01 -6.520402431488037109e-01 2.044943809509277344e+00 4.178710877895355225e-01 -1.049089312553405762e+00
2.160000000000000000e+03 6.796976470947265625e+01 1.407174777984619141e+01 9.328161478042602539e-01 7.691061496734619141e+00 2.587163209915161133e+00 1.905636787414550781e-01
2.161000000000000000e+03 6.923193359375000000e+01 1.348765087127685547e+01 8.417243361473083496e-01 7.411571979522705078e+00 2.475988864898681641e+00 1.780385971069335938e-01
2.162000000000000000e+03 4.050642395019531250e+01 -2.178159141540527344e+01 1.969498515129089355e+00 9.298814773559570312e+00 3.380494117736816406e+00 -1.170088052749633789e+00
2.163000000000000000e+03 6.746526336669921875e+01 7.298819541931152344e+00 8.128740191459655762e-01 7.267071723937988281e+00 2.423983812332153320e+00 -1.082728281617164612e-01
2.164000000000000000e+03 1.890506553649902344e+01 2.874029159545898438e+01 -4.160167574882507324e-01 9.656422734260559082e-01 1.648876518011093140e-01 1.939482837915420532e-01
2.165000000000000000e+03 1.668970298767089844e+01 2.877550506591796875e+01 -5.639387369155883789e-01 1.272701859474182129e+00 2.126289457082748413e-01 2.722223103046417236e-01
2.166000000000000000e+03 6.608890533447265625e+01 5.767362117767333984e+00 7.842782735824584961e-01 7.107036113739013672e+00 2.367394208908081055e+00 5.557356774806976318e-02
2.167000000000000000e+03 6.185636901855468750e+01 -6.159102439880371094e+00 3.865499496459960938e-01 2.262708425521850586e+00 7.947775125503540039e-01 -3.297502547502517700e-02
2.168000000000000000e+03 2.500881958007812500e+01 2.970863342285156250e+01 -3.692779541015625000e-01 1.468795537948608398e+00 3.298552930355072021e-01 -6.102363467216491699e-01
2.169000000000000000e+03 5.196967315673828125e+01 -1.118633651733398438e+01 2.464015632867813110e-01 8.722477555274963379e-01 3.355948030948638916e-01 2.060770511627197266e+00
2.170000000000000000e+03 3.087759399414062500e+01 -2.500102996826171875e+00 3.638146162033081055e+00 3.866923093795776367e+00 2.251520872116088867e+00 3.637054264545440674e-01
2.171000000000000000e+03 5.206984710693359375e+01 -9.507975578308105469e+00 1.561222672462463379e-01 1.175371289253234863e+00 3.994480669498443604e-01 2.341212987899780273e+00
2.172000000000000000e+03 6.971282196044921875e+01 -2.868375778198242188e+01 -1.153293728828430176e+00 7.439637184143066406e+00 1.885903000831604004e+00 1.613191962242126465e-01
2.173000000000000000e+03 6.652880859375000000e+01 -3.016380500793457031e+01 -1.106591463088989258e+00 4.417706489562988281e+00 9.933344721794128418e-01 9.224637150764465332e-01
2.174000000000000000e+03 5.752285003662109375e+01 2.697155380249023438e+01 -9.644638746976852417e-02 1.958352208137512207e+00 5.585717558860778809e-01 -6.433615684509277344e-01
2.175000000000000000e+03 6.418535614013671875e+01 1.331945300102233887e+00 6.825397014617919922e-01 5.649829864501953125e+00 1.899710893630981445e+00 2.907660603523254395e-01
2.176000000000000000e+03 6.164167404174804688e+01 -1.521902084350585938e+00 1.005103468894958496e+00 3.894116401672363281e+00 1.469765901565551758e+00 7.576346397399902344e-01
2.177000000000000000e+03 4.216976547241210938e+01 -1.215594768524169922e+01 5.741992592811584473e-01 6.591162204742431641e+00 2.149608373641967773e+00 -7.061249017715454102e-01
2.178000000000000000e+03 3.608824157714843750e+01 2.178316307067871094e+01 -6.111988425254821777e-01 5.674410820007324219e+00 1.518963575363159180e+00 1.813571602106094360e-01
2.179000000000000000e+03 3.512852096557617188e+01 1.812953186035156250e+01 2.166605591773986816e-01 6.797117233276367188e+00 2.104133367538452148e+00 -4.925604462623596191e-01
2.180000000000000000e+03 5.385363006591796875e+01 -3.616368865966796875e+01 1.411915570497512817e-01 1.169019818305969238e+00 3.930633962154388428e-01 -1.019372224807739258e+00
2.181000000000000000e+03 7.217579650878906250e+01 -2.045741462707519531e+01 1.555701017379760742e+00 1.058183765411376953e+01 3.641261577606201172e+00 -7.561253905296325684e-01
2.182000000000000000e+03 7.339929199218750000e+01 -1.951128578186035156e+01 1.584707260131835938e+00 9.634528160095214844e+00 3.365770816802978516e+00 -6.545696258544921875e-01
2.183000000000000000e+03 6.537210845947265625e+01 3.837258577346801758e+00 7.030360102653503418e-01 6.605165004730224609e+00 2.192460298538208008e+00 1.029381528496742249e-01
2.184000000000000000e+03 6.568094635009765625e+01 4.858857631683349609e+00 7.493085861206054688e-01 6.873014450073242188e+00 2.286696910858154297e+00 7.204109430313110352e-02
2.185000000000000000e+03 7.223878479003906250e+01 -2.815777778625488281e+01 -9.368140697479248047e-01 8.507563591003417969e+00 2.271224737167358398e+00 -5.910607576370239258e-01
2.186000000000000000e+03 6.951635742187500000e+01 -2.737564468383789062e+01 -1.104564666748046875e+00 7.870310306549072266e+00 2.029723644256591797e+00 2.357988208532333374e-01
2.187000000000000000e+03 4.878245544433593750e+01 -3.572189712524414062e+01 -8.052528500556945801e-01 4.004696846008300781e+00 9.598332047462463379e-01 -1.617174029350280762e+00
2.188000000000000000e+03 4.436646270751953125e+01 -3.097518539428710938e+01 -5.014411211013793945e-01 7.355746269226074219e+00 2.056291580200195312e+00 -1.044883370399475098e+00
2.189000000000000000e+03 7.641075611114501953e+00 -1.590518283843994141e+01 1.006625413894653320e+00 1.020405530929565430e+00 6.081092357635498047e-01 3.365134298801422119e-01
2.190000000000000000e+03 1.029506683349609375e+01 -1.739107704162597656e+01 1.294116020202636719e+00 2.675484895706176758e+00 1.190880298614501953e+00 7.750551104545593262e-01
2.191000000000000000e+03 3.827908706665039062e+01 -1.027777862548828125e+01 -4.457925260066986084e-01 9.003638267517089844e+00 2.567353725433349609e+00 -1.368266582489013672e+00
2.192000000000000000e+03 5.679167938232421875e+01 2.878684043884277344e+01 2.097853422164916992e-01 2.129621028900146484e+00 7.018219232559204102e-01 -2.722164988517761230e-01
2.193000000000000000e+03 4.537105178833007812e+01 -8.298039436340332031e+00 -1.775635778903961182e-01 2.180875062942504883e+00 6.009934544563293457e-01 2.070632427930831909e-01
2.194000000000000000e+03 7.225812530517578125e+01 4.126190567016601562e+01 8.076576516032218933e-03 6.715355873107910156e+00 2.017029762268066406e+00 6.439145654439926147e-03
2.195000000000000000e+03 6.722671508789062500e+01 -3.123014450073242188e+01 -9.264618158340454102e-01 5.066024303436279297e+00 1.241868734359741211e+00 8.552101254463195801e-01
2.196000000000000000e+03 4.250432968139648438e+01 -1.342624378204345703e+01 1.047858953475952148e+00 6.883238792419433594e+00 2.379329204559326172e+00 -5.532799959182739258e-01
2.197000000000000000e+03 1.494956779479980469e+01 2.757732009887695312e+01 -7.878799438476562500e-01 1.623756885528564453e+00 2.507630884647369385e-01 2.416193485260009766e-01
2.198000000000000000e+03 1.658665847778320312e+01 2.613409805297851562e+01 -8.387410640716552734e-01 1.362162113189697266e+00 1.570263206958770752e-01 4.772206544876098633e-01
2.199000000000000000e+03 6.400193023681640625e+01 -3.529451751708984375e+01 -7.933795452117919922e-03 2.762124300003051758e+00 8.262571096420288086e-01 6.543369889259338379e-01
2.200000000000000000e+03 6.609619903564453125e+01 -3.318916702270507812e+01 -5.656662583351135254e-01 3.966640949249267578e+00 1.020292401313781738e+00 8.747981786727905273e-01
2.201000000000000000e+03 2.282875442504882812e+01 2.738991165161132812e+01 -3.829090297222137451e-01 7.358995676040649414e-01 1.058971583843231201e-01 -3.955379724502563477e-01
2.202000000000000000e+03 7.022509765625000000e+01 -3.326015090942382812e+01 -6.888124942779541016e-01 6.660516738891601562e+00 1.791511297225952148e+00 1.960402727127075195e-01
2.203000000000000000e+03 5.966381072998046875e+01 -9.939340591430664062e+00 -1.004731655120849609e+00 9.449231028556823730e-01 -1.794255524873733521e-02 4.324273169040679932e-01
2.204000000000000000e+03 3.935604095458984375e+01 -7.063495159149169922e+00 -1.757678508758544922e+00 8.220469474792480469e+00 1.938837409019470215e+00 -1.861536741256713867e+00
2.205000000000000000e+03 1.136324119567871094e+01 -2.238271331787109375e+01 2.170154601335525513e-01 3.110589504241943359e+00 9.982814788818359375e-01 9.800813794136047363e-01
2.206000000000000000e+03 8.652379035949707031e+00 -2.159699058532714844e+01 4.183637499809265137e-01 1.767439961433410645e+00 6.557410955429077148e-01 1.093979954719543457e+00
2.207000000000000000e+03 4.328269195556640625e+01 -9.293256759643554688e+00 -1.731209307909011841e-01 4.607120037078857422e+00 1.330199837684631348e+00 -6.735045909881591797e-01
2.208000000000000000e+03 6.807939910888671875e+01 1.826298713684082031e+01 5.972605347633361816e-01 7.477268218994140625e+00 2.422358751296997070e+00 4.821778535842895508e-01
2.209000000000000000e+03 5.808747482299804688e+01 -9.936490058898925781e+00 -8.118235468864440918e-01 1.024961352348327637e+00 6.394134461879730225e-02 7.663347125053405762e-01
2.210000000000000000e+03 2.183550071716308594e+01 -6.075438499450683594e+00 5.002182442694902420e-03 2.169115543365478516e+00 6.522353291511535645e-01 2.014954328536987305e+00
2.211000000000000000e+03 1.754562759399414062e+01 -4.298758506774902344e+00 1.938387304544448853e-01 1.303214430809020996e+00 4.491159319877624512e-01 1.910791277885437012e+00
2.212000000000000000e+03 2.143482780456542969e+01 -6.630912303924560547e+00 -1.145267114043235779e-01 1.964508295059204102e+00 5.549944639205932617e-01 1.985121250152587891e+00
2.213000000000000000e+03 1.803290557861328125e+01 -3.695263147354125977e+00 3.384500741958618164e-01 1.249464273452758789e+00 4.763742983341217041e-01 2.002666711807250977e+00
2.214000000000000000e+03 1.347065448760986328e+01 5.016529560089111328e+00 5.189366936683654785e-01 1.267858982086181641e+00 5.360386967658996582e-01 -1.030624061822891235e-01
2.215000000000000000e+03 2.041380882263183594e+01 -7.754266262054443359e+00 3.349015861749649048e-02 1.802939057350158691e+00 5.509287714958190918e-01 2.066479206085205078e+00
2.216000000000000000e+03 1.965564727783203125e+01 -7.769907951354980469e+00 1.038150191307067871e-01 1.929264783859252930e+00 6.099239587783813477e-01 2.253673076629638672e+00
2.217000000000000000e+03 1.177282428741455078e+01 5.467110157012939453e+00 5.074614882469177246e-01 9.351357817649841309e-01 4.327791929244995117e-01 4.314236342906951904e-01
2.218000000000000000e+03 1.208307647705078125e+01 4.851915836334228516e+00 1.140157505869865417e-01 8.660277128219604492e-01 2.940130531787872314e-01 4.359621405601501465e-01
2.219000000000000000e+03 8.607906341552734375e+00 -6.336651802062988281e+00 -8.609560132026672363e-02 5.151269435882568359e-01 1.287094056606292725e-01 -5.894213914871215820e-01
2.220000000000000000e+03 8.396593093872070312e+00 -5.529137134552001953e+00 -2.321370989084243774e-01 3.658506274223327637e-01 4.011406376957893372e-02 -6.142823100090026855e-01
2.221000000000000000e+03 1.290568637847900391e+01 6.642554759979248047e+00 1.503368496894836426e+00 1.822732567787170410e+00 9.978303313255310059e-01 -2.710846662521362305e-01
2.222000000000000000e+03 5.600521087646484375e+00 -6.100641250610351562e+00 -9.282040596008300781e-02 -8.950736373662948608e-02 -5.469832941889762878e-02 -7.601135969161987305e-01
2.223000000000000000e+03 7.528897762298583984e+00 -4.748692512512207031e+00 -3.446999490261077881e-01 1.739342957735061646e-01 -5.122968927025794983e-02 -6.684825420379638672e-01
2.224000000000000000e+03 6.290970802307128906e+00 -5.435933113098144531e+00 -1.864092946052551270e-01 1.518589723855257034e-02 -5.136702209711074829e-02 -7.501305937767028809e-01
2.225000000000000000e+03 1.696847152709960938e+01 -4.459459304809570312e+00 1.324219256639480591e-01 1.267920613288879395e+00 4.201027452945709229e-01 1.760258793830871582e+00
2.226000000000000000e+03 1.875802612304687500e+01 -8.413683891296386719e+00 3.208730816841125488e-01 2.082517147064208984e+00 7.210170030593872070e-01 2.254337310791015625e+00
2.227000000000000000e+03 1.419258117675781250e+01 5.206517696380615234e+00 6.687542200088500977e-01 1.583092689514160156e+00 6.755540966987609863e-01 -3.955816626548767090e-01
2.228000000000000000e+03 4.144216537475585938e+00 -5.344895839691162109e+00 -1.193595379590988159e-01 -2.901003062725067139e-01 -1.228379532694816589e-01 -6.820620894432067871e-01
2.229000000000000000e+03 2.044477653503417969e+01 -3.714825630187988281e+00 5.608528852462768555e-01 2.468897819519042969e+00 9.089251756668090820e-01 2.387129545211791992e+00
2.230000000000000000e+03 2.023818206787109375e+01 2.829921245574951172e+00 1.024821162223815918e+00 3.046199321746826172e+00 1.221306204795837402e+00 -4.903684139251708984e+00
2.231000000000000000e+03 1.396387100219726562e+01 -5.925567150115966797e+00 -8.896928280591964722e-02 1.427583456039428711e+00 4.015842676162719727e-01 7.686364054679870605e-01
2.232000000000000000e+03 2.166058158874511719e+01 -1.661313891410827637e+00 1.133980989456176758e+00 5.068592548370361328e+00 1.860772132873535156e+00 2.040443420410156250e+00
2.233000000000000000e+03 9.829405784606933594e+00 -5.477444648742675781e+00 -2.417661696672439575e-01 6.038510203361511230e-01 1.086254566907882690e-01 -4.044303894042968750e-01
2.234000000000000000e+03 1.135805416107177734e+01 -5.534629821777343750e+00 -2.320445775985717773e-01 8.600719571113586426e-01 1.884082108736038208e-01 -5.136166512966156006e-02
2.235000000000000000e+03 1.215538692474365234e+01 -5.499363422393798828e+00 -2.278748601675033569e-01 9.769074320793151855e-01 2.247097790241241455e-01 1.592889428138732910e-01
2.236000000000000000e+03 4.917941093444824219e+00 7.793075561523437500e+00 3.462701737880706787e-01 -5.850306153297424316e-01 -7.162813097238540649e-02 9.370784163475036621e-01
2.237000000000000000e+03 1.292486763000488281e+01 -5.390708923339843750e+00 -2.099904567003250122e-01 1.074776649475097656e+00 2.594358623027801514e-01 3.993796706199645996e-01
2.238000000000000000e+03 1.363104248046875000e+01 -5.226242542266845703e+00 -2.026544958353042603e-01 1.103502392768859863e+00 2.702543735504150391e-01 6.101541519165039062e-01
2.239000000000000000e+03 1.338088989257812500e+01 -4.530507564544677734e+00 -3.384853303432464600e-01 8.659932017326354980e-01 1.582523584365844727e-01 4.835115373134613037e-01
2.240000000000000000e+03 1.497391605377197266e+01 -4.902167797088623047e+00 -1.309891194105148315e-01 1.179573059082031250e+00 3.145751655101776123e-01 1.104799866676330566e+00
2.241000000000000000e+03 7.513535022735595703e+00 5.187619686126708984e+00 -5.493407696485519409e-02 1.445727143436670303e-02 -1.214304193854331970e-02 1.157370686531066895e+00
2.242000000000000000e+03 6.891693115234375000e+00 5.991709709167480469e+00 1.973593980073928833e-01 -6.981028616428375244e-02 3.826473653316497803e-02 1.127790808677673340e+00
2.243000000000000000e+03 1.306191158294677734e+01 5.565100669860839844e+00 7.784467935562133789e-01 1.330769777297973633e+00 6.327649354934692383e-01 -6.591071188449859619e-02
2.244000000000000000e+03 8.308930397033691406e+00 5.153295516967773438e+00 -4.932745173573493958e-02 1.478797048330307007e-01 2.956567518413066864e-02 1.112993240356445312e+00
2.245000000000000000e+03 6.299775600433349609e+00 6.164680480957031250e+00 1.809623837471008301e-01 -1.736970394849777222e-01 2.179603325203061104e-03 1.110593795776367188e+00
2.246000000000000000e+03 1.129578018188476562e+01 7.676105499267578125e+00 1.527089715003967285e+00 1.531371474266052246e+00 9.175383448600769043e-01 1.127148419618606567e-01
2.247000000000000000e+03 1.792666244506835938e+01 -8.162150382995605469e+00 2.347528785467147827e-01 2.272168159484863281e+00 7.520763278007507324e-01 2.204303503036499023e+00
2.248000000000000000e+03 1.430252075195312500e+01 -5.044178485870361328e+00 -1.853466033935546875e-01 1.182165741920471191e+00 2.990457415580749512e-01 8.407787680625915527e-01
2.249000000000000000e+03 1.570256519317626953e+01 -8.883790016174316406e+00 3.712424933910369873e-01 2.815959215164184570e+00 9.561604857444763184e-01 1.551109910011291504e+00
2.250000000000000000e+03 7.598150730133056641e+00 5.990534305572509766e+00 2.309845238924026489e-01 5.693095922470092773e-02 8.637464791536331177e-02 1.099283933639526367e+00
2.251000000000000000e+03 1.012332534790039062e+01 5.892257690429687500e+00 5.054470896720886230e-01 6.371573805809020996e-01 3.427813649177551270e-01 8.104990720748901367e-01
2.252000000000000000e+03 9.251091957092285156e+00 5.942421436309814453e+00 3.918302655220031738e-01 4.351590871810913086e-01 2.480968087911605835e-01 9.382823109626770020e-01
2.253000000000000000e+03 1.867400360107421875e+01 -4.318614482879638672e+00 3.232617676258087158e-01 1.612697601318359375e+00 5.807877779006958008e-01 2.257934331893920898e+00
2.254000000000000000e+03 1.136794185638427734e+01 8.683876991271972656e+00 1.823291063308715820e+00 1.886690735816955566e+00 1.112994551658630371e+00 -1.210467368364334106e-01
2.255000000000000000e+03 9.999479293823242188e+00 -6.148836612701416016e+00 -1.406300961971282959e-01 7.402182817459106445e-01 1.798764616250991821e-01 -3.804851174354553223e-01
2.256000000000000000e+03 2.835229110717773438e+01 -4.276772499084472656e+00 2.430758953094482422e+00 1.010439038276672363e+00 1.032359361648559570e+00 1.894766688346862793e-01
2.257000000000000000e+03 2.001591682434082031e+01 -2.384884595870971680e+00 1.045866608619689941e+00 2.054674148559570312e+00 9.301622509956359863e-01 2.390899658203125000e+00
2.258000000000000000e+03 3.467897796630859375e+01 -2.001428842544555664e+00 1.201273202896118164e+00 9.157725334167480469e+00 3.107699632644653320e+00 -2.749374806880950928e-01
2.259000000000000000e+03 3.412746429443359375e+01 -4.788797378540039062e+00 -7.738103270530700684e-01 7.946763515472412109e+00 2.151885986328125000e+00 -1.563685059547424316e+00
2.260000000000000000e+03 3.812439346313476562e+01 -4.531473159790039062e+00 -1.512544989585876465e+00 9.447957038879394531e+00 2.380623579025268555e+00 -1.789123892784118652e+00
2.261000000000000000e+03 1.194827175140380859e+01 -1.091308975219726562e+01 9.692847132682800293e-01 2.560964107513427734e+00 1.059074640274047852e+00 1.620466858148574829e-01
2.262000000000000000e+03 7.295600128173828125e+01 -2.303961753845214844e+01 3.997360765933990479e-01 9.519945144653320312e+00 2.975904464721679688e+00 -1.270865797996520996e+00
2.263000000000000000e+03 7.269502258300781250e+01 -2.522590065002441406e+01 -3.858152627944946289e-01 9.286851882934570312e+00 2.670310974121093750e+00 -1.078971028327941895e+00
2.264000000000000000e+03 2.730971717834472656e+01 -4.217940330505371094e+00 2.379916429519653320e+00 7.064602375030517578e-01 9.259129762649536133e-01 3.751716613769531250e-01
2.265000000000000000e+03 1.793105697631835938e+01 -6.545271873474121094e+00 1.418385654687881470e-01 1.981588959693908691e+00 6.370282173156738281e-01 2.196322679519653320e+00
2.266000000000000000e+03 6.931295013427734375e+01 -8.784483909606933594e+00 -1.491305828094482422e+00 7.620801925659179688e+00 1.838848829269409180e+00 -1.566579818725585938e+00
2.267000000000000000e+03 7.055020141601562500e+01 -1.181002140045166016e+01 -1.388803005218505859e+00 9.722269058227539062e+00 2.500039815902709961e+00 -2.284443974494934082e-01
2.268000000000000000e+03 7.388816070556640625e+01 -1.028911209106445312e+01 -8.131973147392272949e-01 8.739038467407226562e+00 2.377752304077148438e+00 4.392293393611907959e-01
2.269000000000000000e+03 2.319692802429199219e+01 -5.230449676513671875e+00 2.923886477947235107e-01 2.186094045639038086e+00 7.435448169708251953e-01 1.433571577072143555e+00
2.270000000000000000e+03 3.647548675537109375e+01 2.294500923156738281e+01 -7.761710882186889648e-01 5.402054786682128906e+00 1.387765049934387207e+00 2.760925889015197754e-01
2.271000000000000000e+03 3.459955215454101562e+01 2.075520515441894531e+01 -2.627571821212768555e-01 5.797458171844482422e+00 1.660410284996032715e+00 -2.974692881107330322e-01
2.272000000000000000e+03 5.415070724487304688e+01 -1.075690364837646484e+01 -3.232906758785247803e-01 9.502770304679870605e-01 1.880959123373031616e-01 1.605094313621520996e+00
2.273000000000000000e+03 3.391438293457031250e+01 -6.115805625915527344e+00 -1.510772109031677246e+00 7.659653663635253906e+00 1.844664454460144043e+00 -2.017596960067749023e+00
2.274000000000000000e+03 7.294687652587890625e+01 -1.105014896392822266e+01 -8.255496621131896973e-01 9.139804840087890625e+00 2.494276762008666992e+00 3.363145589828491211e-01
2.275000000000000000e+03 2.938904190063476562e+01 -3.363464117050170898e+00 3.367565393447875977e+00 1.961771249771118164e+00 1.598801016807556152e+00 2.086157947778701782e-01
2.276000000000000000e+03 3.327109527587890625e+01 -3.003005504608154297e+00 1.210649490356445312e+00 7.400427818298339844e+00 2.583323001861572266e+00 -5.029342770576477051e-01
2.277000000000000000e+03 2.527521896362304688e+01 -2.102670431137084961e+00 4.215246200561523438e+00 8.698760271072387695e-01 1.525536656379699707e+00 -7.134697437286376953e-01
2.278000000000000000e+03 2.389189147949218750e+01 -2.582208156585693359e+00 2.352491140365600586e+00 2.934391021728515625e+00 1.586064577102661133e+00 -3.635745048522949219e-01
2.279000000000000000e+03 8.151799201965332031e+00 -1.715533638000488281e+01 1.027784228324890137e+00 1.357988476753234863e+00 7.157317996025085449e-01 5.893298387527465820e-01
2.280000000000000000e+03 1.041346263885498047e+01 -2.159763717651367188e+01 4.777180552482604980e-01 2.685063600540161133e+00 9.488345384597778320e-01 1.051293611526489258e+00
2.281000000000000000e+03 1.418879222869873047e+01 -8.699398040771484375e+00 3.299134671688079834e-01 2.546283721923828125e+00 8.628591299057006836e-01 9.349819421768188477e-01
2.282000000000000000e+03 1.294981193542480469e+01 -1.081164836883544922e+01 1.043142199516296387e+00 3.002952575683593750e+00 1.213828444480895996e+00 4.998811185359954834e-01
2.283000000000000000e+03 5.653901672363281250e+01 -8.304243087768554688e+00 9.819710999727249146e-02 1.454932093620300293e+00 4.659387767314910889e-01 1.318603754043579102e+00
2.284000000000000000e+03 7.818182945251464844e+00 -8.394594192504882812e+00 2.519406378269195557e-01 5.467665791511535645e-01 2.396121621131896973e-01 -6.377610564231872559e-01
2.285000000000000000e+03 1.033045005798339844e+01 7.663917064666748047e+00 1.296414613723754883e+00 1.102261662483215332e+00 7.196028828620910645e-01 4.185121357440948486e-01
2.286000000000000000e+03 7.153856658935546875e+01 1.230729103088378906e+01 6.288375854492187500e-01 7.037825584411621094e+00 2.299998998641967773e+00 3.978350386023521423e-02
2.287000000000000000e+03 6.755606079101562500e+01 1.282098388671875000e+01 9.609686136245727539e-01 7.842186927795410156e+00 2.640946626663208008e+00 1.475142240524291992e-01
2.288000000000000000e+03 7.132588958740234375e+01 -3.024173164367675781e+01 -9.827933311462402344e-01 7.786981105804443359e+00 2.041256427764892578e+00 -1.399655193090438843e-01
2.289000000000000000e+03 1.070420837402343750e+01 2.216802215576171875e+01 -4.993981420993804932e-01 2.698918342590332031e+00 6.598560214042663574e-01 -9.648921489715576172e-01
2.290000000000000000e+03 7.627223014831542969e+00 1.924764633178710938e+01 3.274367153644561768e-01 1.449934482574462891e+00 5.332113504409790039e-01 -1.153566122055053711e+00
2.291000000000000000e+03 9.037137031555175781e+00 -2.894461441040039062e+01 -5.385428071022033691e-01 1.650729894638061523e+00 3.336561620235443115e-01 7.400600910186767578e-01
2.292000000000000000e+03 1.243095970153808594e+01 -2.495994758605957031e+01 -4.535223245620727539e-01 2.774121999740600586e+00 6.961799263954162598e-01 5.375005006790161133e-01
2.293000000000000000e+03 9.928962707519531250e+00 1.507048797607421875e+01 1.353263497352600098e+00 2.610350370407104492e+00 1.189084172248840332e+00 -8.928102254867553711e-01
2.294000000000000000e+03 6.994807720184326172e+00 1.043885421752929688e+01 1.059097290039062500e+00 2.498323917388916016e-01 3.926789164543151855e-01 3.495358824729919434e-01
2.295000000000000000e+03 7.380579376220703125e+01 -3.498583984375000000e+01 -2.987783849239349365e-01 8.095888137817382812e+00 2.339133024215698242e+00 -6.273452937602996826e-02
2.296000000000000000e+03 7.216755676269531250e+01 2.650245857238769531e+01 -3.309614956378936768e-01 7.045320510864257812e+00 2.014307737350463867e+00 4.013637006282806396e-01
2.297000000000000000e+03 1.178405475616455078e+01 -2.845214271545410156e+01 -7.293285131454467773e-01 2.030614614486694336e+00 3.903858363628387451e-01 4.902667999267578125e-01
2.298000000000000000e+03 7.302366638183593750e+01 -2.179228782653808594e+01 8.600843548774719238e-01 9.747786521911621094e+00 3.182361364364624023e+00 -1.167384028434753418e+00
2.299000000000000000e+03 7.266187286376953125e+01 -2.418927764892578125e+01 -4.867650568485260010e-02 9.553119659423828125e+00 2.851332902908325195e+00 -1.191963911056518555e+00
2.300000000000000000e+03 7.098060131072998047e+00 2.788133239746093750e+01 -4.252589643001556396e-01 1.257786273956298828e+00 2.497582137584686279e-01 -6.511643528938293457e-01
2.301000000000000000e+03 9.602115631103515625e+00 3.298500442504882812e+01 -3.664414584636688232e-01 1.307195305824279785e+00 2.822261750698089600e-01 -2.011274546384811401e-01
2.302000000000000000e+03 7.043066406250000000e+01 2.345724105834960938e+01 -2.941726148128509521e-01 7.119244575500488281e+00 2.047521591186523438e+00 5.390142202377319336e-01
2.303000000000000000e+03 7.307595825195312500e+01 -2.640756034851074219e+01 -5.634426474571228027e-01 9.055185317993164062e+00 2.547522783279418945e+00 -1.102411150932312012e+00
2.304000000000000000e+03 7.426097869873046875e+01 -2.590946197509765625e+01 -3.401015698909759521e-01 9.007355690002441406e+00 2.600176334381103516e+00 -1.235697507858276367e+00
2.305000000000000000e+03 3.910507965087890625e+01 1.686959838867187500e+01 2.380602806806564331e-01 6.857989788055419922e+00 2.128814935684204102e+00 1.108899593353271484e+00
2.306000000000000000e+03 3.961690521240234375e+01 2.002492523193359375e+01 -3.413985073566436768e-01 5.707778453826904297e+00 1.609913945198059082e+00 1.090842485427856445e+00
2.307000000000000000e+03 6.738369750976562500e+01 8.631937026977539062e+00 8.940612077713012695e-01 7.506118297576904297e+00 2.520053863525390625e+00 -2.846692129969596863e-02
2.308000000000000000e+03 4.858239364624023438e+01 -1.165471267700195312e+01 9.495348334312438965e-01 1.838718652725219727e+00 8.364760279655456543e-01 2.043697834014892578e+00
2.309000000000000000e+03 4.967927932739257812e+01 -1.117326450347900391e+01 6.779362559318542480e-01 1.149308800697326660e+00 5.481735467910766602e-01 2.165032148361206055e+00
2.310000000000000000e+03 4.010869598388671875e+01 -1.357033443450927734e+01 1.112949609756469727e+00 8.344431877136230469e+00 2.837214231491088867e+00 -1.356104612350463867e+00
2.311000000000000000e+03 3.992704010009765625e+01 -1.462115001678466797e+01 1.568151354789733887e+00 8.770345687866210938e+00 3.101549148559570312e+00 -1.533682346343994141e+00
2.312000000000000000e+03 7.467598724365234375e+01 -1.949853324890136719e+01 1.077565193176269531e+00 8.790249824523925781e+00 2.960344552993774414e+00 -6.461820602416992188e-01
2.313000000000000000e+03 7.339402008056640625e+01 -9.243362426757812500e+00 -9.532333016395568848e-01 8.638642311096191406e+00 2.305622816085815430e+00 5.152475088834762573e-02
2.314000000000000000e+03 7.255711364746093750e+01 -7.210466384887695312e+00 -9.541867375373840332e-01 7.999536514282226562e+00 2.113605022430419922e+00 -5.542815923690795898e-01
2.315000000000000000e+03 6.981042480468750000e+01 4.433171272277832031e+00 4.211625158786773682e-01 6.835479259490966797e+00 2.176992416381835938e+00 -6.027415990829467773e-01
2.316000000000000000e+03 7.476470184326171875e+01 -9.551518440246582031e+00 -6.147407889366149902e-01 8.417895317077636719e+00 2.340946197509765625e+00 3.546692132949829102e-01
2.317000000000000000e+03 7.256620788574218750e+01 -2.609239816665649414e+00 -3.594552576541900635e-01 7.208283424377441406e+00 2.054648399353027344e+00 -8.363820910453796387e-01
2.318000000000000000e+03 7.286064147949218750e+01 -3.999747037887573242e+00 -5.047960281372070312e-01 7.394908905029296875e+00 2.067033767700195312e+00 -7.519456744194030762e-01
2.319000000000000000e+03 7.402632904052734375e+01 -8.706056475639343262e-01 -1.606096774339675903e-01 7.214952945709228516e+00 2.116302967071533203e+00 -7.323516607284545898e-01
2.320000000000000000e+03 7.277878570556640625e+01 -3.265509307384490967e-01 -1.115574389696121216e-01 7.047588348388671875e+00 2.080809354782104492e+00 -8.453238010406494141e-01
2.321000000000000000e+03 7.417395782470703125e+01 6.027430057525634766e+00 2.380384951829910278e-01 6.840834140777587891e+00 2.123661756515502930e+00 -5.406211614608764648e-01
2.322000000000000000e+03 7.118621063232421875e+01 5.052930355072021484e+00 3.889059424400329590e-01 6.889902591705322266e+00 2.183642625808715820e+00 -6.266545653343200684e-01
2.323000000000000000e+03 7.416384887695312500e+01 1.291050910949707031e+01 3.615866601467132568e-01 6.785290241241455078e+00 2.144062995910644531e+00 8.010788261890411377e-02
2.324000000000000000e+03 7.111922454833984375e+01 1.112527847290039062e+01 6.665182709693908691e-01 7.062317371368408203e+00 2.318650722503662109e+00 -9.788766503334045410e-02
2.325000000000000000e+03 5.774469852447509766e+00 -9.269699096679687500e+00 2.290531694889068604e-01 -2.984059415757656097e-02 5.976377427577972412e-02 -6.910909414291381836e-01
2.326000000000000000e+03 4.691576957702636719e+00 -1.232473850250244141e+01 3.488063514232635498e-01 -4.627721011638641357e-01 -3.418973088264465332e-02 -4.027476310729980469e-01
2.327000000000000000e+03 7.353728485107421875e+01 -2.778388404846191406e+01 -7.045253515243530273e-01 8.879008293151855469e+00 2.452344894409179688e+00 -8.987754583358764648e-01
2.328000000000000000e+03 5.459581375122070312e+01 -8.872038841247558594e+00 -1.843610964715480804e-02 1.493623971939086914e+00 4.425563514232635498e-01 1.749799370765686035e+00
2.329000000000000000e+03 9.717775344848632812e+00 2.221428298950195312e+01 -4.087188839912414551e-01 2.286571741104125977e+00 5.633558630943298340e-01 -1.031594991683959961e+00
2.330000000000000000e+03 5.261506080627441406e+00 2.688296699523925781e+01 -2.828600704669952393e-01 9.277997612953186035e-01 1.934819072484970093e-01 -7.013150453567504883e-01
2.331000000000000000e+03 5.690401554107666016e+00 -8.428353309631347656e+00 1.616612374782562256e-01 -6.917354464530944824e-02 2.774630859494209290e-02 -7.379300594329833984e-01
2.332000000000000000e+03 4.838486194610595703e+00 -9.139652252197265625e+00 1.810418516397476196e-01 -3.150090575218200684e-01 -4.019016027450561523e-02 -6.992680430412292480e-01
2.333000000000000000e+03 6.537161350250244141e+00 -1.636522865295410156e+01 8.084817528724670410e-01 5.234176516532897949e-01 3.995698392391204834e-01 3.405760228633880615e-01
2.334000000000000000e+03 7.571884632110595703e+00 -2.723216247558593750e+01 -3.544295728206634521e-01 1.427819609642028809e+00 3.220169842243194580e-01 9.267482161521911621e-01
2.335000000000000000e+03 5.708648204803466797e+00 -1.926333618164062500e+01 4.631127119064331055e-01 3.441751301288604736e-01 2.421863526105880737e-01 7.450680732727050781e-01
2.336000000000000000e+03 6.816440582275390625e+00 -1.759323501586914062e+01 7.615295052528381348e-01 7.307505011558532715e-01 4.476839900016784668e-01 5.641149282455444336e-01
2.337000000000000000e+03 7.018831253051757812e+00 -2.285768890380859375e+01 1.691285073757171631e-01 1.175844550132751465e+00 4.034919142723083496e-01 1.136267900466918945e+00
2.338000000000000000e+03 5.714319229125976562e+00 -2.312570953369140625e+01 9.169840067625045776e-02 6.240942478179931641e-01 2.147377878427505493e-01 1.000088334083557129e+00
2.339000000000000000e+03 1.038911819458007812e+01 1.828637123107910156e+01 7.189230322837829590e-01 2.830988645553588867e+00 1.064973473548889160e+00 -1.153222560882568359e+00
2.340000000000000000e+03 7.133499145507812500e+01 -3.505529403686523438e+01 -4.087077677249908447e-01 7.121154308319091797e+00 2.013733863830566406e+00 1.970118284225463867e-01
2.341000000000000000e+03 7.284421539306640625e+01 -3.639437866210937500e+01 -2.540915608406066895e-01 7.426664829254150391e+00 2.151772022247314453e+00 8.090806007385253906e-02
2.342000000000000000e+03 5.424396991729736328e+00 1.479767894744873047e+01 6.196662783622741699e-01 -1.596491783857345581e-01 1.380051374435424805e-01 -4.541752636432647705e-01
2.343000000000000000e+03 7.446611881256103516e+00 1.453147029876708984e+01 1.072568774223327637e+00 9.333130121231079102e-01 6.017645597457885742e-01 -6.471225023269653320e-01
2.344000000000000000e+03 6.313351631164550781e+00 1.374373245239257812e+01 9.193019270896911621e-01 2.306404858827590942e-01 3.449827134609222412e-01 -3.582872450351715088e-01
2.345000000000000000e+03 6.820824146270751953e+00 2.014574623107910156e+01 1.659147143363952637e-01 1.041895985603332520e+00 3.623431921005249023e-01 -1.200842380523681641e+00
2.346000000000000000e+03 6.424498081207275391e+00 1.466059970855712891e+01 8.121235370635986328e-01 4.428222775459289551e-01 3.764837384223937988e-01 -5.156435370445251465e-01
2.347000000000000000e+03 6.280718994140625000e+01 -2.224739551544189453e+00 8.528138995170593262e-01 3.974961042404174805e+00 1.448332428932189941e+00 2.273006588220596313e-01
2.348000000000000000e+03 9.371304512023925781e+00 -3.093747711181640625e+01 -5.630431175231933594e-01 1.536879420280456543e+00 2.921508848667144775e-01 5.520632863044738770e-01
2.349000000000000000e+03 8.835798263549804688e+00 -1.975466346740722656e+01 7.792326211929321289e-01 1.861894845962524414e+00 7.923382520675659180e-01 9.716303944587707520e-01
2.350000000000000000e+03 6.404903411865234375e+00 -1.356505298614501953e+01 7.033586502075195312e-01 3.279820978641510010e-01 3.094022274017333984e-01 -1.848914176225662231e-01
2.351000000000000000e+03 5.996093750000000000e+00 -1.539743328094482422e+01 6.821646094322204590e-01 1.773781627416610718e-01 2.578628361225128174e-01 1.134875565767288208e-01
2.352000000000000000e+03 7.373403549194335938e+00 2.637067604064941406e+01 -4.684062898159027100e-01 1.387183666229248047e+00 2.756332159042358398e-01 -7.440399527549743652e-01
2.353000000000000000e+03 8.346333503723144531e+00 8.956697463989257812e+00 1.203417181968688965e+00 5.766465663909912109e-01 5.340191125869750977e-01 5.262608528137207031e-01
2.354000000000000000e+03 2.293653106689453125e+01 -5.883760929107666016e+00 -7.240548264235258102e-03 2.074163913726806641e+00 6.200770139694213867e-01 1.545776724815368652e+00
2.355000000000000000e+03 2.403852081298828125e+01 -5.322115421295166016e+00 3.600514233112335205e-01 1.807086586952209473e+00 6.501414179801940918e-01 1.131492614746093750e+00
2.356000000000000000e+03 8.676560401916503906e+00 1.014807987213134766e+01 1.397068858146667480e+00 8.967297673225402832e-01 6.881396174430847168e-01 2.041527628898620605e-01
2.357000000000000000e+03 5.940185546875000000e+00 1.297402191162109375e+01 8.466638326644897461e-01 -4.563289508223533630e-02 2.403092831373214722e-01 -1.210048049688339233e-01
2.358000000000000000e+03 5.715005397796630859e+00 8.079208374023437500e+00 5.303533077239990234e-01 -3.326952755451202393e-01 5.929740518331527710e-02 8.922052979469299316e-01
2.359000000000000000e+03 6.919180393218994141e+00 8.001765251159667969e+00 6.990808248519897461e-01 -2.089697495102882385e-02 2.034551501274108887e-01 8.649521470069885254e-01
2.360000000000000000e+03 6.455780982971191406e+00 8.702694892883300781e+00 7.558910846710205078e-01 -7.941295206546783447e-02 2.029434442520141602e-01 7.700968384742736816e-01
2.361000000000000000e+03 1.023773765563964844e+01 2.138070297241210938e+01 -2.504647374153137207e-01 2.559224605560302734e+00 6.926279664039611816e-01 -1.078031897544860840e+00
2.362000000000000000e+03 8.259365081787109375e+00 2.326454353332519531e+01 -3.943917751312255859e-01 1.735286831855773926e+00 4.022684991359710693e-01 -1.026139140129089355e+00
2.363000000000000000e+03 4.838124275207519531e+00 -1.328052997589111328e+01 4.529229402542114258e-01 -3.715109229087829590e-01 2.442360855638980865e-02 -2.470511645078659058e-01
2.364000000000000000e+03 9.895645141601562500e+00 -1.206695652008056641e+01 1.034107685089111328e+00 1.696419000625610352e+00 8.191580176353454590e-01 -1.124021038413047791e-01
2.365000000000000000e+03 6.087282180786132812e+01 -2.682352542877197266e+00 1.186415314674377441e+00 3.244625568389892578e+00 1.329312324523925781e+00 8.103904128074645996e-01
2.366000000000000000e+03 6.191117477416992188e+01 -7.678060531616210938e+00 -4.111795872449874878e-02 1.643164396286010742e+00 4.806139469146728516e-01 -1.394589692354202271e-01
2.367000000000000000e+03 5.413314819335937500e+00 -6.794720649719238281e+00 -2.529892697930335999e-02 -1.342624425888061523e-01 -4.786841198801994324e-02 -7.715876698493957520e-01
2.368000000000000000e+03 3.959923934936523438e+01 -2.277232551574707031e+01 1.867225408554077148e+00 9.050878524780273438e+00 3.275431156158447266e+00 -9.082151055335998535e-01
2.369000000000000000e+03 4.034843826293945312e+01 -1.933506774902343750e+01 1.964566588401794434e+00 9.451405525207519531e+00 3.424791574478149414e+00 -1.377914547920227051e+00
2.370000000000000000e+03 5.110715389251708984e+00 -7.456829547882080078e+00 5.603823065757751465e-02 -2.029280811548233032e-01 -4.406695440411567688e-02 -7.579696774482727051e-01
2.371000000000000000e+03 6.357744216918945312e+00 -6.169658184051513672e+00 -9.529526531696319580e-02 3.264628350734710693e-02 -1.879469305276870728e-02 -7.644280195236206055e-01
2.372000000000000000e+03 1.245462799072265625e+01 8.616876602172851562e+00 2.075776576995849609e+00 2.561492681503295898e+00 1.391180753707885742e+00 -6.003420948982238770e-01
2.373000000000000000e+03 3.829565811157226562e+01 -3.204348754882812500e+01 -9.853538870811462402e-01 6.350941658020019531e+00 1.609676241874694824e+00 6.483005285263061523e-01
2.374000000000000000e+03 4.131799697875976562e+01 -1.486472988128662109e+01 1.515466809272766113e+00 8.108650207519531250e+00 2.887235164642333984e+00 -1.101896762847900391e+00
2.375000000000000000e+03 3.928895187377929688e+01 -2.890216827392578125e+01 -1.255107969045639038e-01 7.235022544860839844e+00 2.132853507995605469e+00 2.650715708732604980e-01
2.376000000000000000e+03 3.811536026000976562e+01 -2.773208618164062500e+01 2.308162152767181396e-01 7.100666046142578125e+00 2.199444532394409180e+00 5.319885611534118652e-01
2.377000000000000000e+03 7.424753665924072266e+00 1.548508739471435547e+01 9.110178947448730469e-01 1.085234999656677246e+00 5.988758802413940430e-01 -7.740983963012695312e-01
2.378000000000000000e+03 6.610982513427734375e+01 2.063780021667480469e+01 -5.044333636760711670e-02 7.395514011383056641e+00 2.203521251678466797e+00 4.748361110687255859e-01
2.379000000000000000e+03 6.675964355468750000e+01 1.884196853637695312e+01 5.581719279289245605e-01 7.562478065490722656e+00 2.436195135116577148e+00 4.659756124019622803e-01
2.380000000000000000e+03 4.767803573608398438e+01 -8.507285118103027344e+00 1.799012720584869385e-01 1.080897927284240723e+00 3.782397508621215820e-01 1.656453609466552734e+00
2.381000000000000000e+03 4.426646423339843750e+01 -9.427756309509277344e+00 4.417021572589874268e-02 3.821323871612548828e+00 1.159648299217224121e+00 -1.499182134866714478e-01
2.382000000000000000e+03 5.104080200195312500e+01 -1.020415496826171875e+01 3.450618088245391846e-01 9.565200209617614746e-01 3.904745578765869141e-01 2.348024368286132812e+00
2.383000000000000000e+03 4.372013473510742188e+01 -1.313051414489746094e+01 8.912741541862487793e-01 5.929207801818847656e+00 2.046144723892211914e+00 -7.326100021600723267e-02
2.384000000000000000e+03 4.561945343017578125e+01 -1.106520938873291016e+01 5.673685073852539062e-01 3.589333057403564453e+00 1.247010469436645508e+00 7.405512332916259766e-01
2.385000000000000000e+03 4.644218444824218750e+01 2.636832237243652344e+01 -5.051691532135009766e-01 2.821131706237792969e+00 6.947888135910034180e-01 1.439200878143310547e+00
2.386000000000000000e+03 4.897747802734375000e+01 2.763325881958007812e+01 -2.210834622383117676e-01 2.230184793472290039e+00 6.027303934097290039e-01 1.240053892135620117e+00
2.387000000000000000e+03 3.631384277343750000e+01 1.645422172546386719e+01 3.404572308063507080e-01 7.593613624572753906e+00 2.380221366882324219e+00 -1.910329908132553101e-01
2.388000000000000000e+03 4.232296371459960938e+01 -2.816730117797851562e+01 6.745455265045166016e-01 8.277008056640625000e+00 2.685466289520263672e+00 -5.503114461898803711e-01
2.389000000000000000e+03 4.354667282104492188e+01 -2.776003456115722656e+01 1.045449256896972656e+00 8.369067192077636719e+00 2.824354887008666992e+00 -9.934314489364624023e-01
2.390000000000000000e+03 3.543328857421875000e+01 -5.210500717163085938e+00 -1.471343040466308594e+00 9.116938591003417969e+00 2.293678760528564453e+00 -1.693023443222045898e+00
2.391000000000000000e+03 1.199077415466308594e+01 -2.599794197082519531e+01 -5.828761458396911621e-01 2.473301172256469727e+00 5.671274662017822266e-01 6.143265366554260254e-01
2.392000000000000000e+03 4.718294906616210938e+01 2.511176300048828125e+01 -4.765518307685852051e-01 2.569566011428833008e+00 6.279042363166809082e-01 1.551040410995483398e+00
2.393000000000000000e+03 4.933905029296875000e+01 2.499835968017578125e+01 -4.095604717731475830e-01 1.815768599510192871e+00 4.218624532222747803e-01 1.341341376304626465e+00
2.394000000000000000e+03 5.711179733276367188e+01 -1.061782073974609375e+01 -8.008407354354858398e-01 9.435428977012634277e-01 4.281065240502357483e-02 8.997977375984191895e-01
2.395000000000000000e+03 5.891089248657226562e+01 -9.221116065979003906e+00 -4.721423387527465820e-01 1.083289504051208496e+00 1.833441555500030518e-01 7.962077260017395020e-01
2.396000000000000000e+03 6.751482391357421875e+01 -9.230475425720214844e+00 -1.537177324295043945e+00 6.256014347076416016e+00 1.415651082992553711e+00 -2.372840404510498047e+00
2.397000000000000000e+03 1.274936962127685547e+01 2.602950096130371094e+01 -9.440513253211975098e-01 2.094638824462890625e+00 3.451762199401855469e-01 -7.012866437435150146e-02
2.398000000000000000e+03 1.168662261962890625e+01 1.091843128204345703e+01 2.208285808563232422e+00 2.929478406906127930e+00 1.541329264640808105e+00 -8.016614317893981934e-01
2.399000000000000000e+03 6.702160644531250000e+01 1.036707687377929688e+01 9.338123798370361328e-01 7.849915027618408203e+00 2.635118246078491211e+00 8.743195235729217529e-02
2.400000000000000000e+03 1.125674343109130859e+01 -1.279294300079345703e+01 1.356299161911010742e+00 2.519555807113647461e+00 1.162756443023681641e+00 2.430516481399536133e-01
2.401000000000000000e+03 6.720773315429687500e+01 2.955475616455078125e+01 -5.052923560142517090e-01 6.112320423126220703e+00 1.682108402252197266e+00 -1.838077008724212646e-01
2.402000000000000000e+03 4.076861953735351562e+01 -8.388212203979492188e+00 -1.040075182914733887e+00 6.906465053558349609e+00 1.759916901588439941e+00 -1.549655079841613770e+00
2.403000000000000000e+03 9.417459487915039062e+00 2.075000190734863281e+01 -5.473456159234046936e-02 2.344506978988647461e+00 6.869316697120666504e-01 -1.219480395317077637e+00
2.404000000000000000e+03 6.678923606872558594e+00 1.852763175964355469e+01 4.245422780513763428e-01 9.101655483245849609e-01 4.004123508930206299e-01 -1.112694382667541504e+00
2.405000000000000000e+03 4.012287521362304688e+01 -2.731306648254394531e+01 7.034676671028137207e-01 7.928219795227050781e+00 2.589506149291992188e+00 -1.598671972751617432e-01
2.406000000000000000e+03 6.841519927978515625e+01 1.528912734985351562e+01 8.431530594825744629e-01 7.566449642181396484e+00 2.522880792617797852e+00 3.081892430782318115e-01
2.407000000000000000e+03 5.939437484741210938e+01 -5.085757255554199219e+00 1.009375095367431641e+00 2.162229537963867188e+00 9.514814019203186035e-01 8.897815346717834473e-01
2.408000000000000000e+03 6.132795715332031250e+01 -5.342928409576416016e+00 7.221459746360778809e-01 2.440401792526245117e+00 9.487643837928771973e-01 2.850231230258941650e-01
2.409000000000000000e+03 6.617167663574218750e+01 3.182536363601684570e+00 5.885590314865112305e-01 6.529935359954833984e+00 2.135548353195190430e+00 -1.699153780937194824e-01
2.410000000000000000e+03 6.678620910644531250e+01 6.529730796813964844e+00 8.152530789375305176e-01 7.204431533813476562e+00 2.405905485153198242e+00 -1.879953779280185699e-02
2.411000000000000000e+03 6.240383911132812500e+01 -2.333285063505172729e-01 9.393347501754760742e-01 4.594613552093505859e+00 1.660184502601623535e+00 6.787995100021362305e-01
2.412000000000000000e+03 3.250833129882812500e+01 2.395668983459472656e+01 -8.767601847648620605e-01 4.684288978576660156e+00 1.142258644104003906e+00 -6.352771520614624023e-01
2.413000000000000000e+03 6.967749023437500000e+01 1.469637393951416016e+01 7.795308828353881836e-01 7.318321228027343750e+00 2.429355621337890625e+00 2.593370676040649414e-01
2.414000000000000000e+03 6.703086853027343750e+01 9.372209548950195312e+00 9.207641482353210449e-01 7.690010070800781250e+00 2.583232402801513672e+00 8.076123148202896118e-02
2.415000000000000000e+03 7.308308410644531250e+01 9.028278350830078125e+00 4.198665320873260498e-01 6.864051818847656250e+00 2.185175418853759766e+00 -3.010867834091186523e-01
2.416000000000000000e+03 3.003184890747070312e+01 2.458333778381347656e+01 -8.643601536750793457e-01 3.489685535430908203e+00 7.875975966453552246e-01 -1.127767562866210938e+00
2.417000000000000000e+03 3.023762512207031250e+01 2.695398902893066406e+01 -9.254983067512512207e-01 3.254342555999755859e+00 6.986532807350158691e-01 -9.044916033744812012e-01
2.418000000000000000e+03 6.802483367919921875e+01 8.029380798339843750e+00 8.338997364044189453e-01 7.335144996643066406e+00 2.450713396072387695e+00 -1.466756463050842285e-01
2.419000000000000000e+03 6.816204833984375000e+01 1.003272151947021484e+01 8.919765949249267578e-01 7.469758510589599609e+00 2.508520603179931641e+00 -4.477969557046890259e-02
2.420000000000000000e+03 3.342493438720703125e+01 -3.277815246582031250e+01 -8.587110042572021484e-01 3.752977132797241211e+00 8.682798743247985840e-01 1.200112819671630859e+00
2.421000000000000000e+03 5.973876190185546875e+01 2.612028121948242188e+01 -4.471895694732666016e-01 2.916722297668457031e+00 7.408598065376281738e-01 -1.241358399391174316e+00
2.422000000000000000e+03 5.105826187133789062e+01 -9.249170303344726562e+00 2.254819571971893311e-01 1.098275423049926758e+00 3.971272110939025879e-01 2.485306501388549805e+00
2.423000000000000000e+03 4.228521728515625000e+01 -9.481292724609375000e+00 -3.083138763904571533e-01 5.582543373107910156e+00 1.582268834114074707e+00 -9.814850687980651855e-01
2.424000000000000000e+03 7.191591644287109375e+01 -2.153001785278320312e+01 1.206437349319458008e+00 1.038697242736816406e+01 3.478022813796997070e+00 -9.213091135025024414e-01
2.425000000000000000e+03 1.671396446228027344e+01 -3.410984039306640625e+01 -6.719496250152587891e-01 1.064469933509826660e+00 1.177560910582542419e-01 -2.149391770362854004e-01
2.426000000000000000e+03 8.153237342834472656e+00 -1.414347362518310547e+01 1.035828709602355957e+00 1.128280401229858398e+00 6.492327451705932617e-01 2.307602949440479279e-02
2.427000000000000000e+03 3.700809097290039062e+01 -8.045694828033447266e-01 1.394312977790832520e+00 1.048182010650634766e+01 3.562839746475219727e+00 -8.976385593414306641e-01
2.428000000000000000e+03 6.402595520019531250e+01 -2.885742425918579102e+00 5.238389372825622559e-01 4.229886054992675781e+00 1.426117539405822754e+00 -3.321445286273956299e-01
2.429000000000000000e+03 6.361989593505859375e+01 -9.432750344276428223e-01 6.892015933990478516e-01 4.758137702941894531e+00 1.634201884269714355e+00 1.618074625730514526e-01
2.430000000000000000e+03 3.550055313110351562e+01 1.574497795104980469e+01 4.879879653453826904e-01 7.969399929046630859e+00 2.537216424942016602e+00 -7.363025546073913574e-01
2.431000000000000000e+03 3.807291412353515625e+01 1.617247390747070312e+01 3.566845953464508057e-01 7.488320350646972656e+00 2.353501319885253906e+00 7.010399699211120605e-01
2.432000000000000000e+03 5.900959014892578125e+01 2.753657150268554688e+01 -1.526469439268112183e-01 2.759830713272094727e+00 7.821550965309143066e-01 -8.979449272155761719e-01
2.433000000000000000e+03 1.338685131072998047e+01 -3.119992065429687500e+01 -8.238490819931030273e-01 1.675308465957641602e+00 2.554377913475036621e-01 1.187933757901191711e-01
2.434000000000000000e+03 1.481523799896240234e+01 -3.263699722290039062e+01 -7.445877790451049805e-01 1.376096725463867188e+00 1.894526779651641846e-01 -5.092732235789299011e-02
2.435000000000000000e+03 6.833753585815429688e+00 -2.987998580932617188e+01 -3.623569905757904053e-01 1.261496186256408691e+00 2.697417438030242920e-01 7.375153899192810059e-01
2.436000000000000000e+03 6.659973144531250000e+01 2.111911058425903320e+00 4.633254706859588623e-01 6.364373207092285156e+00 2.048309564590454102e+00 -3.425469994544982910e-01
2.437000000000000000e+03 3.922562789916992188e+01 -5.747016906738281250e+00 -1.899849653244018555e+00 8.658404350280761719e+00 2.027566194534301758e+00 -1.981585264205932617e+00
2.438000000000000000e+03 3.493673706054687500e+01 -6.468451976776123047e+00 -1.857991456985473633e+00 8.962196350097656250e+00 2.131261587142944336e+00 -1.871699094772338867e+00
2.439000000000000000e+03 3.800502395629882812e+01 -5.766836166381835938e+00 -1.826704859733581543e+00 9.270966529846191406e+00 2.233278512954711914e+00 -1.723405361175537109e+00
2.440000000000000000e+03 4.794905090332031250e+01 -1.055843830108642578e+01 5.704229474067687988e-01 1.840308547019958496e+00 7.232194542884826660e-01 1.782081127166748047e+00
2.441000000000000000e+03 7.268486022949218750e+01 -2.958693885803222656e+01 -8.205569386482238770e-01 8.385877609252929688e+00 2.269596099853515625e+00 -4.594891667366027832e-01
2.442000000000000000e+03 4.779440307617187500e+01 -3.815377044677734375e+01 -1.035438537597656250e+00 4.276635646820068359e+00 9.723591208457946777e-01 -9.341869950294494629e-01
2.443000000000000000e+03 3.993643951416015625e+01 -1.246200180053710938e+01 7.588812708854675293e-01 8.189813613891601562e+00 2.684608459472656250e+00 -1.313743948936462402e+00
2.444000000000000000e+03 4.106703948974609375e+01 -1.236260890960693359e+01 6.935431957244873047e-01 7.366830825805664062e+00 2.418112277984619141e+00 -1.041955590248107910e+00
2.445000000000000000e+03 7.279421234130859375e+01 3.149480819702148438e+00 1.525444090366363525e-01 6.922858238220214844e+00 2.122620820999145508e+00 -7.224305272102355957e-01
2.446000000000000000e+03 1.767757797241210938e+01 3.007406616210937500e+01 -4.396247863769531250e-01 1.172000885009765625e+00 2.197128534317016602e-01 1.635557711124420166e-01
2.447000000000000000e+03 7.331941986083984375e+01 -6.527551174163818359e+00 -8.284659981727600098e-01 7.919495582580566406e+00 2.127308845520019531e+00 -4.255949258804321289e-01
2.448000000000000000e+03 7.341670989990234375e+01 2.015256118774414062e+01 1.097054332494735718e-01 7.032745361328125000e+00 2.142735242843627930e+00 6.173996329307556152e-01
2.449000000000000000e+03 7.275151824951171875e+01 1.896324539184570312e+01 2.045758068561553955e-01 6.995415687561035156e+00 2.159997463226318359e+00 6.023442149162292480e-01
2.450000000000000000e+03 2.226218795776367188e+01 3.112293624877929688e+01 -2.583544850349426270e-01 1.211250066757202148e+00 2.858686745166778564e-01 -2.778327465057373047e-01
2.451000000000000000e+03 7.138468170166015625e+01 1.531440925598144531e+01 5.888412594795227051e-01 7.090633392333984375e+00 2.303842544555664062e+00 3.237524330615997314e-01
2.452000000000000000e+03 7.172255706787109375e+01 2.982647514343261719e+01 -3.165047764778137207e-01 6.892306804656982422e+00 1.972740650177001953e+00 1.735113412141799927e-01
2.453000000000000000e+03 7.424854278564453125e+01 -1.326118373870849609e+01 1.908889710903167725e-01 8.884012222290039062e+00 2.722470521926879883e+00 8.270301222801208496e-01
2.454000000000000000e+03 6.599879455566406250e+01 -3.147162055969238281e+01 -8.612273931503295898e-01 3.961628913879394531e+00 9.301204681396484375e-01 9.073125720024108887e-01
2.455000000000000000e+03 8.983717918395996094e+00 -2.709925460815429688e+01 -4.323759377002716064e-01 1.735010743141174316e+00 3.907904624938964844e-01 9.028223752975463867e-01
2.456000000000000000e+03 1.074584960937500000e+01 -2.553635978698730469e+01 -4.211730062961578369e-01 2.286636352539062500e+00 5.596390366554260254e-01 8.396906256675720215e-01
2.457000000000000000e+03 1.898475074768066406e+01 -2.941372394561767578e+00 7.008740901947021484e-01 1.402066707611083984e+00 6.308822631835937500e-01 2.149176359176635742e+00
2.458000000000000000e+03 1.942923927307128906e+01 -2.820023775100708008e+00 7.683122158050537109e-01 1.644368410110473633e+00 7.238041758537292480e-01 2.280393123626708984e+00
2.459000000000000000e+03 2.090789985656738281e+01 -2.200144290924072266e+00 1.121521592140197754e+00 3.111434698104858398e+00 1.269886851310729980e+00 2.376839160919189453e+00
2.460000000000000000e+03 1.848108863830566406e+01 -3.037887573242187500e+00 5.149382352828979492e-01 1.176323056221008301e+00 5.073783397674560547e-01 2.006364583969116211e+00
2.461000000000000000e+03 1.807806777954101562e+01 -4.303943157196044922e+00 2.684302031993865967e-01 1.483861565589904785e+00 5.256875157356262207e-01 2.107735633850097656e+00
2.462000000000000000e+03 2.219815635681152344e+01 -5.435290336608886719e+00 1.187429055571556091e-01 2.299160718917846680e+00 7.253711223602294922e-01 1.844622731208801270e+00
2.463000000000000000e+03 1.859017372131347656e+01 -3.640092372894287109e+00 4.633173048496246338e-01 1.435675501823425293e+00 5.696978569030761719e-01 2.152429103851318359e+00
2.464000000000000000e+03 6.985360145568847656e+00 -5.482933998107910156e+00 -2.057427465915679932e-01 1.474751830101013184e-01 -1.748026721179485321e-02 -7.264111638069152832e-01
2.465000000000000000e+03 1.929760360717773438e+01 -4.149212837219238281e+00 4.107996821403503418e-01 1.868192434310913086e+00 6.836976408958435059e-01 2.351326227188110352e+00
2.466000000000000000e+03 2.246219062805175781e+01 -2.391688346862792969e+00 1.032435417175292969e+00 4.548280239105224609e+00 1.674214720726013184e+00 9.330238699913024902e-01
2.467000000000000000e+03 7.060659408569335938e+00 -6.258386135101318359e+00 -8.132581412792205811e-02 2.028052061796188354e-01 3.644381836056709290e-02 -7.373614311218261719e-01
2.468000000000000000e+03 8.098544120788574219e+00 -7.292647838592529297e+00 6.985934078693389893e-02 4.962917566299438477e-01 1.698453277349472046e-01 -6.418780088424682617e-01
2.469000000000000000e+03 7.976524829864501953e+00 -9.224111557006835938e+00 3.638003170490264893e-01 6.350152492523193359e-01 2.996446788311004639e-01 -5.916876792907714844e-01
2.470000000000000000e+03 6.756403923034667969e+00 -6.834437370300292969e+00 -1.697555743157863617e-02 1.462872028350830078e-01 3.879349306225776672e-02 -7.509135007858276367e-01
2.471000000000000000e+03 1.141104984283447266e+01 9.777647972106933594e+00 2.090865850448608398e+00 2.387192487716674805e+00 1.343417525291442871e+00 -4.719693660736083984e-01
2.472000000000000000e+03 1.632509994506835938e+01 -4.628871917724609375e+00 1.759397797286510468e-02 1.225952744483947754e+00 3.730640113353729248e-01 1.556182026863098145e+00
2.473000000000000000e+03 1.905570983886718750e+01 -6.979175567626953125e+00 1.158617287874221802e-01 2.021350622177124023e+00 6.411637067794799805e-01 2.330986499786376953e+00
2.474000000000000000e+03 1.091838455200195312e+01 -1.099764728546142578e+01 9.496079087257385254e-01 2.067693471908569336e+00 9.051904082298278809e-01 -5.898408219218254089e-02
2.475000000000000000e+03 1.058077716827392578e+01 -5.502734184265136719e+00 -2.480360865592956543e-01 7.494395375251770020e-01 1.504210233688354492e-01 -2.417053133249282837e-01
2.476000000000000000e+03 1.068414115905761719e+01 -6.234560012817382812e+00 -1.043995469808578491e-01 9.365561008453369141e-01 2.496469765901565552e-01 -2.094797939062118530e-01
2.477000000000000000e+03 5.678153038024902344e+00 6.564167499542236328e+00 2.177284806966781616e-01 -3.610631823539733887e-01 -4.300041124224662781e-02 1.076019048690795898e+00
2.478000000000000000e+03 6.274705886840820312e+00 7.335601806640625000e+00 4.632751047611236572e-01 -1.722363233566284180e-01 8.731163293123245239e-02 9.834293723106384277e-01
2.479000000000000000e+03 1.891330337524414062e+01 -7.667395591735839844e+00 1.369275450706481934e-01 2.048516988754272461e+00 6.556333303451538086e-01 2.259770393371582031e+00
2.480000000000000000e+03 1.968769836425781250e+01 -7.064493656158447266e+00 6.602016091346740723e-02 1.995795845985412598e+00 6.185448169708251953e-01 2.263173818588256836e+00
2.481000000000000000e+03 1.151364326477050781e+01 -6.356868743896484375e+00 -7.709680497646331787e-02 1.110037207603454590e+00 3.098821043968200684e-01 -9.654262103140354156e-03
2.482000000000000000e+03 8.401261329650878906e+00 5.972808837890625000e+00 3.087325692176818848e-01 2.344366759061813354e-01 1.629507690668106079e-01 1.054539561271667480e+00
2.483000000000000000e+03 1.819064331054687500e+01 -7.449798583984375000e+00 1.889122873544692993e-01 2.148618698120117188e+00 7.012593150138854980e-01 2.236744403839111328e+00
2.484000000000000000e+03 1.241278553009033203e+01 -6.295272350311279297e+00 -7.398471236228942871e-02 1.297169685363769531e+00 3.669554889202117920e-01 2.688718140125274658e-01
2.485000000000000000e+03 1.565053844451904297e+01 -4.781454563140869141e+00 -5.720582231879234314e-02 1.202189087867736816e+00 3.434949815273284912e-01 1.325448989868164062e+00
2.486000000000000000e+03 1.680723571777343750e+01 -8.598668098449707031e+00 3.196234405040740967e-01 2.619236469268798828e+00 8.816579580307006836e-01 1.928257346153259277e+00
2.487000000000000000e+03 7.587234973907470703e+00 6.827537059783935547e+00 5.119788646697998047e-01 8.950766175985336304e-02 1.804459691047668457e-01 1.012763619422912598e+00
2.488000000000000000e+03 1.607333946228027344e+01 -6.094604015350341797e+00 4.444708302617073059e-02 1.717708945274353027e+00 5.286468267440795898e-01 1.593108892440795898e+00
2.489000000000000000e+03 2.545394706726074219e+01 -4.636879920959472656e+00 1.445057749748229980e+00 1.114261627197265625e+00 7.677958011627197266e-01 7.851544618606567383e-01
2.490000000000000000e+03 2.258412933349609375e+01 -4.890547752380371094e+00 2.951087951660156250e-01 2.548692703247070312e+00 8.531404733657836914e-01 1.615424036979675293e+00
2.491000000000000000e+03 1.454488563537597656e+01 -5.651514053344726562e+00 -9.574151784181594849e-02 1.414225935935974121e+00 3.955453038215637207e-01 9.695641398429870605e-01
2.492000000000000000e+03 1.121251583099365234e+01 6.696847915649414062e+00 1.100428581237792969e+00 1.177195072174072266e+00 6.832870841026306152e-01 3.908433616161346436e-01
2.493000000000000000e+03 9.349997520446777344e+00 6.772947311401367188e+00 7.697004675865173340e-01 5.942581892013549805e-01 4.091875851154327393e-01 8.058101534843444824e-01
2.494000000000000000e+03 1.651140975952148438e+01 -5.248236179351806641e+00 6.524640321731567383e-02 1.485957741737365723e+00 4.653612375259399414e-01 1.695409536361694336e+00
2.495000000000000000e+03 8.468394279479980469e+00 6.791061878204345703e+00 6.295022368431091309e-01 3.557676076889038086e-01 2.955809533596038818e-01 9.276353716850280762e-01
2.496000000000000000e+03 1.778493690490722656e+01 -4.766357421875000000e+00 2.294979393482208252e-01 1.542937517166137695e+00 5.317306518554687500e-01 2.075974464416503906e+00
2.497000000000000000e+03 2.088682174682617188e+01 -6.418667316436767578e+00 -6.742844730615615845e-02 2.139115333557128906e+00 6.215060949325561523e-01 2.196136236190795898e+00
2.498000000000000000e+03 1.974347114562988281e+01 -5.747340202331542969e+00 1.386288106441497803e-01 2.056310176849365234e+00 6.584816575050354004e-01 2.343045711517333984e+00
2.499000000000000000e+03 8.485761642456054688e+00 -8.173737525939941406e+00 2.226999402046203613e-01 6.807653307914733887e-01 2.710395753383636475e-01 -5.987612605094909668e-01
2.500000000000000000e+03 8.521696090698242188e+00 1.435285091400146484e+01 1.283695459365844727e+00 1.552086710929870605e+00 8.507347106933593750e-01 -6.603823900222778320e-01
2.501000000000000000e+03 6.558807373046875000e+00 1.555725097656250000e+01 8.005506992340087891e-01 5.417695045471191406e-01 4.026960730552673340e-01 -7.159270048141479492e-01
2.502000000000000000e+03 7.980274677276611328e+00 1.215902900695800781e+01 1.312941551208496094e+00 9.159632921218872070e-01 6.686714291572570801e-01 -1.544205844402313232e-01
2.503000000000000000e+03 5.617751598358154297e+00 -1.265067577362060547e+01 5.177347660064697266e-01 -2.335560694336891174e-02 1.483137458562850952e-01 -3.430078327655792236e-01
2.504000000000000000e+03 1.212821769714355469e+01 6.729768276214599609e+00 1.262172698974609375e+00 1.502605676651000977e+00 8.294335007667541504e-01 5.129642412066459656e-02
2.505000000000000000e+03 1.449956989288330078e+01 -9.564903259277343750e+00 5.632256269454956055e-01 2.924231767654418945e+00 1.046237230300903320e+00 1.039394617080688477e+00
2.506000000000000000e+03 1.331704521179199219e+01 -8.837051391601562500e+00 3.648497462272644043e-01 2.357713699340820312e+00 8.167690038681030273e-01 5.744819045066833496e-01
2.507000000000000000e+03 8.399216651916503906e+00 1.825086021423339844e+01 5.785468816757202148e-01 1.764267206192016602e+00 7.028442025184631348e-01 -1.212513804435729980e+00
2.508000000000000000e+03 3.919178771972656250e+01 -9.492977142333984375e+00 -8.138805031776428223e-01 8.347063064575195312e+00 2.259954690933227539e+00 -1.476462602615356445e+00
2.509000000000000000e+03 7.303400421142578125e+01 -5.371712684631347656e+00 -7.198313474655151367e-01 7.696661949157714844e+00 2.093049287796020508e+00 -6.306511163711547852e-01
2.510000000000000000e+03 6.818148040771484375e+01 -8.121282577514648438e+00 -1.283857822418212891e+00 6.451253414154052734e+00 1.550218701362609863e+00 -1.823201537132263184e+00
2.511000000000000000e+03 1.025830650329589844e+01 6.752672195434570312e+00 9.150330424308776855e-01 8.465380668640136719e-01 5.284713506698608398e-01 6.182865500450134277e-01
2.512000000000000000e+03 7.221841430664062500e+01 1.779287719726562500e+01 3.530646562576293945e-01 7.031447410583496094e+00 2.215353488922119141e+00 5.304939150810241699e-01
2.513000000000000000e+03 6.268909454345703125e+01 -6.870109558105468750e+00 2.735953927040100098e-01 2.164609193801879883e+00 7.314613461494445801e-01 -4.423048496246337891e-01
2.514000000000000000e+03 6.470384216308593750e+01 -1.792188763618469238e+00 5.275785923004150391e-01 4.835016250610351562e+00 1.608778476715087891e+00 -3.374130725860595703e-01
2.515000000000000000e+03 7.265404510498046875e+01 2.204420280456542969e+01 -3.306085243821144104e-02 7.107251167297363281e+00 2.122256994247436523e+00 6.466447710990905762e-01
2.516000000000000000e+03 4.657532882690429688e+01 -9.642639160156250000e+00 3.671997785568237305e-01 2.188512563705444336e+00 7.667136788368225098e-01 1.148839235305786133e+00
2.517000000000000000e+03 4.539551925659179688e+01 -9.655238151550292969e+00 3.709912300109863281e-01 2.890183925628662109e+00 9.783525466918945312e-01 4.587652385234832764e-01
2.518000000000000000e+03 1.227444362640380859e+01 7.639323711395263672e+00 1.785544753074645996e+00 1.965509653091430664e+00 1.125316381454467773e+00 -2.106910645961761475e-01
2.519000000000000000e+03 4.127087402343750000e+01 -1.357039928436279297e+01 1.039841890335083008e+00 7.630794525146484375e+00 2.601191043853759766e+00 -1.005417704582214355e+00
2.520000000000000000e+03 4.173655700683593750e+01 -1.095121479034423828e+01 2.491769343614578247e-01 6.538944721221923828e+00 2.036436557769775391e+00 -8.880593180656433105e-01
2.521000000000000000e+03 6.799642944335937500e+01 2.127296066284179688e+01 -1.395158916711807251e-01 7.258504867553710938e+00 2.135696649551391602e+00 6.075583696365356445e-01
2.522000000000000000e+03 6.382659912109375000e+01 2.477769851684570312e+01 -1.005630254745483398e+00 6.074367523193359375e+00 1.520621180534362793e+00 -6.907929778099060059e-01
2.523000000000000000e+03 2.040674400329589844e+01 -2.793496608734130859e+00 8.713758587837219238e-01 2.512545824050903320e+00 1.015176534652709961e+00 2.425289630889892578e+00
2.524000000000000000e+03 1.177181053161621094e+01 -1.002146530151367188e+01 7.161744832992553711e-01 2.237658977508544922e+00 8.861500024795532227e-01 8.308099210262298584e-02
2.525000000000000000e+03 7.269638824462890625e+01 1.472260475158691406e+01 4.711876511573791504e-01 6.926279067993164062e+00 2.219239950180053711e+00 2.772429585456848145e-01
2.526000000000000000e+03 3.838889694213867188e+01 1.821220588684082031e+01 -3.119011968374252319e-02 6.517745971679687500e+00 1.945966839790344238e+00 7.830263376235961914e-01
2.527000000000000000e+03 5.744093322753906250e+01 -8.918647766113281250e+00 -1.858327984809875488e-01 1.358806848526000977e+00 3.518922328948974609e-01 1.112811803817749023e+00
2.528000000000000000e+03 2.464743804931640625e+01 -3.868320226669311523e+00 1.738750576972961426e+00 1.694456338882446289e+00 1.029962062835693359e+00 4.650700688362121582e-01
2.529000000000000000e+03 1.025803375244140625e+01 1.280780696868896484e+01 1.757824897766113281e+00 2.484417200088500977e+00 1.272672653198242188e+00 -7.960289120674133301e-01
2.530000000000000000e+03 7.113446712493896484e+00 -1.902830314636230469e+01 6.520016193389892578e-01 9.179779291152954102e-01 4.709938764572143555e-01 7.934584617614746094e-01
2.531000000000000000e+03 9.762991905212402344e+00 -1.927363395690917969e+01 9.032016396522521973e-01 2.363548278808593750e+00 9.800249934196472168e-01 9.483718872070312500e-01
2.532000000000000000e+03 7.215833282470703125e+01 2.080669975280761719e+01 4.586664214730262756e-02 7.068132400512695312e+00 2.134199619293212891e+00 6.635889410972595215e-01
2.533000000000000000e+03 4.396726226806640625e+01 2.367150497436523438e+01 -5.856341719627380371e-01 3.623816728591918945e+00 9.114547967910766602e-01 1.549935579299926758e+00
2.534000000000000000e+03 3.448452377319335938e+01 -3.359892129898071289e+00 3.563479483127593994e-01 8.580391883850097656e+00 2.681022167205810547e+00 -8.650689721107482910e-01
2.535000000000000000e+03 6.928844451904296875e+01 3.456239223480224609e+00 3.849804997444152832e-01 6.762948989868164062e+00 2.144378900527954102e+00 -6.178274750709533691e-01
2.536000000000000000e+03 6.768303680419921875e+01 5.671496868133544922e+00 6.599080562591552734e-01 6.967917442321777344e+00 2.288347721099853516e+00 -2.813799381256103516e-01
2.537000000000000000e+03 7.189923858642578125e+01 9.388623237609863281e+00 5.485586524009704590e-01 6.950244903564453125e+00 2.249640941619873047e+00 -2.764663100242614746e-01
2.538000000000000000e+03 6.016516494750976562e+01 -7.635868549346923828e+00 6.047382950782775879e-02 1.590171456336975098e+00 4.951935708522796631e-01 5.344164967536926270e-01
2.539000000000000000e+03 5.939337158203125000e+01 -6.779886245727539062e+00 4.461897313594818115e-01 1.651391625404357910e+00 6.292743682861328125e-01 7.293725013732910156e-01
2.540000000000000000e+03 7.075674438476562500e+01 2.505879783630371094e+01 -3.906337618827819824e-01 7.006790161132812500e+00 1.984846949577331543e+00 4.599933624267578125e-01
2.541000000000000000e+03 6.805834770202636719e+00 -7.987901687622070312e+00 1.356760114431381226e-01 2.047289311885833740e-01 1.021214872598648071e-01 -7.376069426536560059e-01
2.542000000000000000e+03 5.921691417694091797e+00 -1.153894138336181641e+01 4.748594760894775391e-01 5.374765023589134216e-02 1.585821360349655151e-01 -4.800589680671691895e-01
2.543000000000000000e+03 6.120395660400390625e+01 2.695389938354492188e+01 -5.946176648139953613e-01 4.174216270446777344e+00 1.073879599571228027e+00 -1.144937872886657715e+00
2.544000000000000000e+03 3.673789978027343750e+01 -5.605612277984619141e+00 -1.769027948379516602e+00 9.512498855590820312e+00 2.323041200637817383e+00 -1.719781994819641113e+00
2.545000000000000000e+03 7.917467117309570312e+00 2.482912063598632812e+01 -4.694905281066894531e-01 1.545624375343322754e+00 3.228401541709899902e-01 -9.125702381134033203e-01
2.546000000000000000e+03 7.043585205078125000e+01 1.289933681488037109e+01 7.329895496368408203e-01 7.182978153228759766e+00 2.374790430068969727e+00 7.977981120347976685e-02
2.547000000000000000e+03 6.882737731933593750e+01 1.227319335937500000e+01 8.763466477394104004e-01 7.447273731231689453e+00 2.497086048126220703e+00 5.280557274818420410e-02
2.548000000000000000e+03 7.131642913818359375e+01 -1.100970077514648438e+01 -1.179129242897033691e+00 9.267649650573730469e+00 2.426556110382080078e+00 -2.832678854465484619e-01
2.549000000000000000e+03 7.290463256835937500e+01 6.112830162048339844e+00 3.215249776840209961e-01 6.889855384826660156e+00 2.163414239883422852e+00 -5.534929633140563965e-01
2.550000000000000000e+03 7.166284179687500000e+01 -4.231269359588623047e+00 -6.079987287521362305e-01 7.234637737274169922e+00 1.987991690635681152e+00 -9.178150892257690430e-01
2.551000000000000000e+03 7.012980651855468750e+01 1.589957237243652344e+01 6.679684519767761230e-01 7.226131439208984375e+00 2.368229866027832031e+00 4.067959189414978027e-01
2.552000000000000000e+03 6.759991455078125000e+01 2.549601793289184570e+00 4.345105886459350586e-01 6.482585906982421875e+00 2.075129032135009766e+00 -4.930119514465332031e-01
2.553000000000000000e+03 1.029664993286132812e+01 -1.314370059967041016e+01 1.245114564895629883e+00 2.148598670959472656e+00 1.018113970756530762e+00 6.508591771125793457e-02
2.554000000000000000e+03 6.362208938598632812e+01 -7.690513610839843750e+00 -1.199561879038810730e-01 2.107715368270874023e+00 5.963277220726013184e-01 -9.944483637809753418e-01
2.555000000000000000e+03 7.363468170166015625e+00 -2.577906227111816406e+01 -2.197686284780502319e-01 1.370747923851013184e+00 3.452937901020050049e-01 1.041537880897521973e+00
2.556000000000000000e+03 8.656270027160644531e+00 -2.557508087158203125e+01 -3.033165335655212402e-01 1.762483954429626465e+00 4.377502202987670898e-01 1.013884186744689941e+00
2.557000000000000000e+03 6.273954868316650391e+00 1.693247985839843750e+01 5.427681207656860352e-01 5.021318197250366211e-01 3.134699761867523193e-01 -8.958596587181091309e-01
2.558000000000000000e+03 7.011392593383789062e+00 1.623885154724121094e+01 7.535578608512878418e-01 8.715475797653198242e-01 4.875316321849822998e-01 -8.286116719245910645e-01
2.559000000000000000e+03 1.041165828704833984e+01 -2.705383300781250000e+01 -5.520889759063720703e-01 2.073230028152465820e+00 4.563423097133636475e-01 7.982813119888305664e-01
2.560000000000000000e+03 1.052794647216796875e+01 -2.873131942749023438e+01 -6.422275900840759277e-01 1.843630075454711914e+00 3.604207336902618408e-01 6.130746603012084961e-01
2.561000000000000000e+03 7.062384128570556641e+00 -1.473470973968505859e+01 8.416014313697814941e-01 6.439976096153259277e-01 4.456797242164611816e-01 4.986648261547088623e-02
2.562000000000000000e+03 8.474289894104003906e+00 -1.849009513854980469e+01 9.462879896163940430e-01 1.705925822257995605e+00 7.956641316413879395e-01 8.343759179115295410e-01
2.563000000000000000e+03 9.395974159240722656e+00 1.901793479919433594e+01 4.588691294193267822e-01 2.400499582290649414e+00 8.578106164932250977e-01 -1.198243021965026855e+00
2.564000000000000000e+03 6.847853851318359375e+01 1.109420299530029297e+01 8.769316673278808594e-01 7.517471790313720703e+00 2.518321037292480469e+00 1.052879635244607925e-02
2.565000000000000000e+03 7.520184516906738281e+00 -1.289801597595214844e+01 8.068503737449645996e-01 7.136056423187255859e-01 4.561367928981781006e-01 -2.374795973300933838e-01
2.566000000000000000e+03 1.748969841003417969e+01 -7.094608783721923828e+00 1.210846230387687683e-01 2.111449003219604492e+00 6.697601079940795898e-01 2.101246356964111328e+00
2.567000000000000000e+03 1.367245197296142578e+01 -6.961580753326416016e+00 4.873934388160705566e-02 1.770439267158508301e+00 5.457535982131958008e-01 7.219960689544677734e-01
2.568000000000000000e+03 7.413172721862792969e+00 2.925755119323730469e+01 -4.232941865921020508e-01 1.283000469207763672e+00 2.579118907451629639e-01 -4.827228486537933350e-01
2.569000000000000000e+03 7.307623291015625000e+01 1.258385753631591797e+01 4.687143862247467041e-01 6.850498676300048828e+00 2.195763826370239258e+00 5.469626560807228088e-02
2.570000000000000000e+03 7.680879592895507812e+00 7.669441223144531250e+00 7.330869436264038086e-01 1.862071752548217773e-01 2.757882475852966309e-01 8.663661479949951172e-01
2.571000000000000000e+03 7.207958984375000000e+01 -1.184795761108398438e+01 -9.418712258338928223e-01 9.573757171630859375e+00 2.589565753936767578e+00 3.244020938873291016e-01
2.572000000000000000e+03 1.063086986541748047e+01 1.138249778747558594e+01 1.945466160774230957e+00 2.404394149780273438e+00 1.304958105087280273e+00 -6.134352087974548340e-01
2.573000000000000000e+03 6.710173034667968750e+01 -7.405300140380859375e+00 -9.398894309997558594e-01 5.484047412872314453e+00 1.363247394561767578e+00 -1.985619306564331055e+00
2.574000000000000000e+03 6.515467071533203125e+01 2.506976127624511719e+01 -9.414292573928833008e-01 6.465449333190917969e+00 1.657206058502197266e+00 -3.733032047748565674e-01
2.575000000000000000e+03 9.602425575256347656e+00 1.408153343200683594e+01 1.454081177711486816e+00 2.208203554153442383e+00 1.098685383796691895e+00 -8.884689807891845703e-01
2.576000000000000000e+03 3.733489990234375000e+01 2.129266548156738281e+01 -5.718299150466918945e-01 5.758314609527587891e+00 1.555945396423339844e+00 4.741294980049133301e-01
2.577000000000000000e+03 3.644647979736328125e+01 1.855627059936523438e+01 1.759807392954826355e-02 6.690849781036376953e+00 2.012534379959106445e+00 3.625429421663284302e-02
2.578000000000000000e+03 1.241877460479736328e+01 2.459167098999023438e+01 -1.044844627380371094e+00 2.630566835403442383e+00 4.757166504859924316e-01 -2.896092534065246582e-01
2.579000000000000000e+03 8.326130867004394531e+00 2.835781288146972656e+01 -5.359506607055664062e-01 1.489598274230957031e+00 2.860942780971527100e-01 -5.336788296699523926e-01
2.580000000000000000e+03 6.859245777130126953e+00 1.240437316894531250e+01 1.030697464942932129e+00 3.859857618808746338e-01 4.250049889087677002e-01 -1.110243275761604309e-01
2.581000000000000000e+03 7.185315704345703125e+01 -2.674197959899902344e+01 -8.564223647117614746e-01 8.909785270690917969e+00 2.416008949279785156e+00 -6.495267748832702637e-01
2.582000000000000000e+03 7.159681701660156250e+01 1.958273696899414062e+01 2.078479975461959839e-01 7.107026576995849609e+00 2.194462299346923828e+00 6.417189836502075195e-01
2.583000000000000000e+03 1.039087867736816406e+01 -2.348675727844238281e+01 -1.406905520707368851e-02 2.470832824707031250e+00 7.370291352272033691e-01 1.006494283676147461e+00
2.584000000000000000e+03 6.104678344726562500e+01 -6.843262672424316406e+00 3.689747154712677002e-01 1.832803368568420410e+00 6.605334281921386719e-01 2.039178907871246338e-01
2.585000000000000000e+03 6.974984741210937500e+01 -3.029360771179199219e+01 -1.058092594146728516e+00 6.950968742370605469e+00 1.767862796783447266e+00 2.438407540321350098e-01
2.586000000000000000e+03 1.389523315429687500e+01 2.581247138977050781e+01 -9.980336427688598633e-01 2.085899114608764648e+00 3.263595998287200928e-01 1.658018082380294800e-01
2.587000000000000000e+03 4.376616287231445312e+01 -1.027196693420410156e+01 1.935900300741195679e-01 4.552473068237304688e+00 1.423818945884704590e+00 -2.533365190029144287e-01
2.588000000000000000e+03 4.441019821166992188e+01 -1.141052627563476562e+01 6.097849607467651367e-01 4.596399307250976562e+00 1.561855316162109375e+00 2.096259295940399170e-01
2.589000000000000000e+03 9.591110229492187500e+00 -2.474410438537597656e+01 -2.362557053565979004e-01 2.107877254486083984e+00 5.614864826202392578e-01 1.049963474273681641e+00
2.590000000000000000e+03 5.272343063354492188e+01 -1.011700153350830078e+01 -1.684468425810337067e-02 1.090691804885864258e+00 3.221541345119476318e-01 2.155508279800415039e+00
2.591000000000000000e+03 7.076021575927734375e+01 2.671962547302246094e+01 -4.049339294433593750e-01 6.928701877593994141e+00 1.957130432128906250e+00 3.174850046634674072e-01
2.592000000000000000e+03 7.336847686767578125e+01 9.755544066429138184e-01 4.573666490614414215e-03 7.022495269775390625e+00 2.108120679855346680e+00 -7.665554881095886230e-01
2.593000000000000000e+03 7.177054595947265625e+01 4.218832850456237793e-01 -2.114481851458549500e-02 6.871768951416015625e+00 2.055187225341796875e+00 -8.574440479278564453e-01
2.594000000000000000e+03 7.191686248779296875e+01 -1.405179500579833984e+00 -2.094606459140777588e-01 6.977391719818115234e+00 2.030379295349121094e+00 -8.852555155754089355e-01
2.595000000000000000e+03 4.327404022216796875e+01 -1.184870433807373047e+01 6.050311923027038574e-01 5.754162788391113281e+00 1.907758235931396484e+00 -2.806637883186340332e-01
2.596000000000000000e+03 4.141413497924804688e+01 2.018633270263671875e+01 -2.660695612430572510e-01 4.944168090820312500e+00 1.403429627418518066e+00 1.485844254493713379e+00
2.597000000000000000e+03 4.017124557495117188e+01 -1.029122257232666016e+01 -2.985545098781585693e-01 7.734164237976074219e+00 2.230683088302612305e+00 -1.213180661201477051e+00
2.598000000000000000e+03 3.979551315307617188e+01 -1.129609489440917969e+01 2.556826770305633545e-01 8.175312995910644531e+00 2.529298782348632812e+00 -1.296331286430358887e+00
2.599000000000000000e+03 7.246788024902343750e+01 -8.250493049621582031e+00 -1.143951058387756348e+00 8.325692176818847656e+00 2.154522418975830078e+00 -4.101122021675109863e-01
2.600000000000000000e+03 7.288208007812500000e+01 7.604628562927246094e+00 3.937103152275085449e-01 6.866527080535888672e+00 2.178071260452270508e+00 -4.499814212322235107e-01
2.601000000000000000e+03 7.182726287841796875e+01 5.845328807830810547e+00 3.944688439369201660e-01 6.891120433807373047e+00 2.185676813125610352e+00 -5.677765607833862305e-01
2.602000000000000000e+03 4.616011047363281250e+01 2.424525451660156250e+01 -5.255680084228515625e-01 2.895857095718383789e+00 7.110867500305175781e-01 1.591178536415100098e+00
2.603000000000000000e+03 4.698094177246093750e+01 2.324547958374023438e+01 -4.572374522686004639e-01 2.479650259017944336e+00 6.067238450050354004e-01 1.568183422088623047e+00
2.604000000000000000e+03 1.191562557220458984e+01 -3.225862121582031250e+01 -6.936689019203186035e-01 1.561580419540405273e+00 2.603734433650970459e-01 2.457767277956008911e-01
2.605000000000000000e+03 7.098699188232421875e+01 -2.851118850708007812e+01 -1.085471034049987793e+00 8.048777580261230469e+00 2.088991880416870117e+00 -1.782763600349426270e-01
2.606000000000000000e+03 7.598850250244140625e+00 -2.877956581115722656e+01 -4.044464826583862305e-01 1.383850455284118652e+00 2.938211858272552490e-01 8.058832287788391113e-01
2.607000000000000000e+03 1.255010986328125000e+01 2.838794326782226562e+01 -7.737651467323303223e-01 1.763013958930969238e+00 2.967746555805206299e-01 -5.173477157950401306e-02
2.608000000000000000e+03 1.352096652984619141e+01 2.717779541015625000e+01 -8.950958847999572754e-01 1.871340513229370117e+00 2.928733825683593750e-01 9.660185128450393677e-02
2.609000000000000000e+03 1.639053535461425781e+01 2.751800537109375000e+01 -7.160120010375976562e-01 1.330934882164001465e+00 1.844768524169921875e-01 3.746260106563568115e-01
2.610000000000000000e+03 7.161203765869140625e+01 2.272102546691894531e+01 -1.593257635831832886e-01 7.083998203277587891e+00 2.077401638031005859e+00 6.232229471206665039e-01
2.611000000000000000e+03 7.106463623046875000e+01 1.835281562805175781e+01 3.594610095024108887e-01 7.102589607238769531e+00 2.238615036010742188e+00 5.992429852485656738e-01
2.612000000000000000e+03 4.238117218017578125e+01 -2.973272705078125000e+01 -9.997770935297012329e-02 7.633521556854248047e+00 2.260063171386718750e+00 -4.493072628974914551e-01
2.613000000000000000e+03 8.527359962463378906e+00 2.002215194702148438e+01 2.285698056221008301e-01 1.828732728958129883e+00 6.171907782554626465e-01 -1.288529515266418457e+00
2.614000000000000000e+03 4.121199798583984375e+01 -2.805056381225585938e+01 5.782767534255981445e-01 7.945247173309326172e+00 2.557057142257690430e+00 -3.037029206752777100e-01
2.615000000000000000e+03 4.199491119384765625e+01 -2.693296813964843750e+01 1.276153087615966797e+00 8.457230567932128906e+00 2.920015096664428711e+00 -6.661712527275085449e-01
2.616000000000000000e+03 7.037600708007812500e+01 -9.149053573608398438e+00 -1.610864639282226562e+00 8.339332580566406250e+00 2.018540382385253906e+00 -9.939862489700317383e-01
2.617000000000000000e+03 7.218243408203125000e+01 1.063526439666748047e+01 5.401234626770019531e-01 6.959387779235839844e+00 2.249853372573852539e+00 -1.316584199666976929e-01
2.618000000000000000e+03 6.736437225341796875e+01 2.004579162597656250e+01 2.605855166912078857e-01 7.451233863830566406e+00 2.313545703887939453e+00 5.482768416404724121e-01
2.619000000000000000e+03 8.462855339050292969e+00 -3.584494018554687500e+01 -3.710564076900482178e-01 1.244685888290405273e+00 2.620888650417327881e-01 2.645542323589324951e-01
2.620000000000000000e+03 8.781804084777832031e+00 -1.532443428039550781e+01 1.195060253143310547e+00 1.528466582298278809e+00 8.170580863952636719e-01 2.951024770736694336e-01
2.621000000000000000e+03 3.805456924438476562e+01 -7.182833194732666016e+00 -1.905232310295104980e+00 9.216314315795898438e+00 2.193324804306030273e+00 -1.775628089904785156e+00
2.622000000000000000e+03 9.242480278015136719e+00 -1.360640907287597656e+01 1.184926033020019531e+00 1.590827703475952148e+00 8.327261209487915039e-01 2.551242895424365997e-02
2.623000000000000000e+03 7.294951629638671875e+01 -2.077426528930664062e+01 1.336385369300842285e+00 9.710927009582519531e+00 3.314193725585937500e+00 -9.351465106010437012e-01
2.624000000000000000e+03 7.519419860839843750e+01 -2.040377616882324219e+01 8.226252794265747070e-01 8.461350440979003906e+00 2.785192728042602539e+00 -8.611378073692321777e-01
2.625000000000000000e+03 6.905223083496093750e+01 2.696937942504882812e+01 -5.437131524085998535e-01 6.708814144134521484e+00 1.849530220031738281e+00 1.589942425489425659e-01
2.626000000000000000e+03 6.881170654296875000e+01 7.691978931427001953e+00 7.384049892425537109e-01 7.166063308715820312e+00 2.371340513229370117e+00 -2.697453498840332031e-01
2.627000000000000000e+03 6.997596740722656250e+01 3.077215766906738281e+01 -3.604586124420166016e-01 6.529460430145263672e+00 1.850700497627258301e+00 2.651786617934703827e-02
2.628000000000000000e+03 3.146219444274902344e+01 2.549760437011718750e+01 -9.399746060371398926e-01 3.950474262237548828e+00 9.031499624252319336e-01 -8.423663973808288574e-01
2.629000000000000000e+03 5.458706283569335938e+01 3.142878913879394531e+01 3.022229671478271484e-01 2.300925254821777344e+00 7.809444069862365723e-01 1.207988783717155457e-01
2.630000000000000000e+03 5.660018539428710938e+01 3.083241844177246094e+01 2.899013161659240723e-01 2.388223171234130859e+00 8.034373521804809570e-01 -1.432120352983474731e-01
2.631000000000000000e+03 9.293017387390136719e+00 2.543205070495605469e+01 -6.607105731964111328e-01 1.904660463333129883e+00 3.731849491596221924e-01 -7.482594847679138184e-01
2.632000000000000000e+03 1.156909847259521484e+01 2.634762191772460938e+01 -9.327369928359985352e-01 2.204049110412597656e+00 3.813936412334442139e-01 -3.071471452713012695e-01
2.633000000000000000e+03 6.468765258789062500e+01 3.782160207629203796e-02 5.813001394271850586e-01 5.355025768280029297e+00 1.780897736549377441e+00 -3.667530417442321777e-02
2.634000000000000000e+03 6.834813690185546875e+01 6.663838386535644531e+00 6.944510340690612793e-01 7.102837562561035156e+00 2.339186668395996094e+00 -2.924677133560180664e-01
2.635000000000000000e+03 6.677724456787109375e+01 4.903223514556884766e+00 6.775076985359191895e-01 6.856865882873535156e+00 2.260312080383300781e+00 -1.677603274583816528e-01
2.636000000000000000e+03 6.637922668457031250e+01 -1.473052859306335449e+00 2.551421225070953369e-01 5.513826847076416016e+00 1.730690717697143555e+00 -6.823071241378784180e-01
2.637000000000000000e+03 6.030166625976562500e+01 -5.913705348968505859e+00 6.279834508895874023e-01 2.113247394561767578e+00 8.223692774772644043e-01 5.595532059669494629e-01
2.638000000000000000e+03 6.548437500000000000e+01 1.701222777366638184e+00 5.413900613784790039e-01 6.077550888061523438e+00 1.985682249069213867e+00 -1.215274780988693237e-01
2.639000000000000000e+03 6.871488952636718750e+01 3.385089874267578125e+01 -2.153760492801666260e-01 6.176114082336425781e+00 1.788221359252929688e+00 -8.881631493568420410e-02
2.640000000000000000e+03 7.205334472656250000e+01 3.881217956542968750e+01 -2.520506456494331360e-02 6.653117656707763672e+00 1.988373756408691406e+00 1.565714180469512939e-02
2.641000000000000000e+03 1.913109779357910156e+01 -3.526271820068359375e+00 5.158379077911376953e-01 1.633093118667602539e+00 6.446793079376220703e-01 2.290372371673583984e+00
2.642000000000000000e+03 2.126181030273437500e+01 -2.387088298797607422e+00 9.718926548957824707e-01 3.718051195144653320e+00 1.406983137130737305e+00 2.184912443161010742e+00
2.643000000000000000e+03 2.111785507202148438e+01 -1.993749260902404785e+00 1.125430703163146973e+00 3.732411623001098633e+00 1.457352757453918457e+00 2.338428258895874023e+00
2.644000000000000000e+03 2.073698234558105469e+01 -4.429318904876708984e+00 3.012930750846862793e-01 2.431580543518066406e+00 8.198620676994323730e-01 2.320677042007446289e+00
2.645000000000000000e+03 1.739446258544921875e+01 -5.592586517333984375e+00 1.056164577603340149e-01 1.745784521102905273e+00 5.554202795028686523e-01 2.005900621414184570e+00
2.646000000000000000e+03 7.381175041198730469e+00 -7.567839622497558594e+00 9.778520464897155762e-02 3.642608225345611572e-01 1.386138051748275757e-01 -7.098118662834167480e-01
2.647000000000000000e+03 7.833999633789062500e+00 -6.387259483337402344e+00 -7.975919544696807861e-02 3.548905551433563232e-01 8.253940939903259277e-02 -6.812319755554199219e-01
2.648000000000000000e+03 9.332564353942871094e+00 -6.249742507934570312e+00 -1.038214787840843201e-01 6.335943937301635742e-01 1.589318811893463135e-01 -4.850037097930908203e-01
2.649000000000000000e+03 1.085323333740234375e+01 -7.453813552856445312e+00 1.042924523353576660e-01 1.238334059715270996e+00 4.027879536151885986e-01 -1.733563840389251709e-01
2.650000000000000000e+03 2.030592727661132812e+01 -5.887496471405029297e+00 8.842317014932632446e-02 2.119199037551879883e+00 6.622866988182067871e-01 2.347582817077636719e+00
2.651000000000000000e+03 2.128115081787109375e+01 -5.600737094879150391e+00 3.778826072812080383e-02 2.220174312591552734e+00 6.773887872695922852e-01 2.067982196807861328e+00
2.652000000000000000e+03 1.032346820831298828e+01 8.628485679626464844e+00 1.597855925559997559e+00 1.386894106864929199e+00 8.954250216484069824e-01 1.867395788431167603e-01
2.653000000000000000e+03 2.148269844055175781e+01 -4.353664398193359375e+00 3.577988147735595703e-01 2.769541740417480469e+00 9.382021427154541016e-01 2.098203182220458984e+00
2.654000000000000000e+03 2.167426681518554688e+01 -2.291730165481567383e+00 8.735231757164001465e-01 4.162596225738525391e+00 1.510835766792297363e+00 1.848721981048583984e+00
2.655000000000000000e+03 8.890773773193359375e+00 -7.147824287414550781e+00 5.862136930227279663e-02 6.737191677093505859e-01 2.197021543979644775e-01 -5.565921068191528320e-01
2.656000000000000000e+03 1.717006111145019531e+01 -5.028907299041748047e+00 1.116182133555412292e-01 1.495386719703674316e+00 4.821014702320098877e-01 1.906853318214416504e+00
2.657000000000000000e+03 1.845873832702636719e+01 -6.796714782714843750e+00 9.492623060941696167e-02 2.025275945663452148e+00 6.360606551170349121e-01 2.265978574752807617e+00
2.658000000000000000e+03 2.029582595825195312e+01 -6.444215297698974609e+00 6.745227426290512085e-02 2.056367635726928711e+00 6.371459960937500000e-01 2.278980493545532227e+00
2.659000000000000000e+03 9.654786109924316406e+00 -6.985664844512939453e+00 2.321518398821353912e-02 8.621284365653991699e-01 2.656030952930450439e-01 -4.317415058612823486e-01
2.660000000000000000e+03 2.081797599792480469e+01 -5.877197742462158203e+00 1.198462173342704773e-01 2.207870960235595703e+00 6.983151435852050781e-01 2.251401901245117188e+00
2.661000000000000000e+03 2.153008079528808594e+01 -5.081247806549072266e+00 1.574967950582504272e-01 2.462725877761840820e+00 7.860667705535888672e-01 2.054038047790527344e+00
2.662000000000000000e+03 1.175722885131835938e+01 -7.232093811035156250e+00 7.641224563121795654e-02 1.416380167007446289e+00 4.478377401828765869e-01 6.626605987548828125e-02
2.663000000000000000e+03 1.581305122375488281e+01 -5.457525253295898438e+00 -1.787220971891656518e-04 1.459196448326110840e+00 4.377053081989288330e-01 1.469385981559753418e+00
2.664000000000000000e+03 1.325042438507080078e+01 -6.156959056854248047e+00 -8.339561522006988525e-02 1.359894156455993652e+00 3.829495906829833984e-01 5.369098782539367676e-01
2.665000000000000000e+03 2.324653244018554688e+01 -2.628535509109497070e+00 1.543898940086364746e+00 3.605697154998779297e+00 1.544878840446472168e+00 1.473928149789571762e-02
2.666000000000000000e+03 2.244888877868652344e+01 -3.245157003402709961e+00 8.486924767494201660e-01 3.500976562500000000e+00 1.304900765419006348e+00 1.246656060218811035e+00
2.667000000000000000e+03 1.513129711151123047e+01 -5.539385318756103516e+00 -6.562624126672744751e-02 1.468002557754516602e+00 4.207128882408142090e-01 1.228338479995727539e+00
2.668000000000000000e+03 1.709156417846679688e+01 -7.794773578643798828e+00 2.171984165906906128e-01 2.353829383850097656e+00 7.713083028793334961e-01 2.004894495010375977e+00
2.669000000000000000e+03 1.445099353790283203e+01 -6.615878105163574219e+00 1.605367287993431091e-02 1.773931026458740234e+00 5.369954109191894531e-01 9.991868734359741211e-01
2.670000000000000000e+03 1.270574760437011719e+01 -9.891436576843261719e+00 6.628815531730651855e-01 2.564066886901855469e+00 9.680845141410827637e-01 3.465887606143951416e-01
2.671000000000000000e+03 1.122375202178955078e+01 -8.299564361572265625e+00 2.895574867725372314e-01 1.570972681045532227e+00 5.581590533256530762e-01 -7.625482976436614990e-02
2.672000000000000000e+03 1.522180557250976562e+01 -7.147099494934082031e+00 9.291663765907287598e-02 2.074159860610961914e+00 6.501229405403137207e-01 1.279220819473266602e+00
2.673000000000000000e+03 2.315493965148925781e+01 -4.646635055541992188e+00 4.436690211296081543e-01 2.412016630172729492e+00 8.567056655883789062e-01 1.366318702697753906e+00
2.674000000000000000e+03 2.164125442504882812e+01 -3.151736021041870117e+00 7.140292525291442871e-01 3.457190990447998047e+00 1.251366019248962402e+00 1.879742741584777832e+00
2.675000000000000000e+03 1.673801612854003906e+01 -5.863807201385498047e+00 6.013081595301628113e-02 1.693899393081665039e+00 5.262090563774108887e-01 1.803769350051879883e+00
2.676000000000000000e+03 1.618405914306640625e+01 -7.458443164825439453e+00 1.353762745857238770e-01 2.280602693557739258e+00 7.247936725616455078e-01 1.719371438026428223e+00
2.677000000000000000e+03 7.235872650146484375e+01 1.674054026603698730e+00 7.729952782392501831e-02 6.927307605743408203e+00 2.101382255554199219e+00 -8.133038878440856934e-01
2.678000000000000000e+03 7.126250457763671875e+01 1.926870346069335938e+00 1.359345763921737671e-01 6.832809448242187500e+00 2.090623378753662109e+00 -7.928984165191650391e-01
2.679000000000000000e+03 2.322574806213378906e+01 -3.115803956985473633e+00 1.459878206253051758e+00 3.253495454788208008e+00 1.414012074470520020e+00 4.145320951938629150e-01
2.680000000000000000e+03 1.498760986328125000e+01 -8.642086982727050781e+00 3.386504650115966797e-01 2.600660324096679688e+00 8.817932009696960449e-01 1.209959745407104492e+00
2.681000000000000000e+03 1.594612789154052734e+01 -8.203786849975585938e+00 2.752384543418884277e-01 2.556561470031738281e+00 8.495399355888366699e-01 1.637989640235900879e+00
2.682000000000000000e+03 9.174548149108886719e+00 1.139863777160644531e+01 1.623362421989440918e+00 1.499749541282653809e+00 9.369335770606994629e-01 -2.423730492591857910e-01
2.683000000000000000e+03 3.674632644653320312e+01 -7.125799179077148438e+00 -1.923745393753051758e+00 9.469233512878417969e+00 2.263646364212036133e+00 -1.698595046997070312e+00
2.684000000000000000e+03 6.607278442382812500e+01 -6.666252613067626953e+00 -3.825629353523254395e-01 4.451875686645507812e+00 1.220793724060058594e+00 -1.707807302474975586e+00
2.685000000000000000e+03 6.239374542236328125e+01 -5.363341331481933594e+00 5.853238105773925781e-01 2.830135583877563477e+00 1.024637818336486816e+00 -1.644269078969955444e-01
2.686000000000000000e+03 6.878557586669921875e+01 -6.996890068054199219e+00 -1.082087635993957520e+00 6.716358661651611328e+00 1.690281391143798828e+00 -1.625651836395263672e+00
2.687000000000000000e+03 7.178448486328125000e+01 -5.487207412719726562e+00 -7.765207886695861816e-01 7.467026710510253906e+00 2.007151842117309570e+00 -8.589488267898559570e-01
2.688000000000000000e+03 7.155606842041015625e+01 8.015996932983398438e+00 5.176868438720703125e-01 6.960507869720458984e+00 2.243458509445190430e+00 -3.870363533496856689e-01
2.689000000000000000e+03 1.399245643615722656e+01 -7.819517135620117188e+00 1.664727777242660522e-01 2.116740942001342773e+00 6.849641203880310059e-01 8.325901627540588379e-01
2.690000000000000000e+03 1.302664375305175781e+01 -7.957390785217285156e+00 1.980579793453216553e-01 1.965080142021179199e+00 6.489414572715759277e-01 4.794673919677734375e-01
2.691000000000000000e+03 6.852204895019531250e+01 -2.341635227203369141e+00 -1.677732914686203003e-01 6.214310169219970703e+00 1.813961029052734375e+00 -1.025789380073547363e+00
2.692000000000000000e+03 6.134154891967773438e+01 -4.271690368652343750e+00 9.111807942390441895e-01 2.724264860153198242e+00 1.090633749961853027e+00 4.274964928627014160e-01
2.693000000000000000e+03 2.290403175354003906e+01 -4.081076622009277344e+00 7.231975793838500977e-01 2.859488964080810547e+00 1.074805974960327148e+00 1.256155133247375488e+00
2.694000000000000000e+03 2.202317237854003906e+01 -2.768297910690307617e+00 8.443111181259155273e-01 3.991815567016601562e+00 1.450837969779968262e+00 1.586563348770141602e+00
2.695000000000000000e+03 6.536437225341796875e+01 -7.626417160034179688e+00 -5.316091775894165039e-01 3.700157880783081055e+00 9.505646228790283203e-01 -1.829372525215148926e+00
2.696000000000000000e+03 6.508427429199218750e+01 -5.918946266174316406e+00 -8.916535228490829468e-02 3.922419309616088867e+00 1.149976134300231934e+00 -1.296633958816528320e+00
2.697000000000000000e+03 7.915668010711669922e+00 8.419754028320312500e+00 9.937505722045898438e-01 3.632302284240722656e-01 4.070942401885986328e-01 6.936810612678527832e-01
2.698000000000000000e+03 6.704843139648437500e+01 1.015583157539367676e+00 3.670593202114105225e-01 6.182194232940673828e+00 1.964776039123535156e+00 -5.178189277648925781e-01
2.699000000000000000e+03 1.019655513763427734e+01 9.663526535034179688e+00 1.739069223403930664e+00 1.592793464660644531e+00 9.995588064193725586e-01 -2.027376182377338409e-02
2.700000000000000000e+03 9.839405059814453125e+00 1.194838237762451172e+01 1.737626433372497559e+00 1.916645765304565430e+00 1.096281647682189941e+00 -4.662373065948486328e-01
2.701000000000000000e+03 7.096526336669921875e+01 2.986424446105957031e+00 2.465452700853347778e-01 6.824130535125732422e+00 2.121202707290649414e+00 -7.365028262138366699e-01
2.702000000000000000e+03 7.173701477050781250e+01 3.629037618637084961e+00 2.345301806926727295e-01 6.880691051483154297e+00 2.134566307067871094e+00 -7.341718673706054688e-01
2.703000000000000000e+03 7.131511688232421875e+01 -3.090494632720947266e+00 -3.934954404830932617e-01 6.989141941070556641e+00 1.978693842887878418e+00 -9.521659016609191895e-01
2.704000000000000000e+03 7.247945404052734375e+01 1.174523258209228516e+01 5.370566844940185547e-01 6.939049243927001953e+00 2.242831707000732422e+00 -5.177580937743186951e-02
2.705000000000000000e+03 7.075212097167968750e+01 9.910464286804199219e+00 6.622589826583862305e-01 7.099554538726806641e+00 2.328544139862060547e+00 -1.781561970710754395e-01
2.706000000000000000e+03 6.394484329223632812e+01 2.204235458374023438e+01 -7.256842255592346191e-01 7.031638145446777344e+00 1.891786217689514160e+00 -4.390062689781188965e-01
2.707000000000000000e+03 6.526280212402343750e+01 2.392643737792968750e+01 -8.172841072082519531e-01 6.602893352508544922e+00 1.735682725906372070e+00 -2.014685720205307007e-01
2.708000000000000000e+03 9.408267021179199219e+00 7.618181228637695312e+00 1.083668947219848633e+00 7.651136517524719238e-01 5.546347498893737793e-01 6.370061039924621582e-01
2.709000000000000000e+03 1.239537048339843750e+01 6.016358852386474609e+00 9.287853240966796875e-01 1.328917264938354492e+00 6.773107647895812988e-01 1.662314087152481079e-01
2.710000000000000000e+03 7.097541809082031250e+01 6.734407424926757812e+00 4.995695054531097412e-01 6.950714111328125000e+00 2.235085010528564453e+00 -4.917909204959869385e-01
2.711000000000000000e+03 8.437582015991210938e+00 -2.424622344970703125e+01 -6.759833544492721558e-02 1.705769777297973633e+00 4.914514422416687012e-01 1.125265955924987793e+00
2.712000000000000000e+03 6.700194549560546875e+01 2.464745712280273438e+01 -6.675278544425964355e-01 6.772492408752441406e+00 1.831489324569702148e+00 6.314807385206222534e-02
2.713000000000000000e+03 7.039931488037109375e+01 2.017055130004882812e+01 1.392256468534469604e-01 7.147621631622314453e+00 2.186054229736328125e+00 6.715347170829772949e-01
2.714000000000000000e+03 6.934857940673828125e+01 1.768966865539550781e+01 5.592823624610900879e-01 7.284798622131347656e+00 2.353224277496337891e+00 5.421739816665649414e-01
2.715000000000000000e+03 6.642974853515625000e+00 -9.182269096374511719e+00 2.739521265029907227e-01 2.234517484903335571e-01 1.492211669683456421e-01 -6.711009740829467773e-01
2.716000000000000000e+03 9.581302642822265625e+00 -8.739285469055175781e+00 3.595932722091674805e-01 1.165708780288696289e+00 4.575906395912170410e-01 -4.093543887138366699e-01
2.717000000000000000e+03 7.695955276489257812e+00 -2.052931785583496094e+01 5.573463439941406250e-01 1.375717520713806152e+00 5.799191594123840332e-01 1.035979390144348145e+00
2.718000000000000000e+03 8.186068534851074219e+00 -1.127683162689208984e+01 7.182738780975341797e-01 9.143599271774291992e-01 4.897901713848114014e-01 -3.897960782051086426e-01
2.719000000000000000e+03 9.751612663269042969e+00 1.062178230285644531e+01 1.743032574653625488e+00 1.562093377113342285e+00 9.915377497673034668e-01 -1.744928807020187378e-01
2.720000000000000000e+03 9.142079353332519531e+00 9.320546150207519531e+00 1.412172079086303711e+00 9.163779616355895996e-01 6.985650062561035156e-01 3.074151873588562012e-01
2.721000000000000000e+03 1.116721343994140625e+01 2.515156555175781250e+01 -8.646074533462524414e-01 2.332805395126342773e+00 4.404594004154205322e-01 -5.515452623367309570e-01
2.722000000000000000e+03 6.982648468017578125e+01 7.364262580871582031e+00 6.419993638992309570e-01 7.066785335540771484e+00 2.312635421752929688e+00 -3.642570674419403076e-01
2.723000000000000000e+03 6.870645904541015625e+01 4.990822315216064453e+00 5.521034598350524902e-01 6.877660274505615234e+00 2.228929042816162109e+00 -4.476504325866699219e-01
2.724000000000000000e+03 8.710586547851562500e+00 -1.241074180603027344e+01 9.224524497985839844e-01 1.241253018379211426e+00 6.491116285324096680e-01 -2.309605181217193604e-01
2.725000000000000000e+03 6.907902717590332031e+00 -1.028156185150146484e+01 4.152073860168457031e-01 3.498902022838592529e-01 2.295292764902114868e-01 -5.869021415710449219e-01
2.726000000000000000e+03 7.085767745971679688e+00 -1.157362937927246094e+01 6.285617351531982422e-01 5.180049538612365723e-01 3.439700007438659668e-01 -4.312583506107330322e-01
2.727000000000000000e+03 4.141613388061523438e+01 2.272723197937011719e+01 -6.381570696830749512e-01 4.572828292846679688e+00 1.180401325225830078e+00 1.353775024414062500e+00
2.728000000000000000e+03 4.053302764892578125e+01 2.126295089721679688e+01 -4.990789294242858887e-01 5.099453449249267578e+00 1.380112409591674805e+00 1.274453282356262207e+00
2.729000000000000000e+03 6.290732860565185547e+00 -8.350565910339355469e+00 1.698696762323379517e-01 8.935008198022842407e-02 7.776592671871185303e-02 -7.290562987327575684e-01
2.730000000000000000e+03 8.238684654235839844e+00 1.585970306396484375e+01 1.048563480377197266e+00 1.446751236915588379e+00 7.485944628715515137e-01 -8.441042304039001465e-01
2.731000000000000000e+03 7.090664672851562500e+01 -8.023200988769531250e+00 -1.286837458610534668e+00 7.977001667022705078e+00 2.007049322128295898e+00 -9.989435672760009766e-01
2.732000000000000000e+03 1.020904922485351562e+01 2.430062103271484375e+01 -6.973762512207031250e-01 2.211596727371215820e+00 4.542661309242248535e-01 -7.761077284812927246e-01
2.733000000000000000e+03 7.019359588623046875e+01 2.106320261955261230e-01 4.226299747824668884e-02 6.659213066101074219e+00 2.010442972183227539e+00 -8.657746315002441406e-01
2.734000000000000000e+03 3.592129898071289062e+01 1.965144157409667969e+01 -1.867958009243011475e-01 6.226339817047119141e+00 1.811863183975219727e+00 -2.875622734427452087e-02
2.735000000000000000e+03 3.807037353515625000e+01 2.403613281250000000e+01 -9.084166288375854492e-01 4.989489555358886719e+00 1.224321842193603516e+00 6.513490080833435059e-01
2.736000000000000000e+03 7.231394767761230469e+00 8.783925056457519531e+00 8.874389529228210449e-01 1.682704687118530273e-01 3.167128264904022217e-01 6.885778307914733887e-01
2.737000000000000000e+03 8.537071228027343750e+00 7.590185642242431641e+00 9.094901680946350098e-01 4.666738808155059814e-01 4.128492176532745361e-01 7.872380614280700684e-01
2.738000000000000000e+03 7.643902301788330078e+00 2.107962608337402344e+01 -5.717859417200088501e-02 1.529872536659240723e+00 4.418081641197204590e-01 -1.191317796707153320e+00
2.739000000000000000e+03 8.660388946533203125e+00 2.184508705139160156e+01 -2.134730815887451172e-01 1.858684897422790527e+00 4.935635626316070557e-01 -1.190828442573547363e+00
2.740000000000000000e+03 7.091892242431640625e+01 1.409807109832763672e+01 6.690098643302917480e-01 7.124938964843750000e+00 2.338184595108032227e+00 2.355540394783020020e-01
2.741000000000000000e+03 7.030828857421875000e+01 8.652432441711425781e+00 6.776549220085144043e-01 7.076430320739746094e+00 2.326225519180297852e+00 -2.951719760894775391e-01
2.742000000000000000e+03 9.566703796386718750e+00 3.082105255126953125e+01 -4.830396473407745361e-01 1.431324243545532227e+00 2.844853699207305908e-01 -2.827504575252532959e-01
2.743000000000000000e+03 7.215207672119140625e+01 1.345300674438476562e+01 5.489691495895385742e-01 6.984864711761474609e+00 2.260150194168090820e+00 1.308502852916717529e-01
2.744000000000000000e+03 9.508924484252929688e+00 -2.249442481994628906e+01 2.372263073921203613e-01 2.223530769348144531e+00 7.382271289825439453e-01 1.155735850334167480e+00
2.745000000000000000e+03 7.121787261962890625e+01 -9.525034904479980469e+00 -1.330474495887756348e+00 8.629954338073730469e+00 2.189843893051147461e+00 -6.246123313903808594e-01
2.746000000000000000e+03 3.298139190673828125e+01 2.664664077758789062e+01 -1.053826689720153809e+00 4.148353099822998047e+00 9.283579587936401367e-01 -4.261079132556915283e-01
2.747000000000000000e+03 3.580710220336914062e+01 2.066832923889160156e+01 -3.860525786876678467e-01 5.885281562805175781e+00 1.649768710136413574e+00 2.972180210053920746e-02
2.748000000000000000e+03 3.759890747070312500e+01 1.940123176574707031e+01 -2.743672728538513184e-01 6.246575832366943359e+00 1.791662573814392090e+00 5.509924292564392090e-01
2.749000000000000000e+03 6.214667320251464844e+00 -7.295625209808349609e+00 5.270841345191001892e-02 4.835018888115882874e-02 3.031758032739162445e-02 -7.623907327651977539e-01
2.750000000000000000e+03 1.010795021057128906e+01 -3.304128646850585938e+01 -5.691963434219360352e-01 1.449367284774780273e+00 2.640512883663177490e-01 3.518854677677154541e-01
2.751000000000000000e+03 7.844989776611328125e+00 1.674739646911621094e+01 7.244436740875244141e-01 1.305321097373962402e+00 6.089294552803039551e-01 -1.011292099952697754e+00
2.752000000000000000e+03 4.729629516601562500e+01 -1.207101726531982422e+01 8.707833886146545410e-01 2.836425065994262695e+00 1.112162590026855469e+00 1.572507143020629883e+00
2.753000000000000000e+03 6.592157745361328125e+01 5.850016474723815918e-01 4.320548176765441895e-01 5.921226024627685547e+00 1.905984282493591309e+00 -3.158793151378631592e-01
2.754000000000000000e+03 6.954373168945312500e+01 1.058808803558349609e+00 1.555139124393463135e-01 6.612738132476806641e+00 2.030475616455078125e+00 -7.887110710144042969e-01
2.755000000000000000e+03 6.840327453613281250e+01 -3.049063491821289062e+01 -1.128120064735412598e+00 6.043329715728759766e+00 1.474563002586364746e+00 6.193497776985168457e-01
2.756000000000000000e+03 6.743804168701171875e+01 2.300437164306640625e+01 -4.965006709098815918e-01 7.063858032226562500e+00 1.970207214355468750e+00 3.708201348781585693e-01
2.757000000000000000e+03 6.196178436279296875e+01 -3.280213832855224609e+00 8.693690896034240723e-01 3.378671646118164062e+00 1.274412274360656738e+00 3.148744106292724609e-01
2.758000000000000000e+03 7.096944427490234375e+01 2.143999671936035156e+01 -2.706767804920673370e-02 7.151357173919677734e+00 2.137286901473999023e+00 6.593425273895263672e-01
2.759000000000000000e+03 6.634845733642578125e+01 2.356443977355957031e+01 -7.674430608749389648e-01 6.958077430725097656e+00 1.857190251350402832e+00 9.805197268724441528e-02
2.760000000000000000e+03 4.046197891235351562e+01 1.933102035522460938e+01 -1.755120903253555298e-01 5.550333499908447266e+00 1.612446427345275879e+00 1.352474927902221680e+00
2.761000000000000000e+03 6.920128631591796875e+01 3.620195770263671875e+01 -8.991716802120208740e-02 6.176742553710937500e+00 1.826047539710998535e+00 -9.843359142541885376e-02
2.762000000000000000e+03 6.792247009277343750e+01 3.163359642028808594e+01 -3.422935307025909424e-01 6.094391822814941406e+00 1.725629448890686035e+00 -1.207821369171142578e-01
2.763000000000000000e+03 1.136100387573242188e+01 2.765369796752929688e+01 -8.365455269813537598e-01 1.892089605331420898e+00 3.166632354259490967e-01 -2.221370935440063477e-01
2.764000000000000000e+03 7.001485443115234375e+01 1.169475269317626953e+01 7.680130600929260254e-01 7.243484020233154297e+00 2.403449058532714844e+00 3.869466949254274368e-03
2.765000000000000000e+03 8.127463340759277344e+00 1.106660366058349609e+01 1.394349455833435059e+00 7.945443391799926758e-01 6.566681265830993652e-01 3.809664025902748108e-02
2.766000000000000000e+03 4.586555862426757812e+01 -3.018098449707031250e+01 1.286686509847640991e-01 7.256844520568847656e+00 2.215653896331787109e+00 -1.769286870956420898e+00
2.767000000000000000e+03 6.887303161621093750e+01 1.648591041564941406e+01 7.495185732841491699e-01 7.418739318847656250e+00 2.450477361679077148e+00 3.860925734043121338e-01
2.768000000000000000e+03 7.058284759521484375e+01 1.711853408813476562e+01 5.383923649787902832e-01 7.181160926818847656e+00 2.315865993499755859e+00 4.832992851734161377e-01
2.769000000000000000e+03 4.493098831176757812e+01 2.536499404907226562e+01 -6.049829721450805664e-01 3.274278163909912109e+00 8.007885813713073730e-01 1.478077530860900879e+00
2.770000000000000000e+03 4.379976272583007812e+01 2.722981071472167969e+01 -6.668680310249328613e-01 3.468466281890869141e+00 8.404794335365295410e-01 1.316620588302612305e+00
2.771000000000000000e+03 1.980720138549804688e+01 2.722114944458007812e+01 -4.708138406276702881e-01 6.359550356864929199e-01 4.954235628247261047e-02 1.639141291379928589e-01
2.772000000000000000e+03 6.920360565185546875e+01 9.370923995971679688e+00 7.823553681373596191e-01 7.276251792907714844e+00 2.417582035064697266e+00 -1.600851118564605713e-01
2.773000000000000000e+03 3.423590087890625000e+01 2.510839653015136719e+01 -1.009044051170349121e+00 4.710713386535644531e+00 1.110500812530517578e+00 -2.172103524208068848e-01
2.774000000000000000e+03 6.573442840576171875e+01 2.239101600646972656e+01 -5.660566091537475586e-01 7.050655841827392578e+00 1.945379734039306641e+00 1.121682003140449524e-01
2.775000000000000000e+03 1.103029727935791016e+01 -3.533092117309570312e+01 -5.172798037528991699e-01 1.314572930335998535e+00 2.391879260540008545e-01 1.633075028657913208e-01
2.776000000000000000e+03 6.351378250122070312e+01 2.621967315673828125e+01 -8.981336951255798340e-01 5.649511337280273438e+00 1.425413370132446289e+00 -7.726259231567382812e-01
2.777000000000000000e+03 6.862070465087890625e+01 1.947945022583007812e+01 3.085071146488189697e-01 7.291053771972656250e+00 2.279868364334106445e+00 6.230657696723937988e-01
2.778000000000000000e+03 3.064086151123046875e+01 2.964493751525878906e+01 -8.700727820396423340e-01 3.083083868026733398e+00 6.639032959938049316e-01 -6.639552116394042969e-01
2.779000000000000000e+03 1.492456531524658203e+01 3.424369430541992188e+01 -3.233992755413055420e-01 1.324979186058044434e+00 3.004739880561828613e-01 1.306983642280101776e-02
2.780000000000000000e+03 8.755640983581542969e+00 2.687196540832519531e+01 -5.904498696327209473e-01 1.609594345092773438e+00 3.057433664798736572e-01 -6.436649560928344727e-01
2.781000000000000000e+03 6.251650619506835938e+01 -4.240646839141845703e+00 6.645759940147399902e-01 3.201297998428344727e+00 1.159762263298034668e+00 -9.185905754566192627e-02
2.782000000000000000e+03 6.414368438720703125e+01 -5.145880222320556641e+00 3.443413674831390381e-01 3.513186693191528320e+00 1.157258391380310059e+00 -8.085325956344604492e-01
2.783000000000000000e+03 1.516245841979980469e+01 2.935246849060058594e+01 -6.288798451423645020e-01 1.438732028007507324e+00 2.429556399583816528e-01 1.801958233118057251e-01
2.784000000000000000e+03 6.924348449707031250e+01 2.530251121520996094e+01 -5.173067450523376465e-01 6.950450420379638672e+00 1.929943084716796875e+00 2.918953001499176025e-01
2.785000000000000000e+03 9.682589530944824219e+00 2.892000198364257812e+01 -6.188353300094604492e-01 1.577052474021911621e+00 2.874651551246643066e-01 -3.857052922248840332e-01
2.786000000000000000e+03 1.321522331237792969e+01 -3.420848083496093750e+01 -6.488493680953979492e-01 1.372755646705627441e+00 2.171718925237655640e-01 6.067383661866188049e-02
2.787000000000000000e+03 1.102378749847412109e+01 -3.045796394348144531e+01 -6.974253654479980469e-01 1.733790874481201172e+00 3.109096586704254150e-01 4.537277519702911377e-01
2.788000000000000000e+03 6.963691711425781250e+01 1.050965499877929688e+01 7.883846163749694824e-01 7.232457160949707031e+00 2.406252622604370117e+00 -1.111631542444229126e-01
2.789000000000000000e+03 6.860994720458984375e+01 8.599369049072265625e+00 8.169445395469665527e-01 7.279361724853515625e+00 2.428891897201538086e+00 -1.835770159959793091e-01
2.790000000000000000e+03 1.963490104675292969e+01 -3.359967470169067383e+00 6.541863679885864258e-01 1.938658833503723145e+00 7.778535485267639160e-01 2.363778114318847656e+00
2.791000000000000000e+03 1.995611572265625000e+01 -5.152132511138916016e+00 2.293965965509414673e-01 2.141925096511840820e+00 7.113965153694152832e-01 2.413977384567260742e+00
2.792000000000000000e+03 1.910954856872558594e+01 -5.755058288574218750e+00 1.241325363516807556e-01 1.951420426368713379e+00 6.226658821105957031e-01 2.373238563537597656e+00
2.793000000000000000e+03 2.049324607849121094e+01 -5.419882297515869141e+00 1.190866902470588684e-01 2.234360456466674805e+00 7.060341238975524902e-01 2.287595510482788086e+00
2.794000000000000000e+03 9.237415313720703125e+00 -7.951843261718750000e+00 1.829987913370132446e-01 9.094257950782775879e-01 3.277273774147033691e-01 -4.972303807735443115e-01
2.795000000000000000e+03 2.385538864135742188e+01 -3.329611063003540039e+00 1.762962698936462402e+00 2.653621912002563477e+00 1.324975371360778809e+00 2.772708833217620850e-01
2.796000000000000000e+03 9.895339012145996094e+00 -9.457358360290527344e+00 5.020642280578613281e-01 1.329937100410461426e+00 5.496004223823547363e-01 -3.347145020961761475e-01
2.797000000000000000e+03 1.036666107177734375e+01 -6.748407840728759766e+00 -2.071268623694777489e-03 9.789455533027648926e-01 2.930622696876525879e-01 -2.726111114025115967e-01
2.798000000000000000e+03 1.917156791687011719e+01 -6.348680973052978516e+00 1.054366007447242737e-01 2.016861677169799805e+00 6.366894841194152832e-01 2.322344064712524414e+00
2.799000000000000000e+03 1.971814727783203125e+01 -6.401721954345703125e+00 7.011605799198150635e-02 2.018703460693359375e+00 6.266458630561828613e-01 2.367317914962768555e+00
2.800000000000000000e+03 2.007138633728027344e+01 -3.128576755523681641e+00 7.068307399749755859e-01 2.186032772064208984e+00 8.678590059280395508e-01 2.405704736709594727e+00
2.801000000000000000e+03 1.003299331665039062e+01 -7.731472969055175781e+00 1.670808047056198120e-01 1.103816270828247070e+00 3.812691271305084229e-01 -3.479877710342407227e-01
2.802000000000000000e+03 1.868676567077636719e+01 -6.158636093139648438e+00 1.613024324178695679e-01 1.936137676239013672e+00 6.292319893836975098e-01 2.306929588317871094e+00
2.803000000000000000e+03 1.210517978668212891e+01 -8.109786033630371094e+00 2.234348058700561523e-01 1.777304291725158691e+00 6.002217531204223633e-01 1.597928404808044434e-01
2.804000000000000000e+03 1.271520519256591797e+01 -7.115946292877197266e+00 5.254842340946197510e-02 1.606854677200317383e+00 4.978209137916564941e-01 3.637600243091583252e-01
2.805000000000000000e+03 1.759376716613769531e+01 -6.146350383758544922e+00 1.246518716216087341e-01 1.841075539588928223e+00 5.897182226181030273e-01 2.111569166183471680e+00
2.806000000000000000e+03 1.700358390808105469e+01 -6.525116443634033203e+00 1.011653244495391846e-01 1.999727964401245117e+00 6.302679777145385742e-01 1.943605065345764160e+00
2.807000000000000000e+03 1.497080802917480469e+01 -6.112356185913085938e+00 -5.863705184310674667e-03 1.659367084503173828e+00 4.960510134696960449e-01 1.195595741271972656e+00
2.808000000000000000e+03 1.499820995330810547e+01 -7.885273933410644531e+00 1.731346249580383301e-01 2.332038402557373047e+00 7.515518665313720703e-01 1.221576452255249023e+00
2.809000000000000000e+03 1.038599395751953125e+01 -8.512115478515625000e+00 3.153832256793975830e-01 1.329886555671691895e+00 4.935809373855590820e-01 -2.707777619361877441e-01
2.810000000000000000e+03 7.924635887145996094e+00 -1.021538925170898438e+01 4.884177446365356445e-01 7.019881010055541992e-01 3.571217656135559082e-01 -5.378979444503784180e-01
2.811000000000000000e+03 9.982070922851562500e+00 -1.014552211761474609e+01 6.578117012977600098e-01 1.481232643127441406e+00 6.417133212089538574e-01 -2.898586392402648926e-01
2.812000000000000000e+03 6.523793029785156250e+01 -3.422571897506713867e+00 2.706089913845062256e-01 4.629010677337646484e+00 1.469885945320129395e+00 -8.184048533439636230e-01
2.813000000000000000e+03 6.985453796386718750e+01 -7.550754070281982422e+00 -1.253678083419799805e+00 7.371518611907958984e+00 1.835352182388305664e+00 -1.239513278007507324e+00
2.814000000000000000e+03 1.242099285125732422e+01 -8.989377021789550781e+00 4.280777871608734131e-01 2.170809984207153320e+00 7.796663045883178711e-01 2.644271552562713623e-01
2.815000000000000000e+03 7.081924438476562500e+01 4.023576736450195312e+00 3.320741355419158936e-01 6.853672504425048828e+00 2.155724048614501953e+00 -6.636045575141906738e-01
2.816000000000000000e+03 6.436564636230468750e+01 -6.802728652954101562e+00 4.897915199398994446e-02 3.041260004043579102e+00 9.270717501640319824e-01 -1.291030645370483398e+00
2.817000000000000000e+03 6.775115203857421875e+01 -6.349737644195556641e+00 -7.298367619514465332e-01 5.811902523040771484e+00 1.524619698524475098e+00 -1.627842187881469727e+00
2.818000000000000000e+03 2.200189590454101562e+01 -3.601527214050292969e+00 6.536139845848083496e-01 3.308963060379028320e+00 1.188773036003112793e+00 1.714851975440979004e+00
2.819000000000000000e+03 6.339253997802734375e+01 -5.948369026184082031e+00 3.023065626621246338e-01 2.859932184219360352e+00 9.486716389656066895e-01 -6.550325751304626465e-01
2.820000000000000000e+03 9.262993812561035156e+00 -9.810820579528808594e+00 5.603994131088256836e-01 1.205863714218139648e+00 5.298789143562316895e-01 -4.210636317729949951e-01
2.821000000000000000e+03 7.036965942382812500e+01 -6.428733348846435547e+00 -1.002436280250549316e+00 7.291085720062255859e+00 1.886594891548156738e+00 -1.214625120162963867e+00
2.822000000000000000e+03 6.919351959228515625e+01 -3.176173210144042969e+01 -8.368337154388427734e-01 6.336946010589599609e+00 1.650033593177795410e+00 4.235790073871612549e-01
2.823000000000000000e+03 9.543533325195312500e+00 -2.075396728515625000e+01 6.436080932617187500e-01 2.223894357681274414e+00 8.602507114410400391e-01 1.054739475250244141e+00
2.824000000000000000e+03 9.272693634033203125e+00 1.309974575042724609e+01 1.537810325622558594e+00 1.810049533843994141e+00 1.004357933998107910e+00 -5.506187081336975098e-01
2.825000000000000000e+03 8.239254951477050781e+00 1.328372001647949219e+01 1.265928149223327637e+00 1.214589834213256836e+00 7.441554069519042969e-01 -5.057817101478576660e-01
2.826000000000000000e+03 7.030736541748046875e+01 5.595472335815429688e+00 4.862180948257446289e-01 6.921996116638183594e+00 2.222464323043823242e+00 -5.404438376426696777e-01
2.827000000000000000e+03 7.100691223144531250e+01 -5.397983789443969727e-01 -8.428435772657394409e-02 6.801402568817138672e+00 2.015135526657104492e+00 -9.221229553222656250e-01
2.828000000000000000e+03 8.849062919616699219e+00 -1.059774017333984375e+01 6.716144680976867676e-01 1.094779849052429199e+00 5.299183130264282227e-01 -4.088334441184997559e-01
2.829000000000000000e+03 6.931255340576171875e+01 6.134568691253662109e+00 5.834302902221679688e-01 6.980856418609619141e+00 2.269285917282104492e+00 -4.389076530933380127e-01
2.830000000000000000e+03 6.834676361083984375e+01 3.889928340911865234e+00 4.921231567859649658e-01 6.752824306488037109e+00 2.173484325408935547e+00 -4.754433035850524902e-01
2.831000000000000000e+03 7.071086883544921875e+01 -5.398101806640625000e+00 -8.472927808761596680e-01 7.208337306976318359e+00 1.908313393592834473e+00 -1.057534337043762207e+00
2.832000000000000000e+03 9.603876113891601562e+00 2.333635902404785156e+01 -5.131072402000427246e-01 2.146326780319213867e+00 4.899658560752868652e-01 -1.007799148559570312e+00
2.833000000000000000e+03 7.093043518066406250e+01 9.751012921333312988e-01 6.417561322450637817e-02 6.793749809265136719e+00 2.057377576828002930e+00 -8.459058403968811035e-01
2.834000000000000000e+03 6.739878845214843750e+01 -4.639701843261718750e+00 -3.210505843162536621e-01 5.588370323181152344e+00 1.580195903778076172e+00 -1.328611135482788086e+00
2.835000000000000000e+03 8.576044082641601562e+00 8.326500892639160156e+00 1.101657867431640625e+00 5.531228780746459961e-01 4.964342415332794189e-01 6.067895293235778809e-01
2.836000000000000000e+03 9.828583717346191406e+00 -1.100244235992431641e+01 8.336242437362670898e-01 1.577900171279907227e+00 7.234573364257812500e-01 -2.530068457126617432e-01
2.837000000000000000e+03 3.849024963378906250e+01 2.061193084716796875e+01 -4.446068406105041504e-01 5.762779712677001953e+00 1.595451951026916504e+00 8.046170473098754883e-01
2.838000000000000000e+03 1.121481037139892578e+01 2.899060821533203125e+01 -6.744067668914794922e-01 1.679481625556945801e+00 3.015224635601043701e-01 -2.021689713001251221e-01
2.839000000000000000e+03 6.740943145751953125e+01 2.658350181579589844e+01 -6.492645740509033203e-01 6.595072269439697266e+00 1.783742308616638184e+00 -1.498118788003921509e-02
2.840000000000000000e+03 4.566101074218750000e+01 2.818389511108398438e+01 -4.618163406848907471e-01 2.976288795471191406e+00 7.543417215347290039e-01 1.304694533348083496e+00
2.841000000000000000e+03 3.779542922973632812e+01 2.257938385009765625e+01 -7.436064481735229492e-01 5.391533851623535156e+00 1.394378185272216797e+00 6.071218848228454590e-01
2.842000000000000000e+03 3.970622634887695312e+01 2.352274131774902344e+01 -8.060730099678039551e-01 4.855315685272216797e+00 1.214772820472717285e+00 9.891216158866882324e-01
2.843000000000000000e+03 4.058353424072265625e+01 -3.198093795776367188e+01 -9.558497667312622070e-01 6.810233116149902344e+00 1.756314992904663086e+00 1.674766987562179565e-01
2.844000000000000000e+03 4.073463821411132812e+01 -2.972352409362792969e+01 -2.308943867683410645e-01 7.491876125335693359e+00 2.178294658660888672e+00 7.455483078956604004e-02
2.845000000000000000e+03 6.420294189453125000e+01 2.367747306823730469e+01 -1.070876240730285645e+00 6.650301456451416016e+00 1.673827528953552246e+00 -5.496686100959777832e-01
2.846000000000000000e+03 6.624830627441406250e+01 2.560536766052246094e+01 -7.795937657356262207e-01 6.486891746520996094e+00 1.712189316749572754e+00 -9.040351212024688721e-02
2.847000000000000000e+03 6.793326568603515625e+01 2.412797355651855469e+01 -5.903484225273132324e-01 7.035338878631591797e+00 1.933497071266174316e+00 2.816796898841857910e-01
2.848000000000000000e+03 6.797010040283203125e+01 2.524095916748046875e+01 -6.213462948799133301e-01 6.822734832763671875e+00 1.860416650772094727e+00 2.079514116048812866e-01
2.849000000000000000e+03 9.393371582031250000e+00 3.537079620361328125e+01 -2.534986734390258789e-01 1.238744974136352539e+00 2.955738902091979980e-01 -1.280539184808731079e-01
2.850000000000000000e+03 6.921714782714843750e+01 2.884948730468750000e+01 -4.804829061031341553e-01 6.568713665008544922e+00 1.826469182968139648e+00 4.983189329504966736e-02
2.851000000000000000e+03 1.721058845520019531e+01 3.302434921264648438e+01 -3.256978690624237061e-01 1.267954111099243164e+00 2.826768755912780762e-01 3.923632577061653137e-02
2.852000000000000000e+03 1.406447410583496094e+01 3.209925079345703125e+01 -4.567067921161651611e-01 1.381203770637512207e+00 2.773490846157073975e-01 3.038596175611019135e-02
2.853000000000000000e+03 3.175245285034179688e+01 2.795691871643066406e+01 -9.902886152267456055e-01 3.497608184814453125e+00 7.521958947181701660e-01 -7.055258750915527344e-01
2.854000000000000000e+03 2.095047378540039062e+01 3.337477493286132812e+01 -2.530710399150848389e-01 1.303019165992736816e+00 3.149844408035278320e-01 -1.314825564622879028e-01
2.855000000000000000e+03 1.004193115234375000e+01 2.737277984619140625e+01 -7.384961843490600586e-01 1.868743658065795898e+00 3.390742540359497070e-01 -4.932512342929840088e-01
2.856000000000000000e+03 6.993745422363281250e+01 2.585927248001098633e+00 2.648911476135253906e-01 6.744162082672119141e+00 2.102715969085693359e+00 -7.229419946670532227e-01
2.857000000000000000e+03 6.860998535156250000e+01 4.498928785324096680e-01 1.812900751829147339e-01 6.388825893402099609e+00 1.971034765243530273e+00 -7.707795500755310059e-01
2.858000000000000000e+03 6.477133941650390625e+01 -4.382990837097167969e+00 2.159011811017990112e-01 4.265890121459960938e+00 1.344537377357482910e+00 -8.667792677879333496e-01
2.859000000000000000e+03 6.369942474365234375e+01 -4.111783504486083984e+00 5.365337133407592773e-01 3.665620565414428711e+00 1.260646343231201172e+00 -4.125274121761322021e-01
2.860000000000000000e+03 6.979476165771484375e+01 2.203616905212402344e+01 -1.751572489738464355e-01 7.153013706207275391e+00 2.093356847763061523e+00 6.363835930824279785e-01
2.861000000000000000e+03 6.919755554199218750e+01 2.073157119750976562e+01 7.218802720308303833e-02 7.260070323944091797e+00 2.199677467346191406e+00 6.425911784172058105e-01
2.862000000000000000e+03 6.584884643554687500e+00 -2.138904953002929688e+01 3.275613486766815186e-01 8.811020255088806152e-01 3.625990152359008789e-01 1.005038499832153320e+00
2.863000000000000000e+03 4.518554687500000000e+01 -3.278591537475585938e+01 -1.030054807662963867e+00 6.468989849090576172e+00 1.631680488586425781e+00 -1.215090870857238770e+00
2.864000000000000000e+03 4.662703704833984375e+01 -3.447425460815429688e+01 -1.088261961936950684e+00 5.227537631988525391e+00 1.241782665252685547e+00 -1.438049912452697754e+00
2.865000000000000000e+03 1.950611495971679688e+01 -4.772389888763427734e+00 2.778691649436950684e-01 1.943406701087951660e+00 6.663827300071716309e-01 2.398498535156250000e+00
2.866000000000000000e+03 2.143300819396972656e+01 -3.651322126388549805e+00 5.353266000747680664e-01 2.941896915435791016e+00 1.043166995048522949e+00 2.118822097778320312e+00
2.867000000000000000e+03 2.086682319641113281e+01 -3.311802864074707031e+00 6.296521425247192383e-01 2.811485767364501953e+00 1.032341361045837402e+00 2.309369087219238281e+00
2.868000000000000000e+03 1.987752914428710938e+01 -3.951819419860839844e+00 4.355824589729309082e-01 2.080502986907958984e+00 7.548255920410156250e-01 2.417490720748901367e+00
2.869000000000000000e+03 2.093995285034179688e+01 -5.100223064422607422e+00 2.379475533962249756e-01 2.425848484039306641e+00 7.991388440132141113e-01 2.300902128219604492e+00
2.870000000000000000e+03 1.809248352050781250e+01 -5.322103023529052734e+00 1.696588695049285889e-01 1.703392505645751953e+00 5.619153976440429688e-01 2.205273866653442383e+00
2.871000000000000000e+03 8.808952331542968750e+00 -9.052164077758789062e+00 3.808123171329498291e-01 9.318253993988037109e-01 3.937913179397583008e-01 -5.372021794319152832e-01
2.872000000000000000e+03 1.885066604614257812e+01 -5.072233200073242188e+00 2.579837143421173096e-01 1.842024922370910645e+00 6.300025582313537598e-01 2.313979148864746094e+00
2.873000000000000000e+03 1.153246498107910156e+01 -9.148811340332031250e+00 4.471510052680969238e-01 1.892861247062683105e+00 7.020037174224853516e-01 -5.747462157160043716e-03
2.874000000000000000e+03 6.934500885009765625e+01 -5.933411121368408203e+00 -8.564313650131225586e-01 6.712604999542236328e+00 1.756852149963378906e+00 -1.313045024871826172e+00
2.875000000000000000e+03 6.806579589843750000e+01 1.483367204666137695e+00 3.101100027561187744e-01 6.419319152832031250e+00 2.018828868865966797e+00 -6.233968734741210938e-01
2.876000000000000000e+03 6.975197601318359375e+01 -2.384475708007812500e+00 -2.481086999177932739e-01 6.542592525482177734e+00 1.888345122337341309e+00 -1.054176688194274902e+00
2.877000000000000000e+03 6.674625396728515625e+01 -5.671226978302001953e+00 -4.512453675270080566e-01 5.207938671112060547e+00 1.427007913589477539e+00 -1.556758642196655273e+00
2.878000000000000000e+03 6.642217254638671875e+01 -4.703048467636108398e-01 3.121474087238311768e-01 5.745126247406005859e+00 1.817182064056396484e+00 -5.689179301261901855e-01
2.879000000000000000e+03 6.580280303955078125e+01 -2.441682100296020508e+00 2.169944792985916138e-01 5.111055374145507812e+00 1.598415017127990723e+00 -7.729967832565307617e-01
2.880000000000000000e+03 6.928237152099609375e+01 -5.735356807708740234e-01 3.675529267638921738e-03 6.487528800964355469e+00 1.947361350059509277e+00 -8.862331509590148926e-01
2.881000000000000000e+03 6.514934539794921875e+01 2.635979843139648438e+01 -8.254452943801879883e-01 6.093979835510253906e+00 1.580560326576232910e+00 -4.637480378150939941e-01
2.882000000000000000e+03 6.985661315917968750e+01 1.891860389709472656e+01 3.724252879619598389e-01 7.243501663208007812e+00 2.284778118133544922e+00 6.054451465606689453e-01
2.883000000000000000e+03 3.916349411010742188e+01 2.203468894958496094e+01 -6.694337725639343262e-01 5.235287666320800781e+00 1.369756221771240234e+00 9.312930107116699219e-01
2.884000000000000000e+03 6.755171203613281250e+01 -1.187914237380027771e-01 2.088684290647506714e-01 6.128205299377441406e+00 1.901122093200683594e+00 -6.923192143440246582e-01
2.885000000000000000e+03 1.067497062683105469e+01 -9.307642936706542969e+00 5.021677017211914062e-01 1.608011364936828613e+00 6.330537199974060059e-01 -2.041709572076797485e-01
2.886000000000000000e+03 4.094884109497070312e+01 -3.466363906860351562e+01 -1.476194858551025391e+00 6.277693271636962891e+00 1.440449595451354980e+00 1.624276302754878998e-02
2.887000000000000000e+03 9.372104644775390625e+00 8.476196289062500000e+00 1.336068511009216309e+00 8.954688310623168945e-01 6.694611907005310059e-01 4.753881096839904785e-01
2.888000000000000000e+03 3.652999877929687500e+01 2.419133377075195312e+01 -9.426019787788391113e-01 5.042935371398925781e+00 1.230099916458129883e+00 2.958318889141082764e-01
2.889000000000000000e+03 6.574919891357421875e+01 -4.999785900115966797e+00 -8.536311797797679901e-03 4.553992748260498047e+00 1.363636970520019531e+00 -1.235153317451477051e+00
2.890000000000000000e+03 6.901451110839843750e+01 1.996662020683288574e+00 2.912112772464752197e-01 6.585697174072265625e+00 2.063072681427001953e+00 -6.887409090995788574e-01
2.891000000000000000e+03 1.149683761596679688e+01 3.068017768859863281e+01 -5.738747119903564453e-01 1.529018044471740723e+00 2.865429818630218506e-01 -1.561468243598937988e-01
2.892000000000000000e+03 1.337548542022705078e+01 3.005577659606933594e+01 -6.304918527603149414e-01 1.568460345268249512e+00 2.813905477523803711e-01 3.759594634175300598e-02
2.893000000000000000e+03 6.608242034912109375e+01 2.780231475830078125e+01 -6.915898323059082031e-01 6.084985256195068359e+00 1.618018627166748047e+00 -3.070637285709381104e-01
2.894000000000000000e+03 3.253100585937500000e+01 3.063896369934082031e+01 -9.565351605415344238e-01 3.457450389862060547e+00 7.502745985984802246e-01 -3.458338677883148193e-01
2.895000000000000000e+03 2.383280563354492188e+01 3.460705184936523438e+01 -3.008434474468231201e-01 1.622956633567810059e+00 3.966339528560638428e-01 -2.914912700653076172e-01
2.896000000000000000e+03 6.988080596923828125e+01 -5.012900352478027344e+00 -7.361611127853393555e-01 6.862725734710693359e+00 1.837969422340393066e+00 -1.248697519302368164e+00
2.897000000000000000e+03 2.008001708984375000e+01 -4.572102069854736328e+00 3.482367396354675293e-01 2.211709737777709961e+00 7.679839730262756348e-01 2.389300346374511719e+00
2.898000000000000000e+03 6.910065460205078125e+01 -4.248301506042480469e+00 -4.857368171215057373e-01 6.403828144073486328e+00 1.775427341461181641e+00 -1.215475559234619141e+00
2.899000000000000000e+03 6.634770202636718750e+01 -4.017965316772460938e+00 -6.091776490211486816e-02 5.148628711700439453e+00 1.526313304901123047e+00 -1.141184687614440918e+00
2.900000000000000000e+03 6.838622283935546875e+01 -5.294460773468017578e+00 -6.635649800300598145e-01 6.214572906494140625e+00 1.665302395820617676e+00 -1.457884788513183594e+00
2.901000000000000000e+03 7.014145660400390625e+01 -1.356857180595397949e+00 -1.293447613716125488e-01 6.597286224365234375e+00 1.940382361412048340e+00 -9.623406529426574707e-01
2.902000000000000000e+03 6.859811401367187500e+01 2.253095054626464844e+01 -3.186981678009033203e-01 7.200443744659423828e+00 2.064523696899414062e+00 5.008713603019714355e-01
2.903000000000000000e+03 7.010615539550781250e+01 -3.517923355102539062e+00 -4.786916971206665039e-01 6.749282836914062500e+00 1.881177306175231934e+00 -1.095702767372131348e+00
2.904000000000000000e+03 6.774469757080078125e+01 -3.269976043701171875e+01 -7.224919795989990234e-01 5.242705345153808594e+00 1.356064081192016602e+00 6.733288764953613281e-01
2.905000000000000000e+03 1.226534843444824219e+01 3.514212417602539062e+01 -3.035268187522888184e-01 1.291431427001953125e+00 2.963713705539703369e-01 -5.720142275094985962e-02
2.906000000000000000e+03 1.185816955566406250e+01 3.277137756347656250e+01 -4.309986829757690430e-01 1.400061249732971191e+00 2.907187640666961670e-01 -8.498302847146987915e-02
2.907000000000000000e+03 3.806197357177734375e+01 -3.000387954711914062e+01 -5.112977027893066406e-01 6.526916980743408203e+00 1.804685831069946289e+00 6.576896309852600098e-01
2.908000000000000000e+03 6.533318328857421875e+01 3.031749534606933594e+01 -4.585772752761840820e-01 5.560036659240722656e+00 1.530437827110290527e+00 -3.903211951255798340e-01
2.909000000000000000e+03 6.356700134277343750e+01 3.033644485473632812e+01 -3.678057789802551270e-01 4.919996738433837891e+00 1.365657329559326172e+00 -6.250968575477600098e-01
2.910000000000000000e+03 6.741694641113281250e+01 -1.956539392471313477e+00 2.763329818844795227e-02 5.805202484130859375e+00 1.749850749969482422e+00 -9.293904304504394531e-01
2.911000000000000000e+03 6.691791534423828125e+01 -3.006595611572265625e+00 1.665715500712394714e-02 5.467934131622314453e+00 1.645377397537231445e+00 -1.002169847488403320e+00
2.912000000000000000e+03 6.285783767700195312e+01 2.783959579467773438e+01 -6.436960697174072266e-01 5.000649452209472656e+00 1.307086110115051270e+00 -8.752807378768920898e-01
2.913000000000000000e+03 6.807558441162109375e+01 -3.549044132232666016e+00 -2.876954674720764160e-01 6.034758567810058594e+00 1.724118947982788086e+00 -1.195837736129760742e+00
2.914000000000000000e+03 6.821452331542968750e+01 -1.203832626342773438e+00 5.115552991628646851e-02 6.150742530822753906e+00 1.860569357872009277e+00 -8.877030014991760254e-01
2.915000000000000000e+03 6.315011978149414062e+01 3.234807205200195312e+01 -1.509242355823516846e-01 4.649466514587402344e+00 1.349562644958496094e+00 -5.009475350379943848e-01
2.916000000000000000e+03 6.072411727905273438e+01 3.175165939331054688e+01 -5.015866365283727646e-03 3.823598623275756836e+00 1.145574808120727539e+00 -6.045442819595336914e-01
2.917000000000000000e+03 1.608677101135253906e+01 3.655596160888671875e+01 -2.418094128370285034e-01 1.302076816558837891e+00 3.180802166461944580e-01 1.231982372701168060e-03
2.918000000000000000e+03 6.561624145507812500e+01 3.225599288940429688e+01 -2.789067029953002930e-01 5.477112293243408203e+00 1.559461712837219238e+00 -3.250212967395782471e-01
2.919000000000000000e+03 3.610000228881835938e+01 -3.171988677978515625e+01 -9.012233614921569824e-01 5.300787448883056641e+00 1.319869160652160645e+00 1.045003056526184082e+00
2.920000000000000000e+03 1.881180953979492188e+01 3.767521286010742188e+01 -2.120406478643417358e-01 1.368072748184204102e+00 3.468096554279327393e-01 -4.625932127237319946e-02
2.921000000000000000e+03 6.298398208618164062e+01 -4.090686035156250000e+01 7.346791625022888184e-01 2.269425630569458008e+00 9.012314081192016602e-01 1.196502670645713806e-01
2.922000000000000000e+03 3.602860641479492188e+01 2.840249443054199219e+01 -1.078734993934631348e+00 4.169995307922363281e+00 9.273781180381774902e-01 1.416310369968414307e-01
2.923000000000000000e+03 3.360788345336914062e+01 2.853044891357421875e+01 -1.068567872047424316e+00 3.896414756774902344e+00 8.483540415763854980e-01 -2.642459571361541748e-01
2.924000000000000000e+03 4.338203048706054688e+01 -3.392511749267578125e+01 -1.372918009757995605e+00 6.491881847381591797e+00 1.535689115524291992e+00 -5.869163274765014648e-01
2.925000000000000000e+03 1.286999320983886719e+01 3.786266708374023438e+01 -2.152964025735855103e-01 1.258380055427551270e+00 3.129251003265380859e-01 -2.973365597426891327e-02
2.926000000000000000e+03 4.742070007324218750e+01 2.909849166870117188e+01 -3.010375201702117920e-01 2.636542320251464844e+00 7.006514072418212891e-01 1.197751402854919434e+00
2.927000000000000000e+03 5.645564270019531250e+01 -4.101908111572265625e+01 7.584121823310852051e-01 1.231829404830932617e+00 5.970724821090698242e-01 -1.273407638072967529e-01
2.928000000000000000e+03 2.461541366577148438e+01 3.191924667358398438e+01 -3.470935225486755371e-01 1.568064212799072266e+00 3.662911951541900635e-01 -4.590196907520294189e-01
2.929000000000000000e+03 9.018713951110839844e+00 3.810542297363281250e+01 -1.556684672832489014e-01 1.170742154121398926e+00 3.045220971107482910e-01 -7.613954693078994751e-02
2.930000000000000000e+03 6.080823421478271484e+00 3.803586959838867188e+01 -1.012961417436599731e-01 1.111781835556030273e+00 3.031457066535949707e-01 -9.154477715492248535e-02
2.931000000000000000e+03 6.848538970947265625e+01 -3.452821731567382812e+01 -4.465800821781158447e-01 5.354802131652832031e+00 1.472466588020324707e+00 5.114820003509521484e-01
2.932000000000000000e+03 2.603371620178222656e+01 -3.912985992431640625e+01 -2.067735344171524048e-01 1.122281908988952637e+00 2.746525108814239502e-01 2.084003835916519165e-01
2.933000000000000000e+03 2.504327964782714844e+01 -3.411479568481445312e+01 -3.826553225517272949e-01 2.611124515533447266e-01 -3.646285459399223328e-02 1.343216150999069214e-01
2.934000000000000000e+03 4.201020812988281250e+01 2.457521247863769531e+01 -7.535829544067382812e-01 4.145842075347900391e+00 1.017677664756774902e+00 1.323864221572875977e+00
2.935000000000000000e+03 4.036322402954101562e+01 2.691961860656738281e+01 -9.221041798591613770e-01 4.210910320281982422e+00 9.866418242454528809e-01 9.384357929229736328e-01
2.936000000000000000e+03 3.541722869873046875e+01 -3.396941375732421875e+01 -1.158158421516418457e+00 4.849057197570800781e+00 1.107269525527954102e+00 1.030120253562927246e+00
2.937000000000000000e+03 2.705983352661132812e+01 2.973920059204101562e+01 -5.646164417266845703e-01 2.087915897369384766e+00 4.569898247718811035e-01 -7.792218923568725586e-01
2.938000000000000000e+03 2.561873435974121094e+01 -3.744916534423828125e+01 -2.137908339500427246e-01 7.811353206634521484e-01 1.702033430337905884e-01 2.654775083065032959e-01
2.939000000000000000e+03 3.405189514160156250e+01 -3.631556701660156250e+01 -1.111120581626892090e+00 3.930209398269653320e+00 8.457266092300415039e-01 7.869864702224731445e-01
2.940000000000000000e+03 3.097593688964843750e+01 3.414596939086914062e+01 -7.396767139434814453e-01 2.800402164459228516e+00 6.182176470756530762e-01 -3.616279959678649902e-01
2.941000000000000000e+03 2.155362129211425781e+01 -3.525952911376953125e+01 -4.207875430583953857e-01 4.776375889778137207e-01 1.705501787364482880e-02 -1.965204030275344849e-01
2.942000000000000000e+03 7.605567169189453125e+01 -3.736142730712890625e+01 -1.522690504789352417e-01 9.231811523437500000e+00 2.723862648010253906e+00 -6.474769860506057739e-02
2.943000000000000000e+03 6.589521789550781250e+01 3.453045272827148438e+01 -1.203812286257743835e-01 5.354938030242919922e+00 1.570367097854614258e+00 -2.281594723463058472e-01
2.944000000000000000e+03 4.487150955200195312e+01 -3.639033126831054688e+01 -1.467926740646362305e+00 5.585775852203369141e+00 1.235354781150817871e+00 -7.784740924835205078e-01
2.945000000000000000e+03 3.818610000610351562e+01 2.574942398071289062e+01 -9.981114864349365234e-01 4.608631134033203125e+00 1.083155989646911621e+00 6.084456443786621094e-01
2.946000000000000000e+03 4.668906021118164062e+01 3.100522232055664062e+01 -2.847453653812408447e-01 2.833919763565063477e+00 7.647522687911987305e-01 1.014907240867614746e+00
2.947000000000000000e+03 5.502227020263671875e+01 3.372369003295898438e+01 3.642074167728424072e-01 2.705535411834716797e+00 9.209228157997131348e-01 6.781072914600372314e-02
2.948000000000000000e+03 5.154629516601562500e+01 -3.866706466674804688e+01 -1.131946742534637451e-01 2.439754486083984375e+00 6.979679465293884277e-01 -8.608368635177612305e-01
2.949000000000000000e+03 4.206795501708984375e+01 2.658783721923828125e+01 -7.770982980728149414e-01 3.901463270187377930e+00 9.373095035552978516e-01 1.231348156929016113e+00
2.950000000000000000e+03 6.638829040527343750e+01 -3.528738021850585938e+01 -2.126876413822174072e-01 4.127707958221435547e+00 1.174506068229675293e+00 6.867205500602722168e-01
2.951000000000000000e+03 6.367158508300781250e+01 -3.790084838867187500e+01 4.527134895324707031e-01 2.565939188003540039e+00 9.055957794189453125e-01 3.887310326099395752e-01
2.952000000000000000e+03 5.479370498657226562e+01 -3.837178802490234375e+01 4.604763388633728027e-01 1.283013701438903809e+00 5.230470299720764160e-01 -5.702986717224121094e-01
2.953000000000000000e+03 1.755735588073730469e+01 -4.099903106689453125e+01 -2.432023882865905762e-01 8.209630846977233887e-01 1.733282208442687988e-01 -4.111615195870399475e-02
2.954000000000000000e+03 2.238524055480957031e+01 -4.130376052856445312e+01 -9.324733912944793701e-02 6.856478452682495117e-01 1.777201592922210693e-01 -3.641027957201004028e-02
2.955000000000000000e+03 3.805532073974609375e+01 -3.469866943359375000e+01 -1.375400185585021973e+00 5.607627868652343750e+00 1.269668340682983398e+00 6.413145661354064941e-01
2.956000000000000000e+03 3.747274780273437500e+01 -3.762732315063476562e+01 -1.517025709152221680e+00 5.071270942687988281e+00 1.066273570060729980e+00 5.130918622016906738e-01
2.957000000000000000e+03 4.174020004272460938e+01 -3.763397598266601562e+01 -1.691904306411743164e+00 5.669926166534423828e+00 1.193406462669372559e+00 -1.700245738029479980e-01
2.958000000000000000e+03 6.745733642578125000e+01 -4.096454238891601562e+01 3.250174224376678467e-01 4.576343059539794922e+00 1.470408082008361816e+00 1.187534108757972717e-01
2.959000000000000000e+03 7.196214294433593750e+01 -4.101479339599609375e+01 5.455119162797927856e-02 6.963434696197509766e+00 2.105395793914794922e+00 6.196380034089088440e-02
2.960000000000000000e+03 6.284270095825195312e+01 3.483397674560546875e+01 1.834730617702007294e-02 4.528120040893554688e+00 1.363940119743347168e+00 -3.791836202144622803e-01
2.961000000000000000e+03 6.286892700195312500e+01 3.774592590332031250e+01 1.539308130741119385e-01 4.546841144561767578e+00 1.410231590270996094e+00 -2.153736948966979980e-01
2.962000000000000000e+03 5.408080673217773438e+01 3.675040054321289062e+01 3.422244489192962646e-01 2.855333089828491211e+00 9.592672586441040039e-01 1.235351562500000000e-01
2.963000000000000000e+03 3.831927871704101562e+01 3.373484420776367188e+01 -8.026546835899353027e-01 3.461601257324218750e+00 7.976839542388916016e-01 3.317509591579437256e-01
2.964000000000000000e+03 4.289056396484375000e+01 3.685956192016601562e+01 -4.343109726905822754e-01 3.102867603302001953e+00 8.005670309066772461e-01 4.033843874931335449e-01
2.965000000000000000e+03 3.205302429199218750e+01 3.712546539306640625e+01 -7.148680686950683594e-01 2.847772359848022461e+00 6.398712992668151855e-01 -1.557759195566177368e-01
2.966000000000000000e+03 1.867229843139648438e+01 3.507883834838867188e+01 -2.483589202165603638e-01 1.337745308876037598e+00 3.268159031867980957e-01 -3.640236333012580872e-02
2.967000000000000000e+03 2.310415077209472656e+01 3.772818756103515625e+01 -2.981200814247131348e-01 1.680076360702514648e+00 4.145868718624114990e-01 -1.503529548645019531e-01
2.968000000000000000e+03 5.341872406005859375e+01 2.952486228942871094e+01 2.306109070777893066e-01 1.926260352134704590e+00 6.470614075660705566e-01 3.927118480205535889e-01
2.969000000000000000e+03 5.151922607421875000e+01 3.108209991455078125e+01 1.684500277042388916e-01 2.241589069366455078e+00 7.230116724967956543e-01 6.384007930755615234e-01
2.970000000000000000e+03 4.007426834106445312e+01 2.518463134765625000e+01 -8.936087489128112793e-01 4.514060497283935547e+00 1.086135506629943848e+00 9.994671940803527832e-01
2.971000000000000000e+03 3.845840835571289062e+01 2.774842071533203125e+01 -1.020117998123168945e+00 4.266568183898925781e+00 9.739350080490112305e-01 6.255643367767333984e-01
2.972000000000000000e+03 6.640747833251953125e+01 3.700633621215820312e+01 -1.434076484292745590e-02 5.429407119750976562e+00 1.624519944190979004e+00 -1.257610917091369629e-01
2.973000000000000000e+03 5.499525451660156250e+01 2.791835021972656250e+01 1.544171273708343506e-01 1.623878359794616699e+00 5.334886312484741211e-01 1.191279813647270203e-01
2.974000000000000000e+03 2.742925262451171875e+01 3.199599075317382812e+01 -5.491017103195190430e-01 2.190477609634399414e+00 4.924127459526062012e-01 -5.934055447578430176e-01
2.975000000000000000e+03 4.459246444702148438e+01 3.052290534973144531e+01 -5.032653808593750000e-01 3.169035434722900391e+00 7.997310161590576172e-01 1.045947909355163574e+00
2.976000000000000000e+03 2.746932029724121094e+01 3.475528717041015625e+01 -5.167542099952697754e-01 2.223260402679443359e+00 5.119518637657165527e-01 -3.736866712570190430e-01
2.977000000000000000e+03 5.735772705078125000e+01 3.289729309082031250e+01 2.792139947414398193e-01 2.992279767990112305e+00 9.814481735229492188e-01 -1.594508439302444458e-01
2.978000000000000000e+03 4.943816757202148438e+01 3.262694549560546875e+01 3.039714507758617401e-02 2.524879217147827148e+00 7.665829062461853027e-01 7.448312640190124512e-01
2.979000000000000000e+03 5.092538070678710938e+01 3.509787368774414062e+01 1.973551660776138306e-01 2.608020544052124023e+00 8.416126966476440430e-01 4.307332634925842285e-01
2.980000000000000000e+03 3.931820297241210938e+01 2.984513092041015625e+01 -9.460639953613281250e-01 3.923139333724975586e+00 8.931226134300231934e-01 6.339840292930603027e-01
2.981000000000000000e+03 3.852177429199218750e+01 3.676565551757812500e+01 -6.929892301559448242e-01 3.217395544052124023e+00 7.573218941688537598e-01 2.201616317033767700e-01
2.982000000000000000e+03 3.401435470581054688e+01 3.268354415893554688e+01 -9.129433631896972656e-01 3.373935222625732422e+00 7.382975816726684570e-01 -1.237863525748252869e-01
2.983000000000000000e+03 5.289699554443359375e+01 3.285285186767578125e+01 3.138429820537567139e-01 2.423740863800048828e+00 8.212751746177673340e-01 3.937598466873168945e-01
2.984000000000000000e+03 4.113620376586914062e+01 2.835679244995117188e+01 -8.435596227645874023e-01 3.821556329727172852e+00 8.933990001678466797e-01 9.562463760375976562e-01
2.985000000000000000e+03 4.353905105590820312e+01 3.339677047729492188e+01 -4.895990490913391113e-01 3.190641164779663086e+00 8.103126287460327148e-01 7.081931829452514648e-01
2.986000000000000000e+03 4.855299377441406250e+01 3.054669380187988281e+01 -1.047174483537673950e-01 2.480664253234863281e+00 7.127840518951416016e-01 9.779662489891052246e-01
2.987000000000000000e+03 2.007762527465820312e+01 -1.596409678459167480e+00 1.515014052391052246e+00 1.834238052368164062e+00 1.004775643348693848e+00 2.292068004608154297e+00
2.988000000000000000e+03 1.995533180236816406e+01 -1.183798313140869141e+00 1.582115888595581055e+00 1.334225773811340332e+00 8.749024868011474609e-01 1.989445924758911133e+00
2.989000000000000000e+03 2.059528160095214844e+01 -1.285739064216613770e+00 1.716847181320190430e+00 2.443692445755004883e+00 1.248161911964416504e+00 2.492138862609863281e+00
2.990000000000000000e+03 2.093568611145019531e+01 -1.148516178131103516e+00 1.736655712127685547e+00 3.364390134811401367e+00 1.530313730239868164e+00 2.650684118270874023e+00
2.991000000000000000e+03 2.175297355651855469e+01 -1.117464900016784668e+00 1.470795154571533203e+00 6.210982799530029297e+00 2.304533481597900391e+00 1.920175194740295410e+00
2.992000000000000000e+03 2.157461547851562500e+01 -8.274387121200561523e-01 1.741949677467346191e+00 6.018058776855468750e+00 2.328002452850341797e+00 2.749187231063842773e+00
2.993000000000000000e+03 2.175927162170410156e+01 -7.684143185615539551e-01 1.551599502563476562e+00 7.072507858276367188e+00 2.587232112884521484e+00 2.215275049209594727e+00
2.994000000000000000e+03 1.905399894714355469e+01 2.121203899383544922e+00 -1.524034291505813599e-01 7.394027709960937500e-01 1.760998070240020752e-01 -2.476661920547485352e+00
2.995000000000000000e+03 1.983874130249023438e+01 2.504070281982421875e+00 9.500418901443481445e-01 1.888085126876831055e+00 8.514381051063537598e-01 -4.004997253417968750e+00
2.996000000000000000e+03 2.074221420288085938e+01 2.431447982788085938e+00 1.614451408386230469e+00 4.342881202697753906e+00 1.787199854850769043e+00 -5.884687900543212891e+00
2.997000000000000000e+03 2.134817886352539062e+01 2.511685848236083984e+00 8.818230628967285156e-01 6.728157997131347656e+00 2.282994270324707031e+00 -6.630814075469970703e+00
2.998000000000000000e+03 2.155298805236816406e+01 2.663294315338134766e+00 -2.612577974796295166e-01 8.524391174316406250e+00 2.478940010070800781e+00 -5.461829662322998047e+00
2.999000000000000000e+03 4.701295852661132812e+01 -1.493924903869628906e+01 1.850511431694030762e+00 4.083505153656005859e+00 1.780205011367797852e+00 2.037938117980957031e+00
3.000000000000000000e+03 1.436719894409179688e+01 -1.371582889556884766e+01 2.124938726425170898e+00 5.344038963317871094e+00 2.240693330764770508e+00 1.767626285552978516e+00
3.001000000000000000e+03 1.400022506713867188e+01 -1.454366683959960938e+01 2.229722261428833008e+00 5.648778915405273438e+00 2.363550424575805664e+00 1.677657246589660645e+00
3.002000000000000000e+03 4.924639892578125000e+01 -6.452437877655029297e+00 -2.990252971649169922e-01 -5.743444338440895081e-02 -1.069379225373268127e-01 2.040373563766479492e+00
3.003000000000000000e+03 3.937327194213867188e+01 -1.902937412261962891e+00 7.622408270835876465e-01 8.984374046325683594e+00 2.923984527587890625e+00 -1.780242681503295898e+00
3.004000000000000000e+03 6.046227264404296875e+01 2.467137527465820312e+01 -8.711325526237487793e-01 3.539130210876464844e+00 8.003993034362792969e-01 -1.534334421157836914e+00
3.005000000000000000e+03 6.700212860107421875e+01 -3.794710159301757812e+01 1.279917359352111816e-01 4.434261322021484375e+00 1.368675947189331055e+00 4.117079675197601318e-01
3.006000000000000000e+03 2.084893417358398438e+01 -1.706957221031188965e+00 1.416424036026000977e+00 3.262165546417236328e+00 1.403576850891113281e+00 2.500337839126586914e+00
3.007000000000000000e+03 2.117690658569335938e+01 -1.208190917968750000e+00 1.771180629730224609e+00 4.204106807708740234e+00 1.792586207389831543e+00 2.708122253417968750e+00
3.008000000000000000e+03 2.031168174743652344e+01 -1.566680908203125000e+00 1.576038599014282227e+00 2.062133073806762695e+00 1.091451525688171387e+00 2.406151056289672852e+00
3.009000000000000000e+03 2.011082458496093750e+01 -1.987715125083923340e+00 1.208761572837829590e+00 2.026462793350219727e+00 9.705672860145568848e-01 2.382975816726684570e+00
3.010000000000000000e+03 2.056785964965820312e+01 -1.570583939552307129e+00 1.598586440086364746e+00 2.617731809616088867e+00 1.264895439147949219e+00 2.505507946014404297e+00
3.011000000000000000e+03 2.063905334472656250e+01 4.568051338195800781e+00 1.456416606903076172e+00 4.725473880767822266e+00 1.854567170143127441e+00 -4.329307556152343750e+00
3.012000000000000000e+03 4.327385330200195312e+01 -2.001314544677734375e+01 1.800490140914916992e+00 1.007466983795166016e+01 3.562548160552978516e+00 -9.119400382041931152e-01
3.013000000000000000e+03 3.701372146606445312e+01 -2.685697555541992188e+01 3.332802951335906982e-01 7.064769744873046875e+00 2.219414949417114258e+00 7.419161200523376465e-01
3.014000000000000000e+03 1.322858905792236328e+01 1.367882251739501953e+01 1.677188515663146973e+00 6.120944499969482422e+00 2.339439868927001953e+00 -1.682260394096374512e+00
3.015000000000000000e+03 1.107722568511962891e+01 1.481319236755371094e+01 1.363382458686828613e+00 3.565924882888793945e+00 1.478792190551757812e+00 -1.162371397018432617e+00
3.016000000000000000e+03 2.120310974121093750e+01 -1.486579656600952148e+00 1.340378880500793457e+00 4.117590904235839844e+00 1.637390971183776855e+00 2.482599020004272461e+00
3.017000000000000000e+03 2.129220962524414062e+01 2.998148918151855469e+00 -4.150796830654144287e-01 6.573101997375488281e+00 1.847406625747680664e+00 -5.248714923858642578e+00
3.018000000000000000e+03 2.053344535827636719e+01 2.702750682830810547e+00 8.618029356002807617e-01 3.625131368637084961e+00 1.346080303192138672e+00 -5.349574565887451172e+00
3.019000000000000000e+03 4.655185699462890625e+01 -7.158627986907958984e+00 -6.044117808341979980e-01 6.423131227493286133e-01 1.137041207402944565e-02 8.052358031272888184e-01
3.020000000000000000e+03 2.051807594299316406e+01 3.494427204132080078e+00 7.747969627380371094e-01 4.715877532958984375e+00 1.647202372550964355e+00 -5.128432750701904297e+00
3.021000000000000000e+03 2.068251609802246094e+01 -2.461945533752441406e+00 9.892061948776245117e-01 2.788633584976196289e+00 1.133351922035217285e+00 2.432039737701416016e+00
3.022000000000000000e+03 1.978801727294921875e+01 -2.669553518295288086e+00 8.976365923881530762e-01 1.932491064071655273e+00 8.490383028984069824e-01 2.362791061401367188e+00
3.023000000000000000e+03 4.251004791259765625e+01 -2.036056327819824219e+01 1.889302611351013184e+00 9.738745689392089844e+00 3.488414525985717773e+00 -9.391531944274902344e-01
3.024000000000000000e+03 6.480828857421875000e+01 2.294265365600585938e+01 -9.355632066726684570e-01 6.972535133361816406e+00 1.811091542243957520e+00 -1.177757233381271362e-01
3.025000000000000000e+03 7.265564727783203125e+01 -1.962316513061523438e+01 1.645113468170166016e+00 1.022369098663330078e+01 3.560641288757324219e+00 -6.805251836776733398e-01
3.026000000000000000e+03 3.900632858276367188e+01 -2.208653831481933594e+01 1.805758237838745117e+00 9.115236282348632812e+00 3.276298522949218750e+00 -7.594507336616516113e-01
3.027000000000000000e+03 1.013266563415527344e+01 1.609749031066894531e+01 1.170879244804382324e+00 2.648654937744140625e+00 1.145860195159912109e+00 -1.096097230911254883e+00
3.028000000000000000e+03 3.652792739868164062e+01 -2.991221618652343750e+01 -5.699901580810546875e-01 5.989905834197998047e+00 1.625974655151367188e+00 1.000628352165222168e+00
3.029000000000000000e+03 1.978191566467285156e+01 3.109605312347412109e+00 9.965599179267883301e-01 2.459294080734252930e+00 1.036756277084350586e+00 -4.284274101257324219e+00
3.030000000000000000e+03 2.280682182312011719e+01 -2.841681480407714844e+00 1.132124304771423340e+00 4.044217586517333984e+00 1.552902579307556152e+00 5.433294773101806641e-01
3.031000000000000000e+03 2.457950019836425781e+01 -2.352798461914062500e+00 3.092262029647827148e+00 1.821305155754089355e+00 1.474070191383361816e+00 -7.181728482246398926e-01
3.032000000000000000e+03 3.497177505493164062e+01 3.477506935596466064e-01 2.785610437393188477e+00 1.091417312622070312e+01 4.109934806823730469e+00 7.088217735290527344e-01
3.033000000000000000e+03 2.786329460144042969e+01 -3.794366455078125000e+01 -3.274196982383728027e-01 1.489462614059448242e+00 3.486128747463226318e-01 3.070113658905029297e-01
3.034000000000000000e+03 3.105976676940917969e+01 -3.793664169311523438e+01 -7.509375810623168945e-01 2.717477560043334961e+00 5.899619460105895996e-01 6.955878138542175293e-01
3.035000000000000000e+03 7.314646911621093750e+01 -1.390997028350830078e+01 3.972835242748260498e-01 9.556349754333496094e+00 2.986089944839477539e+00 9.265672564506530762e-01
3.036000000000000000e+03 1.113037776947021484e+01 -1.814517784118652344e+01 1.310209631919860840e+00 3.544158220291137695e+00 1.456310391426086426e+00 7.866634130477905273e-01
3.037000000000000000e+03 5.872903060913085938e+01 -1.161934947967529297e+01 -1.719126105308532715e+00 7.044022679328918457e-01 -3.044171333312988281e-01 2.587969303131103516e-01
3.038000000000000000e+03 2.204613876342773438e+01 -1.978154540061950684e+00 1.050240635871887207e+00 4.973624229431152344e+00 1.807159423828125000e+00 1.317459940910339355e+00
3.039000000000000000e+03 4.197490692138671875e+01 -1.952513694763183594e+01 2.036184072494506836e+00 9.382322311401367188e+00 3.425551891326904297e+00 -1.173351526260375977e+00
3.040000000000000000e+03 5.605583572387695312e+01 -1.120040225982666016e+01 -8.498027324676513672e-01 7.731040120124816895e-01 -2.300961874425411224e-02 1.027824521064758301e+00
3.041000000000000000e+03 3.864791393280029297e+00 3.527965545654296875e+01 -6.949517875909805298e-02 1.029688715934753418e+00 2.880580425262451172e-01 -1.440180838108062744e-01
3.042000000000000000e+03 3.880973434448242188e+01 -2.372420120239257812e+01 1.621775031089782715e+00 8.678676605224609375e+00 3.090135574340820312e+00 -4.361840486526489258e-01
3.043000000000000000e+03 3.978509902954101562e+01 -2.026652717590332031e+01 1.903167605400085449e+00 9.572388648986816406e+00 3.442667007446289062e+00 -1.234814405441284180e+00
3.044000000000000000e+03 1.362601280212402344e+01 -9.747118949890136719e+00 6.346585154533386230e-01 2.854830503463745117e+00 1.046846628189086914e+00 7.109292745590209961e-01
3.045000000000000000e+03 4.780179595947265625e+01 -3.270919036865234375e+01 -6.954665184020996094e-01 5.091831207275390625e+00 1.318909287452697754e+00 -2.018802881240844727e+00
3.046000000000000000e+03 6.862148284912109375e+01 -2.815540122985839844e+01 -1.112748265266418457e+00 6.830074310302734375e+00 1.715197801589965820e+00 5.450237393379211426e-01
3.047000000000000000e+03 6.446957397460937500e+01 2.886647415161132812e+01 -5.853908061981201172e-01 5.456954956054687500e+00 1.461469292640686035e+00 -5.771227478981018066e-01
3.048000000000000000e+03 4.135276794433593750e+00 3.659486770629882812e+01 -6.759209185838699341e-02 1.063214182853698730e+00 2.986866533756256104e-01 -1.062807664275169373e-01
3.049000000000000000e+03 4.809872150421142578e+00 -5.796544075012207031e+00 -1.123471111059188843e-01 -2.292541563510894775e-01 -1.024803817272186279e-01 -7.393308877944946289e-01
3.050000000000000000e+03 5.615783214569091797e+00 -5.385696411132812500e+00 -1.774109452962875366e-01 -8.804023265838623047e-02 -7.963535189628601074e-02 -7.437056303024291992e-01
3.051000000000000000e+03 8.356273651123046875e+00 -2.281228828430175781e+01 1.625386029481887817e-01 1.722009778022766113e+00 5.653644800186157227e-01 1.134434938430786133e+00
3.052000000000000000e+03 3.588021850585937500e+01 2.548921406269073486e-01 2.282144784927368164e+00 1.091970920562744141e+01 3.960556268692016602e+00 -2.831202372908592224e-02
3.053000000000000000e+03 1.041811752319335938e+01 -1.876774597167968750e+01 1.164836525917053223e+00 2.743925333023071289e+00 1.172628521919250488e+00 9.443488717079162598e-01
3.054000000000000000e+03 4.102655792236328125e+01 -1.610386657714843750e+01 1.682602405548095703e+00 8.564271926879882812e+00 3.074062108993530273e+00 -1.267959713935852051e+00
3.055000000000000000e+03 1.084423065185546875e+01 -1.012984752655029297e+01 6.814311742782592773e-01 1.853468894958496094e+00 7.604700326919555664e-01 -1.402283161878585815e-01
3.056000000000000000e+03 5.193148040771484375e+01 -1.028232860565185547e+01 1.051621958613395691e-01 1.071209549903869629e+00 3.529115021228790283e-01 2.225142240524291992e+00
3.057000000000000000e+03 7.314675140380859375e+01 -2.013295555114746094e+01 1.465787172317504883e+00 9.785205841064453125e+00 3.375297784805297852e+00 -7.731971144676208496e-01
3.058000000000000000e+03 3.722216796875000000e+01 -2.878294944763183594e+01 -1.700703650712966919e-01 6.601891517639160156e+00 1.929546356201171875e+00 7.685465216636657715e-01
3.059000000000000000e+03 2.315689849853515625e+01 -3.683060455322265625e+01 -2.257891297340393066e-01 5.799225568771362305e-01 1.062400341033935547e-01 -2.966311201453208923e-02
3.060000000000000000e+03 6.681820678710937500e+01 2.182192230224609375e+01 -3.803241550922393799e-01 7.305688858032226562e+00 2.077609539031982422e+00 3.736660778522491455e-01
3.061000000000000000e+03 6.025378799438476562e+01 2.845176124572753906e+01 -2.137047052383422852e-01 3.537539243698120117e+00 9.971503615379333496e-01 -9.209869503974914551e-01
3.062000000000000000e+03 6.667883300781250000e+01 8.097083091735839844e+00 9.090490341186523438e-01 7.559358119964599609e+00 2.540522098541259766e+00 9.029785543680191040e-02
3.063000000000000000e+03 4.821741104125976562e+00 -1.018064308166503906e+01 2.532536685466766357e-01 -3.574751913547515869e-01 -3.126645460724830627e-02 -6.241703033447265625e-01
3.064000000000000000e+03 3.702380752563476562e+01 1.366195392608642578e+01 7.069486975669860840e-01 9.219113349914550781e+00 2.977818489074707031e+00 4.994947090744972229e-02
3.065000000000000000e+03 2.345845603942871094e+01 -3.863275527954101562e+00 1.170068979263305664e+00 2.497742414474487305e+00 1.100343465805053711e+00 8.326616883277893066e-01
3.066000000000000000e+03 2.295060729980468750e+01 -3.567744731903076172e+00 1.023927330970764160e+00 3.129010677337646484e+00 1.245881438255310059e+00 9.335247874259948730e-01
3.067000000000000000e+03 4.112604904174804688e+01 -2.025093460083007812e+01 2.023492574691772461e+00 9.339646339416503906e+00 3.408941745758056641e+00 -1.224538087844848633e+00
3.068000000000000000e+03 2.658915901184082031e+01 -3.469727706909179688e+01 -4.395551383495330811e-01 7.986182570457458496e-01 1.077189370989799500e-01 4.779013395309448242e-01
3.069000000000000000e+03 4.967098712921142578e+00 -4.740395545959472656e+00 -2.223541289567947388e-01 -1.406896263360977173e-01 -1.089131236076354980e-01 -6.996056437492370605e-01
3.070000000000000000e+03 5.536526679992675781e+00 -4.716649055480957031e+00 -2.464164197444915771e-01 -8.747424930334091187e-02 -1.001671999692916870e-01 -7.109597325325012207e-01
3.071000000000000000e+03 3.962513732910156250e+01 -2.106634140014648438e+01 1.882047891616821289e+00 9.416720390319824219e+00 3.389630317687988281e+00 -1.105455994606018066e+00
3.072000000000000000e+03 2.595242500305175781e+01 -3.597153854370117188e+01 -2.566216886043548584e-01 7.434585094451904297e-01 1.460510492324829102e-01 2.203866839408874512e-01
3.073000000000000000e+03 7.630229949951171875e+01 -3.398890304565429688e+01 -2.546313703060150146e-01 9.132853507995605469e+00 2.663466691970825195e+00 -2.237396836280822754e-01
3.074000000000000000e+03 5.875425720214843750e+01 2.909367561340332031e+01 1.329360157251358032e-02 2.986070632934570312e+00 8.998093008995056152e-01 -6.619915366172790527e-01
3.075000000000000000e+03 4.763536453247070312e+01 -9.591661453247070312e+00 6.301754713058471680e-01 1.490348696708679199e+00 6.361572146415710449e-01 1.650310039520263672e+00
3.076000000000000000e+03 1.966284179687500000e+01 -2.260733127593994141e+00 1.047991514205932617e+00 1.592048764228820801e+00 7.920120954513549805e-01 2.242311954498291016e+00
3.077000000000000000e+03 5.648647689819335938e+01 -9.507287025451660156e+00 -3.883966207504272461e-01 1.252521514892578125e+00 2.592374682426452637e-01 1.263606548309326172e+00
3.078000000000000000e+03 6.522189331054687500e+01 2.815572977066040039e+00 6.590011715888977051e-01 6.288252830505371094e+00 2.084176301956176758e+00 6.818393617868423462e-02
3.079000000000000000e+03 3.613514328002929688e+01 1.458250141143798828e+01 6.233851313591003418e-01 8.639028549194335938e+00 2.778723955154418945e+00 -4.650758504867553711e-01
3.080000000000000000e+03 5.829958915710449219e+00 -7.817434310913085938e+00 7.809285819530487061e-02 -4.576763138175010681e-02 9.697568602859973907e-03 -7.553940415382385254e-01
3.081000000000000000e+03 1.762433433532714844e+01 2.784543228149414062e+01 -5.773759484291076660e-01 1.070781826972961426e+00 1.480217874050140381e-01 3.294137120246887207e-01
3.082000000000000000e+03 4.117620849609375000e+01 -9.733337402343750000e+00 -4.528202712535858154e-01 6.809041976928710938e+00 1.906866431236267090e+00 -1.212922453880310059e+00
3.083000000000000000e+03 3.675581741333007812e+01 2.024743843078613281e+01 -3.803707957267761230e-01 6.087484359741210938e+00 1.712134122848510742e+00 2.992709577083587646e-01
3.084000000000000000e+03 1.628430938720703125e+01 -6.729392051696777344e+00 7.998927682638168335e-02 2.018620252609252930e+00 6.295828223228454590e-01 1.718795299530029297e+00
3.085000000000000000e+03 9.029516220092773438e+00 1.218551921844482422e+01 1.538139820098876953e+00 1.543463826179504395e+00 9.244810938835144043e-01 -3.843872845172882080e-01
3.086000000000000000e+03 4.815479660034179688e+01 2.401177024841308594e+01 -5.070978403091430664e-01 2.154346227645874023e+00 4.941745400428771973e-01 1.480708003044128418e+00
3.087000000000000000e+03 4.859106826782226562e+01 -9.821029663085937500e+00 5.569329857826232910e-01 1.376224279403686523e+00 5.799471735954284668e-01 2.106330871582031250e+00
3.088000000000000000e+03 7.300282955169677734e+00 1.763100814819335938e+01 5.723263621330261230e-01 1.144088149070739746e+00 5.149243474006652832e-01 -1.014386892318725586e+00
3.089000000000000000e+03 2.033007431030273438e+01 -7.065770149230957031e+00 -5.000165477395057678e-02 1.973062992095947266e+00 5.769184231758117676e-01 2.248471736907958984e+00
3.090000000000000000e+03 1.557729053497314453e+01 -6.504819869995117188e+00 2.925915271043777466e-02 1.845795869827270508e+00 5.625165104866027832e-01 1.428725719451904297e+00
3.091000000000000000e+03 6.755612373352050781e+00 5.257636070251464844e+00 -6.140200793743133545e-02 -8.869471400976181030e-02 -4.502901807427406311e-02 1.158120036125183105e+00
3.092000000000000000e+03 2.095147514343261719e+01 -6.966869831085205078e+00 -1.485534198582172394e-02 1.903936505317687988e+00 5.667243599891662598e-01 2.082869291305541992e+00
3.093000000000000000e+03 2.223113059997558594e+01 -4.250773429870605469e+00 4.331282675266265869e-01 2.780993461608886719e+00 9.642364978790283203e-01 1.701226353645324707e+00
3.094000000000000000e+03 7.413041687011718750e+01 -8.687299728393554688e+00 -8.043623566627502441e-01 8.446083068847656250e+00 2.292516231536865234e+00 1.893058568239212036e-01
3.095000000000000000e+03 1.275405979156494141e+01 -2.785146713256835938e+01 -7.509902119636535645e-01 2.174798011779785156e+00 4.271423220634460449e-01 3.720034062862396240e-01
3.096000000000000000e+03 4.395784378051757812e+00 2.017013549804687500e+01 7.034634053707122803e-02 2.988659776747226715e-03 2.200050093233585358e-02 -9.241455793380737305e-01
3.097000000000000000e+03 5.623615741729736328e+00 1.788389778137207031e+01 3.863262236118316650e-01 2.979877293109893799e-01 2.052941769361495972e-01 -8.904885053634643555e-01
3.098000000000000000e+03 6.908170318603515625e+01 2.385635948181152344e+01 -4.532817602157592773e-01 7.037790298461914062e+00 1.975352525711059570e+00 4.444251656532287598e-01
3.099000000000000000e+03 7.460705566406250000e+01 -2.084513664245605469e+01 8.529081344604492188e-01 8.868768692016601562e+00 2.916502952575683594e+00 -1.047374844551086426e+00
3.100000000000000000e+03 6.785443878173828125e+01 9.206714630126953125e+00 8.582105636596679688e-01 7.513794898986816406e+00 2.511601686477661133e+00 -6.411173939704895020e-02
3.101000000000000000e+03 7.445133209228515625e+01 -6.441256046295166016e+00 -6.456562280654907227e-01 7.986798763275146484e+00 2.202342748641967773e+00 -2.389916479587554932e-01
3.102000000000000000e+03 7.386713409423828125e+01 -2.916535186767578125e+01 -6.412556171417236328e-01 8.708873748779296875e+00 2.420285463333129883e+00 -7.571222782135009766e-01
3.103000000000000000e+03 6.546150207519531250e+01 -9.203640222549438477e-01 4.142290055751800537e-01 5.305826663970947266e+00 1.716016769409179688e+00 -3.895040452480316162e-01
3.104000000000000000e+03 6.853534698486328125e+01 2.910738945007324219e+00 3.885218799114227295e-01 6.638702392578125000e+00 2.108167171478271484e+00 -5.702415704727172852e-01
3.105000000000000000e+03 6.719715881347656250e+01 3.734068155288696289e+00 5.553339123725891113e-01 6.679326057434082031e+00 2.170397996902465820e+00 -3.233148157596588135e-01
3.106000000000000000e+03 7.284173488616943359e+00 -8.786921501159667969e+00 2.882542610168457031e-01 4.124782383441925049e-01 2.102197408676147461e-01 -6.675923466682434082e-01
3.107000000000000000e+03 7.037162780761718750e+01 1.644599914550781250e+00 1.706997603178024292e-01 6.724862575531005859e+00 2.068668842315673828e+00 -7.950820922851562500e-01
3.108000000000000000e+03 7.061812591552734375e+01 -4.471986293792724609e+00 -6.116436719894409180e-01 6.963620185852050781e+00 1.905593037605285645e+00 -1.072032928466796875e+00
3.109000000000000000e+03 7.347315979003906250e+01 -7.460865020751953125e+00 -8.965344429016113281e-01 8.233183860778808594e+00 2.200994729995727539e+00 -2.302484065294265747e-01
3.110000000000000000e+03 7.333917999267578125e+01 -8.338171958923339844e+00 -9.228237271308898926e-01 8.285391807556152344e+00 2.208770275115966797e+00 -1.720175296068191528e-01
3.111000000000000000e+03 7.201978302001953125e+01 4.748286724090576172e+00 2.790333926677703857e-01 6.891316413879394531e+00 2.151104927062988281e+00 -6.517720222473144531e-01
3.112000000000000000e+03 1.037684440612792969e+01 -3.884835243225097656e-01 -2.018842458724975586e+00 2.803137060254812241e-03 -6.048117876052856445e-01 -7.323869317770004272e-02
3.113000000000000000e+03 1.189073276519775391e+01 -1.121461629867553711e+00 -1.716048717498779297e+00 4.276091605424880981e-02 -5.019863247871398926e-01 -7.102288305759429932e-02
3.114000000000000000e+03 1.038032817840576172e+01 -1.128475308418273926e+00 -1.618862748146057129e+00 3.259385004639625549e-02 -4.758806824684143066e-01 -1.724312901496887207e-01
3.115000000000000000e+03 1.264584636688232422e+01 -1.117530822753906250e+00 -1.688495397567749023e+00 4.229040443897247314e-02 -4.938614964485168457e-01 -2.633806550875306129e-03
3.116000000000000000e+03 1.188046455383300781e+01 -3.815026283264160156e-01 -2.188171148300170898e+00 9.034537710249423981e-03 -6.537410020828247070e-01 -4.254869744181632996e-02
3.117000000000000000e+03 1.263218593597412109e+01 -3.775882422924041748e-01 -2.225816965103149414e+00 -3.331923217047005892e-04 -6.678450703620910645e-01 -3.298955038189888000e-02
3.118000000000000000e+03 1.112868118286132812e+01 -3.851337432861328125e-01 -2.119626283645629883e+00 8.340583182871341705e-03 -6.333857178688049316e-01 -6.098303198814392090e-02
3.119000000000000000e+03 1.113555717468261719e+01 -1.125109195709228516e+00 -1.687181115150451660e+00 4.056346789002418518e-02 -4.939852952957153320e-01 -1.204308718442916870e-01
3.120000000000000000e+03 9.622406005859375000e+00 -3.850494623184204102e-01 -1.882140994071960449e+00 5.038470961153507233e-03 -5.631307363510131836e-01 -8.220474421977996826e-02
3.121000000000000000e+03 8.866015434265136719e+00 -3.791061341762542725e-01 -1.711739778518676758e+00 9.601783240213990211e-04 -5.132339000701904297e-01 -8.895616233348846436e-02
3.122000000000000000e+03 8.110340118408203125e+00 -3.782755434513092041e-01 -1.521214365959167480e+00 6.243752781301736832e-03 -4.544911682605743408e-01 -9.771119803190231323e-02
3.123000000000000000e+03 7.354346275329589844e+00 -3.774763345718383789e-01 -1.317376613616943359e+00 -3.023052122443914413e-03 -3.961198925971984863e-01 -1.006925255060195923e-01
3.124000000000000000e+03 6.598577022552490234e+00 -3.773281872272491455e-01 -1.103589534759521484e+00 4.479045514017343521e-03 -3.297331333160400391e-01 -1.040395349264144897e-01
3.125000000000000000e+03 5.843272686004638672e+00 -3.783421814441680908e-01 -8.892684578895568848e-01 -5.414590705186128616e-03 -2.684049010276794434e-01 -1.017757654190063477e-01
3.126000000000000000e+03 5.087837696075439453e+00 -3.782689273357391357e-01 -6.790376901626586914e-01 1.039052149280905724e-03 -2.033995985984802246e-01 -9.915364533662796021e-02
3.127000000000000000e+03 4.332343578338623047e+00 -3.772869408130645752e-01 -4.814608097076416016e-01 -7.707629352807998657e-03 -1.467505395412445068e-01 -9.023810923099517822e-02
3.128000000000000000e+03 3.576737403869628906e+00 -3.757566809654235840e-01 -3.047853708267211914e-01 -4.228737205266952515e-03 -9.270423650741577148e-02 -7.891951501369476318e-02
3.129000000000000000e+03 2.821185827255249023e+00 -3.741005063056945801e-01 -1.610573232173919678e-01 -1.083744131028652191e-02 -5.156842619180679321e-02 -6.074673309922218323e-02
3.130000000000000000e+03 2.067172050476074219e+00 -3.734666705131530762e-01 -6.186348199844360352e-02 -9.918955154716968536e-03 -2.153473161160945892e-02 -3.876931592822074890e-02
3.131000000000000000e+03 1.326888561248779297e+00 -3.787174820899963379e-01 -1.462419331073760986e-02 -1.181668136268854141e-02 -7.932262495160102844e-03 -1.444341335445642471e-02
3.132000000000000000e+03 6.511554718017578125e-01 -4.016090035438537598e-01 6.770174484699964523e-03 2.832243626471608877e-04 2.116019604727625847e-03 -8.778072893619537354e-03
3.133000000000000000e+03 9.947552680969238281e-01 -1.141608953475952148e+00 -4.082764685153961182e-02 -4.416633024811744690e-02 -2.549819275736808777e-02 -3.659810498356819153e-02
3.134000000000000000e+03 9.637866020202636719e+00 -1.125049471855163574e+00 -1.529791593551635742e+00 2.574706822633743286e-02 -4.512133598327636719e-01 -2.121674567461013794e-01
3.135000000000000000e+03 8.908821105957031250e+00 -1.119106173515319824e+00 -1.419412374496459961e+00 2.267652004957199097e-02 -4.190207421779632568e-01 -2.436900287866592407e-01
3.136000000000000000e+03 8.180490493774414062e+00 -1.118275523185729980e+00 -1.284438014030456543e+00 1.366189867258071899e-02 -3.812328279018402100e-01 -2.637091875076293945e-01
3.137000000000000000e+03 6.723416805267333984e+00 -1.117328166961669922e+00 -9.804162383079528809e-01 -7.982245297171175480e-04 -2.943643331527709961e-01 -2.872753441333770752e-01
3.138000000000000000e+03 5.995457649230957031e+00 -1.118342161178588867e+00 -8.209804892539978027e-01 -1.107137533836066723e-03 -2.466262876987457275e-01 -2.886181473731994629e-01
3.139000000000000000e+03 5.267367839813232422e+00 -1.118268966674804688e+00 -6.645911931991577148e-01 -1.493943203240633011e-02 -2.038591802120208740e-01 -2.789884507656097412e-01
3.140000000000000000e+03 4.539218425750732422e+00 -1.117286920547485352e+00 -5.156280994415283203e-01 -1.600205153226852417e-02 -1.594890356063842773e-01 -2.613123059272766113e-01
3.141000000000000000e+03 3.810957431793212891e+00 -1.115756630897521973e+00 -3.770083785057067871e-01 -3.214287012815475464e-02 -1.227453723549842834e-01 -2.326655834913253784e-01
3.142000000000000000e+03 3.082750558853149414e+00 -1.114100456237792969e+00 -2.546436488628387451e-01 -3.836330398917198181e-02 -8.790208399295806885e-02 -1.912908405065536499e-01
3.143000000000000000e+03 2.356081962585449219e+00 -1.113466620445251465e+00 -1.530653685331344604e-01 -5.406710878014564514e-02 -6.213974207639694214e-02 -1.377544701099395752e-01
3.144000000000000000e+03 1.643143415451049805e+00 -1.118717432022094727e+00 -7.445505261421203613e-02 -5.326654762029647827e-02 -3.831648081541061401e-02 -8.290232717990875244e-02
3.145000000000000000e+03 7.451840877532958984e+00 -1.117476344108581543e+00 -1.135424733161926270e+00 1.154622808098793030e-02 -3.371635377407073975e-01 -2.813045680522918701e-01
3.146000000000000000e+03 3.483387529850006104e-01 -9.597249627113342285e-01 -1.221981365233659744e-02 -1.346649695187807083e-02 -7.705893367528915405e-03 -3.024787176400423050e-03
3.147000000000000000e+03 2.184280395507812500e+01 8.991767168045043945e-01 1.579056930541992188e+01 6.861975669860839844e+00 6.795763492584228516e+00 9.372273445129394531e+00
3.148000000000000000e+03 2.185002708435058594e+01 8.810977339744567871e-01 1.224478435516357422e+01 1.649251556396484375e+01 8.621190071105957031e+00 1.416991043090820312e+01
3.149000000000000000e+03 2.186063003540039062e+01 8.647708892822265625e-01 1.087627315521240234e+01 2.483405113220214844e+01 1.071309757232666016e+01 1.465373992919921875e+01
3.150000000000000000e+03 2.187421035766601562e+01 8.508208394050598145e-01 8.931997299194335938e+00 3.240704727172851562e+01 1.240171337127685547e+01 1.352564907073974609e+01
3.151000000000000000e+03 2.189024734497070312e+01 8.397814631462097168e-01 8.283072471618652344e+00 3.934158325195312500e+01 1.428739738464355469e+01 1.060897064208984375e+01
3.152000000000000000e+03 2.190812492370605469e+01 8.320752382278442383e-01 7.626102924346923828e+00 4.442915725708007812e+01 1.561657810211181641e+01 6.529940605163574219e+00
3.153000000000000000e+03 2.192716217041015625e+01 8.279971480369567871e-01 8.736788749694824219e+00 4.774852371215820312e+01 1.694559288024902344e+01 1.685138940811157227e+00
3.154000000000000000e+03 2.194662666320800781e+01 8.277030587196350098e-01 1.079745197296142578e+01 4.873865509033203125e+01 1.786083221435546875e+01 -3.384543657302856445e+00
3.155000000000000000e+03 2.196577835083007812e+01 8.312043547630310059e-01 1.416761207580566406e+01 4.766530990600585938e+01 1.854987716674804688e+01 -7.790288448333740234e+00
3.156000000000000000e+03 2.198388099670410156e+01 8.383669853210449219e-01 1.841659736633300781e+01 4.494351577758789062e+01 1.900803375244140625e+01 -1.099597454071044922e+01
3.157000000000000000e+03 2.200024414062500000e+01 8.489169478416442871e-01 2.305376243591308594e+01 4.111098098754882812e+01 1.924942398071289062e+01 -1.270641708374023438e+01
3.158000000000000000e+03 2.201423835754394531e+01 8.624504208564758301e-01 2.748675537109375000e+01 3.719949722290039062e+01 1.940587615966796875e+01 -1.272591114044189453e+01
3.159000000000000000e+03 2.202533149719238281e+01 8.784495592117309570e-01 3.074071693420410156e+01 3.312120056152343750e+01 1.915857505798339844e+01 -1.152126789093017578e+01
3.160000000000000000e+03 2.203309631347656250e+01 8.963021039962768555e-01 3.389163208007812500e+01 3.146592712402343750e+01 1.960726737976074219e+01 -8.871129989624023438e+00
3.161000000000000000e+03 2.203723907470703125e+01 9.153248667716979980e-01 3.449356460571289062e+01 2.826642417907714844e+01 1.882799720764160156e+01 -5.968283176422119141e+00
3.162000000000000000e+03 2.203759574890136719e+01 9.347899556159973145e-01 3.535370635986328125e+01 2.989838218688964844e+01 1.957562637329101562e+01 -3.023486137390136719e+00
3.163000000000000000e+03 2.203415870666503906e+01 9.539523124694824219e-01 3.351972961425781250e+01 2.955880355834960938e+01 1.892356109619140625e+01 2.602339386940002441e-01
3.164000000000000000e+03 2.202705574035644531e+01 9.720788002014160156e-01 3.216801452636718750e+01 3.273812866210937500e+01 1.947184371948242188e+01 2.178582668304443359e+00
3.165000000000000000e+03 2.201656150817871094e+01 9.884756803512573242e-01 2.886438751220703125e+01 3.525737380981445312e+01 1.923652839660644531e+01 3.702509880065917969e+00
3.166000000000000000e+03 2.200307464599609375e+01 1.002515554428100586e+00 2.603465461730957031e+01 3.921807479858398438e+01 1.957581901550292969e+01 3.622438192367553711e+00
3.167000000000000000e+03 2.198711204528808594e+01 1.013661146163940430e+00 2.250512504577636719e+01 4.302486038208007812e+01 1.965899658203125000e+01 2.232696533203125000e+00
3.168000000000000000e+03 2.196928596496582031e+01 1.021485805511474609e+00 1.924165725708007812e+01 4.533221817016601562e+01 1.937216377258300781e+01 -4.518539085984230042e-02
3.169000000000000000e+03 2.195027542114257812e+01 1.025690317153930664e+00 1.860679626464843750e+01 4.798203277587890625e+01 1.997665023803710938e+01 -4.457449436187744141e+00
3.170000000000000000e+03 2.193081283569335938e+01 1.026113629341125488e+00 1.633509445190429688e+01 4.733522415161132812e+01 1.910109519958496094e+01 -8.805005073547363281e+00
3.171000000000000000e+03 2.191163825988769531e+01 1.022739648818969727e+00 1.807593536376953125e+01 4.575527954101562500e+01 1.914936447143554688e+01 -1.345137882232666016e+01
3.172000000000000000e+03 2.189348793029785156e+01 1.015697360038757324e+00 2.020051956176757812e+01 4.181459045410156250e+01 1.860453414916992188e+01 -1.741923332214355469e+01
3.173000000000000000e+03 2.187705612182617188e+01 1.005256295204162598e+00 2.306134796142578125e+01 3.542541503906250000e+01 1.754602813720703125e+01 -2.047967147827148438e+01
3.174000000000000000e+03 2.186297225952148438e+01 9.918161630630493164e-01 2.712751007080078125e+01 2.929124450683593750e+01 1.692562675476074219e+01 -2.124522781372070312e+01
3.175000000000000000e+03 2.185177421569824219e+01 9.758911132812500000e-01 3.015579795837402344e+01 2.066252899169921875e+01 1.524549770355224609e+01 -2.049593734741210938e+01
3.176000000000000000e+03 2.184388923645019531e+01 9.580906033515930176e-01 3.316986465454101562e+01 1.419746017456054688e+01 1.421019744873046875e+01 -1.734622955322265625e+01
3.177000000000000000e+03 2.183962249755859375e+01 9.390958547592163086e-01 3.371504211425781250e+01 6.540248870849609375e+00 1.207658767700195312e+01 -1.246603298187255859e+01
3.178000000000000000e+03 2.183913421630859375e+01 9.196336269378662109e-01 3.311280059814453125e+01 2.583782434463500977e+00 1.070897483825683594e+01 -3.493829011917114258e+00
