# el_label, x, y, sXX, sYY, sZZ, sXY
1.000000000000000000e+00 1.869266510009765625e+01 3.391058146953582764e-01 -2.229943990707397461e+00 -2.397425174713134766e+00 -1.388210773468017578e+00 -2.269286632537841797e+00
2.000000000000000000e+00 1.849742126464843750e+01 3.004148602485656738e-01 1.311579704284667969e+00 8.352745771408081055e-01 6.440562605857849121e-01 5.370765328407287598e-01
3.000000000000000000e+00 1.830217742919921875e+01 2.617239058017730713e-01 7.815612554550170898e-01 -3.459832668304443359e-01 1.306733936071395874e-01 5.868895351886749268e-02
4.000000000000000000e+00 1.810693168640136719e+01 2.230329513549804688e-01 6.741933822631835938e-01 1.995934993028640747e-01 2.621360421180725098e-01 1.615084856748580933e-01
5.000000000000000000e+00 1.870956802368164062e+01 2.832003235816955566e-01 8.727568626403808594e+00 -1.714617609977722168e+00 2.103885173797607422e+00 1.858540534973144531e+00
6.000000000000000000e+00 1.852559089660644531e+01 2.072390317916870117e-01 3.994091033935546875e+00 2.295143753290176392e-01 1.267081618309020996e+00 1.048462748527526855e+00
7.000000000000000000e+00 1.834161567687988281e+01 1.312777549028396606e-01 3.906924724578857422e+00 8.585828542709350586e-01 1.429652333259582520e+00 1.656719565391540527e+00
8.000000000000000000e+00 1.815763854980468750e+01 5.531647428870201111e-02 3.120016574859619141e+00 2.251464873552322388e-01 1.003548979759216309e+00 1.144468665122985840e+00
9.000000000000000000e+00 1.873703002929687500e+01 2.316550761461257935e-01 1.173015308380126953e+01 2.757605075836181641e+00 4.346327781677246094e+00 6.900376796722412109e+00
1.000000000000000000e+01 1.857136344909667969e+01 1.213302984833717346e-01 7.769206047058105469e+00 1.536761999130249023e+00 2.791790485382080078e+00 4.009612083435058594e+00
1.100000000000000000e+01 1.840569496154785156e+01 1.100552361458539963e-02 5.619036674499511719e+00 1.823226451873779297e+00 2.232678890228271484e+00 3.123854398727416992e+00
1.200000000000000000e+01 1.824002838134765625e+01 -9.931924939155578613e-02 4.897637844085693359e+00 1.809631109237670898e+00 2.012180805206298828e+00 2.997850894927978516e+00
1.300000000000000000e+01 1.877400207519531250e+01 1.864425837993621826e-01 1.234739494323730469e+01 8.382419586181640625e+00 6.218944549560546875e+00 1.045337009429931641e+01
1.400000000000000000e+01 1.863298225402832031e+01 4.597614705562591553e-02 8.418892860412597656e+00 5.238815784454345703e+00 4.097312450408935547e+00 6.758955001831054688e+00
1.500000000000000000e+01 1.849196434020996094e+01 -9.449028223752975464e-02 6.861918449401855469e+00 4.085711479187011719e+00 3.284288883209228516e+00 5.310656070709228516e+00
1.600000000000000000e+01 1.835094451904296875e+01 -2.349567115306854248e-01 5.588791847229003906e+00 3.644954681396484375e+00 2.770123958587646484e+00 4.557919025421142578e+00
1.700000000000000000e+01 1.881907081604003906e+01 1.492930054664611816e-01 1.065730381011962891e+01 1.522932529449462891e+01 7.765988826751708984e+00 1.211412239074707031e+01
1.800000000000000000e+01 1.870809555053710938e+01 -1.593981124460697174e-02 7.977443218231201172e+00 9.745052337646484375e+00 5.316748619079589844e+00 8.544810295104980469e+00
1.900000000000000000e+01 1.859712028503417969e+01 -1.811726242303848267e-01 6.441205978393554688e+00 7.720663547515869141e+00 4.248560905456542969e+00 6.672188282012939453e+00
2.000000000000000000e+01 1.848614501953125000e+01 -3.464054167270660400e-01 5.470361709594726562e+00 6.324782848358154297e+00 3.538543224334716797e+00 5.830913066864013672e+00
2.100000000000000000e+01 1.887050628662109375e+01 1.216279566287994385e-01 8.417418479919433594e+00 2.180075454711914062e+01 9.065452575683593750e+00 1.183728313446044922e+01
2.200000000000000000e+01 1.879382324218750000e+01 -6.204821914434432983e-02 6.600607872009277344e+00 1.479006385803222656e+01 6.417201519012451172e+00 8.662050247192382812e+00
2.300000000000000000e+01 1.871714019775390625e+01 -2.457243949174880981e-01 5.407240390777587891e+00 1.166235351562500000e+01 5.120878219604492188e+00 7.220644474029541016e+00
2.400000000000000000e+01 1.864045524597167969e+01 -4.294005632400512695e-01 4.585611820220947266e+00 9.945533752441406250e+00 4.359343528747558594e+00 6.043456554412841797e+00
2.500000000000000000e+01 1.892634582519531250e+01 1.045061051845550537e-01 6.418240547180175781e+00 2.758910751342773438e+01 1.020220470428466797e+01 9.498612403869628906e+00
2.600000000000000000e+01 1.888688659667968750e+01 -9.058463573455810547e-02 5.247492790222167969e+00 1.935756492614746094e+01 7.381517410278320312e+00 7.535181522369384766e+00
2.700000000000000000e+01 1.884742927551269531e+01 -2.856753766536712646e-01 4.230705738067626953e+00 1.550820922851562500e+01 5.921674251556396484e+00 6.318714618682861328e+00
2.800000000000000000e+01 1.880797195434570312e+01 -4.807661473751068115e-01 3.568627357482910156e+00 1.333574199676513672e+01 5.071310997009277344e+00 5.616566658020019531e+00
2.900000000000000000e+01 1.898444747924804688e+01 9.858266264200210571e-02 5.613531589508056641e+00 3.175485992431640625e+01 1.121051788330078125e+01 5.901088237762451172e+00
3.000000000000000000e+01 1.898372650146484375e+01 -1.004570424556732178e-01 4.370272636413574219e+00 2.295246696472167969e+01 8.196822166442871094e+00 5.141016483306884766e+00
3.100000000000000000e+01 1.898300361633300781e+01 -2.994967401027679443e-01 3.547810316085815430e+00 1.870901298522949219e+01 6.677047252655029297e+00 4.528935432434082031e+00
3.200000000000000000e+01 1.898228263854980469e+01 -4.985364675521850586e-01 2.859586000442504883e+00 1.588194847106933594e+01 5.622460365295410156e+00 3.976760149002075195e+00
3.300000000000000000e+01 1.904259300231933594e+01 1.040842980146408081e-01 6.175121784210205078e+00 3.388714981079101562e+01 1.201868152618408203e+01 1.643776893615722656e+00
3.400000000000000000e+01 1.908063507080078125e+01 -9.128765016794204712e-02 4.589335918426513672e+00 2.529206275939941406e+01 8.964419364929199219e+00 2.193144559860229492e+00
3.500000000000000000e+01 1.911867523193359375e+01 -2.866595983505249023e-01 3.519771814346313477e+00 2.070985221862792969e+01 7.268887519836425781e+00 1.955061078071594238e+00
3.600000000000000000e+01 1.915671730041503906e+01 -4.820315539836883545e-01 2.899160623550415039e+00 1.784254074096679688e+01 6.222510337829589844e+00 1.778662323951721191e+00
3.700000000000000000e+01 1.909855461120605469e+01 1.208004802465438843e-01 8.360693931579589844e+00 3.420618820190429688e+01 1.277006530761718750e+01 -2.252331972122192383e+00
3.800000000000000000e+01 1.917390251159667969e+01 -6.342735141515731812e-02 5.792678833007812500e+00 2.606825256347656250e+01 9.558279037475585938e+00 -9.495626688003540039e-01
3.900000000000000000e+01 1.924925231933593750e+01 -2.476551830768585205e-01 4.515249252319335938e+00 2.162855148315429688e+01 7.843140125274658203e+00 -6.807261109352111816e-01
4.000000000000000000e+01 1.932460212707519531e+01 -4.318830072879791260e-01 3.691097497940063477e+00 1.861351013183593750e+01 6.691382408142089844e+00 -6.317965984344482422e-01
4.100000000000000000e+01 1.915019226074218750e+01 1.480915248394012451e-01 1.154927635192871094e+01 3.288235092163085938e+01 1.332948875427246094e+01 -5.274852752685546875e+00
4.200000000000000000e+01 1.925996398925781250e+01 -1.794228143990039825e-02 8.068950653076171875e+00 2.567551231384277344e+01 1.012333869934082031e+01 -3.579831123352050781e+00
4.300000000000000000e+01 1.936973762512207031e+01 -1.839760839939117432e-01 6.329468727111816406e+00 2.125932693481445312e+01 8.276638984680175781e+00 -3.041121959686279297e+00
4.400000000000000000e+01 1.947951126098632812e+01 -3.500098884105682373e-01 5.309534549713134766e+00 1.837907028198242188e+01 7.106581687927246094e+00 -2.697401285171508789e+00
4.500000000000000000e+01 1.919552803039550781e+01 1.849130690097808838e-01 1.540551567077636719e+01 3.082156372070312500e+01 1.386812400817871094e+01 -6.912045955657958984e+00
4.600000000000000000e+01 1.933552360534667969e+01 4.342696443200111389e-02 1.087102508544921875e+01 2.416216468811035156e+01 1.050995731353759766e+01 -5.394344329833984375e+00
4.700000000000000000e+01 1.947551918029785156e+01 -9.805914014577865601e-02 8.856381416320800781e+00 2.014871788024902344e+01 8.701530456542968750e+00 -4.620532035827636719e+00
4.800000000000000000e+01 1.961551666259765625e+01 -2.395452409982681274e-01 7.455754280090332031e+00 1.721411705017089844e+01 7.400961399078369141e+00 -4.225090980529785156e+00
4.900000000000000000e+01 1.923282623291015625e+01 2.298560589551925659e-01 1.897892189025878906e+01 2.830799102783203125e+01 1.418607425689697266e+01 -7.254186630249023438e+00
5.000000000000000000e+01 1.939768791198730469e+01 1.183319538831710815e-01 1.402225589752197266e+01 2.237157249450683594e+01 1.091814899444580078e+01 -6.013165950775146484e+00
5.100000000000000000e+01 1.956255149841308594e+01 6.807842757552862167e-03 1.144195079803466797e+01 1.836390876770019531e+01 8.941758155822753906e+00 -5.337277412414550781e+00
5.200000000000000000e+01 1.972741317749023438e+01 -1.047162711620330811e-01 9.914643287658691406e+00 1.585863304138183594e+01 7.731982707977294922e+00 -4.819360256195068359e+00
5.300000000000000000e+01 1.926066207885742188e+01 2.812006473541259766e-01 2.210157585144042969e+01 2.638547706604003906e+01 1.454611587524414062e+01 -6.336765289306640625e+00
5.400000000000000000e+01 1.944408226013183594e+01 2.039062678813934326e-01 1.670413589477539062e+01 2.032677268981933594e+01 1.110927200317382812e+01 -5.601345062255859375e+00
5.500000000000000000e+01 1.962750244140625000e+01 1.266118884086608887e-01 1.390486335754394531e+01 1.686773872375488281e+01 9.231780052185058594e+00 -4.976023674011230469e+00
5.600000000000000000e+01 1.981092071533203125e+01 4.931750148534774780e-02 1.201220703125000000e+01 1.416785526275634766e+01 7.854018688201904297e+00 -4.582238674163818359e+00
5.700000000000000000e+01 1.927796936035156250e+01 3.369820117950439453e-01 2.406610679626464844e+01 2.481747436523437500e+01 1.466507434844970703e+01 -4.667850017547607422e+00
5.800000000000000000e+01 1.947292709350585938e+01 2.968752086162567139e-01 1.878723907470703125e+01 1.907833099365234375e+01 1.135967063903808594e+01 -4.220908164978027344e+00
5.900000000000000000e+01 1.966788482666015625e+01 2.567684054374694824e-01 1.558681869506835938e+01 1.547946357727050781e+01 9.319884300231933594e+00 -3.819524049758911133e+00
6.000000000000000000e+01 1.986284446716308594e+01 2.166615873575210571e-01 1.359398746490478516e+01 1.314532089233398438e+01 8.021792411804199219e+00 -3.559152126312255859e+00
6.100000000000000000e+01 1.928408622741699219e+01 3.950655460357666016e-01 2.504538154602050781e+01 2.447533798217773438e+01 1.485621643066406250e+01 -2.531711339950561523e+00
6.200000000000000000e+01 1.948312187194824219e+01 3.936810791492462158e-01 1.964031982421875000e+01 1.829525184631347656e+01 1.138067150115966797e+01 -2.357812166213989258e+00
6.300000000000000000e+01 1.968215751647949219e+01 3.922966420650482178e-01 1.649411010742187500e+01 1.507869625091552734e+01 9.471841812133789062e+00 -2.117001771926879883e+00
6.400000000000000000e+01 1.988119506835937500e+01 3.909121751785278320e-01 1.420866680145263672e+01 1.257501220703125000e+01 8.035103797912597656e+00 -2.050355195999145508e+00
6.500000000000000000e+01 1.927877807617187500e+01 4.532285034656524658e-01 2.470461654663085938e+01 2.468884277343750000e+01 1.481803798675537109e+01 -3.906991183757781982e-01
6.600000000000000000e+01 1.947427558898925781e+01 4.906193614006042480e-01 1.941203308105468750e+01 1.880089378356933594e+01 1.146387767791748047e+01 -3.856667876243591309e-01
6.700000000000000000e+01 1.966977310180664062e+01 5.280102491378784180e-01 1.618702888488769531e+01 1.516744136810302734e+01 9.406340599060058594e+00 -4.144507050514221191e-01
6.800000000000000000e+01 1.986527061462402344e+01 5.654010772705078125e-01 1.413088035583496094e+01 1.303245258331298828e+01 8.149000167846679688e+00 -4.071256220340728760e-01
6.900000000000000000e+01 1.926224899291992188e+01 5.092451572418212891e-01 2.335940742492675781e+01 2.598871231079101562e+01 1.480443572998046875e+01 1.377276420593261719e+00
7.000000000000000000e+01 1.944672584533691406e+01 5.839804410934448242e-01 1.797454643249511719e+01 1.991883659362792969e+01 1.136801528930664062e+01 1.211804986000061035e+00
7.100000000000000000e+01 1.963120269775390625e+01 6.587157249450683594e-01 1.492545413970947266e+01 1.632465553283691406e+01 9.375032424926757812e+00 9.311865568161010742e-01
7.200000000000000000e+01 1.981568145751953125e+01 7.334510087966918945e-01 1.286789894104003906e+01 1.382224845886230469e+01 8.007043838500976562e+00 7.598071098327636719e-01
7.300000000000000000e+01 1.923512840270996094e+01 5.609719157218933105e-01 2.104703903198242188e+01 2.785312271118164062e+01 1.467004871368408203e+01 2.443608283996582031e+00
7.400000000000000000e+01 1.940152740478515625e+01 6.701917648315429688e-01 1.571231746673583984e+01 2.172923660278320312e+01 1.123246574401855469e+01 2.057737112045288086e+00
7.500000000000000000e+01 1.956792640686035156e+01 7.794115543365478516e-01 1.283793544769287109e+01 1.797321701049804688e+01 9.243345260620117188e+00 1.539008498191833496e+00
7.600000000000000000e+01 1.973432350158691406e+01 8.886314034461975098e-01 1.075604629516601562e+01 1.522652721405029297e+01 7.794771671295166016e+00 1.339088559150695801e+00
7.700000000000000000e+01 1.919845771789550781e+01 6.064293980598449707e-01 1.803432273864746094e+01 3.009298324584960938e+01 1.443819141387939453e+01 2.551355123519897461e+00
7.800000000000000000e+01 1.934041023254394531e+01 7.459542155265808105e-01 1.306399822235107422e+01 2.369984626770019531e+01 1.102915287017822266e+01 1.804247736930847168e+00
7.900000000000000000e+01 1.948236083984375000e+01 8.854789733886718750e-01 1.026250457763671875e+01 1.980239295959472656e+01 9.019469261169433594e+00 1.366276264190673828e+00
8.000000000000000000e+01 1.962431144714355469e+01 1.025003790855407715e+00 8.565290451049804688e+00 1.692817115783691406e+01 7.648038387298583984e+00 1.012379169464111328e+00
8.100000000000000000e+01 1.915364074707031250e+01 6.438780426979064941e-01 1.494591903686523438e+01 3.223268890380859375e+01 1.415358257293701172e+01 1.426438212394714355e+00
8.200000000000000000e+01 1.926571273803710938e+01 8.083686232566833496e-01 1.028769397735595703e+01 2.541336631774902344e+01 1.071031761169433594e+01 5.072144269943237305e-01
8.300000000000000000e+01 1.937778472900390625e+01 9.728591442108154297e-01 7.977557659149169922e+00 2.120907402038574219e+01 8.755989074707031250e+00 1.875806301832199097e-01
8.400000000000000000e+01 1.948985671997070312e+01 1.137349724769592285e+00 6.340833663940429688e+00 1.848487854003906250e+01 7.447713851928710938e+00 -3.850502520799636841e-02
8.500000000000000000e+01 1.910238838195800781e+01 6.718848347663879395e-01 1.199901103973388672e+01 3.372532653808593750e+01 1.371730136871337891e+01 -9.172806143760681152e-01
8.600000000000000000e+01 1.918029403686523438e+01 8.550465106964111328e-01 8.199037551879882812e+00 2.632024002075195312e+01 1.035578346252441406e+01 -1.707000613212585449e+00
8.700000000000000000e+01 1.925819778442382812e+01 1.038208246231079102e+00 6.012382984161376953e+00 2.194372749328613281e+01 8.386833190917968750e+00 -1.834797501564025879e+00
8.800000000000000000e+01 1.933610153198242188e+01 1.221369981765747070e+00 4.786808013916015625e+00 1.900901794433593750e+01 7.138747692108154297e+00 -1.823237776756286621e+00
8.900000000000000000e+01 1.904666519165039062e+01 6.893779039382934570e-01 1.013713073730468750e+01 3.409452438354492188e+01 1.326949691772460938e+01 -4.257924556732177734e+00
9.000000000000000000e+01 1.908742141723632812e+01 8.842017054557800293e-01 6.769238471984863281e+00 2.596440124511718750e+01 9.820092201232910156e+00 -4.522489070892333984e+00
9.100000000000000000e+01 1.912817573547363281e+01 1.079025506973266602e+00 5.082897186279296875e+00 2.163943862915039062e+01 8.016700744628906250e+00 -4.274950504302978516e+00
9.200000000000000000e+01 1.916893196105957031e+01 1.273849248886108398e+00 3.637453556060791016e+00 1.864718055725097656e+01 6.685389995574951172e+00 -4.162248134613037109e+00
9.300000000000000000e+01 1.898860168457031250e+01 6.956879496574401855e-01 9.211893081665039062e+00 3.264096069335937500e+01 1.255585575103759766e+01 -8.057283401489257812e+00
9.400000000000000000e+01 1.899065017700195312e+01 8.947184681892395020e-01 6.755545616149902344e+00 2.435447120666503906e+01 9.333004951477050781e+00 -7.430409431457519531e+00
9.500000000000000000e+01 1.899269676208496094e+01 1.093748927116394043e+00 4.771006107330322266e+00 1.995422554016113281e+01 7.417569637298583984e+00 -6.764622211456298828e+00
9.600000000000000000e+01 1.899474334716796875e+01 1.292779445648193359e+00 3.658806800842285156e+00 1.742240333557128906e+01 6.324362754821777344e+00 -6.247140884399414062e+00
9.700000000000000000e+01 1.893042182922363281e+01 6.905735135078430176e-01 1.019064617156982422e+01 2.950267219543457031e+01 1.190799522399902344e+01 -1.163995361328125000e+01
9.800000000000000000e+01 1.889368247985839844e+01 8.861943483352661133e-01 7.342494487762451172e+00 2.117341041564941406e+01 8.554771423339843750e+00 -9.867271423339843750e+00
9.900000000000000000e+01 1.885694313049316406e+01 1.081815242767333984e+00 5.717719554901123047e+00 1.734733581542968750e+01 6.919516563415527344e+00 -8.737633705139160156e+00
1.000000000000000000e+02 1.882020187377929688e+01 1.277436137199401855e+00 4.227102279663085938e+00 1.475232124328613281e+01 5.693827152252197266e+00 -7.913350582122802734e+00
1.010000000000000000e+02 1.887435150146484375e+01 6.742302775382995605e-01 1.193668556213378906e+01 2.443443489074707031e+01 1.091133594512939453e+01 -1.423449993133544922e+01
1.020000000000000000e+02 1.880023002624511719e+01 8.589556217193603516e-01 9.129744529724121094e+00 1.708623313903808594e+01 7.864793300628662109e+00 -1.130580520629882812e+01
1.030000000000000000e+02 1.872610855102539062e+01 1.043681025505065918e+00 6.833740711212158203e+00 1.363210678100585938e+01 6.139754295349121094e+00 -9.774912834167480469e+00
1.040000000000000000e+02 1.865198898315429688e+01 1.228406310081481934e+00 5.589659214019775391e+00 1.170044040679931641e+01 5.187029838562011719e+00 -8.859815597534179688e+00
1.050000000000000000e+02 1.882253456115722656e+01 6.472836136817932129e-01 1.483393001556396484e+01 1.834635925292968750e+01 9.954086303710937500e+00 -1.513091373443603516e+01
1.060000000000000000e+02 1.871386909484863281e+01 8.140445351600646973e-01 1.068165302276611328e+01 1.219347000122070312e+01 6.862536907196044922e+00 -1.140950489044189453e+01
1.070000000000000000e+02 1.860520362854003906e+01 9.808055162429809570e-01 8.481549263000488281e+00 9.694808006286621094e+00 5.452907085418701172e+00 -9.646371841430664062e+00
1.080000000000000000e+02 1.849653816223144531e+01 1.147566437721252441e+00 6.545671939849853516e+00 8.255939483642578125e+00 4.440483570098876953e+00 -8.625649452209472656e+00
1.090000000000000000e+02 1.877695465087890625e+01 6.107647418975830078e-01 1.706688308715820312e+01 1.169174575805664062e+01 8.627589225769042969e+00 -1.405830001831054688e+01
1.100000000000000000e+02 1.863790321350097656e+01 7.531797885894775391e-01 1.223077011108398438e+01 7.463326454162597656e+00 5.908228874206542969e+00 -1.001298904418945312e+01
1.110000000000000000e+02 1.849885177612304688e+01 8.955948352813720703e-01 9.213341712951660156e+00 5.828474044799804688e+00 4.512544631958007812e+00 -8.313917160034179688e+00
1.120000000000000000e+02 1.835980033874511719e+01 1.038009881973266602e+00 7.501904964447021484e+00 5.077466487884521484e+00 3.773811340332031250e+00 -7.359829902648925781e+00
1.130000000000000000e+02 1.873935699462890625e+01 5.660711526870727539e-01 1.853451728820800781e+01 5.631284713745117188e+00 7.249740600585937500e+00 -1.091325950622558594e+01
1.140000000000000000e+02 1.857524108886718750e+01 6.786904931068420410e-01 1.211263751983642578e+01 3.360012054443359375e+00 4.641794681549072266e+00 -7.383235931396484375e+00
1.150000000000000000e+02 1.841112327575683594e+01 7.913097739219665527e-01 9.337178230285644531e+00 2.858507156372070312e+00 3.658705472946166992e+00 -6.067360401153564453e+00
1.160000000000000000e+02 1.824700736999511719e+01 9.039290547370910645e-01 7.241729259490966797e+00 2.473972320556640625e+00 2.914710521697998047e+00 -5.440237998962402344e+00
1.170000000000000000e+02 1.871117973327636719e+01 5.149131417274475098e-01 1.709647369384765625e+01 8.543476462364196777e-01 5.385246753692626953e+00 -6.435648441314697266e+00
1.180000000000000000e+02 1.852827835083007812e+01 5.934271216392517090e-01 1.075632381439208984e+01 6.977534294128417969e-01 3.436223268508911133e+00 -3.958854913711547852e+00
1.190000000000000000e+02 1.834537696838378906e+01 6.719410419464111328e-01 7.497549533843994141e+00 1.039416193962097168e+00 2.561089754104614258e+00 -3.525263786315917969e+00
1.200000000000000000e+02 1.816247558593750000e+01 7.504549622535705566e-01 6.247601509094238281e+00 1.029773712158203125e+00 2.183212518692016602e+00 -3.471497297286987305e+00
1.210000000000000000e+02 1.869350051879882812e+01 4.592483341693878174e-01 1.287490081787109375e+01 -2.037600517272949219e+00 3.251190185546875000e+00 -9.064445495605468750e-01
1.220000000000000000e+02 1.849881362915039062e+01 5.006524324417114258e-01 6.283900260925292969e+00 1.265977621078491211e-01 1.923149466514587402e+00 -1.154613256454467773e+00
1.230000000000000000e+02 1.830412864685058594e+01 5.420565009117126465e-01 5.496602058410644531e+00 4.042265415191650391e-01 1.770248651504516602e+00 -1.839591264724731445e+00
1.240000000000000000e+02 1.810943984985351562e+01 5.834605693817138672e-01 3.877777576446533203e+00 -1.029784157872200012e-01 1.132439732551574707e+00 -1.368087172508239746e+00
1.250000000000000000e+02 1.868699836730957031e+01 4.012069106101989746e-01 1.313920974731445312e+00 -1.682862162590026855e+00 -1.106823608279228210e-01 1.998638868331909180e+00
1.260000000000000000e+02 1.848797607421875000e+01 4.039167165756225586e-01 3.712822675704956055e+00 6.881248950958251953e-01 1.320284247398376465e+00 -6.586927771568298340e-01
1.270000000000000000e+02 1.828895378112792969e+01 4.066264927387237549e-01 1.836029648780822754e+00 -3.723681867122650146e-01 4.390984475612640381e-01 -6.922914087772369385e-02
1.280000000000000000e+02 1.808993148803710938e+01 4.093362987041473389e-01 1.021942734718322754e+00 1.056590452790260315e-01 3.382805585861206055e-01 -3.544951379299163818e-01
1.290000000000000000e+02 2.032774925231933594e+01 6.194182038307189941e-01 1.099909210205078125e+01 9.177643775939941406e+00 6.053020477294921875e+00 -7.598021626472473145e-01
1.300000000000000000e+02 1.995712471008300781e+01 1.386505961418151855e+00 5.628292083740234375e+00 1.294155883789062500e+01 5.570955276489257812e+00 7.060001492500305176e-01
1.310000000000000000e+02 1.915887451171875000e+01 1.783406496047973633e+00 1.630293250083923340e+00 1.415312957763671875e+01 4.735026836395263672e+00 -4.595452785491943359e+00
1.320000000000000000e+02 1.858140563964843750e+01 1.449419617652893066e+00 4.137724399566650391e+00 1.034913825988769531e+01 4.346058845520019531e+00 -8.031830787658691406e+00
1.330000000000000000e+02 1.989327812194824219e+01 -2.433067709207534790e-01 8.389753341674804688e+00 1.371327400207519531e+01 6.630908489227294922e+00 -4.454876422882080078e+00
1.340000000000000000e+02 1.619145202636718750e+01 -1.255279541015625000e+00 1.164168477058410645e+00 7.477333545684814453e-01 5.735705494880676270e-01 1.523298740386962891e+00
1.350000000000000000e+02 1.639892005920410156e+01 -1.233433246612548828e+00 1.254117846488952637e+00 6.893657445907592773e-01 5.830450654029846191e-01 1.563386201858520508e+00
1.360000000000000000e+02 1.726665115356445312e+01 -2.169245034456253052e-01 1.309329748153686523e+00 2.035878151655197144e-01 4.538752734661102295e-01 7.269039154052734375e-01
1.370000000000000000e+02 1.918671035766601562e+01 -6.943761110305786133e-01 2.388265609741210938e+00 1.555832672119140625e+01 5.383977890014648438e+00 1.745408535003662109e+00
1.380000000000000000e+02 1.881480979919433594e+01 -9.944607615470886230e-01 2.195550918579101562e+00 1.066047763824462891e+01 3.856808662414550781e+00 3.905167579650878906e+00
1.390000000000000000e+02 1.805539894104003906e+01 -2.130834609270095825e-01 4.054519653320312500e+00 1.210510253906250000e+00 1.579508900642395020e+00 2.471869707107543945e+00
1.400000000000000000e+02 1.823743629455566406e+01 -1.022851824760437012e+00 3.211195945739746094e+00 5.676106929779052734e+00 2.666190862655639648e+00 4.456931591033935547e+00
1.410000000000000000e+02 1.752319145202636719e+01 -1.771407723426818848e-01 1.813540101051330566e+00 3.588189184665679932e-01 6.517077088356018066e-01 9.303740859031677246e-01
1.420000000000000000e+02 1.688546752929687500e+01 8.246754854917526245e-02 -3.507128953933715820e-01 7.016430050134658813e-02 -8.416458219289779663e-02 3.520293161273002625e-02
1.430000000000000000e+02 1.920686721801757812e+01 1.475438475608825684e+00 2.707763671875000000e+00 1.659999656677246094e+01 5.792327880859375000e+00 -3.976652860641479492e+00
1.440000000000000000e+02 1.962060928344726562e+01 1.309484362602233887e+00 5.305550575256347656e+00 1.600438880920410156e+01 6.392981529235839844e+00 -1.429398506879806519e-01
1.450000000000000000e+02 2.030409622192382812e+01 8.278818726539611816e-01 1.014156246185302734e+01 9.706562042236328125e+00 5.954437255859375000e+00 -5.701504275202751160e-02
1.460000000000000000e+02 2.008393096923828125e+01 3.737040162086486816e-01 1.271897888183593750e+01 1.072597789764404297e+01 7.033486843109130859e+00 -2.037932395935058594e+00
1.470000000000000000e+02 1.999697875976562500e+01 -5.750029534101486206e-02 1.049066448211669922e+01 1.238427352905273438e+01 6.862481594085693359e+00 -4.271951675415039062e+00
1.480000000000000000e+02 1.956876182556152344e+01 -5.315885543823242188e-01 4.334215164184570312e+00 1.622059440612792969e+01 6.166443347930908203e+00 -2.255816698074340820e+00
1.490000000000000000e+02 1.938223838806152344e+01 -6.382286548614501953e-01 3.073148727416992188e+00 1.631140327453613281e+01 5.815365314483642578e+00 -3.429337739944458008e-01
1.500000000000000000e+02 1.600926208496093750e+01 1.523401737213134766e+00 5.628437548875808716e-02 7.795005440711975098e-01 2.507354617118835449e-01 -2.003091335296630859e+00
1.510000000000000000e+02 1.607005119323730469e+01 8.923540115356445312e-01 -1.245350003242492676e+00 2.364389002323150635e-01 -3.026733398437500000e-01 -9.874641299247741699e-01
1.520000000000000000e+02 1.609086608886718750e+01 2.580479085445404053e-01 -2.983490705490112305e+00 1.172258332371711731e-02 -8.915303945541381836e-01 -2.463959157466888428e-01
1.530000000000000000e+02 1.629013252258300781e+01 2.721019387245178223e-01 -2.903432846069335938e+00 -1.380061730742454529e-02 -8.751699924468994141e-01 -2.809569239616394043e-01
1.540000000000000000e+02 1.646526527404785156e+01 4.751936197280883789e-01 -2.114960432052612305e+00 1.313147693872451782e-02 -6.305487155914306641e-01 -4.940668344497680664e-01
1.550000000000000000e+02 1.788362884521484375e+01 4.160718917846679688e-01 2.423502057790756226e-01 -1.125140264630317688e-01 3.895085304975509644e-02 -3.188998103141784668e-01
1.560000000000000000e+02 1.999129676818847656e+01 8.030734658241271973e-01 1.131635093688964844e+01 1.211678600311279297e+01 7.029941082000732422e+00 6.821138262748718262e-01
1.570000000000000000e+02 2.004150199890136719e+01 1.145014762878417969e+00 7.978200435638427734e+00 1.205433750152587891e+01 6.009761333465576172e+00 8.697000741958618164e-01
1.580000000000000000e+02 1.942099189758300781e+01 1.407900571823120117e+00 3.552011013031005859e+00 1.677375793457031250e+01 6.097730636596679688e+00 -1.864546418190002441e+00
1.590000000000000000e+02 1.878671836853027344e+01 1.493744969367980957e+00 3.291022062301635742e+00 1.317391014099121094e+01 4.939479827880859375e+00 -7.359449863433837891e+00
1.600000000000000000e+02 1.790998077392578125e+01 1.836026906967163086e-01 4.974088966846466064e-01 -8.672032505273818970e-02 1.232065781950950623e-01 1.387700438499450684e-01
1.610000000000000000e+02 1.784003067016601562e+01 -3.206830918788909912e-01 3.425304174423217773e+00 1.158003211021423340e+00 1.374992132186889648e+00 2.162842512130737305e+00
1.620000000000000000e+02 1.848395919799804688e+01 -6.351605653762817383e-01 3.975261926651000977e+00 7.927766323089599609e+00 3.570908546447753906e+00 5.571702003479003906e+00
1.630000000000000000e+02 1.843921852111816406e+01 -1.026973128318786621e+00 2.978882551193237305e+00 7.183403015136718750e+00 3.048685789108276367e+00 4.859076976776123047e+00
1.640000000000000000e+02 1.669931221008300781e+01 -3.228418529033660889e-01 4.879589676856994629e-01 1.325556039810180664e-01 1.861543804407119751e-01 4.905202090740203857e-01
1.650000000000000000e+02 1.609749221801757812e+01 1.591767743229866028e-02 -1.063383698463439941e+00 -9.298840910196304321e-02 -3.469116091728210449e-01 4.349491745233535767e-02
1.660000000000000000e+02 1.613437652587890625e+01 -1.647080183029174805e-01 -5.873641967773437500e-01 -8.975476026535034180e-02 -2.031356841325759888e-01 2.006907761096954346e-01
1.670000000000000000e+02 1.838344573974609375e+01 1.352694392204284668e+00 5.246618270874023438e+00 7.550968170166015625e+00 3.839275836944580078e+00 -7.912128925323486328e+00
1.680000000000000000e+02 1.876128768920898438e+01 1.747106313705444336e+00 2.183350086212158203e+00 1.181618404388427734e+01 4.199860095977783203e+00 -6.723469734191894531e+00
1.690000000000000000e+02 1.926902961730957031e+01 1.641337156295776367e+00 2.006489515304565430e+00 1.530680847167968750e+01 5.193989276885986328e+00 -3.696109533309936523e+00
1.700000000000000000e+02 1.976547813415527344e+01 1.151687145233154297e+00 7.257697105407714844e+00 1.499931144714355469e+01 6.677102565765380859e+00 8.787921071052551270e-01
1.710000000000000000e+02 1.745780372619628906e+01 1.358450889587402344e+00 3.157977104187011719e+00 1.521661877632141113e+00 1.403891682624816895e+00 -3.976537227630615234e+00
1.720000000000000000e+02 1.817581558227539062e+01 1.729259490966796875e+00 3.501110792160034180e+00 6.107423305511474609e+00 2.882560253143310547e+00 -6.773314476013183594e+00
1.730000000000000000e+02 2.005417251586914062e+01 1.516193896532058716e-01 1.191779041290283203e+01 1.123072910308837891e+01 6.944555759429931641e+00 -3.514525175094604492e+00
1.740000000000000000e+02 1.879941177368164062e+01 -7.214735746383666992e-01 2.899984359741210938e+00 1.173297119140625000e+01 4.389886379241943359e+00 4.859387397766113281e+00
1.750000000000000000e+02 1.723208999633789062e+01 -9.220167994499206543e-01 2.299297571182250977e+00 1.277322053909301758e+00 1.072985887527465820e+00 2.226450443267822266e+00
1.760000000000000000e+02 1.982022285461425781e+01 -5.636316537857055664e-01 5.420985698699951172e+00 1.411967468261718750e+01 5.862198352813720703e+00 -3.365386486053466797e+00
1.770000000000000000e+02 1.770761299133300781e+01 1.437949836254119873e-01 3.147450685501098633e-01 6.454698741436004639e-02 1.137876138091087341e-01 1.568516641855239868e-01
1.780000000000000000e+02 1.974572563171386719e+01 -3.970387876033782959e-01 6.501703262329101562e+00 1.516654109954833984e+01 6.500473499298095703e+00 -3.843977928161621094e+00
1.790000000000000000e+02 1.920822525024414062e+01 -9.451987743377685547e-01 1.938343286514282227e+00 1.363524055480957031e+01 4.672075271606445312e+00 1.713357329368591309e+00
1.800000000000000000e+02 1.940597724914550781e+01 -8.953655958175659180e-01 2.339684486389160156e+00 1.419494247436523438e+01 4.960388183593750000e+00 2.121161371469497681e-01
1.810000000000000000e+02 1.949179458618164062e+01 1.726014733314514160e+00 1.989395022392272949e+00 1.399838638305664062e+01 4.796334266662597656e+00 -2.482980012893676758e+00
1.820000000000000000e+02 1.991005325317382812e+01 1.202483057975769043e+00 7.110573768615722656e+00 1.347353935241699219e+01 6.175233840942382812e+00 7.074862122535705566e-01
1.830000000000000000e+02 1.963252639770507812e+01 1.635652661323547363e+00 3.078218221664428711e+00 1.426040267944335938e+01 5.201586246490478516e+00 -1.051209688186645508e+00
1.840000000000000000e+02 1.988064002990722656e+01 -7.050687074661254883e-01 4.555449485778808594e+00 1.305631542205810547e+01 5.283529281616210938e+00 -2.741334438323974609e+00
1.850000000000000000e+02 2.008631324768066406e+01 -4.047660529613494873e-01 7.372713565826416016e+00 1.202744865417480469e+01 5.820048809051513672e+00 -3.999225378036499023e+00
1.860000000000000000e+02 1.973795509338378906e+01 -8.038362264633178711e-01 3.758308887481689453e+00 1.339969635009765625e+01 5.147401332855224609e+00 -2.094842433929443359e+00
1.870000000000000000e+02 2.021994209289550781e+01 1.143327355384826660e+00 7.958219528198242188e+00 1.074443531036376953e+01 5.610796451568603516e+00 6.822283267974853516e-01
1.880000000000000000e+02 2.036683464050292969e+01 7.983734458684921265e-02 1.023159694671630859e+01 8.719873428344726562e+00 5.685441017150878906e+00 -3.110037088394165039e+00
1.890000000000000000e+02 1.998803520202636719e+01 -5.744250416755676270e-01 5.987035274505615234e+00 1.272186088562011719e+01 5.612668991088867188e+00 -3.738813877105712891e+00
1.900000000000000000e+02 2.039794540405273438e+01 2.510218322277069092e-01 1.058782005310058594e+01 8.407114982604980469e+00 5.698480606079101562e+00 -2.681833028793334961e+00
1.910000000000000000e+02 2.025450706481933594e+01 3.097336888313293457e-01 1.157365894317626953e+01 9.508854866027832031e+00 6.324754238128662109e+00 -2.370861291885375977e+00
1.920000000000000000e+02 2.038102340698242188e+01 4.206337332725524902e-01 1.111787891387939453e+01 8.622228622436523438e+00 5.922032356262207031e+00 -1.793799877166748047e+00
1.930000000000000000e+02 2.007724189758300781e+01 5.962780117988586426e-01 1.230510234832763672e+01 1.091894149780273438e+01 6.967213153839111328e+00 -6.698347926139831543e-01
1.940000000000000000e+02 2.010628128051757812e+01 1.273748874664306641e+00 6.581338405609130859e+00 1.146718883514404297e+01 5.414557933807373047e+00 7.301219701766967773e-01
1.950000000000000000e+02 2.028642845153808594e+01 9.998200535774230957e-01 9.063400268554687500e+00 1.027048778533935547e+01 5.800166606903076172e+00 5.821098685264587402e-01
1.960000000000000000e+02 1.958535385131835938e+01 -8.583071827888488770e-01 2.866028547286987305e+00 1.421038722991943359e+01 5.122924804687500000e+00 -1.021686553955078125e+00
1.970000000000000000e+02 1.978069877624511719e+01 1.503449320793151855e+00 4.197169303894042969e+00 1.394484901428222656e+01 5.442605495452880859e+00 -1.961823999881744385e-01
1.980000000000000000e+02 1.897036170959472656e+01 1.761026859283447266e+00 1.689825296401977539e+00 1.334905242919921875e+01 4.511663436889648438e+00 -5.614975452423095703e+00
1.990000000000000000e+02 1.855119323730468750e+01 1.721054673194885254e+00 2.973150968551635742e+00 9.898714065551757812e+00 3.861559391021728516e+00 -7.253590583801269531e+00
2.000000000000000000e+02 1.835324668884277344e+01 1.727680325508117676e+00 3.349696874618530273e+00 8.073377609252929688e+00 3.426922559738159180e+00 -7.304538249969482422e+00
2.010000000000000000e+02 1.740203475952148438e+01 1.624932765960693359e+00 2.738337755203247070e+00 2.226197481155395508e+00 1.489360570907592773e+00 -4.507430076599121094e+00
2.020000000000000000e+02 1.620938682556152344e+01 1.536715507507324219e+00 4.053989648818969727e-01 6.180392503738403320e-01 3.070314526557922363e-01 -2.049091577529907227e+00
2.030000000000000000e+02 1.717558479309082031e+01 5.492628812789916992e-01 -5.463705062866210938e-01 3.307189093902707100e-03 -1.629189997911453247e-01 -8.060649633407592773e-01
2.040000000000000000e+02 1.725878143310546875e+01 1.337309718132019043e+00 2.228001356124877930e+00 1.035907626152038574e+00 9.791727066040039062e-01 -3.184325695037841797e+00
2.050000000000000000e+02 1.662335968017578125e+01 5.160715579986572266e-01 -1.754318356513977051e+00 3.631191328167915344e-02 -5.154018998146057129e-01 -5.698159933090209961e-01
2.060000000000000000e+02 1.785406875610351562e+01 1.417162179946899414e+00 4.448178768157958984e+00 3.083975553512573242e+00 2.259646177291870117e+00 -5.620846748352050781e+00
2.070000000000000000e+02 1.688199234008789062e+01 3.581615686416625977e-01 -2.037885904312133789e+00 -1.575228199362754822e-02 -6.160914897918701172e-01 -4.080508649349212646e-01
2.080000000000000000e+02 1.727224922180175781e+01 3.606277704238891602e-01 -1.280279159545898438e+00 9.840751439332962036e-02 -3.545614778995513916e-01 -3.349837958812713623e-01
2.090000000000000000e+02 1.622599983215332031e+01 1.323079943656921387e+00 -1.585863344371318817e-02 5.952642560005187988e-01 1.738216876983642578e-01 -1.887863874435424805e+00
2.100000000000000000e+02 1.708593940734863281e+01 3.608859479427337646e-01 -1.746860265731811523e+00 -1.605150848627090454e-01 -5.722125768661499023e-01 -3.273761570453643799e-01
2.110000000000000000e+02 1.738741874694824219e+01 6.656298041343688965e-01 8.728381395339965820e-01 1.337135136127471924e-01 3.019655048847198486e-01 -1.222107887268066406e+00
2.120000000000000000e+02 1.765649986267089844e+01 1.385050296783447266e+00 3.714139938354492188e+00 2.102192878723144531e+00 1.744899868965148926e+00 -4.558945655822753906e+00
2.130000000000000000e+02 1.767025756835937500e+01 4.189813733100891113e-01 -3.079160153865814209e-01 -9.731710888445377350e-03 -9.529431909322738647e-02 -3.833779990673065186e-01
2.140000000000000000e+02 1.763764572143554688e+01 6.951909065246582031e-01 1.970524311065673828e+00 5.844357982277870178e-02 6.086903810501098633e-01 -1.470767974853515625e+00
2.150000000000000000e+02 1.707699394226074219e+01 7.412502914667129517e-02 -1.869207769632339478e-01 3.472670540213584900e-02 -4.565822333097457886e-02 1.016879305243492126e-01
2.160000000000000000e+02 1.796605300903320312e+01 -2.189031429588794708e-02 2.658505678176879883e+00 4.616714119911193848e-01 9.360530972480773926e-01 1.191654443740844727e+00
2.170000000000000000e+02 1.701074409484863281e+01 -1.176866412162780762e+00 2.066951274871826172e+00 1.332581400871276855e+00 1.019859790802001953e+00 2.295693635940551758e+00
2.180000000000000000e+02 1.760500907897949219e+01 -1.123252153396606445e+00 2.815078496932983398e+00 2.492706537246704102e+00 1.592335581779479980e+00 3.206828832626342773e+00
2.190000000000000000e+02 1.775675201416015625e+01 -9.908887743949890137e-02 2.246956110000610352e+00 2.873848080635070801e-01 7.603022456169128418e-01 1.039306998252868652e+00
2.200000000000000000e+02 1.702083206176757812e+01 -1.852239072322845459e-01 6.567531824111938477e-01 1.799295693635940552e-01 2.510048449039459229e-01 4.939894378185272217e-01
2.210000000000000000e+02 1.627358627319335938e+01 8.233336731791496277e-03 -7.859251499176025391e-01 6.301353126764297485e-02 -2.168734967708587646e-01 1.861643046140670776e-02
2.220000000000000000e+02 1.862263488769531250e+01 -1.025707602500915527e+00 2.477274894714355469e+00 9.462955474853515625e+00 3.582068920135498047e+00 4.325557231903076172e+00
2.230000000000000000e+02 1.617879676818847656e+01 -8.259118199348449707e-01 6.703413724899291992e-01 2.908599376678466797e-01 2.883603870868682861e-01 8.835817575454711914e-01
2.240000000000000000e+02 1.778257369995117188e+01 -8.493030071258544922e-01 3.336814641952514648e+00 2.551824092864990234e+00 1.766591668128967285e+00 3.292668819427490234e+00
2.250000000000000000e+02 1.833380699157714844e+01 -5.279723405838012695e-01 4.517012119293212891e+00 5.342963695526123047e+00 2.957992553710937500e+00 5.029057979583740234e+00
2.260000000000000000e+02 1.780656814575195312e+01 -1.090822339057922363e+00 3.064779996871948242e+00 3.336312294006347656e+00 1.920327663421630859e+00 3.685109376907348633e+00
2.270000000000000000e+02 1.759119796752929688e+01 -9.142478108406066895e-01 3.007674455642700195e+00 2.107030391693115234e+00 1.534411430358886719e+00 2.981955051422119141e+00
2.280000000000000000e+02 1.901027488708496094e+01 -9.743811488151550293e-01 1.919096469879150391e+00 1.239836597442626953e+01 4.295238971710205078e+00 3.029459953308105469e+00
2.290000000000000000e+02 1.607580566406250000e+01 6.808027029037475586e-01 -1.841537356376647949e+00 7.482399791479110718e-02 -5.300139784812927246e-01 -6.296452879905700684e-01
2.300000000000000000e+02 1.608125305175781250e+01 4.690022468566894531e-01 -2.539054870605468750e+00 -2.054836228489875793e-02 -7.678809762001037598e-01 -3.912648558616638184e-01
2.310000000000000000e+02 1.605087852478027344e+01 1.100434660911560059e+00 -7.140455842018127441e-01 2.993818223476409912e-01 -1.243991255760192871e-01 -1.298735857009887695e+00
2.320000000000000000e+02 1.617572021484375000e+01 -6.055948734283447266e-01 3.496602475643157959e-01 1.294735372066497803e-01 1.437401324510574341e-01 6.274995803833007812e-01
2.330000000000000000e+02 1.617377853393554688e+01 -3.698779344558715820e-01 -8.769787102937698364e-02 6.225143745541572571e-02 -7.633931003510951996e-03 3.473011851310729980e-01
2.340000000000000000e+02 1.825737190246582031e+01 1.552390933036804199e+00 4.229732990264892578e+00 6.761150360107421875e+00 3.297264814376831055e+00 -7.297766208648681641e+00
2.350000000000000000e+02 1.768022727966308594e+01 9.731664657592773438e-01 3.598873615264892578e+00 7.870491147041320801e-01 1.315776824951171875e+00 -2.981819152832031250e+00
2.360000000000000000e+02 1.662234497070312500e+01 1.269384622573852539e+00 6.162525415420532227e-01 5.115876197814941406e-01 3.383520543575286865e-01 -2.110103845596313477e+00
2.370000000000000000e+02 1.640707588195800781e+01 1.542635083198547363e+00 6.989967226982116699e-01 7.679966688156127930e-01 4.400980174541473389e-01 -2.374085664749145508e+00
2.380000000000000000e+02 1.680696487426757812e+01 1.568709850311279297e+00 1.344384193420410156e+00 1.068153858184814453e+00 7.237614393234252930e-01 -2.978757858276367188e+00
2.390000000000000000e+02 1.660455322265625000e+01 1.550692439079284668e+00 1.003674626350402832e+00 8.162805438041687012e-01 5.459865927696228027e-01 -2.605675458908081055e+00
2.400000000000000000e+02 1.648561096191406250e+01 2.863411605358123779e-01 -2.728288173675537109e+00 6.981814745813608170e-03 -8.163918852806091309e-01 -3.205511868000030518e-01
2.410000000000000000e+02 1.682116889953613281e+01 -9.766892790794372559e-01 1.702546477317810059e+00 8.300900459289550781e-01 7.597909569740295410e-01 1.728964805603027344e+00
2.420000000000000000e+02 1.751901435852050781e+01 -7.500275969505310059e-01 2.889442205429077148e+00 1.435238361358642578e+00 1.297404170036315918e+00 2.476626157760620117e+00
2.430000000000000000e+02 1.817449951171875000e+01 -3.956564664840698242e-01 4.685305118560791016e+00 3.232785224914550781e+00 2.375427246093750000e+00 4.051264762878417969e+00
2.440000000000000000e+02 1.660373878479003906e+01 -1.214861035346984863e+00 1.454225182533264160e+00 9.197307825088500977e-01 7.121868133544921875e-01 1.778612971305847168e+00
2.450000000000000000e+02 1.618472480773925781e+01 -1.040102124214172363e+00 7.504310011863708496e-01 5.076043605804443359e-01 3.774106204509735107e-01 1.154404282569885254e+00
2.460000000000000000e+02 1.804862785339355469e+01 1.052261114120483398e+00 5.730275630950927734e+00 2.317309379577636719e+00 2.414275407791137695e+00 -5.107558250427246094e+00
2.470000000000000000e+02 1.819901466369628906e+01 1.218121528625488281e+00 5.735145568847656250e+00 4.414883613586425781e+00 3.045008659362792969e+00 -6.702361106872558594e+00
2.480000000000000000e+02 1.794752120971679688e+01 8.513616323471069336e-01 4.739756584167480469e+00 6.309727430343627930e-01 1.611218810081481934e+00 -3.118749380111694336e+00
2.490000000000000000e+02 1.771428680419921875e+01 -6.342045068740844727e-01 3.284442901611328125e+00 1.801305770874023438e+00 1.525724530220031738e+00 2.726176738739013672e+00
2.500000000000000000e+02 1.602713775634765625e+01 1.309425711631774902e+00 -2.281610071659088135e-01 4.895677566528320312e-01 7.842202484607696533e-02 -1.624618053436279297e+00
2.510000000000000000e+02 1.679349517822265625e+01 6.240941882133483887e-01 -8.724806308746337891e-01 1.179787423461675644e-02 -2.582048177719116211e-01 -7.736559510231018066e-01
2.520000000000000000e+02 1.659031867980957031e+01 8.395844101905822754e-01 -4.324501752853393555e-01 1.062884554266929626e-01 -9.784851968288421631e-02 -1.153033971786499023e+00
2.530000000000000000e+02 1.723436546325683594e+01 9.211031198501586914e-01 1.619441390037536621e+00 3.069879710674285889e-01 5.779287815093994141e-01 -1.900815010070800781e+00
2.540000000000000000e+02 1.629573631286621094e+01 6.856107711791992188e-01 -1.535502195358276367e+00 9.522473812103271484e-02 -4.320832490921020508e-01 -7.183697819709777832e-01
2.550000000000000000e+02 1.628328704833984375e+01 4.777235686779022217e-01 -2.307299375534057617e+00 7.727838307619094849e-02 -6.690062880516052246e-01 -4.229210317134857178e-01
2.560000000000000000e+02 1.702272415161132812e+01 -5.295469164848327637e-01 1.541635751724243164e+00 3.476485610008239746e-01 5.667852759361267090e-01 1.104070901870727539e+00
2.570000000000000000e+02 1.640308952331542969e+01 -1.013455152511596680e+00 1.137228131294250488e+00 5.919553041458129883e-01 5.187550187110900879e-01 1.373911499977111816e+00
2.580000000000000000e+02 1.740280151367187500e+01 -5.827189683914184570e-01 2.441162109375000000e+00 8.922199606895446777e-01 1.000014543533325195e+00 1.802738547325134277e+00
2.590000000000000000e+02 1.794483184814453125e+01 -5.350878834724426270e-01 3.922133684158325195e+00 2.374984741210937500e+00 1.889135479927062988e+00 3.255793571472167969e+00
2.600000000000000000e+02 1.702508735656738281e+01 -9.531642794609069824e-01 1.941982626914978027e+00 1.018641591072082520e+00 8.881872892379760742e-01 1.971272468566894531e+00
2.610000000000000000e+02 1.664623451232910156e+01 -5.586896538734436035e-01 9.008625149726867676e-01 2.565682828426361084e-01 3.472292423248291016e-01 8.910738229751586914e-01
2.620000000000000000e+02 1.640896797180175781e+01 -7.958726286888122559e-01 8.671139478683471680e-01 3.696272671222686768e-01 3.710223734378814697e-01 1.035954833030700684e+00
2.630000000000000000e+02 1.642266845703125000e+01 -5.656701922416687012e-01 6.479344964027404785e-01 2.122931033372879028e-01 2.580682933330535889e-01 7.302066683769226074e-01
2.640000000000000000e+02 1.741151237487792969e+01 1.117808699607849121e+00 2.666256189346313477e+00 7.851395010948181152e-01 1.035418629646301270e+00 -2.974548101425170898e+00
2.650000000000000000e+02 1.644922447204589844e+01 -3.028867244720458984e-01 7.694394141435623169e-02 4.100832715630531311e-02 3.538567945361137390e-02 3.688757121562957764e-01
2.660000000000000000e+02 1.649275970458984375e+01 6.448686122894287109e-01 -1.433357834815979004e+00 4.251303896307945251e-02 -4.172534346580505371e-01 -6.660279631614685059e-01
2.670000000000000000e+02 1.680755805969238281e+01 -1.196498751640319824e+00 1.706295132637023926e+00 1.097574949264526367e+00 8.411610126495361328e-01 2.037248849868774414e+00
2.680000000000000000e+02 1.661430549621582031e+01 -9.947637319564819336e-01 1.376335501670837402e+00 6.226932406425476074e-01 5.997086167335510254e-01 1.492525339126586914e+00
2.690000000000000000e+02 1.721172142028808594e+01 -1.157758593559265137e+00 2.316701889038085938e+00 1.605245351791381836e+00 1.176584124565124512e+00 2.572748184204101562e+00
2.700000000000000000e+02 1.740859222412109375e+01 -1.143492341041564941e+00 2.541833400726318359e+00 1.967976927757263184e+00 1.352943062782287598e+00 2.889523029327392578e+00
2.710000000000000000e+02 1.742092514038085938e+01 -9.247144460678100586e-01 2.675314903259277344e+00 1.519607543945312500e+00 1.258476734161376953e+00 2.539477348327636719e+00
2.720000000000000000e+02 1.801566505432128906e+01 -1.056323647499084473e+00 3.146015882492065430e+00 4.459697246551513672e+00 2.281713962554931641e+00 4.078742504119873047e+00
2.730000000000000000e+02 1.824921035766601562e+01 -7.465341687202453613e-01 3.922832012176513672e+00 5.326435565948486328e+00 2.774780273437500000e+00 4.580426692962646484e+00
2.740000000000000000e+02 1.899077606201171875e+01 -7.204783558845520020e-01 2.413443565368652344e+00 1.410473251342773438e+01 4.955452919006347656e+00 3.511701345443725586e+00
2.750000000000000000e+02 2.019590950012207031e+01 -2.217739820480346680e-01 8.916573524475097656e+00 1.064228153228759766e+01 5.867656230926513672e+00 -4.081704139709472656e+00
2.760000000000000000e+02 2.029735946655273438e+01 -6.711964309215545654e-02 9.868953704833984375e+00 9.810112953186035156e+00 5.903719902038574219e+00 -3.879083395004272461e+00
2.770000000000000000e+02 2.010757827758789062e+01 9.076564311981201172e-01 1.032871627807617188e+01 1.123769950866699219e+01 6.469924449920654297e+00 6.447235941886901855e-01
2.780000000000000000e+02 1.997514533996582031e+01 1.047552466392517090e+00 9.056672096252441406e+00 1.301108646392822266e+01 6.620327472686767578e+00 1.121010422706604004e+00
2.790000000000000000e+02 1.932474327087402344e+01 1.777708172798156738e+00 1.825996398925781250e+00 1.423197841644287109e+01 4.817392349243164062e+00 -3.246195316314697266e+00
2.800000000000000000e+02 1.899460792541503906e+01 1.510453343391418457e+00 2.646750450134277344e+00 1.516630077362060547e+01 5.343915462493896484e+00 -5.864545345306396484e+00
2.810000000000000000e+02 1.799267578125000000e+01 1.692710041999816895e+00 3.502552747726440430e+00 5.016932964324951172e+00 2.555845737457275391e+00 -6.467477798461914062e+00
2.820000000000000000e+02 1.779639625549316406e+01 1.667630672454833984e+00 3.538630962371826172e+00 3.820916414260864258e+00 2.207864284515380859e+00 -5.936885356903076172e+00
2.830000000000000000e+02 1.759902191162109375e+01 1.645548939704895020e+00 3.177877664566040039e+00 2.783874034881591797e+00 1.788525462150573730e+00 -5.217296123504638672e+00
2.840000000000000000e+02 1.720511054992675781e+01 1.605425834655761719e+00 2.351192951202392578e+00 1.627391219139099121e+00 1.193575263023376465e+00 -3.922284364700317383e+00
2.850000000000000000e+02 1.700885200500488281e+01 1.585782527923583984e+00 1.815701246261596680e+00 1.314413905143737793e+00 9.390345811843872070e-01 -3.371858596801757812e+00
2.860000000000000000e+02 1.687627983093261719e+01 1.110944151878356934e+00 1.106177568435668945e+00 5.712939500808715820e-01 5.032414793968200684e-01 -2.190343856811523438e+00
2.870000000000000000e+02 1.706051635742187500e+01 1.311952114105224609e+00 1.755719900131225586e+00 8.955981731414794922e-01 7.953954339027404785e-01 -2.869952201843261719e+00
2.880000000000000000e+02 1.628777313232421875e+01 1.129941821098327637e+00 -1.708275824785232544e-01 3.347178697586059570e-01 4.916708916425704956e-02 -1.527483940124511719e+00
2.890000000000000000e+02 1.641525459289550781e+01 1.285884857177734375e+00 2.905215322971343994e-01 3.784676790237426758e-01 2.006967663764953613e-01 -1.900382280349731445e+00
2.900000000000000000e+02 1.632751464843750000e+01 9.142796397209167480e-01 -6.542536020278930664e-01 1.923872530460357666e-01 -1.385599076747894287e-01 -1.183559060096740723e+00
2.910000000000000000e+02 1.667901039123535156e+01 3.137761056423187256e-01 -2.411257743835449219e+00 -2.088468987494707108e-03 -7.240038514137268066e-01 -3.763862848281860352e-01
2.920000000000000000e+02 1.746251106262207031e+01 3.996744751930236816e-01 -8.031262755393981934e-01 -5.279347300529479980e-02 -2.567759156227111816e-01 -3.809283971786499023e-01
2.930000000000000000e+02 1.789216995239257812e+01 6.385600566864013672e-01 3.005519628524780273e+00 1.924117803573608398e-01 9.593794345855712891e-01 -1.600983262062072754e+00
2.940000000000000000e+02 1.749835586547851562e+01 1.066728234291076660e-01 1.417284160852432251e-01 9.101401083171367645e-03 4.524894431233406067e-02 1.315001398324966431e-01
2.950000000000000000e+02 1.728559112548828125e+01 8.079350739717483521e-02 -1.858328841626644135e-02 2.646591141819953918e-02 2.364787273108959198e-03 1.252924203872680664e-01
2.960000000000000000e+02 1.670051956176757812e+01 4.895908012986183167e-02 -5.112313628196716309e-01 -5.326678976416587830e-02 -1.693494468927383423e-01 2.608396112918853760e-02
2.970000000000000000e+02 1.648160171508789062e+01 -3.718614811077713966e-03 -6.414359211921691895e-01 1.537222694605588913e-02 -1.878191083669662476e-01 5.135751515626907349e-02
2.980000000000000000e+02 1.680631637573242188e+01 -1.143654435873031616e-01 -9.056094102561473846e-03 8.390613645315170288e-02 2.245501242578029633e-02 2.819014191627502441e-01
2.990000000000000000e+02 1.800966072082519531e+01 -7.794361114501953125e-01 3.753338098526000977e+00 3.633267164230346680e+00 2.215981483459472656e+00 3.954456567764282227e+00
3.000000000000000000e+02 1.858475112915039062e+01 -8.046678304672241211e-01 3.322468042373657227e+00 9.033474922180175781e+00 3.706783056259155273e+00 4.927512645721435547e+00
3.010000000000000000e+02 1.987401771545410156e+01 9.787162542343139648e-01 9.807982444763183594e+00 1.362614536285400391e+01 7.030238151550292969e+00 1.174308896064758301e+00
3.020000000000000000e+02 2.022047233581542969e+01 1.097408384084701538e-01 1.105020427703857422e+01 1.008642196655273438e+01 6.340987682342529297e+00 -3.396066427230834961e+00
3.030000000000000000e+02 1.965611267089843750e+01 -6.791297793388366699e-01 4.015093326568603516e+00 1.481722164154052734e+01 5.649694442749023438e+00 -2.063053131103515625e+00
3.040000000000000000e+02 1.662512969970703125e+01 -7.798900604248046875e-01 1.206309318542480469e+00 4.927721321582794189e-01 5.097244381904602051e-01 1.214920043945312500e+00
3.050000000000000000e+02 1.760455513000488281e+01 -4.259032011032104492e-01 2.854248285293579102e+00 8.594553470611572266e-01 1.114111065864562988e+00 1.841809391975402832e+00
3.060000000000000000e+02 1.946386146545410156e+01 1.580348610877990723e+00 2.895421028137207031e+00 1.548256778717041016e+01 5.513396739959716797e+00 -2.032404899597167969e+00
3.070000000000000000e+02 2.015906524658203125e+01 1.044108390808105469e+00 8.776726722717285156e+00 1.087698554992675781e+01 5.896113872528076172e+00 7.750707268714904785e-01
3.080000000000000000e+02 1.806400108337402344e+01 1.451098561286926270e+00 4.733071804046630859e+00 4.590833187103271484e+00 2.797171592712402344e+00 -6.556398868560791016e+00
3.090000000000000000e+02 1.683175086975097656e+01 -7.666791677474975586e-01 1.488145112991333008e+00 5.119026303291320801e-01 6.000143289566040039e-01 1.367353558540344238e+00
3.100000000000000000e+02 1.684251403808593750e+01 -5.696581006050109863e-01 1.234697937965393066e+00 4.088372588157653809e-01 4.930605590343475342e-01 1.064587950706481934e+00
3.110000000000000000e+02 1.722473907470703125e+01 -7.005470991134643555e-01 2.219480276107788086e+00 9.345524311065673828e-01 9.462098479270935059e-01 1.857749462127685547e+00
3.120000000000000000e+02 1.703002738952636719e+01 -7.382957935333251953e-01 1.926801323890686035e+00 7.312934398651123047e-01 7.974284291267395020e-01 1.643248558044433594e+00
3.130000000000000000e+02 1.701163101196289062e+01 7.590035796165466309e-01 7.141236960887908936e-02 1.609634980559349060e-02 2.625261433422565460e-02 -1.089288711547851562e+00
3.140000000000000000e+02 1.780971908569335938e+01 1.198837280273437500e+00 4.337480068206787109e+00 2.019638538360595703e+00 1.907135605812072754e+00 -4.666426658630371094e+00
3.150000000000000000e+02 1.672026634216308594e+01 1.024789452552795410e+00 5.063198208808898926e-01 2.375391870737075806e-01 2.231576889753341675e-01 -1.617452383041381836e+00
3.160000000000000000e+02 1.684343147277832031e+01 1.311710119247436523e+00 1.224517464637756348e+00 6.411211490631103516e-01 5.596916079521179199e-01 -2.433143377304077148e+00
3.170000000000000000e+02 1.690908050537109375e+01 9.600144624710083008e-01 6.628540754318237305e-01 1.508938521146774292e-01 2.441243827342987061e-01 -1.658872485160827637e+00
3.180000000000000000e+02 1.691549682617187500e+01 -3.908589184284210205e-01 1.039786577224731445e+00 2.460089921951293945e-01 3.857386708259582520e-01 7.463118433952331543e-01
3.190000000000000000e+02 1.704458236694335938e+01 1.082754731178283691e+00 1.440686464309692383e+00 3.596958816051483154e-01 5.401147007942199707e-01 -2.304267406463623047e+00
3.200000000000000000e+02 1.723013305664062500e+01 -4.824905097484588623e-01 1.933297395706176758e+00 5.310596227645874023e-01 7.393071055412292480e-01 1.294342279434204102e+00
3.210000000000000000e+02 1.583077049255371094e+01 8.245598077774047852e-01 -1.851291298866271973e+00 1.906536705791950226e-02 -5.496677756309509277e-01 -8.430302143096923828e-01
3.220000000000000000e+02 1.413128757476806641e+01 1.256670236587524414e+00 -2.218346357345581055e+00 2.126990854740142822e-01 -6.016941666603088379e-01 -5.421876311302185059e-01
3.230000000000000000e+02 1.502785110473632812e+01 1.015326499938964844e+00 -2.069432973861694336e+00 1.355186402797698975e-01 -5.801743268966674805e-01 -7.179442048072814941e-01
3.240000000000000000e+02 1.573156547546386719e+01 1.004386305809020996e+00 -1.249250411987304688e+00 1.662310808897018433e-01 -3.249058127403259277e-01 -9.934865832328796387e-01
3.250000000000000000e+02 1.453366088867187500e+01 3.283396959304809570e-01 -3.826111793518066406e+00 5.219167098402976990e-03 -1.146267771720886230e+00 -1.876682043075561523e-01
3.260000000000000000e+02 1.555958843231201172e+01 1.481412649154663086e+00 -6.724830269813537598e-01 4.111975729465484619e-01 -7.838563621044158936e-02 -1.510378718376159668e+00
3.270000000000000000e+02 1.336608505249023438e+01 1.161324381828308105e+00 -2.700569152832031250e+00 1.661797612905502319e-01 -7.603168487548828125e-01 -2.474239617586135864e-01
3.280000000000000000e+02 1.334796237945556641e+01 4.201616346836090088e-01 -3.941082715988159180e+00 3.232725430279970169e-04 -1.182227849960327148e+00 -1.122370213270187378e-01
3.290000000000000000e+02 1.396707057952880859e+01 3.608823716640472412e-01 -3.943506717681884766e+00 2.402437664568424225e-02 -1.175844669342041016e+00 -1.306659728288650513e-01
3.300000000000000000e+02 1.581466579437255859e+01 4.862876832485198975e-01 -2.638126850128173828e+00 6.970258057117462158e-02 -7.705273032188415527e-01 -4.340086281299591064e-01
3.310000000000000000e+02 1.572888565063476562e+01 2.661574184894561768e-01 -3.286438941955566406e+00 3.044591285288333893e-03 -9.850182533264160156e-01 -1.934801191091537476e-01
3.320000000000000000e+02 1.568249893188476562e+01 6.387059092521667480e-01 -2.452721834182739258e+00 -1.907949149608612061e-02 -7.415404319763183594e-01 -5.559796094894409180e-01
3.330000000000000000e+02 1.562534046173095703e+01 1.232238769531250000e+00 -9.320852160453796387e-01 2.802690565586090088e-01 -1.955448389053344727e-01 -1.231612563133239746e+00
3.340000000000000000e+02 1.485856723785400391e+01 1.390733122825622559e+00 -1.568076372146606445e+00 3.203522861003875732e-01 -3.743172287940979004e-01 -9.410486221313476562e-01
3.350000000000000000e+02 1.536736202239990234e+01 7.280594706535339355e-01 -2.423006534576416016e+00 7.421939820051193237e-02 -7.046360969543457031e-01 -5.741096735000610352e-01
3.360000000000000000e+02 1.586698818206787109e+01 6.621227860450744629e-01 -2.049843072891235352e+00 5.440373346209526062e-02 -5.986317992210388184e-01 -4.958167076110839844e-01
3.370000000000000000e+02 1.515253925323486328e+01 3.265517354011535645e-01 -3.644524097442626953e+00 -1.124677155166864395e-02 -1.096731305122375488e+00 -1.964068263769149780e-01
3.380000000000000000e+02 1.438146591186523438e+01 7.629144191741943359e-01 -3.029029369354248047e+00 8.466739952564239502e-02 -8.833086490631103516e-01 -3.849682211875915527e-01
3.390000000000000000e+02 1.111325168609619141e+01 1.138490676879882812e+00 -2.892820119857788086e+00 8.094074577093124390e-02 -8.435637950897216797e-01 2.139511704444885254e-01
3.400000000000000000e+02 1.186833381652832031e+01 4.020517766475677490e-01 -3.971749782562255859e+00 2.138487994670867920e-03 -1.190883398056030273e+00 4.580651596188545227e-02
3.410000000000000000e+02 1.037295722961425781e+01 3.924405574798583984e-01 -3.642288208007812500e+00 3.128882730379700661e-03 -1.091747760772705078e+00 1.228033825755119324e-01
3.420000000000000000e+02 1.260390949249267578e+01 1.143149375915527344e+00 -2.908774137496948242e+00 1.418349593877792358e-01 -8.300817608833312988e-01 -6.824801862239837646e-02
3.430000000000000000e+02 1.261756992340087891e+01 4.032067656517028809e-01 -3.975909948348999023e+00 7.601667940616607666e-02 -1.169968008995056152e+00 -3.398399800062179565e-02
3.440000000000000000e+02 1.036947441101074219e+01 1.132432341575622559e+00 -2.800083160400390625e+00 8.878047019243240356e-02 -8.133907914161682129e-01 3.027548789978027344e-01
3.450000000000000000e+02 1.185806560516357422e+01 1.142010807991027832e+00 -2.918804883956909180e+00 1.435944437980651855e-01 -8.325631618499755859e-01 6.177181378006935120e-02
3.460000000000000000e+02 1.112012767791748047e+01 3.985152244567871094e-01 -3.848443031311035156e+00 3.599329665303230286e-02 -1.143734931945800781e+00 8.290458470582962036e-02
3.470000000000000000e+02 8.749180793762207031e+00 3.899427950382232666e-01 -3.023427248001098633e+00 -1.707795774564146996e-03 -9.075405001640319824e-01 1.789385676383972168e-01
3.480000000000000000e+02 7.082522392272949219e+00 3.898618221282958984e-01 -2.226392745971679688e+00 -5.633404012769460678e-03 -6.696078181266784668e-01 1.955176889896392822e-01
3.490000000000000000e+02 6.247702121734619141e+00 1.129743337631225586e+00 -1.517236351966857910e+00 -1.484396681189537048e-02 -4.596241116523742676e-01 5.181592702865600586e-01
3.500000000000000000e+02 4.581694126129150391e+00 3.896949291229248047e-01 -1.007389426231384277e+00 -6.261063273996114731e-03 -3.040951192378997803e-01 1.688853055238723755e-01
3.510000000000000000e+02 3.748422384262084961e+00 3.898865282535552979e-01 -6.575543284416198730e-01 -1.440306100994348526e-02 -2.015872299671173096e-01 1.476166993379592896e-01
3.520000000000000000e+02 3.747751951217651367e+00 1.129886507987976074e+00 -6.497901678085327148e-01 -5.300962552428245544e-02 -2.108399420976638794e-01 4.010008871555328369e-01
3.530000000000000000e+02 2.915430068969726562e+00 3.901152908802032471e-01 -3.677939772605895996e-01 -1.585213281214237213e-02 -1.150938346982002258e-01 1.139156222343444824e-01
3.540000000000000000e+02 2.914908647537231445e+00 1.130115270614624023e+00 -4.181322455406188965e-01 -7.863877713680267334e-02 -1.490313112735748291e-01 3.241513073444366455e-01
3.550000000000000000e+02 2.082287311553955078e+00 3.901598453521728516e-01 -1.570472866296768188e-01 -1.994245871901512146e-02 -5.309692025184631348e-02 7.512520998716354370e-02
3.560000000000000000e+02 2.081915140151977539e+00 1.130159854888916016e+00 -2.339442968368530273e-01 -8.651722967624664307e-02 -9.613845497369766235e-02 2.173542231321334839e-01
3.570000000000000000e+02 1.249198555946350098e+00 1.130092263221740723e+00 -9.903843700885772705e-02 -9.171536564826965332e-02 -5.722614005208015442e-02 1.107875108718872070e-01
3.580000000000000000e+02 4.164851903915405273e-01 1.130014061927795410e+00 -2.094522863626480103e-02 -2.967527508735656738e-02 -1.518615148961544037e-02 2.554286271333694458e-02
3.590000000000000000e+02 4.165596663951873779e-01 3.900140523910522461e-01 -3.868225030601024628e-03 -2.908068010583519936e-03 -2.032887889072299004e-03 3.593682311475276947e-03
3.600000000000000000e+02 4.580874919891357422e+00 1.129694938659667969e+00 -9.167062640190124512e-01 -4.334727302193641663e-02 -2.880160510540008545e-01 4.638369381427764893e-01
3.610000000000000000e+02 5.414232254028320312e+00 1.129676342010498047e+00 -1.211081624031066895e+00 -1.911057718098163605e-02 -3.690576553344726562e-01 4.960551261901855469e-01
3.620000000000000000e+02 5.415200710296630859e+00 3.896763324737548828e-01 -1.396304488182067871e+00 -9.297272190451622009e-03 -4.216805100440979004e-01 1.856647282838821411e-01
3.630000000000000000e+02 6.248819828033447266e+00 3.897433280944824219e-01 -1.808245539665222168e+00 1.664674258790910244e-03 -5.419742465019226074e-01 1.920164376497268677e-01
3.640000000000000000e+02 7.081255912780761719e+00 1.129861831665039062e+00 -1.825696349143981934e+00 1.037773117423057556e-02 -5.445955991744995117e-01 5.114058852195739746e-01
3.650000000000000000e+02 7.915904998779296875e+00 3.899158239364624023e-01 -2.637065410614013672e+00 9.570565074682235718e-03 -7.882484793663024902e-01 1.888171881437301636e-01
3.660000000000000000e+02 9.582430839538574219e+00 3.899797797203063965e-01 -3.364484548568725586e+00 2.343093790113925934e-02 -1.002316117286682129e+00 1.524483114480972290e-01
3.670000000000000000e+02 9.580718994140625000e+00 1.129979729652404785e+00 -2.626436710357666016e+00 5.020885169506072998e-02 -7.728683948516845703e-01 3.911020457744598389e-01
3.680000000000000000e+02 1.249422073364257812e+00 3.900922536849975586e-01 -4.082371667027473450e-02 -2.061315253376960754e-02 -1.843106001615524292e-02 2.918209880590438843e-02
3.690000000000000000e+02 7.914489746093750000e+00 1.129915833473205566e+00 -2.120396852493286133e+00 1.118858065456151962e-02 -6.327624917030334473e-01 4.968797266483306885e-01
3.700000000000000000e+02 8.747616767883300781e+00 1.129942774772644043e+00 -2.390012979507446289e+00 4.502791166305541992e-02 -7.034955024719238281e-01 4.485180675983428955e-01
3.710000000000000000e+02 1.416318035125732422e+01 -2.796567976474761963e-01 -1.646674990653991699e+00 -1.788950525224208832e-02 -4.993693232536315918e-01 1.656342297792434692e-02
3.720000000000000000e+02 1.400244998931884766e+01 -1.170565962791442871e+00 -7.587614655494689941e-01 9.508548676967620850e-02 -1.991028040647506714e-01 4.313532114028930664e-01
3.730000000000000000e+02 1.594215679168701172e+01 -1.029103636741638184e+00 5.737541317939758301e-01 2.647759914398193359e-01 2.515590488910675049e-01 9.902688264846801758e-01
3.740000000000000000e+02 1.338051795959472656e+01 -1.102838993072509766e+00 -1.053576827049255371e+00 8.512560278177261353e-02 -2.905353605747222900e-01 2.838400006294250488e-01
3.750000000000000000e+02 1.453596210479736328e+01 -1.217503905296325684e+00 -3.160144686698913574e-01 2.115914225578308105e-01 -3.132690861821174622e-02 6.072098016738891602e-01
3.760000000000000000e+02 1.487019062042236328e+01 -1.906514316797256470e-01 -1.415845990180969238e+00 2.182270213961601257e-02 -4.182069897651672363e-01 1.459066942334175110e-02
3.770000000000000000e+02 1.588141536712646484e+01 -4.663209319114685059e-01 -2.449538111686706543e-01 1.306688040494918823e-01 -3.428550437092781067e-02 4.047954082489013672e-01
3.780000000000000000e+02 1.585032176971435547e+01 -1.251313328742980957e+00 6.657823920249938965e-01 4.108275771141052246e-01 3.229829967021942139e-01 1.214690327644348145e+00
3.790000000000000000e+02 1.595627593994140625e+01 -8.441695570945739746e-01 3.801541924476623535e-01 1.791018396615982056e-01 1.677768081426620483e-01 7.860923409461975098e-01
3.800000000000000000e+02 1.540383434295654297e+01 -6.321803331375122070e-01 -4.825913906097412109e-01 1.288702189922332764e-01 -1.061163544654846191e-01 4.136391878128051758e-01
3.810000000000000000e+02 1.571996688842773438e+01 -6.419435143470764160e-01 -1.135050356388092041e-01 9.510106593370437622e-02 -5.521189887076616287e-03 5.450192689895629883e-01
3.820000000000000000e+02 1.582105922698974609e+01 -2.603654861450195312e-01 -5.482846498489379883e-01 1.452799141407012939e-01 -1.209014132618904114e-01 1.742157787084579468e-01
3.830000000000000000e+02 1.492667007446289062e+01 -6.801198124885559082e-01 -7.650866508483886719e-01 5.218300595879554749e-02 -2.138710916042327881e-01 3.341036438941955566e-01
3.840000000000000000e+02 1.339945888519287109e+01 -3.616461753845214844e-01 -1.842441320419311523e+00 5.205695983022451401e-03 -5.511707067489624023e-01 2.887027896940708160e-02
3.850000000000000000e+02 1.593806743621826172e+01 -6.512897610664367676e-01 2.276962250471115112e-01 1.592645943164825439e-01 1.160882487893104553e-01 5.925652980804443359e-01
3.860000000000000000e+02 1.571916580200195312e+01 -2.568751201033592224e-02 -1.260809898376464844e+00 4.458995163440704346e-02 -3.648659586906433105e-01 -3.780914843082427979e-02
3.870000000000000000e+02 1.541376781463623047e+01 -2.392360717058181763e-01 -1.054608941078186035e+00 -5.467482656240463257e-02 -3.327851295471191406e-01 9.994677454233169556e-02
3.880000000000000000e+02 1.508126068115234375e+01 -1.161198258399963379e+00 -3.471982851624488831e-02 2.474057227373123169e-01 6.380577385425567627e-02 7.926232814788818359e-01
3.890000000000000000e+02 1.551310253143310547e+01 -1.035715460777282715e+00 1.886796057224273682e-01 2.579101920127868652e-01 1.339769363403320312e-01 8.403892517089843750e-01
3.900000000000000000e+02 1.576046752929687500e+01 -8.881055116653442383e-01 2.501429021358489990e-01 1.698889136314392090e-01 1.260095387697219849e-01 7.785009741783142090e-01
3.910000000000000000e+02 1.435547542572021484e+01 -8.004417419433593750e-01 -9.269391298294067383e-01 8.762919902801513672e-02 -2.517929673194885254e-01 3.263044059276580811e-01
3.920000000000000000e+02 3.233536720275878906e+00 -1.935299992561340332e+00 -2.942309677600860596e-01 -9.252380579710006714e-02 -1.160264313220977783e-01 -3.477182686328887939e-01
3.930000000000000000e+02 3.943581104278564453e+00 -1.898176908493041992e+00 -3.961231708526611328e-01 -6.278727203607559204e-02 -1.376731395721435547e-01 -3.909968733787536621e-01
3.940000000000000000e+02 9.647647857666015625e+00 -1.849005341529846191e+00 -1.081775546073913574e+00 1.146932095289230347e-01 -2.901246845722198486e-01 -1.850460469722747803e-01
3.950000000000000000e+02 1.456304359436035156e+01 -1.683417677879333496e+00 -5.806218460202217102e-02 3.505057692527770996e-01 8.773307502269744873e-02 9.015684723854064941e-01
3.960000000000000000e+02 1.189885425567626953e+01 -1.811686873435974121e+00 -9.457756280899047852e-01 1.771194934844970703e-01 -2.305968403816223145e-01 1.685837209224700928e-01
3.970000000000000000e+02 5.497224926948547363e-01 -1.060761356353759766e+01 1.409699954092502594e-02 -2.231453180313110352e+00 -6.652068495750427246e-01 -1.127020344138145447e-01
3.980000000000000000e+02 1.277923870086669922e+01 -1.847147560119628906e+01 1.206082940101623535e+00 6.583135604858398438e+00 2.336765527725219727e+00 6.724278926849365234e-01
3.990000000000000000e+02 1.417492771148681641e+01 -1.913582611083984375e+01 5.252215266227722168e-01 9.158970832824707031e+00 2.905257701873779297e+00 -4.801506921648979187e-02
4.000000000000000000e+02 1.435464191436767578e+01 -1.782729911804199219e+01 2.521053850650787354e-01 9.638272285461425781e+00 2.967113494873046875e+00 8.513665795326232910e-01
4.010000000000000000e+02 1.359498214721679688e+01 -1.598085212707519531e+01 1.970766663551330566e+00 7.660068511962890625e+00 2.889250516891479492e+00 1.807346105575561523e+00
4.020000000000000000e+02 1.674360847473144531e+01 -1.277161788940429688e+01 3.471404790878295898e+00 4.369009494781494141e+00 2.352124214172363281e+00 3.590979337692260742e+00
4.030000000000000000e+02 1.941459846496582031e+01 -1.173544692993164062e+01 -3.352421820163726807e-01 7.064197212457656860e-02 -7.938006520271301270e-02 4.526064991950988770e-01
4.040000000000000000e+02 2.326898002624511719e+01 -1.071633243560791016e+01 -2.066467285156250000e+00 -6.901908665895462036e-02 -6.406458616256713867e-01 -7.102153897285461426e-01
4.050000000000000000e+02 2.553428459167480469e+01 -9.425903320312500000e+00 -2.373486757278442383e+00 -6.468197703361511230e-01 -9.060919284820556641e-01 -1.401239395141601562e+00
4.060000000000000000e+02 2.652257537841796875e+01 -8.682285308837890625e+00 -3.248699426651000977e+00 -8.543279170989990234e-01 -1.230908274650573730e+00 -1.367368578910827637e+00
4.070000000000000000e+02 2.847300148010253906e+01 -7.888507366180419922e+00 -4.062644004821777344e+00 -6.682205200195312500e-01 -1.419259428977966309e+00 -7.598587870597839355e-01
4.080000000000000000e+02 3.118758773803710938e+01 -7.587490558624267578e+00 -1.325615406036376953e+00 2.741678714752197266e+00 4.248189628124237061e-01 -1.489639878273010254e+00
4.090000000000000000e+02 3.182546997070312500e+01 -8.873415946960449219e+00 -4.480260014533996582e-01 3.034024238586425781e+00 7.757994532585144043e-01 -1.808888316154479980e+00
4.100000000000000000e+02 3.271780776977539062e+01 -9.882962226867675781e+00 2.113335609436035156e+00 5.457072734832763672e+00 2.271122455596923828e+00 -3.290446996688842773e+00
4.110000000000000000e+02 3.355870437622070312e+01 -1.098730850219726562e+01 3.035779953002929688e+00 9.315346717834472656e+00 3.705338001251220703e+00 -4.946581840515136719e+00
4.120000000000000000e+02 3.425735855102539062e+01 -1.222224044799804688e+01 2.931996583938598633e+00 1.296396732330322266e+01 4.768789291381835938e+00 -5.270233154296875000e+00
4.130000000000000000e+02 4.460534286499023438e+01 -1.582605266571044922e+01 1.547246217727661133e+00 6.829380512237548828e+00 2.512988090515136719e+00 5.119831562042236328e-01
4.140000000000000000e+02 4.644771575927734375e+01 -1.687346839904785156e+01 2.652282476425170898e+00 6.122189044952392578e+00 2.632341384887695312e+00 3.015682935714721680e+00
4.150000000000000000e+02 4.752025604248046875e+01 -1.609256362915039062e+01 3.160090923309326172e+00 2.704641819000244141e+00 1.759419798851013184e+00 2.583339929580688477e+00
4.160000000000000000e+02 4.876572799682617188e+01 -1.548893165588378906e+01 2.756326436996459961e+00 1.274212718009948730e+00 1.209161758422851562e+00 1.493900895118713379e+00
4.170000000000000000e+02 5.015811920166015625e+01 -1.506583499908447266e+01 1.292205452919006348e+00 1.311393976211547852e-01 4.270034432411193848e-01 8.216687440872192383e-01
4.180000000000000000e+02 5.969668579101562500e+01 -1.391265392303466797e+01 -2.374788045883178711e+00 3.982995077967643738e-02 -7.004874944686889648e-01 -6.731727719306945801e-01
4.190000000000000000e+02 6.022074890136718750e+01 -1.234500122070312500e+01 -2.540124416351318359e+00 4.682221710681915283e-01 -6.215707063674926758e-01 -3.716216683387756348e-01
4.200000000000000000e+02 6.461636352539062500e+01 -1.030670261383056641e+01 -9.903042912483215332e-01 1.405137181282043457e+00 1.244498491287231445e-01 -2.030375242233276367e+00
4.210000000000000000e+02 6.655828857421875000e+01 -1.305629253387451172e+01 1.169600963592529297e+00 4.424360752105712891e+00 1.678188443183898926e+00 -2.414877891540527344e+00
4.220000000000000000e+02 6.761679077148437500e+01 -1.411743545532226562e+01 2.392205715179443359e+00 8.986585617065429688e+00 3.413637399673461914e+00 -4.399044513702392578e+00
4.230000000000000000e+02 6.862792205810546875e+01 -1.321002960205078125e+01 -2.697240710258483887e-01 1.018877220153808594e+01 2.975714445114135742e+00 -1.762166023254394531e+00
4.240000000000000000e+02 6.878012084960937500e+01 -1.686128807067871094e+01 1.520791769027709961e+00 1.904648971557617188e+01 6.170184135437011719e+00 -2.492527961730957031e+00
4.250000000000000000e+02 7.003630065917968750e+01 -1.819836044311523438e+01 1.884458541870117188e+00 1.485171318054199219e+01 5.020851612091064453e+00 -6.004726886749267578e-01
4.260000000000000000e+02 6.846614074707031250e+01 -2.128396415710449219e+01 1.737307667732238770e+00 1.501581859588623047e+01 5.025938034057617188e+00 3.325949430465698242e+00
4.270000000000000000e+02 6.966097259521484375e+01 -2.163610839843750000e+01 1.499748945236206055e+00 1.236433219909667969e+01 4.159224033355712891e+00 6.852616071701049805e-01
4.280000000000000000e+02 6.803761291503906250e+01 -2.444053840637207031e+01 3.365813195705413818e-02 8.113275527954101562e+00 2.444080114364624023e+00 1.761268496513366699e+00
4.290000000000000000e+02 6.290768051147460938e+01 -3.042997360229492188e+01 -1.202741146087646484e+00 1.331402778625488281e+00 3.859850391745567322e-02 4.737763404846191406e-01
4.300000000000000000e+02 6.141976165771484375e+01 -3.126631355285644531e+01 -1.173635959625244141e+00 6.212154030799865723e-01 -1.657261848449707031e-01 2.242061644792556763e-01
4.310000000000000000e+02 5.687405014038085938e+01 -3.537977600097656250e+01 3.036653399467468262e-01 5.097063183784484863e-01 2.440115064382553101e-01 -4.495132267475128174e-01
4.320000000000000000e+02 5.204984664916992188e+01 -3.088690185546875000e+01 -6.034888625144958496e-01 7.063974738121032715e-01 3.087258897721767426e-02 -9.189319014549255371e-01
4.330000000000000000e+02 5.070052719116210938e+01 -3.346211242675781250e+01 -4.310170412063598633e-01 2.381753444671630859e+00 5.852209329605102539e-01 -1.944213628768920898e+00
4.340000000000000000e+02 4.991025161743164062e+01 -3.003979301452636719e+01 8.603716492652893066e-01 1.689312219619750977e+00 7.649051547050476074e-01 -1.813317418098449707e+00
4.350000000000000000e+02 4.885483551025390625e+01 -3.257442092895507812e+01 -2.394127100706100464e-01 4.114548206329345703e+00 1.162540674209594727e+00 -2.287178039550781250e+00
4.360000000000000000e+02 4.471668243408203125e+01 -3.136174392700195312e+01 -7.809022665023803711e-01 7.039577484130859375e+00 1.877602458000183105e+00 -1.279728293418884277e+00
4.370000000000000000e+02 3.819591903686523438e+01 -3.010671043395996094e+01 -5.333524346351623535e-01 6.726514816284179688e+00 1.857948780059814453e+00 5.521340966224670410e-01
4.380000000000000000e+02 3.337928390502929688e+01 -2.592062759399414062e+01 1.412688136100769043e+00 3.479277133941650391e+00 1.467589616775512695e+00 2.136465072631835938e+00
4.390000000000000000e+02 3.112233161926269531e+01 -2.966495895385742188e+01 -6.494888663291931152e-01 1.941250085830688477e+00 3.875283598899841309e-01 1.127984404563903809e+00
4.400000000000000000e+02 2.891341972351074219e+01 -2.929560852050781250e+01 -1.534301757812500000e+00 1.296890228986740112e-01 -4.213838279247283936e-01 -1.582664251327514648e-02
4.410000000000000000e+02 2.869747352600097656e+01 -3.113864707946777344e+01 -1.048493862152099609e+00 5.859720706939697266e-01 -1.387565433979034424e-01 7.091042995452880859e-01
4.420000000000000000e+02 2.491040802001953125e+01 -3.012667846679687500e+01 -2.469420909881591797e+00 -1.890647113323211670e-01 -7.975456714630126953e-01 2.531904876232147217e-01
4.430000000000000000e+02 2.235735893249511719e+01 -2.928565216064453125e+01 -1.984142661094665527e+00 -2.324254959821701050e-01 -6.649704575538635254e-01 3.854786455631256104e-01
4.440000000000000000e+02 2.125195503234863281e+01 -2.834604835510253906e+01 -1.038797497749328613e+00 -8.661417663097381592e-02 -3.376235067844390869e-01 3.937181830406188965e-01
4.450000000000000000e+02 1.817262840270996094e+01 -2.752057838439941406e+01 -5.869197845458984375e-01 1.238596081733703613e+00 1.955028921365737915e-01 -2.681421935558319092e-01
4.460000000000000000e+02 1.539394664764404297e+01 -2.244989013671875000e+01 1.034431338310241699e+00 4.039927482604980469e+00 1.522307634353637695e+00 -1.901041746139526367e+00
4.470000000000000000e+02 1.460941219329833984e+01 -2.136334991455078125e+01 1.200134992599487305e+00 7.439174652099609375e+00 2.591792821884155273e+00 -1.584478735923767090e+00
4.480000000000000000e+02 2.647984266281127930e+00 -3.828769302368164062e+01 -4.644777625799179077e-02 1.929311037063598633e+00 5.648589730262756348e-01 1.112756431102752686e-01
4.490000000000000000e+02 8.276645541191101074e-01 -3.743107986450195312e+01 -6.808197591453790665e-03 1.981887221336364746e+00 5.925236940383911133e-01 4.644826054573059082e-02
4.500000000000000000e+02 7.999736070632934570e-01 -3.039805412292480469e+01 -1.230828836560249329e-02 1.007817387580871582e+00 2.986527383327484131e-01 1.910722702741622925e-01
4.510000000000000000e+02 6.452471017837524414e-01 -2.330356216430664062e+01 1.553886104375123978e-02 -1.181962966918945312e+00 -3.499272465705871582e-01 2.189532667398452759e-01
4.520000000000000000e+02 6.053393483161926270e-01 -1.765858840942382812e+01 1.778204925358295441e-02 -2.639370203018188477e+00 -7.864764332771301270e-01 8.266692608594894409e-02
4.530000000000000000e+02 1.647146105766296387e+00 -1.043382644653320312e+01 4.126159101724624634e-02 -1.595966696739196777e+00 -4.664115309715270996e-01 -3.326548933982849121e-01
4.540000000000000000e+02 6.596634984016418457e-01 -2.471889877319335938e+01 -6.803099066019058228e-03 -7.005928158760070801e-01 -2.122187763452529907e-01 2.245817780494689941e-01
4.550000000000000000e+02 8.747027516365051270e-01 -3.183618545532226562e+01 -1.597252674400806427e-02 1.306913852691650391e+00 3.872823715209960938e-01 1.667040735483169556e-01
4.560000000000000000e+02 6.281815052032470703e+00 -3.208559417724609375e+01 -3.689705431461334229e-01 1.761049985885620117e+00 4.176238477230072021e-01 6.782702803611755371e-01
4.570000000000000000e+02 1.189070320129394531e+01 -2.695909500122070312e+01 -7.615936398506164551e-01 3.050662994384765625e+00 6.867207884788513184e-01 6.432152986526489258e-01
4.580000000000000000e+02 1.223598575592041016e+01 -1.962060546875000000e+01 1.139431715011596680e+00 5.590775489807128906e+00 2.019062280654907227e+00 7.984216213226318359e-01
4.590000000000000000e+02 1.655183410644531250e+01 -3.882892608642578125e+01 -4.032787382602691650e-01 1.246033549308776855e+00 2.528264522552490234e-01 -1.274312436580657959e-01
4.600000000000000000e+02 1.723921585083007812e+01 -4.132073593139648438e+01 -3.246472775936126709e-01 1.113590359687805176e+00 2.366829365491867065e-01 -4.599113762378692627e-02
4.610000000000000000e+02 1.969537734985351562e+01 -3.136860466003417969e+01 -1.022487640380859375e+00 8.651587367057800293e-01 -4.719867929816246033e-02 -3.687356710433959961e-01
4.620000000000000000e+02 2.286579895019531250e+01 -3.650988388061523438e+01 -3.060175180435180664e-01 6.123455166816711426e-01 9.189839661121368408e-02 -1.360615640878677368e-01
4.630000000000000000e+02 2.710852813720703125e+01 -4.097228240966796875e+01 -3.092284500598907471e-01 1.500978827476501465e+00 3.575251102447509766e-01 1.324365586042404175e-01
4.640000000000000000e+02 2.973284530639648438e+01 -3.533510208129882812e+01 -6.212272047996520996e-01 1.920499920845031738e+00 3.897818028926849365e-01 8.368051648139953613e-01
4.650000000000000000e+02 3.620322036743164062e+01 -3.849198532104492188e+01 -1.487500429153442383e+00 4.605899810791015625e+00 9.355198740959167480e-01 5.363715887069702148e-01
4.660000000000000000e+02 4.227843475341796875e+01 -4.062060928344726562e+01 -1.751489162445068359e+00 5.413892269134521484e+00 1.098720908164978027e+00 -1.070797517895698547e-01
4.670000000000000000e+02 4.752350234985351562e+01 -4.062458419799804688e+01 -1.140317678451538086e+00 4.361922264099121094e+00 9.664814472198486328e-01 -4.417003691196441650e-01
4.680000000000000000e+02 5.969163131713867188e+01 -3.950502014160156250e+01 8.305380344390869141e-01 1.196534037590026855e+00 6.081216335296630859e-01 1.351500675082206726e-02
4.690000000000000000e+02 6.120985031127929688e+01 -3.721692657470703125e+01 5.289959907531738281e-01 1.497285962104797363e+00 6.078845858573913574e-01 2.363803684711456299e-01
4.700000000000000000e+02 7.127359771728515625e+01 -3.835693359375000000e+01 -4.351205378770828247e-02 6.559123992919921875e+00 1.954683542251586914e+00 1.844583898782730103e-01
4.710000000000000000e+02 7.794303894042968750e+01 -4.163803863525390625e+01 1.970354467630386353e-01 9.994031906127929688e+00 3.057320117950439453e+00 5.531720817089080811e-02
4.720000000000000000e+02 7.761624908447265625e+01 -3.677724838256835938e+01 -6.466317921876907349e-02 9.788631439208984375e+00 2.917190551757812500e+00 2.929865731857717037e-04
4.730000000000000000e+02 7.933109283447265625e+01 -3.327384567260742188e+01 -1.189032383263111115e-02 1.039165115356445312e+01 3.113928079605102539e+00 -9.207653999328613281e-02
4.740000000000000000e+02 7.802888488769531250e+01 -3.019751739501953125e+01 -1.159720867872238159e-01 9.410377502441406250e+00 2.788321733474731445e+00 -4.602415263652801514e-01
4.750000000000000000e+02 7.935508728027343750e+01 -2.631337356567382812e+01 -2.459916658699512482e-02 8.456314086914062500e+00 2.529514312744140625e+00 -3.114308416843414307e-01
4.760000000000000000e+02 6.886962890625000000e+01 -2.313799858093261719e+01 6.406500339508056641e-01 1.048010253906250000e+01 3.336225748062133789e+00 1.220927357673645020e+00
4.770000000000000000e+02 7.815527343750000000e+01 -2.323057174682617188e+01 7.645107805728912354e-02 7.515071392059326172e+00 2.277456760406494141e+00 -8.154054880142211914e-01
4.780000000000000000e+02 7.940054321289062500e+01 -2.215529060363769531e+01 3.668512031435966492e-02 6.448710918426513672e+00 1.945618748664855957e+00 -2.723772823810577393e-01
4.790000000000000000e+02 7.812184143066406250e+01 -1.644687652587890625e+01 1.834240257740020752e-01 6.526556015014648438e+00 2.012994050979614258e+00 2.373089492321014404e-01
4.800000000000000000e+02 7.816498565673828125e+01 -9.488719940185546875e+00 -1.245416477322578430e-01 7.697986125946044922e+00 2.272033452987670898e+00 3.671805858612060547e-01
4.810000000000000000e+02 7.810383605957031250e+01 -2.489485979080200195e+00 -4.222522303462028503e-02 7.668219566345214844e+00 2.287798404693603516e+00 -2.281742244958877563e-01
4.820000000000000000e+02 7.809487915039062500e+01 4.460494995117187500e+00 1.585677452385425568e-02 6.770957469940185547e+00 2.036044359207153320e+00 -2.790596783161163330e-01
4.830000000000000000e+02 7.808502197265625000e+01 1.142439270019531250e+01 5.898555740714073181e-02 6.287592411041259766e+00 1.903973340988159180e+00 -8.979004807770252228e-03
4.840000000000000000e+02 7.792762756347656250e+01 1.997477149963378906e+01 9.877592325210571289e-03 6.902097225189208984e+00 2.073592424392700195e+00 3.180038034915924072e-01
4.850000000000000000e+02 7.652935791015625000e+01 2.173327636718750000e+01 -1.587277278304100037e-02 7.123398303985595703e+00 2.132257699966430664e+00 4.780902564525604248e-01
4.860000000000000000e+02 7.932740783691406250e+01 3.208825683593750000e+01 2.511126920580863953e-03 8.274975776672363281e+00 2.483246088027954102e+00 3.152717277407646179e-02
4.870000000000000000e+02 7.755203247070312500e+01 3.783241271972656250e+01 -6.089238077402114868e-02 8.029991149902343750e+00 2.390729427337646484e+00 7.036967668682336807e-03
4.880000000000000000e+02 7.888169860839843750e+01 3.881628799438476562e+01 -3.843158110976219177e-02 8.238311767578125000e+00 2.459964036941528320e+00 -5.684712529182434082e-02
4.890000000000000000e+02 7.168302917480468750e+01 3.827038192749023438e+01 -2.364185452461242676e-02 6.681782245635986328e+00 1.997442126274108887e+00 2.632051939144730568e-03
4.900000000000000000e+02 7.211921691894531250e+01 2.818665504455566406e+01 -3.455224335193634033e-01 7.042267322540283203e+00 2.009023427963256836e+00 2.837771177291870117e-01
4.910000000000000000e+02 7.146333312988281250e+01 1.681708908081054688e+01 4.615496397018432617e-01 7.099709033966064453e+00 2.268377542495727539e+00 5.516207814216613770e-01
4.920000000000000000e+02 6.611975860595703125e+01 9.190838813781738281e+00 9.811980724334716797e-01 7.971731185913085938e+00 2.685878753662109375e+00 2.941215932369232178e-01
4.930000000000000000e+02 7.316654205322265625e+01 1.831141710281372070e+00 6.979029625654220581e-02 6.945466041564941406e+00 2.104576826095581055e+00 -7.243212461471557617e-01
4.940000000000000000e+02 5.978389739990234375e+01 -1.928224444389343262e+00 1.456259846687316895e+00 3.262562751770019531e+00 1.415646791458129883e+00 1.374957442283630371e+00
4.950000000000000000e+02 6.314094161987304688e+01 -1.214263916015625000e+01 -4.774628162384033203e+00 -7.146826386451721191e-01 -1.646793246269226074e+00 -1.291225552558898926e+00
4.960000000000000000e+02 5.860499954223632812e+01 4.067778015136718750e+01 3.501307666301727295e-01 3.550542593002319336e+00 1.170202016830444336e+00 -3.221241757273674011e-02
4.970000000000000000e+02 6.294732666015625000e+01 4.100273132324218750e+01 2.358947694301605225e-01 4.490787982940673828e+00 1.418004870414733887e+00 -4.519810155034065247e-02
4.980000000000000000e+02 6.162024307250976562e+01 1.989039230346679688e+01 1.287300109863281250e+00 7.285366535186767578e+00 2.571799993515014648e+00 -2.112870693206787109e+00
4.990000000000000000e+02 6.074909973144531250e+01 2.092364311218261719e+01 -2.552464008331298828e-01 3.472539663314819336e+00 9.651879668235778809e-01 -1.771097064018249512e+00
5.000000000000000000e+02 6.297846603393554688e+01 1.905822563171386719e+01 1.094925522804260254e+00 8.769817352294921875e+00 2.959423065185546875e+00 -1.108753561973571777e+00
5.010000000000000000e+02 6.251397323608398438e+01 1.640885162353515625e+01 3.395572006702423096e-01 1.127667427062988281e+01 3.484869480133056641e+00 -6.480736732482910156e-01
5.020000000000000000e+02 6.427172088623046875e+01 1.722313499450683594e+01 1.105574369430541992e+00 8.456952095031738281e+00 2.868757963180541992e+00 -1.606193929910659790e-01
5.030000000000000000e+02 6.217004394531250000e+01 1.229077816009521484e+01 2.757489681243896484e-01 1.102134132385253906e+01 3.389127016067504883e+00 8.202021718025207520e-01
5.040000000000000000e+02 6.190137863159179688e+01 9.546693801879882812e+00 8.149801492691040039e-01 1.053236770629882812e+01 3.404204368591308594e+00 1.941182374954223633e+00
5.050000000000000000e+02 6.157907867431640625e+01 8.129854202270507812e+00 7.507832646369934082e-01 9.246653556823730469e+00 2.999231100082397461e+00 2.363421678543090820e+00
5.060000000000000000e+02 6.268854904174804688e+01 2.886835336685180664e+00 9.567032456398010254e-01 6.032001495361328125e+00 2.096611499786376953e+00 1.062414169311523438e+00
5.070000000000000000e+02 5.886544036865234375e+01 3.058113098144531250e+00 1.678346633911132812e+00 3.897057056427001953e+00 1.672621130943298340e+00 2.493220329284667969e+00
5.080000000000000000e+02 5.648732757568359375e+01 -3.920935690402984619e-01 2.097210884094238281e+00 3.525119781494140625e+00 1.686699151992797852e+00 2.523317337036132812e+00
5.090000000000000000e+02 5.562261581420898438e+01 -1.510411262512207031e+00 2.393057584762573242e+00 3.155849933624267578e+00 1.664672255516052246e+00 2.638093709945678711e+00
5.100000000000000000e+02 5.493811035156250000e+01 -4.451333999633789062e+00 2.087345123291015625e+00 2.316683053970336914e+00 1.321208477020263672e+00 2.007189512252807617e+00
5.110000000000000000e+02 5.375316619873046875e+01 -3.627291202545166016e+00 2.598112821578979492e+00 2.735194206237792969e+00 1.599992156028747559e+00 2.646267175674438477e+00
5.120000000000000000e+02 5.074288177490234375e+01 -5.427705287933349609e+00 1.086208462715148926e+00 7.376189231872558594e-01 5.471482276916503906e-01 1.579836606979370117e+00
5.130000000000000000e+02 4.941757202148437500e+01 -5.341662883758544922e+00 -1.750438570976257324e+00 -2.033851742744445801e-01 -5.861471295356750488e-01 9.162738323211669922e-01
5.140000000000000000e+02 4.674423217773437500e+01 -4.750910282135009766e+00 -3.872570991516113281e+00 -4.004534780979156494e-01 -1.281907320022583008e+00 1.242264509201049805e+00
5.150000000000000000e+02 4.295122146606445312e+01 -5.491710186004638672e+00 -1.442491650581359863e+00 3.182142019271850586e+00 5.218951106071472168e-01 -1.564193010330200195e+00
5.160000000000000000e+02 4.285007476806640625e+01 -3.823740005493164062e+00 -1.718018293380737305e+00 1.600346446037292480e+00 -3.530152887105941772e-02 -6.734603047370910645e-01
5.170000000000000000e+02 4.038237380981445312e+01 -1.299727201461791992e+00 2.096409320831298828e+00 9.244436264038085938e+00 3.402253866195678711e+00 -3.735750436782836914e+00
5.180000000000000000e+02 3.986758422851562500e+01 -3.068678617477416992e+00 -1.023535251617431641e+00 8.515637397766113281e+00 2.247630596160888672e+00 -1.865037083625793457e+00
5.190000000000000000e+02 2.882239532470703125e+01 -1.029361486434936523e+00 6.094044208526611328e+00 4.050014317035675049e-01 1.949713587760925293e+00 3.137858510017395020e-01
5.200000000000000000e+02 2.851005554199218750e+01 3.227244317531585693e-02 6.485814571380615234e+00 4.570086896419525146e-01 2.082847118377685547e+00 -7.836611866950988770e-01
5.210000000000000000e+02 2.751718711853027344e+01 -3.508247435092926025e-01 5.596421718597412109e+00 5.454425141215324402e-02 1.695289731025695801e+00 -3.196428418159484863e-01
5.220000000000000000e+02 2.665528106689453125e+01 5.852743983268737793e-01 4.105710506439208984e+00 -6.509909033775329590e-02 1.212183356285095215e+00 -7.214265465736389160e-01
5.230000000000000000e+02 2.060668945312500000e+01 1.157508730888366699e+00 7.388875484466552734e+00 7.844733238220214844e+00 4.570082664489746094e+00 3.826873004436492920e-01
5.240000000000000000e+02 2.036432075500488281e+01 -5.995714068412780762e-01 6.413630008697509766e+00 9.621633529663085938e+00 4.810578823089599609e+00 -3.666026592254638672e+00
5.250000000000000000e+02 6.043117904663085938e+01 3.735160446166992188e+01 2.551102936267852783e-01 3.907246828079223633e+00 1.248707175254821777e+00 -1.580399721860885620e-01
5.260000000000000000e+02 5.856070709228515625e+01 3.188619613647460938e+01 1.867030709981918335e-01 3.104679584503173828e+00 9.874148368835449219e-01 -3.387746810913085938e-01
5.270000000000000000e+02 5.609775161743164062e+01 2.153332519531250000e+01 -3.329954147338867188e+00 1.544556021690368652e-01 -9.526495933532714844e-01 -3.918238282203674316e-01
5.280000000000000000e+02 5.467082214355468750e+01 2.139101219177246094e+01 -2.942169427871704102e+00 -1.347635239362716675e-01 -9.230798482894897461e-01 -2.672207355499267578e-01
5.290000000000000000e+02 5.995498275756835938e+01 2.233300971984863281e+01 -1.356734633445739746e+00 2.446647167205810547e+00 3.269737362861633301e-01 -1.413787364959716797e+00
5.300000000000000000e+02 5.184089660644531250e+01 4.041035842895507812e+01 2.804792225360870361e-01 2.835293531417846680e+00 9.347318410873413086e-01 1.033235937356948853e-01
5.310000000000000000e+02 5.102159500122070312e+01 3.665520858764648438e+01 1.971744596958160400e-01 2.662495136260986328e+00 8.579008579254150391e-01 3.201398253440856934e-01
5.320000000000000000e+02 4.920491409301757812e+01 2.889261054992675781e+01 -1.720073968172073364e-01 2.224045515060424805e+00 6.156114935874938965e-01 1.100544810295104980e+00
5.330000000000000000e+02 4.969945144653320312e+01 2.129316520690917969e+01 -7.180101871490478516e-01 1.107681751251220703e+00 1.169014722108840942e-01 9.227069616317749023e-01
5.340000000000000000e+02 4.917262268066406250e+01 1.928616142272949219e+01 3.759782761335372925e-02 6.239203810691833496e-01 1.984554678201675415e-01 5.130077600479125977e-01
5.350000000000000000e+02 5.179203414916992188e+01 2.057719802856445312e+01 -1.609722614288330078e+00 9.722976386547088623e-02 -4.537478387355804443e-01 -7.103446871042251587e-02
5.360000000000000000e+02 4.211255264282226562e+01 4.033142089843750000e+01 -4.166918098926544189e-01 3.000637531280517578e+00 7.751837372779846191e-01 1.564009040594100952e-01
5.370000000000000000e+02 4.371644973754882812e+01 3.055940055847167969e+01 -6.159227490425109863e-01 3.252948045730590820e+00 7.911075949668884277e-01 9.673283696174621582e-01
5.380000000000000000e+02 4.387965393066406250e+01 2.224054527282714844e+01 -5.154370069503784180e-01 3.812679767608642578e+00 9.891728758811950684e-01 1.597438573837280273e+00
5.390000000000000000e+02 4.474016952514648438e+01 1.576244354248046875e+01 2.073564767837524414e+00 2.567290544509887695e+00 1.392256617546081543e+00 2.291503667831420898e+00
5.400000000000000000e+02 3.428600692749023438e+01 1.108870506286621094e+01 6.647464036941528320e-01 9.848005294799804688e+00 3.153825521469116211e+00 -1.229966402053833008e+00
5.410000000000000000e+02 4.266447830200195312e+01 1.383045578002929688e+01 2.744341611862182617e+00 4.859687805175781250e+00 2.281208753585815430e+00 3.467794179916381836e+00
5.420000000000000000e+02 3.700783920288085938e+01 4.040742874145507812e+01 -6.580709815025329590e-01 3.015011787414550781e+00 7.070822715759277344e-01 1.355082634836435318e-02
5.430000000000000000e+02 4.092131423950195312e+01 3.636531066894531250e+01 -5.807941555976867676e-01 3.146080493927001953e+00 7.695858478546142578e-01 3.576496541500091553e-01
5.440000000000000000e+02 4.070100402832031250e+01 2.985294151306152344e+01 -9.019522666931152344e-01 3.731523036956787109e+00 8.488712310791015625e-01 7.700932025909423828e-01
5.450000000000000000e+02 3.469665527343750000e+01 2.237605857849121094e+01 -7.804030776023864746e-01 5.309752941131591797e+00 1.358804941177368164e+00 -1.720325797796249390e-01
5.460000000000000000e+02 3.423663330078125000e+01 1.728163909912109375e+01 4.365752041339874268e-01 6.879713535308837891e+00 2.194886684417724609e+00 -1.051005840301513672e+00
5.470000000000000000e+02 3.373389434814453125e+01 3.924124717712402344e+00 1.408483266830444336e+00 1.754378890991210938e+01 5.685681343078613281e+00 2.200085878372192383e+00
5.480000000000000000e+02 3.933150100708007812e+01 1.155522108078002930e+00 1.098296880722045898e+00 1.280417060852050781e+01 4.170740127563476562e+00 -2.400588035583496094e+00
5.490000000000000000e+02 3.201039886474609375e+01 4.059676742553710938e+01 -6.282166242599487305e-01 2.729791879653930664e+00 6.304726004600524902e-01 -5.527427792549133301e-02
5.500000000000000000e+02 3.034019470214843750e+01 3.704342651367187500e+01 -6.291753649711608887e-01 2.630341291427612305e+00 6.003497838973999023e-01 -2.180193960666656494e-01
5.510000000000000000e+02 2.862589836120605469e+01 3.060436058044433594e+01 -6.934058666229248047e-01 2.438802242279052734e+00 5.236188769340515137e-01 -6.779342889785766602e-01
5.520000000000000000e+02 2.714658927917480469e+01 2.152711486816406250e+01 -4.687773883342742920e-01 4.386351704597473145e-01 -9.042663499712944031e-03 -3.786948025226593018e-01
5.530000000000000000e+02 2.584083938598632812e+01 2.195279312133789062e+01 -1.279330968856811523e+00 1.313478946685791016e-01 -3.443949222564697266e-01 -4.198539629578590393e-02
5.540000000000000000e+02 2.844379997253417969e+01 2.099220657348632812e+01 7.200028300285339355e-01 1.563318133354187012e+00 6.849962472915649414e-01 -1.256440639495849609e+00
5.550000000000000000e+02 2.965598106384277344e+01 2.019119453430175781e+01 1.468354344367980957e+00 3.945655107498168945e+00 1.624202847480773926e+00 -2.020545244216918945e+00
5.560000000000000000e+02 3.034655952453613281e+01 2.148613548278808594e+01 -1.695246100425720215e-01 4.248254299163818359e+00 1.223618865013122559e+00 -1.283043384552001953e+00
5.570000000000000000e+02 3.057707023620605469e+01 1.900181007385253906e+01 1.318838596343994141e+00 5.460903167724609375e+00 2.033922433853149414e+00 -2.316686153411865234e+00
5.580000000000000000e+02 3.212333297729492188e+01 1.488791179656982422e+01 7.532230019569396973e-01 7.606180667877197266e+00 2.507821083068847656e+00 -2.242586374282836914e+00
5.590000000000000000e+02 3.251826477050781250e+01 1.353097629547119141e+01 7.291037440299987793e-01 8.368767738342285156e+00 2.729361295700073242e+00 -2.187156438827514648e+00
5.600000000000000000e+02 3.341195297241210938e+01 9.416137695312500000e+00 5.163632631301879883e-01 1.012623500823974609e+01 3.192779541015625000e+00 -1.353913784027099609e+00
5.610000000000000000e+02 3.694594955444335938e+01 2.865515947341918945e+00 2.221091032028198242e+00 1.248390960693359375e+01 4.411500453948974609e+00 6.190090179443359375e-01
5.620000000000000000e+02 3.274285888671875000e+01 9.879230856895446777e-01 5.563144207000732422e+00 8.953660011291503906e+00 4.355041503906250000e+00 5.369641780853271484e+00
5.630000000000000000e+02 3.096979522705078125e+01 -8.015452325344085693e-02 8.476394653320312500e+00 3.217801332473754883e+00 3.508258581161499023e+00 2.826624631881713867e+00
5.640000000000000000e+02 2.292982864379882812e+01 4.113013458251953125e+01 -2.899967133998870850e-01 1.886908888816833496e+00 4.790736436843872070e-01 -2.863100729882717133e-02
5.650000000000000000e+02 2.340952873229980469e+01 3.012214469909667969e+01 -3.400604724884033203e-01 1.278919339179992676e+00 2.816576659679412842e-01 -3.409172892570495605e-01
5.660000000000000000e+02 1.974603080749511719e+01 2.247240066528320312e+01 -2.113163471221923828e+00 1.063294187188148499e-01 -6.020502448081970215e-01 -2.491260915994644165e-01
5.670000000000000000e+02 2.335491561889648438e+01 2.548183441162109375e+01 -6.931800842285156250e-01 3.693743050098419189e-01 -9.714173525571823120e-02 -3.917805850505828857e-01
5.680000000000000000e+02 2.455541229248046875e+01 2.236582565307617188e+01 -1.748729586601257324e+00 6.602350622415542603e-02 -5.048118233680725098e-01 1.406844705343246460e-01
5.690000000000000000e+02 1.685061645507812500e+01 4.094559478759765625e+01 -2.371479421854019165e-01 1.721420168876647949e+00 4.452816843986511230e-01 -5.980275105684995651e-03
5.700000000000000000e+02 2.008377647399902344e+01 3.972701644897460938e+01 -2.417536973953247070e-01 1.713844656944274902e+00 4.416272938251495361e-01 -8.867336437106132507e-03
5.710000000000000000e+02 1.562417507171630859e+01 3.171512603759765625e+01 -5.588333010673522949e-01 1.856435418128967285e+00 3.892806172370910645e-01 1.835703998804092407e-01
5.720000000000000000e+02 1.844102096557617188e+01 2.209473037719726562e+01 -1.666454434394836426e+00 6.481301039457321167e-03 -4.979919493198394775e-01 -2.812641300261020660e-02
5.730000000000000000e+02 1.908883857727050781e+01 2.379266548156738281e+01 -1.402808785438537598e+00 3.184978365898132324e-01 -3.252932727336883545e-01 5.113562345504760742e-01
5.740000000000000000e+02 1.251142406463623047e+01 4.120653152465820312e+01 -2.314500361680984497e-01 1.738640427589416504e+00 4.521571099758148193e-01 4.102511797100305557e-03
5.750000000000000000e+02 6.932768344879150391e+00 3.790044784545898438e+01 -1.768167018890380859e-01 1.757190823554992676e+00 4.741122424602508545e-01 -1.545556634664535522e-01
5.760000000000000000e+02 6.461237907409667969e+00 3.116064643859863281e+01 -3.773026764392852783e-01 1.808938741683959961e+00 4.294908344745635986e-01 -5.043860077857971191e-01
5.770000000000000000e+02 7.418498516082763672e+00 2.311640357971191406e+01 -3.696462213993072510e-01 2.232974529266357422e+00 5.589984655380249023e-01 -1.392699122428894043e+00
5.780000000000000000e+02 1.308079528808593750e+01 1.480002307891845703e+01 1.371826767921447754e+00 7.860951423645019531e+00 2.769833326339721680e+00 -1.571346759796142578e+00
5.790000000000000000e+02 1.371047401428222656e+01 9.907123565673828125e+00 2.369172811508178711e+00 6.020072460174560547e+00 2.516773462295532227e+00 -1.970065593719482422e+00
5.800000000000000000e+02 4.041575193405151367e-01 3.555385828018188477e+00 -7.000428624451160431e-03 -5.665280818939208984e-01 -1.720585525035858154e-01 1.273034065961837769e-01
5.810000000000000000e+02 1.034807205200195312e+01 1.876440644264221191e+00 -2.051173210144042969e+00 1.789068281650543213e-01 -5.616798996925354004e-01 4.144419133663177490e-01
5.820000000000000000e+02 1.109885215759277344e+01 1.869843006134033203e+00 -2.090167045593261719e+00 2.521521151065826416e-01 -5.514044761657714844e-01 2.377527505159378052e-01
5.830000000000000000e+02 1.108141517639160156e+01 2.596975803375244141e+00 -1.424209475517272949e+00 4.376815259456634521e-01 -2.959583997726440430e-01 2.362398356199264526e-01
5.840000000000000000e+02 2.059422874450683594e+01 3.874538421630859375e+00 -1.942384243011474609e+00 5.022011280059814453e+00 9.238880276679992676e-01 -9.618082642555236816e-01
5.850000000000000000e+02 1.993576049804687500e+01 1.792078971862792969e+00 3.006753444671630859e+00 1.184249401092529297e+01 4.454774379730224609e+00 -3.994399011135101318e-01
5.860000000000000000e+02 2.078642368316650391e+00 4.160111999511718750e+01 -4.282508511096239090e-03 1.882650971412658691e+00 5.635105371475219727e-01 -1.266633975319564342e-03
5.870000000000000000e+02 5.334544181823730469e+00 3.701882934570312500e+01 -1.263410300016403198e-01 1.770497083663940430e+00 4.932468235492706299e-01 -1.637790650129318237e-01
5.880000000000000000e+02 2.141911745071411133e+00 3.670618820190429688e+01 -2.836751192808151245e-02 1.774048089981079102e+00 5.237041711807250977e-01 -8.955737948417663574e-02
5.890000000000000000e+02 1.903536081314086914e+00 2.896274185180664062e+01 -6.731517612934112549e-02 1.076532244682312012e+00 3.027651309967041016e-01 -3.637758493423461914e-01
5.900000000000000000e+02 2.060409307479858398e+00 2.338958549499511719e+01 -4.536256194114685059e-02 -1.052759587764739990e-01 -4.519155621528625488e-02 -6.791012883186340332e-01
5.910000000000000000e+02 1.969259500503540039e+00 1.759864044189453125e+01 7.615769654512405396e-02 -1.621587991714477539e+00 -4.636290669441223145e-01 -5.034860372543334961e-01
5.920000000000000000e+02 1.785352706909179688e+00 1.180940341949462891e+01 1.122558787465095520e-01 -2.250333786010742188e+00 -6.414233446121215820e-01 1.802649050951004028e-01
5.930000000000000000e+02 1.731422066688537598e+00 8.944956779479980469e+00 8.272209018468856812e-02 -1.906479597091674805e+00 -5.471272468566894531e-01 4.692088663578033447e-01
5.940000000000000000e+02 1.638531875610351562e+01 -1.584092855453491211e+00 1.404162645339965820e+00 1.215098381042480469e+00 7.857783436775207520e-01 2.035251140594482422e+00
5.950000000000000000e+02 1.492475700378417969e+01 -1.325258255004882812e+01 2.131825447082519531e+00 6.574178695678710938e+00 2.611801385879516602e+00 2.470694303512573242e+00
5.960000000000000000e+02 1.608819961547851562e+01 1.894433498382568359e+00 4.070258736610412598e-01 1.133557200431823730e+00 4.621749222278594971e-01 -2.595063209533691406e+00
5.970000000000000000e+02 1.651651382446289062e+01 2.442556858062744141e+00 9.895868301391601562e-01 2.254158735275268555e+00 9.731236696243286133e-01 -3.832654714584350586e+00
5.980000000000000000e+02 1.458180618286132812e+01 1.068296241760253906e+01 2.727760791778564453e+00 7.856900691986083984e+00 3.175398588180541992e+00 -2.886310338973999023e+00
5.990000000000000000e+02 1.459533405303955078e+01 1.385745906829833984e+01 9.452941417694091797e-01 1.139953327178955078e+01 3.703448057174682617e+00 -2.468050718307495117e+00
6.000000000000000000e+02 1.431673812866210938e+01 1.525360679626464844e+01 7.873905301094055176e-01 1.078052806854248047e+01 3.470375537872314453e+00 -1.096134185791015625e+00
6.010000000000000000e+02 1.419717597961425781e+01 1.806342315673828125e+01 8.667369484901428223e-01 9.510678291320800781e+00 3.113224506378173828e+00 4.551282823085784912e-01
6.020000000000000000e+02 1.158397960662841797e+01 1.757914352416992188e+01 1.089317083358764648e+00 5.461857318878173828e+00 1.965352296829223633e+00 -1.268241524696350098e+00
6.030000000000000000e+02 1.488358592987060547e+01 2.018382072448730469e+01 1.068898677825927734e+00 6.352670192718505859e+00 2.226470708847045898e+00 1.806521892547607422e+00
6.040000000000000000e+02 1.590029144287109375e+01 2.104334831237792969e+01 4.327363669872283936e-01 2.168316602706909180e+00 7.803158760070800781e-01 1.386644244194030762e+00
6.050000000000000000e+02 1.787858200073242188e+01 2.337140464782714844e+01 -1.079042196273803711e+00 9.129385352134704590e-01 -4.983108863234519958e-02 6.480399370193481445e-01
6.060000000000000000e+02 3.313330841064453125e+01 1.079994678497314453e+01 3.486447334289550781e-01 9.192210197448730469e+00 2.862256526947021484e+00 -1.698667168617248535e+00
6.070000000000000000e+02 4.399201202392578125e+01 1.679653930664062500e+01 1.317258358001708984e+00 3.577458858489990234e+00 1.468415141105651855e+00 2.246253728866577148e+00
6.080000000000000000e+02 4.688108825683593750e+01 1.758678627014160156e+01 1.256702542304992676e+00 1.438948988914489746e+00 8.086954355239868164e-01 1.363008737564086914e+00
6.090000000000000000e+02 6.699434661865234375e+01 -2.379637527465820312e+01 1.686662316322326660e+00 5.421946525573730469e+00 2.132582664489746094e+00 2.977002859115600586e+00
6.100000000000000000e+02 6.419321441650390625e+01 -2.707629013061523438e+01 -4.039995968341827393e-01 1.112827301025390625e+00 2.126483172178268433e-01 3.031781315803527832e-01
6.110000000000000000e+02 4.770616149902343750e+01 -2.841913986206054688e+01 3.039133071899414062e+00 5.990184783935546875e+00 2.708795309066772461e+00 -3.705571651458740234e+00
6.120000000000000000e+02 4.552869415283203125e+01 -2.478503608703613281e+01 2.159940481185913086e+00 1.406167221069335938e+01 4.866483688354492188e+00 -3.640671014785766602e+00
6.130000000000000000e+02 4.514214324951171875e+01 -2.265454292297363281e+01 8.905201554298400879e-01 1.373287582397460938e+01 4.387019157409667969e+00 -1.377625346183776855e+00
6.140000000000000000e+02 3.546702957153320312e+01 -2.210492324829101562e+01 9.642035961151123047e-01 1.117329788208007812e+01 3.641250371932983398e+00 1.589893102645874023e+00
6.150000000000000000e+02 3.431010055541992188e+01 -2.480428504943847656e+01 1.798894166946411133e+00 5.932801723480224609e+00 2.319508790969848633e+00 2.776870965957641602e+00
6.160000000000000000e+02 3.552163696289062500e+01 -2.555110931396484375e+01 7.457237839698791504e-01 6.938966274261474609e+00 2.305407047271728516e+00 1.350306868553161621e+00
6.170000000000000000e+02 3.502715301513671875e+01 -2.352613449096679688e+01 1.611447215080261230e+00 8.932389259338378906e+00 3.163151025772094727e+00 2.685118198394775391e+00
6.180000000000000000e+02 4.184696197509765625e+01 -2.253324508666992188e+01 2.097222805023193359e+00 9.806235313415527344e+00 3.571037292480468750e+00 -1.528208732604980469e+00
6.190000000000000000e+02 4.541463470458984375e+01 -2.008362388610839844e+01 4.497629404067993164e-01 1.235922622680664062e+01 3.842696666717529297e+00 4.521764218807220459e-01
6.200000000000000000e+02 4.531046295166015625e+01 -2.138582420349121094e+01 1.393600553274154663e-01 1.210781669616699219e+01 3.674152851104736328e+00 -1.862255483865737915e-01
6.210000000000000000e+02 3.685321807861328125e+01 -1.751085662841796875e+01 1.048925161361694336e+00 1.204302215576171875e+01 3.927584171295166016e+00 -1.819705486297607422e+00
6.220000000000000000e+02 3.516608428955078125e+01 -1.490969562530517578e+01 1.248972773551940918e+00 1.507339668273925781e+01 4.896710872650146484e+00 -3.274703264236450195e+00
6.230000000000000000e+02 3.580033874511718750e+01 -1.325850391387939453e+01 2.157280921936035156e+00 1.227598857879638672e+01 4.329980850219726562e+00 -3.232863426208496094e+00
6.240000000000000000e+02 3.571199417114257812e+01 -1.915658760070800781e+01 3.344563841819763184e-01 1.255728721618652344e+01 3.867522954940795898e+00 -5.392210483551025391e-01
6.250000000000000000e+02 5.784415054321289062e+01 -3.711338043212890625e+01 5.359281301498413086e-01 7.250129580497741699e-01 3.782823383808135986e-01 -2.097503393888473511e-01
6.260000000000000000e+02 5.627965927124023438e+01 -3.069725418090820312e+01 -2.865426778793334961e+00 -2.474134713411331177e-01 -9.338520765304565430e-01 -4.664101302623748779e-01
6.270000000000000000e+02 4.807003402709960938e+01 -5.094955444335937500e+00 -3.386008739471435547e+00 -3.356657624244689941e-01 -1.116502404212951660e+00 1.175512433052062988e+00
6.280000000000000000e+02 4.747958755493164062e+01 -7.223742485046386719e+00 -1.943669021129608154e-01 1.987130045890808105e-01 1.303829718381166458e-03 1.481446146965026855e+00
6.290000000000000000e+02 5.842851638793945312e+01 -1.423389339447021484e+01 -2.331102371215820312e+00 6.340153981000185013e-03 -6.974286437034606934e-01 -3.038195073604583740e-01
6.300000000000000000e+02 5.711452102661132812e+01 -1.441616344451904297e+01 -2.285678863525390625e+00 8.517959713935852051e-02 -6.601498126983642578e-01 -1.468774229288101196e-01
6.310000000000000000e+02 5.806455993652343750e+01 -1.309601497650146484e+01 -1.945426821708679199e+00 3.488713204860687256e-01 -4.789666533470153809e-01 -9.943430125713348389e-02
6.320000000000000000e+02 1.310389709472656250e+01 -1.290188312530517578e+01 1.525738835334777832e+00 5.290560245513916016e+00 2.044889688491821289e+00 9.117684960365295410e-01
6.330000000000000000e+02 1.254585742950439453e+01 -1.546698188781738281e+01 2.013966560363769531e+00 5.911830902099609375e+00 2.377739191055297852e+00 1.078605413436889648e+00
6.340000000000000000e+02 1.573775577545166016e+01 -1.387791061401367188e+01 3.344494104385375977e+00 7.488727092742919922e+00 3.249966382980346680e+00 4.407541275024414062e+00
6.350000000000000000e+02 3.568012237548828125e+01 6.421443223953247070e-01 2.510223627090454102e+00 1.084502983093261719e+01 4.006576061248779297e+00 3.819406926631927490e-01
6.360000000000000000e+02 4.740719223022460938e+01 -1.210062313079833984e+01 9.472407102584838867e-01 2.670743942260742188e+00 1.085395336151123047e+00 1.676196336746215820e+00
6.370000000000000000e+02 4.426922607421875000e+01 -6.795537471771240234e+00 -9.362004399299621582e-01 2.304533243179321289e+00 4.104998707771301270e-01 -6.089953780174255371e-01
6.380000000000000000e+02 5.050814437866210938e+01 -1.289088439941406250e+01 8.773900270462036133e-01 7.635832428932189941e-01 4.922919869422912598e-01 1.824687480926513672e+00
6.390000000000000000e+02 7.936540222167968750e+01 -5.476313114166259766e+00 -3.095202334225177765e-02 8.060969352722167969e+00 2.409005165100097656e+00 -6.888058851473033428e-04
6.400000000000000000e+02 7.196354675292968750e+01 -3.590704679489135742e+00 -4.858960807323455811e-01 7.181532382965087891e+00 2.008690834045410156e+00 -8.763923048973083496e-01
6.410000000000000000e+02 7.065073394775390625e+01 -6.633546829223632812e+00 -1.107291460037231445e+00 7.490224361419677734e+00 1.914879798889160156e+00 -1.141733407974243164e+00
6.420000000000000000e+02 2.973060035705566406e+01 -9.443427622318267822e-02 8.176394462585449219e+00 3.449158072471618652e-01 2.556393146514892578e+00 5.907668173313140869e-02
6.430000000000000000e+02 8.926642417907714844e+00 -1.847452521324157715e+00 -1.051716089248657227e+00 9.410966932773590088e-02 -2.872819006443023682e-01 -2.648658156394958496e-01
6.440000000000000000e+02 7.937409973144531250e+01 -1.245176124572753906e+01 -1.756981131620705128e-03 6.697159767150878906e+00 2.008620738983154297e+00 2.287288606166839600e-01
6.450000000000000000e+02 1.348594760894775391e+01 -2.246835899353027344e+01 2.414419203996658325e-01 4.914387226104736328e+00 1.546748638153076172e+00 4.928496181964874268e-01
6.460000000000000000e+02 1.437057113647460938e+01 -2.351351547241210938e+01 -1.598869413137435913e-01 4.715846061706542969e+00 1.366787791252136230e+00 -4.622355401515960693e-01
6.470000000000000000e+02 7.945417404174804688e+00 -3.001558113098144531e+01 -5.486116409301757812e-01 2.028150081634521484e+00 4.438615143299102783e-01 8.197612166404724121e-01
6.480000000000000000e+02 1.872199058532714844e+01 -3.014528083801269531e+01 -1.056920409202575684e+00 1.200484633445739746e+00 4.306926205754280090e-02 -4.264823794364929199e-01
6.490000000000000000e+02 3.712728881835937500e+01 -4.111557006835937500e+01 -1.673608422279357910e+00 5.020671367645263672e+00 1.004118919372558594e+00 2.040099948644638062e-01
6.500000000000000000e+02 3.451899719238281250e+01 -2.885370445251464844e+01 -2.739467024803161621e-01 4.842425346374511719e+00 1.370543599128723145e+00 1.456377983093261719e+00
6.510000000000000000e+02 4.202659225463867188e+01 -3.004830169677734375e+01 -2.874606549739837646e-01 7.716508865356445312e+00 2.228714466094970703e+00 -3.222111165523529053e-01
6.520000000000000000e+02 6.368190383911132812e+01 -3.826108169555664062e+01 4.769331216812133789e-01 2.618574380874633789e+00 9.286522865295410156e-01 3.549592494964599609e-01
6.530000000000000000e+02 6.057561874389648438e+01 -2.961027717590332031e+01 -2.483708143234252930e+00 -2.163573354482650757e-01 -8.100196123123168945e-01 -7.214446067810058594e-01
6.540000000000000000e+02 7.246067810058593750e+01 -3.205657958984375000e+01 -7.200766801834106445e-01 7.805285453796386719e+00 2.125562667846679688e+00 -1.230697482824325562e-01
6.550000000000000000e+02 7.533126068115234375e+01 -3.375498580932617188e+01 -3.382070064544677734e-01 8.708964347839355469e+00 2.511227369308471680e+00 -2.603535056114196777e-01
6.560000000000000000e+02 7.005964660644531250e+01 -3.536680984497070312e+01 -3.791692852973937988e-01 6.355905055999755859e+00 1.793020725250244141e+00 3.356675803661346436e-01
6.570000000000000000e+02 2.102782821655273438e+01 -3.054345703125000000e+01 -1.293550491333007812e+00 5.293004512786865234e-01 -2.292750030755996704e-01 -3.977629840373992920e-01
6.580000000000000000e+02 7.309926605224609375e+01 4.496441364288330078e+00 2.267248779535293579e-01 6.877480030059814453e+00 2.131261587142944336e+00 -6.026443243026733398e-01
6.590000000000000000e+02 7.936322021484375000e+01 2.889122009277343750e+00 -7.078881841152906418e-03 6.949779510498046875e+00 2.082810163497924805e+00 -1.082754507660865784e-01
6.600000000000000000e+02 6.074432754516601562e+01 3.537567853927612305e+00 1.199943423271179199e+00 5.784923076629638672e+00 2.095459938049316406e+00 2.104424238204956055e+00
6.610000000000000000e+02 5.907781982421875000e+01 -3.127119302749633789e+00 1.586070179939270020e+00 2.750589370727539062e+00 1.300997853279113770e+00 1.347147345542907715e+00
6.620000000000000000e+02 6.582232666015625000e+01 1.204881000518798828e+01 9.714577794075012207e-01 8.472897529602050781e+00 2.833306550979614258e+00 3.302136957645416260e-01
6.630000000000000000e+02 7.936254882812500000e+01 8.462361335754394531e+00 2.115981420502066612e-03 6.167675971984863281e+00 1.850937485694885254e+00 -4.939335212111473083e-02
6.640000000000000000e+02 6.826406097412109375e+01 1.559550571441650391e+01 8.160489797592163086e-01 7.578500270843505859e+00 2.518364667892456055e+00 4.117377102375030518e-01
6.650000000000000000e+02 7.932372283935546875e+01 1.684962272644042969e+01 7.613894529640674591e-03 6.362179756164550781e+00 1.910938024520874023e+00 9.578931331634521484e-02
6.660000000000000000e+02 7.351098632812500000e+01 2.364056968688964844e+01 -1.719260811805725098e-01 7.187122821807861328e+00 2.104558944702148438e+00 5.891014933586120605e-01
6.670000000000000000e+02 7.932723236083984375e+01 2.387290191650390625e+01 -9.968007914721965790e-03 7.459859371185302734e+00 2.234967470169067383e+00 1.141784936189651489e-01
6.680000000000000000e+02 3.468276214599609375e+01 1.572620010375976562e+01 5.725271701812744141e-01 7.636204242706298828e+00 2.462619543075561523e+00 -1.037180542945861816e+00
6.690000000000000000e+02 3.505024337768554688e+01 6.523060798645019531e+00 7.337293624877929688e-01 1.316213417053222656e+01 4.168758869171142578e+00 8.120763301849365234e-01
6.700000000000000000e+02 6.711898040771484375e+01 2.967409896850585938e+01 -5.341600775718688965e-01 6.133233070373535156e+00 1.679721951484680176e+00 -2.264541536569595337e-01
6.710000000000000000e+02 7.938836669921875000e+01 2.933419799804687500e+01 -2.975569339469075203e-03 8.134227752685546875e+00 2.439375638961791992e+00 4.928809031844139099e-02
6.720000000000000000e+02 5.923630142211914062e+01 2.399440765380859375e+01 -1.061162233352661133e+00 2.008887767791748047e+00 2.843177020549774170e-01 -1.458070755004882812e+00
6.730000000000000000e+02 5.663351058959960938e+01 2.265704727172851562e+01 -1.886732935905456543e+00 -3.421110659837722778e-02 -5.762832164764404297e-01 -7.254663109779357910e-02
6.740000000000000000e+02 5.118661880493164062e+01 2.210844039916992188e+01 -1.056644201278686523e+00 7.259536981582641602e-01 -9.920715540647506714e-02 7.348269224166870117e-01
6.750000000000000000e+02 4.333873748779296875e+01 2.083734512329101562e+01 -3.368152976036071777e-01 4.082305908203125000e+00 1.123647212982177734e+00 1.638924360275268555e+00
6.760000000000000000e+02 3.619409561157226562e+01 2.090653228759765625e+01 -5.598400235176086426e-01 5.805008411407470703e+00 1.573550581932067871e+00 1.402958333492279053e-01
6.770000000000000000e+02 5.606280517578125000e+01 3.244228363037109375e+01 2.914660573005676270e-01 2.594424247741699219e+00 8.657671213150024414e-01 -3.208361566066741943e-02
6.780000000000000000e+02 5.091261672973632812e+01 3.113230895996093750e+01 6.753092259168624878e-02 2.226912975311279297e+00 6.883331537246704102e-01 7.533532381057739258e-01
6.790000000000000000e+02 3.679251861572265625e+01 3.058560562133789062e+01 -1.036898016929626465e+00 3.782286167144775391e+00 8.236164450645446777e-01 2.043331116437911987e-01
6.800000000000000000e+02 3.175373458862304688e+01 3.089325332641601562e+01 -9.108538031578063965e-01 3.127006053924560547e+00 6.648457050323486328e-01 -4.516406357288360596e-01
6.810000000000000000e+02 2.166980361938476562e+01 3.230194854736328125e+01 -2.677054107189178467e-01 1.431344628334045410e+00 3.490917682647705078e-01 -7.261566072702407837e-02
6.820000000000000000e+02 2.014333486557006836e+00 3.170328140258789062e+01 -4.483376070857048035e-02 1.417479515075683594e+00 4.117937088012695312e-01 -2.401007264852523804e-01
6.830000000000000000e+02 1.556621551513671875e+01 1.119715690612792969e+01 3.144035339355468750e+00 1.031787490844726562e+01 4.038572788238525391e+00 -4.901240825653076172e+00
6.840000000000000000e+02 1.262682151794433594e+01 1.182328033447265625e+01 2.348629713058471680e+00 6.072012424468994141e+00 2.526192665100097656e+00 -1.486603498458862305e+00
6.850000000000000000e+02 1.905168414115905762e+00 1.613731575012207031e+01 1.370061933994293213e-01 -1.942654132843017578e+00 -5.416943430900573730e-01 -3.540546298027038574e-01
6.860000000000000000e+02 3.903539657592773438e+01 4.708022594451904297e+00 1.061068251729011536e-01 1.472449588775634766e+01 4.449180603027343750e+00 6.301499605178833008e-01
6.870000000000000000e+02 3.456779098510742188e+01 9.672186851501464844e+00 5.997499823570251465e-01 1.069720935821533203e+01 3.389087677001953125e+00 -7.946292757987976074e-01
6.880000000000000000e+02 4.609563827514648438e+01 -2.600082588195800781e+01 2.747368812561035156e+00 1.186526107788085938e+01 4.383789062500000000e+00 -4.931300640106201172e+00
6.890000000000000000e+02 1.815379977226257324e+00 -1.744890975952148438e+01 1.051069572567939758e-01 -1.751011848449707031e+00 -4.937714934349060059e-01 2.033801823854446411e-01
6.900000000000000000e+02 8.209493637084960938e+00 -1.847301006317138672e+00 -9.981372356414794922e-01 7.120624184608459473e-02 -2.780793011188507080e-01 -3.318909406661987305e-01
6.910000000000000000e+02 6.778913497924804688e+00 -1.852271676063537598e+00 -8.264988064765930176e-01 2.945818193256855011e-02 -2.391121834516525269e-01 -4.141645431518554688e-01
6.920000000000000000e+02 4.647310256958007812e+00 -1.880452871322631836e+00 -5.025815963745117188e-01 -3.546656295657157898e-02 -1.614144593477249146e-01 -4.173302948474884033e-01
6.930000000000000000e+02 2.516041517257690430e+00 -1.996413707733154297e+00 -1.953950226306915283e-01 -1.311139017343521118e-01 -9.795267879962921143e-02 -2.886812388896942139e-01
6.940000000000000000e+02 2.605661153793334961e+00 -2.955790281295776367e+00 -1.653887629508972168e-01 -2.279440164566040039e-01 -1.179998293519020081e-01 -4.025202989578247070e-01
6.950000000000000000e+02 1.796390414237976074e+00 -2.068268775939941406e+00 -1.158758550882339478e-01 -1.536533832550048828e-01 -8.085877448320388794e-02 -2.099218368530273438e-01
6.960000000000000000e+02 1.076807975769042969e+00 -2.134295225143432617e+00 -4.901551082730293274e-02 -1.607126146554946899e-01 -6.291843950748443604e-02 -1.279480457305908203e-01
6.970000000000000000e+02 3.584944605827331543e-01 -2.185377836227416992e+00 -8.869308978319168091e-03 -1.132506728172302246e-01 -3.663599491119384766e-02 -3.954290598630905151e-02
6.980000000000000000e+02 2.001692771911621094e+00 -4.165007019042968750e+01 -9.554538875818252563e-03 2.081095457077026367e+00 6.214622855186462402e-01 2.753356238827109337e-03
6.990000000000000000e+02 8.971423149108886719e+00 -3.875746154785156250e+01 -3.794876635074615479e-01 1.769983530044555664e+00 4.171487390995025635e-01 1.701975017786026001e-01
7.000000000000000000e+02 9.638609886169433594e-01 -3.877390289306640625e+01 -6.174086593091487885e-03 2.046760320663452148e+00 6.121758818626403809e-01 3.609424829483032227e-02
7.010000000000000000e+02 9.003901481628417969e-01 -3.468836212158203125e+01 -1.473129447549581528e-02 1.725349903106689453e+00 5.131856203079223633e-01 1.110110580921173096e-01
7.020000000000000000e+02 9.287075996398925781e-01 -3.327474212646484375e+01 -2.102500386536121368e-02 1.540942788124084473e+00 4.559753537178039551e-01 1.377117186784744263e-01
7.030000000000000000e+02 7.398698329925537109e-01 -2.897192573547363281e+01 -6.716444477206096053e-05 6.434193849563598633e-01 1.930056512355804443e-01 2.041484266519546509e-01
7.040000000000000000e+02 7.015029788017272949e-01 -2.755286979675292969e+01 -1.357154455035924911e-02 2.314854860305786133e-01 6.537418067455291748e-02 2.158475071191787720e-01
7.050000000000000000e+02 6.765338182449340820e-01 -2.613554573059082031e+01 6.462685763835906982e-03 -2.226757407188415527e-01 -6.486392021179199219e-02 2.263540178537368774e-01
7.060000000000000000e+02 6.326724290847778320e-01 -2.189102554321289062e+01 5.321511998772621155e-03 -1.642346262931823730e+00 -4.911074042320251465e-01 1.938553899526596069e-01
7.070000000000000000e+02 6.226592659950256348e-01 -2.048048591613769531e+01 1.778401061892509460e-02 -2.053908109664916992e+00 -6.108372211456298828e-01 1.698862463235855103e-01
7.080000000000000000e+02 1.876132488250732422e+00 -2.026195526123046875e+01 7.152655720710754395e-02 -1.281595468521118164e+00 -3.630206882953643799e-01 4.437390267848968506e-01
7.090000000000000000e+02 5.977510213851928711e-01 -1.624820518493652344e+01 2.699451893568038940e-02 -2.772040843963623047e+00 -8.235138654708862305e-01 3.135298937559127808e-02
7.100000000000000000e+02 5.892888903617858887e-01 -1.483777523040771484e+01 1.107453182339668274e-02 -2.784648418426513672e+00 -8.320721983909606934e-01 -1.644222065806388855e-02
7.110000000000000000e+02 5.787456631660461426e-01 -1.342728805541992188e+01 2.165741100907325745e-02 -2.690637588500976562e+00 -8.006941080093383789e-01 -5.408200621604919434e-02
7.120000000000000000e+02 1.732741594314575195e+00 -1.323917770385742188e+01 7.059422880411148071e-02 -1.862101435661315918e+00 -5.374521613121032715e-01 -1.716342121362686157e-01
7.130000000000000000e+02 5.339992046356201172e-01 -9.198942184448242188e+00 1.518256845884025097e-03 -1.895892977714538574e+00 -5.683124065399169922e-01 -1.339069753885269165e-01
7.140000000000000000e+02 5.193818211555480957e-01 -7.787899494171142578e+00 4.565452225506305695e-03 -1.513123631477355957e+00 -4.525674581527709961e-01 -1.402394473552703857e-01
7.150000000000000000e+02 1.554546713829040527e+00 -7.638255119323730469e+00 1.019505411386489868e-02 -1.138278961181640625e+00 -3.384251594543457031e-01 -3.975620269775390625e-01
7.160000000000000000e+02 1.513307571411132812e+00 -6.181050300598144531e+00 -9.490305557847023010e-03 -8.505905270576477051e-01 -2.580242455005645752e-01 -3.877519071102142334e-01
7.170000000000000000e+02 7.359722900390625000e+01 -3.830410385131835938e+01 -1.169098988175392151e-01 7.638192176818847656e+00 2.256384611129760742e+00 -7.993065565824508667e-02
7.180000000000000000e+02 5.235268783569335938e+01 -4.103300857543945312e+01 8.608178049325942993e-02 2.169305801391601562e+00 6.766162514686584473e-01 -2.861729264259338379e-01
7.190000000000000000e+02 3.512469863891601562e+01 -3.624604034423828125e+01 -1.293828606605529785e+00 4.446147918701171875e+00 9.456957578659057617e-01 8.026568889617919922e-01
7.200000000000000000e+02 7.577170562744140625e+01 4.049662017822265625e+01 1.322997850365936756e-03 7.712470531463623047e+00 2.314137935638427734e+00 9.165944159030914307e-02
7.210000000000000000e+02 7.805018615722656250e+01 4.172317123413085938e+01 1.401162296533584595e-01 8.080816268920898438e+00 2.466279745101928711e+00 -3.922210633754730225e-02
7.220000000000000000e+02 7.745706939697265625e+01 3.631413650512695312e+01 -3.883587568998336792e-02 7.938477516174316406e+00 2.369892597198486328e+00 3.838628903031349182e-02
7.230000000000000000e+02 7.923604583740234375e+01 3.487527847290039062e+01 -2.878968836739659309e-03 8.359962463378906250e+00 2.507125139236450195e+00 1.940225623548030853e-02
7.240000000000000000e+02 7.788456726074218750e+01 3.350054168701171875e+01 -2.390724373981356621e-03 7.984318256378173828e+00 2.394578218460083008e+00 6.637161970138549805e-02
7.250000000000000000e+02 7.929177856445312500e+01 3.347906494140625000e+01 -6.119729951024055481e-03 8.323638916015625000e+00 2.495255708694458008e+00 2.825880050659179688e-02
7.260000000000000000e+02 7.935778808593750000e+01 3.070754623413085938e+01 -7.678134366869926453e-03 8.215531349182128906e+00 2.462356090545654297e+00 3.775249421596527100e-02
7.270000000000000000e+02 7.702682495117187500e+01 2.718475914001464844e+01 -7.574915140867233276e-02 7.577810764312744141e+00 2.250618457794189453e+00 2.959699630737304688e-01
7.280000000000000000e+02 7.939861297607421875e+01 2.660403060913085938e+01 -6.888784933835268021e-03 7.855904102325439453e+00 2.354704618453979492e+00 8.462458103895187378e-02
7.290000000000000000e+02 7.652607727050781250e+01 2.468634605407714844e+01 -6.741727143526077271e-02 7.369677066802978516e+00 2.190677881240844727e+00 4.098099768161773682e-01
7.300000000000000000e+02 7.936133575439453125e+01 2.524314880371093750e+01 -4.457352682948112488e-03 7.668270111083984375e+00 2.299143791198730469e+00 9.709841758012771606e-02
7.310000000000000000e+02 7.930887603759765625e+01 2.108243179321289062e+01 -5.334869958460330963e-03 7.006127357482910156e+00 2.100237607955932617e+00 1.262827217578887939e-01
7.320000000000000000e+02 7.930915832519531250e+01 1.967144012451171875e+01 5.698312073945999146e-03 6.772413730621337891e+00 2.033433675765991211e+00 1.234738230705261230e-01
7.330000000000000000e+02 7.931432342529296875e+01 1.825962448120117188e+01 6.971037015318870544e-03 6.554922103881835938e+00 1.968567967414855957e+00 1.105761528015136719e-01
7.340000000000000000e+02 7.934677886962890625e+01 1.404466629028320312e+01 5.908663384616374969e-03 6.097125530242919922e+00 1.830910205841064453e+00 4.964902997016906738e-02
7.350000000000000000e+02 7.935385131835937500e+01 1.264610862731933594e+01 1.793827116489410400e-02 6.035948276519775391e+00 1.816166043281555176e+00 2.201732620596885681e-02
7.360000000000000000e+02 7.935936737060546875e+01 1.125256156921386719e+01 4.451137501746416092e-03 6.026381492614746094e+00 1.809249758720397949e+00 -8.426332351518794894e-05
7.370000000000000000e+02 7.936261749267578125e+01 7.067623138427734375e+00 1.771024055778980255e-02 6.312204837799072266e+00 1.898974537849426270e+00 -7.365788519382476807e-02
7.380000000000000000e+02 7.936355590820312500e+01 5.673593044281005859e+00 -2.711419248953461647e-03 6.496494770050048828e+00 1.948135018348693848e+00 -8.711470663547515869e-02
7.390000000000000000e+02 7.936347198486328125e+01 4.283126354217529297e+00 1.479931361973285675e-02 6.712272167205810547e+00 2.018121480941772461e+00 -1.031593307852745056e-01
7.400000000000000000e+02 7.936364746093750000e+01 1.085268259048461914e-01 -1.206471119076013565e-02 7.445201396942138672e+00 2.229940891265869141e+00 -1.076298654079437256e-01
7.410000000000000000e+02 7.936314392089843750e+01 -1.284072518348693848e+00 2.017588354647159576e-03 7.675519466400146484e+00 2.303261280059814453e+00 -9.883363544940948486e-02
7.420000000000000000e+02 7.810655212402343750e+01 -3.891807079315185547e+00 -8.332343399524688721e-02 7.797080039978027344e+00 2.314126968383789062e+00 -1.449414342641830444e-01
7.430000000000000000e+02 7.936254119873046875e+01 -4.074958801269531250e+00 -7.575874216854572296e-03 8.006025314331054688e+00 2.399534702301025391e+00 -4.634498432278633118e-02
7.440000000000000000e+02 7.937722778320312500e+01 -8.264972686767578125e+00 -3.415254130959510803e-02 7.861463546752929688e+00 2.348193407058715820e+00 9.995000809431076050e-02
7.450000000000000000e+02 7.816259765625000000e+01 -1.087653160095214844e+01 -7.308328896760940552e-02 7.495388507843017578e+00 2.226691722869873047e+00 5.012537240982055664e-01
7.460000000000000000e+02 7.938053894042968750e+01 -1.105180072784423828e+01 -2.224828675389289856e-02 7.174453735351562500e+00 2.145661592483520508e+00 2.038530707359313965e-01
7.470000000000000000e+02 7.937422180175781250e+01 -1.523781871795654297e+01 4.294936731457710266e-02 5.786467552185058594e+00 1.748825073242187500e+00 1.647408008575439453e-01
7.480000000000000000e+02 7.814762115478515625e+01 -1.780273628234863281e+01 1.867638826370239258e-01 6.475803852081298828e+00 1.998770356178283691e+00 -7.523053791373968124e-03
7.490000000000000000e+02 7.938703918457031250e+01 -1.800583076477050781e+01 4.085583984851837158e-02 5.431132316589355469e+00 1.641596436500549316e+00 2.356002107262611389e-03
7.500000000000000000e+02 7.938471221923828125e+01 -2.353730964660644531e+01 7.612787187099456787e-03 7.103850841522216797e+00 2.133439064025878906e+00 -3.144241869449615479e-01
7.510000000000000000e+02 7.809042358398437500e+01 -2.459866142272949219e+01 -1.026953104883432388e-02 7.974339485168457031e+00 2.389220952987670898e+00 -8.497452735900878906e-01
7.520000000000000000e+02 7.936582183837890625e+01 -2.492362785339355469e+01 1.188532821834087372e-02 7.799065113067626953e+00 2.343285083770751953e+00 -3.364720940589904785e-01
7.530000000000000000e+02 7.934963989257812500e+01 -2.910876846313476562e+01 -3.466600924730300903e-02 9.536756515502929688e+00 2.850626945495605469e+00 -2.271380126476287842e-01
7.540000000000000000e+02 7.800959777832031250e+01 -3.157692337036132812e+01 -8.126331865787506104e-02 9.614014625549316406e+00 2.859825372695922852e+00 -3.564323782920837402e-01
7.550000000000000000e+02 7.933885192871093750e+01 -3.189049339294433594e+01 -2.915911190211772919e-02 1.020156288146972656e+01 3.051721334457397461e+00 -1.309753507375717163e-01
7.560000000000000000e+02 7.925688934326171875e+01 -3.601177597045898438e+01 4.123643040657043457e-03 1.047723293304443359e+01 3.144407033920288086e+00 -6.241749506443738937e-03
7.570000000000000000e+02 7.914768218994140625e+01 -3.736096572875976562e+01 -6.123209744691848755e-02 1.038773727416992188e+01 3.097951412200927734e+00 6.503240019083023071e-02
7.580000000000000000e+02 7.894708251953125000e+01 -3.869878387451171875e+01 9.911515517160296440e-04 1.024913215637207031e+01 3.075037240982055664e+00 9.083546698093414307e-02
7.590000000000000000e+02 7.860255432128906250e+01 -4.007138442993164062e+01 -8.107770234346389771e-02 1.007325077056884766e+01 2.997651815414428711e+00 1.624218225479125977e-01
7.600000000000000000e+02 9.287047386169433594e+00 3.855009460449218750e+01 -2.208371907472610474e-01 1.781328558921813965e+00 4.681473970413208008e-01 -9.266833215951919556e-02
7.610000000000000000e+02 2.728279876708984375e+01 4.097636032104492188e+01 -4.496261179447174072e-01 2.247930288314819336e+00 5.394912958145141602e-01 -6.198950111865997314e-02
7.620000000000000000e+02 4.713383483886718750e+01 4.033753204345703125e+01 -5.749747529625892639e-02 2.822675466537475586e+00 8.295533657073974609e-01 1.766853630542755127e-01
7.630000000000000000e+02 4.076654016971588135e-01 2.184315681457519531e+00 -2.020012959837913513e-02 -1.880864500999450684e-01 -6.248597428202629089e-02 7.941436767578125000e-02
7.640000000000000000e+02 2.908064126968383789e+00 3.117704629898071289e+00 -2.710525691509246826e-01 -3.769139349460601807e-01 -1.943899542093276978e-01 7.170209288597106934e-01
7.650000000000000000e+02 5.407640933990478516e+00 2.839536428451538086e+00 -7.174250483512878418e-01 -8.916034549474716187e-02 -2.419756203889846802e-01 9.325828552246093750e-01
7.660000000000000000e+02 2.939125299453735352e+00 6.063489437103271484e+00 1.234786771237850189e-02 -8.851594328880310059e-01 -2.618434727191925049e-01 8.684576749801635742e-01
7.670000000000000000e+02 5.848683118820190430e-01 9.166897773742675781e+00 2.628244645893573761e-02 -2.671060323715209961e+00 -7.934333086013793945e-01 1.599146127700805664e-01
7.680000000000000000e+02 6.004884243011474609e-01 1.200894069671630859e+01 4.138734936714172363e-02 -3.227997541427612305e+00 -9.559830427169799805e-01 5.050662159919738770e-02
7.690000000000000000e+02 6.391072273254394531e-01 1.628188514709472656e+01 2.066329121589660645e-03 -2.961198806762695312e+00 -8.877397179603576660e-01 -1.375841200351715088e-01
7.700000000000000000e+02 6.569828391075134277e-01 1.771011161804199219e+01 4.237895086407661438e-02 -2.609181404113769531e+00 -7.700407505035400391e-01 -1.895958036184310913e-01
7.710000000000000000e+02 6.800196766853332520e-01 2.197961807250976562e+01 -7.586105260998010635e-03 -1.159325242042541504e+00 -3.500733971595764160e-01 -2.554630041122436523e-01
7.720000000000000000e+02 6.821768283843994141e-01 2.340250205993652344e+01 -5.557185504585504532e-03 -6.458824276924133301e-01 -1.954318732023239136e-01 -2.414926886558532715e-01
7.730000000000000000e+02 6.782620549201965332e-01 2.482475090026855469e+01 -1.060936693102121353e-02 -1.622382253408432007e-01 -5.185427889227867126e-02 -2.251193970441818237e-01
7.740000000000000000e+02 6.369683742523193359e-01 2.902955627441406250e+01 -1.361669413745403290e-02 9.793214797973632812e-01 2.897114455699920654e-01 -1.308305561542510986e-01
7.750000000000000000e+02 6.499537825584411621e-01 3.043271636962890625e+01 -9.968142956495285034e-03 1.237041831016540527e+00 3.681221008300781250e-01 -1.054927706718444824e-01
7.760000000000000000e+02 1.960101604461669922e+00 3.032994461059570312e+01 -5.775721371173858643e-02 1.264683723449707031e+00 3.620779812335968018e-01 -2.867799699306488037e-01
7.770000000000000000e+02 6.617006659507751465e-01 3.183130073547363281e+01 -1.399831753224134445e-02 1.432622671127319336e+00 4.255872964859008789e-01 -7.888128608465194702e-02
7.780000000000000000e+02 6.583068370819091797e-01 3.597706985473632812e+01 2.754872730292845517e-05 1.780077338218688965e+00 5.340314507484436035e-01 -3.542499244213104248e-02
7.790000000000000000e+02 2.830468654632568359e+00 3.765911102294921875e+01 -4.011724144220352173e-02 1.786941170692443848e+00 5.240471959114074707e-01 -8.393283188343048096e-02
7.800000000000000000e+02 1.038329839706420898e+00 3.861358261108398438e+01 1.693759812042117119e-03 1.869341254234313965e+00 5.613105297088623047e-01 -2.006951160728931427e-02
7.810000000000000000e+02 1.426246047019958496e+00 3.998613357543945312e+01 -1.456585526466369629e-02 1.880912184715270996e+00 5.599038600921630859e-01 -6.767902057617902756e-03
7.820000000000000000e+02 9.560609817504882812e+00 1.881159543991088867e+00 -1.960125684738159180e+00 1.556099057197570801e-01 -5.413547158241271973e-01 5.333186984062194824e-01
7.830000000000000000e+02 8.737089157104492188e+00 1.888041496276855469e+00 -1.815148234367370605e+00 9.122841805219650269e-02 -5.171759724617004395e-01 6.468315720558166504e-01
7.840000000000000000e+02 7.907831192016601562e+00 1.897755622863769531e+00 -1.631671547889709473e+00 6.504916399717330933e-02 -4.699867069721221924e-01 7.082800269126892090e-01
7.850000000000000000e+02 5.408650398254394531e+00 1.944683551788330078e+00 -9.841375350952148438e-01 -5.666374042630195618e-02 -3.122403621673583984e-01 7.529590725898742676e-01
7.860000000000000000e+02 4.574862480163574219e+00 1.970182895660400391e+00 -7.690657377243041992e-01 -8.992353081703186035e-02 -2.576967775821685791e-01 7.030394077301025391e-01
7.870000000000000000e+02 3.740269660949707031e+00 2.002534151077270508e+00 -5.653598308563232422e-01 -1.458684802055358887e-01 -2.133685052394866943e-01 6.343765258789062500e-01
7.880000000000000000e+02 2.902631521224975586e+00 2.042692422866821289e+00 -3.818300962448120117e-01 -1.923828125000000000e-01 -1.722638756036758423e-01 5.244916081428527832e-01
7.890000000000000000e+02 1.229501128196716309e+00 2.137918233871459961e+00 -9.293093532323837280e-02 -2.574852406978607178e-01 -1.051248535513877869e-01 2.359158396720886230e-01
7.900000000000000000e+02 1.184258556365966797e+01 1.859506487846374512e+00 -2.083829164505004883e+00 2.916685342788696289e-01 -5.376482009887695312e-01 6.193781644105911255e-02
7.910000000000000000e+02 1.331345462799072266e+01 1.840229630470275879e+00 -1.742021918296813965e+00 4.130461812019348145e-01 -3.986927270889282227e-01 -4.976252615451812744e-01
7.920000000000000000e+02 1.474935054779052734e+01 1.833353757858276367e+00 -1.060349106788635254e+00 5.247139930725097656e-01 -1.606905460357666016e-01 -1.234167814254760742e+00
7.930000000000000000e+02 1.542846298217773438e+01 1.832273006439208984e+00 -4.441239237785339355e-01 7.350096106529235840e-01 8.726571500301361084e-02 -1.795264601707458496e+00
7.940000000000000000e+02 1.577828502655029297e+01 2.202708721160888672e+00 2.792722880840301514e-01 1.175535917282104492e+00 4.364424645900726318e-01 -2.519943237304687500e+00
7.950000000000000000e+02 1.678648185729980469e+01 1.945977687835693359e+00 1.572696208953857422e+00 1.711052656173706055e+00 9.851246476173400879e-01 -3.685999870300292969e+00
7.960000000000000000e+02 1.790814971923828125e+01 1.981719732284545898e+00 2.524666070938110352e+00 5.120440006256103516e+00 2.293531656265258789e+00 -6.140002250671386719e+00
7.970000000000000000e+02 1.876045227050781250e+01 2.066647529602050781e+00 1.153654456138610840e+00 1.085579299926757812e+01 3.602834224700927734e+00 -5.990726470947265625e+00
7.980000000000000000e+02 1.896193885803222656e+01 2.042825937271118164e+00 9.432050585746765137e-01 1.203696632385253906e+01 3.894051551818847656e+00 -5.501418113708496094e+00
7.990000000000000000e+02 1.936855506896972656e+01 2.040583610534667969e+00 1.059348702430725098e+00 1.262781620025634766e+01 4.106149673461914062e+00 -3.233480215072631836e+00
8.000000000000000000e+02 1.974845123291015625e+01 1.884158492088317871e+00 2.128176450729370117e+00 1.261862087249755859e+01 4.424039363861083984e+00 -1.263907432556152344e+00
8.010000000000000000e+02 2.047099494934082031e+01 1.366052508354187012e+00 6.252240180969238281e+00 8.801343917846679688e+00 4.516075134277343750e+00 6.179243326187133789e-01
8.020000000000000000e+02 2.067246437072753906e+01 9.006160497665405273e-01 8.532652854919433594e+00 7.038403987884521484e+00 4.671317100524902344e+00 -1.639569997787475586e-01
8.030000000000000000e+02 2.066869163513183594e+01 1.942672431468963623e-01 9.694401741027832031e+00 7.139417171478271484e+00 5.050145626068115234e+00 -2.530272483825683594e+00
8.040000000000000000e+02 2.070187950134277344e+01 4.119351208209991455e-01 9.766682624816894531e+00 6.677595615386962891e+00 4.933283329010009766e+00 -1.624897599220275879e+00
8.050000000000000000e+02 2.087088394165039062e+01 -2.239384204149246216e-01 8.175705909729003906e+00 6.736801624298095703e+00 4.473752498626708984e+00 -3.254845857620239258e+00
8.060000000000000000e+02 2.047036361694335938e+01 -4.091534614562988281e-01 7.684281826019287109e+00 8.916199684143066406e+00 4.980144500732421875e+00 -3.816703796386718750e+00
8.070000000000000000e+02 1.966399574279785156e+01 -1.123379468917846680e+00 2.330366611480712891e+00 1.251472473144531250e+01 4.453527450561523438e+00 -7.309049367904663086e-01
8.080000000000000000e+02 1.985438537597656250e+01 -1.030990958213806152e+00 3.209250450134277344e+00 1.210003089904785156e+01 4.592784404754638672e+00 -1.765817999839782715e+00
8.090000000000000000e+02 1.761453628540039062e+01 -1.346469879150390625e+00 2.567893028259277344e+00 2.900270700454711914e+00 1.640449166297912598e+00 3.425149440765380859e+00
8.100000000000000000e+02 1.742559051513671875e+01 -1.380202651023864746e+00 2.459949970245361328e+00 2.412791490554809570e+00 1.461822390556335449e+00 3.119922876358032227e+00
8.110000000000000000e+02 1.702662086486816406e+01 -1.424188613891601562e+00 2.086915016174316406e+00 1.646985411643981934e+00 1.120170116424560547e+00 2.615060567855834961e+00
8.120000000000000000e+02 1.682870674133300781e+01 -1.471089959144592285e+00 1.912365794181823730e+00 1.450176715850830078e+00 1.008762717247009277e+00 2.416344881057739258e+00
8.130000000000000000e+02 1.661279678344726562e+01 -1.560942769050598145e+00 1.649532675743103027e+00 1.295106768608093262e+00 8.833918571472167969e-01 2.241526842117309570e+00
8.140000000000000000e+02 1.574568557739257812e+01 -1.629863619804382324e+00 7.985122799873352051e-01 6.558707952499389648e-01 4.363149106502532959e-01 1.498440504074096680e+00
8.150000000000000000e+02 1.333170890808105469e+01 -1.751755118370056152e+00 -5.677688717842102051e-01 2.633648812770843506e-01 -9.132120013236999512e-02 5.424425005912780762e-01
8.160000000000000000e+02 1.395365619659423828e+01 -1.716415524482727051e+00 -3.712092339992523193e-01 2.561993896961212158e-01 -3.450295329093933105e-02 7.004958987236022949e-01
8.170000000000000000e+02 1.038952255249023438e+01 -1.846069693565368652e+00 -1.084178447723388672e+00 1.379567831754684448e-01 -2.838664948940277100e-01 -8.332896232604980469e-02
8.180000000000000000e+02 3.119451332092285156e+01 1.761346244812011719e+01 1.094475746154785156e+00 6.622959136962890625e+00 2.315230369567871094e+00 -2.382097721099853516e+00
8.190000000000000000e+02 3.168766021728515625e+01 1.624567794799804688e+01 8.585224151611328125e-01 7.155910968780517578e+00 2.404330015182495117e+00 -2.292633533477783203e+00
8.200000000000000000e+02 3.365629577636718750e+01 7.996268749237060547e+00 2.961276471614837646e-01 1.146822357177734375e+01 3.529305219650268555e+00 -8.710172176361083984e-01
8.210000000000000000e+02 3.880822372436523438e+01 9.047883033752441406e+00 2.200835227966308594e+00 1.410630989074707031e+01 4.892143726348876953e+00 2.601156234741210938e+00
8.220000000000000000e+02 3.608497619628906250e+01 4.676807880401611328e+00 1.643778324127197266e+00 1.349108219146728516e+01 4.540458202362060547e+00 1.751299619674682617e+00
8.230000000000000000e+02 3.917842102050781250e+01 6.048993110656738281e+00 4.974199533462524414e-01 1.632063484191894531e+01 5.045416355133056641e+00 1.140561223030090332e+00
8.240000000000000000e+02 2.559360122680664062e+01 1.201102375984191895e+00 1.568657994270324707e+00 -1.119608044624328613e+00 1.347149610519409180e-01 3.237392008304595947e-01
8.250000000000000000e+02 1.771321105957031250e+01 2.176964998245239258e+00 2.304246187210083008e+00 4.594985961914062500e+00 2.069769620895385742e+00 -5.912226676940917969e+00
8.260000000000000000e+02 1.825237274169921875e+01 7.921004295349121094e+00 3.279666185379028320e+00 4.623395919799804688e+00 2.370918512344360352e+00 -3.943800210952758789e+00
8.270000000000000000e+02 1.635835647583007812e+01 1.000867176055908203e+01 3.825012922286987305e+00 8.161191940307617188e+00 3.595861434936523438e+00 -5.229687690734863281e+00
8.280000000000000000e+02 1.423069667816162109e+01 1.668207168579101562e+01 2.237431704998016357e-02 9.554523468017578125e+00 2.873069524765014648e+00 -4.763552248477935791e-01
8.290000000000000000e+02 1.372593498229980469e+01 1.951158905029296875e+01 1.102024674415588379e+00 7.440533638000488281e+00 2.562767505645751953e+00 2.382417619228363037e-01
8.300000000000000000e+02 2.100492286682128906e+01 2.285492897033691406e+01 -2.468588352203369141e+00 -2.174457907676696777e-01 -8.058102130889892578e-01 -4.204879328608512878e-02
8.310000000000000000e+02 6.244063186645507812e+01 1.502190589904785156e+01 2.108267247676849365e-01 1.105693626403808594e+01 3.380328893661499023e+00 -9.921152889728546143e-02
8.320000000000000000e+02 6.232946777343750000e+01 1.364427947998046875e+01 1.590217351913452148e-01 1.121698665618896484e+01 3.412802696228027344e+00 3.479025363922119141e-01
8.330000000000000000e+02 6.309131622314453125e+01 1.200813293457031250e+01 3.947039842605590820e-01 1.035251045227050781e+01 3.224164485931396484e+00 7.091038823127746582e-01
8.340000000000000000e+02 6.110968780517578125e+01 6.727887153625488281e+00 1.325059294700622559e+00 8.456057548522949219e+00 2.934335231781005859e+00 2.699638605117797852e+00
8.350000000000000000e+02 5.804153442382812500e+01 1.931812882423400879e+00 1.503209829330444336e+00 3.356597185134887695e+00 1.457942128181457520e+00 2.247004985809326172e+00
8.360000000000000000e+02 5.727051544189453125e+01 7.741041779518127441e-01 1.573997974395751953e+00 3.429937601089477539e+00 1.501180648803710938e+00 2.306415319442749023e+00
8.370000000000000000e+02 5.469898986816406250e+01 -2.583274126052856445e+00 2.503359556198120117e+00 2.828451871871948242e+00 1.599543452262878418e+00 2.578599452972412109e+00
8.380000000000000000e+02 5.277891540527343750e+01 -4.585458755493164062e+00 2.964604139328002930e+00 2.512961864471435547e+00 1.643269896507263184e+00 2.490587711334228516e+00
8.390000000000000000e+02 4.410663986206054688e+01 -4.120803356170654297e+00 -3.277964115142822266e+00 1.183473467826843262e-01 -9.478850364685058594e-01 5.488014817237854004e-01
8.400000000000000000e+02 4.158177566528320312e+01 -3.914462566375732422e+00 -1.040269374847412109e+00 4.429567337036132812e+00 1.016789436340332031e+00 -1.854111790657043457e+00
8.410000000000000000e+02 3.982316970825195312e+01 -5.451455339789390564e-02 1.482977271080017090e+00 1.142262935638427734e+01 3.871682167053222656e+00 -3.406344652175903320e+00
8.420000000000000000e+02 3.834080886840820312e+01 2.141423225402832031e+00 1.595046401023864746e+00 1.317793464660644531e+01 4.431894302368164062e+00 -8.797647953033447266e-01
8.430000000000000000e+02 3.378460311889648438e+01 5.180776596069335938e+00 4.015177488327026367e-02 1.431822872161865234e+01 4.307514190673828125e+00 3.011648952960968018e-01
8.440000000000000000e+02 3.377569198608398438e+01 6.564160346984863281e+00 4.052738249301910400e-01 1.254045581817626953e+01 3.883718967437744141e+00 -2.426740229129791260e-01
8.450000000000000000e+02 3.968879699707031250e+01 8.753695487976074219e+00 2.219600439071655273e+00 1.698031806945800781e+01 5.759975433349609375e+00 4.640717029571533203e+00
8.460000000000000000e+02 4.073795318603515625e+01 1.148126697540283203e+01 2.711842298507690430e+00 9.433124542236328125e+00 3.643490076065063477e+00 4.529643535614013672e+00
8.470000000000000000e+02 4.160028839111328125e+01 1.276298999786376953e+01 2.904165744781494141e+00 7.182206630706787109e+00 3.025911569595336914e+00 3.978713512420654297e+00
8.480000000000000000e+02 4.369335937500000000e+01 1.482115077972412109e+01 2.511866092681884766e+00 3.600831031799316406e+00 1.833809137344360352e+00 2.861032009124755859e+00
8.490000000000000000e+02 4.799745559692382812e+01 1.846169281005859375e+01 7.192980647087097168e-01 1.003756403923034668e+00 5.169163346290588379e-01 9.318034648895263672e-01
8.500000000000000000e+02 5.043724441528320312e+01 2.001556205749511719e+01 -8.414404988288879395e-01 2.920635640621185303e-01 -1.648130863904953003e-01 1.597373485565185547e-01
8.510000000000000000e+02 5.320275497436523438e+01 2.098159599304199219e+01 -2.198619365692138672e+00 4.667105153203010559e-02 -6.455844640731811523e-01 -2.673114836215972900e-01
8.520000000000000000e+02 5.736626052856445312e+01 2.163213729858398438e+01 -3.809640645980834961e+00 -2.535910308361053467e-01 -1.218969464302062988e+00 -3.352095484733581543e-01
8.530000000000000000e+02 6.837503051757812500e+01 -1.542921352386474609e+01 2.737725973129272461e+00 1.527384281158447266e+01 5.403470516204833984e+00 -4.546404361724853516e+00
8.540000000000000000e+02 6.879853057861328125e+01 -1.982835578918457031e+01 9.439066052436828613e-01 1.719840621948242188e+01 5.442694187164306641e+00 1.781280755996704102e+00
8.550000000000000000e+02 6.783752441406250000e+01 -2.261923980712890625e+01 2.358644485473632812e+00 1.036250400543212891e+01 3.816344499588012695e+00 3.932344675064086914e+00
8.560000000000000000e+02 6.608025360107421875e+01 -2.489031410217285156e+01 8.753029704093933105e-01 3.132069110870361328e+00 1.202211618423461914e+00 1.753960609436035156e+00
8.570000000000000000e+02 6.313417434692382812e+01 -2.808980560302734375e+01 -1.149500608444213867e+00 4.576450884342193604e-01 -2.075566351413726807e-01 -1.764097660779953003e-01
8.580000000000000000e+02 6.191232299804687500e+01 -2.892322349548339844e+01 -1.917561650276184082e+00 -6.768958643078804016e-03 -5.772991776466369629e-01 -5.407699942588806152e-01
8.590000000000000000e+02 5.917671585083007812e+01 -3.014542961120605469e+01 -2.769701957702636719e+00 -2.707968056201934814e-01 -9.121496081352233887e-01 -7.030287981033325195e-01
8.600000000000000000e+02 5.482535552978515625e+01 -3.079039192199707031e+01 -2.368976116180419922e+00 4.819153994321823120e-02 -6.962354183197021484e-01 -3.575232625007629395e-01
8.610000000000000000e+02 5.051958465576171875e+01 -3.148437118530273438e+01 5.553961917757987976e-02 1.786560893058776855e+00 5.526301860809326172e-01 -1.691960096359252930e+00
8.620000000000000000e+02 4.675514602661132812e+01 -2.729756164550781250e+01 3.144424915313720703e+00 8.816063880920410156e+00 3.588146686553955078e+00 -4.518582820892333984e+00
8.630000000000000000e+02 4.448735427856445312e+01 -2.385366821289062500e+01 2.234599828720092773e+00 1.271593666076660156e+01 4.485160827636718750e+00 -2.326642274856567383e+00
8.640000000000000000e+02 4.521068954467773438e+01 -1.736529541015625000e+01 2.160833835601806641e+00 8.468678474426269531e+00 3.188853740692138672e+00 1.639313101768493652e+00
8.650000000000000000e+02 5.305687332153320312e+01 -1.476926040649414062e+01 -5.798847079277038574e-01 6.575571000576019287e-02 -1.542386859655380249e-01 3.275049626827239990e-01
8.660000000000000000e+02 5.443016815185546875e+01 -1.468359088897705078e+01 -1.348850369453430176e+00 1.383501887321472168e-01 -3.631500601768493652e-01 1.389034688472747803e-01
8.670000000000000000e+02 5.577856826782226562e+01 -1.456152439117431641e+01 -1.948318481445312500e+00 5.492810159921646118e-04 -5.843307375907897949e-01 -3.654276020824909210e-03
8.680000000000000000e+02 3.478443145751953125e+01 -1.354351520538330078e+01 1.839802145957946777e+00 1.471150207519531250e+01 4.965391159057617188e+00 -4.482029438018798828e+00
8.690000000000000000e+02 3.542924499511718750e+01 -1.630105400085449219e+01 6.468246579170227051e-01 1.440163040161132812e+01 4.514536380767822266e+00 -2.127343893051147461e+00
8.700000000000000000e+02 3.568977737426757812e+01 -2.063101387023925781e+01 5.775933861732482910e-01 1.218508720397949219e+01 3.828804016113281250e+00 3.471783101558685303e-01
8.710000000000000000e+02 3.238899993896484375e+01 -2.694825363159179688e+01 9.935855865478515625e-01 2.291096210479736328e+00 9.854045510292053223e-01 1.506978750228881836e+00
8.720000000000000000e+02 3.135112190246582031e+01 -2.792849731445312500e+01 4.284753203392028809e-01 1.495018601417541504e+00 5.770481824874877930e-01 9.683100581169128418e-01
8.730000000000000000e+02 2.759934616088867188e+01 -2.970801544189453125e+01 -2.178678750991821289e+00 -1.823815889656543732e-02 -6.590750217437744141e-01 -3.328797593712806702e-02
8.740000000000000000e+02 2.022617721557617188e+01 -2.738628768920898438e+01 -5.290873646736145020e-01 1.430720388889312744e-01 -1.158045902848243713e-01 1.348154097795486450e-01
8.750000000000000000e+02 1.917947196960449219e+01 -2.648166465759277344e+01 -1.435576379299163818e-01 4.457270801067352295e-01 9.065083414316177368e-02 -1.782336086034774780e-01
8.760000000000000000e+02 1.632327461242675781e+01 -2.347578811645507812e+01 7.483555078506469727e-01 2.274091958999633789e+00 9.067342281341552734e-01 -1.234762549400329590e+00
8.770000000000000000e+02 1.457726192474365234e+01 -1.647228240966796875e+01 1.097897052764892578e+00 1.102927398681640625e+01 3.638151168823242188e+00 1.954976916313171387e+00
8.780000000000000000e+02 2.074414062500000000e+01 -1.149209308624267578e+01 -1.401663899421691895e+00 2.356351613998413086e-01 -3.498086333274841309e-01 -5.619522929191589355e-02
8.790000000000000000e+02 2.202646636962890625e+01 -1.115132522583007812e+01 -1.954482793807983398e+00 -7.231945544481277466e-02 -6.080406904220581055e-01 -3.716733157634735107e-01
8.800000000000000000e+02 2.444912338256835938e+01 -1.014966773986816406e+01 -2.136478900909423828e+00 -3.610214591026306152e-01 -7.492501139640808105e-01 -9.794197678565979004e-01
8.810000000000000000e+02 2.011413764953613281e+01 1.649256706237792969e+00 4.076396942138671875e+00 1.101332855224609375e+01 4.526917457580566406e+00 2.025262415409088135e-01
8.820000000000000000e+02 2.028592491149902344e+01 1.511662721633911133e+00 5.386837959289550781e+00 9.948389053344726562e+00 4.600568294525146484e+00 6.802098155021667480e-01
8.830000000000000000e+02 1.916128349304199219e+01 2.034670829772949219e+00 8.155192732810974121e-01 1.254977607727050781e+01 4.009588718414306641e+00 -4.551276683807373047e+00
8.840000000000000000e+02 2.362691879272460938e+01 -6.201845169067382812e+00 5.922447443008422852e-01 1.214606404304504395e+00 5.420553088188171387e-01 2.027784436941146851e-01
8.850000000000000000e+02 2.326054954528808594e+01 3.301753282546997070e+00 -2.361109972000122070e+00 -2.396779298782348633e+00 -1.427366733551025391e+00 2.790993452072143555e+00
8.860000000000000000e+02 2.673346519470214844e+01 -1.101283431053161621e+00 4.999845027923583984e+00 -5.687351226806640625e-01 1.329332947731018066e+00 1.720433831214904785e-01
8.870000000000000000e+02 2.004333686828613281e+01 -9.191264510154724121e-01 4.148361206054687500e+00 1.144486141204833984e+01 4.677966594696044922e+00 -2.620465993881225586e+00
8.880000000000000000e+02 2.024078941345214844e+01 -1.233842134475708008e+00 3.511826276779174805e+00 9.937817573547363281e+00 4.034893035888671875e+00 -2.295599460601806641e+00
8.890000000000000000e+02 2.444485473632812500e+01 1.436766266822814941e+00 1.664586305618286133e+00 -2.093765497207641602e+00 -1.287537664175033569e-01 7.137349843978881836e-01
8.900000000000000000e+02 2.055554199218750000e+01 -2.164283096790313721e-01 8.573196411132812500e+00 8.230426788330078125e+00 5.041087150573730469e+00 -3.618558168411254883e+00
8.910000000000000000e+02 2.072490310668945312e+01 6.455327868461608887e-01 9.226588249206542969e+00 6.642280101776123047e+00 4.760660648345947266e+00 -9.576111435890197754e-01
8.920000000000000000e+02 2.049488258361816406e+01 1.853828072547912598e+00 3.651778221130371094e+00 8.757929801940917969e+00 3.722912311553955078e+00 3.408137857913970947e-01
8.930000000000000000e+02 1.971878242492675781e+01 2.200780630111694336e+00 1.023575901985168457e+00 1.163315200805664062e+01 3.797018289566040039e+00 -1.956042766571044922e+00
8.940000000000000000e+02 1.853727340698242188e+01 2.112500667572021484e+00 1.460686445236206055e+00 9.242232322692871094e+00 3.210875749588012695e+00 -6.442615032196044922e+00
8.950000000000000000e+02 1.720883178710937500e+01 1.907300114631652832e+00 2.221098184585571289e+00 2.397058248519897461e+00 1.385446906089782715e+00 -4.487827301025390625e+00
8.960000000000000000e+02 1.756124877929687500e+01 1.888294339179992676e+00 2.769883394241333008e+00 3.564250230789184570e+00 1.900240063667297363e+00 -5.519838809967041016e+00
8.970000000000000000e+02 2.026964759826660156e+01 6.089562892913818359e+00 -2.120351195335388184e-01 1.890864133834838867e+00 5.036486983299255371e-01 -1.030690193176269531e+00
8.980000000000000000e+02 1.831821250915527344e+01 2.083791732788085938e+00 1.871722221374511719e+00 7.973868370056152344e+00 2.953677177429199219e+00 -6.639647483825683594e+00
8.990000000000000000e+02 1.951734352111816406e+01 5.632760047912597656e+00 -1.173507809638977051e+00 4.340982437133789062e+00 9.502424001693725586e-01 -2.111488819122314453e+00
9.000000000000000000e+02 1.739169502258300781e+01 1.881404519081115723e+00 2.509964227676391602e+00 2.812060832977294922e+00 1.596607565879821777e+00 -4.928565979003906250e+00
9.010000000000000000e+02 1.810227584838867188e+01 2.031383275985717773e+00 2.355001926422119141e+00 6.172837257385253906e+00 2.558351755142211914e+00 -6.522481441497802734e+00
9.020000000000000000e+02 1.655346107482910156e+01 1.950846552848815918e+00 1.159642696380615234e+00 1.523766756057739258e+00 8.050228357315063477e-01 -3.295930862426757812e+00
9.030000000000000000e+02 1.588006210327148438e+01 1.833182573318481445e+00 4.085395857691764832e-02 7.786307334899902344e-01 2.458454072475433350e-01 -2.166942119598388672e+00
9.040000000000000000e+02 1.456386470794677734e+01 -2.720614671707153320e+00 3.642092049121856689e-01 8.555616736412048340e-01 3.659312725067138672e-01 1.457557559013366699e+00
9.050000000000000000e+02 1.819395446777343750e+01 -1.418854951858520508e+00 2.315686702728271484e+00 5.823534488677978516e+00 2.441766262054443359e+00 4.061604022979736328e+00
9.060000000000000000e+02 1.864235305786132812e+01 -1.337613701820373535e+00 1.947241783142089844e+00 8.678423881530761719e+00 3.187699794769287109e+00 3.978788137435913086e+00
9.070000000000000000e+02 1.906024551391601562e+01 -1.269694924354553223e+00 1.617694497108459473e+00 1.105893611907958984e+01 3.802989244461059570e+00 2.534231424331665039e+00
9.080000000000000000e+02 1.797925567626953125e+01 -1.379576206207275391e+00 2.515482187271118164e+00 4.631371498107910156e+00 2.144056081771850586e+00 3.926044464111328125e+00
9.090000000000000000e+02 1.768012619018554688e+01 -1.555810451507568359e+00 2.289113759994506836e+00 3.545825004577636719e+00 1.750481605529785156e+00 3.559434652328491211e+00
9.100000000000000000e+02 1.892037773132324219e+01 -1.620136499404907227e+00 1.289051890373229980e+00 9.186322212219238281e+00 3.142612218856811523e+00 2.862169265747070312e+00
9.110000000000000000e+02 1.842227363586425781e+01 -1.399235606193542480e+00 2.157959938049316406e+00 7.127151489257812500e+00 2.785533428192138672e+00 4.130665302276611328e+00
9.120000000000000000e+02 1.722633171081542969e+01 -1.399976611137390137e+00 2.299573421478271484e+00 1.999942064285278320e+00 1.289854645729064941e+00 2.835037231445312500e+00
9.130000000000000000e+02 1.707537651062011719e+01 -1.658360600471496582e+00 2.031461000442504883e+00 2.000693082809448242e+00 1.209646224975585938e+00 2.824307918548583984e+00
9.140000000000000000e+02 1.926823043823242188e+01 -1.239746928215026855e+00 1.594081282615661621e+00 1.191408634185791016e+01 4.052450180053710938e+00 1.472368717193603516e+00
9.150000000000000000e+02 1.264508152008056641e+01 -1.783457636833190918e+00 -7.713630795478820801e-01 1.983988136053085327e-01 -1.718892902135848999e-01 3.458480536937713623e-01
9.160000000000000000e+02 1.333669757843017578e+01 -2.307071208953857422e+00 -2.786105871200561523e-01 4.013444185256958008e-01 3.682014718651771545e-02 7.284790277481079102e-01
9.170000000000000000e+02 1.456367397308349609e+01 -2.198239088058471680e+00 2.092278897762298584e-01 5.680081248283386230e-01 2.331708073616027832e-01 1.202280998229980469e+00
9.180000000000000000e+02 1.516472053527832031e+01 -1.656506896018981934e+00 3.884622454643249512e-01 4.836300909519195557e-01 2.616277039051055908e-01 1.145147562026977539e+00
9.190000000000000000e+02 1.396586132049560547e+01 -2.247237920761108398e+00 -4.579725116491317749e-02 4.787961542606353760e-01 1.298996657133102417e-01 9.447826147079467773e-01
9.200000000000000000e+02 1.620125007629394531e+01 -1.990408539772033691e+00 1.225353956222534180e+00 1.263188719749450684e+00 7.465627789497375488e-01 2.170318603515625000e+00
9.210000000000000000e+02 7.420636653900146484e+00 -3.236968278884887695e+00 -5.379054546356201172e-01 1.559059023857116699e-01 -1.145998686552047729e-01 -4.932537376880645752e-01
9.220000000000000000e+02 1.114721202850341797e+01 -1.833672523498535156e+00 -1.038764953613281250e+00 1.538195908069610596e-01 -2.654835879802703857e-01 3.766963630914688110e-02
9.230000000000000000e+02 6.065374851226806641e+00 -1.859343171119689941e+00 -7.209876179695129395e-01 9.560303762555122375e-03 -2.134281992912292480e-01 -4.300214350223541260e-01
9.240000000000000000e+02 8.182128906250000000e+00 -2.543192625045776367e+00 -7.612838149070739746e-01 1.354218572378158569e-01 -1.877585798501968384e-01 -3.806100487709045410e-01
9.250000000000000000e+02 3.305786132812500000e+00 -2.771173000335693359e+00 -2.463032454252243042e-01 -1.555690467357635498e-01 -1.205616891384124756e-01 -4.559804499149322510e-01
9.260000000000000000e+02 6.049062728881835938e+00 -2.575612306594848633e+00 -5.728197097778320312e-01 1.664816588163375854e-02 -1.668514609336853027e-01 -5.236077904701232910e-01
9.270000000000000000e+02 5.353492259979248047e+00 -1.868891119956970215e+00 -6.117134690284729004e-01 -1.593265682458877563e-02 -1.882938295602798462e-01 -4.321705102920532227e-01
9.280000000000000000e+02 7.493548393249511719e+00 -1.848483800888061523e+00 -9.200346469879150391e-01 5.323500186204910278e-02 -2.600398957729339600e-01 -3.779559731483459473e-01
9.290000000000000000e+02 7.468303680419921875e+00 -2.542881250381469727e+00 -7.154120206832885742e-01 9.724941104650497437e-02 -1.854487955570220947e-01 -4.501133263111114502e-01
9.300000000000000000e+02 6.757234573364257812e+00 -2.552487134933471680e+00 -6.495965719223022461e-01 6.041369587182998657e-02 -1.767548620700836182e-01 -4.946914613246917725e-01
9.310000000000000000e+02 5.344780921936035156e+00 -2.610447168350219727e+00 -4.892660677433013916e-01 -2.190482057631015778e-02 -1.533512622117996216e-01 -5.285632610321044922e-01
9.320000000000000000e+02 2.604543924331665039e+00 -7.506907939910888672e+00 2.003115415573120117e-02 -7.932267785072326660e-01 -2.319586873054504395e-01 -5.603073239326477051e-01
9.330000000000000000e+02 4.985235333442687988e-01 -6.368402957916259766e+00 -7.639014162123203278e-03 -1.118120789527893066e+00 -3.377279341220855713e-01 -1.364874988794326782e-01
9.340000000000000000e+02 3.519984483718872070e+00 -5.111913681030273438e+00 -9.434539079666137695e-02 -3.425654172897338867e-01 -1.310732513666152954e-01 -6.403288245201110840e-01
9.350000000000000000e+02 3.823142349720001221e-01 -3.561697006225585938e+00 -1.372282672673463821e-02 -3.681315779685974121e-01 -1.145563200116157532e-01 -8.571698516607284546e-02
9.360000000000000000e+02 4.444921314716339111e-01 -4.954329013824462891e+00 -4.379705991595983505e-03 -7.351245284080505371e-01 -2.218512594699859619e-01 -1.168034076690673828e-01
9.370000000000000000e+02 1.403710842132568359e+01 1.837690949440002441e+00 -1.513957619667053223e+00 5.095174312591552734e-01 -3.013320565223693848e-01 -8.433907628059387207e-01
9.380000000000000000e+02 1.466966819763183594e+01 2.364241600036621094e+00 -5.699230432510375977e-01 9.668067097663879395e-01 1.190650910139083862e-01 -1.602098464965820312e+00
9.390000000000000000e+02 1.399036598205566406e+01 2.422907352447509766e+00 -8.891293406486511230e-01 8.253948688507080078e-01 -1.912034302949905396e-02 -1.099897146224975586e+00
9.400000000000000000e+02 1.107996845245361328e+01 3.321963548660278320e+00 -8.697182536125183105e-01 7.011927366256713867e-01 -5.055765807628631592e-02 1.723635792732238770e-01
9.410000000000000000e+02 1.182799339294433594e+01 2.561933279037475586e+00 -1.381925225257873535e+00 5.358860492706298828e-01 -2.538117468357086182e-01 -3.214238584041595459e-02
9.420000000000000000e+02 1.258165359497070312e+01 1.847271919250488281e+00 -1.966861248016357422e+00 3.452906608581542969e-01 -4.864711761474609375e-01 -1.811708509922027588e-01
9.430000000000000000e+02 1.256228446960449219e+01 2.520648956298828125e+00 -1.284937262535095215e+00 6.289466023445129395e-01 -1.967971920967102051e-01 -3.399674892425537109e-01
9.440000000000000000e+02 1.328374862670898438e+01 2.474737644195556641e+00 -1.160109281539916992e+00 7.548842430114746094e-01 -1.215674877166748047e-01 -6.986759305000305176e-01
9.450000000000000000e+02 1.265120029449462891e+01 -2.382694721221923828e+00 -4.666881263256072998e-01 4.096920490264892578e-01 -1.709882542490959167e-02 5.298656821250915527e-01
9.460000000000000000e+02 1.116586589813232422e+01 -2.539910316467285156e+00 -6.906282901763916016e-01 3.047348856925964355e-01 -1.157680153846740723e-01 1.267654001712799072e-01
9.470000000000000000e+02 8.900435447692871094e+00 -2.548526287078857422e+00 -7.872187495231628418e-01 1.733998805284500122e-01 -1.841456592082977295e-01 -2.974992990493774414e-01
9.480000000000000000e+02 9.633919715881347656e+00 -2.556844711303710938e+00 -7.862049341201782227e-01 2.171923369169235229e-01 -1.707037836313247681e-01 -1.866909563541412354e-01
9.490000000000000000e+02 6.241937637329101562e+00 1.925705313682556152e+00 -1.206380844116210938e+00 -1.037141494452953339e-02 -3.650256991386413574e-01 7.624942660331726074e-01
9.500000000000000000e+02 1.670958161354064941e+00 7.450028419494628906e+00 5.454976111650466919e-02 -1.587752103805541992e+00 -4.599606990814208984e-01 5.593543052673339844e-01
9.510000000000000000e+02 2.970731496810913086e+00 4.159208774566650391e+00 -1.600976884365081787e-01 -5.269960165023803711e-01 -2.061281055212020874e-01 8.453072309494018555e-01
9.520000000000000000e+02 5.473529338836669922e+00 4.694389820098876953e+00 -2.012192755937576294e-01 -1.391112357378005981e-01 -1.020991504192352295e-01 1.106229066848754883e+00
9.530000000000000000e+02 1.223549008369445801e+00 3.414839506149291992e+00 -5.355659872293472290e-02 -5.681031346321105957e-01 -1.864979267120361328e-01 3.787735998630523682e-01
9.540000000000000000e+02 2.061896800994873047e+00 3.260795831680297852e+00 -1.462766677141189575e-01 -4.769049584865570068e-01 -1.869544982910156250e-01 5.625412464141845703e-01
9.550000000000000000e+02 2.063188791275024414e+00 2.089469671249389648e+00 -2.209595888853073120e-01 -2.489264905452728271e-01 -1.409658193588256836e-01 3.942422270774841309e-01
9.560000000000000000e+02 9.531523704528808594e+00 2.645362377166748047e+00 -1.366621136665344238e+00 2.667410671710968018e-01 -3.299640119075775146e-01 6.282179951667785645e-01
9.570000000000000000e+02 7.072232723236083984e+00 2.735885381698608398e+00 -1.028164744377136230e+00 5.693320184946060181e-02 -2.913694679737091064e-01 9.141490459442138672e-01
9.580000000000000000e+02 7.075323104858398438e+00 1.910574316978454590e+00 -1.424816966056823730e+00 1.489898376166820526e-02 -4.229753911495208740e-01 7.586466073989868164e-01
9.590000000000000000e+02 1.031871509552001953e+01 2.623627901077270508e+00 -1.413411259651184082e+00 3.595126271247863770e-01 -3.161696195602416992e-01 4.382178783416748047e-01
9.600000000000000000e+02 5.556019592285156250e+01 2.382448005676269531e+01 -1.055155396461486816e+00 3.439187407493591309e-01 -2.133710086345672607e-01 -5.616954062134027481e-03
9.610000000000000000e+02 1.528570270538330078e+01 2.239934349060058594e+01 -1.060071825981140137e+00 3.896947622299194336e+00 8.510627150535583496e-01 1.142895936965942383e+00
9.620000000000000000e+02 1.193225860595703125e+01 1.660510444641113281e+01 1.400519490242004395e+00 5.670482158660888672e+00 2.121300458908081055e+00 -9.414798617362976074e-01
9.630000000000000000e+02 4.550458145141601562e+01 -1.879727935791015625e+01 1.518152236938476562e+00 1.120897769927978516e+01 3.818139076232910156e+00 2.072862148284912109e+00
9.640000000000000000e+02 6.531712341308593750e+01 -1.226590442657470703e+01 -2.686928987503051758e+00 1.098033189773559570e+00 -4.766687154769897461e-01 -1.265422224998474121e+00
9.650000000000000000e+02 6.204233932495117188e+01 -1.276023197174072266e+01 -3.659012317657470703e+00 -4.985702037811279297e-01 -1.247274756431579590e+00 -1.468172907829284668e+00
9.660000000000000000e+02 2.842028999328613281e+01 2.413919258117675781e+01 -7.999466657638549805e-01 2.413497924804687500e+00 4.840653836727142334e-01 -1.324718356132507324e+00
9.670000000000000000e+02 2.701496887207031250e+01 2.553604316711425781e+01 -7.011432051658630371e-01 1.670017480850219727e+00 2.906622886657714844e-01 -1.111845612525939941e+00
9.680000000000000000e+02 2.976771545410156250e+01 -7.867098331451416016e+00 -2.974786520004272461e+00 3.513599336147308350e-01 -7.870280146598815918e-01 -5.887957811355590820e-01
9.690000000000000000e+02 1.725656127929687500e+01 8.906551361083984375e+00 4.105307579040527344e+00 6.429636955261230469e+00 3.160483360290527344e+00 -4.874077796936035156e+00
9.700000000000000000e+02 1.498306655883789062e+01 1.249086189270019531e+01 1.957345724105834961e+00 1.134438037872314453e+01 3.990517616271972656e+00 -3.725636482238769531e+00
9.710000000000000000e+02 2.589005851745605469e+01 -6.137090206146240234e+00 4.561921656131744385e-01 -2.015665173530578613e-01 7.638768851757049561e-02 1.134560480713844299e-01
9.720000000000000000e+02 2.332063484191894531e+01 2.281732177734375000e+01 -2.234294891357421875e+00 -9.437930583953857422e-02 -6.986023187637329102e-01 6.244863197207450867e-02
9.730000000000000000e+02 3.230524826049804688e+01 -2.878885459899902344e+01 -1.344112157821655273e-01 2.732405185699462891e+00 7.793982028961181641e-01 1.292723059654235840e+00
9.740000000000000000e+02 3.019058609008789062e+01 -2.872896003723144531e+01 -5.784044861793518066e-01 6.494943499565124512e-01 2.132695354521274567e-02 3.568529486656188965e-01
9.750000000000000000e+02 1.657851219177246094e+01 2.296441268920898438e+01 -9.652377963066101074e-01 1.797252893447875977e+00 2.496045380830764771e-01 1.068026781082153320e+00
9.760000000000000000e+02 1.712963676452636719e+01 2.166855812072753906e+01 -7.461402416229248047e-01 7.424219846725463867e-01 -1.115491148084402084e-03 3.422932326793670654e-01
9.770000000000000000e+02 4.703618240356445312e+01 -1.491990947723388672e+01 1.973729252815246582e+00 4.017871379852294922e+00 1.797480106353759766e+00 2.061452150344848633e+00
9.780000000000000000e+02 5.161897277832031250e+01 -1.483562088012695312e+01 3.507046401500701904e-01 3.191660046577453613e-01 2.009612023830413818e-01 5.735659599304199219e-01
9.790000000000000000e+02 1.409260654449462891e+01 2.168217468261718750e+01 -1.089568138122558594e+00 4.977819919586181641e+00 1.166475534439086914e+00 -1.173997223377227783e-01
9.800000000000000000e+02 3.344960021972656250e+01 2.070979833602905273e+00 3.668621540069580078e+00 1.433540725708007812e+01 5.401208400726318359e+00 5.169757843017578125e+00
9.810000000000000000e+02 2.410006713867187500e+01 2.395802021026611328e+00 -9.068692326545715332e-01 -2.502098560333251953e+00 -1.022690415382385254e+00 1.947232365608215332e+00
9.820000000000000000e+02 3.038971900939941406e+01 -4.922362804412841797e+00 1.295804619789123535e+00 2.571589469909667969e+00 1.160218238830566406e+00 -1.039483547210693359e+00
9.830000000000000000e+02 3.373110961914062500e+01 1.388509845733642578e+01 7.291225790977478027e-01 8.303623199462890625e+00 2.709823608398437500e+00 -1.568532228469848633e+00
9.840000000000000000e+02 3.246482849121093750e+01 1.824864768981933594e+01 7.681863307952880859e-01 6.194684982299804688e+00 2.088861465454101562e+00 -1.575220465660095215e+00
9.850000000000000000e+02 1.936749076843261719e+01 2.546044731140136719e+01 -7.505102157592773438e-01 4.931129217147827148e-01 -7.721918076276779175e-02 4.822160005569458008e-01
9.860000000000000000e+02 3.789737319946289062e+01 9.261709213256835938e+00 1.944056153297424316e+00 1.283066272735595703e+01 4.432415485382080078e+00 1.645668268203735352e+00
9.870000000000000000e+02 2.062291145324707031e+01 -1.198184862732887268e-02 9.455554008483886719e+00 7.505802154541015625e+00 5.088406562805175781e+00 -3.019747257232666016e+00
9.880000000000000000e+02 1.292905426025390625e+01 2.098994255065917969e+01 -2.669053673744201660e-01 4.904847621917724609e+00 1.391382575035095215e+00 -7.578276991844177246e-01
9.890000000000000000e+02 1.236583328247070312e+01 1.910017967224121094e+01 8.380067944526672363e-01 5.633876800537109375e+00 1.941565036773681641e+00 -9.385851621627807617e-01
9.900000000000000000e+02 1.801939582824707031e+01 -1.203965282440185547e+01 2.182923555374145508e+00 1.909632563591003418e+00 1.227766871452331543e+00 1.975007057189941406e+00
9.910000000000000000e+02 1.789702796936035156e+01 -1.112687110900878906e+01 6.835746765136718750e-01 2.860965967178344727e+00 1.063362121582031250e+00 2.466542005538940430e+00
9.920000000000000000e+02 2.015800476074218750e+01 2.440283775329589844e+01 -1.052801489830017090e+00 2.595441639423370361e-01 -2.379771918058395386e-01 3.761457800865173340e-01
9.930000000000000000e+02 2.117768859863281250e+01 2.543621826171875000e+01 -7.717075347900390625e-01 2.388831973075866699e-01 -1.598473042249679565e-01 1.348334997892379761e-01
9.940000000000000000e+02 2.220248413085937500e+01 2.391070175170898438e+01 -1.772883057594299316e+00 -6.869563460350036621e-02 -5.524736046791076660e-01 -8.606823533773422241e-02
9.950000000000000000e+02 3.491839218139648438e+01 8.133145332336425781e+00 9.884741902351379395e-01 1.186310577392578125e+01 3.855473995208740234e+00 1.380373388528823853e-01
9.960000000000000000e+02 3.937213134765625000e+01 7.395448207855224609e+00 9.977615475654602051e-01 1.815718650817871094e+01 5.746484756469726562e+00 2.688218832015991211e+00
9.970000000000000000e+02 4.583946609497070312e+01 -1.541293239593505859e+01 1.592421889305114746e+00 5.832579135894775391e+00 2.227500200271606445e+00 1.354468107223510742e+00
9.980000000000000000e+02 2.779255485534667969e+01 2.273676681518554688e+01 -5.041863322257995605e-01 1.614996552467346191e+00 3.332430720329284668e-01 -1.249563097953796387e+00
9.990000000000000000e+02 3.194425964355468750e+01 1.979397201538085938e+01 5.222547054290771484e-01 5.431098461151123047e+00 1.786005854606628418e+00 -1.201294779777526855e+00
1.000000000000000000e+03 2.226558685302734375e+01 4.217266082763671875e+00 -2.921156406402587891e+00 -9.620279073715209961e-01 -1.164955258369445801e+00 2.191447257995605469e+00
1.001000000000000000e+03 2.124370765686035156e+01 5.152346134185791016e+00 -2.316313266754150391e+00 3.220159411430358887e-01 -5.982891917228698730e-01 8.245550990104675293e-01
1.002000000000000000e+03 1.927342033386230469e+01 7.000908851623535156e+00 1.864349365234375000e+00 3.329351663589477539e+00 1.558110356330871582e+00 -2.661076545715332031e+00
1.003000000000000000e+03 1.196612739562988281e+01 1.427226829528808594e+01 1.783114552497863770e+00 6.221441745758056641e+00 2.401366949081420898e+00 -1.363024950027465820e+00
1.004000000000000000e+03 2.536963844299316406e+01 2.372263717651367188e+01 -1.188811302185058594e+00 5.589197278022766113e-01 -1.889674663543701172e-01 -6.467363238334655762e-01
1.005000000000000000e+03 1.708779716491699219e+01 2.324912548065185547e+00 1.469262123107910156e+00 3.040587902069091797e+00 1.352954983711242676e+00 -4.649039268493652344e+00
1.006000000000000000e+03 3.338683700561523438e+01 1.532295227050781250e+01 6.386613845825195312e-01 7.707098484039306641e+00 2.503727912902832031e+00 -1.728958845138549805e+00
1.007000000000000000e+03 1.552756118774414062e+01 9.476136207580566406e+00 2.856181859970092773e+00 7.313113212585449219e+00 3.050788640975952148e+00 -3.626292705535888672e+00
1.008000000000000000e+03 1.752787780761718750e+01 7.296505928039550781e+00 1.589249253273010254e+00 5.547868251800537109e+00 2.141135215759277344e+00 -3.585633993148803711e+00
1.009000000000000000e+03 1.703499412536621094e+01 6.501983165740966797e+00 5.472114682197570801e-01 5.636619567871093750e+00 1.855149269104003906e+00 -3.378056764602661133e+00
1.010000000000000000e+03 3.295591354370117188e+01 1.677295303344726562e+01 7.592451572418212891e-01 6.984526634216308594e+00 2.323131561279296875e+00 -1.725973963737487793e+00
1.011000000000000000e+03 3.284690093994140625e+01 1.216769599914550781e+01 6.250865459442138672e-01 8.850493431091308594e+00 2.842673778533935547e+00 -1.878487229347229004e+00
1.012000000000000000e+03 1.279455089569091797e+01 1.787370109558105469e+01 1.072504162788391113e+00 6.619883537292480469e+00 2.307716369628906250e+00 -4.199633896350860596e-01
1.013000000000000000e+03 4.441126632690429688e+01 -2.563725662231445312e+01 2.460073709487915039e+00 1.038047027587890625e+01 3.852163076400756836e+00 -2.016010046005249023e+00
1.014000000000000000e+03 2.705859947204589844e+01 -7.661797523498535156e+00 -2.550293445587158203e+00 -6.597569584846496582e-01 -9.630151391029357910e-01 -6.561594605445861816e-01
1.015000000000000000e+03 3.628371047973632812e+01 -2.405923843383789062e+01 1.314931154251098633e+00 8.393741607666015625e+00 2.912601947784423828e+00 8.532270789146423340e-01
1.016000000000000000e+03 6.592932128906250000e+01 -1.111797809600830078e+01 -1.641157150268554688e+00 3.466182947158813477e+00 5.475077033042907715e-01 -3.014551639556884766e+00
1.017000000000000000e+03 6.913041687011718750e+01 -2.510135841369628906e+01 -5.969865322113037109e-01 8.726861953735351562e+00 2.438962697982788086e+00 5.725656151771545410e-01
1.018000000000000000e+03 6.888940429687500000e+01 -1.834077835083007812e+01 8.037601113319396973e-01 1.869059371948242188e+01 5.848306179046630859e+00 -2.882538537960499525e-04
1.019000000000000000e+03 6.988253021240234375e+01 -1.653562736511230469e+01 2.472224235534667969e+00 1.414928340911865234e+01 4.986452102661132812e+00 -1.093417406082153320e+00
1.020000000000000000e+03 6.784307861328125000e+01 -1.047110462188720703e+01 -1.674059510231018066e+00 7.177087783813476562e+00 1.650908470153808594e+00 -2.346660614013671875e+00
1.021000000000000000e+03 5.773934555053710938e+01 -3.049839591979980469e+01 -2.891331195831298828e+00 -1.912702918052673340e-01 -9.247804284095764160e-01 -6.529939174652099609e-01
1.022000000000000000e+03 2.356839752197265625e+01 -3.093050765991210938e+01 -1.714771986007690430e+00 -1.511282771825790405e-01 -5.597700476646423340e-01 8.456752449274063110e-02
1.023000000000000000e+03 2.625582695007324219e+01 -2.997028160095214844e+01 -2.438644647598266602e+00 -5.203621461987495422e-02 -7.472042441368103027e-01 4.484334215521812439e-02
1.024000000000000000e+03 4.885643005371093750e+01 -2.927279281616210938e+01 2.480921506881713867e+00 3.413792848587036133e+00 1.768414258956909180e+00 -2.660612106323242188e+00
1.025000000000000000e+03 4.781063461303710938e+01 -3.045544052124023438e+01 4.527474194765090942e-02 5.691281795501708984e+00 1.720966935157775879e+00 -2.501122951507568359e+00
1.026000000000000000e+03 6.434684753417968750e+01 -2.951464462280273438e+01 -1.102370619773864746e+00 2.427174806594848633e+00 3.974412381649017334e-01 7.095291614532470703e-01
1.027000000000000000e+03 6.550149536132812500e+01 -2.828082847595214844e+01 -8.708948493003845215e-01 3.281253337860107422e+00 7.231075763702392578e-01 8.884772062301635742e-01
1.028000000000000000e+03 5.341342163085937500e+01 -3.085744476318359375e+01 -1.625239253044128418e+00 1.632677316665649414e-01 -4.385914802551269531e-01 -4.873842895030975342e-01
1.029000000000000000e+03 4.956724929809570312e+01 -1.381327342987060547e+01 1.420129060745239258e+00 1.249969005584716797e+00 8.010294437408447266e-01 1.746665716171264648e+00
1.030000000000000000e+03 5.316926574707031250e+01 -6.241848468780517578e+00 1.010008335113525391e+00 2.303172826766967773e+00 9.939543604850769043e-01 2.081944942474365234e+00
1.031000000000000000e+03 6.090092849731445312e+01 -1.340230369567871094e+01 -2.811246871948242188e+00 -3.150768280029296875e-01 -9.378971457481384277e-01 -1.000242233276367188e+00
1.032000000000000000e+03 1.410243320465087891e+01 -1.457233333587646484e+01 2.245372772216796875e+00 7.500036239624023438e+00 2.923622608184814453e+00 1.907816052436828613e+00
1.033000000000000000e+03 5.775301361083984375e+01 -1.196762657165527344e+01 -1.550856471061706543e+00 5.629342198371887207e-01 -2.963766455650329590e-01 4.100498259067535400e-01
1.034000000000000000e+03 2.524308204650878906e+01 -7.911374568939208984e+00 -1.315375447273254395e+00 3.416661620140075684e-01 -2.921127676963806152e-01 -6.878057122230529785e-02
1.035000000000000000e+03 2.363984489440917969e+01 -9.322832107543945312e+00 -1.670196652412414551e+00 3.955463767051696777e-01 -3.823950886726379395e-01 -4.732005894184112549e-01
1.036000000000000000e+03 2.003320503234863281e+01 -2.932757949829101562e+01 -1.291617989540100098e+00 6.977719664573669434e-01 -1.781538128852844238e-01 -7.657670974731445312e-02
1.037000000000000000e+03 5.497333145141601562e+01 -3.254748535156250000e+01 -9.093213677406311035e-01 -1.019581872969865799e-02 -2.758551537990570068e-01 -7.511283755302429199e-01
1.038000000000000000e+03 6.116841506958007812e+01 -1.172409248352050781e+01 -2.804657936096191406e+00 3.738193511962890625e-01 -7.292515635490417480e-01 -1.074479073286056519e-01
1.039000000000000000e+03 5.648450851440429688e+01 -3.239215850830078125e+01 -1.092119455337524414e+00 -1.714318543672561646e-01 -3.790654242038726807e-01 -5.311452746391296387e-01
1.040000000000000000e+03 7.005487060546875000e+01 -1.992563056945800781e+01 1.679666876792907715e+00 1.385797119140625000e+01 4.661291599273681641e+00 2.765211760997772217e-01
1.041000000000000000e+03 3.582313537597656250e+01 -1.025657176971435547e+01 -1.175111532211303711e-02 1.012851428985595703e+01 3.035028934478759766e+00 -1.964000225067138672e+00
1.042000000000000000e+03 3.462985610961914062e+01 -1.058576202392578125e+01 1.116593956947326660e+00 1.009016418457031250e+01 3.362027406692504883e+00 -2.801585912704467773e+00
1.043000000000000000e+03 5.355607223510742188e+01 -3.285992431640625000e+01 -4.775589406490325928e-01 7.211778759956359863e-01 7.308568805456161499e-02 -1.210651159286499023e+00
1.044000000000000000e+03 5.032136154174804688e+01 -6.714104175567626953e+00 4.453439265489578247e-03 8.902797698974609375e-01 2.684199512004852295e-01 2.683480024337768555e+00
1.045000000000000000e+03 1.597061538696289062e+01 -1.210436630249023438e+01 1.616179227828979492e+00 5.162284374237060547e+00 2.033539056777954102e+00 2.602658033370971680e+00
1.046000000000000000e+03 4.306471633911132812e+01 -2.318490028381347656e+01 2.098622322082519531e+00 1.018810367584228516e+01 3.686017751693725586e+00 -1.658903837203979492e+00
1.047000000000000000e+03 6.202836990356445312e+01 -1.104099273681640625e+01 -1.770150661468505859e+00 3.098607063293457031e-01 -4.380869865417480469e-01 2.239392697811126709e-02
1.048000000000000000e+03 5.954922485351562500e+01 -1.143449783325195312e+01 -1.912878394126892090e+00 7.020983695983886719e-01 -3.632340133190155029e-01 2.435252815485000610e-01
1.049000000000000000e+03 7.138741302490234375e+01 -1.971751785278320312e+01 1.854073762893676758e+00 1.176578712463378906e+01 4.085958480834960938e+00 -5.312499403953552246e-01
1.050000000000000000e+03 5.564831542968750000e+01 -1.345057964324951172e+01 -1.336104154586791992e+00 2.996531128883361816e-01 -3.109353184700012207e-01 4.494479000568389893e-01
1.051000000000000000e+03 5.687825393676757812e+01 -1.330154991149902344e+01 -1.681427359580993652e+00 2.250461280345916748e-01 -4.369143545627593994e-01 1.871853023767471313e-01
1.052000000000000000e+03 6.762193298339843750e+01 -2.760687255859375000e+01 -1.011090755462646484e+00 5.824647903442382812e+00 1.444067120552062988e+00 9.899314045906066895e-01
1.053000000000000000e+03 1.500416183471679688e+01 -1.512149715423583984e+01 2.305855989456176758e+00 1.034397029876708984e+01 3.794947862625122070e+00 3.850617408752441406e+00
1.054000000000000000e+03 5.310142517089843750e+01 -1.353883361816406250e+01 -2.894832491874694824e-01 3.765487372875213623e-01 2.611964754760265350e-02 9.690185785293579102e-01
1.055000000000000000e+03 2.741149902343750000e+01 -3.168903732299804688e+01 -1.118719220161437988e+00 2.211009562015533447e-01 -2.692854702472686768e-01 6.038724780082702637e-01
1.056000000000000000e+03 5.982280349731445312e+01 -3.207004928588867188e+01 -1.049451470375061035e+00 1.833347827196121216e-01 -2.598350048065185547e-01 -6.911885738372802734e-02
1.057000000000000000e+03 5.215111923217773438e+01 -3.318803024291992188e+01 -2.769421339035034180e-01 1.400827646255493164e+00 3.371656537055969238e-01 -1.819053649902343750e+00
1.058000000000000000e+03 3.560482025146484375e+01 -1.771431350708007812e+01 4.252508580684661865e-01 1.327718067169189453e+01 4.110729694366455078e+00 -1.247544288635253906e+00
1.059000000000000000e+03 4.405195999145507812e+01 -2.095065689086914062e+01 1.041946172714233398e+00 1.187881851196289062e+01 3.876229286193847656e+00 -7.518317699432373047e-01
1.060000000000000000e+03 6.515068817138671875e+01 -2.598052978515625000e+01 1.801778972148895264e-01 1.889452219009399414e+00 6.208890676498413086e-01 9.457246065139770508e-01
1.061000000000000000e+03 3.446629714965820312e+01 -2.677784919738769531e+01 5.172654986381530762e-01 5.184509754180908203e+00 1.710532665252685547e+00 1.803338527679443359e+00
1.062000000000000000e+03 6.636161804199218750e+01 -2.690095901489257812e+01 -4.995656013488769531e-01 4.279136657714843750e+00 1.133871436119079590e+00 1.207563042640686035e+00
1.063000000000000000e+03 4.364379119873046875e+01 -2.204644584655761719e+01 1.707250952720642090e+00 1.084955024719238281e+01 3.767040491104125977e+00 -1.774149537086486816e+00
1.064000000000000000e+03 2.568520736694335938e+01 -7.094288349151611328e+00 -4.113140702247619629e-01 4.489742591977119446e-02 -1.099249944090843201e-01 5.319445207715034485e-02
1.065000000000000000e+03 2.500528717041015625e+01 -3.288225555419921875e+01 -7.416084408760070801e-01 1.887345165014266968e-01 -1.658621877431869507e-01 1.010381728410720825e-01
1.066000000000000000e+03 2.153852844238281250e+01 -1.032979488372802734e+01 -1.228994250297546387e+00 5.771935582160949707e-01 -1.955402046442031860e-01 2.299557179212570190e-01
1.067000000000000000e+03 3.690560913085937500e+01 -1.295374298095703125e+01 1.737917304039001465e+00 1.068752002716064453e+01 3.727631330490112305e+00 -2.337750673294067383e+00
1.068000000000000000e+03 3.328068923950195312e+01 -8.185577392578125000e+00 -1.215441465377807617e+00 7.627714633941650391e+00 1.923681974411010742e+00 -2.632630825042724609e+00
1.069000000000000000e+03 3.526292037963867188e+01 -1.189594459533691406e+01 1.895716428756713867e+00 1.136399364471435547e+01 3.977912902832031250e+00 -3.181806087493896484e+00
1.070000000000000000e+03 3.656591033935546875e+01 -1.606259918212890625e+01 1.475843548774719238e+00 1.237103652954101562e+01 4.154064178466796875e+00 -2.404948949813842773e+00
1.071000000000000000e+03 2.040312767028808594e+01 -1.068604660034179688e+01 -8.127916455268859863e-01 5.471187829971313477e-01 -7.970187067985534668e-02 6.335915923118591309e-01
1.072000000000000000e+03 1.920129394531250000e+01 -1.094385242462158203e+01 1.929547190666198730e-01 1.107748150825500488e+00 3.902108371257781982e-01 1.587455987930297852e+00
1.073000000000000000e+03 3.263862228393554688e+01 -6.941820144653320312e+00 -9.595651626586914062e-01 6.208573341369628906e+00 1.574702501296997070e+00 -2.454080343246459961e+00
1.074000000000000000e+03 5.861043167114257812e+01 2.183207130432128906e+01 -2.518347501754760742e+00 4.478012621402740479e-01 -6.211639046669006348e-01 -6.756427288055419922e-01
1.075000000000000000e+03 3.341810989379882812e+01 -2.783239746093750000e+01 2.908706665039062500e-01 3.750932216644287109e+00 1.212540864944458008e+00 1.596823334693908691e+00
1.076000000000000000e+03 1.814103698730468750e+01 -2.556546592712402344e+01 1.741314083337783813e-01 8.876705765724182129e-01 3.185406029224395752e-01 -4.684351086616516113e-01
1.077000000000000000e+03 1.721622085571289062e+01 -2.453279113769531250e+01 4.360333979129791260e-01 1.392213702201843262e+00 5.484741330146789551e-01 -8.353704214096069336e-01
1.078000000000000000e+03 3.710267257690429688e+01 -1.906891822814941406e+01 1.126954674720764160e+00 1.145975208282470703e+01 3.776011943817138672e+00 -1.030310511589050293e+00
1.079000000000000000e+03 1.544277000427246094e+01 -2.436437416076660156e+01 -5.563182290643453598e-03 3.122582674026489258e+00 9.351058006286621094e-01 -9.827135801315307617e-01
1.080000000000000000e+03 7.714910888671875000e+01 -3.792126083374023438e+01 -1.381102651357650757e-01 9.593806266784667969e+00 2.836708784103393555e+00 1.030069291591644287e-01
1.081000000000000000e+03 7.930970764160156250e+01 -3.464841461181640625e+01 -4.071474447846412659e-02 1.047321796417236328e+01 3.129750967025756836e+00 -2.935370802879333496e-02
1.082000000000000000e+03 7.935265350341796875e+01 -2.770956802368164062e+01 -7.255658973008394241e-03 9.044846534729003906e+00 2.711277246475219727e+00 -2.805837392807006836e-01
1.083000000000000000e+03 7.796447753906250000e+01 3.212839889526367188e+01 -1.910449191927909851e-02 7.981758594512939453e+00 2.388796091079711914e+00 7.622364908456802368e-02
1.084000000000000000e+03 7.917221069335937500e+01 3.625547027587890625e+01 -3.479473292827606201e-02 8.361067771911621094e+00 2.497882127761840820e+00 -1.192419975996017456e-02
1.085000000000000000e+03 7.940667724609375000e+01 -2.077313613891601562e+01 2.936584502458572388e-02 5.909251689910888672e+00 1.781585216522216797e+00 -1.931046247482299805e-01
1.086000000000000000e+03 7.807336425781250000e+01 -2.740367889404296875e+01 -1.099977791309356689e-01 8.822767257690429688e+00 2.613831043243408203e+00 -7.107317447662353516e-01
1.087000000000000000e+03 7.806478881835937500e+01 -2.599068832397460938e+01 -4.470059648156166077e-02 8.410435676574707031e+00 2.509720563888549805e+00 -8.272950053215026855e-01
1.088000000000000000e+03 7.934450531005859375e+01 -3.050250053405761719e+01 -1.307179778814315796e-02 9.920269966125488281e+00 2.972159385681152344e+00 -1.806656420230865479e-01
1.089000000000000000e+03 7.795935058593750000e+01 -3.426886749267578125e+01 -8.748613297939300537e-02 9.854327201843261719e+00 2.930052280426025391e+00 -1.471408456563949585e-01
1.090000000000000000e+03 7.799600982666015625e+01 -3.294008255004882812e+01 -1.170496568083763123e-01 9.752595901489257812e+00 2.890663862228393555e+00 -2.312689870595932007e-01
1.091000000000000000e+03 7.634274291992187500e+01 -3.906408309936523438e+01 -6.638652086257934570e-02 9.528181076049804688e+00 2.838538408279418945e+00 -5.048621445894241333e-03
1.092000000000000000e+03 7.804183197021484375e+01 1.422326755523681641e+01 5.456923320889472961e-02 6.359241008758544922e+00 1.924143075942993164e+00 1.220389828085899353e-01
1.093000000000000000e+03 7.933600616455078125e+01 1.544472312927246094e+01 1.542591582983732224e-02 6.207787036895751953e+00 1.866963863372802734e+00 7.049785554409027100e-02
1.094000000000000000e+03 7.791989898681640625e+01 2.142778015136718750e+01 -7.531798328272998333e-04 7.077060699462890625e+00 2.122892379760742188e+00 3.291139006614685059e-01
1.095000000000000000e+03 7.931195831298828125e+01 2.248444366455078125e+01 1.333420514129102230e-03 7.238569736480712891e+00 2.171970844268798828e+00 1.201033964753150940e-01
1.096000000000000000e+03 7.804606628417968750e+01 3.076888656616210938e+01 -2.124900370836257935e-02 7.953969955444335938e+00 2.379816293716430664e+00 1.013839244842529297e-01
1.097000000000000000e+03 7.822878265380859375e+01 2.813744163513183594e+01 -3.287843987345695496e-02 7.818547725677490234e+00 2.335700750350952148e+00 1.712318509817123413e-01
1.098000000000000000e+03 7.940904998779296875e+01 2.796719169616699219e+01 -9.668794460594654083e-03 8.017386436462402344e+00 2.402315378189086914e+00 6.515343487262725830e-02
1.099000000000000000e+03 7.806038665771484375e+01 2.559621047973632812e+01 -2.512150444090366364e-02 7.562179565429687500e+00 2.261117458343505859e+00 2.534925341606140137e-01
1.100000000000000000e+03 7.795645141601562500e+01 2.426007270812988281e+01 -2.180970087647438049e-02 7.417706012725830078e+00 2.218768835067749023e+00 2.856669723987579346e-01
1.101000000000000000e+03 7.794547271728515625e+01 1.851977729797363281e+01 3.077568300068378448e-02 6.730120658874511719e+00 2.028268814086914062e+00 2.955884337425231934e-01
1.102000000000000000e+03 7.801162719726562500e+01 1.564012527465820312e+01 4.780356585979461670e-02 6.452558040618896484e+00 1.950108408927917480e+00 1.907664388418197632e-01
1.103000000000000000e+03 7.797679138183593750e+01 1.707323455810546875e+01 4.182340949773788452e-02 6.578817844390869141e+00 1.986192464828491211e+00 2.429689168930053711e-01
1.104000000000000000e+03 7.806455993652343750e+01 1.281515693664550781e+01 4.857293888926506042e-02 6.305477619171142578e+00 1.906215071678161621e+00 6.111914664506912231e-02
1.105000000000000000e+03 7.686664581298828125e+01 1.011920356750488281e+01 1.311977058649063110e-01 6.491594314575195312e+00 1.986837625503540039e+00 -1.045186817646026611e-01
1.106000000000000000e+03 7.810179901123046875e+01 8.631539344787597656e+00 5.585642158985137939e-02 6.377497673034667969e+00 1.930006265640258789e+00 -1.416700482368469238e-01
1.107000000000000000e+03 7.936220550537109375e+01 9.857497215270996094e+00 1.928245835006237030e-02 6.070896148681640625e+00 1.827053546905517578e+00 -2.857434377074241638e-02
1.108000000000000000e+03 7.940024566650390625e+01 -1.938798904418945312e+01 5.022361129522323608e-02 5.558111667633056641e+00 1.682500600814819336e+00 -1.050407588481903076e-01
1.109000000000000000e+03 7.937084197998046875e+01 -6.873864650726318359e+00 -1.238415949046611786e-02 8.017326354980468750e+00 2.401482582092285156e+00 4.504147544503211975e-02
1.110000000000000000e+03 7.937159729003906250e+01 -1.384675407409667969e+01 5.493749864399433136e-03 6.205616474151611328e+00 1.863332986831665039e+00 2.233256399631500244e-01
1.111000000000000000e+03 7.809903717041015625e+01 2.956531941890716553e-01 -3.584454068914055824e-03 7.322806358337402344e+00 2.195766687393188477e+00 -3.060504794120788574e-01
1.112000000000000000e+03 7.936363983154296875e+01 1.497307777404785156e+00 9.660318493843078613e-03 7.198066711425781250e+00 2.162317991256713867e+00 -1.136366352438926697e-01
1.113000000000000000e+03 7.684226989746093750e+01 5.947952747344970703e+00 7.532800734043121338e-02 6.705718040466308594e+00 2.034313917160034180e+00 -3.527787327766418457e-01
1.114000000000000000e+03 7.814989471435546875e+01 2.943356704711914062e+01 -3.469510003924369812e-02 7.902157306671142578e+00 2.360238552093505859e+00 1.306070834398269653e-01
1.115000000000000000e+03 7.857568359375000000e+01 4.018788528442382812e+01 -5.392341688275337219e-02 8.149248123168945312e+00 2.428597450256347656e+00 -1.046274751424789429e-01
1.116000000000000000e+03 7.917790222167968750e+01 3.757073974609375000e+01 1.527816243469715118e-02 8.322659492492675781e+00 2.501381397247314453e+00 -2.867240272462368011e-02
1.117000000000000000e+03 7.541106414794921875e+01 3.606310653686523438e+01 -5.901683494448661804e-02 7.451928615570068359e+00 2.217873573303222656e+00 2.181653305888175964e-02
1.118000000000000000e+03 7.809843444824218750e+01 1.003124237060546875e+01 4.734482243657112122e-02 6.312867164611816406e+00 1.908063650131225586e+00 -7.290748506784439087e-02
1.119000000000000000e+03 7.686290740966796875e+01 -9.622893333435058594e-01 -5.535451695322990417e-02 7.387737751007080078e+00 2.199714899063110352e+00 -4.258159995079040527e-01
1.120000000000000000e+03 7.809572601318359375e+01 3.067057609558105469e+00 2.215889096260070801e-02 6.946903228759765625e+00 2.090718746185302734e+00 -3.046571016311645508e-01
1.121000000000000000e+03 7.810115051269531250e+01 -1.093062162399291992e+00 -3.823532164096832275e-02 7.504745006561279297e+00 2.239953041076660156e+00 -2.783530652523040771e-01
1.122000000000000000e+03 7.936259460449218750e+01 -2.678424358367919922e+00 -2.042812481522560120e-02 7.869515419006347656e+00 2.354726076126098633e+00 -7.516622543334960938e-02
1.123000000000000000e+03 7.814933776855468750e+01 -8.106624603271484375e+00 -9.816950559616088867e-02 7.824756145477294922e+00 2.317975997924804688e+00 2.318492233753204346e-01
1.124000000000000000e+03 7.811636352539062500e+01 -5.309752464294433594e+00 -8.428612351417541504e-02 7.877374172210693359e+00 2.337926387786865234e+00 -3.915051743388175964e-02
1.125000000000000000e+03 7.938199615478515625e+01 -9.656723976135253906e+00 -1.828181929886341095e-02 7.576586246490478516e+00 2.267491340637207031e+00 1.574877202510833740e-01
1.126000000000000000e+03 7.812653350830078125e+01 -1.507407188415527344e+01 1.408868581056594849e-01 6.710157871246337891e+00 2.055313348770141602e+00 4.378729462623596191e-01
1.127000000000000000e+03 7.813105773925781250e+01 -1.228306102752685547e+01 -3.943542391061782837e-02 7.226100444793701172e+00 2.155999660491943359e+00 5.779065489768981934e-01
1.128000000000000000e+03 7.937780761718750000e+01 -1.662567138671875000e+01 3.048849292099475861e-02 5.520181655883789062e+00 1.665201067924499512e+00 8.371091634035110474e-02
1.129000000000000000e+03 7.822509765625000000e+01 -2.053089332580566406e+01 1.722531467676162720e-01 6.728360652923583984e+00 2.070184230804443359e+00 -4.942117631435394287e-01
1.130000000000000000e+03 7.820113372802734375e+01 -1.916744041442871094e+01 2.080374956130981445e-01 6.529333591461181641e+00 2.021211385726928711e+00 -2.429758310317993164e-01
1.131000000000000000e+03 1.617278099060058594e+01 -2.538662910461425781e+01 -1.475768387317657471e-01 2.311895132064819336e+00 6.492954492568969727e-01 -6.286727786064147949e-01
1.132000000000000000e+03 3.107214927673339844e+01 -3.152604675292968750e+01 -8.336548209190368652e-01 2.266351699829101562e+00 4.298090636730194092e-01 1.314947724342346191e+00
1.133000000000000000e+03 2.454290390014648438e+01 -8.645192146301269531e+00 -1.915930509567260742e+00 3.440617620944976807e-01 -4.715606272220611572e-01 -4.511026740074157715e-01
1.134000000000000000e+03 3.622608184814453125e+01 -1.465026569366455078e+01 1.739766836166381836e+00 1.254486370086669922e+01 4.285388946533203125e+00 -2.874713897705078125e+00
1.135000000000000000e+03 2.607442855834960938e+01 -3.209782791137695312e+01 -8.360811471939086914e-01 1.638807356357574463e-02 -2.459079325199127197e-01 3.818355798721313477e-01
1.136000000000000000e+03 3.671686553955078125e+01 -2.243208885192871094e+01 1.575742125511169434e+00 9.792854309082031250e+00 3.410578966140747070e+00 4.049755334854125977e-01
1.137000000000000000e+03 3.707382965087890625e+01 -2.076072311401367188e+01 1.290197849273681641e+00 1.074027633666992188e+01 3.609142303466796875e+00 -2.788764536380767822e-01
1.138000000000000000e+03 1.356095409393310547e+01 -2.038751029968261719e+01 1.244637250900268555e+00 7.399662971496582031e+00 2.593290090560913086e+00 -2.233508825302124023e-01
1.139000000000000000e+03 1.697530937194824219e+01 -2.664135742187500000e+01 -4.333177506923675537e-01 1.763001799583435059e+00 3.989052176475524902e-01 -4.766670167446136475e-01
1.140000000000000000e+03 1.318816184997558594e+01 -1.728003883361816406e+01 1.333094477653503418e+00 7.777414798736572266e+00 2.733152627944946289e+00 1.203176498413085938e+00
1.141000000000000000e+03 5.201462936401367188e+01 -5.706936836242675781e+00 1.664911627769470215e+00 2.098028659820556641e+00 1.128882050514221191e+00 2.224798679351806641e+00
1.142000000000000000e+03 5.434431838989257812e+01 -6.422864913940429688e+00 1.043022513389587402e+00 2.043664932250976562e+00 9.260061979293823242e-01 1.883245229721069336e+00
1.143000000000000000e+03 6.205617141723632812e+01 2.198431015014648438e+01 -1.565990805625915527e+00 6.647358894348144531e+00 1.524410486221313477e+00 -1.198772907257080078e+00
1.144000000000000000e+03 6.468452453613281250e+01 1.846622848510742188e+01 7.188916802406311035e-01 8.170866966247558594e+00 2.666927576065063477e+00 1.897596567869186401e-01
1.145000000000000000e+03 6.251420593261718750e+01 1.774524116516113281e+01 9.182770848274230957e-01 1.060129261016845703e+01 3.455871105194091797e+00 -1.499622225761413574e+00
1.146000000000000000e+03 3.887205505371093750e+01 -7.238804101943969727e-01 1.431492805480957031e+00 1.040972518920898438e+01 3.552365303039550781e+00 -2.102765321731567383e+00
1.147000000000000000e+03 5.419076538085937500e+01 2.285138702392578125e+01 -1.489534139633178711e+00 1.766352653503417969e-01 -3.938696682453155518e-01 3.364804685115814209e-01
1.148000000000000000e+03 4.108242797851562500e+01 -2.456863641738891602e+00 6.951150298118591309e-01 5.463028430938720703e+00 1.847443103790283203e+00 -2.668975353240966797e+00
1.149000000000000000e+03 5.788544464111328125e+01 2.338875961303710938e+01 -9.004305601119995117e-01 7.220361232757568359e-01 -5.351832509040832520e-02 -1.025529146194458008e+00
1.150000000000000000e+03 4.015822219848632812e+01 1.009212684631347656e+01 2.532657146453857422e+00 1.275126552581787109e+01 4.585176944732666016e+00 5.155244827270507812e+00
1.151000000000000000e+03 6.273741912841796875e+01 2.103561782836914062e+01 -1.202921271324157715e+00 7.244971752166748047e+00 1.812615156173706055e+00 -2.234945446252822876e-01
1.152000000000000000e+03 4.661318588256835938e+01 -5.818552017211914062e+00 -1.922273755073547363e+00 -5.259536579251289368e-02 -5.924607515335083008e-01 8.941395878791809082e-01
1.153000000000000000e+03 6.050023269653320312e+01 5.396179199218750000e+00 1.827224254608154297e+00 7.010701656341552734e+00 2.651377677917480469e+00 3.068527221679687500e+00
1.154000000000000000e+03 5.971541976928710938e+01 4.189890861511230469e+00 1.833043694496154785e+00 5.049871444702148438e+00 2.064874410629272461e+00 2.849653244018554688e+00
1.155000000000000000e+03 6.203890991210937500e+01 1.093925380706787109e+01 2.428357601165771484e-01 1.080702018737792969e+01 3.314956903457641602e+00 1.318971872329711914e+00
1.156000000000000000e+03 5.751619720458984375e+01 -9.392126202583312988e-01 1.969238519668579102e+00 3.102545738220214844e+00 1.521535277366638184e+00 2.136877298355102539e+00
1.157000000000000000e+03 3.891402816772460938e+01 3.379584312438964844e+00 7.387922406196594238e-01 1.417657184600830078e+01 4.474609375000000000e+00 -3.918639123439788818e-01
1.158000000000000000e+03 3.825958633422851562e+01 2.415258139371871948e-01 1.604364156723022461e+00 1.132854175567626953e+01 3.879871606826782227e+00 -1.378801107406616211e+00
1.159000000000000000e+03 3.740636062622070312e+01 1.035303711891174316e+00 2.081010580062866211e+00 1.125615787506103516e+01 4.001150608062744141e+00 -6.974784135818481445e-01
1.160000000000000000e+03 3.769726181030273438e+01 5.344719886779785156e+00 1.124247431755065918e+00 1.455234813690185547e+01 4.702978610992431641e+00 1.563096165657043457e+00
1.161000000000000000e+03 4.413314437866210938e+01 -5.506919860839843750e+00 -1.338422179222106934e+00 1.290752768516540527e+00 -1.430083159357309341e-02 -4.898857474327087402e-01
1.162000000000000000e+03 5.902002334594726562e+01 1.362106323242187500e+00 1.463956952095031738e+00 3.928047895431518555e+00 1.617601513862609863e+00 2.298256635665893555e+00
1.163000000000000000e+03 6.299110031127929688e+01 1.088396358489990234e+01 6.937533617019653320e-01 1.008939361572265625e+01 3.234944105148315430e+00 1.111540436744689941e+00
1.164000000000000000e+03 4.542653274536132812e+01 -4.401906967163085938e+00 -3.680976152420043945e+00 -1.072874292731285095e-01 -1.136479020118713379e+00 1.011601567268371582e+00
1.165000000000000000e+03 3.780429840087890625e+01 1.321375560760498047e+01 8.586067557334899902e-01 9.544798851013183594e+00 3.121021509170532227e+00 7.485445141792297363e-01
1.166000000000000000e+03 6.160925674438476562e+01 4.813690662384033203e+00 1.277301669120788574e+00 6.757055759429931641e+00 2.410307168960571289e+00 1.749537706375122070e+00
1.167000000000000000e+03 6.224337005615234375e+01 6.301071166992187500e+00 1.224209427833557129e+00 7.683090209960937500e+00 2.672189950942993164e+00 1.823187232017517090e+00
1.168000000000000000e+03 4.326840972900390625e+01 1.787980842590332031e+01 6.279725432395935059e-01 4.212216854095458984e+00 1.452056765556335449e+00 2.030555009841918945e+00
1.169000000000000000e+03 4.292633819580078125e+01 1.590327548980712891e+01 1.477259635925292969e+00 4.497182846069335938e+00 1.792332768440246582e+00 2.538948774337768555e+00
1.170000000000000000e+03 5.584367752075195312e+01 -3.270901441574096680e+00 2.074927330017089844e+00 2.628889322280883789e+00 1.411144971847534180e+00 2.166756391525268555e+00
1.171000000000000000e+03 4.579850387573242188e+01 1.668496513366699219e+01 1.689402818679809570e+00 1.984916806221008301e+00 1.102295875549316406e+00 1.799630045890808105e+00
1.172000000000000000e+03 5.274974060058593750e+01 2.248445701599121094e+01 -1.495078206062316895e+00 4.248725771903991699e-01 -3.210616707801818848e-01 5.756981372833251953e-01
1.173000000000000000e+03 3.925280380249023438e+01 1.345494461059570312e+01 1.085139393806457520e+00 8.761519432067871094e+00 2.953997611999511719e+00 1.876989245414733887e+00
1.174000000000000000e+03 3.935317993164062500e+01 1.188101387023925781e+01 1.675108909606933594e+00 1.030548858642578125e+01 3.594179153442382812e+00 2.626011610031127930e+00
1.175000000000000000e+03 4.839247512817382812e+01 2.041402435302734375e+01 -3.052267432212829590e-01 1.475898981094360352e+00 3.512016832828521729e-01 1.052542567253112793e+00
1.176000000000000000e+03 4.540591430664062500e+01 -6.783912658691406250e+00 -6.563472747802734375e-01 9.989258646965026855e-01 1.027735695242881775e-01 1.933950483798980713e-01
1.177000000000000000e+03 4.907973480224609375e+01 -6.456308841705322266e+00 -2.417544871568679810e-01 -1.418677866458892822e-01 -1.150866895914077759e-01 2.039121150970458984e+00
1.178000000000000000e+03 6.284939193725585938e+01 7.859613895416259766e+00 9.921572208404541016e-01 8.778631210327148438e+00 2.931236505508422852e+00 1.462272405624389648e+00
1.179000000000000000e+03 6.399706649780273438e+01 1.593475532531738281e+01 8.920010328292846680e-01 9.411682128906250000e+00 3.091104984283447266e+00 -4.452539086341857910e-01
1.180000000000000000e+03 5.980221557617187500e+01 2.460511207580566406e+00 1.356022119522094727e+00 4.545373439788818359e+00 1.770418643951416016e+00 2.249220371246337891e+00
1.181000000000000000e+03 5.670104217529296875e+01 -2.107101917266845703e+00 2.122222423553466797e+00 2.922423839569091797e+00 1.513393759727478027e+00 2.097552776336669922e+00
1.182000000000000000e+03 4.064458847045898438e+01 1.405539417266845703e+01 1.414850711822509766e+00 7.604412555694580078e+00 2.705779075622558594e+00 2.593890666961669922e+00
1.183000000000000000e+03 5.828147125244140625e+01 2.271840870380401611e-01 1.795078635215759277e+00 3.405239820480346680e+00 1.560095548629760742e+00 2.240873813629150391e+00
1.184000000000000000e+03 6.344829559326171875e+01 1.320967960357666016e+01 5.740202069282531738e-01 1.014081764221191406e+01 3.214451313018798828e+00 3.935874104499816895e-01
1.185000000000000000e+03 3.738161468505859375e+01 4.071425914764404297e+00 1.529677867889404297e+00 1.360578918457031250e+01 4.540640354156494141e+00 1.006704092025756836e+00
1.186000000000000000e+03 6.001056289672851562e+01 8.366225957870483398e-01 1.394050717353820801e+00 4.217218875885009766e+00 1.683380842208862305e+00 1.922196388244628906e+00
1.187000000000000000e+03 1.281690001487731934e+00 -4.012133026123046875e+01 -2.083994820713996887e-02 2.075691699981689453e+00 6.164554953575134277e-01 1.477802172303199768e-02
1.188000000000000000e+03 7.779650092124938965e-01 3.730578231811523438e+01 -9.607709012925624847e-03 1.836845040321350098e+00 5.481712222099304199e-01 -2.224750630557537079e-02
1.189000000000000000e+03 6.490654945373535156e-01 3.461177062988281250e+01 -1.164201926440000534e-02 1.694163680076599121e+00 5.047565102577209473e-01 -4.541859775781631470e-02
1.190000000000000000e+03 6.606444120407104492e-01 3.322661972045898438e+01 -2.781471703201532364e-03 1.580246925354003906e+00 4.732396602630615234e-01 -6.268903613090515137e-02
1.191000000000000000e+03 6.428923010826110840e-01 2.763480377197265625e+01 -1.152336597442626953e-02 6.561418175697326660e-01 1.933855414390563965e-01 -1.596449315547943115e-01
1.192000000000000000e+03 6.643821597099304199e-01 2.623933982849121094e+01 -1.963765732944011688e-02 2.756264209747314453e-01 7.679662853479385376e-02 -1.929124146699905396e-01
1.193000000000000000e+03 8.216916322708129883e-01 -3.607125091552734375e+01 -2.769948169589042664e-02 1.876813411712646484e+00 5.547341704368591309e-01 7.525283098220825195e-02
1.194000000000000000e+03 2.899739742279052734e+00 -3.321436309814453125e+01 -1.083335578441619873e-01 1.555565834045410156e+00 4.341696798801422119e-01 3.946953713893890381e-01
1.195000000000000000e+03 3.479569435119628906e+00 2.489180564880371094e+01 -1.446865648031234741e-01 7.364792227745056152e-01 1.775377988815307617e-01 -9.230127930641174316e-01
1.196000000000000000e+03 2.023056745529174805e+00 2.627398490905761719e+01 -6.453102827072143555e-02 5.578133463859558105e-01 1.479846984148025513e-01 -5.379177331924438477e-01
1.197000000000000000e+03 2.018933534622192383e+00 3.308064270019531250e+01 -4.352048411965370178e-02 1.550817012786865234e+00 4.521889686584472656e-01 -1.856748312711715698e-01
1.198000000000000000e+03 3.792946815490722656e+00 3.878890991210937500e+01 -5.516801401972770691e-02 1.803439497947692871e+00 5.244814157485961914e-01 -8.445352315902709961e-02
1.199000000000000000e+03 2.200453042984008789e+00 -2.874487495422363281e+01 -5.960544198751449585e-02 8.169512748718261719e-01 2.272037416696548462e-01 5.528318285942077637e-01
1.200000000000000000e+03 2.023427009582519531e+00 -2.591664886474609375e+01 -2.639025263488292694e-02 1.415743231773376465e-01 3.455522283911705017e-02 6.124612092971801758e-01
1.201000000000000000e+03 1.599590301513671875e+00 -9.038109779357910156e+00 2.980061434209346771e-02 -1.386575579643249512e+00 -4.070324599742889404e-01 -3.717944324016571045e-01
1.202000000000000000e+03 2.362988710403442383e+00 -3.718395614624023438e+01 -5.786225572228431702e-02 1.909168124198913574e+00 5.553917288780212402e-01 1.426888108253479004e-01
1.203000000000000000e+03 1.790469408035278320e+00 -1.604653739929199219e+01 9.636709839105606079e-02 -1.862027525901794434e+00 -5.296981334686279297e-01 6.882719695568084717e-02
1.204000000000000000e+03 6.761618852615356445e-01 2.055702590942382812e+01 1.970384083688259125e-02 -1.679210543632507324e+00 -4.978519976139068604e-01 -2.432400286197662354e-01
1.205000000000000000e+03 6.701359748840332031e-01 1.913475799560546875e+01 -5.102782510221004486e-03 -2.168853521347045898e+00 -6.521868705749511719e-01 -2.268445938825607300e-01
1.206000000000000000e+03 6.212722063064575195e-01 1.485260391235351562e+01 5.299076437950134277e-02 -3.201966047286987305e+00 -9.446925520896911621e-01 -8.107113093137741089e-02
1.207000000000000000e+03 6.084056496620178223e-01 1.342842292785644531e+01 9.051274508237838745e-03 -3.293603420257568359e+00 -9.853656291961669922e-01 -3.314992180094122887e-03
1.208000000000000000e+03 5.574435591697692871e-01 7.736714839935302734e+00 -3.495732787996530533e-03 -2.225018024444580078e+00 -6.685541272163391113e-01 1.923002451658248901e-01
1.209000000000000000e+03 4.963245689868927002e-01 6.320724964141845703e+00 5.692077334970235825e-03 -1.700667262077331543e+00 -5.084925889968872070e-01 1.905745416879653931e-01
1.210000000000000000e+03 3.302186250686645508e+00 -3.930307006835937500e+01 -7.563750445842742920e-02 1.977911472320556641e+00 5.706822276115417480e-01 1.343293637037277222e-01
1.211000000000000000e+03 6.579559803009033203e+00 -3.616067504882812500e+01 -3.161566555500030518e-01 1.812791824340820312e+00 4.489905536174774170e-01 3.665718436241149902e-01
1.212000000000000000e+03 2.821105718612670898e+00 -3.476036453247070312e+01 -9.756194055080413818e-02 1.688546180725097656e+00 4.772952497005462646e-01 3.048190772533416748e-01
1.213000000000000000e+03 2.609040021896362305e+00 -3.164975738525390625e+01 -9.357296675443649292e-02 1.351228833198547363e+00 3.772967457771301270e-01 4.657864868640899658e-01
1.214000000000000000e+03 2.093527555465698242e+00 -2.733112144470214844e+01 -3.627903759479522705e-02 4.917829334735870361e-01 1.366511732339859009e-01 5.876850485801696777e-01
1.215000000000000000e+03 3.465504169464111328e+00 -2.708564567565917969e+01 -1.001682057976722717e-01 8.246405124664306641e-01 2.173416912555694580e-01 8.597747087478637695e-01
1.216000000000000000e+03 1.907873034477233887e+00 -2.166772651672363281e+01 5.373172089457511902e-02 -9.609111547470092773e-01 -2.721538245677947998e-01 5.377781391143798828e-01
1.217000000000000000e+03 1.977847099304199219e+00 -2.449810218811035156e+01 8.802824653685092926e-03 -2.317028492689132690e-01 -6.687001138925552368e-02 6.169487237930297852e-01
1.218000000000000000e+03 3.151903867721557617e+00 -2.002928161621093750e+01 1.832413077354431152e-01 -5.519454479217529297e-01 -1.106112375855445862e-01 6.630056500434875488e-01
1.219000000000000000e+03 6.135553717613220215e-01 -1.906960105895996094e+01 1.985205523669719696e-02 -2.396004199981689453e+00 -7.128456234931945801e-01 1.268265843391418457e-01
1.220000000000000000e+03 1.844171166419982910e+00 -1.885494232177734375e+01 8.967975527048110962e-02 -1.546002507209777832e+00 -4.368968009948730469e-01 3.432127237319946289e-01
1.221000000000000000e+03 2.879596471786499023e+00 -1.303601646423339844e+01 1.750540584325790405e-01 -1.153204321861267090e+00 -2.934450805187225342e-01 -2.517310082912445068e-01
1.222000000000000000e+03 5.650496482849121094e-01 -1.201724624633789062e+01 5.677904468029737473e-03 -2.501835823059082031e+00 -7.488473653793334961e-01 -8.978287130594253540e-02
1.223000000000000000e+03 1.692982554435729980e+00 -1.183531284332275391e+01 6.143918633460998535e-02 -1.760512232780456543e+00 -5.097219347953796387e-01 -2.607382237911224365e-01
1.224000000000000000e+03 4.012805938720703125e+00 -3.445005416870117188e+00 -2.524681985378265381e-01 -1.511156857013702393e-01 -1.210751682519912720e-01 -5.746182203292846680e-01
1.225000000000000000e+03 1.884757280349731445e+00 -3.194262504577636719e+00 -8.999457955360412598e-02 -3.064686059951782227e-01 -1.189389601349830627e-01 -3.266877233982086182e-01
1.226000000000000000e+03 1.142257928848266602e+00 -3.411751270294189453e+00 -4.064486175775527954e-02 -3.480224907398223877e-01 -1.166002079844474792e-01 -2.240536361932754517e-01
1.227000000000000000e+03 4.328531920909881592e-01 4.931441783905029297e+00 -1.805340312421321869e-02 -1.110718488693237305e+00 -3.386315703392028809e-01 1.755509674549102783e-01
1.228000000000000000e+03 2.137480258941650391e+00 4.407460212707519531e+00 -7.243950664997100830e-02 -7.477485537528991699e-01 -2.460564225912094116e-01 6.899058818817138672e-01
1.229000000000000000e+03 1.766083240509033203e+00 1.038352680206298828e+01 1.142513975501060486e-01 -2.123841524124145508e+00 -6.028770208358764648e-01 3.224159479141235352e-01
1.230000000000000000e+03 5.943561196327209473e-01 1.059025478363037109e+01 1.203871704638004303e-02 -3.017543554306030273e+00 -9.016514420509338379e-01 1.179057508707046509e-01
1.231000000000000000e+03 1.806881904602050781e+00 1.323770523071289062e+01 1.400519013404846191e-01 -2.261090517044067383e+00 -6.363115906715393066e-01 -7.390876766294240952e-03
1.232000000000000000e+03 2.035244464874267578e+00 2.049773597717285156e+01 2.183712832629680634e-02 -8.962118029594421387e-01 -2.623124122619628906e-01 -6.746644973754882812e-01
1.233000000000000000e+03 2.014993190765380859e+00 1.905141067504882812e+01 7.490476220846176147e-02 -1.276293754577636719e+00 -3.604166805744171143e-01 -5.984603762626647949e-01
1.234000000000000000e+03 2.058751106262207031e+00 2.484179687500000000e+01 -5.219585821032524109e-02 2.556802630424499512e-01 6.104531511664390564e-02 -6.067789793014526367e-01
1.235000000000000000e+03 3.402093505859375000e+01 1.247687244415283203e+01 6.824658513069152832e-01 8.972874641418457031e+00 2.896602153778076172e+00 -1.597840905189514160e+00
1.236000000000000000e+03 3.086553192138671875e+01 -1.439281463623046875e+00 4.562022686004638672e+00 4.119642734527587891e+00 2.604499816894531250e+00 1.195757031440734863e+00
1.237000000000000000e+03 3.224157714843750000e+01 -3.107057809829711914e-01 5.766527652740478516e+00 6.484313011169433594e+00 3.675252199172973633e+00 2.957623481750488281e+00
1.238000000000000000e+03 1.700456619262695312e+01 1.929423213005065918e+00 1.926973104476928711e+00 2.009707212448120117e+00 1.181004166603088379e+00 -4.082877159118652344e+00
1.239000000000000000e+03 1.630270957946777344e+01 1.954000473022460938e+00 7.807830572128295898e-01 1.263600349426269531e+00 6.133149862289428711e-01 -2.889622211456298828e+00
1.240000000000000000e+03 1.811160278320312500e+01 2.414202690124511719e+00 1.334207057952880859e+00 6.870738983154296875e+00 2.461483716964721680e+00 -6.311615467071533203e+00
1.241000000000000000e+03 1.883485984802246094e+01 2.389441728591918945e+00 4.423665404319763184e-01 1.070631694793701172e+01 3.344604969024658203e+00 -5.577122211456298828e+00
1.242000000000000000e+03 1.861162185668945312e+01 6.472039222717285156e+00 4.853187799453735352e-01 4.761227130889892578e+00 1.573963880538940430e+00 -2.991997957229614258e+00
1.243000000000000000e+03 1.808348083496093750e+01 -1.872717618942260742e+00 1.752302527427673340e+00 5.424570083618164062e+00 2.153061628341674805e+00 3.738481998443603516e+00
1.244000000000000000e+03 1.784864616394042969e+01 -1.726660728454589844e+00 2.073692321777343750e+00 4.393432140350341797e+00 1.940137386322021484e+00 3.728881120681762695e+00
1.245000000000000000e+03 1.885094451904296875e+01 -1.298977136611938477e+00 1.790270209312438965e+00 1.000269603729248047e+01 3.537889957427978516e+00 3.319992065429687500e+00
1.246000000000000000e+03 1.726243782043457031e+01 -1.645164012908935547e+00 2.094283819198608398e+00 2.354062557220458984e+00 1.334503889083862305e+00 3.020734548568725586e+00
1.247000000000000000e+03 1.779117965698242188e+01 -1.341835856437683105e+00 2.565024852752685547e+00 3.780656337738037109e+00 1.903704285621643066e+00 3.693903446197509766e+00
1.248000000000000000e+03 1.871239662170410156e+01 -1.689334392547607422e+00 1.434231758117675781e+00 8.157853126525878906e+00 2.877625465393066406e+00 3.323407888412475586e+00
1.249000000000000000e+03 2.008920478820800781e+01 2.097764015197753906e+00 2.010092496871948242e+00 1.038532829284667969e+01 3.718626260757446289e+00 -8.087405562400817871e-01
1.250000000000000000e+03 1.946942520141601562e+01 -1.193418025970458984e+00 1.815122365951538086e+00 1.230720615386962891e+01 4.236698627471923828e+00 4.284611940383911133e-01
1.251000000000000000e+03 2.069006538391113281e+01 2.891727447509765625e+00 -9.948924183845520020e-02 6.570767879486083984e+00 1.941383481025695801e+00 -2.772390842437744141e-01
1.252000000000000000e+03 2.125769805908203125e+01 2.841318368911743164e+00 2.624464035034179688e-01 4.848026752471923828e+00 1.533141970634460449e+00 4.529578983783721924e-02
1.253000000000000000e+03 1.917387962341308594e+01 2.291532516479492188e+00 4.486046135425567627e-01 1.184654140472412109e+01 3.688543796539306641e+00 -4.282625198364257812e+00
1.254000000000000000e+03 2.456867790222167969e+01 -6.621181488037109375e+00 6.525576114654541016e-02 6.420112252235412598e-01 2.121800929307937622e-01 4.316151142120361328e-02
1.255000000000000000e+03 2.023635482788085938e+01 -7.844526767730712891e-01 5.364775180816650391e+00 1.060440254211425781e+01 4.790753364562988281e+00 -3.377631664276123047e+00
1.256000000000000000e+03 2.116674804687500000e+01 1.785959959030151367e+00 3.997477054595947266e+00 5.732560634613037109e+00 2.919011116027832031e+00 3.890438079833984375e-01
1.257000000000000000e+03 2.100858116149902344e+01 2.376320213079452515e-01 8.816698074340820312e+00 5.605455398559570312e+00 4.326646327972412109e+00 -2.090355157852172852e+00
1.258000000000000000e+03 1.895498466491699219e+01 2.690769195556640625e+00 -2.150174975395202637e-01 9.691276550292968750e+00 2.842877626419067383e+00 -4.819638729095458984e+00
1.259000000000000000e+03 1.619805717468261719e+01 2.496331691741943359e+00 6.447412967681884766e-01 1.968308687210083008e+00 7.839149832725524902e-01 -3.356353759765625000e+00
1.260000000000000000e+03 1.712516021728515625e+01 2.936134815216064453e+00 7.603433132171630859e-01 4.163718700408935547e+00 1.477218627929687500e+00 -4.948180675506591797e+00
1.261000000000000000e+03 1.578691577911376953e+01 2.640407323837280273e+00 3.600880205631256104e-01 1.711331963539123535e+00 6.214259862899780273e-01 -2.923015832901000977e+00
1.262000000000000000e+03 1.398615360260009766e+01 -2.783104658126831055e+00 1.226674094796180725e-01 7.254874110221862793e-01 2.544464468955993652e-01 1.181848168373107910e+00
1.263000000000000000e+03 1.191839408874511719e+01 -2.476481676101684570e+00 -5.975962877273559570e-01 3.372172415256500244e-01 -7.811371982097625732e-02 3.067716956138610840e-01
1.264000000000000000e+03 1.270989036560058594e+01 -2.977008581161499023e+00 -2.083791196346282959e-01 5.828894972801208496e-01 1.123531162738800049e-01 7.158564329147338867e-01
1.265000000000000000e+03 1.039483737945556641e+01 -2.557737588882446289e+00 -7.500625252723693848e-01 2.682325541973114014e-01 -1.445489972829818726e-01 -4.461106285452842712e-02
1.266000000000000000e+03 1.337254524230957031e+01 -2.859119892120361328e+00 -6.014303117990493774e-02 6.266919374465942383e-01 1.699646711349487305e-01 9.225658774375915527e-01
1.267000000000000000e+03 6.727222442626953125e+00 -3.241411924362182617e+00 -4.990243017673492432e-01 9.435104578733444214e-02 -1.214019730687141418e-01 -5.525041222572326660e-01
1.268000000000000000e+03 3.983782529830932617e+00 -2.682073116302490234e+00 -3.336616456508636475e-01 -1.013017222285270691e-01 -1.304890066385269165e-01 -4.896354973316192627e-01
1.269000000000000000e+03 6.036434650421142578e+00 -3.282029867172241211e+00 -4.420679211616516113e-01 3.564431145787239075e-02 -1.219270899891853333e-01 -5.858404040336608887e-01
1.270000000000000000e+03 4.653545856475830078e+00 -3.453180551528930664e+00 -3.107983171939849854e-01 -8.827939629554748535e-02 -1.197233125567436218e-01 -5.934976339340209961e-01
1.271000000000000000e+03 4.656288623809814453e+00 -2.647898197174072266e+00 -4.093666970729827881e-01 -6.566891819238662720e-02 -1.425106823444366455e-01 -5.174377560615539551e-01
1.272000000000000000e+03 8.723167419433593750e+00 -4.026425838470458984e+00 -3.843624591827392578e-01 3.977042138576507568e-01 4.002527799457311630e-03 -3.297795057296752930e-01
1.273000000000000000e+03 5.385530948638916016e+00 -4.094091415405273438e+00 -2.806707322597503662e-01 -2.982442453503608704e-02 -9.314855188131332397e-02 -6.462644934654235840e-01
1.274000000000000000e+03 3.647085666656494141e+00 -6.118173599243164062e+00 -3.500797972083091736e-02 -3.712283968925476074e-01 -1.218709126114845276e-01 -6.733220219612121582e-01
1.275000000000000000e+03 1.347483634948730469e+00 -4.741552352905273438e+00 -2.548094466328620911e-02 -5.941971540451049805e-01 -1.859034299850463867e-01 -3.308343589305877686e-01
1.276000000000000000e+03 8.836833000183105469e+00 -3.270591735839843750e+00 -5.664259195327758789e-01 2.746300697326660156e-01 -8.753874897956848145e-02 -3.125968873500823975e-01
1.277000000000000000e+03 1.256631660461425781e+01 3.202238559722900391e+00 -7.595592737197875977e-01 9.930342435836791992e-01 7.004249840974807739e-02 -4.935305714607238770e-01
1.278000000000000000e+03 1.464171981811523438e+01 2.942744255065917969e+00 -2.305305749177932739e-01 1.467371344566345215e+00 3.710522353649139404e-01 -1.899895906448364258e+00
1.279000000000000000e+03 1.397857284545898438e+01 3.041982173919677734e+00 -4.776003062725067139e-01 1.313207864761352539e+00 2.506822645664215088e-01 -1.385987997055053711e+00
1.280000000000000000e+03 1.110091972351074219e+01 4.045441150665283203e+00 -4.027161896228790283e-01 9.872252345085144043e-01 1.753527075052261353e-01 1.171486899256706238e-01
1.281000000000000000e+03 1.031111907958984375e+01 3.369144439697265625e+00 -8.771234154701232910e-01 5.553857684135437012e-01 -9.652128070592880249e-02 4.457168579101562500e-01
1.282000000000000000e+03 1.119455623626708984e+01 -3.322352409362792969e+00 -4.024187624454498291e-01 5.336793065071105957e-01 3.937815502285957336e-02 2.406559735536575317e-01
1.283000000000000000e+03 9.582149505615234375e+00 -3.286877870559692383e+00 -5.473164916038513184e-01 3.471829593181610107e-01 -6.004006415605545044e-02 -1.789317429065704346e-01
1.284000000000000000e+03 7.901396751403808594e+00 2.698187351226806641e+00 -1.168059587478637695e+00 1.139530465006828308e-01 -3.162319660186767578e-01 8.615521192550659180e-01
1.285000000000000000e+03 3.747033119201660156e+00 3.003479957580566406e+00 -4.150683581829071045e-01 -2.576889395713806152e-01 -2.018271833658218384e-01 8.211833238601684570e-01
1.286000000000000000e+03 4.577543735504150391e+00 2.912504911422729492e+00 -5.631496906280517578e-01 -1.742440909147262573e-01 -2.212181389331817627e-01 8.980866670608520508e-01
1.287000000000000000e+03 6.239291191101074219e+00 2.782795667648315430e+00 -8.742909431457519531e-01 -2.470705844461917877e-02 -2.696993947029113770e-01 9.519246816635131836e-01
1.288000000000000000e+03 5.428917884826660156e+00 3.753802776336669922e+00 -4.548026025295257568e-01 -1.320763677358627319e-01 -1.760636866092681885e-01 1.063758492469787598e+00
1.289000000000000000e+03 3.791388750076293945e+00 3.998407125473022461e+00 -2.515625953674316406e-01 -3.787550330162048340e-01 -1.890952885150909424e-01 9.453937411308288574e-01
1.290000000000000000e+03 1.293168067932128906e+00 4.694235324859619141e+00 -3.131285309791564941e-02 -9.119988679885864258e-01 -2.829935252666473389e-01 4.655554592609405518e-01
1.291000000000000000e+03 6.258019447326660156e+00 3.653346061706542969e+00 -5.624198913574218750e-01 -3.930050414055585861e-03 -1.699049770832061768e-01 1.049563288688659668e+00
1.292000000000000000e+03 8.722027778625488281e+00 2.669326305389404297e+00 -1.282398819923400879e+00 1.987479478120803833e-01 -3.250952661037445068e-01 7.510944008827209473e-01
1.293000000000000000e+03 7.087050914764404297e+00 3.573352575302124023e+00 -6.618611812591552734e-01 9.492014348506927490e-02 -1.700823158025741577e-01 1.019950270652770996e+00
1.294000000000000000e+03 8.722383499145507812e+00 3.460845947265625000e+00 -8.132845759391784668e-01 3.123892247676849365e-01 -1.502686142921447754e-01 8.164798021316528320e-01
1.295000000000000000e+03 9.524471282958984375e+00 3.413278579711914062e+00 -8.582734465599060059e-01 4.396474957466125488e-01 -1.255877912044525146e-01 6.402032971382141113e-01
1.296000000000000000e+03 5.918535995483398438e+01 -1.280497074127197266e+01 -2.287369012832641602e+00 3.557003140449523926e-01 -5.795006155967712402e-01 -2.136177122592926025e-01
1.297000000000000000e+03 5.544107818603515625e+01 -7.996188640594482422e+00 3.031762540340423584e-01 1.653402447700500488e+00 5.869736075401306152e-01 1.630450606346130371e+00
1.298000000000000000e+03 2.287730026245117188e+01 -8.588751792907714844e+00 -1.163119912147521973e+00 9.419610500335693359e-01 -6.634766608476638794e-02 1.834769248962402344e-01
1.299000000000000000e+03 5.174210739135742188e+01 -1.341317749023437500e+01 4.303103983402252197e-01 4.621073603630065918e-01 2.677253186702728271e-01 1.306529164314270020e+00
1.300000000000000000e+03 5.439527130126953125e+01 -1.353715038299560547e+01 -8.841845393180847168e-01 2.508364617824554443e-01 -1.900044232606887817e-01 6.892170906066894531e-01
1.301000000000000000e+03 1.208754730224609375e+01 -1.669492340087890625e+01 1.853737354278564453e+00 5.437947273254394531e+00 2.187505245208740234e+00 1.074976444244384766e+00
1.302000000000000000e+03 6.025074768066406250e+01 -1.079940795898437500e+01 -1.386573076248168945e+00 6.517375707626342773e-01 -2.204506695270538330e-01 2.888178527355194092e-01
1.303000000000000000e+03 3.730119323730468750e+01 1.593508243560791016e+01 3.585948944091796875e-01 7.681454658508300781e+00 2.412014961242675781e+00 2.849033474922180176e-01
1.304000000000000000e+03 2.698045349121093750e+01 -5.058145523071289062e+00 2.204864978790283203e+00 -3.168487548828125000e-01 5.664048790931701660e-01 2.655569277703762054e-02
1.305000000000000000e+03 2.362397766113281250e+01 -7.976879596710205078e+00 -8.032597899436950684e-01 9.036442041397094727e-01 3.011531755328178406e-02 1.529837399721145630e-01
1.306000000000000000e+03 1.388896274566650391e+01 1.205654621124267578e+01 2.390184164047241211e+00 8.167732238769531250e+00 3.167374849319458008e+00 -2.589664936065673828e+00
1.307000000000000000e+03 1.295258903503417969e+01 1.669698905944824219e+01 9.893553256988525391e-01 8.060447692871093750e+00 2.714941024780273438e+00 -6.822885274887084961e-01
1.308000000000000000e+03 2.262214660644531250e+01 -9.881712913513183594e+00 -1.543836951255798340e+00 3.574128448963165283e-01 -3.559272289276123047e-01 -1.646289229393005371e-01
1.309000000000000000e+03 2.104730033874511719e+01 -9.544128417968750000e+00 -8.635771274566650391e-01 1.104426622390747070e+00 7.225484400987625122e-02 8.037793040275573730e-01
1.310000000000000000e+03 2.056960868835449219e+01 -8.799492835998535156e+00 -5.110365748405456543e-01 1.839845538139343262e+00 3.986426889896392822e-01 1.407865166664123535e+00
1.311000000000000000e+03 6.100086593627929688e+01 -1.011765670776367188e+01 -1.165944933891296387e+00 6.253860592842102051e-01 -1.621676683425903320e-01 9.742613881826400757e-03
1.312000000000000000e+03 2.241549491882324219e+01 2.785827398300170898e+00 3.270166218280792236e-01 1.921512186527252197e-01 1.557503491640090942e-01 1.056783437728881836e+00
1.313000000000000000e+03 2.157823562622070312e+01 3.529455661773681641e+00 -1.308852791786193848e+00 2.462106943130493164e+00 3.459762334823608398e-01 5.823010802268981934e-01
1.314000000000000000e+03 2.026208114624023438e+01 4.726288318634033203e+00 -2.084179878234863281e+00 4.404603958129882812e+00 6.961271762847900391e-01 -1.375847220420837402e+00
1.315000000000000000e+03 5.869098281860351562e+01 -1.084024429321289062e+01 -1.152809500694274902e+00 8.308183550834655762e-01 -9.659733623266220093e-02 6.358531117439270020e-01
1.316000000000000000e+03 5.023540496826171875e+01 2.359763336181640625e+01 -7.468374371528625488e-01 1.333962678909301758e+00 1.761375665664672852e-01 1.186298727989196777e+00
1.317000000000000000e+03 1.918704414367675781e+01 -2.827010536193847656e+01 -7.959133982658386230e-01 7.357867360115051270e-01 -1.803800091147422791e-02 -1.157981753349304199e-01
1.318000000000000000e+03 2.214245223999023438e+01 -3.233274078369140625e+01 -8.573050498962402344e-01 3.197925090789794922e-01 -1.612537652254104614e-01 -2.885369360446929932e-01
1.319000000000000000e+03 3.489910507202148438e+01 5.064790248870849609e+00 1.390260577201843262e+00 1.419984340667724609e+01 4.677031040191650391e+00 1.876464009284973145e+00
1.320000000000000000e+03 3.469485092163085938e+01 3.871729612350463867e+00 2.187879800796508789e+00 1.356625080108642578e+01 4.726239204406738281e+00 2.189673900604248047e+00
1.321000000000000000e+03 4.340449142456054688e+01 -8.114365577697753906e+00 -3.481347560882568359e-01 3.838607788085937500e+00 1.047141909599304199e+00 -8.496524691581726074e-01
1.322000000000000000e+03 2.600716781616210938e+01 -3.256048858165740967e-01 5.044167518615722656e+00 -1.397205114364624023e+00 1.094088792800903320e+00 3.604488968849182129e-01
1.323000000000000000e+03 2.534948921203613281e+01 -3.277835607528686523e+00 3.992635011672973633e+00 -2.101933658123016357e-01 1.134732484817504883e+00 -1.809617578983306885e-01
1.324000000000000000e+03 6.171331405639648438e+01 -9.398346900939941406e+00 -7.838062644004821777e-01 9.694821238517761230e-01 5.570275336503982544e-02 1.334989815950393677e-02
1.325000000000000000e+03 6.400643920898437500e+01 -1.134632492065429688e+01 -3.181202888488769531e+00 -2.811315953731536865e-01 -1.038700342178344727e+00 -1.206658959388732910e+00
1.326000000000000000e+03 5.812707901000976562e+01 -3.240638732910156250e+01 -1.073796391487121582e+00 -9.788317978382110596e-02 -3.515038490295410156e-01 -2.531516551971435547e-01
1.327000000000000000e+03 5.707697677612304688e+01 -3.859539508819580078e+00 1.830145716667175293e+00 2.437783241271972656e+00 1.280378699302673340e+00 1.683509469032287598e+00
1.328000000000000000e+03 1.496205520629882812e+01 -2.547522735595703125e+01 -5.768508315086364746e-01 3.327333927154541016e+00 8.251449465751647949e-01 -4.657794833183288574e-01
1.329000000000000000e+03 6.062868499755859375e+01 1.870518445968627930e+00 1.147372603416442871e+00 4.965482234954833984e+00 1.833856463432312012e+00 1.949109435081481934e+00
1.330000000000000000e+03 3.417275238037109375e+01 2.986817359924316406e+00 3.192329168319702148e+00 1.598025226593017578e+01 5.751774311065673828e+00 2.821681976318359375e+00
1.331000000000000000e+03 6.391679763793945312e+01 1.133211421966552734e+01 8.220910429954528809e-01 9.380579948425292969e+00 3.060801506042480469e+00 7.126600742340087891e-01
1.332000000000000000e+03 6.374374008178710938e+01 1.456824493408203125e+01 5.567753314971923828e-01 1.003047466278076172e+01 3.176174879074096680e+00 1.794711500406265259e-02
1.333000000000000000e+03 2.583887863159179688e+01 2.733835411071777344e+01 -5.299140214920043945e-01 1.415232777595520020e+00 2.655956447124481201e-01 -8.807524442672729492e-01
1.334000000000000000e+03 2.433663177490234375e+01 2.443341445922851562e+01 -9.584301710128784180e-01 4.115768671035766602e-01 -1.640559881925582886e-01 -6.557661294937133789e-01
1.335000000000000000e+03 4.495024108886718750e+01 -2.667169761657714844e+01 2.231233358383178711e+00 1.028680229187011719e+01 3.755410671234130859e+00 -2.415586948394775391e+00
1.336000000000000000e+03 4.436409759521484375e+01 -1.988669586181640625e+01 1.434697389602661133e+00 1.071909713745117188e+01 3.646138191223144531e+00 5.452880859375000000e-01
1.337000000000000000e+03 4.242282867431640625e+01 -2.141734123229980469e+01 1.933475255966186523e+00 1.010945987701416016e+01 3.612880468368530273e+00 -1.191955924034118652e+00
1.338000000000000000e+03 6.835324096679687500e+01 -2.634539604187011719e+01 -8.872786760330200195e-01 7.248054504394531250e+00 1.908232688903808594e+00 9.397024512290954590e-01
1.339000000000000000e+03 6.719862365722656250e+01 -2.565801620483398438e+01 -2.432383000850677490e-01 5.657023906707763672e+00 1.624135613441467285e+00 1.668943881988525391e+00
1.340000000000000000e+03 7.785299682617187500e+01 -3.555363845825195312e+01 -1.098254248499870300e-01 9.842365264892578125e+00 2.919761896133422852e+00 -2.160624228417873383e-02
1.341000000000000000e+03 7.501535034179687500e+01 -3.769293594360351562e+01 -1.702614575624465942e-01 8.670867919921875000e+00 2.550182104110717773e+00 -2.105781435966491699e-01
1.342000000000000000e+03 7.434042358398437500e+01 -3.631436157226562500e+01 -1.950473040342330933e-01 8.149596214294433594e+00 2.386364698410034180e+00 -1.170183420181274414e-01
1.343000000000000000e+03 7.657433319091796875e+01 -3.511099624633789062e+01 -1.971153020858764648e-01 9.332073211669921875e+00 2.740487337112426758e+00 -1.423090547323226929e-01
1.344000000000000000e+03 7.380039215087890625e+01 -2.358754348754882812e+01 1.644680351018905640e-01 9.217819213867187500e+00 2.814686059951782227e+00 -1.377852916717529297e+00
1.345000000000000000e+03 7.805757141113281250e+01 -2.880982780456542969e+01 -9.349465370178222656e-02 9.153362274169921875e+00 2.717960357666015625e+00 -5.846472382545471191e-01
1.346000000000000000e+03 7.544355773925781250e+01 1.432765674591064453e+01 2.177528440952301025e-01 6.696854114532470703e+00 2.074382066726684570e+00 2.235847115516662598e-01
1.347000000000000000e+03 7.673976898193359375e+01 1.431319618225097656e+01 1.231160461902618408e-01 6.553895950317382812e+00 2.003103494644165039e+00 1.891674399375915527e-01
1.348000000000000000e+03 7.770436859130859375e+01 3.488487625122070312e+01 -4.493231698870658875e-02 7.944258213043212891e+00 2.369797945022583008e+00 4.008968546986579895e-02
1.349000000000000000e+03 7.652551269531250000e+01 3.210918807983398438e+01 -3.285563737154006958e-02 7.709751129150390625e+00 2.303068637847900391e+00 1.118404343724250793e-01
1.350000000000000000e+03 7.820494079589843750e+01 -2.188055610656738281e+01 1.216314807534217834e-01 7.074957847595214844e+00 2.158976793289184570e+00 -6.769697070121765137e-01
1.351000000000000000e+03 7.678014373779296875e+01 -2.426910400390625000e+01 2.219821698963642120e-02 8.303318977355957031e+00 2.497655153274536133e+00 -1.213464736938476562e+00
1.352000000000000000e+03 7.665302276611328125e+01 -3.128133583068847656e+01 -2.566373050212860107e-01 9.144009590148925781e+00 2.666211843490600586e+00 -4.980652630329132080e-01
1.353000000000000000e+03 7.669146728515625000e+01 -2.988353538513183594e+01 -2.242506891489028931e-01 9.055768013000488281e+00 2.649455070495605469e+00 -6.759483218193054199e-01
1.354000000000000000e+03 7.685025787353515625e+01 -2.714495468139648438e+01 -2.087742686271667480e-01 8.762157440185546875e+00 2.566015005111694336e+00 -9.818640947341918945e-01
1.355000000000000000e+03 7.676210784912109375e+01 -2.570874786376953125e+01 -1.442060023546218872e-01 8.554910659790039062e+00 2.523211479187011719e+00 -1.139199972152709961e+00
1.356000000000000000e+03 7.664100646972656250e+01 -3.264035415649414062e+01 -1.966323554515838623e-01 9.228262901306152344e+00 2.709489107131958008e+00 -3.734505772590637207e-01
1.357000000000000000e+03 7.664323425292968750e+01 -3.392543411254882812e+01 -2.455645799636840820e-01 9.275018692016601562e+00 2.708836317062377930e+00 -2.308894097805023193e-01
1.358000000000000000e+03 7.534061431884765625e+01 -3.594812011718750000e+01 -2.445494830608367920e-01 8.781524658203125000e+00 2.561092615127563477e+00 -2.182898223400115967e-01
1.359000000000000000e+03 7.491321563720703125e+01 -4.036540222167968750e+01 5.514753982424736023e-02 8.587616920471191406e+00 2.592829227447509766e+00 -1.465512961149215698e-01
1.360000000000000000e+03 7.791864776611328125e+01 2.285983657836914062e+01 -2.101532928645610809e-02 7.256153106689453125e+00 2.170541286468505859e+00 3.184919953346252441e-01
1.361000000000000000e+03 7.655300903320312500e+01 2.022904396057128906e+01 3.033988177776336670e-02 6.977709293365478516e+00 2.102414846420288086e+00 4.689393341541290283e-01
1.362000000000000000e+03 7.518347167968750000e+01 2.197373390197753906e+01 -4.885743930935859680e-02 7.142569065093994141e+00 2.128113508224487305e+00 5.762142539024353027e-01
1.363000000000000000e+03 7.677761077880859375e+01 1.289609336853027344e+01 1.277558654546737671e-01 6.504407405853271484e+00 1.989648938179016113e+00 8.750548958778381348e-02
1.364000000000000000e+03 7.564437103271484375e+01 7.376661777496337891e+00 1.739818304777145386e-01 6.707856655120849609e+00 2.064551591873168945e+00 -3.413915038108825684e-01
1.365000000000000000e+03 7.649192810058593750e+01 2.321767807006835938e+01 -5.191457271575927734e-02 7.248643398284912109e+00 2.159018516540527344e+00 4.555338621139526367e-01
1.366000000000000000e+03 7.819277954101562500e+01 2.687187194824218750e+01 -2.778987213969230652e-02 7.702967643737792969e+00 2.302553176879882812e+00 2.061976194381713867e-01
1.367000000000000000e+03 7.682657623291015625e+01 1.150578308105468750e+01 1.241817399859428406e-01 6.486854553222656250e+00 1.983310937881469727e+00 -1.897011767141520977e-03
1.368000000000000000e+03 7.693347167968750000e+01 -2.291121864318847656e+01 1.847351640462875366e-01 7.941164493560791016e+00 2.437769889831542969e+00 -1.111139535903930664e+00
1.369000000000000000e+03 7.671199035644531250e+01 2.605562782287597656e+01 -5.876646935939788818e-02 7.477911472320556641e+00 2.225743532180786133e+00 3.454278111457824707e-01
1.370000000000000000e+03 7.685915374755859375e+01 7.332311153411865234e+00 1.049942895770072937e-01 6.607733726501464844e+00 2.013818502426147461e+00 -2.848361134529113770e-01
1.371000000000000000e+03 7.592347717285156250e+01 -1.897017288208007812e+01 7.173194885253906250e-01 7.905187129974365234e+00 2.586751937866210938e+00 -3.951916992664337158e-01
1.372000000000000000e+03 7.701127624511718750e+01 -2.161363792419433594e+01 3.123472332954406738e-01 7.641238212585449219e+00 2.386075735092163086e+00 -9.372330307960510254e-01
1.373000000000000000e+03 7.584769439697265625e+01 -9.360513687133789062e+00 -4.311605691909790039e-01 8.082048416137695312e+00 2.295266389846801758e+00 4.580878913402557373e-01
1.374000000000000000e+03 7.685593414306640625e+01 -1.356056594848632812e+01 7.422410696744918823e-02 7.622093677520751953e+00 2.308895349502563477e+00 7.635014653205871582e-01
1.375000000000000000e+03 7.569745635986328125e+01 -2.300794124603271484e+00 -1.658966839313507080e-01 7.441306591033935547e+00 2.182622909545898438e+00 -4.845785796642303467e-01
1.376000000000000000e+03 7.698928833007812500e+01 -9.381074905395507812e+00 -2.267162203788757324e-01 7.856539726257324219e+00 2.288947105407714844e+00 4.528274834156036377e-01
1.377000000000000000e+03 7.809698486328125000e+01 5.841462612152099609e+00 4.092386364936828613e-02 6.612604141235351562e+00 1.996058464050292969e+00 -2.456812411546707153e-01
1.378000000000000000e+03 7.559880065917968750e+01 4.614561080932617188e+00 1.062039434909820557e-01 6.852621078491210938e+00 2.087647438049316406e+00 -4.996503889560699463e-01
1.379000000000000000e+03 7.623020172119140625e+01 3.463085556030273438e+01 -4.682152718305587769e-02 7.637661457061767578e+00 2.277251958847045898e+00 4.733588546514511108e-02
1.380000000000000000e+03 7.658181762695312500e+01 1.871787452697753906e+01 6.050031259655952454e-02 6.854084014892578125e+00 2.074375391006469727e+00 4.247142374515533447e-01
1.381000000000000000e+03 7.809937286376953125e+01 7.232534885406494141e+00 3.402318060398101807e-02 6.481204509735107422e+00 1.954568386077880859e+00 -1.957118660211563110e-01
1.382000000000000000e+03 7.683936309814453125e+01 4.573482990264892578e+00 6.682462245225906372e-02 6.815392494201660156e+00 2.064665079116821289e+00 -4.102619290351867676e-01
1.383000000000000000e+03 7.689877319335937500e+01 -3.771195411682128906e+00 -1.575101166963577271e-01 7.677742004394531250e+00 2.256069660186767578e+00 -2.609869241714477539e-01
1.384000000000000000e+03 7.700492095947265625e+01 -1.073597908020019531e+01 -2.227131873369216919e-01 7.805752277374267578e+00 2.274911642074584961e+00 6.109538078308105469e-01
1.385000000000000000e+03 7.687023162841796875e+01 -1.765856552124023438e+01 4.682714343070983887e-01 7.338593482971191406e+00 2.342059373855590820e+00 3.080077655613422394e-02
1.386000000000000000e+03 7.653019714355468750e+01 3.343302154541015625e+01 -4.686176776885986328e-02 7.710974693298339844e+00 2.299233913421630859e+00 6.922239810228347778e-02
1.387000000000000000e+03 7.373892211914062500e+01 3.466851425170898438e+01 -9.410804510116577148e-02 7.163184642791748047e+00 2.120723009109497070e+00 5.745034292340278625e-02
1.388000000000000000e+03 7.666369628906250000e+01 3.072439002990722656e+01 -8.544268459081649780e-02 7.697624683380126953e+00 2.283654689788818359e+00 1.491398215293884277e-01
1.389000000000000000e+03 7.687632751464843750e+01 8.727149009704589844e+00 1.109146922826766968e-01 6.536628246307373047e+00 1.994262814521789551e+00 -1.962416619062423706e-01
1.390000000000000000e+03 7.813166809082031250e+01 -6.719438076019287109e+00 -1.171325296163558960e-01 7.893065452575683594e+00 2.332779884338378906e+00 9.439119696617126465e-02
1.391000000000000000e+03 7.695814514160156250e+01 -8.013318061828613281e+00 -2.711098790168762207e-01 7.899101734161376953e+00 2.288397550582885742e+00 2.674127817153930664e-01
1.392000000000000000e+03 7.811753082275390625e+01 -1.368503570556640625e+01 5.473990365862846375e-02 6.958522319793701172e+00 2.103978633880615234e+00 5.637681484222412109e-01
1.393000000000000000e+03 7.681976318359375000e+01 -1.628926849365234375e+01 4.454936981201171875e-01 7.389561176300048828e+00 2.350516557693481445e+00 3.239891827106475830e-01
1.394000000000000000e+03 7.809812164306640625e+01 1.675591945648193359e+00 -7.193209603428840637e-03 7.136583805084228516e+00 2.138817310333251953e+00 -3.127663433551788330e-01
1.395000000000000000e+03 7.684449005126953125e+01 3.183860063552856445e+00 2.840968035161495209e-02 6.949680328369140625e+00 2.093427181243896484e+00 -4.462854266166687012e-01
1.396000000000000000e+03 7.687934112548828125e+01 -2.359048366546630859e+00 -1.185500398278236389e-01 7.534448146820068359e+00 2.224769592285156250e+00 -3.626649379730224609e-01
1.397000000000000000e+03 7.691678619384765625e+01 -5.203565597534179688e+00 -2.224217653274536133e-01 7.794754505157470703e+00 2.271699905395507812e+00 -1.057686284184455872e-01
1.398000000000000000e+03 7.502568054199218750e+01 -1.275604343414306641e+01 -9.488542377948760986e-02 8.420742988586425781e+00 2.497757434844970703e+00 8.176702857017517090e-01
1.399000000000000000e+03 7.689180755615234375e+01 -1.213073062896728516e+01 -7.532074302434921265e-02 7.744333267211914062e+00 2.300703763961791992e+00 7.532261013984680176e-01
1.400000000000000000e+03 7.706291198730468750e+01 -2.032606124877929688e+01 4.166270196437835693e-01 7.407759666442871094e+00 2.347316026687622070e+00 -6.412135362625122070e-01
1.401000000000000000e+03 7.428032684326171875e+01 -1.541434097290039062e+01 9.517329335212707520e-01 8.898816108703613281e+00 2.955164670944213867e+00 6.240841746330261230e-01
1.402000000000000000e+03 1.109706497192382812e+01 -1.890910530090332031e+01 1.265300869941711426e+00 4.577787876129150391e+00 1.752926707267761230e+00 9.694765210151672363e-01
1.403000000000000000e+03 3.806048202514648438e+01 6.583968639373779297e+00 1.398860573768615723e+00 1.484133243560791016e+01 4.872057914733886719e+00 2.247629880905151367e+00
1.404000000000000000e+03 5.601885986328125000e+01 2.652757453918457031e+01 -9.843430668115615845e-02 1.313998341560363770e+00 3.646692037582397461e-01 -1.343859583139419556e-01
1.405000000000000000e+03 6.407234954833984375e+01 7.303182125091552734e+00 1.023350834846496582e+00 7.918194293975830078e+00 2.682463407516479492e+00 8.520176410675048828e-01
1.406000000000000000e+03 6.535739135742187500e+01 1.539489936828613281e+01 9.616292715072631836e-01 8.540534019470214844e+00 2.850648880004882812e+00 1.523722857236862183e-01
1.407000000000000000e+03 4.721955108642578125e+01 1.949854278564453125e+01 2.213784456253051758e-01 1.818631529808044434e+00 6.120029687881469727e-01 1.255197644233703613e+00
1.408000000000000000e+03 4.633203887939453125e+01 2.050870323181152344e+01 -1.230215355753898621e-01 2.535236835479736328e+00 7.236645817756652832e-01 1.496050357818603516e+00
1.409000000000000000e+03 4.505915832519531250e+01 1.767767333984375000e+01 1.053517341613769531e+00 2.778552770614624023e+00 1.149621009826660156e+00 1.870054364204406738e+00
1.410000000000000000e+03 4.113758087158203125e+01 1.620767402648925781e+01 6.908823847770690918e-01 6.198444366455078125e+00 2.066797971725463867e+00 2.064394235610961914e+00
1.411000000000000000e+03 1.964264988899230957e+00 3.443229675292968750e+01 -3.054348006844520569e-02 1.651041746139526367e+00 4.861494898796081543e-01 -1.404761224985122681e-01
1.412000000000000000e+03 4.046176433563232422e+00 3.628351593017578125e+01 -9.799677878618240356e-02 1.742711305618286133e+00 4.934143424034118652e-01 -1.686921864748001099e-01
1.413000000000000000e+03 1.938195705413818359e+00 2.762994003295898438e+01 -6.027720868587493896e-02 8.291930556297302246e-01 2.306747585535049438e-01 -4.544444084167480469e-01
1.414000000000000000e+03 3.297618627548217773e+00 3.019161415100097656e+01 -1.312287151813507080e-01 1.348454356193542480e+00 3.651677072048187256e-01 -4.587524533271789551e-01
1.415000000000000000e+03 3.254683732986450195e+00 2.776913642883300781e+01 -1.727406382560729980e-01 1.115665435791015625e+00 2.828774452209472656e-01 -6.493322849273681641e-01
1.416000000000000000e+03 4.904100418090820312e+00 3.141393852233886719e+01 -2.315656393766403198e-01 1.608940601348876953e+00 4.132125079631805420e-01 -4.725107848644256592e-01
1.417000000000000000e+03 3.116894483566284180e+00 2.891560173034667969e+01 -1.353102922439575195e-01 1.207295417785644531e+00 3.215955197811126709e-01 -5.056855678558349609e-01
1.418000000000000000e+03 3.481013536453247070e+00 2.643763351440429688e+01 -1.636061817407608032e-01 9.947902560234069824e-01 2.493552267551422119e-01 -7.830293774604797363e-01
1.419000000000000000e+03 3.454390525817871094e+00 3.300407409667968750e+01 -1.062733754515647888e-01 1.583708167076110840e+00 4.432304501533508301e-01 -2.954807281494140625e-01
1.420000000000000000e+03 2.962459564208984375e+00 3.575051116943359375e+01 -6.044917926192283630e-02 1.717917919158935547e+00 4.972406029701232910e-01 -1.550771296024322510e-01
1.421000000000000000e+03 4.640662670135498047e+00 2.993140602111816406e+01 -2.494026571512222290e-01 1.531697154045104980e+00 3.846883475780487061e-01 -5.743777155876159668e-01
1.422000000000000000e+03 3.429632186889648438e+00 3.157458877563476562e+01 -1.266760528087615967e-01 1.491892814636230469e+00 4.095650017261505127e-01 -3.736810386180877686e-01
1.423000000000000000e+03 3.672769069671630859e+00 -3.668003082275390625e+01 -1.192551627755165100e-01 1.784977436065673828e+00 4.997166693210601807e-01 2.621971666812896729e-01
1.424000000000000000e+03 2.368674516677856445e+00 -3.017511367797851562e+01 -6.500610709190368652e-02 1.097742319107055664e+00 3.098208606243133545e-01 5.076844096183776855e-01
1.425000000000000000e+03 3.617871999740600586e+00 -2.846378326416015625e+01 -1.290972381830215454e-01 1.058990597724914551e+00 2.789680063724517822e-01 8.004605770111083984e-01
1.426000000000000000e+03 3.360599517822265625e+00 -2.569468307495117188e+01 -4.865595698356628418e-02 5.559693574905395508e-01 1.521940231323242188e-01 8.982633948326110840e-01
1.427000000000000000e+03 2.047664642333984375e+00 2.194229888916015625e+01 9.776792488992214203e-03 -5.017529726028442383e-01 -1.475928574800491333e-01 -6.858417987823486328e-01
1.428000000000000000e+03 3.461060285568237305e+00 2.338453483581542969e+01 -7.023392617702484131e-02 4.606027901172637939e-01 1.171106621623039246e-01 -9.699807167053222656e-01
1.429000000000000000e+03 2.743285894393920898e+00 -1.024258613586425781e+01 9.864496439695358276e-02 -1.037483572959899902e+00 -2.816515862941741943e-01 -4.770418405532836914e-01
1.430000000000000000e+03 3.422666072845458984e+00 2.190633583068847656e+01 -2.408874407410621643e-02 1.795912981033325195e-01 4.665076732635498047e-02 -1.018383860588073730e+00
1.431000000000000000e+03 2.938744783401489258e+00 1.159377956390380859e+01 2.936100959777832031e-01 -1.447015643119812012e+00 -3.460216820240020752e-01 2.426114231348037720e-01
1.432000000000000000e+03 4.615504741668701172e+00 1.722032356262207031e+01 4.398720264434814453e-01 1.253044307231903076e-01 1.695529371500015259e-01 -8.925386071205139160e-01
1.433000000000000000e+03 3.401204109191894531e+00 2.043660163879394531e+01 9.569990634918212891e-02 -1.285327672958374023e-01 -9.849857538938522339e-03 -9.826542139053344727e-01
1.434000000000000000e+03 3.021909713745117188e+00 -1.721737861633300781e+01 2.520349919795989990e-01 -9.659090638160705566e-01 -2.141622155904769897e-01 2.880686819553375244e-01
1.435000000000000000e+03 1.763970971107482910e+00 -1.464367675781250000e+01 8.723068237304687500e-02 -1.902443289756774902e+00 -5.445637702941894531e-01 -6.030321493744850159e-02
1.436000000000000000e+03 3.082906484603881836e+00 -1.861872291564941406e+01 2.309813350439071655e-01 -7.949198484420776367e-01 -1.691815555095672607e-01 4.808491766452789307e-01
1.437000000000000000e+03 2.815354108810424805e+00 -1.163676071166992188e+01 1.383655667304992676e-01 -1.109338641166687012e+00 -2.912919223308563232e-01 -3.847660422325134277e-01
1.438000000000000000e+03 6.684846878051757812e+00 -3.907874822616577148e+00 -3.727974593639373779e-01 1.439014524221420288e-01 -6.866880506277084351e-02 -5.820196866989135742e-01
1.439000000000000000e+03 3.440515279769897461e+00 -3.505694150924682617e+00 -2.070167958736419678e-01 -2.088666409254074097e-01 -1.247650310397148132e-01 -5.127643942832946777e-01
1.440000000000000000e+03 2.775828599929809570e+00 7.282466888427734375e+00 1.209735795855522156e-01 -1.114441514015197754e+00 -2.980403900146484375e-01 8.117749094963073730e-01
1.441000000000000000e+03 1.491724252700805664e+00 6.008085727691650391e+00 9.769235039129853249e-04 -1.269236803054809570e+00 -3.804779648780822754e-01 5.633675456047058105e-01
1.442000000000000000e+03 1.845200181007385254e+00 1.467832946777343750e+01 1.184594407677650452e-01 -2.151995897293090820e+00 -6.100609302520751953e-01 -1.694489717483520508e-01
1.443000000000000000e+03 3.136322021484375000e+00 1.594772720336914062e+01 2.864807248115539551e-01 -1.041929244995117188e+00 -2.266345769166946411e-01 -4.915308654308319092e-01
1.444000000000000000e+03 2.850339412689208984e+00 8.730731010437011719e+00 2.005115151405334473e-01 -1.302724599838256836e+00 -3.306639194488525391e-01 6.539172530174255371e-01
1.445000000000000000e+03 3.206696033477783203e+00 -2.144074440002441406e+01 1.284825950860977173e-01 -2.928982079029083252e-01 -4.932468011975288391e-02 7.734595537185668945e-01
1.446000000000000000e+03 2.670903921127319336e+00 -8.865696907043457031e+00 6.231909245252609253e-02 -9.254642724990844727e-01 -2.589435577392578125e-01 -5.419852733612060547e-01
1.447000000000000000e+03 4.116351604461669922e+00 -3.798528289794921875e+01 -1.308257281780242920e-01 1.857717275619506836e+00 5.180674791336059570e-01 2.536422312259674072e-01
1.448000000000000000e+03 1.941116333007812500e+00 -2.307940292358398438e+01 2.437606640160083771e-02 -6.025545001029968262e-01 -1.734535247087478638e-01 5.856992006301879883e-01
1.449000000000000000e+03 2.976774930953979492e+00 -1.582793998718261719e+01 2.293844372034072876e-01 -1.086853742599487305e+00 -2.572408020496368408e-01 8.554381132125854492e-02
1.450000000000000000e+03 2.932344198226928711e+00 -1.443482112884521484e+01 2.055901288986206055e-01 -1.137841224670410156e+00 -2.796753346920013428e-01 -8.923903107643127441e-02
1.451000000000000000e+03 2.398605346679687500e+00 -3.606842803955078125e+01 -7.371626049280166626e-02 1.814997792243957520e+00 5.223844647407531738e-01 2.048876136541366577e-01
1.452000000000000000e+03 4.814527511596679688e+00 -3.283374404907226562e+01 -2.450707554817199707e-01 1.658817291259765625e+00 4.241239428520202637e-01 5.761753916740417480e-01
1.453000000000000000e+03 4.585801601409912109e+00 -2.409633636474609375e+01 2.145875245332717896e-02 7.926706075668334961e-01 2.442387938499450684e-01 1.114340066909790039e+00
1.454000000000000000e+03 2.917490959167480469e+00 1.016169929504394531e+01 2.452335208654403687e-01 -1.403947830200195312e+00 -3.476142883300781250e-01 4.901439547538757324e-01
1.455000000000000000e+03 4.052343845367431641e+00 1.139191913604736328e+01 4.829565584659576416e-01 -7.700408101081848145e-01 -8.612528443336486816e-02 3.063170313835144043e-01
1.456000000000000000e+03 2.960958480834960938e+00 1.302365589141845703e+01 2.891316711902618408e-01 -1.419507026672363281e+00 -3.391126096248626709e-01 1.704665273427963257e-02
1.457000000000000000e+03 3.020201683044433594e+00 1.446807956695556641e+01 3.041022717952728271e-01 -1.303829550743103027e+00 -2.999181747436523438e-01 -2.456406950950622559e-01
1.458000000000000000e+03 3.376008987426757812e+00 1.894784164428710938e+01 1.470023989677429199e-01 -4.410602450370788574e-01 -8.821734786033630371e-02 -8.960678577423095703e-01
1.459000000000000000e+03 3.909185409545898438e+01 1.039554691314697266e+01 1.866865158081054688e+00 1.251398468017578125e+01 4.314254760742187500e+00 2.815245628356933594e+00
1.460000000000000000e+03 2.532842636108398438e+01 2.558457946777343750e+01 -6.506590843200683594e-01 8.750385642051696777e-01 6.731384247541427612e-02 -7.896892428398132324e-01
1.461000000000000000e+03 2.653104972839355469e+01 2.319556427001953125e+01 -7.995150089263916016e-01 8.800638318061828613e-01 2.416466176509857178e-02 -7.940058112144470215e-01
1.462000000000000000e+03 5.554382324218750000e+01 -1.231447219848632812e+01 -9.135579466819763184e-01 5.321751832962036133e-01 -1.144148185849189758e-01 8.560790419578552246e-01
1.463000000000000000e+03 6.147126388549804688e+01 2.640112400054931641e+00 1.011353015899658203e+00 5.663117885589599609e+00 2.002341270446777344e+00 1.515598416328430176e+00
1.464000000000000000e+03 5.442681121826171875e+01 2.515940475463867188e+01 -4.275915026664733887e-01 8.103006482124328613e-01 1.148127540946006775e-01 4.191869199275970459e-01
1.465000000000000000e+03 3.757511520385742188e+01 8.283905029296875000e+00 1.910386681556701660e+00 1.320072746276855469e+01 4.533334255218505859e+00 1.661302447319030762e+00
1.466000000000000000e+03 4.013022613525390625e+01 -1.741338729858398438e+01 1.940047979354858398e+00 9.405280113220214844e+00 3.403598546981811523e+00 -1.622345089912414551e+00
1.467000000000000000e+03 5.521799087524414062e+01 -3.415846252441406250e+01 -1.041658669710159302e-01 2.401458621025085449e-01 4.079400002956390381e-02 -9.272186160087585449e-01
1.468000000000000000e+03 4.220497894287109375e+01 1.705261039733886719e+01 7.373972535133361816e-01 5.090352535247802734e+00 1.748324990272521973e+00 2.184496879577636719e+00
1.469000000000000000e+03 1.450279045104980469e+01 -2.674943351745605469e+01 -7.802634835243225098e-01 2.967893838882446289e+00 6.562891006469726562e-01 -4.260075837373733521e-02
1.470000000000000000e+03 2.301984405517578125e+01 2.001641750335693359e+00 2.381098508834838867e+00 -7.946561574935913086e-01 4.759326577186584473e-01 5.969699025154113770e-01
1.471000000000000000e+03 4.132514953613281250e+01 -2.079679489135742188e+01 2.099008321762084961e+00 9.538105964660644531e+00 3.491134166717529297e+00 -1.416956901550292969e+00
1.472000000000000000e+03 5.862190628051757812e+01 -1.455066204071044922e+00 1.807806849479675293e+00 3.124558210372924805e+00 1.479709506034851074e+00 1.809915661811828613e+00
1.473000000000000000e+03 3.966005706787109375e+01 -1.858021736145019531e+01 1.929094076156616211e+00 9.772968292236328125e+00 3.510618448257446289e+00 -1.581100225448608398e+00
1.474000000000000000e+03 1.854371070861816406e+01 2.493144035339355469e+01 -7.805886268615722656e-01 8.298134803771972656e-01 1.476744282990694046e-02 7.120782732963562012e-01
1.475000000000000000e+03 2.613669013977050781e+01 2.481304168701171875e+01 -6.734412312507629395e-01 1.003311157226562500e+00 9.896098077297210693e-02 -1.040932059288024902e+00
1.476000000000000000e+03 1.566796493530273438e+01 -2.782609176635742188e+01 -8.665899634361267090e-01 2.395355701446533203e+00 4.586296975612640381e-01 -2.423038035631179810e-01
1.477000000000000000e+03 3.374163436889648438e+01 1.878593826293945312e+01 3.474229276180267334e-01 6.160760879516601562e+00 1.952455043792724609e+00 -8.630659580230712891e-01
1.478000000000000000e+03 3.664927291870117188e+01 1.162790870666503906e+01 1.028878808021545410e+00 1.042748069763183594e+01 3.436908006668090820e+00 9.063021838665008545e-02
1.479000000000000000e+03 6.542854309082031250e+01 -3.122648620605468750e+01 -9.080327153205871582e-01 3.462090730667114258e+00 7.662174105644226074e-01 8.871172666549682617e-01
1.480000000000000000e+03 6.662282562255859375e+01 1.486846733093261719e+01 9.352794885635375977e-01 8.117638587951660156e+00 2.715875625610351562e+00 2.475796341896057129e-01
1.481000000000000000e+03 6.572798156738281250e+01 1.667753410339355469e+01 8.512806296348571777e-01 8.272835731506347656e+00 2.737235069274902344e+00 1.987780332565307617e-01
1.482000000000000000e+03 2.430148887634277344e+01 4.882608652114868164e-01 4.700872898101806641e+00 -1.564676642417907715e+00 9.408588409423828125e-01 -4.054394960403442383e-01
1.483000000000000000e+03 2.049910354614257812e+01 -1.132136940956115723e+00 4.484081745147705078e+00 8.826576232910156250e+00 3.993197441101074219e+00 -2.986928462982177734e+00
1.484000000000000000e+03 3.637933731079101562e+01 6.088092327117919922e+00 1.527741909027099609e+00 1.346633815765380859e+01 4.498223781585693359e+00 1.738438963890075684e+00
1.485000000000000000e+03 3.691027832031250000e+01 7.352375507354736328e+00 1.590496659278869629e+00 1.342849731445312500e+01 4.505698204040527344e+00 1.648862361907958984e+00
1.486000000000000000e+03 1.646227073669433594e+01 8.304969787597656250e+00 2.415040254592895508e+00 6.280671596527099609e+00 2.608713626861572266e+00 -3.619429588317871094e+00
1.487000000000000000e+03 1.328205680847167969e+01 3.127722740173339844e+00 -6.234205365180969238e-01 1.137557625770568848e+00 1.542411297559738159e-01 -8.948768973350524902e-01
1.488000000000000000e+03 6.698904418945312500e+01 -2.903512191772460938e+01 -1.102512598037719727e+00 4.966110229492187500e+00 1.159079313278198242e+00 8.853817582130432129e-01
1.489000000000000000e+03 1.469910240173339844e+01 8.891659736633300781e+00 2.165479660034179688e+00 6.324349403381347656e+00 2.546948671340942383e+00 -2.438089609146118164e+00
1.490000000000000000e+03 6.286678314208984375e+01 4.369806766510009766e+00 9.729720950126647949e-01 6.708028316497802734e+00 2.304300069808959961e+00 1.181699633598327637e+00
1.491000000000000000e+03 4.183602142333984375e+01 1.498611068725585938e+01 1.583710908889770508e+00 5.869704723358154297e+00 2.236024856567382812e+00 2.823600053787231445e+00
1.492000000000000000e+03 6.504202270507812500e+01 8.496352195739746094e+00 1.011515617370605469e+00 8.093998908996582031e+00 2.731654405593872070e+00 5.859423279762268066e-01
1.493000000000000000e+03 6.311831283569335938e+01 9.483485221862792969e+00 8.631628155708312988e-01 9.221249580383300781e+00 3.025323867797851562e+00 1.200875163078308105e+00
1.494000000000000000e+03 5.934356307983398438e+01 -2.869514822959899902e-01 1.547362923622131348e+00 3.641694068908691406e+00 1.556717157363891602e+00 1.884717345237731934e+00
1.495000000000000000e+03 2.337103652954101562e+01 1.266800165176391602e+00 3.652945280075073242e+00 -1.398692965507507324e+00 6.762756705284118652e-01 1.049917489290237427e-01
1.496000000000000000e+03 4.875283050537109375e+01 2.254284095764160156e+01 -6.174362897872924805e-01 1.736835241317749023e+00 3.358196914196014404e-01 1.290826678276062012e+00
1.497000000000000000e+03 4.745635986328125000e+01 2.152371978759765625e+01 -4.099197685718536377e-01 2.127717256546020508e+00 5.153391957283020020e-01 1.400958776473999023e+00
1.498000000000000000e+03 3.228856658935546875e+01 -3.237217712402343750e+01 -8.359658122062683105e-01 3.058925151824951172e+00 6.668877601623535156e-01 1.401890277862548828e+00
1.499000000000000000e+03 2.991103363037109375e+01 -3.044936180114746094e+01 -9.624767303466796875e-01 1.228079199790954590e+00 7.968073338270187378e-02 9.319123029708862305e-01
1.500000000000000000e+03 5.230349349975585938e+01 -3.545885848999023438e+01 -2.156262993812561035e-01 1.963543415069580078e+00 5.243751406669616699e-01 -1.466733813285827637e+00
1.501000000000000000e+03 5.786200714111328125e+01 -2.646540403366088867e+00 1.790336489677429199e+00 2.751844644546508789e+00 1.362654328346252441e+00 1.743651390075683594e+00
1.502000000000000000e+03 3.813626861572265625e+01 -1.717006492614746094e+01 1.670184016227722168e+00 1.076515579223632812e+01 3.730601787567138672e+00 -1.889882445335388184e+00
1.503000000000000000e+03 3.772969818115234375e+01 -1.574231243133544922e+01 1.713761687278747559e+00 1.089218521118164062e+01 3.781784057617187500e+00 -2.275581836700439453e+00
1.504000000000000000e+03 3.339467239379882812e+01 2.033076477050781250e+01 -1.304035037755966187e-01 5.652604579925537109e+00 1.656660318374633789e+00 -6.608262658119201660e-01
1.505000000000000000e+03 3.318579101562500000e+01 -2.190369844436645508e+00 2.214079380035400391e+00 7.423852443695068359e+00 2.891379594802856445e+00 3.327353000640869141e-01
1.506000000000000000e+03 2.679600334167480469e+01 -3.367029953002929688e+01 -6.475831270217895508e-01 5.246120691299438477e-01 -3.689132258296012878e-02 5.299090147018432617e-01
1.507000000000000000e+03 6.459368896484375000e+01 1.254299640655517578e+01 7.739621996879577637e-01 9.225412368774414062e+00 2.999812126159667969e+00 3.913622498512268066e-01
1.508000000000000000e+03 6.500510406494140625e+01 1.402487373352050781e+01 9.090175032615661621e-01 8.930156707763671875e+00 2.951752424240112305e+00 1.080988198518753052e-01
1.509000000000000000e+03 3.846287536621093750e+01 7.780940532684326172e+00 1.988270998001098633e+00 1.496119785308837891e+01 5.084840774536132812e+00 2.461844682693481445e+00
1.510000000000000000e+03 1.004524993896484375e+01 -1.828537178039550781e+01 1.379836320877075195e+00 3.536369085311889648e+00 1.474861621856689453e+00 1.034642815589904785e+00
1.511000000000000000e+03 7.309129333496093750e+01 -2.057797241210937500e+01 1.371186494827270508e+00 9.934624671936035156e+00 3.391743421554565430e+00 -9.901123642921447754e-01
1.512000000000000000e+03 3.544216918945312500e+01 1.137177181243896484e+01 8.088385462760925293e-01 1.006552124023437500e+01 3.262308120727539062e+00 -7.521408796310424805e-01
1.513000000000000000e+03 6.944377136230468750e+01 -1.487523078918457031e+01 1.531363844871520996e+00 1.267405605316162109e+01 4.261625766754150391e+00 -1.112199068069458008e+00
1.514000000000000000e+03 4.784112548828125000e+01 -6.129929065704345703e+00 -1.357508182525634766e+00 -3.093417882919311523e-01 -5.000550150871276855e-01 1.344660758972167969e+00
1.515000000000000000e+03 4.883191680908203125e+01 -1.280964660644531250e+01 1.138976573944091797e+00 1.768561124801635742e+00 8.722612857818603516e-01 2.005192518234252930e+00
1.516000000000000000e+03 2.909807395935058594e+01 2.218609809875488281e+01 -3.564445078372955322e-01 3.053029060363769531e+00 8.089753985404968262e-01 -1.481687307357788086e+00
1.517000000000000000e+03 5.392649459838867188e+01 -5.381487369537353516e+00 1.472258090972900391e+00 2.262567996978759766e+00 1.120447874069213867e+00 1.885107398033142090e+00
1.518000000000000000e+03 5.628487396240234375e+01 -5.131288528442382812e+00 1.364574074745178223e+00 2.198840856552124023e+00 1.069024443626403809e+00 1.620887160301208496e+00
1.519000000000000000e+03 3.568148040771484375e+01 9.990265846252441406e+00 1.026017665863037109e+00 1.104922294616699219e+01 3.622572183609008789e+00 -1.456297636032104492e-01
1.520000000000000000e+03 1.798345756530761719e+01 -2.880017089843750000e+01 -9.641098976135253906e-01 1.431148767471313477e+00 1.401116549968719482e-01 -2.531948685646057129e-01
1.521000000000000000e+03 3.573272323608398438e+01 3.439865589141845703e+00 2.502827644348144531e+00 1.353715038299560547e+01 4.811993598937988281e+00 1.703208684921264648e+00
1.522000000000000000e+03 3.633197784423828125e+01 1.724259734153747559e+00 2.567857503890991211e+00 1.201577472686767578e+01 4.375089645385742188e+00 2.877533733844757080e-01
1.523000000000000000e+03 2.989565277099609375e+01 2.365784645080566406e+01 -8.749634623527526855e-01 3.549260616302490234e+00 8.022891879081726074e-01 -1.180156350135803223e+00
1.524000000000000000e+03 2.864380645751953125e+01 -3.338663482666015625e+01 -5.812180042266845703e-01 1.081948399543762207e+00 1.502191275358200073e-01 8.501528501510620117e-01
1.525000000000000000e+03 3.001908874511718750e+01 -3.253948593139648438e+01 -7.758899331092834473e-01 1.750607013702392578e+00 2.924151420593261719e-01 1.102988839149475098e+00
1.526000000000000000e+03 6.083156967163085938e+01 -3.395970153808593750e+01 -2.207528948783874512e-01 8.851483464241027832e-01 1.993186324834823608e-01 3.000987172126770020e-01
1.527000000000000000e+03 3.638127899169921875e+01 -1.159145069122314453e+01 1.248114347457885742e+00 1.044479751586914062e+01 3.507873535156250000e+00 -2.186263322830200195e+00
1.528000000000000000e+03 6.995114898681640625e+01 -2.379671096801757812e+01 5.546258017420768738e-02 1.016915512084960938e+01 3.067385196685791016e+00 6.701707839965820312e-02
1.529000000000000000e+03 4.539231109619140625e+01 -1.405061149597167969e+01 1.345400810241699219e+00 5.147476673126220703e+00 1.947863221168518066e+00 9.044808745384216309e-01
1.530000000000000000e+03 4.376524734497070312e+01 -1.768326950073242188e+01 1.800951957702636719e+00 8.938260078430175781e+00 3.221763610839843750e+00 -2.228223085403442383e-01
1.531000000000000000e+03 3.849329376220703125e+01 -2.117392921447753906e+01 1.787050843238830566e+00 9.774902343750000000e+00 3.468586206436157227e+00 -7.809159159660339355e-01
1.532000000000000000e+03 5.941649627685546875e+01 -3.549354171752929688e+01 2.724412083625793457e-01 6.214272379875183105e-01 2.681605219841003418e-01 9.156882762908935547e-03
1.533000000000000000e+03 4.006055068969726562e+01 -2.274303436279296875e+01 1.990065097808837891e+00 9.248091697692871094e+00 3.371447086334228516e+00 -1.055659055709838867e+00
1.534000000000000000e+03 3.904951477050781250e+01 -2.370365142822265625e+01 1.619326710700988770e+00 8.752951622009277344e+00 3.111683607101440430e+00 -6.634039282798767090e-01
1.535000000000000000e+03 2.977234077453613281e+01 -1.175152420997619629e+00 6.146576881408691406e+00 1.885228633880615234e+00 2.409541606903076172e+00 1.174967050552368164e+00
1.536000000000000000e+03 3.602089691162109375e+01 -7.244712829589843750e+00 -1.653320908546447754e+00 9.574537277221679688e+00 2.376364946365356445e+00 -1.823421359062194824e+00
1.537000000000000000e+03 6.388927459716796875e+01 2.036913299560546875e+01 -5.246803909540176392e-02 7.234040260314941406e+00 2.154471635818481445e+00 7.834728062152862549e-02
1.538000000000000000e+03 3.526708602905273438e+01 -8.960272789001464844e+00 -9.757704734802246094e-01 9.775620460510253906e+00 2.639955043792724609e+00 -2.078532218933105469e+00
1.539000000000000000e+03 1.356841278076171875e+01 -1.145713806152343750e+01 6.208899021148681641e-01 4.618521213531494141e+00 1.571823358535766602e+00 1.104131937026977539e+00
1.540000000000000000e+03 6.736739349365234375e+01 -1.193556118011474609e+01 -1.780630469322204590e+00 7.114164352416992188e+00 1.600060224533081055e+00 -2.483698844909667969e+00
1.541000000000000000e+03 3.078543090820312500e+01 -6.120134830474853516e+00 -3.195853531360626221e-01 2.818039655685424805e+00 7.495363354682922363e-01 -1.690747499465942383e+00
1.542000000000000000e+03 6.277333450317382812e+01 -1.029156398773193359e+01 -1.132434129714965820e+00 3.280919492244720459e-01 -2.413026541471481323e-01 -5.778004527091979980e-01
1.543000000000000000e+03 2.710114479064941406e+01 -6.349774360656738281e+00 1.193403080105781555e-01 -3.288836479187011719e-01 -6.286299973726272583e-02 1.795655936002731323e-01
1.544000000000000000e+03 2.833463287353515625e+01 -6.423807144165039062e+00 3.727670907974243164e-01 -4.479758143424987793e-01 -2.256261743605136871e-02 -3.595276176929473877e-01
1.545000000000000000e+03 3.395588684082031250e+01 -9.356707572937011719e+00 -5.794930458068847656e-01 8.713659286499023438e+00 2.440249919891357422e+00 -2.451831817626953125e+00
1.546000000000000000e+03 4.852740478515625000e+01 -3.125301742553710938e+01 -9.136997163295745850e-02 4.817704677581787109e+00 1.417900443077087402e+00 -2.496872663497924805e+00
1.547000000000000000e+03 3.794835662841796875e+01 1.046478557586669922e+01 1.698414206504821777e+00 1.172931957244873047e+01 4.028320312500000000e+00 1.402328014373779297e+00
1.548000000000000000e+03 5.327452087402343750e+01 -1.235581874847412109e+01 -1.071122586727142334e-01 5.861543416976928711e-01 1.437126249074935913e-01 1.455798625946044922e+00
1.549000000000000000e+03 5.107186889648437500e+01 -1.175966358184814453e+01 5.936121344566345215e-01 9.065355062484741211e-01 4.500442743301391602e-01 2.042504310607910156e+00
1.550000000000000000e+03 1.252201366424560547e+01 1.055912780761718750e+01 2.238212108612060547e+00 5.348223209381103516e+00 2.275930643081665039e+00 -1.339687228202819824e+00
1.551000000000000000e+03 6.238365554809570312e+01 -3.291012954711914062e+01 -5.591089129447937012e-01 1.497880458831787109e+00 2.816314697265625000e-01 5.646926164627075195e-01
1.552000000000000000e+03 1.483294963836669922e+01 -3.026770973205566406e+01 -1.015449643135070801e+00 2.249746084213256836e+00 3.702889382839202881e-01 -5.632521212100982666e-02
1.553000000000000000e+03 1.707418823242187500e+01 -9.996514320373535156e+00 -4.079992696642875671e-02 3.657223701477050781e+00 1.084927082061767578e+00 2.573094606399536133e+00
1.554000000000000000e+03 1.669671249389648438e+01 -1.099556350708007812e+01 5.440303087234497070e-01 4.205604553222656250e+00 1.424890398979187012e+00 2.580183982849121094e+00
1.555000000000000000e+03 6.339440917968750000e+01 5.836204051971435547e+00 1.051075696945190430e+00 7.499276161193847656e+00 2.565105676651000977e+00 1.048639774322509766e+00
1.556000000000000000e+03 4.179022216796875000e+01 -5.597355365753173828e+00 -1.795473098754882812e+00 4.926217079162597656e+00 9.392232298851013184e-01 -1.792624235153198242e+00
1.557000000000000000e+03 4.314619445800781250e+01 -6.891852855682373047e+00 -9.527218341827392578e-01 3.512843608856201172e+00 7.680364847183227539e-01 -1.018440008163452148e+00
1.558000000000000000e+03 6.269507217407226562e+01 2.433562278747558594e+01 -1.292654275894165039e+00 5.794924259185791016e+00 1.350680947303771973e+00 -1.042809128761291504e+00
1.559000000000000000e+03 6.203968811035156250e+01 2.553270721435546875e+01 -9.928801059722900391e-01 4.844365119934082031e+00 1.155445456504821777e+00 -1.258125543594360352e+00
1.560000000000000000e+03 2.456628608703613281e+01 2.666345977783203125e+01 -6.076171994209289551e-01 9.380181431770324707e-01 9.912028163671493530e-02 -6.677571535110473633e-01
1.561000000000000000e+03 2.229555702209472656e+01 2.692663002014160156e+01 -5.750101804733276367e-01 5.642738342285156250e-01 -3.220902755856513977e-03 -1.876993328332901001e-01
1.562000000000000000e+03 6.993844604492187500e+01 -1.241378498077392578e+01 -1.028439998626708984e+00 1.005918788909912109e+01 2.709224224090576172e+00 -5.737178325653076172e-01
1.563000000000000000e+03 5.213881683349609375e+01 -1.214869117736816406e+01 2.550328075885772705e-01 7.400196790695190430e-01 2.985157370567321777e-01 1.805247426033020020e+00
1.564000000000000000e+03 5.153043746948242188e+01 -6.993587017059326172e+00 1.892855763435363770e-01 1.547904968261718750e+00 5.211571455001831055e-01 2.509988784790039062e+00
1.565000000000000000e+03 4.057630157470703125e+01 -5.824147224426269531e+00 -1.673307776451110840e+00 6.719728946685791016e+00 1.513926386833190918e+00 -1.988595247268676758e+00
1.566000000000000000e+03 4.229502487182617188e+01 -2.446729850769042969e+01 2.299064397811889648e+00 9.664992332458496094e+00 3.589217185974121094e+00 -1.416274666786193848e+00
1.567000000000000000e+03 4.263335037231445312e+01 -1.850215911865234375e+01 2.041567802429199219e+00 9.136095046997070312e+00 3.353298902511596680e+00 -8.439479470252990723e-01
1.568000000000000000e+03 4.293941879272460938e+01 -2.035312843322753906e+01 2.043663024902343750e+00 9.755377769470214844e+00 3.539712190628051758e+00 -1.060567975044250488e+00
1.569000000000000000e+03 3.659991836547851562e+01 -2.656430816650390625e+01 4.702948927879333496e-01 7.099178791046142578e+00 2.270842075347900391e+00 8.306581974029541016e-01
1.570000000000000000e+03 3.788478469848632812e+01 -2.594244956970214844e+01 8.874309062957763672e-01 7.914115905761718750e+00 2.640464067459106445e+00 1.688463389873504639e-01
1.571000000000000000e+03 4.536837768554687500e+01 -5.612226486206054688e+00 -2.007563114166259766e+00 3.360405862331390381e-01 -5.014567971229553223e-01 4.747399985790252686e-01
1.572000000000000000e+03 1.348903179168701172e+01 1.348158836364746094e+01 1.871953964233398438e+00 8.608889579772949219e+00 3.144253015518188477e+00 -1.898052930831909180e+00
1.573000000000000000e+03 3.465397644042968750e+01 -7.690461158752441406e+00 -1.436422228813171387e+00 8.912998199462890625e+00 2.242972850799560547e+00 -2.110990047454833984e+00
1.574000000000000000e+03 7.084877014160156250e+01 -2.238220214843750000e+01 8.505547642707824707e-01 1.094486236572265625e+01 3.538625001907348633e+00 -5.186378359794616699e-01
1.575000000000000000e+03 7.115405273437500000e+01 -1.619304656982421875e+01 1.964211702346801758e+00 1.162724685668945312e+01 4.077437877655029297e+00 -1.220326870679855347e-02
1.576000000000000000e+03 1.604455375671386719e+01 2.457471466064453125e+01 -1.161256551742553711e+00 2.491596460342407227e+00 3.991020023822784424e-01 9.185914993286132812e-01
1.577000000000000000e+03 1.333938980102539062e+01 2.312677955627441406e+01 -1.069888710975646973e+00 4.090637683868408203e+00 9.062247276306152344e-01 -8.030571043491363525e-02
1.578000000000000000e+03 3.748829650878906250e+01 -5.661486387252807617e-01 1.622923493385314941e+00 1.022507095336914062e+01 3.554398298263549805e+00 -9.853907227516174316e-01
1.579000000000000000e+03 3.867930603027343750e+01 -3.509813785552978516e+00 -9.587175250053405762e-01 9.183738708496093750e+00 2.467506408691406250e+00 -1.689816832542419434e+00
1.580000000000000000e+03 6.528134155273437500e+01 1.975920295715332031e+01 3.385801911354064941e-01 7.792851448059082031e+00 2.439429521560668945e+00 3.129051029682159424e-01
1.581000000000000000e+03 1.494443225860595703e+01 -1.000167083740234375e+01 3.934767562896013260e-03 4.516053199768066406e+00 1.355996370315551758e+00 1.861692190170288086e+00
1.582000000000000000e+03 4.414602661132812500e+01 -1.439251041412353516e+01 1.383009314537048340e+00 6.386251449584960938e+00 2.330778121948242188e+00 2.304824441671371460e-01
1.583000000000000000e+03 4.320182418823242188e+01 -1.621277999877929688e+01 1.831912994384765625e+00 7.990528583526611328e+00 2.946732521057128906e+00 -4.153417646884918213e-01
1.584000000000000000e+03 1.223102092742919922e+01 -2.292066955566406250e+01 6.438235193490982056e-02 4.488605976104736328e+00 1.365896463394165039e+00 7.497546672821044922e-01
1.585000000000000000e+03 1.258294582366943359e+01 -2.158726119995117188e+01 8.355478048324584961e-01 4.848922729492187500e+00 1.705341219902038574e+00 7.195751667022705078e-01
1.586000000000000000e+03 3.336697769165039062e+01 -2.975185775756835938e+01 -4.768238365650177002e-01 3.836647510528564453e+00 1.007947087287902832e+00 1.466707825660705566e+00
1.587000000000000000e+03 6.141459274291992188e+01 2.328285980224609375e+01 -1.159412860870361328e+00 4.822567462921142578e+00 1.098946452140808105e+00 -1.583182454109191895e+00
1.588000000000000000e+03 3.303207397460937500e+01 -3.602131605148315430e+00 8.124751448631286621e-01 6.773099899291992188e+00 2.275672674179077148e+00 -8.336296081542968750e-01
1.589000000000000000e+03 3.114632225036621094e+01 2.282560729980468750e+01 -7.849472165107727051e-01 4.271985530853271484e+00 1.046111583709716797e+00 -9.891627430915832520e-01
1.590000000000000000e+03 2.932553100585937500e+01 -5.059713840484619141e+00 1.522488117218017578e+00 1.367350935935974121e+00 8.669517040252685547e-01 -5.117578506469726562e-01
1.591000000000000000e+03 1.171209335327148438e+01 2.037445259094238281e+01 4.263422191143035889e-01 4.925865650177001953e+00 1.605662465095520020e+00 -1.152432203292846680e+00
1.592000000000000000e+03 1.266445446014404297e+01 -1.195975875854492188e+01 8.694118857383728027e-01 4.514033317565917969e+00 1.615033507347106934e+00 6.545724272727966309e-01
1.593000000000000000e+03 6.005741882324218750e+01 2.604734420776367188e+01 -6.250668168067932129e-01 3.095526456832885742e+00 7.411379218101501465e-01 -1.274696111679077148e+00
1.594000000000000000e+03 5.854364013671875000e+01 2.557444381713867188e+01 -4.199508130550384521e-01 1.956109046936035156e+00 4.608474671840667725e-01 -9.873368144035339355e-01
1.595000000000000000e+03 4.881289005279541016e+00 -4.044922256469726562e+01 -1.332081258296966553e-01 1.855613470077514648e+00 5.167216062545776367e-01 1.174654811620712280e-01
1.596000000000000000e+03 8.093122482299804688e+00 -4.124884414672851562e+01 -2.712078392505645752e-01 1.741878271102905273e+00 4.412011206150054932e-01 5.040677636861801147e-02
1.597000000000000000e+03 5.238224029541015625e+00 4.022165679931640625e+01 -7.389073818922042847e-02 1.805691838264465332e+00 5.195403099060058594e-01 -6.452849507331848145e-02
1.598000000000000000e+03 1.674498558044433594e+01 -1.927843809127807617e+00 1.641604542732238770e+00 1.790502429008483887e+00 1.029632091522216797e+00 2.646066904067993164e+00
1.599000000000000000e+03 1.747523307800292969e+01 -1.642474889755249023e+00 2.194112300872802734e+00 3.052677869796752930e+00 1.574037075042724609e+00 3.323012113571166992e+00
1.600000000000000000e+03 2.068750953674316406e+01 -6.658180952072143555e-01 6.545128345489501953e+00 8.088314056396484375e+00 4.390032768249511719e+00 -3.610354661941528320e+00
1.601000000000000000e+03 2.518374252319335938e+01 2.067375332117080688e-01 5.061331748962402344e+00 -1.855794787406921387e+00 9.616610407829284668e-01 -1.428882032632827759e-01
1.602000000000000000e+03 2.103113174438476562e+01 -5.654174089431762695e-01 6.849832534790039062e+00 6.114614486694335938e+00 3.889334201812744141e+00 -3.260740518569946289e+00
1.603000000000000000e+03 2.022446060180664062e+01 -2.680465698242187500e+00 1.242783188819885254e+00 6.937334060668945312e+00 2.454035282135009766e+00 -9.742891043424606323e-02
1.604000000000000000e+03 2.099726486206054688e+01 -1.505503416061401367e+00 4.111610412597656250e+00 6.565320491790771484e+00 3.203079223632812500e+00 -2.625786781311035156e+00
1.605000000000000000e+03 1.916373443603515625e+01 2.508746147155761719e+00 6.412489712238311768e-02 1.036609554290771484e+01 3.129065990447998047e+00 -4.205945014953613281e+00
1.606000000000000000e+03 2.229467773437500000e+01 1.587443947792053223e+00 3.999475717544555664e+00 9.682944416999816895e-01 1.490331053733825684e+00 1.730949729681015015e-01
1.607000000000000000e+03 2.156389045715332031e+01 1.412925720214843750e+00 5.303943157196044922e+00 3.656657695770263672e+00 2.688180208206176758e+00 2.752781659364700317e-02
1.608000000000000000e+03 1.989419937133789062e+01 2.602791070938110352e+00 -8.610069006681442261e-02 9.715118408203125000e+00 2.888705253601074219e+00 -1.927278876304626465e+00
1.609000000000000000e+03 2.075774574279785156e+01 1.776070475578308105e+00 4.330705642700195312e+00 7.349511146545410156e+00 3.504065036773681641e+00 7.423141002655029297e-01
1.610000000000000000e+03 2.119951438903808594e+01 2.284431934356689453e+00 2.461338996887207031e+00 5.792592048645019531e+00 2.476179122924804688e+00 6.446967124938964844e-01
1.611000000000000000e+03 1.573726844787597656e+01 -2.157577753067016602e+00 9.444406628608703613e-01 1.085385203361511230e+00 6.089477539062500000e-01 1.897808432579040527e+00
1.612000000000000000e+03 1.863532257080078125e+01 2.562182664871215820e+00 3.057693839073181152e-01 8.999897003173828125e+00 2.791699886322021484e+00 -5.611533641815185547e+00
1.613000000000000000e+03 1.528822231292724609e+01 2.299392700195312500e+00 -1.680602580308914185e-01 1.119966864585876465e+00 2.855719923973083496e-01 -2.104171991348266602e+00
1.614000000000000000e+03 1.913438224792480469e+01 3.196949720382690430e+00 -1.118508458137512207e+00 8.636585235595703125e+00 2.255423069000244141e+00 -4.043587684631347656e+00
1.615000000000000000e+03 1.342423629760742188e+01 -3.411906003952026367e+00 4.457084089517593384e-02 8.991547226905822754e-01 2.831176817417144775e-01 1.109923839569091797e+00
1.616000000000000000e+03 1.696944618225097656e+01 -2.467796325683593750e+00 1.345741987228393555e+00 2.718580961227416992e+00 1.219296932220458984e+00 3.029088497161865234e+00
1.617000000000000000e+03 1.400141239166259766e+01 3.689138650894165039e+00 -1.344962418079376221e-01 1.860694885253906250e+00 5.178595781326293945e-01 -1.590058445930480957e+00
1.618000000000000000e+03 1.199019432067871094e+01 -3.194258451461791992e+00 -3.252293467521667480e-01 6.196979284286499023e-01 8.834057301282882690e-02 4.833179116249084473e-01
1.619000000000000000e+03 8.121024131774902344e+00 -3.251820087432861328e+00 -5.613906383514404297e-01 2.129669636487960815e-01 -1.045271009206771851e-01 -4.176085293292999268e-01
1.620000000000000000e+03 7.817306041717529297e+00 -4.729219913482666016e+00 -2.508576512336730957e-01 3.671101629734039307e-01 3.487575054168701172e-02 -4.822458922863006592e-01
1.621000000000000000e+03 5.347430706024169922e+00 -3.356254816055297852e+00 -3.769166767597198486e-01 -3.057106584310531616e-02 -1.222463250160217285e-01 -6.015868782997131348e-01
1.622000000000000000e+03 3.207151889801025391e+00 -4.467458248138427734e+00 -1.280726641416549683e-01 -2.996016740798950195e-01 -1.283023059368133545e-01 -5.651322007179260254e-01
1.623000000000000000e+03 7.332397460937500000e+00 -3.933256149291992188e+00 -3.859307467937469482e-01 2.089450657367706299e-01 -5.309570208191871643e-02 -5.273607373237609863e-01
1.624000000000000000e+03 7.165642261505126953e+00 -4.632027149200439453e+00 -2.638259232044219971e-01 2.548502087593078613e-01 -2.692712703719735146e-03 -5.549000501632690430e-01
1.625000000000000000e+03 2.834635257720947266e+00 -3.816751718521118164e+00 -1.476695835590362549e-01 -2.738300561904907227e-01 -1.264498978853225708e-01 -5.034870505332946777e-01
1.626000000000000000e+03 6.083205223083496094e+00 -4.590223789215087891e+00 -2.463498860597610474e-01 1.141488403081893921e-01 -3.966031223535537720e-02 -6.553879380226135254e-01
1.627000000000000000e+03 1.259493255615234375e+01 3.891708850860595703e+00 -3.150538802146911621e-01 1.388515472412109375e+00 3.220384716987609863e-01 -6.366869807243347168e-01
1.628000000000000000e+03 2.158124923706054688e+00 -4.307177066802978516e+00 -6.935279816389083862e-02 -4.344999492168426514e-01 -1.511558294296264648e-01 -4.518797993659973145e-01
1.629000000000000000e+03 2.737020969390869141e+00 -5.048076629638671875e+00 -6.322085857391357422e-02 -4.587957859039306641e-01 -1.566049903631210327e-01 -5.537831783294677734e-01
1.630000000000000000e+03 1.185780811309814453e+01 3.972181797027587891e+00 -3.844248950481414795e-01 1.201486706733703613e+00 2.451185286045074463e-01 -2.429123073816299438e-01
1.631000000000000000e+03 1.183169746398925781e+01 3.266626358032226562e+00 -8.247960805892944336e-01 8.323386907577514648e-01 2.262785332277417183e-03 -1.296854019165039062e-01
1.632000000000000000e+03 1.115123844146728516e+01 4.760847568511962891e+00 -2.342055551707744598e-02 1.316266059875488281e+00 3.878536522388458252e-01 1.573905721306800842e-02
1.633000000000000000e+03 1.525138187408447266e+01 2.818024396896362305e+00 1.900910213589668274e-02 1.645429730415344238e+00 4.993316531181335449e-01 -2.425887584686279297e+00
1.634000000000000000e+03 1.473811435699462891e+01 4.266782760620117188e+00 1.594048440456390381e-01 2.828258514404296875e+00 8.962990045547485352e-01 -2.380924701690673828e+00
1.635000000000000000e+03 1.033080387115478516e+01 4.115530490875244141e+00 -4.221010506153106689e-01 8.074346780776977539e-01 1.156000941991806030e-01 3.865744173526763916e-01
1.636000000000000000e+03 9.481700897216796875e+00 -4.046066284179687500e+00 -3.654500246047973633e-01 4.950274527072906494e-01 3.887322917580604553e-02 -1.730674654245376587e-01
1.637000000000000000e+03 1.036833477020263672e+01 -3.301369905471801758e+00 -5.029886960983276367e-01 4.372687041759490967e-01 -1.971600390970706940e-02 4.202484153211116791e-03
1.638000000000000000e+03 1.283055782318115234e+01 -3.514043092727661133e+00 -7.540132105350494385e-02 7.888762354850769043e-01 2.140424698591232300e-01 8.649938702583312988e-01
1.639000000000000000e+03 1.108803939819335938e+01 -4.152018547058105469e+00 -2.238705307245254517e-01 7.714682221412658691e-01 1.642793118953704834e-01 3.110969662666320801e-01
1.640000000000000000e+03 7.909481525421142578e+00 3.512501955032348633e+00 -7.475661039352416992e-01 2.141991555690765381e-01 -1.600100845098495483e-01 9.264698028564453125e-01
1.641000000000000000e+03 6.304592609405517578e+00 4.546828746795654297e+00 -2.653633654117584229e-01 1.655817218124866486e-02 -7.464156299829483032e-02 1.111423730850219727e+00
1.642000000000000000e+03 7.127901077270507812e+00 4.434325218200683594e+00 -3.250990808010101318e-01 1.844291985034942627e-01 -4.220096394419670105e-02 1.042828917503356934e+00
1.643000000000000000e+03 5.663169384002685547e+00 6.596592903137207031e+00 2.581606209278106689e-01 -6.928488612174987793e-02 5.666272714734077454e-02 1.044823408126831055e+00
1.644000000000000000e+03 4.605405807495117188e+00 3.870950937271118164e+00 -3.458607196807861328e-01 -2.499890178442001343e-01 -1.787549257278442383e-01 1.012170672416687012e+00
1.645000000000000000e+03 3.069519996643066406e+00 5.122899532318115234e+00 -5.415612086653709412e-02 -6.491150259971618652e-01 -2.109813541173934937e-01 9.053967595100402832e-01
1.646000000000000000e+03 3.814844131469726562e+00 6.037506580352783203e+00 3.616773709654808044e-02 -6.424701809883117676e-01 -1.818907409906387329e-01 1.003999948501586914e+00
1.647000000000000000e+03 9.547988891601562500e+00 4.187470912933349609e+00 -4.218137860298156738e-01 6.295858621597290039e-01 6.233160942792892456e-02 6.340696811676025391e-01
1.648000000000000000e+03 8.751492500305175781e+00 4.264533042907714844e+00 -4.000692367553710938e-01 4.816395938396453857e-01 2.447110973298549652e-02 8.074571490287780762e-01
1.649000000000000000e+03 2.138210868835449219e+01 4.047983586788177490e-01 7.885921001434326172e+00 4.176175117492675781e+00 3.618628740310668945e+00 -1.601653218269348145e+00
1.650000000000000000e+03 5.720713043212890625e+01 -6.812620162963867188e+00 6.469943523406982422e-01 1.821735382080078125e+00 7.406188845634460449e-01 1.316426634788513184e+00
1.651000000000000000e+03 2.281811332702636719e+01 -7.393156051635742188e+00 -4.064677059650421143e-01 1.379290580749511719e+00 2.918468415737152100e-01 3.668287396430969238e-01
1.652000000000000000e+03 2.418595123291015625e+01 -7.319702148437500000e+00 -4.282291829586029053e-01 6.370393633842468262e-01 6.264305114746093750e-02 2.697454951703548431e-02
1.653000000000000000e+03 4.048240280151367188e+01 1.738639640808105469e+01 2.387388795614242554e-01 6.091083526611328125e+00 1.898946762084960938e+00 1.561765074729919434e+00
1.654000000000000000e+03 2.879459571838378906e+01 -1.783184289932250977e+00 5.593084335327148438e+00 8.302929997444152832e-01 1.927013158798217773e+00 8.400664329528808594e-01
1.655000000000000000e+03 1.234809780120849609e+01 1.312987422943115234e+01 2.168920993804931641e+00 6.226006984710693359e+00 2.518478393554687500e+00 -1.632391691207885742e+00
1.656000000000000000e+03 1.136169147491455078e+01 1.183481884002685547e+01 2.106297492980957031e+00 4.364619255065917969e+00 1.941275119781494141e+00 -1.014080524444580078e+00
1.657000000000000000e+03 2.038267326354980469e+01 3.315329551696777344e+00 -1.190086603164672852e+00 6.400878906250000000e+00 1.563237667083740234e+00 -9.935060739517211914e-01
1.658000000000000000e+03 1.073176956176757812e+01 -2.440982246398925781e+01 -2.536423206329345703e-01 3.441442251205444336e+00 9.563399553298950195e-01 1.107762575149536133e+00
1.659000000000000000e+03 2.218572044372558594e+01 -7.933251380920410156e+00 -5.508158206939697266e-01 1.578135013580322266e+00 3.081957399845123291e-01 6.708269119262695312e-01
1.660000000000000000e+03 1.878694343566894531e+01 5.196695327758789062e+00 -1.260568499565124512e+00 5.871680736541748047e+00 1.383333683013916016e+00 -3.259958028793334961e+00
1.661000000000000000e+03 2.199655914306640625e+01 -9.111643791198730469e+00 -1.002291202545166016e+00 1.083168148994445801e+00 2.426310256123542786e-02 4.478082358837127686e-01
1.662000000000000000e+03 2.006503868103027344e+01 -9.898327827453613281e+00 -3.680097758769989014e-01 1.314859032630920410e+00 2.840547561645507812e-01 1.426492571830749512e+00
1.663000000000000000e+03 4.612876892089843750e+01 1.857705307006835938e+01 6.681379079818725586e-01 2.261946439743041992e+00 8.790253400802612305e-01 1.528102993965148926e+00
1.664000000000000000e+03 4.446621704101562500e+01 2.039854431152343750e+01 -1.200770363211631775e-01 3.474996805191040039e+00 1.006475925445556641e+00 1.681883692741394043e+00
1.665000000000000000e+03 1.508805274963378906e+01 -1.146643066406250000e+01 6.609480977058410645e-01 5.267096042633056641e+00 1.778413295745849609e+00 1.968814253807067871e+00
1.666000000000000000e+03 4.446601486206054688e+01 -7.932042598724365234e+00 -1.939720213413238525e-01 2.641621828079223633e+00 7.342949509620666504e-01 -2.041895538568496704e-01
1.667000000000000000e+03 1.298825550079345703e+01 -1.414406394958496094e+01 1.863129615783691406e+00 5.669081211090087891e+00 2.259663343429565430e+00 1.126694679260253906e+00
1.668000000000000000e+03 1.148746204376220703e+01 -2.081079864501953125e+01 1.017914295196533203e+00 4.715852737426757812e+00 1.720130205154418945e+00 9.664791822433471680e-01
1.669000000000000000e+03 1.161582851409912109e+01 -1.782803726196289062e+01 1.544595718383789062e+00 5.174968242645263672e+00 2.015869140625000000e+00 1.102186203002929688e+00
1.670000000000000000e+03 1.247373390197753906e+01 1.579091644287109375e+01 1.188430428504943848e+00 7.398468971252441406e+00 2.576069831848144531e+00 -1.092376589775085449e+00
1.671000000000000000e+03 1.148837757110595703e+01 1.526408481597900391e+01 1.666303157806396484e+00 5.478846549987792969e+00 2.143544912338256836e+00 -1.240137696266174316e+00
1.672000000000000000e+03 8.135761260986328125e+00 1.047615814208984375e+01 1.357098817825317383e+00 1.468565464019775391e+00 8.476992845535278320e-01 1.837535798549652100e-01
1.673000000000000000e+03 2.815674591064453125e+01 -5.043793678283691406e+00 1.987442851066589355e+00 3.441579937934875488e-01 6.994802355766296387e-01 -1.888483017683029175e-01
1.674000000000000000e+03 2.659764099121093750e+01 -2.479570627212524414e+00 4.632061958312988281e+00 -4.904255270957946777e-01 1.242490887641906738e+00 1.684229224920272827e-01
1.675000000000000000e+03 5.645938110351562500e+01 -1.105983829498291016e+01 -8.356385827064514160e-01 8.712869286537170410e-01 1.069449912756681442e-02 9.411113858222961426e-01
1.676000000000000000e+03 1.416645812988281250e+01 -1.238945388793945312e+01 1.227217316627502441e+00 5.603303909301757812e+00 2.049156427383422852e+00 1.407124161720275879e+00
1.677000000000000000e+03 1.904865455627441406e+01 -1.013367938995361328e+01 -1.726947724819183350e-01 2.079866170883178711e+00 5.721514225006103516e-01 2.089779615402221680e+00
1.678000000000000000e+03 1.802019500732421875e+01 -1.018010616302490234e+01 -5.468899011611938477e-02 3.018691539764404297e+00 8.892008066177368164e-01 2.434288978576660156e+00
1.679000000000000000e+03 3.794490432739257812e+01 1.181244468688964844e+01 1.107366442680358887e+00 1.053523731231689453e+01 3.492781162261962891e+00 9.355379343032836914e-01
1.680000000000000000e+03 7.548180389404296875e+01 1.287618732452392578e+01 2.221400439739227295e-01 6.665214538574218750e+00 2.066206216812133789e+00 1.185877695679664612e-01
1.681000000000000000e+03 7.685354614257812500e+01 4.170420467853546143e-01 -3.436826914548873901e-02 7.239808559417724609e+00 2.161632061004638672e+00 -4.593478441238403320e-01
1.682000000000000000e+03 7.564946746826171875e+01 -9.033439159393310547e-01 -1.113855317234992981e-01 7.298833370208740234e+00 2.156234264373779297e+00 -5.546262264251708984e-01
1.683000000000000000e+03 7.550994873046875000e+01 -1.595914649963378906e+01 7.156769037246704102e-01 8.093284606933593750e+00 2.642688512802124023e+00 4.600146114826202393e-01
1.684000000000000000e+03 7.690932464599609375e+01 -1.494384479522705078e+01 3.206194341182708740e-01 7.427824497222900391e+00 2.324533224105834961e+00 6.278006434440612793e-01
1.685000000000000000e+03 7.137597656250000000e+01 -1.199421882629394531e+01 -8.495187759399414062e-01 9.746631622314453125e+00 2.669133901596069336e+00 6.175205111503601074e-02
1.686000000000000000e+03 7.485826873779296875e+01 -1.441157817840576172e+01 5.238049626350402832e-01 8.581058502197265625e+00 2.731458902359008789e+00 8.481861948966979980e-01
1.687000000000000000e+03 7.579455566406250000e+01 -1.179080963134765625e+01 -2.074853181838989258e-01 8.141052246093750000e+00 2.380070209503173828e+00 7.905805706977844238e-01
1.688000000000000000e+03 7.693299865722656250e+01 -6.626792430877685547e+00 -2.333853691816329956e-01 7.865738868713378906e+00 2.289705991744995117e+00 6.999576836824417114e-02
1.689000000000000000e+03 7.580264282226562500e+01 -7.977697372436523438e+00 -4.238614439964294434e-01 7.997928619384765625e+00 2.272220134735107422e+00 2.119346559047698975e-01
1.690000000000000000e+03 7.578405761718750000e+01 -5.151381492614746094e+00 -3.476245403289794922e-01 7.759225845336914062e+00 2.223480224609375000e+00 -2.186328321695327759e-01
1.691000000000000000e+03 7.575485992431640625e+01 -3.716651201248168945e+00 -2.693285048007965088e-01 7.589237213134765625e+00 2.195972442626953125e+00 -3.803846836090087891e-01
1.692000000000000000e+03 7.577150726318359375e+01 -6.584678173065185547e+00 -4.209901988506317139e-01 7.901899814605712891e+00 2.244272947311401367e+00 2.020609332248568535e-03
1.693000000000000000e+03 7.684947204589843750e+01 1.792937397956848145e+00 1.527831889688968658e-02 7.088986396789550781e+00 2.131279468536376953e+00 -4.645597040653228760e-01
1.694000000000000000e+03 7.562197875976562500e+01 4.733735918998718262e-01 -2.689426019787788391e-02 7.165800094604492188e+00 2.141671657562255859e+00 -5.813363194465637207e-01
1.695000000000000000e+03 7.559844970703125000e+01 5.989663600921630859e+00 1.486442983150482178e-01 6.770163059234619141e+00 2.075642108917236328e+00 -4.326196312904357910e-01
1.696000000000000000e+03 7.438597106933593750e+01 3.226441144943237305e+00 1.047491356730461121e-01 6.931405067443847656e+00 2.110846281051635742e+00 -6.237039566040039062e-01
1.697000000000000000e+03 7.561581420898437500e+01 1.849739551544189453e+00 1.142127905040979385e-02 7.054198741912841797e+00 2.119686126708984375e+00 -5.779997110366821289e-01
1.698000000000000000e+03 7.505565643310546875e+01 -1.697251892089843750e+01 9.239626526832580566e-01 8.367148399353027344e+00 2.787333250045776367e+00 1.921170651912689209e-01
1.699000000000000000e+03 7.467041778564453125e+01 -2.280809020996093750e+01 3.483405113220214844e-01 8.927856445312500000e+00 2.782858848571777344e+00 -1.377195358276367188e+00
1.700000000000000000e+03 7.702845764160156250e+01 -1.901737976074218750e+01 4.511173367500305176e-01 7.290195941925048828e+00 2.322393894195556641e+00 -3.378163874149322510e-01
1.701000000000000000e+03 7.492436981201171875e+01 -1.999300956726074219e+01 9.802219867706298828e-01 8.576313972473144531e+00 2.866960763931274414e+00 -7.922004461288452148e-01
1.702000000000000000e+03 7.569525909423828125e+01 8.754668235778808594e+00 2.056182771921157837e-01 6.653013706207275391e+00 2.057589530944824219e+00 -2.361355572938919067e-01
1.703000000000000000e+03 7.090019989013671875e+01 3.289735031127929688e+01 -2.257877290248870850e-01 6.626383304595947266e+00 1.920178651809692383e+00 6.789018400013446808e-03
1.704000000000000000e+03 7.521472930908203125e+01 3.049760818481445312e+01 -1.586089581251144409e-01 7.424836635589599609e+00 2.179868221282958984e+00 1.999458670616149902e-01
1.705000000000000000e+03 7.567304229736328125e+01 1.010824489593505859e+01 2.126827687025070190e-01 6.635763645172119141e+00 2.054533958435058594e+00 -1.203572005033493042e-01
1.706000000000000000e+03 7.458163452148437500e+01 8.735057830810546875e+00 2.945634126663208008e-01 6.751030445098876953e+00 2.113677978515625000e+00 -2.507291138172149658e-01
1.707000000000000000e+03 7.664461517333984375e+01 1.722638320922851562e+01 9.807018190622329712e-02 6.731520652770996094e+00 2.048877239227294922e+00 3.700979948043823242e-01
1.708000000000000000e+03 7.670127868652343750e+01 1.575645923614501953e+01 1.157298907637596130e-01 6.625739097595214844e+00 2.022440671920776367e+00 2.756388783454895020e-01
1.709000000000000000e+03 7.531623077392578125e+01 -2.955118560791015625e+01 -4.520126581192016602e-01 8.809849739074707031e+00 2.507351160049438477e+00 -7.637255787849426270e-01
1.710000000000000000e+03 7.677878570556640625e+01 -2.851100349426269531e+01 -2.531697154045104980e-01 8.929535865783691406e+00 2.602910041809082031e+00 -8.138282895088195801e-01
1.711000000000000000e+03 7.481673431396484375e+01 -2.464578056335449219e+01 -1.060118377208709717e-01 8.850121498107910156e+00 2.623233079910278320e+00 -1.381391763687133789e+00
1.712000000000000000e+03 7.534939575195312500e+01 1.729881286621093750e+01 1.563088446855545044e-01 6.840854167938232422e+00 2.099148750305175781e+00 4.478484690189361572e-01
1.713000000000000000e+03 7.519306945800781250e+01 2.043796730041503906e+01 4.464816302061080933e-02 7.046196937561035156e+00 2.127253532409667969e+00 5.780364871025085449e-01
1.714000000000000000e+03 7.520815277099609375e+01 1.884830856323242188e+01 1.113993227481842041e-01 6.938658237457275391e+00 2.115017414093017578e+00 5.347184538841247559e-01
1.715000000000000000e+03 7.408950042724609375e+01 1.726807785034179688e+01 2.383938282728195190e-01 6.932441711425781250e+00 2.151250600814819336e+00 5.169473886489868164e-01
1.716000000000000000e+03 7.561624145507812500e+01 -2.577660179138183594e+01 -2.093299180269241333e-01 8.711014747619628906e+00 2.550505399703979492e+00 -1.255864381790161133e+00
1.717000000000000000e+03 7.571679687500000000e+01 -2.259612846374511719e+01 3.656717240810394287e-01 8.433715820312500000e+00 2.639816284179687500e+00 -1.287664175033569336e+00
1.718000000000000000e+03 7.427532196044921875e+01 -2.743117332458496094e+01 -5.581656098365783691e-01 8.817583084106445312e+00 2.477825164794921875e+00 -1.041194200515747070e+00
1.719000000000000000e+03 7.502907562255859375e+01 2.513172721862792969e+01 -1.308193802833557129e-01 7.287825584411621094e+00 2.147101879119873047e+00 4.841105043888092041e-01
1.720000000000000000e+03 7.532829284667968750e+01 2.674337577819824219e+01 -1.397665590047836304e-01 7.385661602020263672e+00 2.173768520355224609e+00 3.944213986396789551e-01
1.721000000000000000e+03 7.708591461181640625e+01 2.821047210693359375e+01 -6.003339961171150208e-02 7.652798175811767578e+00 2.277829408645629883e+00 2.300778180360794067e-01
1.722000000000000000e+03 7.687593078613281250e+01 2.939797973632812500e+01 -7.579491287469863892e-02 7.677335262298583984e+00 2.280462026596069336e+00 2.127352952957153320e-01
1.723000000000000000e+03 7.604616546630859375e+01 2.787335586547851562e+01 -1.166643649339675903e-01 7.497804164886474609e+00 2.214341878890991211e+00 3.064781129360198975e-01
1.724000000000000000e+03 7.520938873291015625e+01 -3.245088577270507812e+01 -3.888416290283203125e-01 8.722146987915039062e+00 2.499991655349731445e+00 -3.791504502296447754e-01
1.725000000000000000e+03 7.640552520751953125e+01 -3.617868041992187500e+01 -1.804802566766738892e-01 9.265176773071289062e+00 2.725409030914306641e+00 -2.577647380530834198e-02
1.726000000000000000e+03 7.394093322753906250e+01 -3.079487800598144531e+01 -5.757462978363037109e-01 8.480409622192382812e+00 2.371398925781250000e+00 -5.125362277030944824e-01
1.727000000000000000e+03 7.528514099121093750e+01 -3.102669143676757812e+01 -3.934494554996490479e-01 8.787981033325195312e+00 2.518359422683715820e+00 -5.645695328712463379e-01
1.728000000000000000e+03 7.525041198730468750e+01 3.370425415039062500e+01 -6.949424743652343750e-02 7.466608524322509766e+00 2.219134330749511719e+00 7.128039002418518066e-02
1.729000000000000000e+03 7.559931182861328125e+01 2.912102699279785156e+01 -1.268485784530639648e-01 7.475358963012695312e+00 2.204553127288818359e+00 2.591809928417205811e-01
1.730000000000000000e+03 6.046954345703125000e+01 -7.460025548934936523e-01 1.387445688247680664e+00 3.853416442871093750e+00 1.572258591651916504e+00 1.404466032981872559e+00
1.731000000000000000e+03 6.152298736572265625e+01 1.545475959777832031e+00 1.078642845153808594e+00 5.117824554443359375e+00 1.858940124511718750e+00 1.358107328414916992e+00
1.732000000000000000e+03 4.081161880493164062e+01 -2.188020133972167969e+01 2.085938692092895508e+00 9.405436515808105469e+00 3.447412729263305664e+00 -1.259808659553527832e+00
1.733000000000000000e+03 4.158451080322265625e+00 -1.559469223022460938e+01 4.032829701900482178e-01 -3.817993700504302979e-01 6.445075850933790207e-03 1.096340939402580261e-01
1.734000000000000000e+03 4.754013538360595703e+00 2.038682174682617188e+01 1.124420017004013062e-01 6.079608201980590820e-01 2.161208391189575195e-01 -1.215601682662963867e+00
1.735000000000000000e+03 4.785217285156250000e+00 2.185599136352539062e+01 6.010059267282485962e-03 8.129374384880065918e-01 2.456842511892318726e-01 -1.230930089950561523e+00
1.736000000000000000e+03 4.316404819488525391e+00 -1.835144233703613281e+01 4.334639608860015869e-01 -7.649908959865570068e-02 1.070894598960876465e-01 5.847478508949279785e-01
1.737000000000000000e+03 4.217992782592773438e+00 -1.696116256713867188e+01 4.290772676467895508e-01 -2.740938067436218262e-01 4.649504646658897400e-02 3.280504047870635986e-01
1.738000000000000000e+03 4.302510738372802734e+00 1.568818855285644531e+01 4.939343035221099854e-01 -3.304623067378997803e-01 4.904160648584365845e-02 -5.921815037727355957e-01
1.739000000000000000e+03 4.774429798126220703e+00 1.882665252685546875e+01 3.097746074199676514e-01 3.983947932720184326e-01 2.124508172273635864e-01 -1.098130941390991211e+00
1.740000000000000000e+03 3.282824277877807617e+00 1.744638442993164062e+01 2.416065186262130737e-01 -7.655116915702819824e-01 -1.571715623140335083e-01 -7.215727567672729492e-01
1.741000000000000000e+03 6.214262485504150391e+00 2.314894866943359375e+01 -1.972290128469467163e-01 1.648845434188842773e+00 4.354849457740783691e-01 -1.340891957283020020e+00
1.742000000000000000e+03 4.902122497558593750e+00 2.492198944091796875e+01 -2.338884919881820679e-01 1.268808364868164062e+00 3.104759454727172852e-01 -1.089589238166809082e+00
1.743000000000000000e+03 4.196113586425781250e+00 2.855478096008300781e+01 -2.414409965276718140e-01 1.366593003273010254e+00 3.375456035137176514e-01 -6.831502318382263184e-01
1.744000000000000000e+03 5.007691860198974609e+00 -2.816061782836914062e+01 -2.256422936916351318e-01 1.374323487281799316e+00 3.446043431758880615e-01 9.759131073951721191e-01
1.745000000000000000e+03 3.246027231216430664e+00 -2.285934066772460938e+01 7.982994616031646729e-02 -2.469737455248832703e-02 1.653977110981941223e-02 8.693054914474487305e-01
1.746000000000000000e+03 4.551886081695556641e+00 -2.267302131652832031e+01 1.505261957645416260e-01 5.901605486869812012e-01 2.222060263156890869e-01 1.072973012924194336e+00
1.747000000000000000e+03 4.536393642425537109e+00 -2.122555351257324219e+01 2.467344105243682861e-01 3.573761880397796631e-01 1.812331825494766235e-01 9.738733768463134766e-01
1.748000000000000000e+03 8.387478828430175781e+00 -1.596445941925048828e+01 1.244359612464904785e+00 2.137002229690551758e+00 1.014408588409423828e+00 4.279164075851440430e-01
1.749000000000000000e+03 4.054800033569335938e+00 1.280523014068603516e+01 5.039127469062805176e-01 -7.424848675727844238e-01 -7.157163321971893311e-02 5.253904033452272415e-03
1.750000000000000000e+03 4.887166500091552734e+00 2.336297798156738281e+01 -1.631783992052078247e-01 1.083580017089843750e+00 2.761204838752746582e-01 -1.217765331268310547e+00
1.751000000000000000e+03 5.990184307098388672e+00 -2.527216720581054688e+01 -1.183369085192680359e-01 1.475324988365173340e+00 4.070964157581329346e-01 1.227383017539978027e+00
1.752000000000000000e+03 3.291233062744140625e+00 -2.428258132934570312e+01 1.059417426586151123e-02 2.764296233654022217e-01 8.610714226961135864e-02 9.060123562812805176e-01
1.753000000000000000e+03 4.684953212738037109e+00 -2.548443031311035156e+01 -8.276998996734619141e-02 1.012788176536560059e+00 2.790054678916931152e-01 1.099184751510620117e+00
1.754000000000000000e+03 3.844517946243286133e+00 -1.003934669494628906e+01 1.652942597866058350e-01 -5.210293531417846680e-01 -1.067205220460891724e-01 -5.690404176712036133e-01
1.755000000000000000e+03 4.096127510070800781e+00 -1.421363449096679688e+01 3.576513528823852539e-01 -4.725427329540252686e-01 -3.446741029620170593e-02 -1.136785969138145447e-01
1.756000000000000000e+03 5.184316635131835938e+00 9.893502235412597656e+00 6.322378516197204590e-01 -2.041804045438766479e-01 1.284172385931015015e-01 6.057831645011901855e-01
1.757000000000000000e+03 3.851757764816284180e+00 -2.985036849975585938e+01 -1.666121184825897217e-01 1.286986351013183594e+00 3.361122906208038330e-01 7.371616959571838379e-01
1.758000000000000000e+03 5.235956192016601562e+00 -2.946923255920410156e+01 -2.693624496459960938e-01 1.511938214302062988e+00 3.727727234363555908e-01 8.824598789215087891e-01
1.759000000000000000e+03 4.080827713012695312e+00 9.927430152893066406e+00 4.447032213211059570e-01 -7.480095624923706055e-01 -9.099190682172775269e-02 5.693402886390686035e-01
1.760000000000000000e+03 3.934738636016845703e+00 -1.142554187774658203e+01 2.275418043136596680e-01 -5.331437587738037109e-01 -9.168059378862380981e-02 -4.590528905391693115e-01
1.761000000000000000e+03 3.767134189605712891e+00 -8.684970855712890625e+00 9.803414344787597656e-02 -4.982081055641174316e-01 -1.200521886348724365e-01 -6.367051601409912109e-01
1.762000000000000000e+03 8.215020179748535156e+00 -3.211398315429687500e+01 -5.597574114799499512e-01 1.980590105056762695e+00 4.262498021125793457e-01 6.353635191917419434e-01
1.763000000000000000e+03 5.611700057983398438e+00 -3.077537536621093750e+01 -3.219663798809051514e-01 1.663800716400146484e+00 4.025503098964691162e-01 7.860221266746520996e-01
1.764000000000000000e+03 4.221688270568847656e+00 -3.128301239013671875e+01 -1.941761374473571777e-01 1.474073171615600586e+00 3.839690983295440674e-01 6.563366651535034180e-01
1.765000000000000000e+03 6.030262470245361328e+00 2.954044723510742188e+01 -3.906749784946441650e-01 1.726778626441955566e+00 4.008310735225677490e-01 -6.662291288375854492e-01
1.766000000000000000e+03 3.315036296844482422e+00 3.443787384033203125e+01 -8.575818687677383423e-02 1.660317301750183105e+00 4.723677337169647217e-01 -2.194939553737640381e-01
1.767000000000000000e+03 4.985586166381835938e+00 3.299766540527343750e+01 -2.019691616296768188e-01 1.676207661628723145e+00 4.422715306282043457e-01 -3.651084601879119873e-01
1.768000000000000000e+03 4.739452838897705078e+00 3.466199493408203125e+01 -1.525350958108901978e-01 1.711166024208068848e+00 4.675892591476440430e-01 -2.651344239711761475e-01
1.769000000000000000e+03 6.385146617889404297e+00 5.459503650665283203e+00 7.102530915290117264e-03 1.002471968531608582e-01 3.220491856336593628e-02 1.086005449295043945e+00
1.770000000000000000e+03 6.610272884368896484e+00 -4.525048732757568359e+00 -2.693883180618286133e-01 1.794333904981613159e-01 -2.698648348450660706e-02 -6.026975512504577637e-01
1.771000000000000000e+03 2.563140153884887695e+00 -6.137136459350585938e+00 -1.840073801577091217e-02 -6.226305961608886719e-01 -1.923093944787979126e-01 -5.602941513061523438e-01
1.772000000000000000e+03 4.617274284362792969e+00 -3.552672958374023438e+01 -1.792902052402496338e-01 1.751539707183837891e+00 4.716748297214508057e-01 3.611852228641510010e-01
1.773000000000000000e+03 3.521181106567382812e+01 2.339087486267089844e+00 3.292469501495361328e+00 1.219776821136474609e+01 4.647071361541748047e+00 1.693027377128601074e+00
1.774000000000000000e+03 5.769875335693359375e+01 -5.559776782989501953e+00 1.161486744880676270e+00 2.071949958801269531e+00 9.700310230255126953e-01 1.325694203376770020e+00
1.775000000000000000e+03 6.836104583740234375e+01 -2.931892395019531250e+01 -1.119320392608642578e+00 6.266702175140380859e+00 1.544214487075805664e+00 6.769704818725585938e-01
1.776000000000000000e+03 6.887442016601562500e+01 -2.820223236083984375e+01 -1.239243865013122559e+00 6.986954212188720703e+00 1.724313139915466309e+00 5.288212299346923828e-01
1.777000000000000000e+03 1.803723144531250000e+01 5.910433292388916016e+00 -3.142339587211608887e-01 5.666191577911376953e+00 1.605587244033813477e+00 -3.448974847793579102e+00
1.778000000000000000e+03 4.822362518310546875e+01 -9.091237068176269531e+00 6.459741592407226562e-01 1.064076066017150879e+00 5.130150914192199707e-01 1.984141945838928223e+00
1.779000000000000000e+03 4.829590225219726562e+01 -1.439723300933837891e+01 1.734724044799804688e+00 2.032363891601562500e+00 1.130126357078552246e+00 1.893942952156066895e+00
1.780000000000000000e+03 1.363796710968017578e+01 -2.481039810180664062e+01 -5.476617217063903809e-01 3.861686468124389648e+00 9.942074418067932129e-01 3.140300214290618896e-01
1.781000000000000000e+03 1.591468906402587891e+01 6.681056499481201172e+00 8.567523360252380371e-01 5.334210872650146484e+00 1.857288956642150879e+00 -2.986063718795776367e+00
1.782000000000000000e+03 6.513864898681640625e+01 -9.238801002502441406e+00 -8.675423264503479004e-01 2.851940631866455078e+00 5.953195095062255859e-01 -2.227081298828125000e+00
1.783000000000000000e+03 4.432715606689453125e+01 1.867412948608398438e+01 4.799050092697143555e-01 3.511613607406616211e+00 1.197455644607543945e+00 1.851643681526184082e+00
1.784000000000000000e+03 4.149561309814453125e+01 1.824172019958496094e+01 1.240483298897743225e-01 5.356200695037841797e+00 1.644074797630310059e+00 1.722369670867919922e+00
1.785000000000000000e+03 3.178137397766113281e+01 -3.237442493438720703e+00 1.942684888839721680e+00 5.173739433288574219e+00 2.134927272796630859e+00 -2.892063558101654053e-01
1.786000000000000000e+03 3.201850128173828125e+01 -1.798357009887695312e+00 3.431096792221069336e+00 5.689965248107910156e+00 2.736318588256835938e+00 6.389279365539550781e-01
1.787000000000000000e+03 3.667164230346679688e+01 8.858229964971542358e-03 1.815335631370544434e+00 1.081681442260742188e+01 3.789644956588745117e+00 -5.322865247726440430e-01
1.788000000000000000e+03 3.349947357177734375e+01 -9.046315550804138184e-01 2.721861124038696289e+00 8.667162895202636719e+00 3.416707038879394531e+00 1.347057461738586426e+00
1.789000000000000000e+03 3.607082748413085938e+01 8.547876358032226562e+00 1.282418370246887207e+00 1.204363822937011719e+01 3.997817039489746094e+00 5.246735215187072754e-01
1.790000000000000000e+03 3.679689407348632812e+01 1.030845260620117188e+01 1.268211483955383301e+00 1.131360435485839844e+01 3.774544715881347656e+00 3.584903180599212646e-01
1.791000000000000000e+03 4.431874084472656250e+01 -1.886352729797363281e+01 2.052380561828613281e+00 9.452315330505371094e+00 3.451408624649047852e+00 2.854485511779785156e-01
1.792000000000000000e+03 6.703670501708984375e+01 1.613577461242675781e+01 8.840948343276977539e-01 7.816658973693847656e+00 2.610226154327392578e+00 3.407908976078033447e-01
1.793000000000000000e+03 4.778725433349609375e+01 -1.326187610626220703e+01 1.404863953590393066e+00 2.697981357574462891e+00 1.230853557586669922e+00 1.981076836585998535e+00
1.794000000000000000e+03 4.339498901367187500e+01 -2.613026809692382812e+01 2.099595069885253906e+00 9.450776100158691406e+00 3.465111494064331055e+00 -1.561779379844665527e+00
1.795000000000000000e+03 2.954475212097167969e+01 -6.371690273284912109e+00 1.487112939357757568e-01 7.772920727729797363e-01 2.778010070323944092e-01 -1.458180904388427734e+00
1.796000000000000000e+03 3.203020477294921875e+01 -5.552122592926025391e+00 -1.341708749532699585e-01 5.026573657989501953e+00 1.467720866203308105e+00 -1.680413246154785156e+00
1.797000000000000000e+03 5.442071914672851562e+01 -1.238716411590576172e+01 -5.636227130889892578e-01 5.718011856079101562e-01 2.453541150316596031e-03 1.131428837776184082e+00
1.798000000000000000e+03 5.275320053100585938e+01 -7.340534210205078125e+00 5.780038833618164062e-01 2.063356399536132812e+00 7.924080491065979004e-01 2.290013074874877930e+00
1.799000000000000000e+03 3.844296264648437500e+01 -1.867138481140136719e+01 1.621838569641113281e+00 1.037359237670898438e+01 3.598629236221313477e+00 -1.481411576271057129e+00
1.800000000000000000e+03 1.183326625823974609e+01 -1.384930801391601562e+01 1.539814114570617676e+00 4.431534767150878906e+00 1.791404604911804199e+00 5.237075090408325195e-01
1.801000000000000000e+03 2.762723922729492188e+01 -2.645316362380981445e+00 4.370760440826416016e+00 2.063226550817489624e-01 1.373124837875366211e+00 3.593989908695220947e-01
1.802000000000000000e+03 2.607152557373046875e+01 -1.699982643127441406e+00 5.190851688385009766e+00 -1.021589517593383789e+00 1.250778675079345703e+00 8.730198442935943604e-02
1.803000000000000000e+03 2.547032737731933594e+01 -1.050430655479431152e+00 5.321904182434082031e+00 -1.161153197288513184e+00 1.248225331306457520e+00 -2.797041833400726318e-01
1.804000000000000000e+03 5.700164031982421875e+01 2.486333847045898438e+01 -5.547521114349365234e-01 1.037905097007751465e+00 1.449458748102188110e-01 -5.328290462493896484e-01
1.805000000000000000e+03 5.169575119018554688e+01 2.489264488220214844e+01 -5.096309781074523926e-01 1.114894270896911621e+00 1.815789788961410522e-01 1.004719734191894531e+00
1.806000000000000000e+03 4.953167724609375000e+01 -1.033417892456054688e+01 7.916237711906433105e-01 1.198324203491210938e+00 5.969843864440917969e-01 2.430913925170898438e+00
1.807000000000000000e+03 2.713499832153320312e+01 2.444106292724609375e+01 -7.889394164085388184e-01 1.578790783882141113e+00 2.369554191827774048e-01 -1.206608414649963379e+00
1.808000000000000000e+03 3.910044097900390625e+01 -1.974674415588378906e+01 1.806538939476013184e+00 1.007060527801513672e+01 3.563143253326416016e+00 -1.213179230690002441e+00
1.809000000000000000e+03 4.023193359375000000e+01 -2.027219009399414062e+01 2.030601263046264648e+00 9.593740463256835938e+00 3.487302541732788086e+00 -1.291487336158752441e+00
1.810000000000000000e+03 1.650299453735351562e+01 -2.939198303222656250e+01 -9.691159129142761230e-01 1.899925112724304199e+00 2.792427837848663330e-01 -3.115958869457244873e-01
1.811000000000000000e+03 6.622351074218750000e+01 1.352912044525146484e+01 9.395158886909484863e-01 8.330323219299316406e+00 2.780951738357543945e+00 2.468482851982116699e-01
1.812000000000000000e+03 1.430432319641113281e+01 -2.877020072937011719e+01 -9.721884727478027344e-01 2.544169664382934570e+00 4.715943336486816406e-01 6.662937253713607788e-02
1.813000000000000000e+03 6.415820312500000000e+01 4.112397193908691406e+00 8.612738251686096191e-01 6.741499423980712891e+00 2.280832052230834961e+00 5.582302808761596680e-01
1.814000000000000000e+03 5.574875259399414062e+01 -6.529661655426025391e+00 9.324892163276672363e-01 1.990120410919189453e+00 8.767828941345214844e-01 1.636983752250671387e+00
1.815000000000000000e+03 6.444040679931640625e+01 9.950819969177246094e+00 9.155008792877197266e-01 8.807071685791015625e+00 2.916771650314331055e+00 6.801121234893798828e-01
1.816000000000000000e+03 7.065627288818359375e+01 9.745808601379394531e+00 6.871877908706665039e-01 7.077820777893066406e+00 2.329502582550048828e+00 -1.169912740588188171e-01
1.817000000000000000e+03 3.533747100830078125e+01 1.790891647338867188e+01 1.901504397392272949e-01 6.764101028442382812e+00 2.086275577545166016e+00 -4.462394118309020996e-01
1.818000000000000000e+03 1.052879905700683594e+01 -1.724103927612304688e+01 1.625293850898742676e+00 3.869343280792236328e+00 1.648391127586364746e+00 8.669169545173645020e-01
1.819000000000000000e+03 5.311579895019531250e+01 2.387661361694335938e+01 -8.164514899253845215e-01 5.746349692344665527e-01 -7.254494726657867432e-02 6.568190455436706543e-01
1.820000000000000000e+03 5.027222061157226562e+01 2.623627662658691406e+01 -3.322990834712982178e-01 1.703127384185791016e+00 4.112485051155090332e-01 1.191842794418334961e+00
1.821000000000000000e+03 1.849933433532714844e+01 2.597933387756347656e+01 -8.470203280448913574e-01 1.086702942848205566e+00 7.190477102994918823e-02 6.397199630737304688e-01
1.822000000000000000e+03 6.007012557983398438e+01 -9.297812461853027344e+00 -5.456142425537109375e-01 1.140413999557495117e+00 1.784399300813674927e-01 5.044549107551574707e-01
1.823000000000000000e+03 5.837072372436523438e+01 -4.341463565826416016e+00 1.358067750930786133e+00 2.373721837997436523e+00 1.119536876678466797e+00 1.284529328346252441e+00
1.824000000000000000e+03 3.892035675048828125e+01 -1.536342430114746094e+01 1.883259296417236328e+00 9.784434318542480469e+00 3.500308036804199219e+00 -1.968098163604736328e+00
1.825000000000000000e+03 5.794700622558593750e+01 -3.423149108886718750e+01 -1.535131782293319702e-01 2.047060281038284302e-01 1.535785570740699768e-02 -2.139783501625061035e-01
1.826000000000000000e+03 6.221816253662109375e+01 -3.547095108032226562e+01 1.955915093421936035e-01 1.730200409889221191e+00 5.777375698089599609e-01 4.415858387947082520e-01
1.827000000000000000e+03 1.894829750061035156e+01 2.708719635009765625e+01 -5.400460362434387207e-01 1.018211603164672852e+00 1.434496492147445679e-01 5.521844625473022461e-01
1.828000000000000000e+03 7.517973327636718750e+01 3.813292312622070312e+01 -6.192158535122871399e-02 7.474242687225341797e+00 2.223696231842041016e+00 2.496697008609771729e-02
1.829000000000000000e+03 5.308038711547851562e+01 2.634931564331054688e+01 -2.120733708143234253e-01 1.152977943420410156e+00 2.822713851928710938e-01 6.625428199768066406e-01
1.830000000000000000e+03 1.552579402923583984e+01 7.806378841400146484e+00 1.549947023391723633e+00 5.894845962524414062e+00 2.233437776565551758e+00 -2.913668155670166016e+00
1.831000000000000000e+03 1.336170196533203125e+01 4.483667373657226562e+00 6.220852583646774292e-02 2.103449344635009766e+00 6.496973633766174316e-01 -1.224808335304260254e+00
1.832000000000000000e+03 2.900867462158203125e+01 2.557990837097167969e+01 -9.111753702163696289e-01 2.762424707412719727e+00 5.553748011589050293e-01 -1.176285386085510254e+00
1.833000000000000000e+03 2.628919219970703125e+01 2.636870765686035156e+01 -6.424564719200134277e-01 1.488251686096191406e+00 2.537385523319244385e-01 -1.037774324417114258e+00
1.834000000000000000e+03 3.498339843750000000e+01 1.924039077758789062e+01 -9.719718992710113525e-02 6.247494220733642578e+00 1.845089197158813477e+00 -3.940676450729370117e-01
1.835000000000000000e+03 3.479596328735351562e+01 2.071995735168457031e+01 -3.477938771247863770e-01 5.797809600830078125e+00 1.635004758834838867e+00 -2.538360059261322021e-01
1.836000000000000000e+03 3.496692657470703125e+01 1.418825626373291016e+01 5.888520479202270508e-01 8.458944320678710938e+00 2.714339017868041992e+00 -1.101773619651794434e+00
1.837000000000000000e+03 3.854789733886718750e+01 -1.400944614410400391e+01 1.677168965339660645e+00 9.621836662292480469e+00 3.389701604843139648e+00 -1.947048902511596680e+00
1.838000000000000000e+03 3.734937286376953125e+01 -1.434351062774658203e+01 1.951406717300415039e+00 1.088003826141357422e+01 3.849433660507202148e+00 -2.433618307113647461e+00
1.839000000000000000e+03 4.917960357666015625e+01 -3.421720504760742188e+01 -5.611620545387268066e-01 3.548716068267822266e+00 8.962662220001220703e-01 -1.923436403274536133e+00
1.840000000000000000e+03 4.200764846801757812e+01 -7.044444561004638672e+00 -9.586545825004577637e-01 5.023627281188964844e+00 1.219491839408874512e+00 -1.548571586608886719e+00
1.841000000000000000e+03 4.078523635864257812e+01 -1.066778373718261719e+01 1.746512353420257568e-01 7.166145324707031250e+00 2.202239036560058594e+00 -1.212832331657409668e+00
1.842000000000000000e+03 6.030059814453125000e+01 -3.563515186309814453e+00 1.203878760337829590e+00 2.862761259078979492e+00 1.219992041587829590e+00 8.814471960067749023e-01
1.843000000000000000e+03 3.976911926269531250e+01 -2.153817176818847656e+01 1.957859992980957031e+00 9.366249084472656250e+00 3.397232770919799805e+00 -1.133270621299743652e+00
1.844000000000000000e+03 3.646848678588867188e+01 1.299629306793212891e+01 7.200780510902404785e-01 9.405716896057128906e+00 3.037738561630249023e+00 -2.692542076110839844e-01
1.845000000000000000e+03 3.521892547607421875e+01 1.275585937500000000e+01 7.484123706817626953e-01 9.300848007202148438e+00 3.014778137207031250e+00 -8.945779204368591309e-01
1.846000000000000000e+03 1.216348934173583984e+01 2.231531143188476562e+01 -8.587722182273864746e-01 4.476646423339843750e+00 1.085362315177917480e+00 -7.627538442611694336e-01
1.847000000000000000e+03 1.113084316253662109e+01 1.864717674255371094e+01 8.551284670829772949e-01 4.841516017913818359e+00 1.708993315696716309e+00 -1.135781049728393555e+00
1.848000000000000000e+03 4.561426162719726562e+01 -8.838693618774414062e+00 3.540213108062744141e-01 2.165863037109375000e+00 7.559653520584106445e-01 5.814055204391479492e-01
1.849000000000000000e+03 6.678039550781250000e+01 8.203599929809570312e+00 9.511737227439880371e-01 7.581108570098876953e+00 2.559684753417968750e+00 1.583561748266220093e-01
1.850000000000000000e+03 6.514936065673828125e+01 6.492815017700195312e+00 9.621163606643676758e-01 7.421617507934570312e+00 2.515120029449462891e+00 4.149507880210876465e-01
1.851000000000000000e+03 2.783871650695800781e+01 -1.977297306060791016e+00 5.222198486328125000e+00 2.232746928930282593e-01 1.633641958236694336e+00 3.769322633743286133e-01
1.852000000000000000e+03 3.955831146240234375e+01 -1.009668731689453125e+01 -1.409334689378738403e-01 8.108972549438476562e+00 2.390411853790283203e+00 -1.412309408187866211e+00
1.853000000000000000e+03 3.810397720336914062e+01 -1.263193416595458984e+01 1.417160391807556152e+00 9.601615905761718750e+00 3.305632829666137695e+00 -1.848920702934265137e+00
1.854000000000000000e+03 7.194615173339843750e+01 -2.125335311889648438e+01 1.303757429122924805e+00 1.069391918182373047e+01 3.599303007125854492e+00 -8.626022934913635254e-01
1.855000000000000000e+03 7.367847442626953125e+01 -1.781523895263671875e+01 1.549878001213073730e+00 9.252150535583496094e+00 3.240608453750610352e+00 -1.651066988706588745e-01
1.856000000000000000e+03 6.748296356201171875e+01 1.737651062011718750e+01 6.812279224395751953e-01 7.616510868072509766e+00 2.489321708679199219e+00 5.052436590194702148e-01
1.857000000000000000e+03 4.660480499267578125e+01 -1.367758083343505859e+01 1.192776560783386230e+00 4.016457557678222656e+00 1.562770247459411621e+00 1.455290198326110840e+00
1.858000000000000000e+03 3.458467864990234375e+01 1.300643086433410645e+00 3.348520994186401367e+00 1.143205738067626953e+01 4.434173583984375000e+00 1.447138547897338867e+00
1.859000000000000000e+03 2.382697868347167969e+01 2.818070411682128906e+01 -3.863942921161651611e-01 1.006463050842285156e+00 1.860206425189971924e-01 -4.876342117786407471e-01
1.860000000000000000e+03 7.478324127197265625e+01 -1.791029357910156250e+01 1.146921157836914062e+00 8.568329811096191406e+00 2.914575338363647461e+00 -7.932151108980178833e-02
1.861000000000000000e+03 7.123996734619140625e+01 -1.798953056335449219e+01 2.333104372024536133e+00 1.217313289642333984e+01 4.351871013641357422e+00 -4.132880270481109619e-01
1.862000000000000000e+03 4.109176254272460938e+01 -2.367725181579589844e+01 1.963467240333557129e+00 9.080977439880371094e+00 3.313333511352539062e+00 -1.243931889533996582e+00
1.863000000000000000e+03 3.331020355224609375e+01 -5.048679351806640625e+00 -3.855979740619659424e-01 7.157651901245117188e+00 2.031616210937500000e+00 -1.629075884819030762e+00
1.864000000000000000e+03 1.123676109313964844e+01 5.457947731018066406e+00 2.984555065631866455e-01 1.639233827590942383e+00 5.813068151473999023e-01 -7.749639451503753662e-02
1.865000000000000000e+03 1.306489467620849609e+01 8.994337081909179688e+00 1.840566396713256836e+00 4.754471302032470703e+00 1.978511333465576172e+00 -1.282002687454223633e+00
1.866000000000000000e+03 5.522435379028320312e+01 -3.573255157470703125e+01 1.486640125513076782e-01 7.792565226554870605e-01 2.783761620521545410e-01 -8.559673428535461426e-01
1.867000000000000000e+03 6.486577606201171875e+01 -3.382297515869140625e+01 -4.116487503051757812e-01 3.103315591812133789e+00 8.075000047683715820e-01 8.280129432678222656e-01
1.868000000000000000e+03 6.390704727172851562e+01 -3.205632019042968750e+01 -7.647083997726440430e-01 2.348862648010253906e+00 4.752462506294250488e-01 8.142944574356079102e-01
1.869000000000000000e+03 4.760399246215820312e+01 2.608581161499023438e+01 -4.961328208446502686e-01 2.430212736129760742e+00 5.802239775657653809e-01 1.425035476684570312e+00
1.870000000000000000e+03 6.268482971191406250e+01 1.444220423698425293e+00 8.585621118545532227e-01 5.380023479461669922e+00 1.871575713157653809e+00 8.741332888603210449e-01
1.871000000000000000e+03 6.399502944946289062e+01 2.830558300018310547e+00 7.553214430809020996e-01 6.272582054138183594e+00 2.108371019363403320e+00 5.378367900848388672e-01
1.872000000000000000e+03 6.840827178955078125e+01 -3.045896720886230469e+01 -1.029488205909729004e+00 6.021169662475585938e+00 1.497504472732543945e+00 5.997053384780883789e-01
1.873000000000000000e+03 6.700338745117187500e+01 -3.070214271545410156e+01 -9.745030999183654785e-01 4.792242050170898438e+00 1.145321607589721680e+00 8.498311042785644531e-01
1.874000000000000000e+03 5.401677703857421875e+01 -1.038175582885742188e+01 -1.270710229873657227e-01 1.128565192222595215e+00 3.004482388496398926e-01 1.779680132865905762e+00
1.875000000000000000e+03 4.988752746582031250e+01 -7.943933963775634766e+00 3.410539627075195312e-01 7.783769369125366211e-01 3.358292579650878906e-01 2.551509618759155273e+00
1.876000000000000000e+03 3.706937026977539062e+01 -9.994277000427246094e+00 -2.870470285415649414e-01 9.708580017089843750e+00 2.826459884643554688e+00 -1.712826013565063477e+00
1.877000000000000000e+03 3.559261703491210938e+01 -2.777803039550781250e+01 -3.288942947983741760e-02 5.974609851837158203e+00 1.782516121864318848e+00 1.233485341072082520e+00
1.878000000000000000e+03 3.775513839721679688e+01 -2.433683967590332031e+01 1.305614113807678223e+00 8.452071189880371094e+00 2.927305698394775391e+00 2.127775736153125763e-02
1.879000000000000000e+03 3.528002548217773438e+01 -2.837251186370849609e+00 1.141789183020591736e-01 9.401914596557617188e+00 2.854828119277954102e+00 -8.894528150558471680e-01
1.880000000000000000e+03 2.084784317016601562e+01 2.805531883239746094e+01 -3.994636833667755127e-01 8.972005844116210938e-01 1.493210643529891968e-01 1.268586069345474243e-01
1.881000000000000000e+03 2.009526443481445312e+01 2.652013206481933594e+01 -7.002279758453369141e-01 6.799878478050231934e-01 -6.072044372558593750e-03 3.324460089206695557e-01
1.882000000000000000e+03 3.753619003295898438e+01 1.460685825347900391e+01 5.069686174392700195e-01 8.402936935424804688e+00 2.672971725463867188e+00 4.263716340065002441e-01
1.883000000000000000e+03 1.148182868957519531e+01 -1.501515960693359375e+01 1.819161653518676758e+00 4.316855430603027344e+00 1.840805172920227051e+00 6.573292613029479980e-01
1.884000000000000000e+03 1.002824211120605469e+01 -1.566544628143310547e+01 1.567836880683898926e+00 3.172004222869873047e+00 1.421952366828918457e+00 5.119762420654296875e-01
1.885000000000000000e+03 3.398310852050781250e+01 2.452317029237747192e-01 3.080037117004394531e+00 1.044422435760498047e+01 4.057278156280517578e+00 1.578708171844482422e+00
1.886000000000000000e+03 3.832014846801757812e+01 -2.334871292114257812e+00 -2.805525064468383789e-01 9.838514328002929688e+00 2.867388725280761719e+00 -1.421103596687316895e+00
1.887000000000000000e+03 5.253593444824218750e+01 -1.099699115753173828e+01 1.594076752662658691e-01 9.335808753967285156e-01 3.278965651988983154e-01 2.019719600677490234e+00
1.888000000000000000e+03 5.717719268798828125e+01 -9.499447822570800781e+00 -4.098439514636993408e-01 1.218514323234558105e+00 2.426011264324188232e-01 1.109527707099914551e+00
1.889000000000000000e+03 7.394459533691406250e+01 -2.549597167968750000e+01 -3.448412418365478516e-01 9.008212089538574219e+00 2.599011421203613281e+00 -1.267818093299865723e+00
1.890000000000000000e+03 7.287012481689453125e+01 -2.248521614074707031e+01 5.815461874008178711e-01 9.747303009033203125e+00 3.098654747009277344e+00 -1.243881225585937500e+00
1.891000000000000000e+03 5.451891708374023438e+01 2.797975158691406250e+01 7.054421305656433105e-02 1.592750787734985352e+00 4.989884793758392334e-01 2.651650309562683105e-01
1.892000000000000000e+03 1.357744979858398438e+01 2.554696846008300781e+01 -1.195494055747985840e+00 3.174333572387695312e+00 5.936518907546997070e-01 1.888408362865447998e-01
1.893000000000000000e+03 3.219423675537109375e+01 -3.060938262939453125e+01 -7.238340377807617188e-01 2.901053190231323242e+00 6.531657576560974121e-01 1.411066532135009766e+00
1.894000000000000000e+03 3.436612701416015625e+01 -3.091362953186035156e+01 -8.085739016532897949e-01 4.492791175842285156e+00 1.105265259742736816e+00 1.355698585510253906e+00
1.895000000000000000e+03 7.049379730224609375e+01 -9.775902748107910156e+00 -1.496501803398132324e+00 8.810409545898437500e+00 2.194172382354736328e+00 -7.849169969558715820e-01
1.896000000000000000e+03 6.899761962890625000e+01 -8.836568832397460938e+00 -1.443905711174011230e+00 7.196208953857421875e+00 1.725690960884094238e+00 -1.732107877731323242e+00
1.897000000000000000e+03 6.953279876708984375e+01 -2.703532600402832031e+01 -1.109622597694396973e+00 7.905539035797119141e+00 2.038774967193603516e+00 2.504728734493255615e-01
1.898000000000000000e+03 7.104185485839843750e+01 -2.462075805664062500e+01 -3.570322394371032715e-01 9.700139999389648438e+00 2.802932262420654297e+00 -6.871770620346069336e-01
1.899000000000000000e+03 3.932796096801757812e+01 -2.621495437622070312e+01 9.732540845870971680e-01 8.141845703125000000e+00 2.734529972076416016e+00 -1.775373816490173340e-01
1.900000000000000000e+03 4.011238861083984375e+01 -2.487015533447265625e+01 1.718364834785461426e+00 8.650513648986816406e+00 3.110663414001464844e+00 -6.909557580947875977e-01
1.901000000000000000e+03 2.403189086914062500e+01 -3.439472198486328125e+01 -5.838557481765747070e-01 3.347677588462829590e-01 -7.472640275955200195e-02 -6.493822485208511353e-02
1.902000000000000000e+03 7.423171997070312500e+01 -1.187099838256835938e+01 -3.426477313041687012e-01 8.734341621398925781e+00 2.517508029937744141e+00 7.243018746376037598e-01
1.903000000000000000e+03 4.080316543579101562e+01 -7.238950729370117188e+00 -1.267708063125610352e+00 6.565462112426757812e+00 1.589326143264770508e+00 -1.763825654983520508e+00
1.904000000000000000e+03 3.614162826538085938e+01 -1.048964858055114746e+00 1.261254191398620605e+00 1.006591224670410156e+01 3.398149967193603516e+00 -4.363523721694946289e-01
1.905000000000000000e+03 5.666146469116210938e+01 -1.216965675354003906e+01 -1.204682826995849609e+00 6.094635725021362305e-01 -1.785657852888107300e-01 5.763602852821350098e-01
1.906000000000000000e+03 6.615511322021484375e+01 1.792120742797851562e+01 7.536715269088745117e-01 7.833109855651855469e+00 2.576034307479858398e+00 3.107373118400573730e-01
1.907000000000000000e+03 4.282649230957031250e+01 -1.469112396240234375e+01 1.393301129341125488e+00 7.176570415496826172e+00 2.570961475372314453e+00 -5.225112438201904297e-01
1.908000000000000000e+03 5.078084564208984375e+01 -9.307293891906738281e+00 4.072239995002746582e-01 1.088078022003173828e+00 4.485906064510345459e-01 2.598946809768676758e+00
1.909000000000000000e+03 7.204226684570312500e+01 -1.359895801544189453e+01 1.706578731536865234e-01 1.002059936523437500e+01 3.057377338409423828e+00 5.945070385932922363e-01
1.910000000000000000e+03 7.072570800781250000e+01 -1.432937526702880859e+01 8.459820747375488281e-01 1.114908504486083984e+01 3.598520278930664062e+00 1.032132357358932495e-01
1.911000000000000000e+03 1.764113616943359375e+01 -2.052522420883178711e+00 1.735854268074035645e+00 3.947653055191040039e+00 1.705052256584167480e+00 3.525526046752929688e+00
1.912000000000000000e+03 1.849757385253906250e+01 -1.784085392951965332e+00 1.492301940917968750e+00 7.146718502044677734e+00 2.591706275939941406e+00 3.619596719741821289e+00
1.913000000000000000e+03 1.897247314453125000e+01 -2.250444412231445312e+00 9.137508273124694824e-01 7.828384399414062500e+00 2.622640609741210938e+00 2.408038616180419922e+00
1.914000000000000000e+03 1.936509513854980469e+01 -1.558652043342590332e+00 1.369621396064758301e+00 1.058687973022460938e+01 3.586950540542602539e+00 1.185471892356872559e+00
1.915000000000000000e+03 1.995857620239257812e+01 -1.756519794464111328e+00 1.785301685333251953e+00 9.624910354614257812e+00 3.423063516616821289e+00 -6.366720199584960938e-01
1.916000000000000000e+03 2.034976005554199219e+01 -1.826193809509277344e+00 2.332581043243408203e+00 8.292268753051757812e+00 3.187454938888549805e+00 -1.418695092201232910e+00
1.917000000000000000e+03 2.203178215026855469e+01 -6.761047244071960449e-01 6.227366447448730469e+00 2.659820079803466797e+00 2.666155815124511719e+00 -2.506468772888183594e+00
1.918000000000000000e+03 2.015465545654296875e+01 -1.622039437294006348e+00 2.345013380050659180e+00 9.453630447387695312e+00 3.539593219757080078e+00 -1.231625795364379883e+00
1.919000000000000000e+03 2.162495422363281250e+01 8.483951687812805176e-01 7.066404819488525391e+00 3.346820592880249023e+00 3.123967647552490234e+00 -6.353070735931396484e-01
1.920000000000000000e+03 2.121317863464355469e+01 7.205013036727905273e-01 7.937198162078857422e+00 4.783141136169433594e+00 3.816101789474487305e+00 -8.023009896278381348e-01
1.921000000000000000e+03 2.273641395568847656e+01 -6.525480002164840698e-02 6.069111347198486328e+00 3.160674870014190674e-01 1.915553689002990723e+00 -1.606761693954467773e+00
1.922000000000000000e+03 2.141327667236328125e+01 -4.451262354850769043e-01 6.949148654937744141e+00 4.568401336669921875e+00 3.455265045166015625e+00 -2.910273551940917969e+00
1.923000000000000000e+03 1.941827392578125000e+01 3.844268560409545898e+00 -1.699952125549316406e+00 7.345640182495117188e+00 1.693706274032592773e+00 -3.101787567138671875e+00
1.924000000000000000e+03 2.257186317443847656e+01 1.039988994598388672e+00 4.997395992279052734e+00 3.122762739658355713e-01 1.592901587486267090e+00 -4.925325810909271240e-01
1.925000000000000000e+03 2.182809257507324219e+01 6.022224426269531250e-01 6.673301219940185547e+00 2.524904727935791016e+00 2.759461879730224609e+00 -1.207937717437744141e+00
1.926000000000000000e+03 1.731567573547363281e+01 3.313801765441894531e+00 2.809675037860870361e-01 4.917799949645996094e+00 1.559630274772644043e+00 -4.991708278656005859e+00
1.927000000000000000e+03 1.732497215270996094e+01 2.577007293701171875e+00 1.231748700141906738e+00 4.112202644348144531e+00 1.603185296058654785e+00 -5.190732479095458984e+00
1.928000000000000000e+03 1.620081520080566406e+01 4.965245723724365234e+00 1.948786713182926178e-02 4.521822452545166016e+00 1.362393140792846680e+00 -3.529574632644653320e+00
1.929000000000000000e+03 1.780799102783203125e+01 4.499899387359619141e+00 -6.622101664543151855e-01 6.074389457702636719e+00 1.623653888702392578e+00 -4.399633884429931641e+00
1.930000000000000000e+03 1.511766242980957031e+01 -2.682971715927124023e+00 5.683369636535644531e-01 1.039710521697998047e+00 4.824142158031463623e-01 1.729247212409973145e+00
1.931000000000000000e+03 1.772276306152343750e+01 2.574684381484985352e+00 1.175443410873413086e+00 5.354784965515136719e+00 1.959068536758422852e+00 -5.761664867401123047e+00
1.932000000000000000e+03 1.831254196166992188e+01 2.858317613601684570e+00 4.963871091604232788e-02 7.557090282440185547e+00 2.282018661499023438e+00 -5.631354331970214844e+00
1.933000000000000000e+03 1.623072242736816406e+01 2.970051527023315430e+00 5.748887062072753906e-01 2.646070241928100586e+00 9.662876725196838379e-01 -3.774883508682250977e+00
1.934000000000000000e+03 1.934194374084472656e+01 4.479007244110107422e+00 -1.712035655975341797e+00 6.572758674621582031e+00 1.458216905593872070e+00 -3.025590896606445312e+00
1.935000000000000000e+03 1.592744445800781250e+01 3.764892339706420898e+00 2.643878459930419922e-01 3.233558893203735352e+00 1.049383997917175293e+00 -3.561712980270385742e+00
1.936000000000000000e+03 1.508263301849365234e+01 -3.150557756423950195e+00 6.403851509094238281e-01 1.359321117401123047e+00 5.999118685722351074e-01 1.986025691032409668e+00
1.937000000000000000e+03 2.058758544921875000e+01 2.168570280075073242e+00 2.577069044113159180e+00 8.109385490417480469e+00 3.205936193466186523e+00 3.897765278816223145e-01
1.938000000000000000e+03 2.188453292846679688e+01 1.260858654975891113e+00 5.516448974609375000e+00 2.559161663055419922e+00 2.422683238983154297e+00 -2.507696449756622314e-01
1.939000000000000000e+03 2.110449790954589844e+01 1.363699436187744141e+00 5.911476135253906250e+00 5.413156509399414062e+00 3.397389650344848633e+00 2.016902416944503784e-01
1.940000000000000000e+03 2.173257637023925781e+01 2.406749486923217773e+00 2.029993295669555664e+00 2.871033430099487305e+00 1.470307946205139160e+00 3.303751349449157715e-01
1.941000000000000000e+03 1.406687068939208984e+01 -5.212482929229736328e+00 1.003478094935417175e-01 2.057795763015747070e+00 6.474430561065673828e-01 1.735353708267211914e+00
1.942000000000000000e+03 1.284037685394287109e+01 -4.040212154388427734e+00 -2.136070688720792532e-04 1.093861341476440430e+00 3.280943334102630615e-01 9.861841797828674316e-01
1.943000000000000000e+03 1.993217849731445312e+01 3.625817060470581055e+00 -1.808134198188781738e+00 6.894595623016357422e+00 1.525938391685485840e+00 -2.420087099075317383e+00
1.944000000000000000e+03 1.330728149414062500e+01 3.797155380249023438e+00 -2.520129680633544922e-01 1.614902496337890625e+00 4.088668525218963623e-01 -1.084925770759582520e+00
1.945000000000000000e+03 1.964581489562988281e+01 3.068885087966918945e+00 -9.730805754661560059e-01 8.979784011840820312e+00 2.402010917663574219e+00 -2.993939399719238281e+00
1.946000000000000000e+03 3.753541946411132812e+00 -4.052737712860107422e+00 -1.839904189109802246e-01 -2.327840626239776611e-01 -1.250323504209518433e-01 -5.888566374778747559e-01
1.947000000000000000e+03 2.175425148010253906e+01 1.834755182266235352e+00 3.643782377243041992e+00 2.750295400619506836e+00 1.918223381042480469e+00 2.745432257652282715e-01
1.948000000000000000e+03 8.006271362304687500e+00 -3.983338117599487305e+00 -3.905133903026580811e-01 2.975331544876098633e-01 -2.789406478404998779e-02 -4.481632113456726074e-01
1.949000000000000000e+03 8.269726753234863281e+00 -5.553202152252197266e+00 -1.261633932590484619e-01 6.105296611785888672e-01 1.453098803758621216e-01 -3.992301821708679199e-01
1.950000000000000000e+03 9.353668212890625000e+00 -4.828520774841308594e+00 -2.205140441656112671e-01 6.857301592826843262e-01 1.395648270845413208e-01 -1.779884546995162964e-01
1.951000000000000000e+03 6.038982391357421875e+00 -3.963839054107666016e+00 -3.342419564723968506e-01 5.754010751843452454e-02 -8.301055431365966797e-02 -6.344947218894958496e-01
1.952000000000000000e+03 4.163771629333496094e+00 -4.637798309326171875e+00 -1.606608629226684570e-01 -1.898863762617111206e-01 -1.051641702651977539e-01 -6.583924293518066406e-01
1.953000000000000000e+03 5.723917484283447266e+00 -5.623455524444580078e+00 -9.761484712362289429e-02 9.304158389568328857e-02 -1.371979014948010445e-03 -6.963527798652648926e-01
1.954000000000000000e+03 4.731823921203613281e+00 -4.227033138275146484e+00 -2.299582809209823608e-01 -1.105784922838211060e-01 -1.021610349416732788e-01 -6.408463716506958008e-01
1.955000000000000000e+03 3.706462383270263672e+00 -7.375781059265136719e+00 3.129458799958229065e-02 -4.372520446777343750e-01 -1.217872351408004761e-01 -6.773756146430969238e-01
1.956000000000000000e+03 1.190836620330810547e+01 4.673096179962158203e+00 1.571519114077091217e-02 1.582203865051269531e+00 4.793757200241088867e-01 -3.283824920654296875e-01
1.957000000000000000e+03 1.027502059936523438e+01 -4.067585468292236328e+00 -3.207487463951110840e-01 6.257438659667968750e-01 9.149853885173797607e-02 2.905117906630039215e-02
1.958000000000000000e+03 1.228357219696044922e+01 -3.817703962326049805e+00 -1.261140853166580200e-01 8.540099859237670898e-01 2.183687835931777954e-01 7.054294943809509277e-01
1.959000000000000000e+03 1.344924449920654297e+01 -3.981537580490112305e+00 1.218878850340843201e-01 1.208544850349426270e+00 3.991298079490661621e-01 1.285821557044982910e+00
1.960000000000000000e+03 1.265096282958984375e+01 4.592584133148193359e+00 1.750048436224460602e-02 1.871920704841613770e+00 5.668263435363769531e-01 -7.772215008735656738e-01
1.961000000000000000e+03 1.466381359100341797e+01 3.569920539855957031e+00 -3.640878573060035706e-02 2.092077970504760742e+00 6.167007684707641602e-01 -2.173007011413574219e+00
1.962000000000000000e+03 1.714070510864257812e+01 4.394690036773681641e+00 -2.477927356958389282e-01 5.150381088256835938e+00 1.470776438713073730e+00 -4.309292793273925781e+00
1.963000000000000000e+03 1.085722160339355469e+01 -4.922346591949462891e+00 -1.194046661257743835e-01 1.026935219764709473e+00 2.722591459751129150e-01 2.907599210739135742e-01
1.964000000000000000e+03 7.943380832672119141e+00 4.345331668853759766e+00 -3.636441826820373535e-01 3.185320794582366943e-01 -1.353362388908863068e-02 9.580063223838806152e-01
1.965000000000000000e+03 1.149014759063720703e+01 -5.178171157836914062e+00 -7.297884672880172729e-02 1.241830348968505859e+00 3.506554663181304932e-01 5.230390429496765137e-01
1.966000000000000000e+03 1.183171558380126953e+01 -4.444283485412597656e+00 -1.160205304622650146e-01 1.046786189079284668e+00 2.792297005653381348e-01 6.022996306419372559e-01
1.967000000000000000e+03 2.345451116561889648e+00 5.501162052154541016e+00 -1.494269538670778275e-02 -9.155396223068237305e-01 -2.791447043418884277e-01 7.753889560699462891e-01
1.968000000000000000e+03 4.643584251403808594e+00 4.859391689300537109e+00 -1.443597227334976196e-01 -3.286133706569671631e-01 -1.418919265270233154e-01 1.088939309120178223e+00
1.969000000000000000e+03 3.816188335418701172e+00 7.182480812072753906e+00 1.848781853914260864e-01 -7.187246084213256836e-01 -1.601539254188537598e-01 9.362874031066894531e-01
1.970000000000000000e+03 5.544726371765136719e+00 5.651347160339355469e+00 3.502987325191497803e-02 -1.434701085090637207e-01 -3.253206983208656311e-02 1.124183893203735352e+00
1.971000000000000000e+03 7.204653263092041016e+00 5.317738533020019531e+00 1.464814064092934132e-03 2.761189639568328857e-01 8.327513188123703003e-02 1.033314824104309082e+00
1.972000000000000000e+03 3.834829568862915039e+00 5.003958702087402344e+00 -8.910260349512100220e-02 -5.045326352119445801e-01 -1.780905723571777344e-01 9.994090795516967773e-01
1.973000000000000000e+03 9.613627433776855469e+00 4.966585159301757812e+00 -4.097757488489151001e-02 8.842067122459411621e-01 2.529687285423278809e-01 5.635361075401306152e-01
1.974000000000000000e+03 1.038835048675537109e+01 4.858975410461425781e+00 -3.795081004500389099e-02 1.075078248977661133e+00 3.111382424831390381e-01 3.251962065696716309e-01
1.975000000000000000e+03 2.212877845764160156e+01 -6.878265857696533203e+00 -8.610422164201736450e-02 2.103497028350830078e+00 6.052178144454956055e-01 7.256883978843688965e-01
1.976000000000000000e+03 2.329225349426269531e+01 -6.813745498657226562e+00 -2.988802641630172729e-02 1.429335117340087891e+00 4.198341369628906250e-01 3.091621100902557373e-01
1.977000000000000000e+03 2.479515457153320312e+01 -5.853549957275390625e+00 9.873123168945312500e-01 5.904434323310852051e-01 4.733267128467559814e-01 1.239540576934814453e-01
1.978000000000000000e+03 1.890223312377929688e+01 -9.387111663818359375e+00 -3.193033039569854736e-01 2.572451829910278320e+00 6.759445071220397949e-01 2.190258741378784180e+00
1.979000000000000000e+03 1.742612648010253906e+01 -9.138614654541015625e+00 -3.291283547878265381e-01 3.482928991317749023e+00 9.461401700973510742e-01 2.553647994995117188e+00
1.980000000000000000e+03 1.623509407043457031e+01 -9.644836425781250000e+00 -1.859424710273742676e-01 4.150753974914550781e+00 1.189443469047546387e+00 2.457191228866577148e+00
1.981000000000000000e+03 1.575431346893310547e+01 -1.053253459930419922e+01 2.559703588485717773e-01 4.747361660003662109e+00 1.500999569892883301e+00 2.232312202453613281e+00
1.982000000000000000e+03 8.807429313659667969e+00 1.763996696472167969e+01 8.824373483657836914e-01 2.890115261077880859e+00 1.131765842437744141e+00 -1.287974357604980469e+00
1.983000000000000000e+03 1.055939102172851562e+01 1.487160205841064453e+01 1.675648927688598633e+00 4.499148845672607422e+00 1.852439403533935547e+00 -1.169433951377868652e+00
1.984000000000000000e+03 2.158398818969726562e+01 -7.345827102661132812e+00 -3.790884017944335938e-01 2.111383438110351562e+00 5.196884870529174805e-01 9.054750800132751465e-01
1.985000000000000000e+03 4.081558227539062500e+01 -1.907423782348632812e+01 2.051865577697753906e+00 9.468908309936523438e+00 3.456232070922851562e+00 -1.376292705535888672e+00
1.986000000000000000e+03 2.344466781616210938e+01 5.422449707984924316e-01 4.794470787048339844e+00 -1.318156003952026367e+00 1.042894482612609863e+00 -6.147585511207580566e-01
1.987000000000000000e+03 1.927491378784179688e+01 -8.388698577880859375e+00 -4.105499982833862305e-01 2.818087577819824219e+00 7.222612500190734863e-01 2.141760349273681641e+00
1.988000000000000000e+03 2.141619873046875000e+01 -8.404228210449218750e+00 -7.295929193496704102e-01 1.656735062599182129e+00 2.781426608562469482e-01 9.268589615821838379e-01
1.989000000000000000e+03 1.379988956451416016e+01 5.854094028472900391e+00 6.246763467788696289e-01 3.436595678329467773e+00 1.218381643295288086e+00 -1.609029054641723633e+00
1.990000000000000000e+03 4.308803558349609375e+01 -1.062564945220947266e+01 4.674969315528869629e-01 5.249720573425292969e+00 1.715165257453918457e+00 -4.570296406745910645e-01
1.991000000000000000e+03 1.052652359008789062e+01 1.976915740966796875e+01 5.128192901611328125e-01 3.995479345321655273e+00 1.352489590644836426e+00 -1.389277935028076172e+00
1.992000000000000000e+03 2.408380317687988281e+01 -3.021136522293090820e-01 5.626166343688964844e+00 -1.291680574417114258e+00 1.300345659255981445e+00 -6.718180775642395020e-01
1.993000000000000000e+03 1.434069633483886719e+01 -1.078474330902099609e+01 3.480886220932006836e-01 4.815031528472900391e+00 1.548936009407043457e+00 1.460193753242492676e+00
1.994000000000000000e+03 9.451680183410644531e+00 1.663508796691894531e+01 1.224551677703857422e+00 3.401428937911987305e+00 1.387794256210327148e+00 -1.284975290298461914e+00
1.995000000000000000e+03 1.097662448883056641e+01 1.619735717773437500e+01 1.350308179855346680e+00 5.073551177978515625e+00 1.927157878875732422e+00 -1.237140893936157227e+00
1.996000000000000000e+03 1.393002319335937500e+01 8.262730598449707031e+00 1.628931760787963867e+00 5.095269203186035156e+00 2.017260313034057617e+00 -1.754122734069824219e+00
1.997000000000000000e+03 2.849830627441406250e+01 -2.368914604187011719e+00 4.667920589447021484e+00 1.056592226028442383e+00 1.717353820800781250e+00 5.751327872276306152e-01
1.998000000000000000e+03 3.030148887634277344e+01 -3.862202644348144531e+00 2.385333061218261719e+00 2.906723499298095703e+00 1.587616920471191406e+00 -1.633764356374740601e-01
1.999000000000000000e+03 4.002441787719726562e+01 1.545011138916015625e+01 6.839568018913269043e-01 7.116502761840820312e+00 2.340137958526611328e+00 1.692571759223937988e+00
2.000000000000000000e+03 5.389546871185302734e+00 -1.669756126403808594e+01 6.512476801872253418e-01 3.748929500579833984e-01 3.078421950340270996e-01 3.776111602783203125e-01
2.001000000000000000e+03 1.048110294342041016e+01 -1.996894073486328125e+01 1.021470308303833008e+00 3.836600065231323242e+00 1.457421064376831055e+00 1.091403841972351074e+00
2.002000000000000000e+03 3.510173797607421875e+01 -4.034600257873535156e-01 2.110497474670410156e+00 1.004024791717529297e+01 3.645223379135131836e+00 1.891577988862991333e-01
2.003000000000000000e+03 2.817078590393066406e+01 -3.849390268325805664e+00 3.233427286148071289e+00 4.271717965602874756e-01 1.098179697990417480e+00 2.424318902194499969e-02
2.004000000000000000e+03 2.958066749572753906e+01 -2.218225717544555664e+00 4.265192508697509766e+00 2.152875900268554688e+00 1.925420522689819336e+00 6.312527060508728027e-01
2.005000000000000000e+03 3.882023239135742188e+01 1.491372108459472656e+01 6.505767107009887695e-01 7.933040618896484375e+00 2.575085163116455078e+00 1.191242575645446777e+00
2.006000000000000000e+03 1.307570266723632812e+01 -1.064987564086914062e+01 4.055702388286590576e-01 4.147888183593750000e+00 1.366037607192993164e+00 9.299730062484741211e-01
2.007000000000000000e+03 6.174207210540771484e+00 -1.098607635498046875e+01 4.179493784904479980e-01 5.222227573394775391e-01 2.820516526699066162e-01 -4.787351489067077637e-01
2.008000000000000000e+03 3.127516365051269531e+01 -4.393296241760253906e+00 1.215579867362976074e+00 4.196801185607910156e+00 1.623714327812194824e+00 -9.770912528038024902e-01
2.009000000000000000e+03 6.178685665130615234e+00 1.102243041992187500e+01 9.367324113845825195e-01 3.825404942035675049e-01 3.957818746566772461e-01 2.946774661540985107e-01
2.010000000000000000e+03 2.718916893005371094e+01 -1.983648896217346191e+00 5.126759529113769531e+00 -3.356982767581939697e-01 1.437318325042724609e+00 2.243734151124954224e-01
2.011000000000000000e+03 1.121900367736816406e+01 1.290783500671386719e+01 2.074119091033935547e+00 4.733624458312988281e+00 2.042323112487792969e+00 -1.066912531852722168e+00
2.012000000000000000e+03 3.614743041992187500e+01 1.721263504028320312e+01 2.772667706012725830e-01 7.038087844848632812e+00 2.194606304168701172e+00 -2.427493035793304443e-01
2.013000000000000000e+03 7.491744995117187500e+01 3.207175064086914062e+01 -1.143857687711715698e-01 7.401473999023437500e+00 2.186126470565795898e+00 1.335910409688949585e-01
2.014000000000000000e+03 7.380949401855468750e+01 -3.216654586791992188e+01 -5.189546346664428711e-01 8.362811088562011719e+00 2.353157043457031250e+00 -3.763962388038635254e-01
2.015000000000000000e+03 7.548451232910156250e+01 -2.814400100708007812e+01 -4.020183384418487549e-01 8.815340042114257812e+00 2.523996591567993164e+00 -9.775183200836181641e-01
2.016000000000000000e+03 7.404942321777343750e+01 -2.944531631469726562e+01 -6.379710435867309570e-01 8.629281044006347656e+00 2.397392988204956055e+00 -7.361627221107482910e-01
2.017000000000000000e+03 7.397283935546875000e+01 2.208796310424804688e+01 -5.113225057721138000e-02 7.142802238464355469e+00 2.127501010894775391e+00 6.349269151687622070e-01
2.018000000000000000e+03 7.503597259521484375e+01 2.351605224609375000e+01 -9.604316204786300659e-02 7.222921848297119141e+00 2.138063669204711914e+00 5.371428132057189941e-01
2.019000000000000000e+03 7.554112243652343750e+01 -2.374133110046386719e+01 6.040949001908302307e-02 8.605422973632812500e+00 2.599749803543090820e+00 -1.343521475791931152e+00
2.020000000000000000e+03 7.191389465332031250e+01 -2.345673561096191406e+01 2.110013365745544434e-01 9.853055953979492188e+00 3.019217252731323242e+00 -1.044545054435729980e+00
2.021000000000000000e+03 7.578225708007812500e+01 -2.136301803588867188e+01 5.886141061782836914e-01 8.265420913696289062e+00 2.656210422515869141e+00 -1.078403472900390625e+00
2.022000000000000000e+03 7.467817687988281250e+01 -2.091830635070800781e+01 8.947920203208923340e-01 8.829890251159667969e+00 2.917404651641845703e+00 -1.089209675788879395e+00
2.023000000000000000e+03 7.558300018310546875e+01 1.147060585021972656e+01 2.284821122884750366e-01 6.632341861724853516e+00 2.058247089385986328e+00 -9.987947531044483185e-03
2.024000000000000000e+03 7.414650726318359375e+01 1.432141780853271484e+01 3.392137885093688965e-01 6.825517177581787109e+00 2.149419307708740234e+00 2.740160524845123291e-01
2.025000000000000000e+03 7.543105316162109375e+01 1.580601406097412109e+01 2.068700939416885376e-01 6.759684562683105469e+00 2.089966535568237305e+00 3.552086949348449707e-01
2.026000000000000000e+03 7.436215209960937500e+01 4.588302135467529297e+00 1.713221520185470581e-01 6.865923881530761719e+00 2.111173868179321289e+00 -5.676344633102416992e-01
2.027000000000000000e+03 7.569413757324218750e+01 -1.372987556457519531e+01 1.517822444438934326e-01 8.144009590148925781e+00 2.488737583160400391e+00 8.958863615989685059e-01
2.028000000000000000e+03 7.384803009033203125e+01 -1.656400680541992188e+01 1.238641500473022461e+00 9.078870773315429688e+00 3.095253705978393555e+00 3.355413079261779785e-01
2.029000000000000000e+03 7.252873229980468750e+01 -1.620679664611816406e+01 1.589284777641296387e+00 1.021282100677490234e+01 3.540631771087646484e+00 3.357048928737640381e-01
2.030000000000000000e+03 7.575748443603515625e+01 -1.779298210144042969e+01 7.933326959609985352e-01 7.934117317199707031e+00 2.618235111236572266e+00 -6.442591547966003418e-02
2.031000000000000000e+03 7.444892120361328125e+01 -9.175316691398620605e-01 -1.197105273604393005e-01 7.206933498382568359e+00 2.126166820526123047e+00 -6.650053262710571289e-01
2.032000000000000000e+03 7.561048126220703125e+01 3.234383583068847656e+00 7.251904159784317017e-02 6.941237449645996094e+00 2.104126930236816406e+00 -5.535226464271545410e-01
2.033000000000000000e+03 7.438839721679687500e+01 1.854678392410278320e+00 4.284688085317611694e-02 7.001370906829833984e+00 2.113265275955200195e+00 -6.702868342399597168e-01
2.034000000000000000e+03 7.050236511230468750e+01 1.456322669982910156e+01 6.817970275878906250e-01 7.195784091949462891e+00 2.363274335861206055e+00 3.690556883811950684e-01
2.035000000000000000e+03 7.194015502929687500e+01 -9.749562263488769531e+00 -1.274216413497924805e+00 8.786103248596191406e+00 2.253566026687622070e+00 -2.763172388076782227e-01
2.036000000000000000e+03 7.401817321777343750e+01 -1.365484619140625000e+01 1.466663181781768799e-01 9.003467559814453125e+00 2.745040178298950195e+00 8.883487582206726074e-01
2.037000000000000000e+03 7.262344360351562500e+01 -1.158173942565917969e+01 -5.880680680274963379e-01 9.268959045410156250e+00 2.604267358779907227e+00 4.796194434165954590e-01
2.038000000000000000e+03 7.594465637207031250e+01 -1.064596748352050781e+01 -3.098545968532562256e-01 8.071496963500976562e+00 2.328492879867553711e+00 6.474286317825317383e-01
2.039000000000000000e+03 7.318350982666015625e+01 -1.002887916564941406e+01 -8.665396571159362793e-01 8.776087760925292969e+00 2.372864484786987305e+00 2.835069298744201660e-01
2.040000000000000000e+03 7.468144989013671875e+01 -3.732604026794433594e+00 -3.378448486328125000e-01 7.519659996032714844e+00 2.154544591903686523e+00 -4.979254305362701416e-01
2.041000000000000000e+03 7.474942779541015625e+01 -5.126563549041748047e+00 -4.902307391166687012e-01 7.718958377838134766e+00 2.168618202209472656e+00 -3.523972332477569580e-01
2.042000000000000000e+03 7.594366455078125000e+01 -2.015483093261718750e+01 7.299673557281494141e-01 8.013661384582519531e+00 2.623088598251342773e+00 -7.555772066116333008e-01
2.043000000000000000e+03 7.362510681152343750e+01 -8.414688110351562500e+00 -8.502194285392761230e-01 8.320407867431640625e+00 2.241056442260742188e+00 -1.647766912356019020e-03
2.044000000000000000e+03 6.922470855712890625e+01 1.805320739746093750e+01 4.682282805442810059e-01 7.306971073150634766e+00 2.332559823989868164e+00 6.298423409461975098e-01
2.045000000000000000e+03 7.454343414306640625e+01 -2.324585914611816406e+00 -2.574999034404754639e-01 7.356918334960937500e+00 2.129825592041015625e+00 -6.056282520294189453e-01
2.046000000000000000e+03 7.425161743164062500e+01 1.581903457641601562e+01 2.840741872787475586e-01 6.858735084533691406e+00 2.142842769622802734e+00 3.920845091342926025e-01
2.047000000000000000e+03 7.433226776123046875e+01 5.989596843719482422e+00 2.218428999185562134e-01 6.826060295104980469e+00 2.114370822906494141e+00 -4.795435667037963867e-01
2.048000000000000000e+03 7.575560760498046875e+01 -2.694252777099609375e+01 -3.269767165184020996e-01 8.758943557739257812e+00 2.529590129852294922e+00 -1.112072348594665527e+00
2.049000000000000000e+03 7.380466461181640625e+01 2.748704338073730469e+01 -2.444761842489242554e-01 7.228327274322509766e+00 2.095155239105224609e+00 3.655996322631835938e-01
2.050000000000000000e+03 7.158985900878906250e+01 2.618480110168457031e+01 -3.627805113792419434e-01 7.070924758911132812e+00 2.012443304061889648e+00 4.106873273849487305e-01
2.051000000000000000e+03 7.451850891113281250e+01 9.999030113220214844e+00 3.111252486705780029e-01 6.738883018493652344e+00 2.115002393722534180e+00 -1.446483582258224487e-01
2.052000000000000000e+03 7.414972686767578125e+01 1.276493167877197266e+01 3.490270674228668213e-01 6.787389755249023438e+00 2.140924930572509766e+00 1.194619014859199524e-01
2.053000000000000000e+03 7.435505676269531250e+01 1.130559062957763672e+01 3.367301821708679199e-01 6.764673233032226562e+00 2.130420923233032227e+00 -1.744058169424533844e-02
2.054000000000000000e+03 7.082939147949218750e+01 3.071882820129394531e+01 -3.103212416172027588e-01 6.700329780578613281e+00 1.917002558708190918e+00 7.756651937961578369e-02
2.055000000000000000e+03 7.107720184326171875e+01 -3.234321975708007812e+01 -8.085101246833801270e-01 7.296733379364013672e+00 1.946466922760009766e+00 8.301842212677001953e-02
2.056000000000000000e+03 7.396282196044921875e+01 2.083866691589355469e+01 2.382146567106246948e-02 7.088464736938476562e+00 2.133685827255249023e+00 6.366905570030212402e-01
2.057000000000000000e+03 7.273619079589843750e+01 1.894598770141601562e+01 1.967463791370391846e-01 7.054132938385009766e+00 2.175263881683349609e+00 6.493847370147705078e-01
2.058000000000000000e+03 6.640887451171875000e+01 -9.903178215026855469e+00 -1.348852872848510742e+00 4.588836193084716797e+00 9.719949364662170410e-01 -2.652927637100219727e+00
2.059000000000000000e+03 6.233415603637695312e+01 -8.613076210021972656e+00 -1.844427436590194702e-01 1.371250629425048828e+00 3.560423552989959717e-01 -3.037129640579223633e-01
2.060000000000000000e+03 7.535688018798828125e+01 -3.484955978393554688e+01 -2.784397006034851074e-01 8.660926818847656250e+00 2.514745950698852539e+00 -2.002895921468734741e-01
2.061000000000000000e+03 7.427468109130859375e+01 2.938933753967285156e+01 -1.851086914539337158e-01 7.286409854888916016e+00 2.130390167236328125e+00 2.655597031116485596e-01
2.062000000000000000e+03 3.618927764892578125e+01 -2.831176996231079102e+00 -1.063117235898971558e-01 9.666658401489257812e+00 2.868103981018066406e+00 -9.667264223098754883e-01
2.063000000000000000e+03 6.563206195831298828e+00 -2.912676620483398438e+01 -3.932467103004455566e-01 1.816804766654968262e+00 4.270673990249633789e-01 9.798906445503234863e-01
2.064000000000000000e+03 5.411128997802734375e+00 2.802597618103027344e+01 -3.346414566040039062e-01 1.565936326980590820e+00 3.693884611129760742e-01 -7.714284062385559082e-01
2.065000000000000000e+03 4.833710670471191406e+00 -2.683379936218261719e+01 -1.652815937995910645e-01 1.196735739707946777e+00 3.094362616539001465e-01 1.048253297805786133e+00
2.066000000000000000e+03 5.053470134735107422e+00 -1.120739459991455078e+01 3.276998102664947510e-01 1.411385461688041687e-02 1.025440990924835205e-01 -4.857153892517089844e-01
2.067000000000000000e+03 4.951066493988037109e+00 -9.836072921752929688e+00 2.285235077142715454e-01 -5.826221033930778503e-02 5.107838660478591919e-02 -6.058765053749084473e-01
2.068000000000000000e+03 5.931236267089843750e+01 -8.498902320861816406e+00 -9.764567017555236816e-02 1.327188611030578613e+00 3.688628673553466797e-01 6.808956265449523926e-01
2.069000000000000000e+03 7.322379302978515625e+01 -3.658032226562500000e+01 -1.898807138204574585e-01 7.546264171600341797e+00 2.206914901733398438e+00 -3.046568715944886208e-03
2.070000000000000000e+03 5.828994274139404297e+00 -2.256642532348632812e+01 2.025122493505477905e-01 1.172037124633789062e+00 4.123648107051849365e-01 1.233801722526550293e+00
2.071000000000000000e+03 6.845919132232666016e+00 2.416004371643066406e+01 -3.928869664669036865e-01 1.969195246696472168e+00 4.728924930095672607e-01 -1.224842786788940430e+00
2.072000000000000000e+03 1.017761325836181641e+01 2.644898033142089844e+01 -9.592911601066589355e-01 2.758763790130615234e+00 5.398417711257934570e-01 -6.982846856117248535e-01
2.073000000000000000e+03 5.345985412597656250e+00 -1.535914134979248047e+01 5.924970507621765137e-01 2.557315826416015625e-01 2.544685900211334229e-01 1.118278130888938904e-01
2.074000000000000000e+03 4.452607154846191406e+00 -1.977779006958007812e+01 3.457203507423400879e-01 1.387390494346618652e-01 1.453378200531005859e-01 8.000656962394714355e-01
2.075000000000000000e+03 1.047523880004882812e+01 1.715128707885742188e+01 1.149258852005004883e+00 4.272569179534912109e+00 1.626548409461975098e+00 -1.144329309463500977e+00
2.076000000000000000e+03 5.864518165588378906e+00 1.669452476501464844e+01 6.910458207130432129e-01 7.771911621093750000e-01 4.404711127281188965e-01 -9.815942645072937012e-01
2.077000000000000000e+03 4.118199825286865234e+00 1.422486495971679688e+01 4.980793893337249756e-01 -5.755887031555175781e-01 -2.325279451906681061e-02 -2.829201817512512207e-01
2.078000000000000000e+03 8.606248855590820312e+00 -1.879441642761230469e+01 1.087556242942810059e+00 2.474462509155273438e+00 1.068605542182922363e+00 9.848996996879577637e-01
2.079000000000000000e+03 6.979029178619384766e+00 -2.386603355407714844e+01 3.327271342277526855e-02 1.755697011947631836e+00 5.366908907890319824e-01 1.324886679649353027e+00
2.080000000000000000e+03 4.941648006439208984e+00 2.649116897583007812e+01 -3.330807983875274658e-01 1.407583594322204590e+00 3.223508596420288086e-01 -9.224852919578552246e-01
2.081000000000000000e+03 1.198063468933105469e+01 -2.581043815612792969e+01 -6.431370377540588379e-01 3.363968849182128906e+00 8.162495493888854980e-01 7.064015269279479980e-01
2.082000000000000000e+03 5.092817306518554688e+00 1.261842155456542969e+01 7.109815478324890137e-01 -9.591319411993026733e-02 1.845204979181289673e-01 7.454010657966136932e-03
2.083000000000000000e+03 5.117632389068603516e+00 1.396747303009033203e+01 7.223268747329711914e-01 -1.274474523961544037e-02 2.128746360540390015e-01 -3.253017067909240723e-01
2.084000000000000000e+03 4.020975112915039062e+00 -1.282088375091552734e+01 3.068732321262359619e-01 -5.063055157661437988e-01 -5.982968956232070923e-02 -3.058735728263854980e-01
2.085000000000000000e+03 1.114393329620361328e+01 -1.122532176971435547e+01 6.869869828224182129e-01 3.310935735702514648e+00 1.199376821517944336e+00 2.470529824495315552e-01
2.086000000000000000e+03 6.712171554565429688e+00 1.782520675659179688e+01 6.546875238418579102e-01 1.491588830947875977e+00 6.438829302787780762e-01 -1.199638485908508301e+00
2.087000000000000000e+03 6.107612609863281250e+00 2.037598037719726562e+01 1.968823969364166260e-01 1.297575831413269043e+00 4.483374953269958496e-01 -1.363994359970092773e+00
2.088000000000000000e+03 7.016892433166503906e+00 -1.885375022888183594e+01 8.213410377502441406e-01 1.397365093231201172e+00 6.656118631362915039e-01 8.887650370597839355e-01
2.089000000000000000e+03 7.500240325927734375e+00 -3.337198257446289062e+01 -4.559223651885986328e-01 1.872139930725097656e+00 4.248652756214141846e-01 5.491446256637573242e-01
2.090000000000000000e+03 5.484423828125000000e+01 -9.357301712036132812e+00 -5.381597578525543213e-02 1.370776772499084473e+00 3.950882554054260254e-01 1.654662489891052246e+00
2.091000000000000000e+03 5.446114730834960938e+01 -1.123491573333740234e+01 -3.457537293434143066e-01 8.583924770355224609e-01 1.537916362285614014e-01 1.465401649475097656e+00
2.092000000000000000e+03 5.152533340454101562e+01 -1.067143535614013672e+01 3.180941641330718994e-01 1.041030883789062500e+00 4.077375233173370361e-01 2.308923006057739258e+00
2.093000000000000000e+03 5.111705780029296875e+01 -8.180518150329589844e+00 3.541149199008941650e-01 1.250627875328063965e+00 4.814228415489196777e-01 2.744136095046997070e+00
2.094000000000000000e+03 6.416700363159179688e+00 -2.787620353698730469e+01 -3.223775029182434082e-01 1.715446710586547852e+00 4.179207682609558105e-01 1.080860972404479980e+00
2.095000000000000000e+03 6.229990959167480469e+00 -2.656861305236816406e+01 -2.400680333375930786e-01 1.623643517494201660e+00 4.150726497173309326e-01 1.164184570312500000e+00
2.096000000000000000e+03 1.017159748077392578e+01 1.279771900177001953e+01 1.923318743705749512e+00 3.431834220886230469e+00 1.606545925140380859e+00 -7.974813580513000488e-01
2.097000000000000000e+03 3.979583024978637695e+00 8.489238739013671875e+00 3.355185985565185547e-01 -7.449290156364440918e-01 -1.228231117129325867e-01 8.126692175865173340e-01
2.098000000000000000e+03 5.125601768493652344e+00 1.125327301025390625e+01 7.105344533920288086e-01 -1.972994506359100342e-01 1.539704948663711548e-01 2.676053047180175781e-01
2.099000000000000000e+03 6.671600341796875000e+01 -8.624258041381835938e+00 -1.099472403526306152e+00 5.229407310485839844e+00 1.238980531692504883e+00 -2.346217632293701172e+00
2.100000000000000000e+03 5.261778354644775391e+00 -1.398234462738037109e+01 5.450804829597473145e-01 1.812559068202972412e-01 2.179009020328521729e-01 -1.219333857297897339e-01
2.101000000000000000e+03 5.024689674377441406e+00 8.003132820129394531e+00 4.272515177726745605e-01 -3.004113435745239258e-01 3.805205225944519043e-02 8.916594982147216797e-01
2.102000000000000000e+03 5.619903087615966797e+00 8.751898765563964844e+00 6.092379689216613770e-01 -7.026181370019912720e-02 1.616928428411483765e-01 7.638303637504577637e-01
2.103000000000000000e+03 4.891609191894531250e+00 -8.512752532958984375e+00 1.345917582511901855e-01 -6.901127845048904419e-02 1.967414468526840210e-02 -6.827147006988525391e-01
2.104000000000000000e+03 6.358348369598388672e+00 3.501050567626953125e+01 -2.343755215406417847e-01 1.768442034721374512e+00 4.602199494838714600e-01 -2.700574994087219238e-01
2.105000000000000000e+03 6.331539154052734375e+00 -5.062740802764892578e+00 -1.844765692949295044e-01 1.877488642930984497e-01 9.816893143579363823e-04 -6.385294795036315918e-01
2.106000000000000000e+03 9.492928504943847656e+00 -1.933476257324218750e+01 1.090081453323364258e+00 3.163562536239624023e+00 1.276093125343322754e+00 1.080331802368164062e+00
2.107000000000000000e+03 9.837524414062500000e+00 -2.090105438232421875e+01 9.890622496604919434e-01 3.376449346542358398e+00 1.309653520584106445e+00 1.208039879798889160e+00
2.108000000000000000e+03 6.341486740112304688e+01 -9.441470146179199219e+00 -8.164574503898620605e-01 7.446527481079101562e-01 -2.154141664505004883e-02 -9.985436201095581055e-01
2.109000000000000000e+03 6.080068206787109375e+01 -8.646089553833007812e+00 -2.253049463033676147e-01 1.062271952629089355e+00 2.510900795459747314e-01 2.153380513191223145e-01
2.110000000000000000e+03 4.771348953247070312e+00 -5.986907482147216797e+00 -5.344742909073829651e-02 -1.163368672132492065e-01 -5.093528702855110168e-02 -7.123589515686035156e-01
2.111000000000000000e+03 4.228539657592773438e+01 -8.337205886840820312e+00 -5.568302869796752930e-01 5.077121734619140625e+00 1.356087446212768555e+00 -1.145135164260864258e+00
2.112000000000000000e+03 3.940707397460937500e+01 -1.225146484375000000e+01 9.346595406532287598e-01 8.563496589660644531e+00 2.849446773529052734e+00 -1.433009386062622070e+00
2.113000000000000000e+03 4.597191619873046875e+01 -1.126161098480224609e+01 8.148715496063232422e-01 3.415374040603637695e+00 1.269073605537414551e+00 1.005320549011230469e+00
2.114000000000000000e+03 1.460597991943359375e+01 2.402472114562988281e+01 -1.377265691757202148e+00 3.347295045852661133e+00 5.910088419914245605e-01 3.666277229785919189e-01
2.115000000000000000e+03 1.136449813842773438e+01 2.351022148132324219e+01 -8.834464550018310547e-01 3.666577577590942383e+00 8.349393010139465332e-01 -8.390179872512817383e-01
2.116000000000000000e+03 4.144522094726562500e+01 -1.779784965515136719e+01 2.010845422744750977e+00 9.078313827514648438e+00 3.326747655868530273e+00 -1.292140126228332520e+00
2.117000000000000000e+03 3.397285461425781250e+01 -6.403196334838867188e+00 -1.345414638519287109e+00 8.069664955139160156e+00 2.017275094985961914e+00 -2.029562473297119141e+00
2.118000000000000000e+03 3.623472595214843750e+01 1.440909004211425781e+01 6.110641360282897949e-01 8.583397865295410156e+00 2.758338689804077148e+00 -3.699767887592315674e-01
2.119000000000000000e+03 1.048096466064453125e+01 -1.462330722808837891e+01 1.499192595481872559e+00 3.498837947845458984e+00 1.499409198760986328e+00 3.945823013782501221e-01
2.120000000000000000e+03 2.588604164123535156e+01 -5.114416122436523438e+00 1.963432788848876953e+00 -1.200311034917831421e-01 5.530205368995666504e-01 1.690005958080291748e-01
2.121000000000000000e+03 1.217115783691406250e+01 -2.969366455078125000e+01 -9.161646962165832520e-01 2.518610000610351562e+00 4.807336032390594482e-01 4.042117893695831299e-01
2.122000000000000000e+03 1.810332107543945312e+01 -3.402261352539062500e+01 -8.027093410491943359e-01 1.249406933784484863e+00 1.340092718601226807e-01 -3.313055634498596191e-01
2.123000000000000000e+03 4.533278274536132812e+01 1.953694152832031250e+01 2.275749891996383667e-01 2.905345916748046875e+00 9.398762583732604980e-01 1.651404380798339844e+00
2.124000000000000000e+03 4.525186157226562500e+01 2.145257377624511719e+01 -3.381280899047851562e-01 3.132919073104858398e+00 8.384373188018798828e-01 1.626300096511840820e+00
2.125000000000000000e+03 1.322913074493408203e+01 -2.611410903930664062e+01 -7.266026139259338379e-01 3.384022235870361328e+00 7.972259521484375000e-01 2.881689369678497314e-01
2.126000000000000000e+03 6.108721542358398438e+01 4.185226857662200928e-01 1.120085358619689941e+00 4.558576583862304688e+00 1.703598618507385254e+00 1.412528872489929199e+00
2.127000000000000000e+03 5.854448318481445312e+01 -7.019494533538818359e+00 5.589407682418823242e-01 1.650510311126708984e+00 6.628352999687194824e-01 1.007404208183288574e+00
2.128000000000000000e+03 1.094259166717529297e+01 1.392723941802978516e+01 1.982423305511474609e+00 4.560348510742187500e+00 1.962831497192382812e+00 -1.202741742134094238e+00
2.129000000000000000e+03 5.403735351562500000e+01 -7.659247875213623047e+00 4.475160241127014160e-01 1.868316411972045898e+00 6.947497725486755371e-01 1.944647431373596191e+00
2.130000000000000000e+03 1.370980930328369141e+01 -2.777008247375488281e+01 -9.435145854949951172e-01 2.860221862792968750e+00 5.750122070312500000e-01 1.762486249208450317e-01
2.131000000000000000e+03 6.932383728027343750e+01 -1.049480819702148438e+01 -1.788606047630310059e+00 8.610788345336914062e+00 2.046654462814331055e+00 -1.477372646331787109e+00
2.132000000000000000e+03 7.025458526611328125e+01 -2.583533668518066406e+01 -8.399642705917358398e-01 8.930429458618164062e+00 2.427139520645141602e+00 -1.244214773178100586e-01
2.133000000000000000e+03 5.898068237304687500e+01 -5.961701393127441406e+00 8.110112547874450684e-01 2.026717901229858398e+00 8.513187766075134277e-01 9.519690871238708496e-01
2.134000000000000000e+03 7.321528625488281250e+01 -1.269982624053955078e+01 -2.611526250839233398e-01 9.179491996765136719e+00 2.675501823425292969e+00 6.717752814292907715e-01
2.135000000000000000e+03 4.258180236816406250e+01 1.905278778076171875e+01 1.029974520206451416e-01 4.590307235717773438e+00 1.407991290092468262e+00 1.815978765487670898e+00
2.136000000000000000e+03 3.799424743652343750e+01 -1.292883872985839844e+00 7.269751429557800293e-01 1.003066635131835938e+01 3.227292299270629883e+00 -1.088555216789245605e+00
2.137000000000000000e+03 3.749097442626953125e+01 -3.833092927932739258e+00 -1.139516115188598633e+00 9.600602149963378906e+00 2.538325786590576172e+00 -1.400076270103454590e+00
2.138000000000000000e+03 3.720930099487304688e+01 -2.597017049789428711e+00 -1.495998650789260864e-01 9.793769836425781250e+00 2.893250942230224609e+00 -1.133024573326110840e+00
2.139000000000000000e+03 4.027979660034179688e+01 -4.384301185607910156e+00 -1.452514648437500000e+00 7.617887973785400391e+00 1.849611997604370117e+00 -2.236940622329711914e+00
2.140000000000000000e+03 6.709450531005859375e+01 1.182022857666015625e+01 9.521084427833557129e-01 7.876387119293212891e+00 2.648548603057861328e+00 2.019178867340087891e-01
2.141000000000000000e+03 1.102667045593261719e+01 -1.615947723388671875e+01 1.747216224670410156e+00 4.262293815612792969e+00 1.802853107452392578e+00 8.388272523880004883e-01
2.142000000000000000e+03 6.573775482177734375e+01 1.050520706176757812e+01 9.465173482894897461e-01 8.270544052124023438e+00 2.765118598937988281e+00 3.548613786697387695e-01
2.143000000000000000e+03 7.338883209228515625e+01 9.744060516357421875e+00 4.134548008441925049e-01 6.843268394470214844e+00 2.177016973495483398e+00 -1.653432846069335938e-01
2.144000000000000000e+03 4.039302825927734375e+01 -1.630595779418945312e+01 1.936138868331909180e+00 9.052950859069824219e+00 3.296726942062377930e+00 -1.645914077758789062e+00
2.145000000000000000e+03 3.930159378051757812e+01 -1.662657165527343750e+01 1.866361021995544434e+00 9.691915512084960938e+00 3.467483043670654297e+00 -1.796349406242370605e+00
2.146000000000000000e+03 6.588881683349609375e+01 2.446892738342285156e+01 -9.406091570854187012e-01 6.758673191070556641e+00 1.745419263839721680e+00 -6.061757355928421021e-02
2.147000000000000000e+03 2.885823822021484375e+01 2.779581642150878906e+01 -8.385140895843505859e-01 2.656087875366210938e+00 5.452721714973449707e-01 -9.298288226127624512e-01
2.148000000000000000e+03 4.383347320556640625e+01 -2.937238311767578125e+01 2.482828646898269653e-01 8.186223983764648438e+00 2.530351877212524414e+00 -1.134123921394348145e+00
2.149000000000000000e+03 4.537216567993164062e+01 -2.797490882873535156e+01 1.379868865013122559e+00 8.703755378723144531e+00 3.025087356567382812e+00 -2.251114130020141602e+00
2.150000000000000000e+03 1.741479682922363281e+01 2.618385887145996094e+01 -8.018350601196289062e-01 1.562530994415283203e+00 2.282087653875350952e-01 7.820382714271545410e-01
2.151000000000000000e+03 1.244079399108886719e+01 2.443701934814453125e+01 -1.274769663810729980e+00 3.640925884246826172e+00 7.098469138145446777e-01 -3.776909410953521729e-01
2.152000000000000000e+03 4.135697555541992188e+01 -2.579512023925781250e+01 1.612080454826354980e+00 8.596574783325195312e+00 3.062596559524536133e+00 -8.282216787338256836e-01
2.153000000000000000e+03 5.165640258789062500e+01 2.751393127441406250e+01 -1.001030653715133667e-01 1.641037106513977051e+00 4.622802138328552246e-01 9.092775583267211914e-01
2.154000000000000000e+03 6.784172058105468750e+01 1.435555934906005859e+01 9.058752059936523438e-01 7.715438365936279297e+00 2.586394071578979492e+00 2.993239760398864746e-01
2.155000000000000000e+03 7.215505981445312500e+01 1.785746192932128906e+01 3.112254738807678223e-01 7.086797237396240234e+00 2.219406843185424805e+00 6.146924495697021484e-01
2.156000000000000000e+03 6.763574218750000000e+01 7.422420024871826172e+00 8.241644501686096191e-01 7.264956474304199219e+00 2.426736116409301758e+00 -5.110650137066841125e-02
2.157000000000000000e+03 1.674431228637695312e+01 2.816873741149902344e+01 -7.157087922096252441e-01 1.748147845268249512e+00 3.097316920757293701e-01 4.626666605472564697e-01
2.158000000000000000e+03 6.570126342773437500e+01 4.844822406768798828e+00 7.968731522560119629e-01 6.908113956451416016e+00 2.311496019363403320e+00 1.298238635063171387e-01
2.159000000000000000e+03 6.613517761230468750e+01 5.770258426666259766e+00 8.134109973907470703e-01 7.132229804992675781e+00 2.383692264556884766e+00 1.158776432275772095e-01
2.160000000000000000e+03 6.260274887084960938e+01 -6.164431095123291016e+00 4.781308472156524658e-01 2.465958595275878906e+00 8.832268714904785156e-01 -2.788599133491516113e-01
2.161000000000000000e+03 3.435696029663085938e+01 -3.219297409057617188e+01 -9.447922110557556152e-01 4.429568290710449219e+00 1.045432925224304199e+00 1.344873547554016113e+00
2.162000000000000000e+03 2.751595115661621094e+01 2.871174812316894531e+01 -6.416815519332885742e-01 2.112863063812255859e+00 4.413544237613677979e-01 -8.874532580375671387e-01
2.163000000000000000e+03 3.059020614624023438e+01 -2.704670190811157227e+00 3.477385759353637695e+00 3.246820688247680664e+00 2.017261981964111328e+00 2.291404306888580322e-01
2.164000000000000000e+03 5.349925613403320312e+01 -1.127638339996337891e+01 -1.155321821570396423e-01 8.823620676994323730e-01 2.300489693880081177e-01 1.764542698860168457e+00
2.165000000000000000e+03 5.192501068115234375e+01 -9.575713157653808594e+00 2.937803566455841064e-01 1.223054051399230957e+00 4.550503492355346680e-01 2.442253112792968750e+00
2.166000000000000000e+03 7.004799652099609375e+01 -2.893640708923339844e+01 -1.144582271575927734e+00 7.550630092620849609e+00 1.921814322471618652e+00 1.516125053167343140e-01
2.167000000000000000e+03 5.797277450561523438e+01 2.739216232299804688e+01 -1.134013906121253967e-01 2.213350772857666016e+00 6.299847960472106934e-01 -6.376926898956298828e-01
2.168000000000000000e+03 6.401969909667968750e+01 1.478079438209533691e+00 7.677813768386840820e-01 5.726742267608642578e+00 1.948357105255126953e+00 4.090454876422882080e-01
2.169000000000000000e+03 6.162369537353515625e+01 -1.169375896453857422e+00 1.092765808105468750e+00 4.045346736907958984e+00 1.541433691978454590e+00 8.901035785675048828e-01
2.170000000000000000e+03 4.213819885253906250e+01 -1.199682235717773438e+01 7.318077087402343750e-01 6.416516304016113281e+00 2.144497156143188477e+00 -7.142977714538574219e-01
2.171000000000000000e+03 3.631241607666015625e+01 1.831936836242675781e+01 -9.322652220726013184e-02 6.543582439422607422e+00 1.935106754302978516e+00 2.206855639815330505e-02
2.172000000000000000e+03 5.547056198120117188e+01 -3.793458557128906250e+01 4.723551869392395020e-01 1.117297530174255371e+00 4.768958091735839844e-01 -5.492031574249267578e-01
2.173000000000000000e+03 5.668069076538085938e+01 -4.090684127807617188e+01 7.469032406806945801e-01 1.243414044380187988e+00 5.970951914787292480e-01 -1.204774230718612671e-01
2.174000000000000000e+03 7.263654327392578125e+01 -1.928895187377929688e+01 1.799382567405700684e+00 1.023236751556396484e+01 3.609524965286254883e+00 -7.289652228355407715e-01
2.175000000000000000e+03 7.403201293945312500e+01 -2.010145378112792969e+01 1.256824731826782227e+00 9.203832626342773438e+00 3.138197183609008789e+00 -8.879227638244628906e-01
2.176000000000000000e+03 6.536685180664062500e+01 3.825724840164184570e+00 7.379320859909057617e-01 6.645193099975585938e+00 2.214937448501586914e+00 1.673478186130523682e-01
2.177000000000000000e+03 7.070513916015625000e+01 -2.779820442199707031e+01 -1.115754485130310059e+00 8.256164550781250000e+00 2.142122983932495117e+00 -1.776455342769622803e-01
2.178000000000000000e+03 4.727253723144531250e+01 -3.166882705688476562e+01 -3.667347729206085205e-01 6.007902145385742188e+00 1.692350149154663086e+00 -2.222398996353149414e+00
2.179000000000000000e+03 4.686839294433593750e+01 -3.549083709716796875e+01 -1.206947922706604004e+00 5.070032119750976562e+00 1.158925175666809082e+00 -1.288849472999572754e+00
2.180000000000000000e+03 4.412430572509765625e+01 -2.810271453857421875e+01 8.961212038993835449e-01 8.810005187988281250e+00 2.911838054656982422e+00 -1.152853488922119141e+00
2.181000000000000000e+03 4.524780654907226562e+01 -2.955514144897460938e+01 3.996875584125518799e-01 7.941501617431640625e+00 2.502356767654418945e+00 -1.644167780876159668e+00
2.182000000000000000e+03 7.508492469787597656e+00 -1.694300270080566406e+01 1.039599418640136719e+00 1.619022011756896973e+00 7.975864410400390625e-01 5.665422677993774414e-01
2.183000000000000000e+03 3.878861999511718750e+01 -1.096255016326904297e+01 3.644464313983917236e-01 8.714611053466796875e+00 2.723717212677001953e+00 -1.501777291297912598e+00
2.184000000000000000e+03 3.757519912719726562e+01 -1.130509948730468750e+01 6.282224655151367188e-01 9.624739646911621094e+00 3.075888395309448242e+00 -1.700833439826965332e+00
2.185000000000000000e+03 4.553513717651367188e+01 -7.859529018402099609e+00 -1.744621247053146362e-01 1.809132575988769531e+00 4.904011487960815430e-01 3.715483248233795166e-01
2.186000000000000000e+03 4.831295394897460938e+01 -1.053854084014892578e+01 7.504702210426330566e-01 1.725088357925415039e+00 7.426675558090209961e-01 1.997418999671936035e+00
2.187000000000000000e+03 7.214438629150390625e+01 4.109654998779296875e+01 1.062848418951034546e-02 6.755055427551269531e+00 2.029705286026000977e+00 2.143513876944780350e-03
2.188000000000000000e+03 6.633715057373046875e+01 -3.311021804809570312e+01 -6.073802709579467773e-01 4.175228118896484375e+00 1.070354461669921875e+00 8.019387722015380859e-01
2.189000000000000000e+03 4.502252197265625000e+01 -1.274577903747558594e+01 9.766932129859924316e-01 4.888646125793457031e+00 1.759601831436157227e+00 6.674940586090087891e-01
2.190000000000000000e+03 4.245344924926757812e+01 -1.329598140716552734e+01 1.204743862152099609e+00 6.815327644348144531e+00 2.406021356582641602e+00 -6.345139145851135254e-01
2.191000000000000000e+03 1.606009483337402344e+01 2.639697456359863281e+01 -1.079916119575500488e+00 2.270565509796142578e+00 3.571947813034057617e-01 6.316912174224853516e-01
2.192000000000000000e+03 6.386395645141601562e+01 -3.611823272705078125e+01 1.736664623022079468e-01 2.721955537796020508e+00 8.686866164207458496e-01 5.655879378318786621e-01
2.193000000000000000e+03 6.574545288085937500e+01 -3.581370925903320312e+01 -8.933502435684204102e-02 3.704022884368896484e+00 1.084406375885009766e+00 6.790397167205810547e-01
2.194000000000000000e+03 6.905536651611328125e+01 -3.170840072631835938e+01 -9.433765411376953125e-01 6.201299190521240234e+00 1.577376842498779297e+00 4.632074832916259766e-01
2.195000000000000000e+03 7.484573364257812500e+01 -2.641953468322753906e+01 -3.733804225921630859e-01 8.868765830993652344e+00 2.548615455627441406e+00 -1.235391974449157715e+00
2.196000000000000000e+03 3.952715682983398438e+01 -7.369413375854492188e+00 -1.441068053245544434e+00 7.954482555389404297e+00 1.954024434089660645e+00 -1.771081089973449707e+00
2.197000000000000000e+03 5.925337600708007812e+01 -1.000153446197509766e+01 -9.293589591979980469e-01 9.937915802001953125e-01 1.932978257536888123e-02 5.050672888755798340e-01
2.198000000000000000e+03 3.818278503417968750e+01 -7.331598281860351562e+00 -1.606750011444091797e+00 9.082905769348144531e+00 2.242846727371215820e+00 -1.733724594116210938e+00
2.199000000000000000e+03 1.744462203979492188e+01 -1.899961352348327637e+00 1.862594246864318848e+00 3.284094810485839844e+00 1.544006705284118652e+00 3.345582723617553711e+00
2.200000000000000000e+03 1.858585739135742188e+01 -2.119149684906005859e+00 1.151700496673583984e+00 7.004533290863037109e+00 2.446870088577270508e+00 3.161090135574340820e+00
2.201000000000000000e+03 1.652003669738769531e+01 -2.343647718429565430e+00 1.338258147239685059e+00 1.926519155502319336e+00 9.794331789016723633e-01 2.636107206344604492e+00
2.202000000000000000e+03 2.269539260864257812e+01 4.717085957527160645e-01 5.777491569519042969e+00 2.815234363079071045e-01 1.817704558372497559e+00 -1.055925607681274414e+00
2.203000000000000000e+03 2.161338043212890625e+01 -8.437057733535766602e-01 6.069839954376220703e+00 4.088702201843261719e+00 3.047562599182128906e+00 -2.871649742126464844e+00
2.204000000000000000e+03 2.253685188293457031e+01 -6.372385978698730469e+00 2.838801443576812744e-01 1.878775954246520996e+00 6.487967967987060547e-01 4.396347105503082275e-01
2.205000000000000000e+03 1.857941055297851562e+01 3.436304807662963867e+00 -8.537771105766296387e-01 7.662923812866210938e+00 2.042743921279907227e+00 -4.824994564056396484e+00
2.206000000000000000e+03 1.682589340209960938e+01 2.820374250411987305e+00 9.999014735221862793e-01 3.224036455154418945e+00 1.267181396484375000e+00 -4.527730941772460938e+00
2.207000000000000000e+03 1.752071189880371094e+01 -3.400737762451171875e+00 6.860173344612121582e-01 3.991133213043212891e+00 1.403145194053649902e+00 3.122231006622314453e+00
2.208000000000000000e+03 1.780638694763183594e+01 3.143630266189575195e+00 1.503204554319381714e-01 5.948112487792968750e+00 1.829529881477355957e+00 -5.354945182800292969e+00
2.209000000000000000e+03 1.400999546051025391e+01 -3.332760095596313477e+00 2.264805138111114502e-01 1.022135615348815918e+00 3.745848536491394043e-01 1.392717480659484863e+00
2.210000000000000000e+03 1.429331493377685547e+01 -5.883129119873046875e+00 2.572436258196830750e-02 2.493345737457275391e+00 7.557210326194763184e-01 1.881203770637512207e+00
2.211000000000000000e+03 1.646462821960449219e+01 3.193768978118896484e+00 5.432016849517822266e-01 3.162479639053344727e+00 1.111704349517822266e+00 -4.107433319091796875e+00
2.212000000000000000e+03 2.479847717285156250e+01 -5.845693349838256836e-01 5.356510639190673828e+00 -1.235877990722656250e+00 1.236189723014831543e+00 -3.228778541088104248e-01
2.213000000000000000e+03 1.202980327606201172e+01 5.969567298889160156e+00 5.707408785820007324e-01 2.251137733459472656e+00 8.465635776519775391e-01 -5.001583099365234375e-01
2.214000000000000000e+03 7.549137592315673828e+00 -5.476296901702880859e+00 -1.456607580184936523e-01 4.121140837669372559e-01 7.993599772453308105e-02 -5.218084454536437988e-01
2.215000000000000000e+03 5.467809677124023438e+00 -4.839536666870117188e+00 -1.926219314336776733e-01 -1.806682720780372620e-02 -6.320662796497344971e-02 -6.871693730354309082e-01
2.216000000000000000e+03 8.556541442871093750e+00 -4.817795276641845703e+00 -2.366742789745330811e-01 5.200108885765075684e-01 8.500099182128906250e-02 -3.585326671600341797e-01
2.217000000000000000e+03 6.861138820648193359e+00 -5.340340614318847656e+00 -1.538056135177612305e-01 2.809810638427734375e-01 3.815263137221336365e-02 -5.933582782745361328e-01
2.218000000000000000e+03 1.761805343627929688e+01 5.350548744201660156e+00 -5.703312754631042480e-01 5.890394687652587891e+00 1.596019029617309570e+00 -3.827525138854980469e+00
2.219000000000000000e+03 1.685352706909179688e+01 5.671219825744628906e+00 -7.573071122169494629e-02 5.376234054565429688e+00 1.590151071548461914e+00 -3.575117826461791992e+00
2.220000000000000000e+03 4.886373519897460938e+00 -7.219531059265136719e+00 3.523514419794082642e-02 -8.953814208507537842e-02 -1.629089936614036560e-02 -7.071669101715087891e-01
2.221000000000000000e+03 1.273093605041503906e+01 5.323979854583740234e+00 3.790527880191802979e-01 2.382997751235961914e+00 8.286151289939880371e-01 -8.804157972335815430e-01
2.222000000000000000e+03 1.285586166381835938e+01 -4.602229118347167969e+00 3.815740346908569336e-02 1.367766618728637695e+00 4.217772185802459717e-01 1.080945968627929688e+00
2.223000000000000000e+03 9.364349365234375000e+00 -5.540212631225585938e+00 -1.137093231081962585e-01 8.771367073059082031e-01 2.290282249450683594e-01 -1.441782712936401367e-01
2.224000000000000000e+03 1.014007568359375000e+01 -4.810753345489501953e+00 -1.724045574665069580e-01 8.098363280296325684e-01 1.912295371294021606e-01 5.689896643161773682e-02
2.225000000000000000e+03 8.822292327880859375e+00 5.079897403717041016e+00 -3.090704418718814850e-02 6.664134263992309570e-01 1.906519085168838501e-01 7.799987792968750000e-01
2.226000000000000000e+03 1.817068481445312500e+01 -9.393340110778808594e+00 -2.794844210147857666e-01 3.041250705718994141e+00 8.285298943519592285e-01 2.472600221633911133e+00
2.227000000000000000e+03 1.678084182739257812e+01 5.015875339508056641e+00 -2.033227682113647461e-01 5.054605484008789062e+00 1.455384850502014160e+00 -3.819673776626586914e+00
2.228000000000000000e+03 1.004419994354248047e+01 -5.462791442871093750e+00 -9.603378921747207642e-02 9.924402832984924316e-01 2.689219415187835693e-01 7.306462526321411133e-02
2.229000000000000000e+03 1.197182464599609375e+01 5.351663589477539062e+00 3.063818812370300293e-01 1.968208789825439453e+00 6.823772192001342773e-01 -4.285152852535247803e-01
2.230000000000000000e+03 1.368834018707275391e+01 -1.015703296661376953e+01 1.967828869819641113e-01 4.136075019836425781e+00 1.299857378005981445e+00 1.261892080307006836e+00
2.231000000000000000e+03 6.610476970672607422e+00 7.223427772521972656e+00 4.900991320610046387e-01 2.892182767391204834e-01 2.337952256202697754e-01 9.265205860137939453e-01
2.232000000000000000e+03 1.237287807464599609e+01 -4.893844604492187500e+00 7.057324051856994629e-03 1.310758471488952637e+00 3.953447341918945312e-01 9.190725684165954590e-01
2.233000000000000000e+03 1.405006122589111328e+01 4.351215362548828125e+00 6.730335205793380737e-02 2.453199863433837891e+00 7.561509609222412109e-01 -1.738767981529235840e+00
2.234000000000000000e+03 4.682272911071777344e+00 5.871417999267578125e+00 5.602715536952018738e-02 -3.758107721805572510e-01 -9.593508392572402954e-02 1.068070292472839355e+00
2.235000000000000000e+03 7.315635681152343750e+00 6.212800979614257812e+00 2.848738431930541992e-01 4.172596335411071777e-01 2.106400430202484131e-01 9.592570662498474121e-01
2.236000000000000000e+03 1.498167896270751953e+01 6.581686019897460938e+00 7.854740619659423828e-01 4.806851863861083984e+00 1.677697777748107910e+00 -2.446521997451782227e+00
2.237000000000000000e+03 1.460534763336181641e+01 7.426492691040039062e+00 1.199362635612487793e+00 5.106200218200683594e+00 1.891668796539306641e+00 -2.134569406509399414e+00
2.238000000000000000e+03 1.345664882659912109e+01 -4.587368011474609375e+00 1.252809911966323853e-01 1.479196548461914062e+00 4.813432693481445312e-01 1.385801315307617188e+00
2.239000000000000000e+03 8.016475677490234375e+00 5.195719242095947266e+00 -1.942012645304203033e-02 4.776831567287445068e-01 1.374789029359817505e-01 9.201882481575012207e-01
2.240000000000000000e+03 6.499957084655761719e+00 6.363285064697265625e+00 2.849068939685821533e-01 1.842630207538604736e-01 1.407509744167327881e-01 1.038625717163085938e+00
2.241000000000000000e+03 1.120281982421875000e+01 -5.837488651275634766e+00 -3.630666062235832214e-02 1.447198152542114258e+00 4.232674241065979004e-01 4.467335939407348633e-01
2.242000000000000000e+03 2.600959587097167969e+01 -2.950102329254150391e+00 4.466571807861328125e+00 -5.656934976577758789e-01 1.170263409614562988e+00 1.749481260776519775e-02
2.243000000000000000e+03 2.502701759338378906e+01 -1.622486352920532227e+00 5.243052482604980469e+00 -8.902934193611145020e-01 1.305827736854553223e+00 -3.449527919292449951e-01
2.244000000000000000e+03 1.049603462219238281e+01 5.595549106597900391e+00 2.904806435108184814e-01 1.417487859725952148e+00 5.123905539512634277e-01 2.155398726463317871e-01
2.245000000000000000e+03 9.732787132263183594e+00 5.745664596557617188e+00 3.029581904411315918e-01 1.148888230323791504e+00 4.355539381504058838e-01 4.861461520195007324e-01
2.246000000000000000e+03 1.325831127166748047e+01 7.618718624114990234e+00 1.248045206069946289e+00 4.092197895050048828e+00 1.602072954177856445e+00 -1.260906577110290527e+00
2.247000000000000000e+03 2.723307991027832031e+01 -3.321736335754394531e+00 3.901962995529174805e+00 -3.692046552896499634e-02 1.159512758255004883e+00 2.385160923004150391e-01
2.248000000000000000e+03 1.883497810363769531e+01 4.060688972473144531e+00 -1.384573817253112793e+00 7.092230319976806641e+00 1.712297081947326660e+00 -3.961940765380859375e+00
2.249000000000000000e+03 1.803224563598632812e+01 3.719922542572021484e+00 -5.952750444412231445e-01 6.438252449035644531e+00 1.752893209457397461e+00 -4.868253231048583984e+00
2.250000000000000000e+03 2.090453529357910156e+01 -7.755059242248535156e+00 -3.905904293060302734e-01 2.295943021774291992e+00 5.716057419776916504e-01 1.341840863227844238e+00
2.251000000000000000e+03 2.190317344665527344e+01 -5.986288547515869141e+00 2.863482832908630371e-01 2.647238492965698242e+00 8.800760507583618164e-01 6.210916042327880859e-01
2.252000000000000000e+03 1.092638206481933594e+01 7.071547985076904297e+00 8.991203904151916504e-01 2.258083581924438477e+00 9.471611976623535156e-01 -9.215620905160903931e-02
2.253000000000000000e+03 8.734789848327636719e+00 -5.890307426452636719e+00 -8.416958153247833252e-02 7.988172173500061035e-01 2.143942862749099731e-01 -3.110187351703643799e-01
2.254000000000000000e+03 1.818893814086914062e+01 4.850819110870361328e+00 -1.034714698791503906e+00 6.380651473999023438e+00 1.603780984878540039e+00 -4.018261909484863281e+00
2.255000000000000000e+03 2.049493408203125000e+01 -3.957538604736328125e+00 6.855030059814453125e-01 5.132150650024414062e+00 1.745296120643615723e+00 5.302751064300537109e-01
2.256000000000000000e+03 2.107554054260253906e+01 -6.812560558319091797e+00 -1.422126591205596924e-01 2.740654230117797852e+00 7.795324921607971191e-01 1.219422459602355957e+00
2.257000000000000000e+03 3.461919784545898438e+01 -1.434684038162231445e+00 1.632283926010131836e+00 9.422458648681640625e+00 3.316422700881958008e+00 5.334601178765296936e-02
2.258000000000000000e+03 1.219464874267578125e+01 -1.100494956970214844e+01 5.868936777114868164e-01 3.908798694610595703e+00 1.348707675933837891e+00 5.716854929924011230e-01
2.259000000000000000e+03 3.714073944091796875e+01 -6.661834716796875000e+00 -1.689413428306579590e+00 9.456315040588378906e+00 2.330070495605468750e+00 -1.736930131912231445e+00
2.260000000000000000e+03 3.711122894287109375e+01 -1.455671668052673340e+00 5.838838219642639160e-01 1.012837886810302734e+01 3.213678836822509766e+00 -9.542739987373352051e-01
2.261000000000000000e+03 5.835374450683593750e+01 -8.107569694519042969e+00 7.006724178791046143e-02 1.439766645431518555e+00 4.529501497745513916e-01 9.451522231101989746e-01
2.262000000000000000e+03 2.656797409057617188e+01 -3.885442256927490234e+00 3.363728523254394531e+00 -1.676459312438964844e-01 9.588248133659362793e-01 9.685731679201126099e-02
2.263000000000000000e+03 7.319465637207031250e+01 -2.646434783935546875e+01 -6.121785044670104980e-01 8.992563247680664062e+00 2.514115333557128906e+00 -1.075273990631103516e+00
2.264000000000000000e+03 4.732801437377929688e+00 -4.991904258728027344e+00 -1.563743352890014648e-01 -1.323248893022537231e-01 -8.660976588726043701e-02 -6.821894645690917969e-01
2.265000000000000000e+03 7.447705841064453125e+01 -1.026185989379882812e+01 -5.703687667846679688e-01 8.488067626953125000e+00 2.375309467315673828e+00 5.381575822830200195e-01
2.266000000000000000e+03 3.464899063110351562e+01 2.428260421752929688e+01 -1.050773978233337402e+00 4.862635612487792969e+00 1.143558621406555176e+00 -1.330946087837219238e-01
2.267000000000000000e+03 2.552518653869628906e+01 -2.204650402069091797e+00 4.834552764892578125e+00 -6.576719284057617188e-01 1.253064155578613281e+00 -2.607151567935943604e-01
2.268000000000000000e+03 7.307402801513671875e+01 -1.475071907043457031e+01 9.146950840950012207e-01 9.633260726928710938e+00 3.164386749267578125e+00 7.389124631881713867e-01
2.269000000000000000e+03 2.924939537048339844e+01 -3.854543924331665039e+00 2.948284149169921875e+00 1.627416253089904785e+00 1.372710108757019043e+00 -6.959999352693557739e-02
2.270000000000000000e+03 5.755550384521484375e+01 -1.076599979400634766e+01 -8.915999531745910645e-01 8.419116139411926270e-01 -1.490648929029703140e-02 7.669333219528198242e-01
2.271000000000000000e+03 7.230877685546875000e+01 -1.053728580474853516e+01 -1.027506113052368164e+00 9.192864418029785156e+00 2.449607372283935547e+00 1.376039236783981323e-01
2.272000000000000000e+03 2.447263526916503906e+01 -1.225435137748718262e+00 5.489214420318603516e+00 -8.572202920913696289e-01 1.389598250389099121e+00 -7.447630167007446289e-01
2.273000000000000000e+03 4.376474761962890625e+01 -9.226238250732421875e+00 1.179989203810691833e-01 3.923026800155639648e+00 1.212307691574096680e+00 -3.540345430374145508e-01
2.274000000000000000e+03 2.904141807556152344e+01 -2.905086040496826172e+00 3.931495666503906250e+00 1.455222368240356445e+00 1.616015434265136719e+00 2.498480528593063354e-01
2.275000000000000000e+03 6.398277282714843750e+01 -8.511059761047363281e+00 -1.856892257928848267e-01 1.946712136268615723e+00 5.283069014549255371e-01 -1.451283335685729980e+00
2.276000000000000000e+03 3.417007064819335938e+01 -3.641844272613525391e+00 1.534242779016494751e-01 8.311798095703125000e+00 2.539566755294799805e+00 -1.025279760360717773e+00
2.277000000000000000e+03 1.054853057861328125e+01 -2.167495536804199219e+01 6.764363050460815430e-01 3.697407007217407227e+00 1.312152981758117676e+00 1.197294235229492188e+00
2.278000000000000000e+03 7.262647151947021484e+00 -2.496166992187500000e+01 -1.260552108287811279e-01 1.974583983421325684e+00 5.545586347579956055e-01 1.310993313789367676e+00
2.279000000000000000e+03 1.417759609222412109e+01 -9.444086074829101562e+00 -1.104484871029853821e-02 4.177407264709472656e+00 1.249908685684204102e+00 1.521802067756652832e+00
2.280000000000000000e+03 1.295579528808593750e+01 -9.782947540283203125e+00 1.765245199203491211e-01 3.754284858703613281e+00 1.179242849349975586e+00 9.634205698966979980e-01
2.281000000000000000e+03 8.181482315063476562e+00 -8.364395141601562500e+00 2.061771750450134277e-01 1.121261715888977051e+00 3.982316553592681885e-01 -4.060503542423248291e-01
2.282000000000000000e+03 7.467881679534912109e+00 1.229868125915527344e+01 1.279602169990539551e+00 1.291562676429748535e+00 7.713494300842285156e-01 -2.110360562801361084e-01
2.283000000000000000e+03 7.129183959960937500e+01 1.306931114196777344e+01 6.404169201850891113e-01 7.111846446990966797e+00 2.325679063796997070e+00 1.949402540922164917e-01
2.284000000000000000e+03 6.743737030029296875e+01 1.309737014770507812e+01 9.671328067779541016e-01 7.872117042541503906e+00 2.651774883270263672e+00 2.531211972236633301e-01
2.285000000000000000e+03 7.184646606445312500e+01 -2.859100914001464844e+01 -9.507234096527099609e-01 8.397797584533691406e+00 2.234122276306152344e+00 -4.668720662593841553e-01
2.286000000000000000e+03 7.298989772796630859e+00 1.893447113037109375e+01 5.621764659881591797e-01 1.994665503501892090e+00 7.670525908470153809e-01 -1.388978958129882812e+00
2.287000000000000000e+03 7.321920013427734375e+01 -3.330850601196289062e+01 -5.752866864204406738e-01 7.893568038940429688e+00 2.195484399795532227e+00 -9.439990669488906860e-02
2.288000000000000000e+03 8.911863327026367188e+00 -2.956877136230468750e+01 -6.504281163215637207e-01 2.243210315704345703e+00 4.778346717357635498e-01 8.423555493354797363e-01
2.289000000000000000e+03 1.308360767364501953e+01 -2.872015953063964844e+01 -9.512613415718078613e-01 2.656036138534545898e+00 5.114324092864990234e-01 3.085759580135345459e-01
2.290000000000000000e+03 7.388750457763671875e+01 -2.170785713195800781e+01 8.468387126922607422e-01 9.278565406799316406e+00 3.037621259689331055e+00 -1.255599617958068848e+00
2.291000000000000000e+03 7.212771606445312500e+01 -2.553083610534667969e+01 -5.396618247032165527e-01 9.216112136840820312e+00 2.602935075759887695e+00 -9.576473832130432129e-01
2.292000000000000000e+03 7.560501575469970703e+00 2.899961471557617188e+01 -5.444606542587280273e-01 2.012856483459472656e+00 4.405187666416168213e-01 -6.670232415199279785e-01
2.293000000000000000e+03 8.668432235717773438e+00 3.258208465576171875e+01 -4.609311223030090332e-01 1.959079742431640625e+00 4.494445919990539551e-01 -3.276911675930023193e-01
2.294000000000000000e+03 7.084992980957031250e+01 2.432777976989746094e+01 -3.635688722133636475e-01 7.124508380889892578e+00 2.028281927108764648e+00 5.155873894691467285e-01
2.295000000000000000e+03 7.302237701416015625e+01 1.695104789733886719e+01 3.133324980735778809e-01 6.979612350463867188e+00 2.187883377075195312e+00 5.257161855697631836e-01
2.296000000000000000e+03 3.949813461303710938e+01 1.665457534790039062e+01 2.864428758621215820e-01 6.812628746032714844e+00 2.129721641540527344e+00 1.286166429519653320e+00
2.297000000000000000e+03 6.782994842529296875e+01 9.556672096252441406e+00 9.018962383270263672e-01 7.553421974182128906e+00 2.536595344543457031e+00 2.534040249884128571e-02
2.298000000000000000e+03 4.850784301757812500e+01 -1.179483699798583984e+01 1.115131020545959473e+00 1.865340948104858398e+00 8.941415548324584961e-01 2.132239580154418945e+00
2.299000000000000000e+03 5.007431030273437500e+01 -1.121078681945800781e+01 7.389354705810546875e-01 1.092154502868652344e+00 5.493270158767700195e-01 2.245588779449462891e+00
2.300000000000000000e+03 7.444800567626953125e+01 7.404065608978271484e+00 2.721299231052398682e-01 6.779071807861328125e+00 2.115360498428344727e+00 -3.827817440032958984e-01
2.301000000000000000e+03 3.981680297851562500e+01 -1.370321941375732422e+01 1.502581477165222168e+00 8.648785591125488281e+00 3.045410156250000000e+00 -1.563855409622192383e+00
2.302000000000000000e+03 4.016424179077148438e+01 -1.506465244293212891e+01 1.740754008293151855e+00 8.766728401184082031e+00 3.152244806289672852e+00 -1.551279544830322266e+00
2.303000000000000000e+03 7.376586151123046875e+01 -1.903413200378417969e+01 1.522331953048706055e+00 9.351086616516113281e+00 3.262025594711303711e+00 -5.465755462646484375e-01
2.304000000000000000e+03 7.485206604003906250e+01 -1.896269035339355469e+01 1.136310577392578125e+00 8.541869163513183594e+00 2.903453826904296875e+00 -4.709985852241516113e-01
2.305000000000000000e+03 7.483499145507812500e+01 -9.302864074707031250e+00 -5.821730494499206543e-01 8.294460296630859375e+00 2.313686370849609375e+00 3.992151319980621338e-01
2.306000000000000000e+03 7.196585083007812500e+01 -7.370361328125000000e+00 -1.051013112068176270e+00 7.978117465972900391e+00 2.078131437301635742e+00 -6.264548897743225098e-01
2.307000000000000000e+03 6.995146942138671875e+01 4.594079017639160156e+00 4.452561438083648682e-01 6.834125995635986328e+00 2.183814525604248047e+00 -5.380313992500305176e-01
2.308000000000000000e+03 7.506829833984375000e+01 -1.104253196716308594e+01 -3.850953876972198486e-01 8.379012107849121094e+00 2.398175001144409180e+00 6.802144646644592285e-01
2.309000000000000000e+03 7.225083160400390625e+01 -8.304127693176269531e+00 -1.115995645523071289e+00 8.338172912597656250e+00 2.166653394699096680e+00 -3.890412449836730957e-01
2.310000000000000000e+03 7.263487243652343750e+01 -4.025744438171386719e+00 -5.522204637527465820e-01 7.414647102355957031e+00 2.058727979660034180e+00 -7.417505383491516113e-01
2.311000000000000000e+03 7.318828582763671875e+01 -4.666224956512451172e+00 -5.823787450790405273e-01 7.565566539764404297e+00 2.094956398010253906e+00 -6.144517660140991211e-01
2.312000000000000000e+03 7.320222473144531250e+01 -1.040535926818847656e+00 -1.625023931264877319e-01 7.109210968017578125e+00 2.084012508392333984e+00 -7.611047029495239258e-01
2.313000000000000000e+03 7.193971252441406250e+01 4.256200790405273438e+00 3.082892596721649170e-01 6.850148677825927734e+00 2.147531270980834961e+00 -6.192106008529663086e-01
2.314000000000000000e+03 7.310270690917968750e+01 4.049491584300994873e-01 -3.263801336288452148e-02 7.004703998565673828e+00 2.091619968414306641e+00 -7.677175998687744141e-01
2.315000000000000000e+03 6.054854393005371094e+00 -9.645138740539550781e+00 2.867598235607147217e-01 4.210188090801239014e-01 2.123335897922515869e-01 -5.904018878936767578e-01
2.316000000000000000e+03 5.162023067474365234e+00 -1.259449768066406250e+01 4.286594688892364502e-01 7.986865192651748657e-02 1.525584310293197632e-01 -3.340080976486206055e-01
2.317000000000000000e+03 7.249375915527343750e+01 -2.747423171997070312e+01 -8.253802061080932617e-01 8.765012741088867188e+00 2.381889581680297852e+00 -7.780508995056152344e-01
2.318000000000000000e+03 7.355749511718750000e+01 -2.833301544189453125e+01 -6.847130060195922852e-01 8.715772628784179688e+00 2.409317731857299805e+00 -8.506321310997009277e-01
2.319000000000000000e+03 1.126176261901855469e+01 7.830833435058593750e+00 1.222742319107055664e+00 2.761806726455688477e+00 1.195364713668823242e+00 -2.943046391010284424e-01
2.320000000000000000e+03 7.390983581542968750e+01 1.873013877868652344e+01 1.578969508409500122e-01 7.007029533386230469e+00 2.149477958679199219e+00 5.896419882774353027e-01
2.321000000000000000e+03 7.303558349609375000e+01 2.171030044555664062e+01 -2.983467653393745422e-02 7.152533531188964844e+00 2.136809587478637695e+00 6.776499748229980469e-01
2.322000000000000000e+03 3.453912353515625000e+01 -4.686248302459716797e+00 -7.263331413269042969e-01 8.638596534729003906e+00 2.373678922653198242e+00 -1.381166338920593262e+00
2.323000000000000000e+03 5.546800231933593750e+01 -1.115552806854248047e+01 -5.479519963264465332e-01 9.154114127159118652e-01 1.102378442883491516e-01 1.227666974067687988e+00
2.324000000000000000e+03 6.709927558898925781e+00 3.298991775512695312e+01 -3.091949820518493652e-01 1.787710785865783691e+00 4.435547292232513428e-01 -3.712610900402069092e-01
2.325000000000000000e+03 6.161221027374267578e+00 2.631541824340820312e+01 -4.009189605712890625e-01 1.700998544692993164e+00 3.900238871574401855e-01 -9.925220608711242676e-01
2.326000000000000000e+03 6.147902488708496094e+00 2.513987731933593750e+01 -4.063347876071929932e-01 1.701435565948486328e+00 3.885302245616912842e-01 -1.144980311393737793e+00
2.327000000000000000e+03 6.028277397155761719e+00 -8.382046699523925781e+00 1.517628878355026245e-01 3.015569746494293213e-01 1.359959542751312256e-01 -6.404418349266052246e-01
2.328000000000000000e+03 3.845116424560546875e+01 1.616977119445800781e+01 2.717275619506835938e-01 7.350509643554687500e+00 2.286671161651611328e+00 7.961932420730590820e-01
2.329000000000000000e+03 3.602209091186523438e+01 1.589466762542724609e+01 3.280018270015716553e-01 7.697441101074218750e+00 2.407632827758789062e+00 -4.189945459365844727e-01
2.330000000000000000e+03 6.544377803802490234e+00 -1.650483322143554688e+01 8.995172977447509766e-01 1.030556440353393555e+00 5.790221095085144043e-01 4.027265608310699463e-01
2.331000000000000000e+03 5.501063823699951172e+00 -1.804634475708007812e+01 6.337242126464843750e-01 5.598974823951721191e-01 3.580865263938903809e-01 6.362054347991943359e-01
2.332000000000000000e+03 1.078725433349609375e+01 -2.716121101379394531e+01 -7.146428227424621582e-01 2.887644290924072266e+00 6.519004702568054199e-01 8.440137505531311035e-01
2.333000000000000000e+03 5.782270431518554688e+00 -1.948354530334472656e+01 5.704087018966674805e-01 8.706128001213073730e-01 4.323064386844635010e-01 9.075028896331787109e-01
2.334000000000000000e+03 8.046814918518066406e+00 -1.798859977722167969e+01 1.146777153015136719e+00 2.162615537643432617e+00 9.928178191184997559e-01 8.575064539909362793e-01
2.335000000000000000e+03 8.032691001892089844e+00 -2.411148643493652344e+01 -3.717575594782829285e-02 2.275237321853637695e+00 6.714184284210205078e-01 1.334152460098266602e+00
2.336000000000000000e+03 5.832790374755859375e+00 -2.395714378356933594e+01 3.488705679774284363e-02 1.326586246490478516e+00 4.084419906139373779e-01 1.246158003807067871e+00
2.337000000000000000e+03 5.373751640319824219e+00 1.531324100494384766e+01 6.945050358772277832e-01 3.114612698554992676e-01 3.017898797988891602e-01 -6.228070259094238281e-01
2.338000000000000000e+03 9.976190567016601562e+00 1.814384460449218750e+01 9.354488253593444824e-01 3.795918703079223633e+00 1.419410228729248047e+00 -1.411189436912536621e+00
2.339000000000000000e+03 7.095053100585937500e+01 -3.385299301147460938e+01 -5.886343717575073242e-01 6.950412750244140625e+00 1.908533453941345215e+00 2.116891294717788696e-01
2.340000000000000000e+03 7.231617736816406250e+01 -3.453703308105468750e+01 -4.302936494350433350e-01 7.425408840179443359e+00 2.098534584045410156e+00 5.175577476620674133e-02
2.341000000000000000e+03 8.298420906066894531e+00 1.439516353607177734e+01 1.448399543762207031e+00 2.218731880187988281e+00 1.100139498710632324e+00 -7.596258521080017090e-01
2.342000000000000000e+03 6.013593673706054688e+00 1.371749973297119141e+01 8.800783157348632812e-01 5.442522168159484863e-01 4.272991418838500977e-01 -3.335765004158020020e-01
2.343000000000000000e+03 7.750298023223876953e+00 1.516644668579101562e+01 1.251583218574523926e+00 1.911346077919006348e+00 9.488787651062011719e-01 -9.163408875465393066e-01
2.344000000000000000e+03 6.215271377563476562e+01 -2.826446056365966797e+00 9.530112743377685547e-01 3.592220306396484375e+00 1.363569498062133789e+00 3.816685378551483154e-01
2.345000000000000000e+03 2.282807159423828125e+01 -5.828623771667480469e+00 6.181308031082153320e-01 1.939037799835205078e+00 7.671505808830261230e-01 2.102100700139999390e-01
2.346000000000000000e+03 2.384184837341308594e+01 -5.546798706054687500e+00 1.124073982238769531e+00 1.064750075340270996e+00 6.566472053527832031e-01 -1.765189133584499359e-02
2.347000000000000000e+03 1.079014492034912109e+01 -3.040289878845214844e+01 -8.212500214576721191e-01 2.345158338546752930e+00 4.571724832057952881e-01 5.430255532264709473e-01
2.348000000000000000e+03 5.908421516418457031e+00 -2.104060935974121094e+01 4.151110351085662842e-01 1.069705843925476074e+00 4.454450607299804688e-01 1.102917075157165527e+00
2.349000000000000000e+03 8.873605728149414062e+00 -2.040326881408691406e+01 8.450793027877807617e-01 2.684719324111938477e+00 1.058939576148986816e+00 1.187353730201721191e+00
2.350000000000000000e+03 6.424823284149169922e+00 -1.373823928833007812e+01 7.188134789466857910e-01 7.751867175102233887e-01 4.482000470161437988e-01 -1.196119338274002075e-01
2.351000000000000000e+03 7.773867607116699219e+00 2.675896263122558594e+01 -5.994497537612915039e-01 2.151967287063598633e+00 4.657552838325500488e-01 -9.085990190505981445e-01
2.352000000000000000e+03 6.812252521514892578e+00 2.754580116271972656e+01 -5.397210121154785156e-01 1.924469947814941406e+00 4.154246747493743896e-01 -8.821709156036376953e-01
2.353000000000000000e+03 8.928452491760253906e+00 9.438280105590820312e+00 1.372002840042114258e+00 1.751725435256958008e+00 9.371184706687927246e-01 2.218101918697357178e-01
2.354000000000000000e+03 6.318322181701660156e+00 7.963366508483886719e+00 6.019892096519470215e-01 2.378455996513366699e-01 2.519504427909851074e-01 8.770186901092529297e-01
2.355000000000000000e+03 9.391133308410644531e+00 3.440411758422851562e+01 -3.907528221607208252e-01 1.878076434135437012e+00 4.461970925331115723e-01 -2.302977889776229858e-01
2.356000000000000000e+03 6.181169509887695312e+00 9.970076560974121094e+00 8.603656888008117676e-01 2.887313663959503174e-01 3.447291254997253418e-01 4.980757236480712891e-01
2.357000000000000000e+03 9.193779945373535156e+00 1.110373020172119141e+01 1.640004396438598633e+00 2.327893018722534180e+00 1.190369129180908203e+00 -1.537446677684783936e-01
2.358000000000000000e+03 1.096342849731445312e+01 2.158647537231445312e+01 -4.035604298114776611e-01 3.992847204208374023e+00 1.076786041259765625e+00 -1.311971664428710938e+00
2.359000000000000000e+03 8.595119476318359375e+00 2.332463455200195312e+01 -4.352708458900451660e-01 2.685256004333496094e+00 6.749955415725708008e-01 -1.294155120849609375e+00
2.360000000000000000e+03 9.883583068847656250e+00 -1.224662113189697266e+01 9.461395740509033203e-01 2.653280735015869141e+00 1.079826116561889648e+00 1.072296872735023499e-02
2.361000000000000000e+03 6.096663284301757812e+01 -2.372368574142456055e+00 1.278471231460571289e+00 3.423661947250366211e+00 1.410639882087707520e+00 9.030316472053527832e-01
2.362000000000000000e+03 6.129252624511718750e+01 -7.892765998840332031e+00 -8.301521651446819305e-03 1.433525681495666504e+00 4.275672733783721924e-01 9.732310473918914795e-02
2.363000000000000000e+03 6.084465026855468750e+00 -7.192640781402587891e+00 5.943902581930160522e-02 2.574761211872100830e-01 9.507454186677932739e-02 -6.763129830360412598e-01
2.364000000000000000e+03 4.190383529663085938e+01 -1.967047691345214844e+01 1.975052595138549805e+00 9.650606155395507812e+00 3.487697601318359375e+00 -1.236583113670349121e+00
2.365000000000000000e+03 3.321387863159179688e+01 -3.151130104064941406e+01 -8.550137877464294434e-01 3.595469474792480469e+00 8.221367001533508301e-01 1.444062948226928711e+00
2.366000000000000000e+03 3.568632888793945312e+01 -3.015502166748046875e+01 -7.002235054969787598e-01 5.464010238647460938e+00 1.429136037826538086e+00 1.176883697509765625e+00
2.367000000000000000e+03 4.147749710083007812e+01 -1.489434242248535156e+01 1.635443687438964844e+00 8.048665046691894531e+00 2.905232667922973633e+00 -1.154617547988891602e+00
2.368000000000000000e+03 5.356833648681640625e+01 -8.832459449768066406e+00 1.801820546388626099e-01 1.666737318038940430e+00 5.540758371353149414e-01 2.080315589904785156e+00
2.369000000000000000e+03 4.039115524291992188e+01 -2.706168746948242188e+01 7.900268435478210449e-01 8.143384933471679688e+00 2.680023431777954102e+00 -2.746190130710601807e-01
2.370000000000000000e+03 3.688707733154296875e+01 -2.888764762878417969e+01 -3.235700130462646484e-01 6.487298011779785156e+00 1.849118351936340332e+00 8.370705842971801758e-01
2.371000000000000000e+03 6.904122829437255859e+00 1.592939472198486328e+01 9.721564054489135742e-01 1.439246177673339844e+00 7.234207391738891602e-01 -9.275269508361816406e-01
2.372000000000000000e+03 6.594741821289062500e+01 2.110631370544433594e+01 -3.594228625297546387e-01 7.339923381805419922e+00 2.094150066375732422e+00 4.627080559730529785e-01
2.373000000000000000e+03 4.470944976806640625e+01 -8.913189888000488281e+00 1.463541984558105469e-01 3.092832565307617188e+00 9.717559814453125000e-01 -2.276374772191047668e-02
2.374000000000000000e+03 5.053294372558593750e+01 -1.034731483459472656e+01 5.588538050651550293e-01 1.004331469535827637e+00 4.689556062221527100e-01 2.430842638015747070e+00
2.375000000000000000e+03 4.957825469970703125e+01 -9.159298896789550781e+00 4.790892004966735840e-01 1.036675930023193359e+00 4.547295272350311279e-01 2.540310382843017578e+00
2.376000000000000000e+03 4.376271820068359375e+01 -1.304325962066650391e+01 1.046275734901428223e+00 5.753247737884521484e+00 2.039857149124145508e+00 -1.164989732205867767e-02
2.377000000000000000e+03 4.627843093872070312e+01 -1.018528270721435547e+01 7.031944394111633301e-01 2.520858049392700195e+00 9.672157764434814453e-01 1.044919967651367188e+00
2.378000000000000000e+03 4.364667510986328125e+01 1.966967391967773438e+01 5.506534874439239502e-02 3.987864732742309570e+00 1.212879061698913574e+00 1.758237957954406738e+00
2.379000000000000000e+03 4.197132110595703125e+01 2.040373039245605469e+01 -3.665303289890289307e-01 4.741450309753417969e+00 1.312476038932800293e+00 1.543886065483093262e+00
2.380000000000000000e+03 4.881872177124023438e+01 2.731407737731933594e+01 -3.050817847251892090e-01 2.194181203842163086e+00 5.667298436164855957e-01 1.263071298599243164e+00
2.381000000000000000e+03 4.317185211181640625e+01 -2.772558212280273438e+01 1.017430186271667480e+00 8.601428985595703125e+00 2.885657787322998047e+00 -1.085092544555664062e+00
2.382000000000000000e+03 4.392152404785156250e+01 -2.710552215576171875e+01 1.518901705741882324e+00 8.882920265197753906e+00 3.120546579360961914e+00 -1.252519369125366211e+00
2.383000000000000000e+03 5.592888259887695312e+01 -1.010152721405029297e+01 -3.064649403095245361e-01 1.127730131149291992e+00 2.463795542716979980e-01 1.344735264778137207e+00
2.384000000000000000e+03 5.694910430908203125e+01 -8.160296440124511719e+00 2.686851322650909424e-01 1.539059877395629883e+00 5.423234701156616211e-01 1.295168876647949219e+00
2.385000000000000000e+03 3.627919769287109375e+01 -4.061272621154785156e+00 -9.165573716163635254e-01 9.568818092346191406e+00 2.595678329467773438e+00 -1.383259177207946777e+00
2.386000000000000000e+03 4.152482986450195312e+01 -9.824183464050292969e+00 -8.906446397304534912e-02 6.402998924255371094e+00 1.894180417060852051e+00 -1.111233234405517578e+00
2.387000000000000000e+03 3.814033889770507812e+01 -8.558151245117187500e+00 -1.121359109878540039e+00 9.148445129394531250e+00 2.408125877380371094e+00 -1.662053465843200684e+00
2.388000000000000000e+03 5.980148315429687500e+01 -6.762763500213623047e+00 5.260947346687316895e-01 1.721343159675598145e+00 6.742314100265502930e-01 6.185287833213806152e-01
2.389000000000000000e+03 1.208745098114013672e+01 9.517830848693847656e+00 1.935541749000549316e+00 4.170409679412841797e+00 1.831785440444946289e+00 -8.867009282112121582e-01
2.390000000000000000e+03 1.130033206939697266e+01 1.079767417907714844e+01 2.082114458084106445e+00 4.009700775146484375e+00 1.827544569969177246e+00 -6.986308097839355469e-01
2.391000000000000000e+03 1.220614624023437500e+01 -2.442583084106445312e+01 -3.316670954227447510e-01 3.740743637084960938e+00 1.022722959518432617e+00 6.986333131790161133e-01
2.392000000000000000e+03 9.281633377075195312e+00 -2.441171073913574219e+01 -1.352550983428955078e-01 2.746979475021362305e+00 7.835173606872558594e-01 1.307405471801757812e+00
2.393000000000000000e+03 4.758704376220703125e+01 2.373477363586425781e+01 -6.086316704750061035e-01 2.317906618118286133e+00 5.127824544906616211e-01 1.505769491195678711e+00
2.394000000000000000e+03 4.893424987792968750e+01 2.489084815979003906e+01 -4.887731075286865234e-01 1.950818061828613281e+00 4.386134743690490723e-01 1.396271586418151855e+00
2.395000000000000000e+03 6.874142456054687500e+01 -7.493323326110839844e+00 -1.176126837730407715e+00 6.714588642120361328e+00 1.661538600921630859e+00 -1.672185182571411133e+00
2.396000000000000000e+03 6.789293670654296875e+01 -8.919826507568359375e+00 -1.421297550201416016e+00 6.443552017211914062e+00 1.506676316261291504e+00 -1.995650649070739746e+00
2.397000000000000000e+03 1.224594688415527344e+01 2.673054122924804688e+01 -1.122298598289489746e+00 2.873895883560180664e+00 5.254791975021362305e-01 -2.575151026248931885e-01
2.398000000000000000e+03 6.694032287597656250e+01 1.059920501708984375e+01 9.544703364372253418e-01 7.898404121398925781e+00 2.655862331390380859e+00 1.782118231058120728e-01
2.399000000000000000e+03 1.077499866485595703e+01 -1.353393173217773438e+01 1.394740104675292969e+00 3.492886781692504883e+00 1.466288089752197266e+00 3.108321130275726318e-01
2.400000000000000000e+03 9.423617362976074219e+00 -1.670776748657226562e+01 1.463385224342346191e+00 2.894224166870117188e+00 1.307282805442810059e+00 7.306862473487854004e-01
2.401000000000000000e+03 3.965310287475585938e+01 -8.724773406982421875e+00 -8.457556366920471191e-01 7.812235355377197266e+00 2.089943885803222656e+00 -1.559310555458068848e+00
2.402000000000000000e+03 1.732398796081542969e+01 -3.110823059082031250e+01 -1.013032317161560059e+00 1.579272508621215820e+00 1.698720604181289673e-01 -3.038043975830078125e-01
2.403000000000000000e+03 3.933855438232421875e+01 -6.057085037231445312e+00 -1.755939602851867676e+00 8.375914573669433594e+00 1.985992431640625000e+00 -1.927415847778320312e+00
2.404000000000000000e+03 3.903334426879882812e+01 -4.750272750854492188e+00 -1.642578363418579102e+00 8.699024200439453125e+00 2.116933584213256836e+00 -1.743704080581665039e+00
2.405000000000000000e+03 9.707200050354003906e+00 2.087205886840820312e+01 1.875803023576736450e-01 3.451067209243774414e+00 1.091594219207763672e+00 -1.489437103271484375e+00
2.406000000000000000e+03 7.729279994964599609e+00 1.692395401000976562e+01 9.321010112762451172e-01 2.013648271560668945e+00 8.837248086929321289e-01 -1.213971018791198730e+00
2.407000000000000000e+03 4.171598052978515625e+01 -1.636638641357421875e+01 1.838202476501464844e+00 8.500153541564941406e+00 3.101506710052490234e+00 -1.125831961631774902e+00
2.408000000000000000e+03 1.568601131439208984e+01 -3.197473716735839844e+01 -9.654196500778198242e-01 1.823160290718078613e+00 2.573221921920776367e-01 -2.251038253307342529e-01
2.409000000000000000e+03 1.860185432434082031e+01 -3.589032363891601562e+01 -5.478610992431640625e-01 1.029492378234863281e+00 1.444893926382064819e-01 -3.187878429889678955e-01
2.410000000000000000e+03 5.967111587524414062e+01 -4.808225154876708984e+00 1.148451924324035645e+00 2.375666379928588867e+00 1.057235479354858398e+00 9.187166690826416016e-01
2.411000000000000000e+03 6.182783508300781250e+01 -5.480109214782714844e+00 6.958864927291870117e-01 2.555168628692626953e+00 9.753165245056152344e-01 4.134397581219673157e-02
2.412000000000000000e+03 6.616624450683593750e+01 3.108530044555664062e+00 6.330279707908630371e-01 6.550962924957275391e+00 2.155197381973266602e+00 -9.859924763441085815e-02
2.413000000000000000e+03 6.687842559814453125e+01 6.567626476287841797e+00 8.550314903259277344e-01 7.225155830383300781e+00 2.424056291580200195e+00 4.099777340888977051e-02
2.414000000000000000e+03 1.080269241333007812e+01 -2.294493484497070312e+01 1.627264916896820068e-01 3.567915916442871094e+00 1.119192719459533691e+00 1.220119237899780273e+00
2.415000000000000000e+03 6.228559494018554688e+01 8.692155033349990845e-02 1.028806447982788086e+00 4.735751628875732422e+00 1.729367375373840332e+00 8.156494498252868652e-01
2.416000000000000000e+03 6.902327728271484375e+01 1.383448314666748047e+01 8.537076711654663086e-01 7.456363677978515625e+00 2.493021249771118164e+00 2.960347235202789307e-01
2.417000000000000000e+03 6.702838897705078125e+01 9.569564819335937500e+00 9.457219243049621582e-01 7.733289718627929688e+00 2.603703498840332031e+00 1.710798740386962891e-01
2.418000000000000000e+03 7.273263549804687500e+01 8.325894355773925781e+00 4.553855657577514648e-01 6.885931968688964844e+00 2.202395200729370117e+00 -3.058443367481231689e-01
2.419000000000000000e+03 3.034082412719726562e+01 2.528385162353515625e+01 -1.021411538124084473e+00 3.505504131317138672e+00 7.452278137207031250e-01 -1.025791406631469727e+00
2.420000000000000000e+03 6.827983856201171875e+01 8.334103584289550781e+00 8.696637749671936035e-01 7.345741271972656250e+00 2.464621543884277344e+00 -6.934411823749542236e-02
2.421000000000000000e+03 6.800317382812500000e+01 1.045915317535400391e+01 9.129628539085388184e-01 7.531534671783447266e+00 2.533349275588989258e+00 8.836074918508529663e-02
2.422000000000000000e+03 3.323612594604492188e+01 -3.319585418701171875e+01 -9.258375167846679688e-01 3.806881904602050781e+00 8.643133044242858887e-01 1.342241525650024414e+00
2.423000000000000000e+03 3.718844604492187500e+01 -3.158315658569335938e+01 -9.784678816795349121e-01 5.911510467529296875e+00 1.479912877082824707e+00 9.275729060173034668e-01
2.424000000000000000e+03 3.165592384338378906e+01 -3.340624237060546875e+01 -8.158944845199584961e-01 2.770226001739501953e+00 5.862994790077209473e-01 1.305282354354858398e+00
2.425000000000000000e+03 2.041445732116699219e+01 -3.292212295532226562e+01 -8.270277380943298340e-01 7.184734940528869629e-01 -3.256626054644584656e-02 -3.683464825153350830e-01
2.426000000000000000e+03 4.267562484741210938e+01 -9.505736351013183594e+00 -5.714073311537504196e-03 5.127083778381347656e+00 1.536410927772521973e+00 -7.856008410453796387e-01
2.427000000000000000e+03 4.103892517089843750e+01 -8.633418083190917969e+00 -6.360000371932983398e-01 6.512981414794921875e+00 1.763094425201416016e+00 -1.438839554786682129e+00
2.428000000000000000e+03 6.582159519195556641e+00 -1.516237831115722656e+01 8.247730731964111328e-01 9.786824584007263184e-01 5.410366654396057129e-01 1.593901813030242920e-01
2.429000000000000000e+03 6.336558914184570312e+01 -3.348284721374511719e+00 7.309458851814270020e-01 3.882975101470947266e+00 1.384176254272460938e+00 -1.913667023181915283e-01
2.430000000000000000e+03 6.437654876708984375e+01 -8.470536470413208008e-01 6.737543940544128418e-01 5.019790172576904297e+00 1.708063364028930664e+00 -5.895905941724777222e-02
2.431000000000000000e+03 5.992034530639648438e+01 2.746003150939941406e+01 -3.177698552608489990e-01 3.214860439300537109e+00 8.691271543502807617e-01 -9.601331353187561035e-01
2.432000000000000000e+03 6.826694488525390625e+00 -3.030485916137695312e+01 -4.480059146881103516e-01 1.849882245063781738e+00 4.205628931522369385e-01 8.318173289299011230e-01
2.433000000000000000e+03 6.653019714355468750e+01 1.936653852462768555e+00 5.104320645332336426e-01 6.331036090850830078e+00 2.052440404891967773e+00 -2.710557579994201660e-01
2.434000000000000000e+03 4.706524276733398438e+01 -3.321218872070312500e+01 -9.745146036148071289e-01 5.797077178955078125e+00 1.446768760681152344e+00 -1.700197100639343262e+00
2.435000000000000000e+03 7.438625335693359375e+01 4.711133837699890137e-01 -4.814631119370460510e-02 7.102983951568603516e+00 2.116451263427734375e+00 -6.781445145606994629e-01
2.436000000000000000e+03 3.516723632812500000e+01 -3.898561716079711914e+00 -4.805521368980407715e-01 9.043947219848632812e+00 2.569018602371215820e+00 -1.143778443336486816e+00
2.437000000000000000e+03 3.312181472778320312e+01 2.198853302001953125e+01 -5.489473342895507812e-01 5.270101547241210938e+00 1.416346192359924316e+00 -5.476770401000976562e-01
2.438000000000000000e+03 3.269561386108398438e+01 2.385158920288085938e+01 -1.009117603302001953e+00 4.591743469238281250e+00 1.074787855148315430e+00 -6.140040159225463867e-01
2.439000000000000000e+03 4.624415969848632812e+01 -1.244584560394287109e+01 1.135248064994812012e+00 3.653083086013793945e+00 1.436499357223510742e+00 1.240900993347167969e+00
2.440000000000000000e+03 7.255361938476562500e+01 -3.052451896667480469e+01 -8.171699643135070801e-01 8.123813629150390625e+00 2.191992998123168945e+00 -3.548745214939117432e-01
2.441000000000000000e+03 4.868393707275390625e+01 -3.751131057739257812e+01 -9.156464338302612305e-01 4.030981063842773438e+00 9.346003532409667969e-01 -1.155648112297058105e+00
2.442000000000000000e+03 4.078364181518554688e+01 -1.205324077606201172e+01 8.189256191253662109e-01 7.569822788238525391e+00 2.516624450683593750e+00 -1.203191280364990234e+00
2.443000000000000000e+03 1.792722129821777344e+01 2.766613006591796875e+01 -7.248261570930480957e-01 1.561796665191650391e+00 2.510911524295806885e-01 5.625050663948059082e-01
2.444000000000000000e+03 1.687132263183593750e+01 3.002258110046386719e+01 -6.260943412780761719e-01 1.711523294448852539e+00 3.256286680698394775e-01 2.977073192596435547e-01
2.445000000000000000e+03 7.461338806152343750e+01 -6.568150997161865234e+00 -5.933067798614501953e-01 7.944329738616943359e+00 2.205306768417358398e+00 -1.489658951759338379e-01
2.446000000000000000e+03 7.334465026855468750e+01 1.989356613159179688e+01 1.026375666260719299e-01 7.080319404602050781e+00 2.154886960983276367e+00 6.567047834396362305e-01
2.447000000000000000e+03 2.547923088073730469e+01 3.059823036193847656e+01 -4.326642155647277832e-01 1.684890270233154297e+00 3.756678402423858643e-01 -6.113721728324890137e-01
2.448000000000000000e+03 2.154720115661621094e+01 -6.416893959045410156e+00 4.003961011767387390e-02 2.554431676864624023e+00 7.783414125442504883e-01 8.270518183708190918e-01
2.449000000000000000e+03 1.992943191528320312e+01 -2.252881765365600586e+00 1.260293006896972656e+00 8.426044464111328125e+00 2.905901193618774414e+00 6.389792263507843018e-02
2.450000000000000000e+03 2.215589714050292969e+01 -5.509197235107421875e+00 7.440131306648254395e-01 2.528248310089111328e+00 9.816784262657165527e-01 3.931160271167755127e-01
2.451000000000000000e+03 2.271563148498535156e+01 -8.446323871612548828e-01 5.981689453125000000e+00 1.061790823936462402e+00 2.113044023513793945e+00 -1.942707657814025879e+00
2.452000000000000000e+03 2.182094383239746094e+01 -1.285442233085632324e+00 5.245173454284667969e+00 3.748137712478637695e+00 2.697993278503417969e+00 -2.609843969345092773e+00
2.453000000000000000e+03 2.336087417602539062e+01 -1.608705222606658936e-01 5.938522338867187500e+00 -5.542920231819152832e-01 1.615269064903259277e+00 -1.208338379859924316e+00
2.454000000000000000e+03 2.140102005004882812e+01 -1.428165912628173828e+00 4.702559471130371094e+00 5.161603450775146484e+00 2.959248781204223633e+00 -2.740470886230468750e+00
2.455000000000000000e+03 1.458168697357177734e+01 -3.256745576858520508e+00 4.018173217773437500e-01 1.172641634941101074e+00 4.723376929759979248e-01 1.683946609497070312e+00
2.456000000000000000e+03 1.402005386352539062e+01 -3.910553932189941406e+00 2.335575520992279053e-01 1.316407918930053711e+00 4.649896323680877686e-01 1.544014334678649902e+00
2.457000000000000000e+03 1.456074523925781250e+01 -4.430045127868652344e+00 2.592507898807525635e-01 1.856766104698181152e+00 6.348050832748413086e-01 1.931147575378417969e+00
2.458000000000000000e+03 1.753345298767089844e+01 4.055585384368896484e+00 -4.078572094440460205e-01 5.636429786682128906e+00 1.568571686744689941e+00 -4.578408718109130859e+00
2.459000000000000000e+03 1.681991767883300781e+01 3.144636631011962891e+00 4.122227132320404053e-01 3.866329193115234375e+00 1.283565521240234375e+00 -4.466014862060546875e+00
2.460000000000000000e+03 1.644442939758300781e+01 3.617434978485107422e+00 2.923109829425811768e-01 3.690528631210327148e+00 1.194851875305175781e+00 -4.096267223358154297e+00
2.461000000000000000e+03 1.652239990234375000e+01 2.843632698059082031e+00 8.132726550102233887e-01 2.764711141586303711e+00 1.073395133018493652e+00 -4.104819297790527344e+00
2.462000000000000000e+03 1.829854583740234375e+01 4.282511711120605469e+00 -1.044983506202697754e+00 6.639572143554687500e+00 1.678376674652099609e+00 -4.321079730987548828e+00
2.463000000000000000e+03 6.397833347320556641e+00 -6.153500556945800781e+00 -5.643040314316749573e-02 2.599317729473114014e-01 6.105041131377220154e-02 -6.522386670112609863e-01
2.464000000000000000e+03 2.209047698974609375e+01 2.891809046268463135e-01 6.767802238464355469e+00 1.873395323753356934e+00 2.592359304428100586e+00 -1.576549768447875977e+00
2.465000000000000000e+03 8.106164932250976562e+00 -6.221082687377929688e+00 -3.805376216769218445e-02 6.862697005271911621e-01 1.944647729396820068e-01 -4.342114925384521484e-01
2.466000000000000000e+03 1.165734100341796875e+01 8.632248878479003906e+00 1.521984577178955078e+00 3.464336395263671875e+00 1.495896220207214355e+00 -5.638486742973327637e-01
2.467000000000000000e+03 1.716921043395996094e+01 3.756106376647949219e+00 3.249266743659973145e-02 4.928566932678222656e+00 1.488317847251892090e+00 -4.702291011810302734e+00
2.468000000000000000e+03 8.262631416320800781e+00 -6.944243431091308594e+00 4.572361707687377930e-02 8.736206889152526855e-01 2.758032977581024170e-01 -3.969264328479766846e-01
2.469000000000000000e+03 1.545210838317871094e+01 -9.209692001342773438e+00 -1.850239336490631104e-01 4.228358268737792969e+00 1.213000297546386719e+00 2.150631904602050781e+00
2.470000000000000000e+03 2.201798439025878906e+01 9.173421859741210938e-01 6.062911033630371094e+00 2.108497858047485352e+00 2.451422691345214844e+00 -7.123173475265502930e-01
2.471000000000000000e+03 8.036393165588378906e+00 -9.327597618103027344e+00 3.222808539867401123e-01 1.195302724838256836e+00 4.552750587463378906e-01 -4.334765076637268066e-01
2.472000000000000000e+03 1.529879474639892578e+01 5.328575611114501953e+00 2.872303724288940430e-01 4.107739448547363281e+00 1.318490982055664062e+00 -2.795767307281494141e+00
2.473000000000000000e+03 1.347087574005126953e+01 5.202923774719238281e+00 3.281756341457366943e-01 2.745101928710937500e+00 9.219832420349121094e-01 -1.348437070846557617e+00
2.474000000000000000e+03 1.163547325134277344e+01 6.801618576049804688e+00 8.829833269119262695e-01 2.509578466415405273e+00 1.017768502235412598e+00 -3.878513574600219727e-01
2.475000000000000000e+03 1.470084571838378906e+01 4.959898471832275391e+00 2.558802962303161621e-01 3.339711904525756836e+00 1.078677654266357422e+00 -2.384648323059082031e+00
2.476000000000000000e+03 1.665848731994628906e+01 -8.818866729736328125e+00 -2.973334789276123047e-01 3.762965202331542969e+00 1.039689540863037109e+00 2.556917428970336914e+00
2.477000000000000000e+03 1.784514045715332031e+01 -8.378329277038574219e+00 -3.845966756343841553e-01 3.364147186279296875e+00 8.938651680946350098e-01 2.563414096832275391e+00
2.478000000000000000e+03 8.944889068603515625e+00 5.901873588562011719e+00 3.021008670330047607e-01 9.251409173011779785e-01 3.681725263595581055e-01 6.846596598625183105e-01
2.479000000000000000e+03 1.084136962890625000e+01 -6.389320373535156250e+00 -1.785037294030189514e-02 1.509393334388732910e+00 4.474628567695617676e-01 3.140537142753601074e-01
2.480000000000000000e+03 1.045661544799804688e+01 -6.097773551940917969e+00 -1.189622376114130020e-02 1.251199483871459961e+00 3.717909753322601318e-01 2.107721567153930664e-01
2.481000000000000000e+03 8.134791374206542969e+00 6.059578418731689453e+00 3.025666773319244385e-01 6.534955501556396484e-01 2.868186831474304199e-01 8.629244565963745117e-01
2.482000000000000000e+03 2.479705429077148438e+01 -4.219141483306884766e+00 2.827840089797973633e+00 3.006317019462585449e-01 9.385415315628051758e-01 -1.441821455955505371e-01
2.483000000000000000e+03 2.385166168212890625e+01 -9.988909363746643066e-01 5.690706253051757812e+00 -4.210922718048095703e-01 1.580884218215942383e+00 -1.137532711029052734e+00
2.484000000000000000e+03 2.105864906311035156e+01 -5.985394954681396484e+00 9.735850244760513306e-02 3.241554021835327148e+00 1.001673817634582520e+00 1.064308762550354004e+00
2.485000000000000000e+03 1.206147766113281250e+01 -5.522101402282714844e+00 -2.052936516702175140e-02 1.558544874191284180e+00 4.614046514034271240e-01 7.949985265731811523e-01
2.486000000000000000e+03 1.285285663604736328e+01 -5.174020767211914062e+00 3.431614860892295837e-02 1.645418047904968262e+00 5.039202570915222168e-01 1.140322685241699219e+00
2.487000000000000000e+03 7.430547714233398438e+00 7.131117820739746094e+00 5.679618716239929199e-01 5.571357011795043945e-01 3.375292718410491943e-01 8.707647919654846191e-01
2.488000000000000000e+03 1.411394977569580078e+01 4.972753047943115234e+00 2.917035818099975586e-01 2.954091072082519531e+00 9.737384319305419922e-01 -1.875733733177185059e+00
2.489000000000000000e+03 1.265165424346923828e+01 6.010608196258544922e+00 6.275166869163513184e-01 2.749783754348754883e+00 1.013190150260925293e+00 -9.076121449470520020e-01
2.490000000000000000e+03 1.174937152862548828e+01 -6.211712360382080078e+00 1.170520903542637825e-03 1.717780470848083496e+00 5.156853199005126953e-01 6.681236624717712402e-01
2.491000000000000000e+03 1.201916408538818359e+01 7.471921443939208984e+00 1.116566300392150879e+00 3.154477119445800781e+00 1.281313061714172363e+00 -6.168076992034912109e-01
2.492000000000000000e+03 9.914123535156250000e+00 6.526946544647216797e+00 6.120179891586303711e-01 1.513514995574951172e+00 6.376599073410034180e-01 3.448181748390197754e-01
2.493000000000000000e+03 8.296178817749023438e+00 6.923722743988037109e+00 5.954179763793945312e-01 9.113752245903015137e-01 4.520379304885864258e-01 7.396984696388244629e-01
2.494000000000000000e+03 1.264445018768310547e+01 -5.815928936004638672e+00 2.372524887323379517e-02 1.822059869766235352e+00 5.537355542182922363e-01 1.123045921325683594e+00
2.495000000000000000e+03 1.000725746154785156e+01 1.371506690979003906e+01 1.789560437202453613e+00 3.677267074584960938e+00 1.640048265457153320e+00 -9.053978323936462402e-01
2.496000000000000000e+03 1.250100612640380859e+01 8.192133903503417969e+00 1.469874501228332520e+00 3.813055276870727539e+00 1.584878921508789062e+00 -9.100361466407775879e-01
2.497000000000000000e+03 6.329172134399414062e+00 1.483995723724365234e+01 9.580413103103637695e-01 8.562713861465454102e-01 5.442938208580017090e-01 -6.477650403976440430e-01
2.498000000000000000e+03 8.321092605590820312e+00 1.208163928985595703e+01 1.462139248847961426e+00 1.919428467750549316e+00 1.014470338821411133e+00 -2.156815528869628906e-01
2.499000000000000000e+03 6.309719085693359375e+00 -1.235644817352294922e+01 5.498790740966796875e-01 6.557726860046386719e-01 3.616955280303955078e-01 -3.255786299705505371e-01
2.500000000000000000e+03 7.764801502227783203e+00 -1.480791282653808594e+01 1.029890775680541992e+00 1.569862961769104004e+00 7.799261212348937988e-01 1.436767578125000000e-01
2.501000000000000000e+03 2.012778854370117188e+01 -8.098143577575683594e+00 -5.439043045043945312e-01 2.529965639114379883e+00 5.958184003829956055e-01 1.735562682151794434e+00
2.502000000000000000e+03 2.465145874023437500e+01 -2.044158458709716797e+00 4.985331058502197266e+00 -4.268827438354492188e-01 1.367534518241882324e+00 -6.779622435569763184e-01
2.503000000000000000e+03 2.486724662780761719e+01 -5.035096168518066406e+00 1.808239698410034180e+00 2.975710332393646240e-01 6.317432522773742676e-01 9.408872574567794800e-03
2.504000000000000000e+03 2.568045234680175781e+01 -4.135384082794189453e+00 3.089955568313598633e+00 -2.469799518585205078e-01 8.528926372528076172e-01 -3.421084955334663391e-02
2.505000000000000000e+03 3.831406402587890625e+01 -9.833180427551269531e+00 -4.070587754249572754e-01 8.981760978698730469e+00 2.572410821914672852e+00 -1.574270844459533691e+00
2.506000000000000000e+03 7.386462402343750000e+01 -5.058170795440673828e+00 -5.278829336166381836e-01 7.646061897277832031e+00 2.135453701019287109e+00 -4.655233621597290039e-01
2.507000000000000000e+03 6.789691162109375000e+01 -7.669881343841552734e+00 -1.055044412612915039e+00 6.086688041687011719e+00 1.509493112564086914e+00 -1.914781689643859863e+00
2.508000000000000000e+03 3.800390243530273438e+01 -2.279868888854980469e+01 1.680917620658874512e+00 9.275987625122070312e+00 3.287071466445922852e+00 -2.856782674789428711e-01
2.509000000000000000e+03 1.066998672485351562e+01 6.330650806427001953e+00 6.134555339813232422e-01 1.762902736663818359e+00 7.129074931144714355e-01 9.585501253604888916e-02
2.510000000000000000e+03 6.183362579345703125e+01 -7.024925231933593750e+00 3.817047774791717529e-01 1.925486087799072266e+00 6.921572685241699219e-01 -3.717659041285514832e-02
2.511000000000000000e+03 6.396545028686523438e+01 -2.061359167098999023e+00 6.278486251831054688e-01 4.589346885681152344e+00 1.565158605575561523e+00 -1.367025375366210938e-01
2.512000000000000000e+03 2.312203407287597656e+01 -4.628809452056884766e+00 1.790821671485900879e+00 1.725546479225158691e+00 1.054910421371459961e+00 -2.625692188739776611e-01
2.513000000000000000e+03 2.066369819641113281e+01 -1.949488759040832520e+00 2.653592109680175781e+00 7.342563152313232422e+00 2.998846530914306641e+00 -1.681815862655639648e+00
2.514000000000000000e+03 4.112561416625976562e+01 -1.348637104034423828e+01 1.266697764396667480e+00 7.694099426269531250e+00 2.688239097595214844e+00 -1.099709272384643555e+00
2.515000000000000000e+03 4.194121932983398438e+01 -1.084159851074218750e+01 4.539230763912200928e-01 6.266503334045410156e+00 2.016128063201904297e+00 -8.293489813804626465e-01
2.516000000000000000e+03 1.336046600341796875e+01 -8.902632713317871094e+00 -1.904782094061374664e-02 3.502408981323242188e+00 1.045008301734924316e+00 1.200770616531372070e+00
2.517000000000000000e+03 1.202822017669677734e+01 -9.868503570556640625e+00 2.634059488773345947e-01 3.280113220214843750e+00 1.063055753707885742e+00 6.035124063491821289e-01
2.518000000000000000e+03 1.208643531799316406e+01 -1.272034835815429688e+01 1.303026318550109863e+00 4.312840461730957031e+00 1.684759974479675293e+00 5.170417428016662598e-01
2.519000000000000000e+03 7.296471405029296875e+01 1.460875129699707031e+01 4.316771030426025391e-01 6.938722610473632812e+00 2.211119890213012695e+00 3.098851442337036133e-01
2.520000000000000000e+03 4.524200439453125000e+01 -9.700685501098632812e+00 4.867906868457794189e-01 3.008153438568115234e+00 1.048483252525329590e+00 5.280099511146545410e-01
2.521000000000000000e+03 1.024443340301513672e+01 1.186321926116943359e+01 1.892230272293090820e+00 3.404640436172485352e+00 1.589061260223388672e+00 -5.665633678436279297e-01
2.522000000000000000e+03 3.819952774047851562e+01 1.722785186767578125e+01 1.366966366767883301e-01 6.930709362030029297e+00 2.120221853256225586e+00 6.696044206619262695e-01
2.523000000000000000e+03 3.724024963378906250e+01 1.715716552734375000e+01 6.587152183055877686e-02 7.127190113067626953e+00 2.157918453216552734e+00 2.436272948980331421e-01
2.524000000000000000e+03 5.846330261230468750e+01 -9.137820243835449219e+00 -2.487003207206726074e-01 1.189027667045593262e+00 2.820981740951538086e-01 8.815306425094604492e-01
2.525000000000000000e+03 5.302008438110351562e+01 -9.917889595031738281e+00 1.247276645153760910e-02 1.258958339691162109e+00 3.814293444156646729e-01 2.163680076599121094e+00
2.526000000000000000e+03 7.816618919372558594e+00 -1.982253837585449219e+01 8.334750533103942871e-01 2.066133260726928711e+00 8.698825240135192871e-01 1.116284251213073730e+00
2.527000000000000000e+03 2.394709968566894531e+01 -4.861594200134277344e+00 1.866978883743286133e+00 1.117859721183776855e+00 8.954516053199768066e-01 -1.164679750800132751e-01
2.528000000000000000e+03 2.396060562133789062e+01 -4.171782970428466797e+00 2.535511732101440430e+00 9.045117497444152832e-01 1.032006978988647461e+00 -3.451602160930633545e-01
2.529000000000000000e+03 7.358354949951171875e+01 8.680855751037597656e+00 3.702322840690612793e-01 6.818038940429687500e+00 2.156481504440307617e+00 -2.681277096271514893e-01
2.530000000000000000e+03 1.601622200012207031e+01 5.692718029022216797e+00 1.678380519151687622e-01 4.844411373138427734e+00 1.503674745559692383e+00 -3.221406698226928711e+00
2.531000000000000000e+03 1.482506847381591797e+01 5.910465240478515625e+00 5.444479584693908691e-01 4.271407127380371094e+00 1.444756507873535156e+00 -2.367653846740722656e+00
2.532000000000000000e+03 7.216271972656250000e+01 2.305222892761230469e+01 -1.926544010639190674e-01 7.159331321716308594e+00 2.090003252029418945e+00 6.295157670974731445e-01
2.533000000000000000e+03 3.562749099731445312e+01 -1.970948934555053711e+00 6.282024383544921875e-01 9.625497817993164062e+00 3.076109886169433594e+00 -6.556481122970581055e-01
2.534000000000000000e+03 4.427847290039062500e+01 -1.029367542266845703e+01 4.725514948368072510e-01 4.034259319305419922e+00 1.352043271064758301e+00 6.558064371347427368e-02
2.535000000000000000e+03 7.316909027099609375e+01 3.164390325546264648e+00 1.585399061441421509e-01 6.897785663604736328e+00 2.116897583007812500e+00 -6.760838627815246582e-01
2.536000000000000000e+03 6.957466125488281250e+01 3.455342054367065430e+00 4.002894461154937744e-01 6.769069671630859375e+00 2.150807857513427734e+00 -5.933305621147155762e-01
2.537000000000000000e+03 6.779420471191406250e+01 5.696321487426757812e+00 6.916195154190063477e-01 6.963672161102294922e+00 2.296587467193603516e+00 -2.200839370489120483e-01
2.538000000000000000e+03 7.104889678955078125e+01 -3.671302795410156250e+00 -4.762771427631378174e-01 6.966319561004638672e+00 1.947012782096862793e+00 -1.002762556076049805e+00
2.539000000000000000e+03 7.320309448242187500e+01 -3.274003505706787109e+00 -4.113224744796752930e-01 7.373563766479492188e+00 2.088672399520874023e+00 -6.842095851898193359e-01
2.540000000000000000e+03 7.247050476074218750e+01 -1.782785034179687500e+01 2.056584596633911133e+00 1.041626644134521484e+01 3.741855382919311523e+00 -1.995006799697875977e-01
2.541000000000000000e+03 6.019988250732421875e+01 -7.828305721282958984e+00 1.104528084397315979e-01 1.570005416870117188e+00 5.041374564170837402e-01 5.488703846931457520e-01
2.542000000000000000e+03 6.727956390380859375e+01 2.053095054626464844e+01 1.435770373791456223e-02 7.437550544738769531e+00 2.235572338104248047e+00 6.103711128234863281e-01
2.543000000000000000e+03 1.592065429687500000e+01 -8.441578865051269531e+00 -3.467476367950439453e-01 3.847750186920166016e+00 1.050300717353820801e+00 2.414777755737304688e+00
2.544000000000000000e+03 3.526364135742187500e+01 -5.865431785583496094e+00 -1.382726073265075684e+00 9.041189193725585938e+00 2.297538995742797852e+00 -1.790701270103454590e+00
2.545000000000000000e+03 7.338526153564453125e+01 2.552709770202636719e+01 -2.279947251081466675e-01 7.204298019409179688e+00 2.092890977859497070e+00 4.911546707153320312e-01
2.546000000000000000e+03 7.179070949554443359e+00 -8.284889221191406250e+00 1.827412247657775879e-01 7.371883988380432129e-01 2.759788930416107178e-01 -5.471472740173339844e-01
2.547000000000000000e+03 6.132632827758789062e+01 2.682593727111816406e+01 -7.153738737106323242e-01 4.175487995147705078e+00 1.038034200668334961e+00 -1.178651094436645508e+00
2.548000000000000000e+03 7.801979064941406250e+00 2.501828384399414062e+01 -5.677798986434936523e-01 2.289520263671875000e+00 5.165221691131591797e-01 -1.118358492851257324e+00
2.549000000000000000e+03 1.103580379486083984e+01 -1.239466285705566406e+01 1.093712568283081055e+00 3.550476789474487305e+00 1.393256783485412598e+00 2.138468623161315918e-01
2.550000000000000000e+03 7.312717437744140625e+01 1.095629310607910156e+01 4.513365626335144043e-01 6.857571601867675781e+00 2.192672491073608398e+00 -4.976441338658332825e-02
2.551000000000000000e+03 6.861759948730468750e+01 1.264857673645019531e+01 8.756988048553466797e-01 7.504764080047607422e+00 2.514138936996459961e+00 1.841164529323577881e-01
2.552000000000000000e+03 7.363509368896484375e+01 -1.095685291290283203e+01 -5.851441025733947754e-01 8.782767295837402344e+00 2.459286928176879883e+00 5.277825593948364258e-01
2.553000000000000000e+03 7.205935668945312500e+01 -4.596247196197509766e+00 -6.726749539375305176e-01 7.364352703094482422e+00 2.007503271102905273e+00 -8.551172018051147461e-01
2.554000000000000000e+03 7.236972808837890625e+01 1.619204330444335938e+01 4.156243801116943359e-01 7.044796466827392578e+00 2.238126277923583984e+00 4.811227321624755859e-01
2.555000000000000000e+03 1.387274074554443359e+01 6.963085174560546875e+00 9.909154176712036133e-01 4.213082790374755859e+00 1.561199545860290527e+00 -1.668503046035766602e+00
2.556000000000000000e+03 7.308591461181640625e+01 5.828828334808349609e+00 3.130239248275756836e-01 6.845229625701904297e+00 2.147475957870483398e+00 -5.211433768272399902e-01
2.557000000000000000e+03 6.767785644531250000e+01 2.292488098144531250e+00 4.577091336250305176e-01 6.453437805175781250e+00 2.073343992233276367e+00 -4.629367887973785400e-01
2.558000000000000000e+03 7.347440338134765625e+01 -6.287303924560546875e+00 -7.490246295928955078e-01 7.881597042083740234e+00 2.139771699905395508e+00 -3.854818046092987061e-01
2.559000000000000000e+03 7.700245380401611328e+00 -2.621586608886718750e+01 -3.151914477348327637e-01 2.116967201232910156e+00 5.405327677726745605e-01 1.230656504631042480e+00
2.560000000000000000e+03 8.547136306762695312e+00 1.595200443267822266e+01 1.283070802688598633e+00 2.634471654891967773e+00 1.175262689590454102e+00 -1.055405735969543457e+00
2.561000000000000000e+03 1.126765918731689453e+01 -2.844574737548828125e+01 -8.370496034622192383e-01 2.695345640182495117e+00 5.574887990951538086e-01 6.550574302673339844e-01
2.562000000000000000e+03 9.185530662536621094e+00 -1.514226627349853516e+01 1.350946784019470215e+00 2.597282171249389648e+00 1.184468746185302734e+00 3.676546514034271240e-01
2.563000000000000000e+03 7.241868972778320312e+00 -2.117262840270996094e+01 5.355808734893798828e-01 1.727090835571289062e+00 6.788014769554138184e-01 1.242774367332458496e+00
2.564000000000000000e+03 9.496611595153808594e+00 1.915197753906250000e+01 6.313856840133666992e-01 3.553332328796386719e+00 1.255415439605712891e+00 -1.408193469047546387e+00
2.565000000000000000e+03 6.825989532470703125e+01 1.150806045532226562e+01 9.028437733650207520e-01 7.586828231811523438e+00 2.546901464462280273e+00 1.269823014736175537e-01
2.566000000000000000e+03 7.558560371398925781e+00 -1.347928905487060547e+01 8.514704704284667969e-01 1.397836565971374512e+00 6.747921109199523926e-01 -9.941900521516799927e-02
2.567000000000000000e+03 3.841262435913085938e+01 2.381022071838378906e+01 -9.531847834587097168e-01 4.976150512695312500e+00 1.206889629364013672e+00 6.852440834045410156e-01
2.568000000000000000e+03 7.639770507812500000e+00 8.009572982788085938e+00 7.754202485084533691e-01 7.935385704040527344e-01 4.706876575946807861e-01 7.212170362472534180e-01
2.569000000000000000e+03 1.067124938964843750e+01 3.179021263122558594e+01 -6.159914731979370117e-01 2.084413290023803711e+00 4.405265748500823975e-01 -2.431225925683975220e-01
2.570000000000000000e+03 1.005761528015136719e+01 1.574989128112792969e+01 1.496847867965698242e+00 3.859704494476318359e+00 1.606965780258178711e+00 -1.125054478645324707e+00
2.571000000000000000e+03 1.020502376556396484e+01 1.095332622528076172e+01 1.827363252639770508e+00 3.085227489471435547e+00 1.473777294158935547e+00 -4.809686243534088135e-01
2.572000000000000000e+03 6.694911193847656250e+01 -7.411067485809326172e+00 -7.854366302490234375e-01 5.314525604248046875e+00 1.358726739883422852e+00 -1.835379719734191895e+00
2.573000000000000000e+03 5.233616638183593750e+01 -8.472157478332519531e+00 1.718771755695343018e-01 1.541159987449645996e+00 5.139111280441284180e-01 2.482592821121215820e+00
2.574000000000000000e+03 6.388651275634765625e+01 2.360507583618164062e+01 -1.177995681762695312e+00 6.379310131072998047e+00 1.560394287109375000e+00 -4.478612244129180908e-01
2.575000000000000000e+03 3.830550765991210938e+01 1.817817687988281250e+01 -1.411738246679306030e-01 6.522213459014892578e+00 1.914311885833740234e+00 6.792620420455932617e-01
2.576000000000000000e+03 3.814716339111328125e+01 -6.230658531188964844e+00 -1.760862350463867188e+00 9.043134689331054688e+00 2.184681653976440430e+00 -1.739087462425231934e+00
2.577000000000000000e+03 9.228111267089843750e+00 2.840067672729492188e+01 -7.623004317283630371e-01 2.319046020507812500e+00 4.670236706733703613e-01 -6.397118568420410156e-01
2.578000000000000000e+03 8.387989997863769531e+00 1.288800811767578125e+01 1.536866545677185059e+00 2.016414165496826172e+00 1.065984249114990234e+00 -4.899113476276397705e-01
2.579000000000000000e+03 6.441470623016357422e+00 1.186568164825439453e+01 9.671746492385864258e-01 6.073479652404785156e-01 4.723567962646484375e-01 3.888154029846191406e-02
2.580000000000000000e+03 7.138615417480468750e+01 -2.664132690429687500e+01 -8.958367705345153809e-01 8.883666038513183594e+00 2.396348953247070312e+00 -6.179132461547851562e-01
2.581000000000000000e+03 7.098681640625000000e+01 1.859676933288574219e+01 2.988191545009613037e-01 7.149340152740478516e+00 2.234447717666625977e+00 6.672970056533813477e-01
2.582000000000000000e+03 6.096310424804687500e+01 -6.166809558868408203e+00 6.048449277877807617e-01 2.065042495727539062e+00 8.009662032127380371e-01 3.465318381786346436e-01
2.583000000000000000e+03 7.122007751464843750e+01 -2.986899948120117188e+01 -1.014559149742126465e+00 7.829066753387451172e+00 2.044352293014526367e+00 -1.178661063313484192e-01
2.584000000000000000e+03 7.029406738281250000e+01 -3.094726753234863281e+01 -9.846547245979309082e-01 7.216320514678955078e+00 1.869499802589416504e+00 1.676801294088363647e-01
2.585000000000000000e+03 3.179378890991210938e+01 -3.483584976196289062e+01 -8.248409032821655273e-01 2.889604568481445312e+00 6.194290518760681152e-01 1.175354003906250000e+00
2.586000000000000000e+03 3.408565521240234375e+01 -3.445839309692382812e+01 -1.082493185997009277e+00 4.109008789062500000e+00 9.079546928405761719e-01 1.140234827995300293e+00
2.587000000000000000e+03 1.457671260833740234e+01 2.706525039672851562e+01 -1.072728991508483887e+00 2.488158464431762695e+00 4.246288836002349854e-01 3.274945616722106934e-01
2.588000000000000000e+03 6.667476654052734375e+01 1.919883537292480469e+01 3.815093338489532471e-01 7.526864051818847656e+00 2.372512102127075195e+00 5.523829460144042969e-01
2.589000000000000000e+03 6.942538452148437500e+01 1.505991172790527344e+01 7.500993013381958008e-01 7.366462230682373047e+00 2.434968471527099609e+00 3.849642276763916016e-01
2.590000000000000000e+03 6.968805694580078125e+01 2.713026809692382812e+01 -5.304992794990539551e-01 6.839819908142089844e+00 1.892796158790588379e+00 1.836201995611190796e-01
2.591000000000000000e+03 4.471685409545898438e+01 -1.146372890472412109e+01 8.471935391426086426e-01 4.277439594268798828e+00 1.537389993667602539e+00 4.323153495788574219e-01
2.592000000000000000e+03 7.189862060546875000e+01 5.245844125747680664e-01 2.212197054177522659e-03 6.893967151641845703e+00 2.068853616714477539e+00 -8.171615600585937500e-01
2.593000000000000000e+03 7.193337249755859375e+01 -1.596526026725769043e+00 -2.132546007633209229e-01 6.981529235839843750e+00 2.030482530593872070e+00 -8.703107237815856934e-01
2.594000000000000000e+03 7.249780273437500000e+01 -2.666120529174804688e+00 -3.798388838768005371e-01 7.156464099884033203e+00 2.032987594604492188e+00 -8.518466353416442871e-01
2.595000000000000000e+03 1.106605243682861328e+01 9.843613624572753906e+00 1.849922895431518555e+00 3.549677848815917969e+00 1.619880199432373047e+00 -5.041867494583129883e-01
2.596000000000000000e+03 7.148303985595703125e+01 1.415430736541748047e+01 5.936227440834045410e-01 7.098828315734863281e+00 2.307735204696655273e+00 3.130034208297729492e-01
2.597000000000000000e+03 7.293054199218750000e+01 -7.492708683013916016e+00 -9.358200430870056152e-01 8.107961654663085938e+00 2.151642560958862305e+00 -3.535239398479461670e-01
2.598000000000000000e+03 7.340962982177734375e+01 7.663922309875488281e+00 3.691584467887878418e-01 6.833113670349121094e+00 2.160681724548339844e+00 -3.690720498561859131e-01
2.599000000000000000e+03 7.203050231933593750e+01 6.005265712738037109e+00 4.029556810855865479e-01 6.885328769683837891e+00 2.186485290527343750e+00 -4.982748925685882568e-01
2.600000000000000000e+03 4.632371520996093750e+01 2.259906578063964844e+01 -4.886174798011779785e-01 2.763604879379272461e+00 6.824961900711059570e-01 1.557725191116333008e+00
2.601000000000000000e+03 4.503200149536132812e+01 2.363373756408691406e+01 -6.418451070785522461e-01 3.290354490280151367e+00 7.945528030395507812e-01 1.566607594490051270e+00
2.602000000000000000e+03 4.368296432495117188e+01 2.470807075500488281e+01 -7.238157391548156738e-01 3.668518304824829102e+00 8.834107518196105957e-01 1.447845458984375000e+00
2.603000000000000000e+03 7.294188690185546875e+01 -2.449572372436523438e+01 -1.803951114416122437e-01 9.355597496032714844e+00 2.752560853958129883e+00 -1.240730404853820801e+00
2.604000000000000000e+03 9.547772407531738281e+00 -3.412071228027343750e+01 -5.700829625129699707e-01 1.929918169975280762e+00 4.079505801200866699e-01 4.006650149822235107e-01
2.605000000000000000e+03 4.709109115600585938e+01 -1.092643833160400391e+01 9.745346903800964355e-01 2.371758937835693359e+00 1.003888130187988281e+00 1.666208982467651367e+00
2.606000000000000000e+03 7.011630058288574219e+00 2.581897735595703125e+01 -5.342138409614562988e-01 2.036947965621948242e+00 4.508202075958251953e-01 -1.060107469558715820e+00
2.607000000000000000e+03 8.781826019287109375e+00 2.440273094177246094e+01 -7.217667698860168457e-01 2.702129364013671875e+00 5.941087603569030762e-01 -1.145708560943603516e+00
2.608000000000000000e+03 1.159937191009521484e+01 2.917332267761230469e+01 -8.805059790611267090e-01 2.417402744293212891e+00 4.610690474510192871e-01 -2.521114349365234375e-01
2.609000000000000000e+03 3.429157257080078125e+01 -2.518931150436401367e+00 8.052403330802917480e-01 8.545085906982421875e+00 2.805097818374633789e+00 -4.453373551368713379e-01
2.610000000000000000e+03 1.546436500549316406e+01 2.878232765197753906e+01 -8.220272064208984375e-01 2.133033752441406250e+00 3.933019638061523438e-01 3.399627506732940674e-01
2.611000000000000000e+03 7.228095245361328125e+01 2.081927299499511719e+01 1.181728392839431763e-02 7.130252361297607422e+00 2.142621040344238281e+00 6.928393840789794922e-01
2.612000000000000000e+03 4.262014389038085938e+01 -2.880596733093261719e+01 3.844238817691802979e-01 8.064478874206542969e+00 2.534670829772949219e+00 -5.321932435035705566e-01
2.613000000000000000e+03 8.748792648315429688e+00 1.996226692199707031e+01 3.280763626098632812e-01 2.820004224777221680e+00 9.444242119789123535e-01 -1.483637094497680664e+00
2.614000000000000000e+03 4.142770767211914062e+01 -2.803368949890136719e+01 5.541172623634338379e-01 8.110179901123046875e+00 2.599289178848266602e+00 -3.722140789031982422e-01
2.615000000000000000e+03 4.234635543823242188e+01 -2.681279754638671875e+01 1.390304684638977051e+00 8.679677009582519531e+00 3.020994663238525391e+00 -7.761104106903076172e-01
2.616000000000000000e+03 7.133554077148437500e+01 -1.061170387268066406e+01 -1.248433113098144531e+00 9.222489356994628906e+00 2.392216682434082031e+00 -2.754036486148834229e-01
2.617000000000000000e+03 7.894776821136474609e+00 -2.897802925109863281e+01 -5.453122854232788086e-01 2.108004331588745117e+00 4.688076376914978027e-01 9.448748826980590820e-01
2.618000000000000000e+03 6.971590423583984375e+01 1.214621925354003906e+01 7.929094433784484863e-01 7.296903133392333984e+00 2.426943778991699219e+00 1.394941955804824829e-01
2.619000000000000000e+03 8.142622947692871094e+00 3.069718170166015625e+01 -5.346984863281250000e-01 1.992890000343322754e+00 4.374574720859527588e-01 -5.067589282989501953e-01
2.620000000000000000e+03 9.314474105834960938e+00 -3.631058120727539062e+01 -4.751770496368408203e-01 1.821772217750549316e+00 4.039785563945770264e-01 2.844184637069702148e-01
2.621000000000000000e+03 1.585722160339355469e+01 -3.390496444702148438e+01 -8.033211231231689453e-01 1.601051807403564453e+00 2.393191903829574585e-01 -2.035845071077346802e-01
2.622000000000000000e+03 6.923156738281250000e+01 2.516262817382812500e+01 -5.645157098770141602e-01 6.968204975128173828e+00 1.921106696128845215e+00 3.208867907524108887e-01
2.623000000000000000e+03 9.585097312927246094e+00 -1.432959651947021484e+01 1.367758989334106445e+00 2.725710868835449219e+00 1.228040933609008789e+00 2.523536086082458496e-01
2.624000000000000000e+03 6.926457977294921875e+01 7.961218357086181641e+00 7.333457469940185547e-01 7.136962890625000000e+00 2.361092567443847656e+00 -2.089887857437133789e-01
2.625000000000000000e+03 7.113224792480468750e+01 6.692509174346923828e+00 4.975380599498748779e-01 6.930722713470458984e+00 2.228478193283081055e+00 -4.229916930198669434e-01
2.626000000000000000e+03 1.899486160278320312e+01 3.038563537597656250e+01 -4.186195731163024902e-01 1.417963266372680664e+00 2.998031377792358398e-01 2.493481636047363281e-01
2.627000000000000000e+03 1.958791542053222656e+01 3.300964355468750000e+01 -3.352751731872558594e-01 1.530539751052856445e+00 3.585793673992156982e-01 4.833347722887992859e-02
2.628000000000000000e+03 3.359941101074218750e+01 2.708824920654296875e+01 -1.160088777542114258e+00 4.147963047027587891e+00 8.963623046875000000e-01 -3.510382771492004395e-01
2.629000000000000000e+03 2.987785530090332031e+01 2.668592262268066406e+01 -9.530443549156188965e-01 3.137949705123901367e+00 6.554716229438781738e-01 -9.679210186004638672e-01
2.630000000000000000e+03 6.290692520141601562e+01 -7.761170387268066406e+00 -8.325739763677120209e-03 1.702220678329467773e+00 5.081684589385986328e-01 -6.161635518074035645e-01
2.631000000000000000e+03 7.294532012939453125e+01 -2.924458503723144531e+01 -8.387675285339355469e-01 8.464715003967285156e+00 2.287784337997436523e+00 -5.801198482513427734e-01
2.632000000000000000e+03 5.317131805419921875e+01 3.083737754821777344e+01 1.940635740756988525e-01 2.051304578781127930e+00 6.736104488372802734e-01 4.668798148632049561e-01
2.633000000000000000e+03 5.552960586547851562e+01 3.009042549133300781e+01 2.338334470987319946e-01 2.104793548583984375e+00 7.015880942344665527e-01 2.565221488475799561e-02
2.634000000000000000e+03 3.664247131347656250e+01 -8.630411148071289062e+00 -1.176790356636047363e+00 9.633607864379882812e+00 2.537045240402221680e+00 -1.728089690208435059e+00
2.635000000000000000e+03 6.427962493896484375e+01 2.583494782447814941e-01 6.739366650581359863e-01 5.386270523071289062e+00 1.818062186241149902e+00 1.553482264280319214e-01
2.636000000000000000e+03 7.129315948486328125e+01 -4.700427651405334473e-01 -8.074864745140075684e-02 6.825374603271484375e+00 2.023387670516967773e+00 -8.631967306137084961e-01
2.637000000000000000e+03 6.855867767333984375e+01 6.776546478271484375e+00 7.274892926216125488e-01 7.106305122375488281e+00 2.350138425827026367e+00 -2.319756895303726196e-01
2.638000000000000000e+03 6.683850860595703125e+01 4.882381439208984375e+00 7.201216816902160645e-01 6.878090381622314453e+00 2.279463529586791992e+00 -1.053308472037315369e-01
2.639000000000000000e+03 6.277276992797851562e+01 -1.621662139892578125e+00 9.508051872253417969e-01 4.249446868896484375e+00 1.560075640678405762e+00 3.729726076126098633e-01
2.640000000000000000e+03 6.089135360717773438e+01 -5.105927467346191406e+00 8.365318179130554199e-01 2.370397329330444336e+00 9.620787501335144043e-01 4.200955033302307129e-01
2.641000000000000000e+03 9.221124649047851562e+00 -2.593474197387695312e+01 -3.945733308792114258e-01 2.653326988220214844e+00 6.776260733604431152e-01 1.192145228385925293e+00
2.642000000000000000e+03 1.281849861145019531e+01 -2.715766906738281250e+01 -8.454881310462951660e-01 3.022701978683471680e+00 6.531642079353332520e-01 4.036144912242889404e-01
2.643000000000000000e+03 6.533603668212890625e+01 1.671424865722656250e+00 5.921465158462524414e-01 6.101325511932373047e+00 2.008041620254516602e+00 -9.867242537438869476e-03
2.644000000000000000e+03 2.019184112548828125e+01 -3.472357177734375000e+01 -6.456457376480102539e-01 7.771678566932678223e-01 3.945663943886756897e-02 -3.898337781429290771e-01
2.645000000000000000e+03 1.862447166442871094e+01 -3.240480041503906250e+01 -8.613653182983398438e-01 1.218221068382263184e+00 1.070567294955253601e-01 -3.948755860328674316e-01
2.646000000000000000e+03 1.874474906921386719e+01 -2.456724405288696289e+00 8.536195755004882812e-01 6.935957908630371094e+00 2.336873292922973633e+00 2.789366006851196289e+00
2.647000000000000000e+03 1.889649200439453125e+01 -3.033651351928710938e+00 5.305557847023010254e-01 6.300235748291015625e+00 2.049237489700317383e+00 2.379412174224853516e+00
2.648000000000000000e+03 1.756562042236328125e+01 -2.642674446105957031e+00 1.242572665214538574e+00 3.966511249542236328e+00 1.562725186347961426e+00 3.366345405578613281e+00
2.649000000000000000e+03 1.933041572570800781e+01 -6.269816875457763672e+00 -2.305920571088790894e-01 3.765612602233886719e+00 1.060506105422973633e+00 2.101408958435058594e+00
2.650000000000000000e+03 2.230289459228515625e+01 -4.969458580017089844e+00 1.083089947700500488e+00 2.589428424835205078e+00 1.101755499839782715e+00 4.776804894208908081e-02
2.651000000000000000e+03 2.018701171875000000e+01 -2.064804792404174805e+00 1.750516533851623535e+00 8.356724739074707031e+00 3.032172441482543945e+00 -6.514803767204284668e-01
2.652000000000000000e+03 2.096603775024414062e+01 -4.768086910247802734e+00 5.189095735549926758e-01 4.172170162200927734e+00 1.407323956489562988e+00 6.161913275718688965e-01
2.653000000000000000e+03 1.622127151489257812e+01 -6.631240367889404297e+00 -1.652507632970809937e-01 3.374551296234130859e+00 9.627901315689086914e-01 2.585504293441772461e+00
2.654000000000000000e+03 2.107729911804199219e+01 -3.047364473342895508e+00 1.774482131004333496e+00 5.297903060913085938e+00 2.121715545654296875e+00 -7.239148020744323730e-01
2.655000000000000000e+03 2.109725761413574219e+01 -2.026403665542602539e+00 3.106961488723754883e+00 5.939293384552001953e+00 2.713876485824584961e+00 -1.964052677154541016e+00
2.656000000000000000e+03 1.816356086730957031e+01 -2.521546602249145508e+00 1.086719632148742676e+00 5.480330944061279297e+00 1.970115184783935547e+00 3.353666067123413086e+00
2.657000000000000000e+03 2.158654212951660156e+01 -1.961072325706481934e+00 3.778562784194946289e+00 4.645126342773437500e+00 2.527106761932373047e+00 -2.125678062438964844e+00
2.658000000000000000e+03 2.321655082702636719e+01 -2.235615491867065430e+00 4.446811199188232422e+00 1.164564013481140137e+00 1.683412551879882812e+00 -1.388599634170532227e+00
2.659000000000000000e+03 1.714710617065429688e+01 -2.945842981338500977e+00 1.094324588775634766e+00 3.279653310775756836e+00 1.312193393707275391e+00 3.152360677719116211e+00
2.660000000000000000e+03 1.690385055541992188e+01 3.484728813171386719e+00 3.303927481174468994e-01 4.088856697082519531e+00 1.325774788856506348e+00 -4.486885547637939453e+00
2.661000000000000000e+03 1.537828540802001953e+01 4.072264194488525391e+00 1.674360781908035278e-01 3.104131937026977539e+00 9.814704656600952148e-01 -2.960199832916259766e+00
2.662000000000000000e+03 2.225101661682128906e+01 -1.067795753479003906e-01 6.489783763885498047e+00 1.663060903549194336e+00 2.445853471755981445e+00 -1.984204411506652832e+00
2.663000000000000000e+03 1.402408981323242188e+01 -4.528337478637695312e+00 2.052949517965316772e-01 1.661576628684997559e+00 5.600614547729492188e-01 1.658066391944885254e+00
2.664000000000000000e+03 1.582886791229248047e+01 -4.050516605377197266e+00 4.905114769935607910e-01 2.387250185012817383e+00 8.633284568786621094e-01 2.553828954696655273e+00
2.665000000000000000e+03 1.602466392517089844e+01 -3.566928148269653320e+00 6.635643839836120605e-01 2.262955188751220703e+00 8.779558539390563965e-01 2.604830980300903320e+00
2.666000000000000000e+03 1.525419712066650391e+01 -3.447525978088378906e+00 5.020850300788879395e-01 1.637712955474853516e+00 6.419394016265869141e-01 2.105919122695922852e+00
2.667000000000000000e+03 7.241912364959716797e+00 -7.218790531158447266e+00 7.151672244071960449e-02 6.347763538360595703e-01 2.118879258632659912e-01 -5.505950450897216797e-01
2.668000000000000000e+03 1.137972545623779297e+01 6.137225627899169922e+00 5.763311386108398438e-01 2.062677621841430664e+00 7.917026281356811523e-01 -2.085675448179244995e-01
2.669000000000000000e+03 7.307209014892578125e+00 -6.287346363067626953e+00 -3.279839456081390381e-02 5.045140981674194336e-01 1.415147036314010620e-01 -5.432770848274230957e-01
2.670000000000000000e+03 1.106099796295166016e+01 -1.013974380493164062e+01 3.998707830905914307e-01 2.922424316406250000e+00 9.966885447502136230e-01 2.448356300592422485e-01
2.671000000000000000e+03 1.325274467468261719e+01 6.411636829376220703e+00 7.775477766990661621e-01 3.358766317367553711e+00 1.240894198417663574e+00 -1.230550646781921387e+00
2.672000000000000000e+03 1.269652938842773438e+01 7.009567260742187500e+00 9.992656111717224121e-01 3.318980455398559570e+00 1.295473814010620117e+00 -9.370224475860595703e-01
2.673000000000000000e+03 1.033347606658935547e+01 -6.580742359161376953e+00 5.805565509945154190e-03 1.424300193786621094e+00 4.290317296981811523e-01 1.585341244935989380e-01
2.674000000000000000e+03 9.822345733642578125e+00 -6.423279762268066406e+00 1.043203286826610565e-02 1.263776183128356934e+00 3.822624683380126953e-01 9.695636108517646790e-03
2.675000000000000000e+03 1.705134773254394531e+01 -8.069423675537109375e+00 -4.004253149032592773e-01 3.626157760620117188e+00 9.677197337150573730e-01 2.609633207321166992e+00
2.676000000000000000e+03 1.737235832214355469e+01 -7.399611473083496094e+00 -3.511943221092224121e-01 3.571252822875976562e+00 9.660175442695617676e-01 2.658680438995361328e+00
2.677000000000000000e+03 2.138314819335937500e+01 -5.640394687652587891e+00 3.993277847766876221e-01 3.053880214691162109e+00 1.035962343215942383e+00 7.345582842826843262e-01
2.678000000000000000e+03 1.568557167053222656e+01 4.649562835693359375e+00 1.380364745855331421e-01 3.832926511764526367e+00 1.191288828849792480e+00 -3.267427682876586914e+00
2.679000000000000000e+03 1.432617664337158203e+01 6.351166725158691406e+00 7.418284416198730469e-01 4.228947639465332031e+00 1.491232872009277344e+00 -1.917581677436828613e+00
2.680000000000000000e+03 8.999979019165039062e+00 -6.460960865020751953e+00 -3.666762262582778931e-03 1.046800255775451660e+00 3.129400610923767090e-01 -2.102660238742828369e-01
2.681000000000000000e+03 1.065673160552978516e+01 -5.573872089385986328e+00 -7.130613178014755249e-02 1.158078670501708984e+00 3.260317742824554443e-01 2.411679029464721680e-01
2.682000000000000000e+03 2.161117935180664062e+01 -5.249462604522705078e+00 5.745374560356140137e-01 3.183105468750000000e+00 1.127292871475219727e+00 4.463382065296173096e-01
2.683000000000000000e+03 1.635400390625000000e+01 -7.716756820678710938e+00 -2.989299893379211426e-01 3.623039484024047852e+00 9.972328543663024902e-01 2.548495769500732422e+00
2.684000000000000000e+03 1.015716838836669922e+01 7.315972328186035156e+00 9.261881113052368164e-01 1.885179281234741211e+00 8.434101939201354980e-01 1.956324875354766846e-01
2.685000000000000000e+03 1.435943984985351562e+01 5.457720279693603516e+00 3.955920040607452393e-01 3.565154075622558594e+00 1.188223838806152344e+00 -2.067654609680175781e+00
2.686000000000000000e+03 1.129301929473876953e+01 -6.860733032226562500e+00 3.746895492076873779e-02 1.830667495727539062e+00 5.604409575462341309e-01 5.061644315719604492e-01
2.687000000000000000e+03 9.122039794921875000e+00 6.724696636199951172e+00 6.151991486549377441e-01 1.191524147987365723e+00 5.420169830322265625e-01 5.793065428733825684e-01
2.688000000000000000e+03 1.813147735595703125e+01 -7.649955749511718750e+00 -4.134752452373504639e-01 3.429516792297363281e+00 9.048124551773071289e-01 2.492977619171142578e+00
2.689000000000000000e+03 1.897763633728027344e+01 -7.663445949554443359e+00 -4.870507121086120605e-01 3.233627557754516602e+00 8.239730000495910645e-01 2.290328502655029297e+00
2.690000000000000000e+03 1.978045082092285156e+01 -7.448035240173339844e+00 -3.695948123931884766e-01 3.013376235961914062e+00 7.931343913078308105e-01 1.922981381416320801e+00
2.691000000000000000e+03 1.125309085845947266e+01 -8.030851364135742188e+00 1.034197658300399780e-01 2.281671047210693359e+00 7.155272960662841797e-01 4.661737382411956787e-01
2.692000000000000000e+03 1.326282501220703125e+01 -5.982508659362792969e+00 1.209123805165290833e-02 2.133351087570190430e+00 6.436326503753662109e-01 1.367928743362426758e+00
2.693000000000000000e+03 1.344366741180419922e+01 -5.275949954986572266e+00 7.636651396751403809e-02 1.869288325309753418e+00 5.836964249610900879e-01 1.435887455940246582e+00
2.694000000000000000e+03 2.390649032592773438e+01 -3.492347240447998047e+00 3.372770071029663086e+00 8.715503811836242676e-01 1.273296117782592773e+00 -6.179423332214355469e-01
2.695000000000000000e+03 2.499352836608886719e+01 -2.577200889587402344e+00 4.659629344940185547e+00 -4.628414511680603027e-01 1.259036302566528320e+00 -4.274038076400756836e-01
2.696000000000000000e+03 2.425284576416015625e+01 -1.751396775245666504e+00 5.243534564971923828e+00 -3.133200407028198242e-01 1.479064464569091797e+00 -8.770853877067565918e-01
2.697000000000000000e+03 1.471062850952148438e+01 -8.714465141296386719e+00 -2.119831442832946777e-01 3.880142211914062500e+00 1.100447654724121094e+00 1.868010520935058594e+00
2.698000000000000000e+03 2.462867164611816406e+01 -3.456522226333618164e+00 3.619532823562622070e+00 1.306426525115966797e-01 1.125052690505981445e+00 -4.021759331226348877e-01
2.699000000000000000e+03 7.195746612548828125e+01 3.075072288513183594e+00 1.995433419942855835e-01 6.864393234252929688e+00 2.119180917739868164e+00 -7.006881237030029297e-01
2.700000000000000000e+03 4.770184040069580078e+00 6.921369075775146484e+00 2.168475836515426636e-01 -4.169392287731170654e-01 -6.002749502658843994e-02 1.022598385810852051e+00
2.701000000000000000e+03 3.779471206665039062e+01 -5.056801795959472656e+00 -1.528572797775268555e+00 9.364597320556640625e+00 2.350807189941406250e+00 -1.674700021743774414e+00
2.702000000000000000e+03 3.653514862060546875e+01 -5.384781360626220703e+00 -1.515983819961547852e+00 9.537282943725585938e+00 2.406389713287353516e+00 -1.562029123306274414e+00
2.703000000000000000e+03 7.324434280395507812e+00 1.151005363464355469e+01 1.193737506866455078e+00 1.123717546463012695e+00 6.952365040779113770e-01 8.953182399272918701e-02
2.704000000000000000e+03 6.338054656982421875e+01 -5.289400100708007812e+00 5.204178690910339355e-01 3.216547489166259766e+00 1.121089577674865723e+00 -5.592371225357055664e-01
2.705000000000000000e+03 7.258681488037109375e+01 -5.530569076538085938e+00 -7.786466479301452637e-01 7.649152755737304688e+00 2.061151742935180664e+00 -6.702483892440795898e-01
2.706000000000000000e+03 7.191495513916015625e+01 7.607301712036132812e+00 4.952912330627441406e-01 6.912690639495849609e+00 2.222394466400146484e+00 -3.543431460857391357e-01
2.707000000000000000e+03 1.401781463623046875e+01 -8.161635398864746094e+00 -1.288531124591827393e-01 3.459435462951660156e+00 9.991747140884399414e-01 1.594804525375366211e+00
2.708000000000000000e+03 6.148563385009765625e+01 -3.982297182083129883e+00 1.042839646339416504e+00 3.008285522460937500e+00 1.215337514877319336e+00 4.362689852714538574e-01
2.709000000000000000e+03 6.557223510742187500e+01 -8.121306419372558594e+00 -5.088029503822326660e-01 3.743826627731323242e+00 9.705071449279785156e-01 -2.024151802062988281e+00
2.710000000000000000e+03 6.594440460205078125e+01 -6.988194465637207031e+00 -4.784711897373199463e-01 4.491779327392578125e+00 1.203992486000061035e+00 -1.782220721244812012e+00
2.711000000000000000e+03 6.860410690307617188e+00 8.408839225769042969e+00 7.284187078475952148e-01 4.611064493656158447e-01 3.568575382232666016e-01 7.547819614410400391e-01
2.712000000000000000e+03 7.093343734741210938e+00 9.067268371582031250e+00 9.284458160400390625e-01 6.910775303840637207e-01 4.858570098876953125e-01 5.796679854393005371e-01
2.713000000000000000e+03 9.237620353698730469e+00 1.279189109802246094e+01 1.694366574287414551e+00 2.767861604690551758e+00 1.338668465614318848e+00 -5.548935532569885254e-01
2.714000000000000000e+03 7.119863033294677734e+00 9.866694450378417969e+00 1.062074065208435059e+00 8.011072874069213867e-01 5.589544177055358887e-01 4.477320313453674316e-01
2.715000000000000000e+03 6.682120513916015625e+01 6.509730219841003418e-01 4.107822775840759277e-01 6.078082084655761719e+00 1.946659326553344727e+00 -4.573894441127777100e-01
2.716000000000000000e+03 7.070174407958984375e+01 -2.340435504913330078e+00 -2.923162877559661865e-01 6.778644561767578125e+00 1.945898532867431641e+00 -9.808909296989440918e-01
2.717000000000000000e+03 7.152999114990234375e+01 1.176615715026855469e+01 6.409899592399597168e-01 7.025854110717773438e+00 2.300053119659423828e+00 6.071337312459945679e-02
2.718000000000000000e+03 6.793014526367187500e+01 2.193645095825195312e+01 -3.670717179775238037e-01 7.248372554779052734e+00 2.064390420913696289e+00 5.723655223846435547e-01
2.719000000000000000e+03 6.920973205566406250e+01 2.129507827758789062e+01 -1.064778044819831848e-01 7.270055770874023438e+00 2.149073362350463867e+00 6.753446459770202637e-01
2.720000000000000000e+03 7.160067749023437500e+01 1.974100875854492188e+01 1.494091004133224487e-01 7.153711318969726562e+00 2.190936088562011719e+00 7.002257704734802246e-01
2.721000000000000000e+03 7.118377685546875000e+00 -9.471382141113281250e+00 3.040397763252258301e-01 8.322102427482604980e-01 3.408749997615814209e-01 -5.099473595619201660e-01
2.722000000000000000e+03 8.866024017333984375e+00 -8.632245063781738281e+00 2.308483719825744629e-01 1.510510325431823730e+00 5.224075913429260254e-01 -2.753047645092010498e-01
2.723000000000000000e+03 1.076151657104492188e+01 8.960317611694335938e+00 1.549340605735778809e+00 2.886341094970703125e+00 1.330704450607299805e+00 -2.244669497013092041e-01
2.724000000000000000e+03 4.679002761840820312e+01 -8.991686820983886719e+00 3.873972594738006592e-01 1.608397841453552246e+00 5.987385511398315430e-01 1.301542997360229492e+00
2.725000000000000000e+03 9.019121170043945312e+00 -1.099077320098876953e+01 6.105877757072448730e-01 1.908339500427246094e+00 7.556781768798828125e-01 -2.070973515510559082e-01
2.726000000000000000e+03 1.136879062652587891e+01 2.554939460754394531e+01 -1.021548271179199219e+00 3.128240585327148438e+00 6.320077180862426758e-01 -4.888457655906677246e-01
2.727000000000000000e+03 8.504773139953613281e+00 7.769645690917968750e+00 8.580934405326843262e-01 1.158236742019653320e+00 6.048990488052368164e-01 6.028605103492736816e-01
2.728000000000000000e+03 9.281729698181152344e+00 1.522452163696289062e+01 1.492296099662780762e+00 3.134052515029907227e+00 1.387904644012451172e+00 -1.118027091026306152e+00
2.729000000000000000e+03 7.275175476074218750e+01 -9.115591049194335938e+00 -1.110884904861450195e+00 8.601002693176269531e+00 2.247035503387451172e+00 -1.475262343883514404e-01
2.730000000000000000e+03 7.024231719970703125e+01 7.430604457855224609e+00 6.387007236480712891e-01 7.029106140136718750e+00 2.300342082977294922e+00 -3.037854731082916260e-01
2.731000000000000000e+03 6.884096527099609375e+01 5.033372402191162109e+00 5.835313796997070312e-01 6.889280796051025391e+00 2.241843700408935547e+00 -3.849208056926727295e-01
2.732000000000000000e+03 8.652215003967285156e+00 -1.330474567413330078e+01 9.953925609588623047e-01 1.982257127761840820e+00 8.932949304580688477e-01 -4.344457015395164490e-02
2.733000000000000000e+03 9.724074363708496094e+00 -1.333128738403320312e+01 1.177070975303649902e+00 2.783535718917846680e+00 1.188181996345520020e+00 1.071927919983863831e-01
2.734000000000000000e+03 4.342862701416015625e+01 -1.178921699523925781e+01 7.783545851707458496e-01 5.512428283691406250e+00 1.887234807014465332e+00 -2.224444597959518433e-01
2.735000000000000000e+03 7.310727596282958984e+00 -1.074604225158691406e+01 4.868125617504119873e-01 1.065204381942749023e+00 4.656050801277160645e-01 -4.327560961246490479e-01
2.736000000000000000e+03 7.493028640747070312e+00 -1.211357498168945312e+01 6.786302924156188965e-01 1.235395431518554688e+00 5.742077231407165527e-01 -2.820141315460205078e-01
2.737000000000000000e+03 4.242551422119140625e+01 2.315985870361328125e+01 -7.293616533279418945e-01 4.233143329620361328e+00 1.051134586334228516e+00 1.411785721778869629e+00
2.738000000000000000e+03 4.072710037231445312e+01 1.941888427734375000e+01 -2.319218516349792480e-01 5.445967674255371094e+00 1.564213752746582031e+00 1.387476682662963867e+00
2.739000000000000000e+03 9.767709732055664062e+00 1.455829811096191406e+01 1.768344521522521973e+00 3.466616153717041016e+00 1.570488214492797852e+00 -1.013299942016601562e+00
2.740000000000000000e+03 7.513435840606689453e+00 2.032908439636230469e+01 2.430979758501052856e-01 2.234571695327758789e+00 7.433009147644042969e-01 -1.496561169624328613e+00
2.741000000000000000e+03 8.459750175476074219e+00 1.879846763610839844e+01 6.789759993553161621e-01 2.601449012756347656e+00 9.841274619102478027e-01 -1.440243601799011230e+00
2.742000000000000000e+03 6.814741516113281250e+01 -6.700804233551025391e+00 -8.120276331901550293e-01 6.128378391265869141e+00 1.594905257225036621e+00 -1.593608140945434570e+00
2.743000000000000000e+03 6.964492797851562500e+01 -7.046751976013183594e+00 -1.063620924949645996e+00 7.056800365447998047e+00 1.797953844070434570e+00 -1.407913088798522949e+00
2.744000000000000000e+03 1.024721622467041016e+01 2.271987915039062500e+01 -5.721369385719299316e-01 3.598973512649536133e+00 9.080509543418884277e-01 -1.183088183403015137e+00
2.745000000000000000e+03 9.606040954589843750e+00 2.373216056823730469e+01 -6.709927916526794434e-01 3.056581258773803711e+00 7.156764864921569824e-01 -1.207283377647399902e+00
2.746000000000000000e+03 3.628556442260742188e+01 2.246055984497070312e+01 -8.155170679092407227e-01 5.394565105438232422e+00 1.373714327812194824e+00 2.509109377861022949e-01
2.747000000000000000e+03 6.966725921630859375e+01 1.513011902570724487e-01 8.072310686111450195e-02 6.570487022399902344e+00 1.995363116264343262e+00 -8.212633132934570312e-01
2.748000000000000000e+03 8.736691474914550781e+00 -1.437380313873291016e+01 1.190078496932983398e+00 2.253366708755493164e+00 1.033033609390258789e+00 1.531133949756622314e-01
2.749000000000000000e+03 7.168305969238281250e+01 -6.193986415863037109e+00 -9.270683526992797852e-01 7.658757209777832031e+00 2.019506692886352539e+00 -8.194890022277832031e-01
2.750000000000000000e+03 6.149118900299072266e+00 2.177913856506347656e+01 -2.642641030251979828e-02 1.469452381134033203e+00 4.329077899456024170e-01 -1.403429508209228516e+00
2.751000000000000000e+03 7.583342552185058594e+00 2.175589179992675781e+01 -4.526957124471664429e-02 2.312954664230346680e+00 6.803055405616760254e-01 -1.480301141738891602e+00
2.752000000000000000e+03 6.871791076660156250e+01 1.682350921630859375e+01 6.695393919944763184e-01 7.443755626678466797e+00 2.433988571166992188e+00 5.058485865592956543e-01
2.753000000000000000e+03 7.017199707031250000e+01 1.329133224487304688e+01 7.427535653114318848e-01 7.235917568206787109e+00 2.393601417541503906e+00 2.120036929845809937e-01
2.754000000000000000e+03 8.239717483520507812e+00 1.127865695953369141e+01 1.427920937538146973e+00 1.679992198944091797e+00 9.323739409446716309e-01 -7.824862003326416016e-02
2.755000000000000000e+03 7.183804512023925781e+00 1.071184444427490234e+01 1.175237536430358887e+00 9.483017921447753906e-01 6.370617747306823730e-01 2.185024321079254150e-01
2.756000000000000000e+03 7.271023559570312500e+01 6.836514472961425781e+00 3.647850751876831055e-01 6.873012065887451172e+00 2.171339035034179688e+00 -4.303849339485168457e-01
2.757000000000000000e+03 7.228630065917968750e+01 9.258279800415039062e+00 5.192800760269165039e-01 6.918949127197265625e+00 2.231468677520751953e+00 -2.046105116605758667e-01
2.758000000000000000e+03 2.127285766601562500e+01 3.008846092224121094e+01 -3.361504673957824707e-01 1.149334788322448730e+00 2.439552843570709229e-01 -4.381322860717773438e-02
2.759000000000000000e+03 1.716697311401367188e+01 3.406355667114257812e+01 -3.790070116519927979e-01 1.678751468658447266e+00 3.899233341217041016e-01 9.589099884033203125e-02
2.760000000000000000e+03 7.055492401123046875e+00 -2.261037826538085938e+01 2.222264111042022705e-01 1.750335812568664551e+00 5.917686820030212402e-01 1.317158699035644531e+00
2.761000000000000000e+03 8.242424011230468750e+00 -2.282094383239746094e+01 1.964092254638671875e-01 2.336164474487304688e+00 7.597721219062805176e-01 1.369872331619262695e+00
2.762000000000000000e+03 7.928497791290283203e+00 -2.769908332824707031e+01 -4.693482518196105957e-01 2.177815675735473633e+00 5.125402808189392090e-01 1.089149355888366699e+00
2.763000000000000000e+03 3.759633255004882812e+01 2.094777679443359375e+01 -5.719355344772338867e-01 5.740393638610839844e+00 1.550537467002868652e+00 5.335308313369750977e-01
2.764000000000000000e+03 3.773007583618164062e+01 2.226195716857910156e+01 -8.368099331855773926e-01 5.351510047912597656e+00 1.354410052299499512e+00 5.499841570854187012e-01
2.765000000000000000e+03 7.118671417236328125e+01 2.183103561401367188e+01 -1.139554381370544434e-01 7.179625034332275391e+00 2.119700908660888672e+00 6.893530488014221191e-01
2.766000000000000000e+03 7.043404388427734375e+01 2.055347442626953125e+01 3.451637551188468933e-02 7.186572551727294922e+00 2.166326761245727539e+00 7.077457904815673828e-01
2.767000000000000000e+03 6.979740142822265625e+01 1.929108619689941406e+01 2.521921098232269287e-01 7.272704124450683594e+00 2.257468938827514648e+00 6.894815564155578613e-01
2.768000000000000000e+03 9.691033363342285156e+00 -3.232289886474609375e+01 -6.876640319824218750e-01 2.076288700103759766e+00 4.165874123573303223e-01 5.095891952514648438e-01
2.769000000000000000e+03 1.222476577758789062e+01 -2.789695930480957031e+01 -8.806570768356323242e-01 2.827168703079223633e+00 5.839534997940063477e-01 5.054419636726379395e-01
2.770000000000000000e+03 9.028602600097656250e+00 1.449697685241699219e+01 1.534221053123474121e+00 2.857863903045654297e+00 1.317625522613525391e+00 -8.998929262161254883e-01
2.771000000000000000e+03 6.555606842041015625e+01 4.315603375434875488e-01 5.303900241851806641e-01 5.819543361663818359e+00 1.904980063438415527e+00 -1.700954586267471313e-01
2.772000000000000000e+03 6.936292266845703125e+01 -2.989789199829101562e+01 -1.126225113868713379e+00 6.916108131408691406e+00 1.736964941024780273e+00 3.498645722866058350e-01
2.773000000000000000e+03 8.997843742370605469e+00 2.206612014770507812e+01 -2.883305847644805908e-01 2.937445878982543945e+00 7.947345972061157227e-01 -1.477761149406433105e+00
2.774000000000000000e+03 9.462073326110839844e+00 -2.300954437255859375e+01 1.887902021408081055e-01 2.999066829681396484e+00 9.563571214675903320e-01 1.307449936866760254e+00
2.775000000000000000e+03 9.517062187194824219e+00 -2.183663558959960938e+01 4.657517671585083008e-01 2.990793466567993164e+00 1.036963582038879395e+00 1.371492743492126465e+00
2.776000000000000000e+03 6.995261383056640625e+01 2.275147819519042969e+01 -3.123769462108612061e-01 7.165416240692138672e+00 2.055911779403686523e+00 6.093807816505432129e-01
2.777000000000000000e+03 3.898810958862304688e+01 1.762588500976562500e+01 3.803824633359909058e-02 6.540607452392578125e+00 1.973593711853027344e+00 9.584079980850219727e-01
2.778000000000000000e+03 1.083161926269531250e+01 2.769894027709960938e+01 -9.073410630226135254e-01 2.657610893249511719e+00 5.250809192657470703e-01 -4.084329009056091309e-01
2.779000000000000000e+03 6.932500457763671875e+01 1.108365917205810547e+01 8.367071151733398438e-01 7.307679176330566406e+00 2.443315982818603516e+00 4.414743930101394653e-02
2.780000000000000000e+03 7.189933013916015625e+01 1.041921424865722656e+01 5.651017427444458008e-01 6.988984107971191406e+00 2.266225814819335938e+00 -8.866900950670242310e-02
2.781000000000000000e+03 6.334136962890625000e+01 2.220948791503906250e+01 -9.071225523948669434e-01 6.492476940155029297e+00 1.675606250762939453e+00 -6.584740281105041504e-01
2.782000000000000000e+03 7.039457702636718750e+01 1.744589996337890625e+01 4.667698740959167480e-01 7.228876590728759766e+00 2.308693885803222656e+00 5.926671624183654785e-01
2.783000000000000000e+03 7.193813323974609375e+01 1.516942596435546875e+01 5.400184392929077148e-01 7.042891979217529297e+00 2.274873256683349609e+00 4.102601408958435059e-01
2.784000000000000000e+03 4.630534362792968750e+01 2.489674186706542969e+01 -5.741180777549743652e-01 2.824883460998535156e+00 6.752296090126037598e-01 1.523497939109802246e+00
2.785000000000000000e+03 8.704050064086914062e+00 -1.208502578735351562e+01 7.944266200065612793e-01 1.929632425308227539e+00 8.172177076339721680e-01 -1.977922171354293823e-01
2.786000000000000000e+03 4.499083709716796875e+01 2.611904335021972656e+01 -6.716411709785461426e-01 3.217586040496826172e+00 7.637835144996643066e-01 1.421236872673034668e+00
2.787000000000000000e+03 1.912981605529785156e+01 2.840139198303222656e+01 -5.727681517601013184e-01 1.240052938461303711e+00 2.001854479312896729e-01 3.486589491367340088e-01
2.788000000000000000e+03 7.282469940185546875e+01 1.234798336029052734e+01 4.772498607635498047e-01 6.923945426940917969e+00 2.220358610153198242e+00 1.063489764928817749e-01
2.789000000000000000e+03 7.230439758300781250e+01 1.353140258789062500e+01 5.304393768310546875e-01 6.953717708587646484e+00 2.245247125625610352e+00 2.266183197498321533e-01
2.790000000000000000e+03 9.449629783630371094e+00 -2.747834014892578125e+01 -6.140424013137817383e-01 2.531745195388793945e+00 5.753108263015747070e-01 9.911039471626281738e-01
2.791000000000000000e+03 1.001680183410644531e+01 -2.896018409729003906e+01 -7.391260266304016113e-01 2.483362197875976562e+00 5.232709050178527832e-01 7.828223109245300293e-01
2.792000000000000000e+03 5.979347705841064453e+00 -3.441131591796875000e+01 -3.215436339378356934e-01 1.768711805343627930e+00 4.341504573822021484e-01 4.746912717819213867e-01
2.793000000000000000e+03 1.143865203857421875e+01 -3.202317810058593750e+01 -8.069813847541809082e-01 2.201556682586669922e+00 4.183726012706756592e-01 3.737748265266418457e-01
2.794000000000000000e+03 6.402416992187500000e+01 2.726280975341796875e+01 -8.188809752464294434e-01 5.560857772827148438e+00 1.422593116760253906e+00 -6.704103946685791016e-01
2.795000000000000000e+03 3.202620315551757812e+01 2.584779548645019531e+01 -1.103599071502685547e+00 3.994512319564819336e+00 8.672739863395690918e-01 -6.925166249275207520e-01
2.796000000000000000e+03 1.470348930358886719e+01 3.523086166381835938e+01 -3.944690525531768799e-01 1.819340109825134277e+00 4.274612963199615479e-01 2.821707911789417267e-02
2.797000000000000000e+03 8.886062622070312500e+00 2.703744125366210938e+01 -7.322887182235717773e-01 2.421617031097412109e+00 5.067985057830810547e-01 -7.582674026489257812e-01
2.798000000000000000e+03 9.502454757690429688e+00 2.537877273559570312e+01 -7.725768685340881348e-01 2.727582931518554688e+00 5.865017771720886230e-01 -9.318414330482482910e-01
2.799000000000000000e+03 6.405937957763671875e+01 -5.977006912231445312e+00 2.217574715614318848e-01 3.238925933837890625e+00 1.038205027580261230e+00 -9.920108318328857422e-01
2.800000000000000000e+03 1.417203807830810547e+01 2.986928939819335938e+01 -8.296002745628356934e-01 2.177643060684204102e+00 4.044128358364105225e-01 1.591159701347351074e-01
2.801000000000000000e+03 3.118281364440917969e+01 2.770953750610351562e+01 -1.017039179801940918e+00 3.333073377609252930e+00 6.948102712631225586e-01 -7.151594161987304688e-01
2.802000000000000000e+03 2.697501945495605469e+01 2.724412345886230469e+01 -6.617501974105834961e-01 1.826298713684082031e+00 3.493645489215850830e-01 -9.611091017723083496e-01
2.803000000000000000e+03 7.032638549804687500e+01 2.896915817260742188e+01 -4.409705698490142822e-01 6.744609832763671875e+00 1.891091823577880859e+00 1.109873428940773010e-01
2.804000000000000000e+03 7.097543334960937500e+01 -7.856195926666259766e+00 -1.252662420272827148e+00 8.022330284118652344e+00 2.030900239944458008e+00 -8.775349259376525879e-01
2.805000000000000000e+03 7.139775085449218750e+01 -8.938268661499023438e+00 -1.286133766174316406e+00 8.437583923339843750e+00 2.145434856414794922e+00 -5.607405900955200195e-01
2.806000000000000000e+03 9.903035163879394531e+00 3.001791000366210938e+01 -6.954279541969299316e-01 2.239091396331787109e+00 4.630990326404571533e-01 -3.858649134635925293e-01
2.807000000000000000e+03 1.584464263916015625e+01 -3.624742507934570312e+01 -6.207128167152404785e-01 1.430247902870178223e+00 2.428605109453201294e-01 -1.768520176410675049e-01
2.808000000000000000e+03 6.862779998779296875e+01 9.267842292785644531e+00 8.736495375633239746e-01 7.331091403961181641e+00 2.461422204971313477e+00 -3.417824953794479370e-02
2.809000000000000000e+03 1.949661827087402344e+01 -2.643599271774291992e+00 6.439154744148254395e-01 7.404997825622558594e+00 2.414674043655395508e+00 1.496086835861206055e+00
2.810000000000000000e+03 1.624836349487304688e+01 -2.965998888015747070e+00 9.760098457336425781e-01 2.088910341262817383e+00 9.194760918617248535e-01 2.628066539764404297e+00
2.811000000000000000e+03 2.168173980712890625e+01 -4.226445674896240234e+00 1.336385488510131836e+00 3.519396781921386719e+00 1.456734657287597656e+00 -1.571526527404785156e-01
2.812000000000000000e+03 2.225319862365722656e+01 -1.089762568473815918e+00 5.711567878723144531e+00 2.288230895996093750e+00 2.399939775466918945e+00 -2.369879484176635742e+00
2.813000000000000000e+03 1.966317939758300781e+01 -2.421809196472167969e+00 1.008131861686706543e+00 7.932044506072998047e+00 2.682052850723266602e+00 7.909439802169799805e-01
2.814000000000000000e+03 1.904356193542480469e+01 -2.713871717453002930e+00 6.153284311294555664e-01 6.921822071075439453e+00 2.261145114898681641e+00 2.156436204910278320e+00
2.815000000000000000e+03 1.457556247711181641e+01 -3.834483623504638672e+00 3.705355226993560791e-01 1.515898227691650391e+00 5.659301280975341797e-01 1.844275236129760742e+00
2.816000000000000000e+03 1.551044845581054688e+01 -3.907973051071166992e+00 5.433687567710876465e-01 2.076551675796508789e+00 7.859761118888854980e-01 2.411909341812133789e+00
2.817000000000000000e+03 1.549885177612304688e+01 -4.297684669494628906e+00 4.005849957466125488e-01 2.265863418579101562e+00 7.999345064163208008e-01 2.438100576400756836e+00
2.818000000000000000e+03 1.568203830718994141e+01 -2.748371839523315430e+00 8.605625629425048828e-01 1.450917959213256836e+00 6.934441328048706055e-01 2.201753139495849609e+00
2.819000000000000000e+03 1.413813591003417969e+01 -6.960769176483154297e+00 -8.839420229196548462e-02 2.954321622848510742e+00 8.597781658172607422e-01 1.800285816192626953e+00
2.820000000000000000e+03 2.295494842529296875e+01 -1.258676171302795410e+00 5.483316898345947266e+00 8.942740559577941895e-01 1.913277387619018555e+00 -1.762530446052551270e+00
2.821000000000000000e+03 2.065456008911132812e+01 -5.545981884002685547e+00 1.351376473903656006e-01 3.693657398223876953e+00 1.148638486862182617e+00 1.113338232040405273e+00
2.822000000000000000e+03 1.224982833862304688e+01 6.489547729492187500e+00 7.949817180633544922e-01 2.794389009475708008e+00 1.076811194419860840e+00 -6.860077977180480957e-01
2.823000000000000000e+03 9.444448471069335938e+00 -6.934491157531738281e+00 2.584369294345378876e-02 1.273884296417236328e+00 3.899183869361877441e-01 -9.531179070472717285e-02
2.824000000000000000e+03 2.064382743835449219e+01 -6.310209751129150391e+00 -1.336616277694702148e-01 3.220983266830444336e+00 9.261965155601501465e-01 1.299638748168945312e+00
2.825000000000000000e+03 9.817171096801757812e+00 -8.735919952392578125e+00 2.343159615993499756e-01 1.979591369628906250e+00 6.641722321510314941e-01 -2.845508418977260590e-02
2.826000000000000000e+03 1.887182235717773438e+01 -6.967618465423583984e+00 -3.474705517292022705e-01 3.530282020568847656e+00 9.548434019088745117e-01 2.306525230407714844e+00
2.827000000000000000e+03 2.205346107482910156e+01 -1.765993237495422363e+00 4.577751159667968750e+00 3.197641372680664062e+00 2.332617759704589844e+00 -2.211125135421752930e+00
2.828000000000000000e+03 2.319492149353027344e+01 -2.806400537490844727e+00 3.881871700286865234e+00 1.519775867462158203e+00 1.620494246482849121e+00 -1.169583439826965332e+00
2.829000000000000000e+03 1.044704532623291016e+01 8.124304771423339844e+00 1.221169829368591309e+00 2.395130634307861328e+00 1.084890127182006836e+00 -1.867130026221275330e-02
2.830000000000000000e+03 1.012969112396240234e+01 -7.149649143218994141e+00 5.303273722529411316e-02 1.556858420372009277e+00 4.829673469066619873e-01 9.838114678859710693e-02
2.831000000000000000e+03 2.171567344665527344e+01 -4.784276008605957031e+00 9.924612641334533691e-01 3.303871393203735352e+00 1.288899779319763184e+00 2.485630512237548828e-01
2.832000000000000000e+03 2.235417938232421875e+01 -4.362546443939208984e+00 1.652545332908630371e+00 2.817300319671630859e+00 1.340953707695007324e+00 -2.535692453384399414e-01
2.833000000000000000e+03 2.120955276489257812e+01 -5.035723209381103516e+00 6.415526270866394043e-01 3.538176774978637695e+00 1.253918886184692383e+00 6.201937198638916016e-01
2.834000000000000000e+03 9.843931198120117188e+00 9.215824127197265625e+00 1.475153446197509766e+00 2.354058742523193359e+00 1.148763656616210938e+00 1.379531342536211014e-02
2.835000000000000000e+03 1.240178775787353516e+01 -6.611957073211669922e+00 1.844789658207446337e-04 2.184010982513427734e+00 6.552586555480957031e-01 9.808087944984436035e-01
2.836000000000000000e+03 1.675373840332031250e+01 -7.050739288330078125e+00 -3.080235421657562256e-01 3.545047998428344727e+00 9.711073637008666992e-01 2.664105415344238281e+00
2.837000000000000000e+03 2.381764602661132812e+01 -2.850898265838623047e+00 4.004922389984130859e+00 6.618411540985107422e-01 1.400029063224792480e+00 -8.616273403167724609e-01
2.838000000000000000e+03 1.464215755462646484e+01 -7.518104553222656250e+00 -2.029560357332229614e-01 3.312369823455810547e+00 9.328241348266601562e-01 1.966146349906921387e+00
2.839000000000000000e+03 2.236112785339355469e+01 -2.277353286743164062e+00 4.060659885406494141e+00 2.698083639144897461e+00 2.027622938156127930e+00 -1.793164253234863281e+00
2.840000000000000000e+03 2.319162178039550781e+01 -4.025838851928710938e+00 2.426273584365844727e+00 1.765946269035339355e+00 1.257665991783142090e+00 -4.682424366474151611e-01
2.841000000000000000e+03 1.261644268035888672e+01 -8.180701255798339844e+00 2.242602594196796417e-02 2.932460784912109375e+00 8.864660859107971191e-01 9.781402945518493652e-01
2.842000000000000000e+03 1.374543190002441406e+01 -6.348409175872802734e+00 -2.705806493759155273e-02 2.521800994873046875e+00 7.484228610992431641e-01 1.615961670875549316e+00
2.843000000000000000e+03 8.278827667236328125e+00 -1.032257652282714844e+01 4.828298389911651611e-01 1.478608965873718262e+00 5.884316563606262207e-01 -3.396963775157928467e-01
2.844000000000000000e+03 1.524351310729980469e+01 -8.007425308227539062e+00 -2.537695467472076416e-01 3.696261882781982422e+00 1.032747745513916016e+00 2.164741039276123047e+00
2.845000000000000000e+03 1.470995903015136719e+01 -6.442462444305419922e+00 -7.212948799133300781e-02 2.886239767074584961e+00 8.442330956459045410e-01 2.076196908950805664e+00
2.846000000000000000e+03 7.119088745117187500e+01 8.511411666870117188e+00 6.037604212760925293e-01 6.998613357543945312e+00 2.280712127685546875e+00 -2.551517784595489502e-01
2.847000000000000000e+03 6.462122344970703125e+01 -3.815703153610229492e+00 3.561423420906066895e-01 4.279451370239257812e+00 1.390678048133850098e+00 -7.082123756408691406e-01
2.848000000000000000e+03 7.142800140380859375e+01 5.108693599700927734e+00 3.761683702468872070e-01 6.873958110809326172e+00 2.175037860870361328e+00 -5.571334362030029297e-01
2.849000000000000000e+03 6.449959564208984375e+01 -7.521338939666748047e+00 -1.980847418308258057e-01 2.921246767044067383e+00 8.169485926628112793e-01 -1.505995392799377441e+00
2.850000000000000000e+03 6.565634155273437500e+01 -9.712482690811157227e-01 4.090174436569213867e-01 5.431285381317138672e+00 1.752090811729431152e+00 -4.287027418613433838e-01
2.851000000000000000e+03 7.882104396820068359e+00 8.834263801574707031e+00 1.027632832527160645e+00 1.045828938484191895e+00 6.220385432243347168e-01 5.335853695869445801e-01
2.852000000000000000e+03 6.349706649780273438e+01 -6.866818904876708984e+00 2.685816287994384766e-01 2.547675132751464844e+00 8.448770642280578613e-01 -9.186823964118957520e-01
2.853000000000000000e+03 7.035836029052734375e+01 1.118585491180419922e+01 7.445088624954223633e-01 7.200049877166748047e+00 2.383367538452148438e+00 3.016015514731407166e-02
2.854000000000000000e+03 1.005863189697265625e+01 1.007463455200195312e+01 1.729769945144653320e+00 2.690092802047729492e+00 1.325958847999572754e+00 -1.832643300294876099e-01
2.855000000000000000e+03 9.243073463439941406e+00 1.194115638732910156e+01 1.703989982604980469e+00 2.495144844055175781e+00 1.259740352630615234e+00 -4.356862008571624756e-01
2.856000000000000000e+03 6.941902923583984375e+01 -5.708059787750244141e+00 -8.306671380996704102e-01 6.712288379669189453e+00 1.764486312866210938e+00 -1.353271007537841797e+00
2.857000000000000000e+03 1.016812515258789062e+01 -1.026218128204345703e+01 4.456699788570404053e-01 2.477351427078247070e+00 8.769064545631408691e-01 -1.114288251847028732e-02
2.858000000000000000e+03 6.773099517822265625e+01 -3.240238189697265625e+01 -8.142820596694946289e-01 5.046095848083496094e+00 1.269544124603271484e+00 6.812496781349182129e-01
2.859000000000000000e+03 6.987303924560546875e+01 1.626655578613281250e+01 6.365094780921936035e-01 7.267350673675537109e+00 2.371157884597778320e+00 5.119434595108032227e-01
2.860000000000000000e+03 9.169847488403320312e+00 1.364097213745117188e+01 1.696915507316589355e+00 2.674880504608154297e+00 1.311538815498352051e+00 -7.389666438102722168e-01
2.861000000000000000e+03 8.444316864013671875e+00 1.364958095550537109e+01 1.537461400032043457e+00 2.322144269943237305e+00 1.157881736755371094e+00 -6.244221329689025879e-01
2.862000000000000000e+03 7.047119140625000000e+01 5.662638664245605469e+00 5.131927132606506348e-01 6.915079116821289062e+00 2.228481531143188477e+00 -4.687181115150451660e-01
2.863000000000000000e+03 7.307750701904296875e+01 3.240388107299804688e+01 -1.658704429864883423e-01 7.023965835571289062e+00 2.057428598403930664e+00 1.166649237275123596e-01
2.864000000000000000e+03 7.013690185546875000e+01 -1.096179008483886719e+00 -6.256750971078872681e-02 6.629309177398681641e+00 1.970022439956665039e+00 -9.123115539550781250e-01
2.865000000000000000e+03 8.921796798706054688e+00 -9.832411766052246094e+00 4.467287957668304443e-01 1.731606364250183105e+00 6.535005569458007812e-01 -2.578635215759277344e-01
2.866000000000000000e+03 6.950468444824218750e+01 6.208388328552246094e+00 6.100414395332336426e-01 6.980298519134521484e+00 2.277101993560791016e+00 -3.699158728122711182e-01
2.867000000000000000e+03 6.851673126220703125e+01 3.813110589981079102e+00 5.190357565879821777e-01 6.742055416107177734e+00 2.178327322006225586e+00 -4.310536086559295654e-01
2.868000000000000000e+03 6.461333465576171875e+01 2.503957366943359375e+01 -9.752007722854614258e-01 6.186211109161376953e+00 1.563302993774414062e+00 -4.754425883293151855e-01
2.869000000000000000e+03 7.036087036132812500e+01 -5.364145755767822266e+00 -7.586188316345214844e-01 7.048060894012451172e+00 1.886832594871520996e+00 -1.142203688621520996e+00
2.870000000000000000e+03 6.931710815429687500e+01 1.478144645690917969e+00 2.584123313426971436e-01 6.577218055725097656e+00 2.050689220428466797e+00 -7.037178874015808105e-01
2.871000000000000000e+03 7.064344024658203125e+01 1.783572077751159668e+00 1.851461976766586304e-01 6.751106739044189453e+00 2.080875873565673828e+00 -7.517942190170288086e-01
2.872000000000000000e+03 6.666619873046875000e+01 -4.846422672271728516e+00 -2.136503010988235474e-01 5.244925498962402344e+00 1.509382486343383789e+00 -1.284896612167358398e+00
2.873000000000000000e+03 6.798725891113281250e+01 1.863624191284179688e+01 4.514641165733337402e-01 7.476908206939697266e+00 2.378511667251586914e+00 5.910173058509826660e-01
2.874000000000000000e+03 8.730805397033691406e+00 8.603776931762695312e+00 1.117659330368041992e+00 1.484343290328979492e+00 7.806007862091064453e-01 4.002759754657745361e-01
2.875000000000000000e+03 7.093585205078125000e+01 1.571550273895263672e+01 5.800722837448120117e-01 7.169985771179199219e+00 2.325017452239990234e+00 4.527331292629241943e-01
2.876000000000000000e+03 1.006362438201904297e+01 -1.119942569732666016e+01 7.046846747398376465e-01 2.640192031860351562e+00 1.003463029861450195e+00 -4.358383268117904663e-02
2.877000000000000000e+03 3.735716629028320312e+01 1.833551597595214844e+01 -6.378733366727828979e-02 6.536568641662597656e+00 1.941834330558776855e+00 3.484315574169158936e-01
2.878000000000000000e+03 6.856378936767578125e+01 1.993418693542480469e+01 1.448196470737457275e-01 7.302661895751953125e+00 2.234244346618652344e+00 6.785620450973510742e-01
2.879000000000000000e+03 6.770577239990234375e+01 2.563257026672363281e+01 -7.248491644859313965e-01 6.831691741943359375e+00 1.832052826881408691e+00 1.042362079024314880e-01
2.880000000000000000e+03 3.916934967041015625e+01 -2.772777938842773438e+01 2.651933729648590088e-01 7.683352470397949219e+00 2.384563684463500977e+00 1.885116696357727051e-01
2.881000000000000000e+03 3.945606613159179688e+01 -2.932496833801269531e+01 -2.285591661930084229e-01 7.355035781860351562e+00 2.137943029403686523e+00 2.618568837642669678e-01
2.882000000000000000e+03 6.099870204925537109e+00 1.893869400024414062e+01 3.971239328384399414e-01 1.172110676765441895e+00 4.707703888416290283e-01 -1.286368489265441895e+00
2.883000000000000000e+03 1.253704643249511719e+01 3.090709686279296875e+01 -7.331939339637756348e-01 2.211713790893554688e+00 4.435559809207916260e-01 -5.185877531766891479e-02
2.884000000000000000e+03 3.770738983154296875e+01 -2.747212600708007812e+01 2.016310542821884155e-01 7.102571010589599609e+00 2.191260576248168945e+00 4.426110982894897461e-01
2.885000000000000000e+03 7.126190948486328125e+01 3.547348785400390625e+01 -1.223821416497230530e-01 6.647027492523193359e+00 1.957393527030944824e+00 -1.897028461098670959e-02
2.886000000000000000e+03 6.838927459716796875e+01 3.281165695190429688e+01 -2.742060422897338867e-01 6.109008789062500000e+00 1.750440835952758789e+00 -1.344604194164276123e-01
2.887000000000000000e+03 1.008964061737060547e+01 -9.445522308349609375e+00 3.443055450916290283e-01 2.239067554473876953e+00 7.750119566917419434e-01 6.511349231004714966e-03
2.888000000000000000e+03 4.365288162231445312e+01 2.743353652954101562e+01 -7.264857292175292969e-01 3.463035583496093750e+00 8.209649324417114258e-01 1.240317940711975098e+00
2.889000000000000000e+03 4.231848144531250000e+01 2.585848999023437500e+01 -8.722184896469116211e-01 3.946958303451538086e+00 9.224219322204589844e-01 1.231722712516784668e+00
2.890000000000000000e+03 1.313397693634033203e+01 2.816514205932617188e+01 -9.921069145202636719e-01 2.637495756149291992e+00 4.936166703701019287e-01 2.572388574481010437e-02
2.891000000000000000e+03 4.103673553466796875e+01 2.430205535888671875e+01 -8.674274682998657227e-01 4.465221405029296875e+00 1.079338192939758301e+00 1.160082578659057617e+00
2.892000000000000000e+03 1.066231441497802734e+01 -2.581429862976074219e+01 -5.212059020996093750e-01 3.089254140853881836e+00 7.704144716262817383e-01 9.885880351066589355e-01
2.893000000000000000e+03 3.938699722290039062e+01 -3.277564620971679688e+01 -1.242232918739318848e+00 6.478797912597656250e+00 1.570969581604003906e+00 3.743992745876312256e-01
2.894000000000000000e+03 4.089336013793945312e+01 -2.940558815002441406e+01 -9.507650136947631836e-02 7.789347171783447266e+00 2.308281183242797852e+00 -5.808364599943161011e-03
2.895000000000000000e+03 3.957418823242187500e+01 -3.090130615234375000e+01 -7.329495549201965332e-01 7.042445659637451172e+00 1.892848849296569824e+00 3.258229494094848633e-01
2.896000000000000000e+03 6.781317901611328125e+01 2.752399444580078125e+01 -6.378579139709472656e-01 6.506855964660644531e+00 1.760699391365051270e+00 -4.389704763889312744e-02
2.897000000000000000e+03 6.627626800537109375e+01 2.721155166625976562e+01 -7.711279988288879395e-01 6.287109851837158203e+00 1.654794573783874512e+00 -2.574932277202606201e-01
2.898000000000000000e+03 1.409379959106445312e+01 -3.300825881958007812e+01 -8.609535098075866699e-01 1.949990272521972656e+00 3.267110586166381836e-01 -6.176262977533042431e-04
2.899000000000000000e+03 6.902890777587890625e+01 3.046480178833007812e+01 -4.183835089206695557e-01 6.386676311492919922e+00 1.790487885475158691e+00 -6.023295596241950989e-02
2.900000000000000000e+03 1.362344169616699219e+01 3.289312744140625000e+01 -5.564047694206237793e-01 1.945316791534423828e+00 4.166736304759979248e-01 1.697739027440547943e-02
2.901000000000000000e+03 6.334479141235351562e+01 2.568462753295898438e+01 -1.007128238677978516e+00 5.551232814788818359e+00 1.363231301307678223e+00 -7.365097999572753906e-01
2.902000000000000000e+03 6.526206970214843750e+01 2.306167793273925781e+01 -8.337118625640869141e-01 6.889913558959960938e+00 1.816860556602478027e+00 -3.751410171389579773e-02
2.903000000000000000e+03 3.007673263549804688e+01 2.929290962219238281e+01 -8.762202262878417969e-01 2.920419692993164062e+00 6.132597923278808594e-01 -7.387851476669311523e-01
2.904000000000000000e+03 2.309432601928710938e+01 3.414812088012695312e+01 -3.169090151786804199e-01 1.724085569381713867e+00 4.221529662609100342e-01 -1.689654886722564697e-01
2.905000000000000000e+03 3.662645721435546875e+01 2.426929283142089844e+01 -1.052893400192260742e+00 4.947415351867675781e+00 1.168356657028198242e+00 3.108307719230651855e-01
2.906000000000000000e+03 1.256193828582763672e+01 -3.637881469726562500e+01 -6.064993143081665039e-01 1.737020373344421387e+00 3.391563296318054199e-01 6.061896309256553650e-02
2.907000000000000000e+03 7.081321716308593750e+01 5.426319837570190430e-01 6.905512511730194092e-02 6.728986263275146484e+00 2.039412498474121094e+00 -8.234514594078063965e-01
2.908000000000000000e+03 3.624000930786132812e+01 1.953014755249023438e+01 -2.357385903596878052e-01 6.205930233001708984e+00 1.791057467460632324e+00 6.662076711654663086e-02
2.909000000000000000e+03 6.842366027832031250e+01 -3.385486602783203125e-01 1.589777171611785889e-01 6.280331611633300781e+00 1.931792855262756348e+00 -7.928586006164550781e-01
2.910000000000000000e+03 6.433043670654296875e+01 -5.009588241577148438e+00 3.739369809627532959e-01 3.754148244857788086e+00 1.238425493240356445e+00 -8.313884139060974121e-01
2.911000000000000000e+03 6.259754943847656250e+01 -4.516136169433593750e+00 6.757726073265075684e-01 3.125895977020263672e+00 1.140500545501708984e+00 -1.414657086133956909e-01
2.912000000000000000e+03 6.727622985839843750e+01 3.626897573471069336e+00 5.863295197486877441e-01 6.678722858428955078e+00 2.179515600204467773e+00 -2.747157216072082520e-01
2.913000000000000000e+03 1.263423442840576172e+01 -3.895682907104492188e+01 -4.597147405147552490e-01 1.561647653579711914e+00 3.305798768997192383e-01 2.556873299181461334e-02
2.914000000000000000e+03 6.462404632568359375e+01 2.168280792236328125e+01 -8.508781790733337402e-01 7.309339523315429688e+00 1.937538385391235352e+00 3.873585537075996399e-02
2.915000000000000000e+03 6.660334014892578125e+01 2.251148033142089844e+01 -6.313834190368652344e-01 7.227613449096679688e+00 1.978869080543518066e+00 3.128335177898406982e-01
2.916000000000000000e+03 1.916383171081542969e+01 -4.011032104492187500e+00 1.810677796602249146e-01 5.368858337402343750e+00 1.664977908134460449e+00 2.035737276077270508e+00
2.917000000000000000e+03 2.026573944091796875e+01 -5.812760829925537109e+00 -3.324811160564422607e-02 3.813904285430908203e+00 1.134196877479553223e+00 1.489953041076660156e+00
2.918000000000000000e+03 2.009641456604003906e+01 -3.493160247802734375e+00 6.485080122947692871e-01 5.974270343780517578e+00 1.986833572387695312e+00 7.779272794723510742e-01
2.919000000000000000e+03 1.712988090515136719e+01 -3.775835752487182617e+00 6.035607457160949707e-01 3.511853933334350586e+00 1.234624385833740234e+00 3.028120279312133789e+00
2.920000000000000000e+03 1.831745719909667969e+01 -3.259633302688598633e+00 5.672267079353332520e-01 5.230824947357177734e+00 1.739415526390075684e+00 2.930221796035766602e+00
2.921000000000000000e+03 1.821804428100585938e+01 -6.344952106475830078e+00 -2.679078876972198486e-01 3.776562929153442383e+00 1.052596569061279297e+00 2.529242277145385742e+00
2.922000000000000000e+03 1.562156772613525391e+01 -3.496250391006469727e+00 6.299189329147338867e-01 1.902555227279663086e+00 7.597422599792480469e-01 2.373799085617065430e+00
2.923000000000000000e+03 2.091220855712890625e+01 -3.762379169464111328e+00 1.061466217041015625e+00 4.767071723937988281e+00 1.748561382293701172e+00 1.194844171404838562e-01
2.924000000000000000e+03 2.054034614562988281e+01 -2.365125656127929688e+00 1.864962697029113770e+00 6.990838050842285156e+00 2.656740188598632812e+00 -9.636873006820678711e-01
2.925000000000000000e+03 1.505306243896484375e+01 -4.354171276092529297e+00 3.355048596858978271e-01 2.067614316940307617e+00 7.209357619285583496e-01 2.196146011352539062e+00
2.926000000000000000e+03 1.796825599670410156e+01 -4.331748962402343750e+00 1.767217963933944702e-01 4.357437133789062500e+00 1.360247731208801270e+00 2.825134754180908203e+00
2.927000000000000000e+03 2.246782684326171875e+01 -3.785697698593139648e+00 2.213749408721923828e+00 2.657200336456298828e+00 1.461284875869750977e+00 -6.724929809570312500e-01
2.928000000000000000e+03 1.462520694732666016e+01 -5.006639003753662109e+00 1.734244227409362793e-01 2.209043741226196289e+00 7.147404551506042480e-01 2.035610437393188477e+00
2.929000000000000000e+03 1.547240161895751953e+01 -5.552303791046142578e+00 4.335025697946548462e-02 2.803521156311035156e+00 8.540614247322082520e-01 2.421163082122802734e+00
2.930000000000000000e+03 2.323007774353027344e+01 -3.425009012222290039e+00 3.016978740692138672e+00 1.630993962287902832e+00 1.394391775131225586e+00 -7.911705970764160156e-01
2.931000000000000000e+03 2.186659431457519531e+01 -2.513855218887329102e+00 3.191413402557373047e+00 3.856648206710815430e+00 2.114418506622314453e+00 -1.551904439926147461e+00
2.932000000000000000e+03 2.375332832336425781e+01 -2.256572484970092773e+00 4.677045345306396484e+00 5.623520016670227051e-01 1.571819186210632324e+00 -1.097929000854492188e+00
2.933000000000000000e+03 1.760586166381835938e+01 -6.821121692657470703e+00 -3.288704752922058105e-01 3.601403236389160156e+00 9.817598462104797363e-01 2.628167629241943359e+00
2.934000000000000000e+03 1.953069114685058594e+01 -6.837525844573974609e+00 -3.925073444843292236e-01 3.422959089279174805e+00 9.091355800628662109e-01 2.036288261413574219e+00
2.935000000000000000e+03 2.098367881774902344e+01 -5.303562641143798828e+00 3.036850690841674805e-01 3.744709014892578125e+00 1.214518189430236816e+00 8.337133526802062988e-01
2.936000000000000000e+03 1.878513336181640625e+01 -3.429940700531005859e+00 3.539088666439056396e-01 5.778981208801269531e+00 1.839866995811462402e+00 2.474767684936523438e+00
2.937000000000000000e+03 1.567861843109130859e+01 -6.283430576324462891e+00 -1.042179390788078308e-01 3.133737325668334961e+00 9.088558554649353027e-01 2.480568885803222656e+00
2.938000000000000000e+03 1.781216049194335938e+01 -3.879996776580810547e+00 4.450944364070892334e-01 4.344958305358886719e+00 1.437015771865844727e+00 2.980929613113403320e+00
2.939000000000000000e+03 2.127469825744628906e+01 -4.703159809112548828e+00 7.855786085128784180e-01 3.692666053771972656e+00 1.343473434448242188e+00 3.286511301994323730e-01
2.940000000000000000e+03 8.777842521667480469e+00 -7.566663265228271484e+00 1.143586933612823486e-01 1.204011201858520508e+00 3.955109715461730957e-01 -2.808251380920410156e-01
2.941000000000000000e+03 2.262545967102050781e+01 -2.804601192474365234e+00 3.474205732345581055e+00 2.336940765380859375e+00 1.743343949317932129e+00 -1.324545264244079590e+00
2.942000000000000000e+03 2.147818183898925781e+01 -2.822152376174926758e+00 2.482649564743041992e+00 4.672260284423828125e+00 2.146472930908203125e+00 -1.316923856735229492e+00
2.943000000000000000e+03 1.820699310302734375e+01 -6.956432819366455078e+00 -3.837684094905853271e-01 3.578585386276245117e+00 9.584450721740722656e-01 2.550646781921386719e+00
2.944000000000000000e+03 1.012910270690917969e+01 -7.772609710693359375e+00 1.063242405652999878e-01 1.765077114105224609e+00 5.614204406738281250e-01 7.931302487850189209e-02
2.945000000000000000e+03 1.744517517089843750e+01 -4.188688278198242188e+00 3.641472160816192627e-01 3.825050830841064453e+00 1.256759405136108398e+00 2.994869709014892578e+00
2.946000000000000000e+03 2.249420928955078125e+01 -1.527803540229797363e+00 5.127099990844726562e+00 2.084899187088012695e+00 2.163599729537963867e+00 -2.096874713897705078e+00
2.947000000000000000e+03 1.075870323181152344e+01 -7.426130771636962891e+00 5.992187187075614929e-02 1.875614285469055176e+00 5.806608796119689941e-01 3.197368979454040527e-01
2.948000000000000000e+03 1.341977977752685547e+01 -7.494024753570556641e+00 -7.562282681465148926e-02 2.884100675582885742e+00 8.425433635711669922e-01 1.389536023139953613e+00
2.949000000000000000e+03 1.175065040588378906e+01 -8.836326599121093750e+00 1.359714120626449585e-01 2.806729793548583984e+00 8.828103542327880859e-01 5.832200050354003906e-01
2.950000000000000000e+03 1.574433898925781250e+01 -7.322033882141113281e+00 -2.790482342243194580e-01 3.471152067184448242e+00 9.576311111450195312e-01 2.425301313400268555e+00
2.951000000000000000e+03 9.596300125122070312e+00 8.373623847961425781e+00 1.196403861045837402e+00 1.911155343055725098e+00 9.322677254676818848e-01 2.421502768993377686e-01
2.952000000000000000e+03 1.312831306457519531e+01 -6.716520786285400391e+00 -3.047748841345310211e-02 2.491469144821166992e+00 7.382975220680236816e-01 1.291000127792358398e+00
2.953000000000000000e+03 1.194983768463134766e+01 -7.417521953582763672e+00 1.998894847929477692e-02 2.306542158126831055e+00 6.979593634605407715e-01 7.546897530555725098e-01
2.954000000000000000e+03 9.407773017883300781e+00 -1.020109272003173828e+01 4.880054593086242676e-01 2.050721645355224609e+00 7.616180777549743652e-01 -1.763043999671936035e-01
2.955000000000000000e+03 1.086212444305419922e+01 -9.213426589965820312e+00 2.445002347230911255e-01 2.533154726028442383e+00 8.332964777946472168e-01 2.317954003810882568e-01
2.956000000000000000e+03 6.805512237548828125e+01 1.008178830146789551e+00 3.157150149345397949e-01 6.340648651123046875e+00 1.996909141540527344e+00 -6.107832789421081543e-01
2.957000000000000000e+03 6.722673034667968750e+01 -6.322782516479492188e+00 -5.996265411376953125e-01 5.514603614807128906e+00 1.474493145942687988e+00 -1.651851534843444824e+00
2.958000000000000000e+03 6.890383911132812500e+01 -1.704944133758544922e+00 -7.779157161712646484e-02 6.336616992950439453e+00 1.877647638320922852e+00 -9.330155849456787109e-01
2.959000000000000000e+03 7.094388580322265625e+01 4.222537040710449219e+00 3.690389394760131836e-01 6.859025955200195312e+00 2.168419599533081055e+00 -6.012803912162780762e-01
2.960000000000000000e+03 6.707260131835937500e+01 -8.093602061271667480e-01 2.491534352302551270e-01 5.886530876159667969e+00 1.840705394744873047e+00 -6.505030989646911621e-01
2.961000000000000000e+03 9.452300071716308594e+00 -9.583218574523925781e+00 3.628215789794921875e-01 1.996627807617187500e+00 7.078348398208618164e-01 -1.300145685672760010e-01
2.962000000000000000e+03 6.872666168212890625e+01 -3.399361038208007812e+01 -5.623574256896972656e-01 5.655359268188476562e+00 1.527900576591491699e+00 4.369032382965087891e-01
2.963000000000000000e+03 4.177273941040039062e+01 -3.262602615356445312e+01 -1.210778117179870605e+00 6.975767135620117188e+00 1.729496717453002930e+00 -1.292310506105422974e-01
2.964000000000000000e+03 3.880252456665039062e+01 2.153919219970703125e+01 -6.774194836616516113e-01 5.409213542938232422e+00 1.419538140296936035e+00 8.274927735328674316e-01
2.965000000000000000e+03 3.680262374877929688e+01 2.625312995910644531e+01 -1.132659316062927246e+00 4.594863414764404297e+00 1.038661241531372070e+00 3.177205324172973633e-01
2.966000000000000000e+03 6.534339141845703125e+01 -5.404585838317871094e+00 -1.218273490667343140e-02 4.345437049865722656e+00 1.299976348876953125e+00 -1.212343096733093262e+00
2.967000000000000000e+03 7.266624450683593750e+01 3.020169830322265625e+01 -2.668947279453277588e-01 7.018627166748046875e+00 2.025519847869873047e+00 1.660568416118621826e-01
2.968000000000000000e+03 6.637899780273437500e+01 2.584852600097656250e+01 -7.863571643829345703e-01 6.510778903961181641e+00 1.717326521873474121e+00 -1.334772855043411255e-01
2.969000000000000000e+03 6.883390808105468750e+01 2.673378705978393555e+00 3.872868716716766357e-01 6.634105205535888672e+00 2.106417655944824219e+00 -5.602208375930786133e-01
2.970000000000000000e+03 3.493049240112304688e+01 2.620855522155761719e+01 -1.181487441062927246e+00 4.493825435638427734e+00 9.937014579772949219e-01 -9.557296335697174072e-02
2.971000000000000000e+03 1.211459159851074219e+01 -3.399730300903320312e+01 -7.442209720611572266e-01 1.953546762466430664e+00 3.627977371215820312e-01 1.645812392234802246e-01
2.972000000000000000e+03 4.633100509643554688e+01 2.737859535217285156e+01 -4.943347275257110596e-01 2.830276727676391602e+00 7.007825970649719238e-01 1.347309708595275879e+00
2.973000000000000000e+03 6.722196197509765625e+01 2.399884414672851562e+01 -7.037459015846252441e-01 6.969365119934082031e+00 1.879685878753662109e+00 2.274947762489318848e-01
2.974000000000000000e+03 7.126840972900390625e+01 -4.968372344970703125e+00 -7.626137733459472656e-01 7.266882419586181641e+00 1.951280593872070312e+00 -9.959225058555603027e-01
2.975000000000000000e+03 3.400556564331054688e+01 3.239161682128906250e+01 -9.407367110252380371e-01 3.371994495391845703e+00 7.293773293495178223e-01 -1.583251059055328369e-01
2.976000000000000000e+03 3.039825630187988281e+01 3.269849014282226562e+01 -7.580556869506835938e-01 2.759627342224121094e+00 6.004715561866760254e-01 -4.593507349491119385e-01
2.977000000000000000e+03 1.970770645141601562e+01 -3.114728212356567383e+00 5.791525840759277344e-01 6.648268222808837891e+00 2.168226242065429688e+00 1.108890295028686523e+00
2.978000000000000000e+03 1.978095436096191406e+01 -4.801165103912353516e+00 1.046482995152473450e-01 4.662836551666259766e+00 1.430245399475097656e+00 1.636568307876586914e+00
2.979000000000000000e+03 1.928386306762695312e+01 -3.594155550003051758e+00 3.548763394355773926e-01 5.889635562896728516e+00 1.873353600502014160e+00 1.858174562454223633e+00
2.980000000000000000e+03 2.056291007995605469e+01 -3.208935260772705078e+00 1.179743051528930664e+00 5.878493785858154297e+00 2.117471218109130859e+00 -3.585493937134742737e-02
2.981000000000000000e+03 1.932805824279785156e+01 -3.204113721847534180e+00 4.448985755443572998e-01 6.390573024749755859e+00 2.050641536712646484e+00 1.735014915466308594e+00
2.982000000000000000e+03 2.018737411499023438e+01 -4.207761764526367188e+00 4.149479568004608154e-01 5.138671875000000000e+00 1.666085958480834961e+00 9.870893955230712891e-01
2.983000000000000000e+03 1.521361637115478516e+01 -5.269634246826171875e+00 1.417424529790878296e-01 2.587637901306152344e+00 8.188140988349914551e-01 2.324812173843383789e+00
2.984000000000000000e+03 2.143247985839843750e+01 -3.618671178817749023e+00 1.605443239212036133e+00 4.331459999084472656e+00 1.781071066856384277e+00 -4.559869766235351562e-01
2.985000000000000000e+03 2.102482795715332031e+01 -2.543876647949218750e+00 2.301827430725097656e+00 5.772870540618896484e+00 2.422409296035766602e+00 -1.190972208976745605e+00
2.986000000000000000e+03 1.643448066711425781e+01 -3.839985370635986328e+00 6.178453564643859863e-01 2.698572874069213867e+00 9.949254393577575684e-01 2.808297395706176758e+00
2.987000000000000000e+03 2.042370414733886719e+01 -5.121227264404296875e+00 2.081859260797500610e-01 4.240494251251220703e+00 1.334604024887084961e+00 1.201773881912231445e+00
2.988000000000000000e+03 1.481832790374755859e+01 -5.537625789642333984e+00 8.076978474855422974e-02 2.489994525909423828e+00 7.712293267250061035e-01 2.141854524612426758e+00
2.989000000000000000e+03 1.978453826904296875e+01 -3.849381923675537109e+00 3.519136011600494385e-01 5.653212547302246094e+00 1.801537871360778809e+00 1.334285855293273926e+00
2.990000000000000000e+03 2.071149635314941406e+01 -4.947292327880859375e+00 4.423847496509552002e-01 3.989743947982788086e+00 1.329638600349426270e+00 8.681880831718444824e-01
2.991000000000000000e+03 1.983428001403808594e+01 -6.083131790161132812e+00 -2.291474491357803345e-01 3.751137495040893555e+00 1.056596994400024414e+00 1.796827077865600586e+00
2.992000000000000000e+03 1.878241348266601562e+01 -6.357541561126708984e+00 -3.382139503955841064e-01 3.777901649475097656e+00 1.031906366348266602e+00 2.366067886352539062e+00
2.993000000000000000e+03 2.116238594055175781e+01 -4.267705440521240234e+00 9.396803975105285645e-01 4.297950267791748047e+00 1.571289300918579102e+00 2.137840092182159424e-01
2.994000000000000000e+03 2.221451950073242188e+01 -3.002624273300170898e+00 2.937167882919311523e+00 3.117374420166015625e+00 1.816362738609313965e+00 -1.261614680290222168e+00
2.995000000000000000e+03 1.765202713012695312e+01 -6.278875350952148438e+00 -2.479216605424880981e-01 3.653869152069091797e+00 1.021784305572509766e+00 2.705910921096801758e+00
2.996000000000000000e+03 1.517439079284667969e+01 -5.969153404235839844e+00 -5.127764772623777390e-03 2.847626447677612305e+00 8.527495861053466797e-01 2.283270359039306641e+00
2.997000000000000000e+03 1.519791507720947266e+01 -6.906638145446777344e+00 -1.565161198377609253e-01 3.250856161117553711e+00 9.283019900321960449e-01 2.245947599411010742e+00
2.998000000000000000e+03 6.846659088134765625e+01 -5.678487777709960938e+00 -6.718741059303283691e-01 6.199482917785644531e+00 1.658282637596130371e+00 -1.496821403503417969e+00
2.999000000000000000e+03 6.574665832519531250e+01 -4.287471294403076172e+00 1.420307457447052002e-01 4.744038581848144531e+00 1.465820789337158203e+00 -1.037906169891357422e+00
3.000000000000000000e+03 6.527347564697265625e+01 -2.446870565414428711e+00 4.280139803886413574e-01 4.946607589721679688e+00 1.612386465072631836e+00 -5.698074102401733398e-01
3.001000000000000000e+03 6.496526336669921875e+01 -6.480707168579101562e+00 2.487692609429359436e-02 3.648561239242553711e+00 1.102031469345092773e+00 -1.397057294845581055e+00
3.002000000000000000e+03 6.629036712646484375e+01 -5.889076709747314453e+00 -2.458223849534988403e-01 4.837549209594726562e+00 1.377518057823181152e+00 -1.461435079574584961e+00
3.003000000000000000e+03 3.986075592041015625e+01 2.284093666076660156e+01 -8.467367887496948242e-01 4.947118282318115234e+00 1.230114459991455078e+00 1.029303789138793945e+00
3.004000000000000000e+03 3.975813674926757812e+01 1.843980789184570312e+01 -1.320142149925231934e-01 6.064306259155273438e+00 1.779687523841857910e+00 1.207073330879211426e+00
3.005000000000000000e+03 3.976736450195312500e+01 2.049488258361816406e+01 -5.250750184059143066e-01 5.502829074859619141e+00 1.493326187133789062e+00 1.082398176193237305e+00
3.006000000000000000e+03 6.740206146240234375e+01 -3.502151107788085938e+01 -3.075201213359832764e-01 4.541426658630371094e+00 1.270171999931335449e+00 5.672837495803833008e-01
3.007000000000000000e+03 6.955560302734375000e+01 -2.948030710220336914e+00 -2.496916949748992920e-01 6.455437183380126953e+00 1.861723661422729492e+00 -1.065354704856872559e+00
3.008000000000000000e+03 6.368533325195312500e+01 3.042478179931640625e+01 -3.856855332851409912e-01 4.995934963226318359e+00 1.383074760437011719e+00 -5.687839984893798828e-01
3.009000000000000000e+03 6.241633224487304688e+01 2.837169837951660156e+01 -5.652841925621032715e-01 4.583673954010009766e+00 1.205516815185546875e+00 -8.779748082160949707e-01
3.010000000000000000e+03 1.244272232055664062e+01 3.856069564819335938e+01 -2.703355848789215088e-01 1.776735544204711914e+00 4.519199728965759277e-01 -3.127771243453025818e-02
3.011000000000000000e+03 1.148941135406494141e+01 3.374138641357421875e+01 -4.967862069606781006e-01 1.977223515510559082e+00 4.441311955451965332e-01 -1.196800470352172852e-01
3.012000000000000000e+03 4.606048202514648438e+01 -3.140769004821777344e+01 -7.631990313529968262e-01 6.820480823516845703e+00 1.817184448242187500e+00 -1.700831174850463867e+00
3.013000000000000000e+03 3.590837097167968750e+01 -3.319361114501953125e+01 -1.142090678215026855e+00 5.140522003173828125e+00 1.199529409408569336e+00 1.038214921951293945e+00
3.014000000000000000e+03 1.871390151977539062e+01 -3.873086929321289062e+00 2.674493491649627686e-01 5.294041156768798828e+00 1.668447256088256836e+00 2.477113723754882812e+00
3.015000000000000000e+03 1.867049598693847656e+01 -4.818602561950683594e+00 3.130405023694038391e-02 4.498294353485107422e+00 1.358879566192626953e+00 2.413535356521606445e+00
3.016000000000000000e+03 1.959321403503417969e+01 -4.218021869659423828e+00 2.241443991661071777e-01 5.221851348876953125e+00 1.633798718452453613e+00 1.664826512336730957e+00
3.017000000000000000e+03 1.554128646850585938e+01 -4.730086326599121094e+00 2.905058562755584717e-01 2.511800050735473633e+00 8.406917452812194824e-01 2.475284814834594727e+00
3.018000000000000000e+03 1.590853881835937500e+01 -5.671748161315917969e+00 3.421542793512344360e-02 3.000534534454345703e+00 9.104250073432922363e-01 2.580189704895019531e+00
3.019000000000000000e+03 1.991482353210449219e+01 -5.389379024505615234e+00 -2.592600509524345398e-02 4.192245483398437500e+00 1.249895811080932617e+00 1.614678502082824707e+00
3.020000000000000000e+03 2.077502632141113281e+01 -4.391423225402832031e+00 6.923707723617553711e-01 4.385371685028076172e+00 1.523322701454162598e+00 5.916601419448852539e-01
3.021000000000000000e+03 1.825394058227539062e+01 -3.785020351409912109e+00 3.515365719795227051e-01 4.842413425445556641e+00 1.558184981346130371e+00 2.847168445587158203e+00
3.022000000000000000e+03 2.048204421997070312e+01 -4.576918125152587891e+00 3.896955847740173340e-01 4.665243148803710938e+00 1.516481637954711914e+00 8.878273963928222656e-01
3.023000000000000000e+03 1.822034645080566406e+01 -5.786314964294433594e+00 -2.126893252134323120e-01 3.937268257141113281e+00 1.117373704910278320e+00 2.584314823150634766e+00
3.024000000000000000e+03 1.871148490905761719e+01 -5.813791275024414062e+00 -1.746133416891098022e-01 4.002721309661865234e+00 1.148432374000549316e+00 2.369552135467529297e+00
3.025000000000000000e+03 1.715793991088867188e+01 -6.488682270050048828e+00 -2.175280600786209106e-01 3.586927413940429688e+00 1.010819792747497559e+00 2.712700605392456055e+00
3.026000000000000000e+03 1.768773269653320312e+01 -5.697693347930908203e+00 -1.245553568005561829e-01 3.797571420669555664e+00 1.101904869079589844e+00 2.724308490753173828e+00
3.027000000000000000e+03 1.714099311828613281e+01 -4.590785980224609375e+00 2.622439265251159668e-01 3.582937955856323242e+00 1.153554558753967285e+00 2.913560867309570312e+00
3.028000000000000000e+03 1.593263721466064453e+01 -4.761180877685546875e+00 3.007400035858154297e-01 2.689563035964965820e+00 8.970909714698791504e-01 2.622386932373046875e+00
3.029000000000000000e+03 1.674949264526367188e+01 -6.011656284332275391e+00 -1.281308382749557495e-01 3.416504144668579102e+00 9.865120053291320801e-01 2.747615337371826172e+00
3.030000000000000000e+03 2.264189720153808594e+01 -3.298973083496093750e+00 2.937503099441528320e+00 2.428105354309082031e+00 1.609682559967041016e+00 -9.648111462593078613e-01
3.031000000000000000e+03 6.755166625976562500e+01 -2.262268304824829102e+00 5.798986554145812988e-02 5.837901115417480469e+00 1.768767237663269043e+00 -9.324427843093872070e-01
3.032000000000000000e+03 6.856938171386718750e+01 -4.596138000488281250e+00 -4.310369789600372314e-01 6.135701179504394531e+00 1.711399197578430176e+00 -1.271593213081359863e+00
3.033000000000000000e+03 4.665740966796875000e+01 -2.985799407958984375e+01 4.252365827560424805e-01 6.977088451385498047e+00 2.220697641372680664e+00 -2.359804868698120117e+00
3.034000000000000000e+03 6.532987213134765625e+01 2.870298767089843750e+01 -6.366878151893615723e-01 5.763148784637451172e+00 1.537938237190246582e+00 -4.157494902610778809e-01
3.035000000000000000e+03 3.676309967041015625e+01 2.832009887695312500e+01 -1.142462730407714844e+00 4.109056472778320312e+00 8.899781107902526855e-01 2.242999225854873657e-01
3.036000000000000000e+03 3.506375503540039062e+01 2.801041603088378906e+01 -1.151725411415100098e+00 4.115060806274414062e+00 8.890005946159362793e-01 -2.736312150955200195e-02
3.037000000000000000e+03 6.043270874023437500e+01 2.924483489990234375e+01 -2.263999283313751221e-01 3.609683513641357422e+00 1.014985084533691406e+00 -8.230927586555480957e-01
3.038000000000000000e+03 6.716297912597656250e+01 -3.920836448669433594e+00 -9.932935237884521484e-02 5.563179016113281250e+00 1.639154911041259766e+00 -1.144566535949707031e+00
3.039000000000000000e+03 7.007973480224609375e+01 -4.120764255523681641e+00 -5.623120069503784180e-01 6.747595787048339844e+00 1.855585098266601562e+00 -1.158636212348937988e+00
3.040000000000000000e+03 1.902856063842773438e+01 -4.860852241516113281e+00 -5.049468576908111572e-02 4.622467994689941406e+00 1.371591925621032715e+00 2.212061166763305664e+00
3.041000000000000000e+03 1.830693817138671875e+01 -4.296948909759521484e+00 1.909554004669189453e-01 4.602632522583007812e+00 1.438076376914978027e+00 2.669959545135498047e+00
3.042000000000000000e+03 1.682878875732421875e+01 -5.048449993133544922e+00 1.431503742933273315e-01 3.352386951446533203e+00 1.048661231994628906e+00 2.862298250198364258e+00
3.043000000000000000e+03 1.785113716125488281e+01 -5.154726505279541016e+00 -2.372725307941436768e-02 4.013293743133544922e+00 1.196869969367980957e+00 2.757122993469238281e+00
3.044000000000000000e+03 1.615372467041015625e+01 -4.320375442504882812e+00 4.308971166610717773e-01 2.670272111892700195e+00 9.303507208824157715e-01 2.701574802398681641e+00
3.045000000000000000e+03 1.554986286163330078e+01 -5.166452407836914062e+00 1.718627661466598511e-01 2.681235551834106445e+00 8.559294342994689941e-01 2.485961675643920898e+00
3.046000000000000000e+03 1.747390556335449219e+01 -4.929616928100585938e+00 1.000093072652816772e-01 3.817107915878295898e+00 1.175135135650634766e+00 2.878411531448364258e+00
3.047000000000000000e+03 2.024514007568359375e+01 -4.781986713409423828e+00 2.518976628780364990e-01 4.586615562438964844e+00 1.451554059982299805e+00 1.144963979721069336e+00
3.048000000000000000e+03 1.939224624633789062e+01 -5.249049186706542969e+00 -1.108700186014175415e-01 4.385927677154541016e+00 1.282517313957214355e+00 1.983539700508117676e+00
3.049000000000000000e+03 1.957983970642089844e+01 -5.625373840332031250e+00 -9.581542015075683594e-02 4.110641479492187500e+00 1.204447865486145020e+00 1.917100191116333008e+00
3.050000000000000000e+03 1.907306861877441406e+01 -4.430710315704345703e+00 1.102163493633270264e-01 4.953269958496093750e+00 1.519045948982238770e+00 2.151477336883544922e+00
3.051000000000000000e+03 1.868422317504882812e+01 -4.339809894561767578e+00 8.661958575248718262e-02 4.847049713134765625e+00 1.480100750923156738e+00 2.465323925018310547e+00
3.052000000000000000e+03 1.916952323913574219e+01 -5.762626647949218750e+00 -2.361201792955398560e-01 4.055998802185058594e+00 1.145963549613952637e+00 2.161547660827636719e+00
3.053000000000000000e+03 1.650642967224121094e+01 -4.645557403564453125e+00 3.106781244277954102e-01 3.052930593490600586e+00 1.009082555770874023e+00 2.799052238464355469e+00
3.054000000000000000e+03 6.783453369140625000e+01 -4.374932289123535156e+00 -3.563667535781860352e-01 5.871179580688476562e+00 1.654443860054016113e+00 -1.341366171836853027e+00
3.055000000000000000e+03 4.109964370727539062e+01 2.172346687316894531e+01 -6.200155019760131836e-01 4.814250469207763672e+00 1.258270502090454102e+00 1.318815350532531738e+00
3.056000000000000000e+03 3.958729171752929688e+01 2.541876792907714844e+01 -1.031343460083007812e+00 4.540197849273681641e+00 1.052656412124633789e+00 8.367727398872375488e-01
3.057000000000000000e+03 6.798966217041015625e+01 3.547123336791992188e+01 -1.064731031656265259e-01 5.876248836517333984e+00 1.730932712554931641e+00 -1.302703469991683960e-01
3.058000000000000000e+03 6.126414108276367188e+01 3.153708839416503906e+01 -7.082372158765792847e-02 4.020477771759033203e+00 1.184896230697631836e+00 -5.784940123558044434e-01
3.059000000000000000e+03 1.935428810119628906e+01 -4.918845176696777344e+00 2.610629610717296600e-02 4.607700824737548828e+00 1.390142083168029785e+00 1.987707972526550293e+00
3.060000000000000000e+03 1.944841575622558594e+01 -4.578254699707031250e+00 6.332190334796905518e-02 4.905602931976318359e+00 1.490677475929260254e+00 1.865640282630920410e+00
3.061000000000000000e+03 1.588846397399902344e+01 -5.175426006317138672e+00 1.728228181600570679e-01 2.839546442031860352e+00 9.037107825279235840e-01 2.582658052444458008e+00
3.062000000000000000e+03 1.641213989257812500e+01 -5.495063781738281250e+00 5.368006601929664612e-02 3.215696573257446289e+00 9.808130264282226562e-01 2.721944093704223633e+00
3.063000000000000000e+03 1.797648811340332031e+01 -4.718343734741210938e+00 1.015441939234733582e-01 4.207040309906005859e+00 1.292575359344482422e+00 2.741960525512695312e+00
3.064000000000000000e+03 1.831045722961425781e+01 -4.776029586791992188e+00 9.108994156122207642e-03 4.376413345336914062e+00 1.315656661987304688e+00 2.626784801483154297e+00
3.065000000000000000e+03 1.719852638244628906e+01 -5.452810287475585938e+00 -5.110193043947219849e-03 3.612074136734008789e+00 1.082089185714721680e+00 2.810185909271240234e+00
3.066000000000000000e+03 1.905970573425292969e+01 -5.301280498504638672e+00 -6.198747083544731140e-02 4.303652763366699219e+00 1.272499561309814453e+00 2.194881677627563477e+00
3.067000000000000000e+03 1.313547325134277344e+01 -3.120062637329101562e+01 -9.191238880157470703e-01 2.251267194747924805e+00 3.996429741382598877e-01 1.940867155790328979e-01
3.068000000000000000e+03 8.439680099487304688e+00 -2.156355667114257812e+01 5.735197663307189941e-01 2.525357484817504883e+00 9.296631217002868652e-01 1.314820647239685059e+00
3.069000000000000000e+03 1.856391143798828125e+01 3.687371444702148438e+01 -2.717497944831848145e-01 1.694444894790649414e+00 4.268085360527038574e-01 5.404542665928602219e-03
3.070000000000000000e+03 2.346971893310546875e+01 3.219737625122070312e+01 -3.316590487957000732e-01 1.585205435752868652e+00 3.760639131069183350e-01 -2.990869581699371338e-01
3.071000000000000000e+03 2.123696899414062500e+01 3.565950012207031250e+01 -2.746876180171966553e-01 1.684613943099975586e+00 4.229779243469238281e-01 -8.208450675010681152e-02
3.072000000000000000e+03 7.170161437988281250e+01 -3.624455642700195312e+01 -3.005006909370422363e-01 6.905575752258300781e+00 1.981522440910339355e+00 2.105807662010192871e-01
3.073000000000000000e+03 6.299895858764648438e+01 -4.099958419799804688e+01 7.291609048843383789e-01 2.280307054519653320e+00 9.028404355049133301e-01 8.885189890861511230e-02
3.074000000000000000e+03 4.064286422729492188e+01 -3.723860549926757812e+01 -1.723672509193420410e+00 5.835311412811279297e+00 1.233491659164428711e+00 -1.556120719760656357e-02
3.075000000000000000e+03 6.527280426025390625e+01 2.635275650024414062e+01 -8.634130358695983887e-01 6.169624328613281250e+00 1.591863393783569336e+00 -3.408125936985015869e-01
3.076000000000000000e+03 6.574544525146484375e+01 3.204259109497070312e+01 -2.890255749225616455e-01 5.439370155334472656e+00 1.545103430747985840e+00 -3.467040359973907471e-01
3.077000000000000000e+03 3.800782775878906250e+01 -3.484291839599609375e+01 -1.464208364486694336e+00 5.787584781646728516e+00 1.297012925148010254e+00 5.770428180694580078e-01
3.078000000000000000e+03 4.097154235839843750e+01 2.698525619506835938e+01 -9.441992640495300293e-01 4.035944461822509766e+00 9.275236129760742188e-01 9.850299358367919922e-01
3.079000000000000000e+03 6.986439514160156250e+01 -3.298050689697265625e+01 -8.107187151908874512e-01 6.476474761962890625e+00 1.699726819992065430e+00 3.929619193077087402e-01
3.080000000000000000e+03 9.762157440185546875e+00 3.626585769653320312e+01 -3.224580287933349609e-01 1.844846367835998535e+00 4.567165076732635498e-01 -1.359657645225524902e-01
3.081000000000000000e+03 7.962713241577148438e+00 3.573975753784179688e+01 -2.687863111495971680e-01 1.818227648735046387e+00 4.648323953151702881e-01 -2.042967230081558228e-01
3.082000000000000000e+03 4.767583084106445312e+01 2.844720649719238281e+01 -3.443745076656341553e-01 2.549525022506713867e+00 6.615451574325561523e-01 1.235923647880554199e+00
3.083000000000000000e+03 6.463819885253906250e+01 3.486233901977539062e+01 -5.100080743432044983e-02 4.999466896057128906e+00 1.484539866447448730e+00 -2.992757856845855713e-01
3.084000000000000000e+03 2.575589561462402344e+01 2.885107040405273438e+01 -5.059752464294433594e-01 1.611241221427917480e+00 3.315798044204711914e-01 -7.280756235122680664e-01
3.085000000000000000e+03 2.571720886230468750e+01 3.480190277099609375e+01 -4.043836295604705811e-01 1.973671197891235352e+00 4.707862734794616699e-01 -3.227582275867462158e-01
3.086000000000000000e+03 1.257046031951904297e+01 -4.136978149414062500e+01 -4.110266864299774170e-01 1.531735420227050781e+00 3.362126350402832031e-01 9.760846383869647980e-03
3.087000000000000000e+03 2.202078628540039062e+01 -4.103674697875976562e+01 -1.290644109249114990e-01 8.528605699539184570e-01 2.171388566493988037e-01 -5.061826854944229126e-02
3.088000000000000000e+03 2.700112342834472656e+01 -3.809665298461914062e+01 -3.005329072475433350e-01 1.226318597793579102e+00 2.777357101440429688e-01 3.551055788993835449e-01
3.089000000000000000e+03 5.879496383666992188e+01 3.417254638671875000e+01 2.344821542501449585e-01 3.361538887023925781e+00 1.078806281089782715e+00 -2.693548500537872314e-01
3.090000000000000000e+03 3.465015029907226562e+01 3.001953697204589844e+01 -1.083490610122680664e+00 3.744178533554077148e+00 7.982063889503479004e-01 -9.584311395883560181e-02
3.091000000000000000e+03 7.179902648925781250e+01 -4.102051162719726562e+01 7.546082139015197754e-02 6.841159820556640625e+00 2.074986219406127930e+00 4.861349239945411682e-02
3.092000000000000000e+03 6.668512725830078125e+01 -3.825509262084960938e+01 1.934862583875656128e-01 4.222685337066650391e+00 1.324851512908935547e+00 3.724258840084075928e-01
3.093000000000000000e+03 2.038155555725097656e+01 -3.820785140991210938e+01 -2.998304665088653564e-01 8.763709068298339844e-01 1.729621291160583496e-01 -1.610793769359588623e-01
3.094000000000000000e+03 2.540850448608398438e+01 3.243722152709960938e+01 -4.024348556995391846e-01 1.792075276374816895e+00 4.168921411037445068e-01 -4.321378469467163086e-01
3.095000000000000000e+03 3.839686203002929688e+01 2.844355583190917969e+01 -1.087199926376342773e+00 4.136857986450195312e+00 9.148974418640136719e-01 4.950981736183166504e-01
3.096000000000000000e+03 3.887914657592773438e+01 3.052942085266113281e+01 -9.970065355300903320e-01 3.785492658615112305e+00 8.365458846092224121e-01 4.680072963237762451e-01
3.097000000000000000e+03 7.593460845947265625e+01 -3.700116729736328125e+01 -1.909452378749847412e-01 9.188172340393066406e+00 2.699168205261230469e+00 -6.787052750587463379e-02
3.098000000000000000e+03 5.095087051391601562e+01 2.905239295959472656e+01 -3.664210811257362366e-02 1.972963213920593262e+00 5.808963179588317871e-01 9.160519242286682129e-01
3.099000000000000000e+03 5.087368011474609375e+01 3.362860107421875000e+01 1.129532903432846069e-01 2.463283061981201172e+00 7.728709578514099121e-01 5.527210831642150879e-01
3.100000000000000000e+03 4.224824142456054688e+01 2.872936820983886719e+01 -8.312492966651916504e-01 3.646100997924804688e+00 8.444554805755615234e-01 1.009399771690368652e+00
3.101000000000000000e+03 6.890600585937500000e+01 -3.708907699584960938e+01 -7.619294524192810059e-02 5.492967128753662109e+00 1.625032305717468262e+00 3.038833439350128174e-01
3.102000000000000000e+03 1.213378524780273438e+01 3.598730468750000000e+01 -3.653268516063690186e-01 1.835824251174926758e+00 4.411492347717285156e-01 -6.383511424064636230e-02
3.103000000000000000e+03 2.643942070007324219e+01 3.780626296997070312e+01 -4.080597162246704102e-01 2.122710943222045898e+00 5.143953561782836914e-01 -1.816318780183792114e-01
3.104000000000000000e+03 5.268964767456054688e+01 2.888966369628906250e+01 8.950329571962356567e-02 1.768854260444641113e+00 5.575072765350341797e-01 6.166265010833740234e-01
3.105000000000000000e+03 3.221187591552734375e+01 -4.117906188964843750e+01 -9.012181162834167480e-01 3.060146570205688477e+00 6.476785540580749512e-01 1.873219162225723267e-01
3.106000000000000000e+03 4.509648895263671875e+01 2.890404701232910156e+01 -5.605943202972412109e-01 3.098962783813476562e+00 7.615105509757995605e-01 1.184943795204162598e+00
3.107000000000000000e+03 6.070695877075195312e+00 -3.827067565917968750e+01 -2.409240752458572388e-01 1.789004087448120117e+00 4.644239842891693115e-01 2.254965007305145264e-01
3.108000000000000000e+03 3.291376113891601562e+01 3.505718994140625000e+01 -7.749152779579162598e-01 2.979971408843994141e+00 6.615168452262878418e-01 -1.813650578260421753e-01
3.109000000000000000e+03 5.029124450683593750e+01 -3.532078552246093750e+01 -4.418367445468902588e-01 2.925839900970458984e+00 7.452009320259094238e-01 -1.803720951080322266e+00
3.110000000000000000e+03 8.208181381225585938e+00 4.114668273925781250e+01 -1.482997536659240723e-01 1.752306103706359863e+00 4.812018871307373047e-01 -4.045478999614715576e-02
3.111000000000000000e+03 5.354135131835937500e+01 3.319538879394531250e+01 2.916689217090606689e-01 2.380651712417602539e+00 8.016961812973022461e-01 2.886810600757598877e-01
3.112000000000000000e+03 4.678412628173828125e+01 3.016005516052246094e+01 -3.442426025867462158e-01 2.746298789978027344e+00 7.206168174743652344e-01 1.097600221633911133e+00
3.113000000000000000e+03 3.186412239074707031e+01 -3.653450393676757812e+01 -8.752547502517700195e-01 2.881692409515380859e+00 6.019313335418701172e-01 9.143101572990417480e-01
3.114000000000000000e+03 5.791859817504882812e+01 3.638574981689453125e+01 3.416477441787719727e-01 3.355839729309082031e+00 1.109246253967285156e+00 -1.182628646492958069e-01
3.115000000000000000e+03 2.843819236755371094e+01 3.410916900634765625e+01 -5.933358669281005859e-01 2.398289680480957031e+00 5.414861440658569336e-01 -4.206922948360443115e-01
3.116000000000000000e+03 2.710240173339843750e+01 3.181960868835449219e+01 -5.462086796760559082e-01 2.096353769302368164e+00 4.650434851646423340e-01 -6.005935668945312500e-01
3.117000000000000000e+03 4.564087677001953125e+01 3.226245117187500000e+01 -3.536737859249114990e-01 2.922974348068237305e+00 7.707902193069458008e-01 8.873995542526245117e-01
3.118000000000000000e+03 3.177680778503417969e+01 -3.863249969482421875e+01 -8.753801584243774414e-01 3.033417940139770508e+00 6.474112868309020996e-01 5.715624094009399414e-01
3.119000000000000000e+03 1.570770835876464844e+01 3.795603179931640625e+01 -2.854956686496734619e-01 1.722363948822021484e+00 4.310604929924011230e-01 2.206589467823505402e-02
3.120000000000000000e+03 4.527389144897460938e+01 -3.283422851562500000e+01 -1.011153459548950195e+00 6.669849872589111328e+00 1.697608947753906250e+00 -1.403525352478027344e+00
3.121000000000000000e+03 4.380413055419921875e+01 -3.490957260131835938e+01 -1.513499736785888672e+00 6.210438728332519531e+00 1.409081578254699707e+00 -6.053192019462585449e-01
3.122000000000000000e+03 6.735879516601562500e+01 -4.106174468994140625e+01 3.365295529365539551e-01 4.515390396118164062e+00 1.455575942993164062e+00 1.236275434494018555e-01
3.123000000000000000e+03 4.812465667724609375e+01 3.338036727905273438e+01 -1.026046797633171082e-01 2.650985479354858398e+00 7.645142674446105957e-01 7.592329382896423340e-01
3.124000000000000000e+03 4.875498580932617188e+01 3.092985153198242188e+01 -1.186347603797912598e-01 2.448066473007202148e+00 6.988294720649719238e-01 9.405918121337890625e-01
3.125000000000000000e+03 3.973717880249023438e+01 2.799735260009765625e+01 -1.026780843734741211e+00 4.100802421569824219e+00 9.222064018249511719e-01 7.550844550132751465e-01
3.126000000000000000e+03 3.853290557861328125e+01 2.675132751464843750e+01 -1.087037324905395508e+00 4.406534194946289062e+00 9.958490729331970215e-01 6.003541350364685059e-01
3.127000000000000000e+03 6.143935012817382812e+01 3.433138656616210938e+01 8.874251693487167358e-02 4.115419387817382812e+00 1.261248588562011719e+00 -3.688430190086364746e-01
3.128000000000000000e+03 2.280967521667480469e+01 3.835144424438476562e+01 -3.061623573303222656e-01 1.857740879058837891e+00 4.654735326766967773e-01 -9.425858408212661743e-02
3.129000000000000000e+03 6.755924987792968750e+01 4.114254760742187500e+01 7.963921129703521729e-02 5.618277549743652344e+00 1.709375023841857910e+00 -4.090101271867752075e-02
3.130000000000000000e+03 6.774205780029296875e+01 3.832917785644531250e+01 1.041245460510253906e-02 5.711741447448730469e+00 1.716646075248718262e+00 -1.091639399528503418e-01
3.131000000000000000e+03 3.665190887451171875e+01 3.652215957641601562e+01 -7.471395730972290039e-01 3.156175374984741211e+00 7.227107882499694824e-01 7.176710665225982666e-02
3.132000000000000000e+03 3.679867172241210938e+01 3.326084518432617188e+01 -8.989843726158142090e-01 3.440473318099975586e+00 7.624466419219970703e-01 1.479515582323074341e-01
3.133000000000000000e+03 5.555176544189453125e+01 3.889150619506835938e+01 3.717804849147796631e-01 3.066231727600097656e+00 1.031403660774230957e+00 1.098727434873580933e-02
3.134000000000000000e+03 6.384292984008789062e+01 3.797211837768554688e+01 1.293616294860839844e-01 4.688150882720947266e+00 1.445253729820251465e+00 -1.703401952981948853e-01
3.135000000000000000e+03 5.414918518066406250e+01 3.588369369506835938e+01 3.165585994720458984e-01 2.695985317230224609e+00 9.037631750106811523e-01 1.420591324567794800e-01
3.136000000000000000e+03 4.398475646972656250e+01 3.470033264160156250e+01 -4.190406799316406250e-01 3.038167953491210938e+00 7.857381701469421387e-01 6.072599887847900391e-01
3.137000000000000000e+03 4.726541137695312500e+01 3.645201492309570312e+01 -9.875445067882537842e-02 2.802659749984741211e+00 8.111715912818908691e-01 4.907128512859344482e-01
3.138000000000000000e+03 3.965279769897460938e+01 3.313423538208007812e+01 -8.178686499595642090e-01 3.442508697509765625e+00 7.873920202255249023e-01 4.666732549667358398e-01
3.139000000000000000e+03 4.198667144775390625e+01 3.210982131958007812e+01 -7.339630722999572754e-01 3.388762950897216797e+00 7.964399456977844238e-01 7.132386565208435059e-01
3.140000000000000000e+03 1.515094566345214844e+01 -2.167380809783935547e+00 5.254965424537658691e-01 7.852860689163208008e-01 3.932347893714904785e-01 1.519146561622619629e+00
3.141000000000000000e+03 1.615093040466308594e+01 -1.582197427749633789e+00 1.076001763343811035e+00 8.462259173393249512e-01 5.766682624816894531e-01 1.731226563453674316e+00
3.142000000000000000e+03 1.913687896728515625e+01 -1.580697178840637207e+00 1.298069119453430176e+00 1.003541564941406250e+01 3.400045633316040039e+00 2.045643091201782227e+00
3.143000000000000000e+03 1.959017944335937500e+01 -1.515199065208435059e+00 1.601479172706604004e+00 1.093006324768066406e+01 3.759462833404541016e+00 2.814098596572875977e-01
3.144000000000000000e+03 1.980348777770996094e+01 -1.436084985733032227e+00 2.043358087539672852e+00 1.081291389465332031e+01 3.856881618499755859e+00 -5.884200334548950195e-01
3.145000000000000000e+03 2.001465415954589844e+01 -1.335093855857849121e+00 2.653984308242797852e+00 1.059179496765136719e+01 3.973733663558959961e+00 -1.524781107902526855e+00
3.146000000000000000e+03 2.114064216613769531e+01 1.032321691513061523e+00 7.423792839050292969e+00 5.111501216888427734e+00 3.760588169097900391e+00 -2.498996406793594360e-01
3.147000000000000000e+03 1.956340789794921875e+01 1.973734378814697266e+00 1.379492998123168945e+00 1.294151496887207031e+01 4.296302318572998047e+00 -2.342256784439086914e+00
3.148000000000000000e+03 1.901388549804687500e+01 2.310506105422973633e+00 6.189220547676086426e-01 1.072839164733886719e+01 3.404194116592407227e+00 -5.134150028228759766e+00
3.149000000000000000e+03 1.773825645446777344e+01 1.918398380279541016e+00 2.714116096496582031e+00 4.014852523803710938e+00 2.018690586090087891e+00 -5.860682010650634766e+00
3.150000000000000000e+03 1.731299591064453125e+01 2.224092721939086914e+00 1.909074664115905762e+00 3.593512535095214844e+00 1.650776147842407227e+00 -5.196809768676757812e+00
3.151000000000000000e+03 1.682561874389648438e+01 2.416474103927612305e+00 1.243664264678955078e+00 2.650592803955078125e+00 1.168277025222778320e+00 -4.303212642669677734e+00
3.152000000000000000e+03 3.938306427001953125e+01 -1.866748809814453125e+00 4.667539894580841064e-01 9.055069923400878906e+00 2.856547355651855469e+00 -1.763634443283081055e+00
3.153000000000000000e+03 6.065882110595703125e+01 2.468876075744628906e+01 -9.835752844810485840e-01 3.497740983963012695e+00 7.542497515678405762e-01 -1.486911773681640625e+00
3.154000000000000000e+03 1.786966896057128906e+01 -2.279497623443603516e+00 1.434858083724975586e+00 4.698958873748779297e+00 1.840145111083984375e+00 3.524451732635498047e+00
3.155000000000000000e+03 2.120470237731933594e+01 -8.469989895820617676e-02 7.914756298065185547e+00 4.965029239654541016e+00 3.863935470581054688e+00 -2.619803428649902344e+00
3.156000000000000000e+03 2.161386871337890625e+01 7.471524924039840698e-02 7.448632717132568359e+00 3.514585971832275391e+00 3.288965463638305664e+00 -2.142215490341186523e+00
3.157000000000000000e+03 2.083114242553710938e+01 -1.048479199409484863e+00 5.162977695465087891e+00 7.313838005065917969e+00 3.743044853210449219e+00 -3.162191629409790039e+00
3.158000000000000000e+03 2.121760940551757812e+01 -9.679330587387084961e-01 5.710241794586181641e+00 5.691071510314941406e+00 3.420393943786621094e+00 -3.120404958724975586e+00
3.159000000000000000e+03 1.749145507812500000e+01 2.103544950485229492e+00 2.210304498672485352e+00 3.800323486328125000e+00 1.803188443183898926e+00 -5.483798027038574219e+00
3.160000000000000000e+03 1.833477592468261719e+01 -2.064721107482910156e+00 1.401541352272033691e+00 6.261887550354003906e+00 2.299028635025024414e+00 3.519284486770629883e+00
3.161000000000000000e+03 1.881165122985839844e+01 -1.992086648941040039e+00 1.051880717277526855e+00 7.918552875518798828e+00 2.691130161285400391e+00 2.863397836685180664e+00
3.162000000000000000e+03 1.899810218811035156e+01 -1.884410023689270020e+00 1.072295784950256348e+00 8.735410690307617188e+00 2.942312002182006836e+00 2.458157062530517578e+00
3.163000000000000000e+03 1.971941757202148438e+01 -1.873031497001647949e+00 1.366499304771423340e+00 9.460818290710449219e+00 3.248195171356201172e+00 2.387536317110061646e-01
3.164000000000000000e+03 2.036414527893066406e+01 -1.547664046287536621e+00 2.950423002243041992e+00 8.875354766845703125e+00 3.547733306884765625e+00 -1.978654265403747559e+00
3.165000000000000000e+03 2.064277076721191406e+01 -1.533702731132507324e+00 3.468667745590209961e+00 7.747399806976318359e+00 3.364820241928100586e+00 -2.335988283157348633e+00
3.166000000000000000e+03 1.691663742065429688e+01 -1.733770132064819336e+00 1.868600606918334961e+00 1.828762292861938477e+00 1.109208822250366211e+00 2.678764104843139648e+00
3.167000000000000000e+03 1.700293350219726562e+01 -2.084794759750366211e+00 1.644270658493041992e+00 2.354081869125366211e+00 1.199505686759948730e+00 2.939836740493774414e+00
3.168000000000000000e+03 1.933877944946289062e+01 2.408749818801879883e+00 1.928988844156265259e-01 1.096202373504638672e+01 3.346476793289184570e+00 -3.707396745681762695e+00
3.169000000000000000e+03 2.154265785217285156e+01 1.119333982467651367e+00 6.554355144500732422e+00 3.702631473541259766e+00 3.077095985412597656e+00 -2.255480289459228516e-01
3.170000000000000000e+03 2.082607841491699219e+01 2.213369131088256836e+00 2.471462011337280273e+00 6.597985267639160156e+00 2.720834255218505859e+00 3.322582244873046875e-01
3.171000000000000000e+03 2.028129577636718750e+01 1.955779790878295898e+00 3.150328397750854492e+00 9.630911827087402344e+00 3.834372043609619141e+00 8.549115061759948730e-02
3.172000000000000000e+03 2.039225959777832031e+01 2.213381767272949219e+00 2.104171276092529297e+00 8.509874343872070312e+00 3.184213876724243164e+00 -2.337076961994171143e-01
3.173000000000000000e+03 1.993172454833984375e+01 2.316318988800048828e+00 9.365255832672119141e-01 1.030715274810791016e+01 3.373103380203247070e+00 -1.521505475044250488e+00
3.174000000000000000e+03 1.959068489074707031e+01 2.562796831130981445e+00 -1.501090079545974731e-01 1.030514621734619141e+01 3.046511173248291016e+00 -2.775165319442749023e+00
3.175000000000000000e+03 5.398170089721679688e+01 -3.479483032226562500e+01 -5.221201479434967041e-02 9.469788074493408203e-01 2.684300541877746582e-01 -1.151575684547424316e+00
3.176000000000000000e+03 4.323473739624023438e+01 -3.103195190429687500e+01 -6.497478485107421875e-01 7.401370048522949219e+00 2.025486707687377930e+00 -6.389383077621459961e-01
3.177000000000000000e+03 4.353013992309570312e+01 -2.501800346374511719e+01 2.343629360198974609e+00 9.880435943603515625e+00 3.667219638824462891e+00 -1.839190483093261719e+00
3.178000000000000000e+03 4.859693527221679688e+01 -7.694406509399414062e+00 6.551251560449600220e-02 5.049276947975158691e-01 1.711320728063583374e-01 2.175955772399902344e+00
3.179000000000000000e+03 5.661955642700195312e+01 3.469083786010742188e+01 3.303687572479248047e-01 2.934727430343627930e+00 9.795288443565368652e-01 -4.205148667097091675e-02
3.180000000000000000e+03 2.181839179992675781e+01 -2.877980470657348633e-01 6.860973358154296875e+00 2.954670190811157227e+00 2.944693088531494141e+00 -2.423867702484130859e+00
3.181000000000000000e+03 2.009999084472656250e+01 2.494467735290527344e+00 5.487506389617919922e-01 9.294739723205566406e+00 2.953047037124633789e+00 -1.317648172378540039e+00
3.182000000000000000e+03 4.650205993652343750e+01 -6.851761341094970703e+00 -7.509167790412902832e-01 3.331956267356872559e-01 -1.253163367509841919e-01 8.645023703575134277e-01
3.183000000000000000e+03 1.743362617492675781e+01 2.473801040649414062e+01 -1.020805716514587402e+00 1.348388433456420898e+00 9.827483445405960083e-02 9.024218916893005371e-01
3.184000000000000000e+03 1.527552509307861328e+01 3.407611131668090820e+00 1.475535631179809570e-01 2.266233205795288086e+00 7.241360545158386230e-01 -2.713273286819458008e+00
3.185000000000000000e+03 1.944153785705566406e+01 -1.896498441696166992e+00 1.138717532157897949e+00 9.437637329101562500e+00 3.172906637191772461e+00 1.089132428169250488e+00
3.186000000000000000e+03 5.655763626098632812e+01 -3.396882629394531250e+01 -3.788218200206756592e-01 8.447644859552383423e-02 -8.830361068248748779e-02 -6.082058548927307129e-01
3.187000000000000000e+03 1.851431465148925781e+01 -2.787404060363769531e+00 7.500324249267578125e-01 6.020865440368652344e+00 2.031269311904907227e+00 2.935904502868652344e+00
3.188000000000000000e+03 1.789038658142089844e+01 -2.991859674453735352e+00 8.545699715614318848e-01 4.637598037719726562e+00 1.647650361061096191e+00 3.206348657608032227e+00
3.189000000000000000e+03 1.938667106628417969e+01 -2.204458951950073242e+00 9.414896368980407715e-01 8.482882499694824219e+00 2.827311515808105469e+00 1.416031956672668457e+00
3.190000000000000000e+03 1.918999671936035156e+01 -1.854409098625183105e+00 1.057182550430297852e+00 9.203710556030273438e+00 3.078267812728881836e+00 1.964340567588806152e+00
3.191000000000000000e+03 2.814415168762207031e+01 -1.299843072891235352e+00 5.554647922515869141e+00 2.971616089344024658e-01 1.755542874336242676e+00 1.292994469404220581e-01
3.192000000000000000e+03 1.726358985900878906e+01 -2.065479993820190430e+00 1.672407507896423340e+00 2.973677396774291992e+00 1.393825411796569824e+00 3.188944578170776367e+00
3.193000000000000000e+03 1.706718254089355469e+01 -1.851707935333251953e+00 1.844612717628479004e+00 2.237892150878906250e+00 1.224751472473144531e+00 2.914752244949340820e+00
3.194000000000000000e+03 1.725434494018554688e+01 -1.863061904907226562e+00 1.909406661987304688e+00 2.576222896575927734e+00 1.345688819885253906e+00 3.094161987304687500e+00
3.195000000000000000e+03 2.066975402832031250e+01 2.453224420547485352e+00 1.260147333145141602e+00 6.959372997283935547e+00 2.465856075286865234e+00 -2.139449119567871094e-01
3.196000000000000000e+03 2.041436004638671875e+01 2.447627782821655273e+00 8.284224867820739746e-01 7.950651168823242188e+00 2.633722066879272461e+00 -5.724046230316162109e-01
3.197000000000000000e+03 2.023929405212402344e+01 2.317990779876708984e+00 1.243691802024841309e+00 8.897768974304199219e+00 3.042438030242919922e+00 -7.809296250343322754e-01
3.198000000000000000e+03 1.891866207122802734e+00 3.567945861816406250e+01 -3.036002814769744873e-02 1.725327849388122559e+00 5.084903836250305176e-01 -1.027860045433044434e-01
3.199000000000000000e+03 6.338227844238281250e+01 -3.446421813964843750e+01 -2.099901735782623291e-01 2.305940628051757812e+00 6.287851333618164062e-01 7.064276933670043945e-01
3.200000000000000000e+03 5.230342102050781250e+01 -3.810772323608398438e+01 -2.443161420524120331e-02 2.117251157760620117e+00 6.278458237648010254e-01 -8.933212757110595703e-01
3.201000000000000000e+03 1.673858261108398438e+01 -3.336035013198852539e+00 8.794031143188476562e-01 2.869477033615112305e+00 1.124664068222045898e+00 2.969863176345825195e+00
3.202000000000000000e+03 1.582631492614746094e+01 3.197094917297363281e+00 3.411999046802520752e-01 2.557250738143920898e+00 8.695351481437683105e-01 -3.309720039367675781e+00
3.203000000000000000e+03 2.030945014953613281e+01 2.710674285888671875e+00 1.603147089481353760e-01 7.916585922241210938e+00 2.423070192337036133e+00 -8.734086155891418457e-01
3.204000000000000000e+03 1.548397254943847656e+01 -3.181555271148681641e+00 7.532694935798645020e-01 1.630847930908203125e+00 7.152352333068847656e-01 2.234164476394653320e+00
3.205000000000000000e+03 1.736301994323730469e+01 -2.320706129074096680e+00 1.486239552497863770e+00 3.456869363784790039e+00 1.482932686805725098e+00 3.325585842132568359e+00
3.206000000000000000e+03 3.164437484741210938e+01 2.139908218383789062e+01 -2.249830514192581177e-01 4.881753444671630859e+00 1.397031068801879883e+00 -9.274452328681945801e-01
3.207000000000000000e+03 4.666348266601562500e+01 -7.819945812225341797e+00 1.863220781087875366e-01 8.245293498039245605e-01 3.032554388046264648e-01 1.138617753982543945e+00
3.208000000000000000e+03 6.454936218261718750e+01 5.339464187622070312e+00 9.070525765419006348e-01 7.100812911987304688e+00 2.402359724044799805e+00 5.433930158615112305e-01
3.209000000000000000e+03 1.913844871520996094e+01 -2.068192481994628906e+00 9.263958334922790527e-01 8.608999252319335938e+00 2.860618591308593750e+00 2.064335584640502930e+00
3.210000000000000000e+03 1.921590805053710938e+01 -2.456564188003540039e+00 7.429609298706054688e-01 7.674744129180908203e+00 2.525311470031738281e+00 1.864340543746948242e+00
3.211000000000000000e+03 1.687413406372070312e+01 4.137103557586669922e+00 -7.395727932453155518e-02 4.618677616119384766e+00 1.363416075706481934e+00 -4.269156455993652344e+00
3.212000000000000000e+03 2.248296737670898438e+01 -4.545670449733734131e-01 6.307646751403808594e+00 1.143919587135314941e+00 2.235469818115234375e+00 -2.065591573715209961e+00
3.213000000000000000e+03 1.970511817932128906e+01 -9.126139640808105469e+00 -4.997382164001464844e-01 2.184622764587402344e+00 5.054653286933898926e-01 1.879971981048583984e+00
3.214000000000000000e+03 3.275785064697265625e+01 2.894127655029296875e+01 -1.079695105552673340e+00 3.639143705368041992e+00 7.678345441818237305e-01 -4.646512866020202637e-01
3.215000000000000000e+03 5.875608825683593750e+01 -1.180311393737792969e+01 -1.776139616966247559e+00 6.773471832275390625e-01 -3.296377360820770264e-01 1.994411498308181763e-01
3.216000000000000000e+03 4.349778747558593750e+01 -1.939147949218750000e+01 1.636517643928527832e+00 1.010267162322998047e+01 3.521756887435913086e+00 -6.034981608390808105e-01
3.217000000000000000e+03 2.830844688415527344e+01 -2.985266685485839844e+00 4.103734970092773438e+00 7.563456296920776367e-01 1.458024144172668457e+00 2.742780148983001709e-01
3.218000000000000000e+03 2.004492568969726562e+01 2.943862676620483398e+00 -3.798725903034210205e-01 8.324089050292968750e+00 2.383265018463134766e+00 -1.775202393531799316e+00
3.219000000000000000e+03 2.710617637634277344e+01 -3.560607147216796875e+01 -3.669424653053283691e-01 1.010030746459960938e+00 1.929264664649963379e-01 5.492770075798034668e-01
3.220000000000000000e+03 4.951152801513671875e+01 -1.207920074462890625e+01 1.013641357421875000e+00 1.496590971946716309e+00 7.530696988105773926e-01 2.123209714889526367e+00
3.221000000000000000e+03 1.733891296386718750e+01 4.828911781311035156e+00 -4.446707665920257568e-01 5.577691555023193359e+00 1.539906144142150879e+00 -4.149662494659423828e+00
3.222000000000000000e+03 1.982326316833496094e+01 -2.764204263687133789e+00 8.585833907127380371e-01 7.141981124877929688e+00 2.400169372558593750e+00 7.282136082649230957e-01
3.223000000000000000e+03 1.937556457519531250e+01 -2.898125410079956055e+00 5.744312405586242676e-01 7.122740745544433594e+00 2.309151649475097656e+00 1.633844017982482910e+00
3.224000000000000000e+03 1.680607414245605469e+01 -4.203998088836669922e+00 4.497015476226806641e-01 3.190186500549316406e+00 1.091966390609741211e+00 2.943341970443725586e+00
3.225000000000000000e+03 4.103514862060546875e+01 -3.085299873352050781e+01 -7.347386479377746582e-01 7.341811180114746094e+00 1.982121825218200684e+00 8.433971554040908813e-02
3.226000000000000000e+03 5.802302169799804688e+01 2.956255912780761719e+01 9.427288919687271118e-02 2.619932651519775391e+00 8.142616152763366699e-01 -4.294583797454833984e-01
3.227000000000000000e+03 6.594676208496093750e+01 7.451899051666259766e+00 9.251496791839599609e-01 7.544632911682128906e+00 2.540934801101684570e+00 2.840037643909454346e-01
3.228000000000000000e+03 1.048541259765625000e+01 2.455276489257812500e+01 -9.808585643768310547e-01 3.280433893203735352e+00 6.898726224899291992e-01 -8.745009899139404297e-01
3.229000000000000000e+03 2.301599502563476562e+01 -5.241086483001708984e+00 1.228041887283325195e+00 1.928137779235839844e+00 9.468539357185363770e-01 4.966695979237556458e-02
3.230000000000000000e+03 1.508822250366210938e+01 -3.847694396972656250e+00 4.644589722156524658e-01 1.775073885917663574e+00 6.718598604202270508e-01 2.131623029708862305e+00
3.231000000000000000e+03 3.701473999023437500e+01 9.113778114318847656e+00 1.712988615036010742e+00 1.225667285919189453e+01 4.190898418426513672e+00 1.092857241630554199e+00
3.232000000000000000e+03 2.442135620117187500e+01 -2.790886402130126953e+00 4.322477817535400391e+00 1.440473645925521851e-01 1.339957475662231445e+00 -6.631216406822204590e-01
3.233000000000000000e+03 2.324243927001953125e+01 -8.148493170738220215e-01 5.855923652648925781e+00 5.647182092070579529e-02 1.773718595504760742e+00 -1.504046440124511719e+00
3.234000000000000000e+03 2.278459548950195312e+01 -1.983441472053527832e+00 4.625667572021484375e+00 1.781528472900390625e+00 1.922158718109130859e+00 -1.710198640823364258e+00
3.235000000000000000e+03 2.795338821411132812e+01 2.643008613586425781e+01 -7.566401958465576172e-01 2.228914737701416016e+00 4.416823685169219971e-01 -1.143437743186950684e+00
3.236000000000000000e+03 1.647764587402343750e+01 4.067129135131835938e+00 1.000227406620979309e-01 4.117436408996582031e+00 1.265237808227539062e+00 -4.042716503143310547e+00
3.237000000000000000e+03 1.608308410644531250e+01 4.230247020721435547e+00 1.405406892299652100e-01 3.811021327972412109e+00 1.185468673706054688e+00 -3.666271209716796875e+00
3.238000000000000000e+03 6.859845733642578125e+01 2.346184539794921875e+01 -5.041156411170959473e-01 7.149369716644287109e+00 1.993576169013977051e+00 4.421692788600921631e-01
3.239000000000000000e+03 6.999919891357421875e+01 -8.402459144592285156e+00 -1.533071875572204590e+00 7.865691661834716797e+00 1.899785995483398438e+00 -1.391927838325500488e+00
3.240000000000000000e+03 6.517098236083984375e+01 2.811362504959106445e+00 7.190217375755310059e-01 6.330080509185791016e+00 2.114730834960937500e+00 1.425269991159439087e-01
3.241000000000000000e+03 9.084954261779785156e+00 1.027222156524658203e+01 1.520129323005676270e+00 2.080063581466674805e+00 1.080057859420776367e+00 -2.617700211703777313e-02
3.242000000000000000e+03 1.770171737670898438e+01 -4.536319255828857422e+00 1.910411268472671509e-01 4.101179599761962891e+00 1.287666201591491699e+00 2.889667272567749023e+00
3.243000000000000000e+03 7.306388378143310547e+00 -3.138562393188476562e+01 -4.707955718040466309e-01 1.886221289634704590e+00 4.246277213096618652e-01 7.149635553359985352e-01
3.244000000000000000e+03 8.278162002563476562e+00 -3.103498840332031250e+01 -5.806960463523864746e-01 2.021479606628417969e+00 4.322350919246673584e-01 7.379849553108215332e-01
3.245000000000000000e+03 9.456827163696289062e+00 -3.083436203002929688e+01 -7.073190212249755859e-01 2.230412721633911133e+00 4.569281339645385742e-01 6.674079895019531250e-01
3.246000000000000000e+03 1.638159179687500000e+01 4.468832015991210938e+00 -5.182344838976860046e-02 4.380563259124755859e+00 1.298622012138366699e+00 -3.818261861801147461e+00
3.247000000000000000e+03 1.676975440979003906e+01 4.527652740478515625e+00 -1.154643073678016663e-01 4.727526664733886719e+00 1.383618712425231934e+00 -4.003993988037109375e+00
3.248000000000000000e+03 6.586968421936035156e+00 -1.766773986816406250e+01 7.953197360038757324e-01 1.132464885711669922e+00 5.783354043960571289e-01 6.525234580039978027e-01
3.249000000000000000e+03 2.424558067321777344e+01 -2.238415241241455078e+00 4.789462566375732422e+00 -3.977236151695251465e-02 1.424906969070434570e+00 -8.815929293632507324e-01
3.250000000000000000e+03 2.373769569396972656e+01 -1.649711608886718750e+00 5.250154972076416016e+00 1.217483133077621460e-01 1.611570954322814941e+00 -1.243484377861022949e+00
3.251000000000000000e+03 2.320563888549804688e+01 -1.707695245742797852e+00 5.231494903564453125e+00 8.374705910682678223e-01 1.820689678192138672e+00 -1.578032135963439941e+00
3.252000000000000000e+03 1.995676994323730469e+01 -4.492468357086181641e+00 2.131620049476623535e-01 4.957417964935302734e+00 1.551173925399780273e+00 1.351909160614013672e+00
3.253000000000000000e+03 9.027299880981445312e+00 -1.779715728759765625e+01 1.310150623321533203e+00 2.710626363754272461e+00 1.206233024597167969e+00 8.198063969612121582e-01
3.254000000000000000e+03 7.356861877441406250e+01 -3.530272293090820312e+01 -3.478835821151733398e-01 7.824518203735351562e+00 2.242990255355834961e+00 -5.783893913030624390e-02
3.255000000000000000e+03 1.509949588775634766e+01 -4.838763236999511719e+00 2.373602986335754395e-01 2.293459892272949219e+00 7.592460513114929199e-01 2.250541687011718750e+00
3.256000000000000000e+03 2.188491821289062500e+01 -3.356787443161010742e+00 2.274698495864868164e+00 3.654903888702392578e+00 1.778880715370178223e+00 -8.472005128860473633e-01
3.257000000000000000e+03 1.854273414611816406e+01 -8.781746864318847656e+00 -4.618032574653625488e-01 3.034133911132812500e+00 7.716991901397705078e-01 2.360590696334838867e+00
3.258000000000000000e+03 5.866128444671630859e+00 7.432482719421386719e+00 4.504180550575256348e-01 1.032185275107622147e-02 1.382219642400741577e-01 9.659683108329772949e-01
3.259000000000000000e+03 1.620660972595214844e+01 -5.021968364715576172e+00 2.116543948650360107e-01 2.923151731491088867e+00 9.404418468475341797e-01 2.712927579879760742e+00
3.260000000000000000e+03 6.754267883300781250e+01 -5.312709331512451172e+00 -4.257286190986633301e-01 5.662615776062011719e+00 1.571066141128540039e+00 -1.422248959541320801e+00
3.261000000000000000e+03 8.519742965698242188e+00 2.599408531188964844e+01 -7.659718990325927734e-01 2.504942178726196289e+00 5.216911435127258301e-01 -9.588545560836791992e-01
3.262000000000000000e+03 2.048087501525878906e+01 -7.161675453186035156e+00 -3.924401700496673584e-01 2.844341754913330078e+00 7.355704903602600098e-01 1.516450524330139160e+00
3.263000000000000000e+03 2.013263702392578125e+01 -6.606508255004882812e+00 -2.177776992321014404e-01 3.344506263732910156e+00 9.380185604095458984e-01 1.697786211967468262e+00
3.264000000000000000e+03 6.335980987548828125e+01 -4.285224080085754395e-01 7.952869534492492676e-01 4.894848346710205078e+00 1.707040667533874512e+00 3.939693272113800049e-01
3.265000000000000000e+03 8.024534225463867188e+00 9.659811973571777344e+00 1.223336338996887207e+00 1.288197159767150879e+00 7.534600496292114258e-01 3.183131515979766846e-01
3.266000000000000000e+03 1.826436233520507812e+01 -5.266364574432373047e+00 -5.955975875258445740e-02 4.125460147857666016e+00 1.219770073890686035e+00 2.572814226150512695e+00
3.267000000000000000e+03 1.867430114746093750e+01 -5.308554172515869141e+00 -1.466442942619323730e-01 4.250648498535156250e+00 1.231201291084289551e+00 2.416119337081909180e+00
3.268000000000000000e+03 6.747623443603515625e+01 8.839807510375976562e+00 9.399813413619995117e-01 7.511919498443603516e+00 2.535570144653320312e+00 5.797208845615386963e-02
3.269000000000000000e+03 7.578796386718750000e+01 -1.482101345062255859e+01 4.841172993183135986e-01 7.983291625976562500e+00 2.540222644805908203e+00 6.846613287925720215e-01
3.270000000000000000e+03 6.898133850097656250e+01 1.010993194580078125e+01 8.190145492553710938e-01 7.361404418945312500e+00 2.454125642776489258e+00 -1.881358795799314976e-03
3.271000000000000000e+03 6.952905273437500000e+01 9.247316360473632812e+00 7.865935564041137695e-01 7.220885276794433594e+00 2.402243614196777344e+00 -1.155699566006660461e-01
3.272000000000000000e+03 9.346180915832519531e+00 7.546430587768554688e+00 9.041267633438110352e-01 1.558690786361694336e+00 7.388452887535095215e-01 4.105145335197448730e-01
3.273000000000000000e+03 3.758751296997070312e+01 1.961962699890136719e+01 -4.005954861640930176e-01 6.062138080596923828e+00 1.698462843894958496e+00 4.904123842716217041e-01
3.274000000000000000e+03 3.882506561279296875e+01 1.927432441711425781e+01 -2.991089820861816406e-01 6.013078689575195312e+00 1.714190959930419922e+00 8.481254577636718750e-01
3.275000000000000000e+03 7.430953979492187500e+01 -3.426554107666015625e+01 -3.622377812862396240e-01 8.299571990966796875e+00 2.381200075149536133e+00 -1.706207543611526489e-01
3.276000000000000000e+03 1.051523780822753906e+01 -8.435587882995605469e+00 1.831992268562316895e-01 2.126789093017578125e+00 6.929964423179626465e-01 1.837444901466369629e-01
3.277000000000000000e+03 7.399594879150390625e+01 -9.481971740722656250e+00 -7.577179074287414551e-01 8.493818283081054688e+00 2.320830106735229492e+00 2.851731181144714355e-01
3.278000000000000000e+03 9.521942138671875000e+00 -6.087191581726074219e+00 -4.262093827128410339e-02 1.081433057785034180e+00 3.116436302661895752e-01 -8.429701626300811768e-02
3.279000000000000000e+03 7.465619659423828125e+01 -8.006691932678222656e+00 -6.624459028244018555e-01 8.135690689086914062e+00 2.241973400115966797e+00 1.003974303603172302e-01
3.280000000000000000e+03 6.830401420593261719e+00 1.342755126953125000e+01 1.147456169128417969e+00 1.027124285697937012e+00 6.523741483688354492e-01 -3.708347380161285400e-01
3.281000000000000000e+03 7.148042201995849609e+00 1.433089160919189453e+01 1.135070323944091797e+00 1.392890930175781250e+00 7.583883404731750488e-01 -5.963204503059387207e-01
3.282000000000000000e+03 6.693964958190917969e+00 1.256912422180175781e+01 1.131314992904663086e+00 8.959219455718994141e-01 6.081710457801818848e-01 -1.233509927988052368e-01
3.283000000000000000e+03 8.723717689514160156e+00 -9.227556228637695312e+00 3.290475904941558838e-01 1.564324378967285156e+00 5.680115818977355957e-01 -2.956545650959014893e-01
3.284000000000000000e+03 1.962375068664550781e+01 -5.085322856903076172e+00 -1.946914568543434143e-02 4.541489124298095703e+00 1.356606006622314453e+00 1.805836200714111328e+00
3.285000000000000000e+03 9.250040054321289062e+00 -9.036293983459472656e+00 3.138755857944488525e-01 1.799361109733581543e+00 6.339710354804992676e-01 -1.621248871088027954e-01
3.286000000000000000e+03 9.402272224426269531e+00 -8.104127883911132812e+00 1.604894548654556274e-01 1.613286614418029785e+00 5.321328043937683105e-01 -1.255633085966110229e-01
3.287000000000000000e+03 6.641200256347656250e+01 -3.106238365173339844e+00 9.586821496486663818e-02 5.280133724212646484e+00 1.612800598144531250e+00 -9.168087840080261230e-01
3.288000000000000000e+03 6.794477844238281250e+01 -3.433377027511596680e+00 -1.972235888242721558e-01 5.947649478912353516e+00 1.725127816200256348e+00 -1.096385121345520020e+00
3.289000000000000000e+03 9.989677429199218750e+00 -5.986683845520019531e+00 -5.636095628142356873e-02 1.154205918312072754e+00 3.293535113334655762e-01 6.812797486782073975e-02
3.290000000000000000e+03 6.928034210205078125e+01 -4.533883094787597656e+00 -4.817207157611846924e-01 6.468117237091064453e+00 1.795918941497802734e+00 -1.215889573097229004e+00
3.291000000000000000e+03 6.374535083770751953e+00 9.071732521057128906e+00 7.733650803565979004e-01 3.092906475067138672e-01 3.247967064380645752e-01 6.876592636108398438e-01
3.292000000000000000e+03 7.323287200927734375e+01 1.585329341888427734e+01 3.618926405906677246e-01 6.932935237884521484e+00 2.188448429107666016e+00 4.379423260688781738e-01
3.293000000000000000e+03 6.881039428710937500e+01 -3.691758155822753906e+00 -3.474536836147308350e-01 6.228607654571533203e+00 1.764346241950988770e+00 -1.174505352973937988e+00
3.294000000000000000e+03 2.009822273254394531e+01 -5.065456867218017578e+00 8.918068557977676392e-02 4.389372825622558594e+00 1.343566060066223145e+00 1.395958185195922852e+00
3.295000000000000000e+03 7.815793037414550781e+00 1.386525344848632812e+01 1.376249909400939941e+00 1.746476292610168457e+00 9.368178248405456543e-01 -6.065824031829833984e-01
3.296000000000000000e+03 5.963632106781005859e+00 1.262300014495849609e+01 9.611722230911254883e-01 3.493339717388153076e-01 3.931518495082855225e-01 -8.555384725332260132e-02
3.297000000000000000e+03 7.600460052490234375e+00 1.311008739471435547e+01 1.337081909179687500e+00 1.569072127342224121e+00 8.718461990356445312e-01 -3.515259623527526855e-01
3.298000000000000000e+03 7.378994750976562500e+01 -4.003838539123535156e+00 -4.562251567840576172e-01 7.493648529052734375e+00 2.111227035522460938e+00 -5.834197998046875000e-01
3.299000000000000000e+03 7.345122528076171875e+01 -2.325648307800292969e+00 -2.955983877182006836e-01 7.257314205169677734e+00 2.088514804840087891e+00 -7.286332249641418457e-01
3.300000000000000000e+03 7.070152282714843750e+01 3.082011699676513672e+00 2.974318265914916992e-01 6.788253784179687500e+00 2.125705718994140625e+00 -6.670235991477966309e-01
3.301000000000000000e+03 7.194033813476562500e+01 1.821658730506896973e+00 1.201628670096397400e-01 6.870543956756591797e+00 2.097212076187133789e+00 -7.555505633354187012e-01
3.302000000000000000e+03 1.037684440612792969e+01 -3.884835243225097656e-01 -2.007621288299560547e+00 9.673768654465675354e-03 -5.993842482566833496e-01 -4.942883923649787903e-02
3.303000000000000000e+03 1.189073276519775391e+01 -1.121461629867553711e+00 -1.423706889152526855e+00 7.197539508342742920e-02 -4.055194556713104248e-01 6.543485075235366821e-02
3.304000000000000000e+03 1.038032817840576172e+01 -1.128475308418273926e+00 -1.493369579315185547e+00 4.701090976595878601e-02 -4.339075982570648193e-01 -8.840636163949966431e-02
3.305000000000000000e+03 1.264584636688232422e+01 -1.117530822753906250e+00 -1.284201502799987793e+00 6.447633355855941772e-02 -3.659175336360931396e-01 1.587959378957748413e-01
3.306000000000000000e+03 1.188046455383300781e+01 -3.815026283264160156e-01 -2.044228315353393555e+00 1.645879447460174561e-02 -6.083308458328247070e-01 -2.620148472487926483e-03
3.307000000000000000e+03 1.263218593597412109e+01 -3.775882422924041748e-01 -1.988792657852172852e+00 5.451658274978399277e-03 -5.950022935867309570e-01 1.933299005031585693e-02
3.308000000000000000e+03 1.112868118286132812e+01 -3.851337432861328125e-01 -2.050058841705322266e+00 9.691233746707439423e-03 -6.121102571487426758e-01 -2.940543182194232941e-02
3.309000000000000000e+03 1.113555717468261719e+01 -1.125109195709228516e+00 -1.487553834915161133e+00 6.223892420530319214e-02 -4.275944828987121582e-01 -1.637136004865169525e-02
3.310000000000000000e+03 9.622406005859375000e+00 -3.850494623184204102e-01 -1.917534351348876953e+00 3.594315610826015472e-03 -5.741820335388183594e-01 -6.380817294120788574e-02
3.311000000000000000e+03 8.866015434265136719e+00 -3.791061341762542725e-01 -1.780873656272888184e+00 9.559196420013904572e-03 -5.313943624496459961e-01 -7.837477326393127441e-02
3.312000000000000000e+03 8.110340118408203125e+00 -3.782755434513092041e-01 -1.611185669898986816e+00 2.405904466286301613e-03 -4.826339483261108398e-01 -9.156563878059387207e-02
3.313000000000000000e+03 7.354346275329589844e+00 -3.774763345718383789e-01 -1.416857004165649414e+00 4.733324050903320312e-03 -4.236370921134948730e-01 -9.993759542703628540e-02
3.314000000000000000e+03 6.598577022552490234e+00 -3.773281872272491455e-01 -1.204927682876586914e+00 -1.914081949507817626e-04 -3.615357279777526855e-01 -1.051274836063385010e-01
3.315000000000000000e+03 5.843272686004638672e+00 -3.783421814441680908e-01 -9.846140146255493164e-01 1.537922769784927368e-03 -2.949228286743164062e-01 -1.073967590928077698e-01
3.316000000000000000e+03 5.087837696075439453e+00 -3.782689273357391357e-01 -7.644849419593811035e-01 -4.137461539357900620e-03 -2.305867224931716919e-01 -1.043693795800209045e-01
3.317000000000000000e+03 4.332343578338623047e+00 -3.772869408130645752e-01 -5.524456501007080078e-01 -1.912724692374467850e-03 -1.663075089454650879e-01 -9.890266507863998413e-02
3.318000000000000000e+03 3.576737403869628906e+00 -3.757566809654235840e-01 -3.605571985244750977e-01 -9.193001314997673035e-03 -1.109250634908676147e-01 -8.566736429929733276e-02
3.319000000000000000e+03 2.821185827255249023e+00 -3.741005063056945801e-01 -1.997703015804290771e-01 -6.570593453943729401e-03 -6.190226972103118896e-02 -6.973036378622055054e-02
3.320000000000000000e+03 2.067172050476074219e+00 -3.734666705131530762e-01 -8.304595947265625000e-02 -1.313203107565641403e-02 -2.885339781641960144e-02 -4.648610576987266541e-02
3.321000000000000000e+03 1.326888561248779297e+00 -3.787174820899963379e-01 -2.223406359553337097e-02 -1.147922407835721970e-02 -1.011398620903491974e-02 -2.028689160943031311e-02
3.322000000000000000e+03 6.511554718017578125e-01 -4.016090035438537598e-01 -3.062196541577577591e-03 -5.873288027942180634e-03 -2.680645324289798737e-03 -5.339934490621089935e-03
3.323000000000000000e+03 9.947552680969238281e-01 -1.141608953475952148e+00 -3.842905536293983459e-02 -5.484252050518989563e-02 -2.798147313296794891e-02 -4.906836897134780884e-02
3.324000000000000000e+03 9.637866020202636719e+00 -1.125049471855163574e+00 -1.461192846298217773e+00 4.555056616663932800e-02 -4.246926605701446533e-01 -1.520015150308609009e-01
3.325000000000000000e+03 8.908821105957031250e+00 -1.119106173515319824e+00 -1.392774462699890137e+00 3.326688334345817566e-02 -4.078522622585296631e-01 -2.004929035902023315e-01
3.326000000000000000e+03 8.180490493774414062e+00 -1.118275523185729980e+00 -1.287793159484863281e+00 2.949925884604454041e-02 -3.774881958961486816e-01 -2.366082519292831421e-01
3.327000000000000000e+03 6.723416805267333984e+00 -1.117328166961669922e+00 -1.018632292747497559e+00 1.213062740862369537e-02 -3.019504845142364502e-01 -2.847534120082855225e-01
3.328000000000000000e+03 5.995457649230957031e+00 -1.118342161178588867e+00 -8.657615780830383301e-01 -1.677076361374929547e-04 -2.597787678241729736e-01 -2.936511635780334473e-01
3.329000000000000000e+03 5.267367839813232422e+00 -1.118268966674804688e+00 -7.100713849067687988e-01 -5.529758520424365997e-03 -2.146803438663482666e-01 -2.916614413261413574e-01
3.330000000000000000e+03 4.539218425750732422e+00 -1.117286920547485352e+00 -5.580715537071228027e-01 -1.837196387350559235e-02 -1.729330569505691528e-01 -2.775073051452636719e-01
3.331000000000000000e+03 3.810957431793212891e+00 -1.115756630897521973e+00 -4.135659337043762207e-01 -2.604909613728523254e-02 -1.318845152854919434e-01 -2.523674666881561279e-01
3.332000000000000000e+03 3.082750558853149414e+00 -1.114100456237792969e+00 -2.827193140983581543e-01 -4.289038106799125671e-02 -9.768290817737579346e-02 -2.113672345876693726e-01
3.333000000000000000e+03 2.356081962585449219e+00 -1.113466620445251465e+00 -1.757966130971908569e-01 -4.975435882806777954e-02 -6.766529381275177002e-02 -1.577180027961730957e-01
3.334000000000000000e+03 1.643143415451049805e+00 -1.118717432022094727e+00 -8.875758200883865356e-02 -6.237306073307991028e-02 -4.533919319510459900e-02 -1.007086858153343201e-01
3.335000000000000000e+03 7.451840877532958984e+00 -1.117476344108581543e+00 -1.161215186119079590e+00 1.695123128592967987e-02 -3.432791829109191895e-01 -2.666809856891632080e-01
3.336000000000000000e+03 3.483387529850006104e-01 -9.597249627113342285e-01 -6.073316559195518494e-03 -1.455243863165378571e-02 -6.187726743519306183e-03 -9.197071194648742676e-03
3.337000000000000000e+03 1.888791084289550781e+01 3.777967393398284912e-01 2.233009910583496094e+01 6.290269851684570312e+00 8.586111068725585938e+00 1.030131435394287109e+01
3.338000000000000000e+03 1.889354515075683594e+01 3.591615855693817139e-01 1.910401725769042969e+01 1.666007614135742188e+01 1.072922801971435547e+01 1.729891586303710938e+01
3.339000000000000000e+03 1.890269851684570312e+01 3.419798314571380615e-01 1.732320213317871094e+01 2.594051551818847656e+01 1.297911548614501953e+01 1.897769355773925781e+01
3.340000000000000000e+03 1.891502380371093750e+01 3.269090056419372559e-01 1.478660392761230469e+01 3.531866836547851562e+01 1.503158187866210938e+01 1.860050010681152344e+01
3.341000000000000000e+03 1.893004608154296875e+01 3.145258128643035889e-01 1.290979194641113281e+01 4.340702056884765625e+01 1.689504432678222656e+01 1.620962715148925781e+01
3.342000000000000000e+03 1.894719123840332031e+01 3.053041398525238037e-01 1.157041358947753906e+01 5.023118209838867188e+01 1.854047966003417969e+01 1.202536582946777344e+01
3.343000000000000000e+03 1.896580314636230469e+01 2.995968461036682129e-01 1.147050189971923828e+01 5.477989578247070312e+01 1.987512016296386719e+01 6.788566589355468750e+00
3.344000000000000000e+03 1.898517227172851562e+01 2.976223826408386230e-01 1.275448608398437500e+01 5.686318206787109375e+01 2.088529968261718750e+01 1.010401964187622070e+00
3.345000000000000000e+03 1.900455284118652344e+01 2.994562387466430664e-01 1.568368434906005859e+01 5.653826522827148438e+01 2.166658401489257812e+01 -4.322965621948242188e+00
3.346000000000000000e+03 1.902320671081542969e+01 3.050283193588256836e-01 1.968890953063964844e+01 5.402052307128906250e+01 2.211282920837402344e+01 -8.650014877319335938e+00
3.347000000000000000e+03 1.904041862487792969e+01 3.141253292560577393e-01 2.449652862548828125e+01 5.020829391479492188e+01 2.241144752502441406e+01 -1.130252361297607422e+01
3.348000000000000000e+03 1.905553054809570312e+01 3.263991773128509521e-01 2.919590377807617188e+01 4.564022827148437500e+01 2.245083999633789062e+01 -1.222357177734375000e+01
3.349000000000000000e+03 1.906796455383300781e+01 3.413801789283752441e-01 3.353696060180664062e+01 4.146643066406250000e+01 2.250101661682128906e+01 -1.137947082519531250e+01
3.350000000000000000e+03 1.907724189758300781e+01 3.584950268268585205e-01 3.669833755493164062e+01 3.781739044189453125e+01 2.235471916198730469e+01 -9.272973060607910156e+00
3.351000000000000000e+03 1.908301162719726562e+01 3.770888149738311768e-01 3.880524444580078125e+01 3.572235107421875000e+01 2.235827827453613281e+01 -6.208552360534667969e+00
3.352000000000000000e+03 1.908505058288574219e+01 3.964500129222869873e-01 3.941041946411132812e+01 3.469586563110351562e+01 2.223188591003417969e+01 -2.792179107666015625e+00
3.353000000000000000e+03 1.908328056335449219e+01 4.158376455307006836e-01 3.887295913696289062e+01 3.549970245361328125e+01 2.231179809570312500e+01 5.757184028625488281e-01
3.354000000000000000e+03 1.907777214050292969e+01 4.345098733901977539e-01 3.702110671997070312e+01 3.744592285156250000e+01 2.234010887145996094e+01 3.486690282821655273e+00
3.355000000000000000e+03 1.906873130798339844e+01 4.517521262168884277e-01 3.418171310424804688e+01 4.065463256835937500e+01 2.245090293884277344e+01 5.495533943176269531e+00
3.356000000000000000e+03 1.905650901794433594e+01 4.669046103954315186e-01 3.065453147888183594e+01 4.465595245361328125e+01 2.259314537048339844e+01 6.222309589385986328e+00
3.357000000000000000e+03 1.904156875610351562e+01 4.793874919414520264e-01 2.663607978820800781e+01 4.893399429321289062e+01 2.267102241516113281e+01 5.434579849243164062e+00
3.358000000000000000e+03 1.902448463439941406e+01 4.887230694293975830e-01 2.294521903991699219e+01 5.282399749755859375e+01 2.273076629638671875e+01 2.980811119079589844e+00
3.359000000000000000e+03 1.900591087341308594e+01 4.945541024208068848e-01 1.975982284545898438e+01 5.548215484619140625e+01 2.257259368896484375e+01 -9.697680473327636719e-01
3.360000000000000000e+03 1.898655509948730469e+01 4.966574609279632568e-01 1.816890716552734375e+01 5.647917175292968750e+01 2.239442443847656250e+01 -6.063809871673583984e+00
3.361000000000000000e+03 1.896716308593750000e+01 4.949526488780975342e-01 1.768988037109375000e+01 5.498618316650390625e+01 2.180281829833984375e+01 -1.159370803833007812e+01
3.362000000000000000e+03 1.894847297668457031e+01 4.895049035549163818e-01 1.931828689575195312e+01 5.125529479980468750e+01 2.117207527160644531e+01 -1.676050376892089844e+01
3.363000000000000000e+03 1.893120002746582031e+01 4.805226922035217285e-01 2.180686569213867188e+01 4.508158874511718750e+01 2.006653594970703125e+01 -2.084582138061523438e+01
3.364000000000000000e+03 1.891600608825683594e+01 4.683497548103332520e-01 2.555297470092773438e+01 3.732767105102539062e+01 1.886419296264648438e+01 -2.310479354858398438e+01
3.365000000000000000e+03 1.890347480773925781e+01 4.534518718719482422e-01 2.893835639953613281e+01 2.843917083740234375e+01 1.721325874328613281e+01 -2.332874870300292969e+01
3.366000000000000000e+03 1.889408111572265625e+01 4.363991916179656982e-01 3.227821350097656250e+01 1.934634780883789062e+01 1.548736763000488281e+01 -2.100574493408203125e+01
3.367000000000000000e+03 1.888818931579589844e+01 4.178442656993865967e-01 3.384772109985351562e+01 1.077501296997070312e+01 1.338681983947753906e+01 -1.665406417846679688e+01
3.368000000000000000e+03 1.888602066040039062e+01 3.984971344470977783e-01 3.441645812988281250e+01 3.208300352096557617e+00 1.128742694854736328e+01 -6.867405891418457031e+00
