# el_label, x, y, sXX, sYY, sZZ, sXY
1.000000000000000000e+00 3.503461837768554688e+01 -1.203200435638427734e+01 -5.208915172261185944e-05 -3.144218499073758721e-05 -2.505940210539847612e-05 -2.345403663639444858e-05
2.000000000000000000e+00 3.466752624511718750e+01 -1.111128234863281250e+01 -3.203294454579008743e-06 -1.076786520570749417e-05 -4.191347670712275431e-06 2.939847763627767563e-05
3.000000000000000000e+00 3.700949096679687500e+01 -1.191583538055419922e+01 1.750989758875221014e-05 -2.717546522035263479e-06 4.437705229065613821e-06 1.807477701731841080e-06
4.000000000000000000e+00 3.668462371826171875e+01 -1.258782100677490234e+01 3.141014076391002163e-06 -2.737613249337300658e-05 -7.270535661518806592e-06 7.043632649583742023e-06
5.000000000000000000e+00 3.544429779052734375e+01 -1.138607501983642578e+01 7.367368198174517602e-06 -1.922314550029113889e-05 -3.556733190634986386e-06 -1.093248920369660482e-05
6.000000000000000000e+00 3.585778045654296875e+01 -1.231281280517578125e+01 2.726430830080062151e-05 3.524556814227253199e-05 1.875296220532618463e-05 2.371622576902154833e-05
7.000000000000000000e+00 3.339967346191406250e+01 -1.113925266265869141e+01 7.021601049927994609e-05 -4.076324330526404083e-06 1.984190566872712225e-05 -4.645088210963876918e-06
8.000000000000000000e+00 3.289870071411132812e+01 -1.052772140502929688e+01 -2.038592210737988353e-04 -3.084931449848227203e-06 -6.208325066836550832e-05 2.489403641448006965e-06
9.000000000000000000e+00 3.225069427490234375e+01 -1.013691043853759766e+01 -5.739409971283748746e-06 -1.478731974202673882e-06 -2.165442538171191700e-06 2.639112835822743364e-06
1.000000000000000000e+01 3.622507476806640625e+01 -1.165381526947021484e+01 -6.191864486027043313e-06 1.202967723656911403e-05 1.751343802425253671e-06 3.639503120211884379e-06
1.100000000000000000e+01 3.421545791625976562e+01 -1.174414348602294922e+01 8.935887308325618505e-05 3.674076288007199764e-05 3.782989006140269339e-05 -3.522411861922591925e-05
1.200000000000000000e+01 3.271157836914062500e+01 -1.019549655914306641e+01 5.220861567067913711e-05 1.527256608824245632e-05 2.024435525527223945e-05 1.653363483455905225e-06
1.300000000000000000e+01 3.326613235473632812e+01 -1.040691661834716797e+01 -4.225601878715679049e-05 -2.118314296239987016e-05 -1.903174779727123678e-05 -1.726170012261718512e-05
1.400000000000000000e+01 3.391250991821289062e+01 -1.076323032379150391e+01 -3.801871571340598166e-05 1.784561936801765114e-05 -6.051929176464909688e-06 1.644623262109234929e-05
1.500000000000000000e+01 3.826198196411132812e+01 -1.252883338928222656e+01 7.612224726472049952e-05 7.679806003579869866e-06 2.514061634428799152e-05 2.753695071078254841e-06
1.600000000000000000e+01 3.878078079223632812e+01 -1.273593711853027344e+01 5.741131826653145254e-05 -6.437772390199825168e-05 -2.089921963488450274e-06 -7.193480269052088261e-05
1.700000000000000000e+01 3.746259689331054688e+01 -1.293888759613037109e+01 9.024741302710026503e-05 1.952918501046951860e-05 3.293298141215927899e-05 2.035668148892000318e-05
1.800000000000000000e+01 3.923814773559570312e+01 -1.391720581054687500e+01 2.395170013187453151e-04 4.160430307820206508e-06 7.310323417186737061e-05 9.894731192616745830e-06
1.900000000000000000e+01 3.880344772338867188e+01 -1.336954689025878906e+01 9.290563320973888040e-05 -3.121721965726464987e-05 1.850652370194438845e-05 1.044009150064084679e-05
2.000000000000000000e+01 3.970389938354492188e+01 -1.333049583435058594e+01 1.191123592434450984e-04 -2.247962220280896872e-05 2.898981983889825642e-05 -6.516213761642575264e-05
2.100000000000000000e+01 3.817409896850585938e+01 -1.332935810089111328e+01 4.069483111379668117e-05 -5.798962229164317250e-05 -5.188437626202357933e-06 -2.286974734033719869e-07
2.200000000000000000e+01 3.769431304931640625e+01 -1.221975231170654297e+01 2.275537190143950284e-05 -5.285156476020347327e-06 5.241064627625746652e-06 2.215504991909256205e-06
2.300000000000000000e+01 3.923266983032226562e+01 -1.298685264587402344e+01 1.183635904453694820e-04 1.068409037543460727e-04 6.756134825991466641e-05 -1.583853918418753892e-05
2.400000000000000000e+01 4.088659667968750000e+01 -1.412661933898925781e+01 2.207930956501513720e-04 2.181414674851112068e-05 7.278216799022629857e-05 -1.603992568561807275e-04
2.500000000000000000e+01 4.108477783203125000e+01 -1.516452312469482422e+01 2.250120014650747180e-04 -7.927653496153652668e-05 4.372063995106145740e-05 -1.217295648530125618e-04
2.600000000000000000e+01 3.987519454956054688e+01 -1.433080673217773438e+01 1.529276487417519093e-04 -9.425041935173794627e-05 1.760316808940842748e-05 -6.672814924968406558e-05
2.700000000000000000e+01 4.168745040893554688e+01 -1.558723735809326172e+01 3.075778658967465162e-04 5.730657721869647503e-05 1.094653343898244202e-04 -9.597717144060879946e-05
2.800000000000000000e+01 4.210943603515625000e+01 -1.497935009002685547e+01 3.107482916675508022e-04 6.700931407976895571e-05 1.133272817241959274e-04 -2.448022714816033840e-04
2.900000000000000000e+01 4.149871826171875000e+01 -1.455105972290039062e+01 3.333596396259963512e-04 1.377901062369346619e-04 1.413449208484962583e-04 -1.406039664288982749e-04
3.000000000000000000e+01 4.048069763183593750e+01 -1.474565982818603516e+01 2.880675892811268568e-04 2.031492158494074829e-06 8.702972263563424349e-05 -1.763580439728684723e-05
3.100000000000000000e+01 4.027304840087890625e+01 -1.370619010925292969e+01 2.178486320190131664e-04 5.387639612308703363e-05 8.151750807883217931e-05 -6.588867836399003863e-05
3.200000000000000000e+01 4.393293762207031250e+01 -1.628159904479980469e+01 3.593310830183327198e-04 2.438496303511783481e-04 1.809542154660448432e-04 -2.289229887537658215e-04
3.300000000000000000e+01 4.349453735351562500e+01 -1.687784004211425781e+01 1.161263280664570630e-04 5.613449320662766695e-05 5.167824565432965755e-05 -2.220037276856601238e-04
3.400000000000000000e+01 4.454083633422851562e+01 -1.671368789672851562e+01 2.409654698567464948e-04 1.391132245771586895e-04 1.140236054197885096e-04 -2.722619101405143738e-04
3.500000000000000000e+01 4.332546997070312500e+01 -1.584721183776855469e+01 3.306403523311018944e-04 1.203073770739138126e-04 1.352843100903555751e-04 -2.973255177494138479e-04
3.600000000000000000e+01 4.228987503051757812e+01 -1.601399040222167969e+01 2.074522490147501230e-04 -1.850805892900098115e-05 5.668326048180460930e-05 -1.785341737559065223e-04
3.700000000000000000e+01 4.271836471557617188e+01 -1.541066265106201172e+01 3.943392366636544466e-04 2.024313143920153379e-04 1.790311653167009354e-04 -2.080164558719843626e-04
3.800000000000000000e+01 4.409748458862304688e+01 -1.730638694763183594e+01 9.282300743507221341e-05 2.269340184284374118e-04 9.592710557626560330e-05 -1.719361025607213378e-04
3.900000000000000000e+01 4.289202880859375000e+01 -1.644699668884277344e+01 2.497147943358868361e-04 1.263065059902146459e-04 1.128063886426389217e-04 -1.426759554306045175e-04
4.000000000000000000e+01 4.547533798217773438e+01 -1.835840034484863281e+01 -5.432797024695901200e-06 4.206839948892593384e-04 1.245753519469872117e-04 -1.845319202402606606e-04
4.100000000000000000e+01 4.592621231079101562e+01 -1.777148628234863281e+01 -5.245803549769334495e-05 1.107593780034221709e-04 1.749040347931440920e-05 -7.339583680732175708e-05
4.200000000000000000e+01 4.477213668823242188e+01 -1.781250190734863281e+01 -2.521540227462537587e-05 1.451182906748726964e-04 3.597086833906359971e-05 -2.332245639991015196e-04
4.300000000000000000e+01 4.521964645385742188e+01 -1.722290992736816406e+01 1.340394665021449327e-04 2.185499179176986217e-04 1.057768167811445892e-04 -1.750286755850538611e-04
4.400000000000000000e+01 4.605035400390625000e+01 -1.858536338806152344e+01 4.154202906647697091e-05 2.794272149913012981e-04 9.629077248973771930e-05 4.344481931184418499e-05
4.500000000000000000e+01 4.658209228515625000e+01 -1.637586402893066406e+01 -6.434256434440612793e-01 6.751707196235656738e-02 -1.727725714445114136e-01 -7.725377380847930908e-02
4.600000000000000000e+01 4.631165695190429688e+01 -1.710632896423339844e+01 -7.597905397415161133e-02 -1.378475781530141830e-02 -2.692914381623268127e-02 5.499165505170822144e-03
4.700000000000000000e+01 4.698057174682617188e+01 -1.691733360290527344e+01 -1.320288479328155518e-01 5.674289539456367493e-03 -3.790636733174324036e-02 -5.143428966403007507e-02
4.800000000000000000e+01 4.604409027099609375e+01 -1.595431995391845703e+01 -7.608737349510192871e-01 1.703711152076721191e-01 -1.771507859230041504e-01 1.568927168846130371e-01
4.900000000000000000e+01 4.565672302246093750e+01 -1.659176063537597656e+01 -3.432880342006683350e-01 5.082419607788324356e-03 -1.014616861939430237e-01 6.870780140161514282e-02
5.000000000000000000e+01 4.378240203857421875e+01 -1.521486091613769531e+01 -8.647064566612243652e-01 -2.643570005893707275e-01 -3.387190401554107666e-01 5.322867035865783691e-01
5.100000000000000000e+01 4.483348846435546875e+01 -1.505673217773437500e+01 -9.035716056823730469e-01 5.427750572562217712e-02 -2.547882199287414551e-01 3.494169116020202637e-01
5.200000000000000000e+01 4.545152282714843750e+01 -1.549620914459228516e+01 -8.402192592620849609e-01 1.188187375664710999e-01 -2.164201587438583374e-01 2.463400512933731079e-01
5.300000000000000000e+01 4.359851455688476562e+01 -1.417135810852050781e+01 -9.959492087364196777e-01 -1.428044587373733521e-01 -3.416261076927185059e-01 5.077493190765380859e-01
5.400000000000000000e+01 4.317002487182617188e+01 -1.477468585968017578e+01 -9.944931864738464355e-01 -3.849057853221893311e-01 -4.138197004795074463e-01 6.065925955772399902e-01
5.500000000000000000e+01 4.500817108154296875e+01 -1.608890724182128906e+01 -5.604159235954284668e-01 -3.733547404408454895e-02 -1.793254166841506958e-01 2.853059470653533936e-01
5.600000000000000000e+01 4.421584320068359375e+01 -1.461507511138916016e+01 -9.586333632469177246e-01 -8.219536393880844116e-02 -3.122486174106597900e-01 4.266007542610168457e-01
5.700000000000000000e+01 4.439509201049804688e+01 -1.565297508239746094e+01 -7.438286542892456055e-01 -2.134224921464920044e-01 -2.871753275394439697e-01 3.883419036865234375e-01
5.800000000000000000e+01 4.131310272216796875e+01 -1.347806453704833984e+01 -1.196214914321899414e+00 -4.998870491981506348e-01 -5.088306069374084473e-01 7.870658636093139648e-01
5.900000000000000000e+01 4.193373489379882812e+01 -1.390832901000976562e+01 -1.145380258560180664e+00 -4.821026623249053955e-01 -4.882448613643646240e-01 7.352983951568603516e-01
6.000000000000000000e+01 4.297583389282226562e+01 -1.373159217834472656e+01 -1.023250699043273926e+00 -2.564883232116699219e-01 -3.839217126369476318e-01 5.585625767707824707e-01
6.100000000000000000e+01 4.108984756469726562e+01 -1.242412281036376953e+01 -1.068263411521911621e+00 -3.894255459308624268e-01 -4.373066723346710205e-01 6.264920234680175781e-01
6.200000000000000000e+01 4.069198989868164062e+01 -1.304873943328857422e+01 -1.298303008079528809e+00 -5.446668863296508789e-01 -5.528909564018249512e-01 8.089327812194824219e-01
6.300000000000000000e+01 4.171900177001953125e+01 -1.285902404785156250e+01 -1.080509543418884277e+00 -3.662438094615936279e-01 -4.340260028839111328e-01 6.324756741523742676e-01
6.400000000000000000e+01 4.255384826660156250e+01 -1.433948040008544922e+01 -1.075854420661926270e+00 -4.148920476436614990e-01 -4.472239613533020020e-01 6.950964331626892090e-01
6.500000000000000000e+01 4.234767913818359375e+01 -1.329486465454101562e+01 -1.046104669570922852e+00 -2.975467443466186523e-01 -4.030954241752624512e-01 6.123695373535156250e-01
6.600000000000000000e+01 3.905907440185546875e+01 -1.123355197906494141e+01 -1.052005052566528320e+00 -3.964930772781372070e-01 -4.345494508743286133e-01 6.015919446945190430e-01
6.700000000000000000e+01 3.974638366699218750e+01 -1.162254619598388672e+01 -1.037547945976257324e+00 -4.207075834274291992e-01 -4.374766647815704346e-01 6.493299603462219238e-01
6.800000000000000000e+01 3.805582809448242188e+01 -1.151677036285400391e+01 -1.354775547981262207e+00 -4.216109514236450195e-01 -5.329159498214721680e-01 6.871058344841003418e-01
6.900000000000000000e+01 3.938637542724609375e+01 -1.226908969879150391e+01 -1.307242751121520996e+00 -4.424218833446502686e-01 -5.248993635177612305e-01 7.503252029418945312e-01
7.000000000000000000e+01 4.004990386962890625e+01 -1.264503097534179688e+01 -1.343217134475708008e+00 -4.971976876258850098e-01 -5.521244406700134277e-01 7.946603894233703613e-01
7.100000000000000000e+01 4.043246459960937500e+01 -1.201124572753906250e+01 -1.045490741729736328e+00 -4.393686056137084961e-01 -4.454578161239624023e-01 6.335813999176025391e-01
7.200000000000000000e+01 3.837077713012695312e+01 -1.084462738037109375e+01 -9.701706171035766602e-01 -3.944830298423767090e-01 -4.093961119651794434e-01 5.362929105758666992e-01
7.300000000000000000e+01 3.872161483764648438e+01 -1.189285373687744141e+01 -1.280352354049682617e+00 -4.179835021495819092e-01 -5.095007419586181641e-01 7.332153916358947754e-01
7.400000000000000000e+01 3.041912651062011719e+01 -8.131785392761230469e+00 -2.124939709901809692e-01 -2.019751816987991333e-01 -1.243407428264617920e-01 2.965061366558074951e-01
7.500000000000000000e+01 2.965965080261230469e+01 -8.237862586975097656e+00 9.564728289842605591e-02 -1.219088509678840637e-01 -7.878471165895462036e-03 2.259577810764312744e-01
7.600000000000000000e+01 3.101958847045898438e+01 -1.878938555717468262e+00 1.603162437677383423e-01 -3.389844298362731934e-02 3.792534023523330688e-02 1.171982958912849426e-01
7.700000000000000000e+01 2.945656394958496094e+01 -1.970202565193176270e+00 5.466096103191375732e-02 2.664864994585514069e-02 2.439288422465324402e-02 9.815486520528793335e-02
7.800000000000000000e+01 3.009688949584960938e+01 -2.543983697891235352e+00 6.238851323723793030e-02 3.415691107511520386e-02 2.896362729370594025e-02 1.531216800212860107e-01
7.900000000000000000e+01 2.781381607055664062e+01 -2.854908466339111328e+00 -5.579786375164985657e-02 6.580099463462829590e-02 3.000939730554819107e-03 2.908335067331790924e-02
8.000000000000000000e+01 2.802515792846679688e+01 -7.400948047637939453e+00 -1.488751359283924103e-02 7.873846888542175293e-01 2.317491620779037476e-01 7.111444473266601562e-01
8.100000000000000000e+01 2.822292327880859375e+01 -6.883163452148437500e+00 -2.423298507928848267e-01 7.398161292076110840e-01 1.492458879947662354e-01 7.638214230537414551e-01
8.200000000000000000e+01 2.753202629089355469e+01 -7.070564746856689453e+00 -2.092234045267105103e-01 1.150527358055114746e+00 2.823911905288696289e-01 8.385789990425109863e-01
8.300000000000000000e+01 3.102170753479003906e+01 -7.923994541168212891e+00 -1.458314508199691772e-01 -1.208911985158920288e-01 -8.001679182052612305e-02 3.035665154457092285e-01
8.400000000000000000e+01 3.336486816406250000e+01 -7.629626750946044922e+00 -2.172831445932388306e-01 -1.723768860101699829e-01 -1.168980076909065247e-01 3.325248360633850098e-01
8.500000000000000000e+01 3.555099868774414062e+01 -9.023928642272949219e+00 -5.030459761619567871e-01 -2.452812939882278442e-01 -2.244981825351715088e-01 3.835206925868988037e-01
8.600000000000000000e+01 3.633015060424804688e+01 -9.267066001892089844e+00 -5.460170507431030273e-01 -2.887452244758605957e-01 -2.504286766052246094e-01 4.370890557765960693e-01
8.700000000000000000e+01 3.939807891845703125e+01 -1.052261161804199219e+01 -7.237323522567749023e-01 -3.883795440196990967e-01 -3.336335718631744385e-01 5.060822367668151855e-01
8.800000000000000000e+01 4.042601394653320312e+01 -1.023887920379638672e+01 -5.499542951583862305e-01 -3.265603482723236084e-01 -2.629543840885162354e-01 4.445874392986297607e-01
8.900000000000000000e+01 4.209107589721679688e+01 -1.219407558441162109e+01 -9.048030972480773926e-01 -2.363811284303665161e-01 -3.423552513122558594e-01 5.176534652709960938e-01
9.000000000000000000e+01 4.464364624023437500e+01 -1.393113040924072266e+01 -9.932541251182556152e-01 1.023555025458335876e-01 -2.672695815563201904e-01 4.002468585968017578e-01
9.100000000000000000e+01 4.704323959350585938e+01 -1.446220397949218750e+01 -1.162016391754150391e+00 3.129992783069610596e-01 -2.547051310539245605e-01 2.453802525997161865e-01
9.200000000000000000e+01 4.710734939575195312e+01 -1.567463970184326172e+01 -1.073603510856628418e+00 2.438447326421737671e-01 -2.489276528358459473e-01 8.603680133819580078e-02
9.300000000000000000e+01 4.775215530395507812e+01 -1.406634712219238281e+01 -1.283073663711547852e+00 2.000790834426879883e-01 -3.248983621597290039e-01 2.962970733642578125e-01
9.400000000000000000e+01 4.779838562011718750e+01 -1.611938285827636719e+01 -1.002868652343750000e+00 -9.731483459472656250e-02 -3.300550282001495361e-01 -2.808477878570556641e-01
9.500000000000000000e+01 4.871954345703125000e+01 -1.300765419006347656e+01 -1.120144724845886230e+00 2.099557220935821533e-01 -2.730566859245300293e-01 2.773635983467102051e-01
9.600000000000000000e+01 4.950144577026367188e+01 -1.528529834747314453e+01 -1.932782411575317383e+00 -5.737059190869331360e-02 -5.970458984375000000e-01 -2.018331140279769897e-01
9.700000000000000000e+01 5.075051498413085938e+01 -1.514974308013916016e+01 -2.110981702804565430e+00 1.861585676670074463e-02 -6.277097463607788086e-01 -2.241538017988204956e-01
9.800000000000000000e+01 5.075346374511718750e+01 -1.401601409912109375e+01 -1.670093417167663574e+00 6.939055025577545166e-02 -4.802108705043792725e-01 -3.934268280863761902e-02
9.900000000000000000e+01 5.060318374633789062e+01 -9.521087646484375000e+00 1.388702169060707092e-02 5.259865522384643555e-01 1.619620770215988159e-01 2.794897854328155518e-01
1.000000000000000000e+02 5.230888748168945312e+01 -4.896911621093750000e+00 2.742618799209594727e+00 1.177497863769531250e+00 1.176034927368164062e+00 1.262700557708740234e+00
1.010000000000000000e+02 4.953224945068359375e+01 -5.458581924438476562e+00 2.651076793670654297e+00 1.212093383073806763e-01 8.316858410835266113e-01 9.939023293554782867e-03
1.020000000000000000e+02 4.995272827148437500e+01 -6.644613742828369141e+00 1.878915905952453613e+00 6.175066828727722168e-01 7.489267587661743164e-01 5.899844765663146973e-01
1.030000000000000000e+02 4.840120315551757812e+01 -5.976217269897460938e+00 1.989585995674133301e+00 2.264128327369689941e-01 6.647996306419372559e-01 -1.749081909656524658e-02
1.040000000000000000e+02 4.622353744506835938e+01 -4.657236099243164062e+00 1.567199707031250000e+00 1.030080616474151611e-01 5.010623335838317871e-01 -4.269801974296569824e-01
1.050000000000000000e+02 4.362602615356445312e+01 -3.722733020782470703e+00 1.446145772933959961e+00 2.045975476503372192e-01 4.952229857444763184e-01 -4.743443727493286133e-01
1.060000000000000000e+02 4.236769104003906250e+01 -3.106037855148315430e+00 1.211253166198730469e+00 3.721601068973541260e-01 4.750240147113800049e-01 -5.624112486839294434e-01
1.070000000000000000e+02 3.651897430419921875e+01 -1.187517046928405762e+00 3.684464693069458008e-01 -8.672508597373962402e-02 8.451641350984573364e-02 -1.035165227949619293e-02
1.080000000000000000e+02 3.497601318359375000e+01 -1.501456379890441895e+00 4.069010317325592041e-01 -7.539874315261840820e-02 9.945069253444671631e-02 7.725637406110763550e-02
1.090000000000000000e+02 3.428785324096679688e+01 -1.806629896163940430e+00 3.846518695354461670e-01 -5.411097034811973572e-02 9.916226565837860107e-02 7.598378509283065796e-02
1.100000000000000000e+02 3.374251556396484375e+01 -2.166381597518920898e+00 2.904778122901916504e-01 5.579639226198196411e-03 8.881723135709762573e-02 1.093081086874008179e-01
1.110000000000000000e+02 3.573874664306640625e+01 -8.276342391967773438e+00 -3.086091578006744385e-01 -2.766751646995544434e-01 -1.755852997303009033e-01 3.853408694267272949e-01
1.120000000000000000e+02 4.130078125000000000e+01 -7.983563899993896484e+00 1.058421581983566284e-01 -1.807762086391448975e-01 -2.248021401464939117e-02 2.647619545459747314e-01
1.130000000000000000e+02 4.507143020629882812e+01 -6.613378047943115234e+00 8.747991323471069336e-01 9.292459487915039062e-02 2.903171181678771973e-01 4.542456567287445068e-02
1.140000000000000000e+02 4.279660415649414062e+01 -1.073140048980712891e+01 -5.233327746391296387e-01 -7.898025959730148315e-02 -1.806939095258712769e-01 3.924969434738159180e-01
1.150000000000000000e+02 4.144705963134765625e+01 -1.176359367370605469e+01 -8.722112178802490234e-01 -3.116370439529418945e-01 -3.551544845104217529e-01 5.319864153861999512e-01
1.160000000000000000e+02 3.398922348022460938e+01 -8.525048255920410156e+00 -3.885208070278167725e-01 -1.827143728733062744e-01 -1.713705509901046753e-01 3.351730704307556152e-01
1.170000000000000000e+02 5.335713958740234375e+01 -1.479428100585937500e+01 -2.357645034790039062e+00 -3.012769296765327454e-02 -7.163317799568176270e-01 -2.774443328380584717e-01
1.180000000000000000e+02 5.403245925903320312e+01 -1.098324394226074219e+01 -6.849457621574401855e-01 2.539664506912231445e-01 -1.292937844991683960e-01 -1.619267910718917847e-01
1.190000000000000000e+02 5.599839782714843750e+01 -1.448036289215087891e+01 -2.117107391357421875e+00 -3.002901561558246613e-02 -6.441408991813659668e-01 -2.980247437953948975e-01
1.200000000000000000e+02 5.768700408935546875e+01 -1.071488571166992188e+01 -8.041180968284606934e-01 1.026642695069313049e-01 -2.104361504316329956e-01 -3.873164653778076172e-01
1.210000000000000000e+02 5.543135452270507812e+01 -1.787632822990417480e+00 1.053075194358825684e+00 1.199339509010314941e+00 6.757243871688842773e-01 1.096906423568725586e+00
1.220000000000000000e+02 5.814793395996093750e+01 -3.996084630489349365e-01 7.712893486022949219e-01 8.677888512611389160e-01 4.917234778404235840e-01 7.342369556427001953e-01
1.230000000000000000e+02 5.876057052612304688e+01 2.727305173873901367e+00 5.620785355567932129e-01 1.092100739479064941e+00 4.962537884712219238e-01 7.704817652702331543e-01
1.240000000000000000e+02 5.794193649291992188e+01 1.613625407218933105e+00 5.591028928756713867e-01 1.067165970802307129e+00 4.878806471824645996e-01 7.754502892494201660e-01
1.250000000000000000e+02 5.732104873657226562e+01 -1.432001876831054688e+01 -1.875859856605529785e+00 -1.367113273590803146e-02 -5.668593049049377441e-01 -3.216571807861328125e-01
1.260000000000000000e+02 6.107980346679687500e+01 -1.327498054504394531e+01 -1.462035298347473145e+00 -2.407591938972473145e-01 -5.108383297920227051e-01 -6.385760903358459473e-01
1.270000000000000000e+02 6.223391342163085938e+01 -1.269363117218017578e+01 -1.746961951255798340e+00 -3.482773602008819580e-01 -6.285718083381652832e-01 -7.688204050064086914e-01
1.280000000000000000e+02 6.336404418945312500e+01 -1.217446899414062500e+01 -2.247363090515136719e+00 -4.032952189445495605e-01 -7.951974868774414062e-01 -5.788083672523498535e-01
1.290000000000000000e+02 6.429629516601562500e+01 -1.139872455596923828e+01 -1.664367794990539551e+00 -5.013191699981689453e-01 -6.497061252593994141e-01 -3.576233386993408203e-01
1.300000000000000000e+02 6.534732055664062500e+01 -1.225162982940673828e+01 -1.524249672889709473e+00 -2.201995402574539185e-01 -5.233347415924072266e-01 8.026426285505294800e-02
1.310000000000000000e+02 6.831745910644531250e+01 -1.324432468414306641e+01 -3.658228218555450439e-01 4.558623954653739929e-02 -9.607097506523132324e-02 1.986186951398849487e-02
1.320000000000000000e+02 6.901964569091796875e+01 -1.401414585113525391e+01 -2.327505648136138916e-01 2.378894202411174774e-02 -6.268848478794097900e-02 2.683104760944843292e-02
1.330000000000000000e+02 7.046178436279296875e+01 -1.456334590911865234e+01 -1.492043733596801758e-01 1.398896612226963043e-02 -4.056462273001670837e-02 -2.870671916753053665e-03
1.340000000000000000e+02 7.202259826660156250e+01 -1.446410179138183594e+01 -1.179458275437355042e-01 1.116368826478719711e-02 -3.203464299440383911e-02 -2.143643610179424286e-02
1.350000000000000000e+02 7.435966491699218750e+01 -1.443013763427734375e+01 -6.900228559970855713e-02 -2.694862196221947670e-03 -2.150914631783962250e-02 -3.033802285790443420e-02
1.360000000000000000e+02 7.538700103759765625e+01 -1.063104534149169922e+01 -1.125021353363990784e-01 -6.173434481024742126e-02 -5.227094516158103943e-02 -1.451387107372283936e-01
1.370000000000000000e+02 7.568209838867187500e+01 -4.518536090850830078e+00 -2.255969867110252380e-02 -3.149745762348175049e-01 -1.012602820992469788e-01 -2.968218028545379639e-01
1.380000000000000000e+02 7.449268341064453125e+01 -6.621684432029724121e-01 3.915848582983016968e-02 -3.960470259189605713e-01 -1.070665568113327026e-01 -3.414490520954132080e-01
1.390000000000000000e+02 7.566047668457031250e+01 3.600742101669311523e+00 5.553701892495155334e-02 -6.472390294075012207e-01 -1.775106042623519897e-01 -2.312846183776855469e-01
1.400000000000000000e+02 7.424834442138671875e+01 6.341072559356689453e+00 8.474393188953399658e-02 -5.173544287681579590e-01 -1.297831535339355469e-01 -1.976672112941741943e-01
1.410000000000000000e+02 7.548542785644531250e+01 1.092909717559814453e+01 6.804958730936050415e-02 -7.570279240608215332e-01 -2.066935151815414429e-01 -6.896940618753433228e-02
1.420000000000000000e+02 7.416613006591796875e+01 1.463235282897949219e+01 1.056371107697486877e-01 -5.562821626663208008e-01 -1.351935118436813354e-01 2.802899293601512909e-02
1.430000000000000000e+02 7.462944030761718750e+01 1.678999328613281250e+01 8.561316877603530884e-02 -6.208333969116210938e-01 -1.605660617351531982e-01 8.685424178838729858e-02
1.440000000000000000e+02 7.530216979980468750e+01 2.067994308471679688e+01 4.723007977008819580e-02 -6.805512905120849609e-01 -1.899963617324829102e-01 1.685911118984222412e-01
1.450000000000000000e+02 7.339045715332031250e+01 2.293395996093750000e+01 4.080365225672721863e-02 -3.677982985973358154e-01 -9.809839725494384766e-02 2.296997606754302979e-01
1.460000000000000000e+02 7.554821014404296875e+01 2.829458236694335938e+01 -2.250551432371139526e-02 -5.241604447364807129e-01 -1.639997810125350952e-01 1.888341158628463745e-01
1.470000000000000000e+02 7.294841003417968750e+01 3.068738555908203125e+01 -6.654471904039382935e-02 -2.374335825443267822e-01 -9.119348973035812378e-02 1.989394724369049072e-01
1.480000000000000000e+02 7.352680969238281250e+01 3.769660186767578125e+01 -7.141782343387603760e-02 -2.327986657619476318e-01 -9.126494824886322021e-02 7.536333054304122925e-02
1.490000000000000000e+02 7.181331634521484375e+01 4.106671524047851562e+01 -9.506583958864212036e-02 -1.536722332239151001e-01 -7.462142407894134521e-02 2.237167209386825562e-02
1.500000000000000000e+02 7.030832672119140625e+01 3.557402801513671875e+01 -1.220662966370582581e-01 -4.513565823435783386e-02 -5.016058683395385742e-02 1.156347170472145081e-01
1.510000000000000000e+02 7.057034301757812500e+01 2.831666183471679688e+01 -7.390580326318740845e-02 1.970734912902116776e-03 -2.158051915466785431e-02 2.359253764152526855e-01
1.520000000000000000e+02 7.162947082519531250e+01 2.178505706787109375e+01 9.357629716396331787e-02 -9.938094764947891235e-02 -1.741397194564342499e-03 2.211317420005798340e-01
1.530000000000000000e+02 7.133431243896484375e+01 1.842580032348632812e+01 1.687034070491790771e-01 -5.138298124074935913e-02 3.519612923264503479e-02 1.449685543775558472e-01
1.540000000000000000e+02 7.013377380371093750e+01 1.672293853759765625e+01 2.279336750507354736e-01 1.648189723491668701e-01 1.178257912397384644e-01 7.385545969009399414e-02
1.550000000000000000e+02 7.118169403076171875e+01 1.231333351135253906e+01 1.932845562696456909e-01 -3.024370223283767700e-02 4.891225323081016541e-02 -3.871745243668556213e-02
1.560000000000000000e+02 7.004719543457031250e+01 6.904587745666503906e+00 1.996302753686904907e-01 1.189582273364067078e-01 9.557655453681945801e-02 -1.673487573862075806e-01
1.570000000000000000e+02 7.166484069824218750e+01 4.173836708068847656e+00 1.511094421148300171e-01 -1.693978309631347656e-01 -5.486519075930118561e-03 -2.588084340095520020e-01
1.580000000000000000e+02 7.135714721679687500e+01 1.173809766769409180e+00 1.256152093410491943e-01 -1.619847565889358521e-01 -1.091086305677890778e-02 -3.429259657859802246e-01
1.590000000000000000e+02 7.241477203369140625e+01 -5.305291652679443359e+00 -7.873035222291946411e-02 -1.586001515388488770e-01 -7.119914889335632324e-02 -4.068010151386260986e-01
1.600000000000000000e+02 7.220770263671875000e+01 -6.750546932220458984e+00 -1.415179371833801270e-01 -1.084366440773010254e-01 -7.498637586832046509e-02 -3.909101784229278564e-01
1.610000000000000000e+02 7.014341735839843750e+01 -1.108495807647705078e+01 -4.030159711837768555e-01 7.791423797607421875e-02 -9.753051400184631348e-02 -1.887300610542297363e-01
1.620000000000000000e+02 7.118349456787109375e+01 -1.057704639434814453e+01 -3.315250575542449951e-01 4.737607017159461975e-02 -8.524469286203384399e-02 -2.101865708827972412e-01
1.630000000000000000e+02 6.903115081787109375e+01 -1.473029041290283203e+01 -1.513775289058685303e-01 8.209696970880031586e-03 -4.295035079121589661e-02 3.457320109009742737e-02
1.640000000000000000e+02 7.513304901123046875e+01 -1.444927692413330078e+01 -5.220662057399749756e-02 -3.753544529899954796e-03 -1.678805053234100342e-02 -2.835722640156745911e-02
1.650000000000000000e+02 7.863510131835937500e+01 -1.321805381774902344e+01 -1.101585011929273605e-02 -1.922307908535003662e-02 -9.071678854525089264e-03 -1.300105731934309006e-02
1.660000000000000000e+02 7.941391754150390625e+01 -8.640246391296386719e+00 -1.058954163454473019e-03 -1.448476314544677734e-01 -4.377197474241256714e-02 -3.321361169219017029e-02
1.670000000000000000e+02 7.941714477539062500e+01 -1.003240299224853516e+01 -5.071429535746574402e-03 -7.423882186412811279e-02 -2.379307523369789124e-02 -2.560685388743877411e-02
1.680000000000000000e+02 7.940162658691406250e+01 -5.863826751708984375e+00 9.783853311091661453e-04 -3.421138823032379150e-01 -1.023406460881233215e-01 -4.842106625437736511e-02
1.690000000000000000e+02 7.697035217285156250e+01 -5.824628829956054688e+00 -2.130342647433280945e-02 -2.967271506786346436e-01 -9.540916979312896729e-02 -2.144765853881835938e-01
1.700000000000000000e+02 7.938990783691406250e+01 -1.690821647644042969e+00 -1.945550437085330486e-03 -7.179976105690002441e-01 -2.159829437732696533e-01 -5.530076473951339722e-02
1.710000000000000000e+02 7.816588592529296875e+01 -3.626196980476379395e-01 2.743153832852840424e-03 -7.226213216781616211e-01 -2.159634381532669067e-01 -1.536717861890792847e-01
1.720000000000000000e+02 7.686034393310546875e+01 5.165895462036132812e+00 3.122711926698684692e-02 -8.645995855331420898e-01 -2.500117421150207520e-01 -1.605538874864578247e-01
1.730000000000000000e+02 7.810811614990234375e+01 5.255320072174072266e+00 1.032698713243007660e-02 -1.060363888740539551e+00 -3.150110840797424316e-01 -1.049740687012672424e-01
1.740000000000000000e+02 7.806254577636718750e+01 1.098891353607177734e+01 1.605601049959659576e-02 -1.241294980049133301e+00 -3.675716817378997803e-01 -3.389935940504074097e-02
1.750000000000000000e+02 7.937815093994140625e+01 1.519782924652099609e+01 4.626846406608819962e-03 -1.525810599327087402e+00 -4.563551247119903564e-01 9.365133941173553467e-03
1.760000000000000000e+02 7.813037109375000000e+01 1.806534194946289062e+01 9.557535871863365173e-03 -1.210191249847412109e+00 -3.601901233196258545e-01 6.273421645164489746e-02
1.770000000000000000e+02 7.790454101562500000e+01 2.221873092651367188e+01 8.082523010671138763e-03 -1.030280709266662598e+00 -3.066594302654266357e-01 1.025453358888626099e-01
1.780000000000000000e+02 7.760062408447265625e+01 2.508101272583007812e+01 3.379853209480643272e-03 -8.677220344543457031e-01 -2.593026459217071533e-01 1.279732584953308105e-01
1.790000000000000000e+02 7.768479919433593750e+01 2.922391128540039062e+01 -3.132404061034321785e-03 -7.125423550605773926e-01 -2.147024273872375488e-01 1.199767887592315674e-01
1.800000000000000000e+02 7.724468994140625000e+01 3.172022056579589844e+01 -1.502170786261558533e-02 -5.912900567054748535e-01 -1.818935275077819824e-01 1.030701175332069397e-01
1.810000000000000000e+02 7.912165069580078125e+01 3.621744537353515625e+01 -1.012639794498682022e-02 -5.594329833984375000e-01 -1.708678007125854492e-01 2.360695227980613708e-02
1.820000000000000000e+02 7.798219299316406250e+01 3.787771224975585938e+01 -5.908540915697813034e-03 -4.672544002532958984e-01 -1.419488787651062012e-01 4.994850605726242065e-02
1.830000000000000000e+02 7.797753143310546875e+01 4.160613632202148438e+01 -2.846351452171802521e-02 -4.368434846401214600e-01 -1.395920962095260620e-01 8.029974997043609619e-03
1.840000000000000000e+02 6.736930084228515625e+01 4.118170166015625000e+01 -1.687968373298645020e-01 8.210297673940658569e-02 -2.600816078484058380e-02 1.559726241976022720e-02
1.850000000000000000e+02 6.721642303466796875e+01 3.842552947998046875e+01 -1.695109456777572632e-01 9.856591373682022095e-02 -2.128350920975208282e-02 4.923076182603836060e-02
1.860000000000000000e+02 6.731906127929687500e+01 3.559316635131835938e+01 -1.681642532348632812e-01 1.267029047012329102e-01 -1.243840251117944717e-02 8.999080955982208252e-02
1.870000000000000000e+02 6.788819122314453125e+01 3.066937828063964844e+01 -1.378135383129119873e-01 1.895940452814102173e-01 1.553415041416883469e-02 1.603672802448272705e-01
1.880000000000000000e+02 6.862986755371093750e+01 2.522678565979003906e+01 -1.050534937530755997e-02 2.393332421779632568e-01 6.864836812019348145e-02 2.281806617975234985e-01
1.890000000000000000e+02 7.025227355957031250e+01 2.223066139221191406e+01 1.026857197284698486e-01 7.510755211114883423e-02 5.333798006176948547e-02 2.307611703872680664e-01
1.900000000000000000e+02 6.983721160888671875e+01 1.956527137756347656e+01 1.864786297082901001e-01 1.596778184175491333e-01 1.038469374179840088e-01 1.644752770662307739e-01
1.910000000000000000e+02 6.699868011474609375e+01 1.686008071899414062e+01 3.066816926002502441e-01 7.652741074562072754e-01 3.215867280960083008e-01 -3.879606025293469429e-03
1.920000000000000000e+02 6.640314483642578125e+01 1.295858955383300781e+01 2.388499677181243896e-01 9.794046878814697266e-01 3.654763996601104736e-01 -6.985647603869438171e-03
1.930000000000000000e+02 6.779132843017578125e+01 1.019893264770507812e+01 2.418057024478912354e-01 5.827314853668212891e-01 2.473611682653427124e-01 -3.827831894159317017e-02
1.940000000000000000e+02 6.747991943359375000e+01 8.178091049194335938e+00 2.565319538116455078e-01 5.823966860771179199e-01 2.516785860061645508e-01 -5.566649883985519409e-02
1.950000000000000000e+02 6.725911712646484375e+01 3.849013566970825195e+00 2.817752361297607422e-01 3.833731710910797119e-01 1.995445191860198975e-01 -1.249820664525032043e-01
1.960000000000000000e+02 6.571949768066406250e+01 -7.505223900079727173e-02 2.957483828067779541e-01 2.612096071243286133e-01 1.670873910188674927e-01 -1.497455537319183350e-01
1.970000000000000000e+02 6.752928924560546875e+01 -5.478502273559570312e+00 -8.373646438121795654e-02 -7.638550549745559692e-02 -4.803659021854400635e-02 -4.672459959983825684e-01
1.980000000000000000e+02 6.795054626464843750e+01 -7.968659877777099609e+00 -3.200940787792205811e-01 -6.778308004140853882e-02 -1.163631528615951538e-01 -4.805084764957427979e-01
1.990000000000000000e+02 6.993367767333984375e+01 -9.898871421813964844e+00 -3.922016620635986328e-01 3.945235908031463623e-02 -1.058247908949851990e-01 -3.344792425632476807e-01
2.000000000000000000e+02 6.646791076660156250e+01 -1.296546840667724609e+01 -5.279045104980468750e-01 -1.680642552673816681e-02 -1.634132862091064453e-01 2.143587172031402588e-01
2.010000000000000000e+02 6.331700897216796875e+01 3.812134170532226562e+01 -1.981409341096878052e-01 2.461789995431900024e-01 1.441142242401838303e-02 9.141806513071060181e-03
2.020000000000000000e+02 6.414555358886718750e+01 3.513301086425781250e+01 -1.903936415910720825e-01 2.715200185775756836e-01 2.433791756629943848e-02 2.588786557316780090e-02
2.030000000000000000e+02 6.582427978515625000e+01 3.027926635742187500e+01 -1.514358520507812500e-01 3.449026644229888916e-01 5.804004520177841187e-02 9.953179210424423218e-02
2.040000000000000000e+02 6.540601348876953125e+01 2.724747848510742188e+01 -9.017138183116912842e-02 5.020870566368103027e-01 1.235746964812278748e-01 1.049775853753089905e-01
2.050000000000000000e+02 6.404450225830078125e+01 2.293757629394531250e+01 1.391781419515609741e-01 8.428639769554138184e-01 2.946126461029052734e-01 1.218012347817420959e-02
2.060000000000000000e+02 6.254953384399414062e+01 1.940814971923828125e+01 4.905706346035003662e-01 1.802017211914062500e+00 6.877763867378234863e-01 -5.068849325180053711e-01
2.070000000000000000e+02 6.266582489013671875e+01 1.355272579193115234e+01 7.289405167102813721e-02 2.072672367095947266e+00 6.436699628829956055e-01 6.186744570732116699e-02
2.080000000000000000e+02 6.591311645507812500e+01 1.013036155700683594e+01 2.430063337087631226e-01 9.779217839241027832e-01 3.662784397602081299e-01 3.237937018275260925e-02
2.090000000000000000e+02 6.389553833007812500e+01 8.038259506225585938e+00 2.851210534572601318e-01 1.258169293403625488e+00 4.629871249198913574e-01 2.070514857769012451e-01
2.100000000000000000e+02 6.322264862060546875e+01 2.854124069213867188e+00 3.681092262268066406e-01 8.390787243843078613e-01 3.621563911437988281e-01 2.055050730705261230e-01
2.110000000000000000e+02 6.498461914062500000e+01 7.524119615554809570e-01 3.197265267372131348e-01 3.905833959579467773e-01 2.130929678678512573e-01 -6.451159715652465820e-02
2.120000000000000000e+02 6.476100158691406250e+01 -3.859957695007324219e+00 1.847584098577499390e-01 4.738881718367338181e-03 5.684918537735939026e-02 -2.853603959083557129e-01
2.130000000000000000e+02 6.313847351074218750e+01 -9.172063827514648438e+00 -5.335004329681396484e-01 -2.947280108928680420e-01 -2.484685331583023071e-01 -3.727348744869232178e-01
2.140000000000000000e+02 6.593963623046875000e+01 -1.104120254516601562e+01 -9.958420395851135254e-01 -6.590511649847030640e-02 -3.185241520404815674e-01 -4.761411249637603760e-01
2.150000000000000000e+02 6.272285842895507812e+01 4.108707046508789062e+01 -1.988854557275772095e-01 2.409926056861877441e-01 1.263214834034442902e-02 6.236819899640977383e-04
2.160000000000000000e+02 5.955593490600585938e+01 3.738298034667968750e+01 -1.760767847299575806e-01 3.012642562389373779e-01 3.755624219775199890e-02 -4.282528907060623169e-02
2.170000000000000000e+02 5.924584960937500000e+01 3.269122314453125000e+01 -1.381492763757705688e-01 3.713586032390594482e-01 6.996279209852218628e-02 -1.070036441087722778e-01
2.180000000000000000e+02 5.775292968750000000e+01 3.157884216308593750e+01 -8.867987990379333496e-02 3.536309003829956055e-01 7.948530465364456177e-02 -1.508950144052505493e-01
2.190000000000000000e+02 6.166904830932617188e+01 2.776991844177246094e+01 -9.075176715850830078e-02 5.753105878829956055e-01 1.453676521778106689e-01 -1.065415889024734497e-01
2.200000000000000000e+02 6.006072235107421875e+01 2.477343750000000000e+01 6.587778031826019287e-02 7.454760670661926270e-01 2.434061616659164429e-01 -3.201486468315124512e-01
2.210000000000000000e+02 5.942680740356445312e+01 2.225666999816894531e+01 6.672208905220031738e-01 6.369716525077819824e-01 3.912577629089355469e-01 -4.486530125141143799e-01
2.220000000000000000e+02 6.070887374877929688e+01 2.127946281433105469e+01 7.017497420310974121e-01 1.124175190925598145e+00 5.477774739265441895e-01 -6.804423332214355469e-01
2.230000000000000000e+02 6.148500061035156250e+01 1.995450210571289062e+01 5.719205737113952637e-01 1.762413859367370605e+00 7.003003358840942383e-01 -8.018540740013122559e-01
2.240000000000000000e+02 6.264295959472656250e+01 2.085832405090332031e+01 4.703682065010070801e-01 1.210859537124633789e+00 5.043683052062988281e-01 -3.023636639118194580e-01
2.250000000000000000e+02 6.240174484252929688e+01 1.798598480224609375e+01 3.527880311012268066e-01 2.255612373352050781e+00 7.825201749801635742e-01 -4.940869212150573730e-01
2.260000000000000000e+02 6.255847549438476562e+01 1.657964897155761719e+01 1.011242344975471497e-01 2.219383001327514648e+00 6.961521506309509277e-01 -2.244031280279159546e-01
2.270000000000000000e+02 6.237925720214843750e+01 1.213394546508789062e+01 7.559167593717575073e-02 2.053476333618164062e+00 6.387203931808471680e-01 1.832386106252670288e-01
2.280000000000000000e+02 6.436533355712890625e+01 1.524502277374267578e+01 1.987397819757461548e-01 1.561158657073974609e+00 5.279695391654968262e-01 -8.263644576072692871e-02
2.290000000000000000e+02 6.211404037475585938e+01 1.076619720458984375e+01 5.710939690470695496e-02 2.067513227462768555e+00 6.373867988586425781e-01 2.857599854469299316e-01
2.300000000000000000e+02 6.292243194580078125e+01 9.225525856018066406e+00 1.914164572954177856e-01 1.657992482185363770e+00 5.548226833343505859e-01 2.899717390537261963e-01
2.310000000000000000e+02 6.154163742065429688e+01 8.096778869628906250e+00 1.434691101312637329e-01 1.867646336555480957e+00 6.033346056938171387e-01 5.196865200996398926e-01
2.320000000000000000e+02 6.128613662719726562e+01 6.821971893310546875e+00 3.299614489078521729e-01 1.793616175651550293e+00 6.370732784271240234e-01 6.143926978111267090e-01
2.330000000000000000e+02 6.044589614868164062e+01 4.822908878326416016e+00 5.380411744117736816e-01 1.493226289749145508e+00 6.093802452087402344e-01 7.633632421493530273e-01
2.340000000000000000e+02 6.142362594604492188e+01 3.527523517608642578e+00 3.868155479431152344e-01 1.133114099502563477e+00 4.559789001941680908e-01 4.160730838775634766e-01
2.350000000000000000e+02 6.186431884765625000e+01 -6.566269993782043457e-01 4.852497279644012451e-01 5.052347779273986816e-01 2.971453368663787842e-01 2.203707844018936157e-01
2.360000000000000000e+02 6.006284713745117188e+01 -2.221127033233642578e+00 6.360334753990173340e-01 4.317154586315155029e-01 3.203246891498565674e-01 3.306710422039031982e-01
2.370000000000000000e+02 6.015847396850585938e+01 -7.148708343505859375e+00 5.749265477061271667e-02 -1.983389491215348244e-03 1.665277965366840363e-02 -1.727745085954666138e-01
2.380000000000000000e+02 6.168539810180664062e+01 -1.147948837280273438e+01 -1.408417940139770508e+00 -1.831260919570922852e-01 -4.774631857872009277e-01 -3.581631183624267578e-01
2.390000000000000000e+02 5.813770675659179688e+01 4.083765792846679688e+01 -1.735561192035675049e-01 2.809523046016693115e-01 3.221885114908218384e-02 -1.361834723502397537e-02
2.400000000000000000e+02 5.615686035156250000e+01 3.662348556518554688e+01 -1.314361244440078735e-01 2.834880352020263672e-01 4.561557248234748840e-02 -7.904295623302459717e-02
2.410000000000000000e+02 5.599927520751953125e+01 3.117229461669921875e+01 -6.472397595643997192e-02 3.179912567138671875e-01 7.598018646240234375e-02 -1.702546775341033936e-01
2.420000000000000000e+02 5.431701278686523438e+01 2.729537773132324219e+01 9.133476763963699341e-02 1.706562936305999756e-01 7.859731465578079224e-02 -1.958040893077850342e-01
2.430000000000000000e+02 5.836574935913085938e+01 2.557781410217285156e+01 1.463822424411773682e-01 5.124809145927429199e-01 1.976589411497116089e-01 -3.771031796932220459e-01
2.440000000000000000e+02 5.570804214477539062e+01 2.159878158569335938e+01 1.252154856920242310e-01 -5.676148459315299988e-03 3.586180135607719421e-02 -2.386423386633396149e-02
2.450000000000000000e+02 5.771430969238281250e+01 2.340238189697265625e+01 4.139691293239593506e-01 2.382571399211883545e-01 1.956678777933120728e-01 -2.999345660209655762e-01
2.460000000000000000e+02 5.383958435058593750e+01 4.045758819580078125e+01 -1.190615817904472351e-01 2.441150397062301636e-01 3.751603886485099792e-02 -2.285851724445819855e-02
2.470000000000000000e+02 5.342422103881835938e+01 3.556430816650390625e+01 -8.707025647163391113e-02 2.474352419376373291e-01 4.810949414968490601e-02 -9.380514919757843018e-02
2.480000000000000000e+02 5.503937149047851562e+01 3.308312225341796875e+01 -7.234190404415130615e-02 2.654567360877990723e-01 5.793445184826850891e-02 -1.307052969932556152e-01
2.490000000000000000e+02 5.199657440185546875e+01 2.949161338806152344e+01 4.312920197844505310e-02 1.455662548542022705e-01 5.660863965749740601e-02 -1.474249660968780518e-01
2.500000000000000000e+02 5.225664520263671875e+01 2.760893821716308594e+01 8.862522244453430176e-02 1.030780151486396790e-01 5.751097202301025391e-02 -1.440217643976211548e-01
2.510000000000000000e+02 5.386254882812500000e+01 2.235256004333496094e+01 1.284730881452560425e-01 -5.770475603640079498e-03 3.681078553199768066e-02 -2.960569411516189575e-02
2.520000000000000000e+02 5.321891784667968750e+01 2.088263320922851562e+01 -8.748994208872318268e-03 -7.349015213549137115e-03 -4.829402547329664230e-03 -1.199482940137386322e-02
2.530000000000000000e+02 5.450659561157226562e+01 2.122078704833984375e+01 4.378373175859451294e-02 3.315348410978913307e-03 1.412972342222929001e-02 -2.299676835536956787e-02
2.540000000000000000e+02 5.091159820556640625e+01 3.886919784545898438e+01 -7.379958778619766235e-02 1.965422630310058594e-01 3.682280331850051880e-02 -4.091607034206390381e-02
2.550000000000000000e+02 4.940299987792968750e+01 3.644331741333007812e+01 -4.279256612062454224e-02 1.675554662942886353e-01 3.742887079715728760e-02 -6.691141426563262939e-02
2.560000000000000000e+02 4.881449127197265625e+01 3.412343978881835938e+01 -8.316871710121631622e-03 1.325473487377166748e-01 3.726914525032043457e-02 -7.983692735433578491e-02
2.570000000000000000e+02 4.896305847167968750e+01 3.151290702819824219e+01 1.878666505217552185e-02 1.113479211926460266e-01 3.904037550091743469e-02 -9.261233359575271606e-02
2.580000000000000000e+02 5.026219940185546875e+01 2.748879241943359375e+01 7.227078080177307129e-02 7.089772075414657593e-02 4.295054823160171509e-02 -1.062881946563720703e-01
2.590000000000000000e+02 5.097229766845703125e+01 2.338140869140625000e+01 9.130544960498809814e-02 1.122966874390840530e-03 2.772852592170238495e-02 -5.469298362731933594e-02
2.600000000000000000e+02 4.925776672363281250e+01 1.951610755920410156e+01 -4.533857479691505432e-02 -1.807127334177494049e-02 -1.902295462787151337e-02 -2.355541102588176727e-02
2.610000000000000000e+02 4.806397247314453125e+01 1.873157310485839844e+01 -3.906937316060066223e-02 -1.411614287644624710e-02 -1.595565490424633026e-02 -2.584835700690746307e-02
2.620000000000000000e+02 4.363426589965820312e+01 1.707036018371582031e+01 -2.138499170541763306e-02 2.161958720535039902e-03 -5.766909569501876831e-03 -8.243247866630554199e-03
2.630000000000000000e+02 4.140193176269531250e+01 1.716270256042480469e+01 -1.813252642750740051e-02 8.740337565541267395e-03 -2.817656612023711205e-03 -1.974969170987606049e-03
2.640000000000000000e+02 3.576404571533203125e+01 1.789703178405761719e+01 -1.464655809104442596e-02 4.807313904166221619e-03 -2.951773116365075111e-03 8.193317800760269165e-03
2.650000000000000000e+02 3.167497634887695312e+01 1.632278251647949219e+01 -4.446622915565967560e-03 -1.030720211565494537e-02 -4.426147323101758957e-03 6.755000911653041840e-03
2.660000000000000000e+02 3.118035697937011719e+01 1.764862442016601562e+01 -8.545695804059505463e-03 -1.589615084230899811e-02 -7.332554087042808533e-03 1.097167469561100006e-02
2.670000000000000000e+02 3.343597793579101562e+01 1.545915317535400391e+01 -6.299470551311969757e-03 -3.126067342236638069e-03 -2.827661344781517982e-03 6.689086556434631348e-03
2.680000000000000000e+02 3.283102035522460938e+01 1.231940174102783203e+01 -7.053900626488029957e-04 -6.175937596708536148e-04 -3.968951350543648005e-04 1.046609133481979370e-03
2.690000000000000000e+02 3.250782394409179688e+01 1.366232967376708984e+01 -1.698200358077883720e-03 -2.770927501842379570e-03 -1.340738381259143353e-03 2.293691970407962799e-03
2.700000000000000000e+02 3.456037139892578125e+01 1.003628730773925781e+01 -4.312075034249573946e-04 -1.551639870740473270e-04 -1.759114384185522795e-04 -2.236601358163170516e-05
2.710000000000000000e+02 3.361722183227539062e+01 8.292393684387207031e+00 -1.625199947739019990e-04 4.732010129373520613e-04 9.320431126980111003e-05 -2.417129144305363297e-04
2.720000000000000000e+02 3.374548339843750000e+01 4.134892463684082031e+00 2.685385989025235176e-04 2.144391874026041478e-05 8.699475438334047794e-05 1.282467273995280266e-04
2.730000000000000000e+02 3.319156265258789062e+01 2.129793643951416016e+00 5.865274579264223576e-05 1.017492468236014247e-04 4.812059705727733672e-05 1.837248273659497499e-04
2.740000000000000000e+02 3.304045867919921875e+01 2.466844320297241211e+00 -2.351506991544738412e-04 -2.069392503472045064e-04 -1.326269848505035043e-04 1.259793643839657307e-04
2.750000000000000000e+02 4.720134353637695312e+01 4.080518341064453125e+01 -5.006467178463935852e-02 1.557156890630722046e-01 3.169530630111694336e-02 -1.621721498668193817e-02
2.760000000000000000e+02 4.657234573364257812e+01 3.762063598632812500e+01 -2.804224565625190735e-02 1.317021101713180542e-01 3.109795972704887390e-02 -4.450974613428115845e-02
2.770000000000000000e+02 4.606343078613281250e+01 3.465567398071289062e+01 -4.927366971969604492e-03 1.085066944360733032e-01 3.107379935681819916e-02 -5.908105522394180298e-02
2.780000000000000000e+02 4.576423263549804688e+01 3.157394409179687500e+01 2.108226343989372253e-02 7.384702563285827637e-02 2.847878634929656982e-02 -5.786321684718132019e-02
2.790000000000000000e+02 4.826964569091796875e+01 2.785884284973144531e+01 5.407511815428733826e-02 5.676979571580886841e-02 3.325347602367401123e-02 -7.482903450727462769e-02
2.800000000000000000e+02 4.796776580810546875e+01 2.565244674682617188e+01 5.491012707352638245e-02 2.693071588873863220e-02 2.455225400626659393e-02 -4.789786413311958313e-02
2.810000000000000000e+02 4.837153625488281250e+01 2.102420234680175781e+01 -2.052447758615016937e-03 -4.506398458033800125e-03 -1.967653864994645119e-03 -1.257221214473247528e-02
2.820000000000000000e+02 4.315169525146484375e+01 4.104754257202148438e+01 -1.486023701727390289e-02 9.646557271480560303e-02 2.448160015046596527e-02 -5.243664607405662537e-03
2.830000000000000000e+02 4.353052520751953125e+01 3.827365112304687500e+01 -1.609539985656738281e-02 1.033467873930931091e-01 2.617541700601577759e-02 -2.585615031421184540e-02
2.840000000000000000e+02 4.300902175903320312e+01 3.548425292968750000e+01 1.199338352307677269e-03 8.077676594257354736e-02 2.459282986819744110e-02 -3.457028418779373169e-02
2.850000000000000000e+02 4.119335174560546875e+01 2.993531036376953125e+01 1.765488088130950928e-02 3.733802959322929382e-02 1.649787276983261108e-02 -2.502842247486114502e-02
2.860000000000000000e+02 4.096849822998046875e+01 2.642793083190917969e+01 1.239317376166582108e-02 2.291701547801494598e-02 1.059305667877197266e-02 -1.197088882327079773e-02
2.870000000000000000e+02 4.377215576171875000e+01 2.534070205688476562e+01 2.230031788349151611e-02 2.374652400612831116e-02 1.381405256688594818e-02 -2.020801603794097900e-02
2.880000000000000000e+02 4.170450210571289062e+01 1.918144226074218750e+01 -1.594813168048858643e-02 1.162688713520765305e-02 -1.296373433433473110e-03 4.748906067106872797e-04
2.890000000000000000e+02 4.285132598876953125e+01 2.145383834838867188e+01 -4.672322422266006470e-03 1.119483169168233871e-02 1.956752734258770943e-03 -7.058709743432700634e-04
2.900000000000000000e+02 4.069665908813476562e+01 3.958038711547851562e+01 2.426710125291720033e-04 6.899264454841613770e-02 2.077059447765350342e-02 -9.459292516112327576e-03
2.910000000000000000e+02 3.990834808349609375e+01 3.660046005249023438e+01 4.712349735200405121e-03 5.613932758569717407e-02 1.825550384819507599e-02 -1.620306633412837982e-02
2.920000000000000000e+02 3.927330017089843750e+01 3.378598403930664062e+01 1.035514101386070251e-02 4.282513633370399475e-02 1.595408283174037933e-02 -1.786937750875949860e-02
2.930000000000000000e+02 3.846890258789062500e+01 3.130800628662109375e+01 1.122754998505115509e-02 3.274651244282722473e-02 1.319221872836351395e-02 -1.565410383045673370e-02
2.940000000000000000e+02 3.824411773681640625e+01 2.649800300598144531e+01 5.497212521731853485e-03 1.820839755237102509e-02 7.111683022230863571e-03 -6.450172979384660721e-03
2.950000000000000000e+02 4.185584259033203125e+01 2.465994834899902344e+01 1.055111642926931381e-02 2.014197222888469696e-02 9.207926690578460693e-03 -8.421895094215869904e-03
2.960000000000000000e+02 4.262911987304687500e+01 2.018042373657226562e+01 -1.244415529072284698e-02 1.129251345992088318e-02 -3.454923862591385841e-04 1.315544941462576389e-04
2.970000000000000000e+02 4.173830795288085938e+01 2.102958869934082031e+01 -7.596661802381277084e-03 1.472553890198469162e-02 2.138663083314895630e-03 4.453955261851660907e-05
2.980000000000000000e+02 3.723052978515625000e+01 4.081769943237304688e+01 6.026653572916984558e-03 4.662512987852096558e-02 1.579553447663784027e-02 -4.284715745598077774e-03
2.990000000000000000e+02 3.669629669189453125e+01 3.762360382080078125e+01 9.710359387099742889e-03 3.681122511625289917e-02 1.395647600293159485e-02 -8.333520963788032532e-03
3.000000000000000000e+02 3.612888717651367188e+01 3.477149200439453125e+01 9.896504692733287811e-03 3.011912479996681213e-02 1.200468931347131729e-02 -9.844658896327018738e-03
3.010000000000000000e+02 3.554841232299804688e+01 3.220788192749023438e+01 1.060085184872150421e-02 2.163513749837875366e-02 9.670796804130077362e-03 -8.472274988889694214e-03
3.020000000000000000e+02 3.679966735839843750e+01 2.558652305603027344e+01 -2.826754644047468901e-04 1.289880461990833282e-02 3.784838598221540451e-03 -1.798657234758138657e-03
3.030000000000000000e+02 3.657973861694335938e+01 2.025856971740722656e+01 -1.435689069330692291e-02 9.484815411269664764e-03 -1.461622538045048714e-03 6.377650890499353409e-03
3.040000000000000000e+02 3.560485839843750000e+01 2.137305641174316406e+01 -1.344578992575407028e-02 8.169577457010746002e-03 -1.582863740622997284e-03 4.723019432276487350e-03
3.050000000000000000e+02 3.311277770996093750e+01 4.104896163940429688e+01 1.224879734218120575e-02 2.130717970430850983e-02 1.006679330021142960e-02 3.530937246978282928e-04
3.060000000000000000e+02 3.344251251220703125e+01 3.828003692626953125e+01 1.126295421272516251e-02 2.423053234815597534e-02 1.064804568886756897e-02 -3.096313448622822762e-03
3.070000000000000000e+02 3.287214279174804688e+01 3.557682418823242188e+01 1.189440116286277771e-02 1.721385307610034943e-02 8.732476271688938141e-03 -3.108196193352341652e-03
3.080000000000000000e+02 3.232898330688476562e+01 3.276957321166992188e+01 9.353243745863437653e-03 1.154976058751344681e-02 6.270901300013065338e-03 -2.800532849505543709e-03
3.090000000000000000e+02 3.478205490112304688e+01 2.339959907531738281e+01 -9.301328100264072418e-03 6.997619289904832840e-03 -6.911127129569649696e-04 2.289332915097475052e-03
3.100000000000000000e+02 3.529170989990234375e+01 1.935272598266601562e+01 -1.631606929004192352e-02 6.446409970521926880e-03 -2.960897749289870262e-03 7.200248539447784424e-03
3.110000000000000000e+02 3.302380752563476562e+01 2.168371391296386719e+01 -1.647011563181877136e-02 1.247574342414736748e-03 -4.566762130707502365e-03 5.961734335869550705e-03
3.120000000000000000e+02 3.054616928100585938e+01 3.956290817260742188e+01 1.440076436847448349e-02 1.060585398226976395e-02 7.501985412091016769e-03 -2.425486309221014380e-05
3.130000000000000000e+02 2.964485359191894531e+01 3.655269622802734375e+01 1.174405496567487717e-02 7.715967949479818344e-03 5.838006734848022461e-03 1.470799616072326899e-04
3.140000000000000000e+02 2.899820327758789062e+01 3.361162185668945312e+01 1.023697201162576675e-02 2.610475290566682816e-03 3.854234004393219948e-03 1.503919949755072594e-03
3.150000000000000000e+02 2.787360572814941406e+01 3.103866004943847656e+01 5.441628396511077881e-03 -1.259228331036865711e-03 1.254719914868474007e-03 3.307751612737774849e-03
3.160000000000000000e+02 2.916150665283203125e+01 2.614373016357421875e+01 -5.579036194831132889e-03 -5.658287554979324341e-03 -3.371197031810879707e-03 5.266854539513587952e-03
3.170000000000000000e+02 2.786962318420410156e+01 2.318694114685058594e+01 -2.344313822686672211e-02 -1.341844908893108368e-02 -1.105847582221031189e-02 1.334383245557546616e-02
3.180000000000000000e+02 2.532082366943359375e+01 2.392882347106933594e+01 -2.126674354076385498e-02 -7.482851855456829071e-03 -8.624878711998462677e-03 1.002009212970733643e-02
3.190000000000000000e+02 2.982330894470214844e+01 2.030389404296875000e+01 -2.939512580633163452e-02 -2.262318134307861328e-02 -1.560549251735210419e-02 2.007907070219516754e-02
3.200000000000000000e+02 3.057858848571777344e+01 1.896912765502929688e+01 -1.456301938742399216e-02 -2.084462158381938934e-02 -1.062229275703430176e-02 1.618842221796512604e-02
3.210000000000000000e+02 2.702955627441406250e+01 4.079129409790039062e+01 1.285275816917419434e-02 3.880111267790198326e-03 5.019860807806253433e-03 -2.769668353721499443e-04
3.220000000000000000e+02 2.627026367187500000e+01 3.754592514038085938e+01 1.219429355114698410e-02 6.748455052729696035e-05 3.678533481433987617e-03 2.087054774165153503e-03
3.230000000000000000e+02 2.572677803039550781e+01 3.466821289062500000e+01 9.017277508974075317e-03 -1.577880582772195339e-03 2.231819089502096176e-03 3.419178538024425507e-03
3.240000000000000000e+02 2.683328056335449219e+01 2.633495903015136719e+01 -6.003036163747310638e-03 -9.366363286972045898e-03 -4.610819742083549500e-03 8.315850980579853058e-03
3.250000000000000000e+02 2.329199409484863281e+01 2.282144546508789062e+01 -2.741132490336894989e-02 -3.426592331379652023e-03 -9.251375682651996613e-03 6.538548972457647324e-03
3.260000000000000000e+02 2.584440994262695312e+01 2.205657196044921875e+01 -3.450288996100425720e-02 -5.613077431917190552e-03 -1.203478965908288956e-02 1.076238602399826050e-02
3.270000000000000000e+02 2.258289909362792969e+01 4.106780242919921875e+01 1.118817552924156189e-02 -3.504164051264524460e-03 2.305203350260853767e-03 1.375570893287658691e-03
3.280000000000000000e+02 2.254468536376953125e+01 3.814843368530273438e+01 9.881719015538692474e-03 -3.089232603088021278e-03 2.037745900452136993e-03 2.624981803819537163e-03
3.290000000000000000e+02 2.226848220825195312e+01 3.524437713623046875e+01 8.103371597826480865e-03 -4.459741059690713882e-03 1.093089114874601364e-03 5.096090026199817657e-03
3.300000000000000000e+02 2.136837577819824219e+01 2.900968170166015625e+01 -2.069741487503051758e-03 -5.041562486439943314e-03 -2.133391331881284714e-03 8.324079215526580811e-03
3.310000000000000000e+02 2.314242553710937500e+01 2.799973487854003906e+01 -3.519936930388212204e-03 -6.496177520602941513e-03 -3.004834288731217384e-03 8.623389527201652527e-03
3.320000000000000000e+02 2.219355964660644531e+01 2.379820060729980469e+01 -2.128667756915092468e-02 -4.542381968349218369e-03 -7.748717907816171646e-03 6.301358342170715332e-03
3.330000000000000000e+02 1.830640220642089844e+01 4.115048217773437500e+01 8.079266175627708435e-03 -5.302032455801963806e-03 8.331700810231268406e-04 4.360975872259587049e-04
3.340000000000000000e+02 1.896985244750976562e+01 3.853434753417968750e+01 8.377761580049991608e-03 -5.421568639576435089e-03 8.868578588590025902e-04 3.262068377807736397e-03
3.350000000000000000e+02 1.864095306396484375e+01 3.583951950073242188e+01 5.853777751326560974e-03 -4.789536818861961365e-03 3.192722797393798828e-04 4.613854456692934036e-03
3.360000000000000000e+02 1.733789253234863281e+01 3.071721839904785156e+01 -5.006765131838619709e-04 -3.604595782235264778e-03 -1.231581671163439751e-03 6.851490586996078491e-03
3.370000000000000000e+02 1.858317565917968750e+01 2.600181007385253906e+01 -7.640363182872533798e-03 -2.234946703538298607e-03 -2.962592989206314087e-03 7.188910152763128281e-03
3.380000000000000000e+02 1.973792457580566406e+01 2.256940078735351562e+01 -1.598254777491092682e-02 -8.093119249679148197e-04 -5.037557799369096756e-03 9.185396629618480802e-05
3.390000000000000000e+02 1.709810447692871094e+01 2.176466941833496094e+01 -7.915901951491832733e-03 -5.702500930055975914e-04 -2.545845694839954376e-03 -8.504854049533605576e-04
3.400000000000000000e+02 2.103144836425781250e+01 2.284939956665039062e+01 -2.229981683194637299e-02 -1.092232996597886086e-03 -7.017615251243114471e-03 1.915135770104825497e-03
3.410000000000000000e+02 1.589408397674560547e+01 3.972349166870117188e+01 5.607251543551683426e-03 -5.146482959389686584e-03 1.382306218147277832e-04 1.710673910565674305e-03
3.420000000000000000e+02 1.526680660247802734e+01 3.686621475219726562e+01 4.693492781370878220e-03 -5.094268824905157089e-03 -1.202327985083684325e-04 3.660307964310050011e-03
3.430000000000000000e+02 1.472352218627929688e+01 3.406728363037109375e+01 2.255455590784549713e-03 -4.126524087041616440e-03 -5.613205139525234699e-04 4.913384094834327698e-03
3.440000000000000000e+02 1.550753021240234375e+01 3.020489883422851562e+01 -1.035487628541886806e-03 -3.010543528944253922e-03 -1.213809358887374401e-03 6.218291353434324265e-03
3.450000000000000000e+02 1.637671661376953125e+01 2.317082977294921875e+01 -7.690718397498130798e-03 4.434477014001458883e-04 -2.174181165173649788e-03 1.777882338501513004e-03
3.460000000000000000e+02 1.587158966064453125e+01 2.107917022705078125e+01 -4.018259234726428986e-03 -1.793288829503580928e-04 -1.259276410564780235e-03 -8.981467690318822861e-04
3.470000000000000000e+02 1.231235599517822266e+01 4.087673950195312500e+01 4.192910622805356979e-03 -5.125370342284440994e-03 -2.797379274852573872e-04 1.102818758226931095e-03
3.480000000000000000e+02 1.203153228759765625e+01 3.775186920166015625e+01 2.891860669478774071e-03 -4.525146447122097015e-03 -4.899857449345290661e-04 2.552092773839831352e-03
3.490000000000000000e+02 1.178169727325439453e+01 3.490735626220703125e+01 2.099201548844575882e-03 -3.971988800913095474e-03 -5.618361174128949642e-04 3.760765073820948601e-03
3.500000000000000000e+02 1.111116504669189453e+01 3.047844123840332031e+01 -2.965547319035977125e-04 -2.324618166312575340e-03 -7.863518549129366875e-04 4.392762202769517899e-03
3.510000000000000000e+02 1.222649478912353516e+01 2.610010528564453125e+01 -3.166061360388994217e-03 -3.381579299457371235e-04 -1.051265746355056763e-03 3.140334272757172585e-03
3.520000000000000000e+02 1.306650352478027344e+01 2.285176849365234375e+01 -4.005663562566041946e-03 4.493630549404770136e-04 -1.066890195943415165e-03 1.294394023716449738e-03
3.530000000000000000e+02 1.364513587951660156e+01 1.939375877380371094e+01 -8.384071406908333302e-04 3.535127325449138880e-04 -1.454683224437758327e-04 -2.372157177887856960e-04
3.540000000000000000e+02 1.323371410369873047e+01 1.496858119964599609e+01 -1.370565441902726889e-04 1.596743968548253179e-04 6.785355253668967634e-06 6.335613579722121358e-05
3.550000000000000000e+02 1.392454624176025391e+01 1.221154975891113281e+01 -1.332938409177586436e-04 9.310930181527510285e-05 -1.205536045745247975e-05 2.463039663780364208e-06
3.560000000000000000e+02 1.327340316772460938e+01 1.033812904357910156e+01 -8.063522545853629708e-05 2.463950113451573998e-05 -1.679871820670086890e-05 2.759874178082100116e-07
3.570000000000000000e+02 1.271510982513427734e+01 5.518699169158935547e+00 -5.701497138943523169e-05 -3.332716732984408736e-05 -2.710264197958167642e-05 2.439548370603006333e-05
3.580000000000000000e+02 1.110417366027832031e+01 1.859550476074218750e+00 2.592495729913935065e-05 3.127188392682000995e-05 1.715905273158568889e-05 1.104976604437979404e-06
3.590000000000000000e+02 1.405068969726562500e+01 1.900859594345092773e+00 2.029412462434265763e-05 3.758571619982831180e-05 1.736395279294811189e-05 6.088513941904238891e-07
3.600000000000000000e+02 1.184627151489257812e+01 1.862754821777343750e+00 -1.000168504106113687e-05 -3.312907210784032941e-05 -1.293922650802414864e-05 7.084104254317935556e-06
3.610000000000000000e+02 8.057576179504394531e+00 4.100174331665039062e+01 1.729397452436387539e-03 -4.634295590221881866e-03 -8.714694413356482983e-04 3.990409895777702332e-04
3.620000000000000000e+02 8.817687034606933594e+00 3.806388092041015625e+01 2.067710505798459053e-03 -4.443340934813022614e-03 -7.126890704967081547e-04 2.014445839449763298e-03
3.630000000000000000e+02 9.441754341125488281e+00 3.064069366455078125e+01 -5.146778421476483345e-04 -2.305901376530528069e-03 -8.461737888865172863e-04 3.441561944782733917e-03
3.640000000000000000e+02 1.116038513183593750e+01 2.699707984924316406e+01 -2.968734363093972206e-03 -6.805200828239321709e-04 -1.094776322133839130e-03 3.561744000762701035e-03
3.650000000000000000e+02 9.396346092224121094e+00 2.512364196777343750e+01 -2.339004306122660637e-03 -3.744177229236811399e-04 -8.140265708789229393e-04 2.215885557234287262e-03
3.660000000000000000e+02 1.083882045745849609e+01 2.129288291931152344e+01 -1.777312136255204678e-03 -4.176506263320334256e-05 -5.457231891341507435e-04 4.227832541801035404e-04
3.670000000000000000e+02 8.515332221984863281e+00 1.732322311401367188e+01 -3.815572708845138550e-04 -2.443725534249097109e-04 -1.877789472928270698e-04 -4.008129508292768151e-06
3.680000000000000000e+02 9.532617568969726562e+00 1.369183444976806641e+01 1.682388101471588016e-04 -1.443963410565629601e-04 7.152738362492527813e-06 9.150263213086873293e-05
3.690000000000000000e+02 8.914484977722167969e+00 9.284950256347656250e+00 -6.421062425943091512e-05 -7.470019045285880566e-05 -4.167324368609115481e-05 4.316481135901995003e-05
3.700000000000000000e+02 8.851503372192382812e+00 5.550153732299804688e+00 -1.015109592117369175e-05 -3.229212597943842411e-05 -1.273296675208257511e-05 2.984388993354514241e-05
3.710000000000000000e+02 8.075963973999023438e+00 1.856290698051452637e+00 2.886702895921189338e-05 2.321968349860981107e-05 1.562601391924545169e-05 -9.832981049839872867e-06
3.720000000000000000e+02 7.308939456939697266e+00 1.863317370414733887e+00 -6.122605100244982168e-06 -2.450706415402237326e-05 -9.188900548906531185e-06 8.754536793276201934e-06
3.730000000000000000e+02 4.979349613189697266e+00 4.026880645751953125e+01 5.595519323833286762e-04 -4.711446352303028107e-03 -1.245568390004336834e-03 7.427862146869301796e-04
3.740000000000000000e+02 6.238267898559570312e+00 3.788924407958984375e+01 1.022147480398416519e-03 -4.307974595576524734e-03 -9.857481345534324646e-04 1.342536066658794880e-03
3.750000000000000000e+02 6.553492069244384766e+00 3.546556854248046875e+01 9.809795301407575607e-04 -3.760212799534201622e-03 -8.337699691765010357e-04 2.244695788249373436e-03
3.760000000000000000e+02 5.766557216644287109e+00 2.773400306701660156e+01 -8.527936297468841076e-04 -1.397688640281558037e-03 -6.751446635462343693e-04 1.958567649126052856e-03
3.770000000000000000e+02 5.654111385345458984e+00 2.277821731567382812e+01 -1.020881347358226776e-03 -3.196605830453336239e-04 -4.021625791210681200e-04 7.789419614709913731e-04
3.780000000000000000e+02 5.218689918518066406e+00 2.051873397827148438e+01 -6.224027602002024651e-04 -2.291245036758482456e-04 -2.554581733420491219e-04 2.868027950171381235e-04
3.790000000000000000e+02 7.019003391265869141e+00 1.491522312164306641e+01 3.388945697224698961e-05 -1.267229381483048201e-04 -2.785004289762582630e-05 -1.459001359762623906e-04
3.800000000000000000e+02 6.192883491516113281e+00 1.257702064514160156e+01 5.042284101364202797e-05 -1.726078335195779800e-04 -3.665549593279138207e-05 7.798626597832480911e-07
3.810000000000000000e+02 5.688256263732910156e+00 1.175092411041259766e+01 8.806747791822999716e-05 -1.555029120936524123e-05 2.175515692215412855e-05 -6.382098945323377848e-05
3.820000000000000000e+02 3.997843265533447266e+00 8.063282966613769531e+00 -6.125778600107878447e-05 -1.771942697814665735e-05 -2.369316462136339396e-05 -4.453350811672862619e-06
3.830000000000000000e+02 4.234704971313476562e+00 1.942123770713806152e+00 -9.178139407595153898e-06 -1.614800748939160258e-05 -7.597843705298146233e-06 5.510845312528545037e-06
3.840000000000000000e+02 3.460695028305053711e+00 1.986713886260986328e+00 2.366991975577548146e-05 1.486858036514604464e-05 1.156155030912486836e-05 -1.240071742358850315e-05
3.850000000000000000e+02 5.046487331390380859e+00 2.739619970321655273e+00 -1.059306214301614091e-05 -1.777258148649707437e-05 -8.509692634106613696e-06 3.253878276154864579e-06
3.860000000000000000e+02 2.032603979110717773e+00 4.162527084350585938e+01 2.174573164666071534e-04 -5.741701461374759674e-03 -1.657273271121084690e-03 6.581190245924517512e-05
3.870000000000000000e+02 2.842480421066284180e+00 3.786826705932617188e+01 1.450270065106451511e-04 -4.897817037999629974e-03 -1.425837050192058086e-03 7.305251783691346645e-04
3.880000000000000000e+02 1.856225013732910156e+00 3.334413909912109375e+01 -4.194977009319700301e-05 -3.545385319739580154e-03 -1.076200511306524277e-03 7.863898645155131817e-04
3.890000000000000000e+02 1.977993011474609375e+00 3.199981117248535156e+01 1.735191181069239974e-04 -2.944982610642910004e-03 -8.314390433952212334e-04 9.864417370408773422e-04
3.900000000000000000e+02 2.132340192794799805e+00 2.776530075073242188e+01 -3.319187380839139223e-04 -1.244137412868440151e-03 -4.728168423753231764e-04 7.679897826164960861e-04
3.910000000000000000e+02 2.082760095596313477e+00 2.483792114257812500e+01 -3.613825538195669651e-04 -4.537142231129109859e-04 -2.445290447212755680e-04 4.552382742986083031e-04
3.920000000000000000e+02 1.821279883384704590e+00 2.060443687438964844e+01 1.709932548692449927e-04 1.463787775719538331e-04 9.521160973235964775e-05 6.442661833716556430e-05
3.930000000000000000e+02 1.875252842903137207e+00 1.783539199829101562e+01 1.864207006292417645e-04 1.908244303194805980e-04 1.131735407398082316e-04 -5.560224599321372807e-05
3.940000000000000000e+02 2.187080860137939453e+00 1.491661834716796875e+01 1.813383714761584997e-04 1.080466026905924082e-04 8.681548933964222670e-05 -9.683212556410580873e-05
3.950000000000000000e+02 1.790004134178161621e+00 1.053861808776855469e+01 -1.141780885518528521e-04 6.223069067345932126e-05 -1.558422081870958209e-05 -9.818652870308142155e-06
3.960000000000000000e+02 1.742712736129760742e+00 7.845542430877685547e+00 -9.056532144313678145e-05 2.749916347966063768e-05 -1.891984720714390278e-05 3.749872576008783653e-06
3.970000000000000000e+02 3.512863874435424805e+00 2.912787437438964844e+00 -2.228038647444918752e-05 -8.776088179729413241e-06 -9.316941941506229341e-06 6.709730314469197765e-06
3.980000000000000000e+02 5.216318368911743164e-01 3.515619516372680664e+00 -3.808610563282854855e-05 7.667162208235822618e-06 -9.125682481680996716e-06 8.842220267979428172e-06
3.990000000000000000e+02 1.655943679809570312e+01 3.341141700744628906e+00 -1.480575610912637785e-05 7.993237522896379232e-05 1.953798528120387346e-05 1.336541390628553927e-05
4.000000000000000000e+02 1.623858451843261719e+01 1.014223194122314453e+01 1.489725545980036259e-04 5.031716500525362790e-05 5.978691478958353400e-05 6.375807424774393439e-05
4.010000000000000000e+02 1.707995414733886719e+01 9.060344696044921875e+00 -1.398009335389360785e-04 -2.735950147325638682e-05 -5.014812995796091855e-05 -7.516422192566096783e-05
4.020000000000000000e+02 1.551046752929687500e+01 1.132182407379150391e+01 -1.477084442740306258e-04 5.564589446294121444e-05 -2.761876567092258483e-05 -7.102826930349692702e-05
4.030000000000000000e+02 2.193347358703613281e+01 3.978399991989135742e+00 -3.870491582347312942e-06 -1.317503483733162284e-05 -5.113658062327886000e-06 1.056477321981219575e-05
4.040000000000000000e+02 2.253538131713867188e+01 3.210202693939208984e+00 4.115520823688711971e-06 1.962466740224044770e-05 7.122056103980867192e-06 -2.828075594152323902e-06
4.050000000000000000e+02 1.969230270385742188e+01 2.458374261856079102e+00 1.811052061384543777e-05 1.495633841841481626e-05 9.920057891577016562e-06 -1.050373043653962668e-06
4.060000000000000000e+02 1.691127204895019531e+01 2.054610967636108398e+00 9.444072020414751023e-06 4.002910281997174025e-05 1.484195308876223862e-05 1.114414772018790245e-05
4.070000000000000000e+02 2.136766433715820312e+01 5.195495605468750000e+00 -1.300232270295964554e-05 -2.946510903711896390e-05 -1.274022997677093372e-05 -2.133780799340456724e-05
4.080000000000000000e+02 2.036380767822265625e+01 5.946617126464843750e+00 1.343736948911100626e-05 1.587339284014888108e-05 8.793229426373727620e-06 1.928337587742134929e-05
4.090000000000000000e+02 1.797681999206542969e+01 8.069274902343750000e+00 1.278913987334817648e-04 3.900271258316934109e-05 5.006823266739957035e-05 6.936158024473115802e-05
4.100000000000000000e+02 1.497393131256103516e+01 1.260477828979492188e+01 1.577721559442579746e-04 1.723340101307258010e-04 9.903185127768665552e-05 3.909308725269511342e-05
4.110000000000000000e+02 1.353075504302978516e+01 1.359835147857666016e+01 1.608377060620114207e-04 1.868496474344283342e-04 1.043062075041234493e-04 1.558538206154480577e-04
4.120000000000000000e+02 1.270096111297607422e+01 1.177372264862060547e+01 1.339256850769743323e-04 8.557042019674554467e-05 6.584882794413715601e-05 1.359258167212828994e-04
4.130000000000000000e+02 1.439873409271240234e+01 1.531989669799804688e+01 2.018147642957046628e-04 4.548534052446484566e-04 1.970004377653822303e-04 9.466130723012611270e-05
4.140000000000000000e+02 1.428660869598388672e+01 1.667580986022949219e+01 -1.999008381972089410e-04 5.523411091417074203e-04 1.057320696418173611e-04 9.511628377367742360e-06
4.150000000000000000e+02 1.132034492492675781e+01 1.703746604919433594e+01 -1.178536604129476473e-05 -1.373396225972101092e-04 -4.473749504541046917e-05 6.063219552743248641e-05
4.160000000000000000e+02 1.416017150878906250e+01 1.800534248352050781e+01 2.056485973298549652e-04 6.729788146913051605e-04 2.635882119648158550e-04 1.033470980473794043e-04
4.170000000000000000e+02 1.485094738006591797e+01 2.017462348937988281e+01 -1.365691074170172215e-03 3.754984936676919460e-04 -2.970577625092118979e-04 -3.082051698584109545e-04
4.180000000000000000e+02 1.393476390838623047e+01 2.155582237243652344e+01 -3.672504331916570663e-03 6.757074734196066856e-04 -8.990390342660248280e-04 -1.116856510634534061e-04
4.190000000000000000e+02 3.562750625610351562e+01 4.025852203369140625e+00 6.257202767301350832e-05 -8.077474922174587846e-05 -5.460816737468121573e-06 1.103530448745004833e-04
4.200000000000000000e+02 3.591054534912109375e+01 2.460525035858154297e+00 1.590454485267400742e-04 -3.925066994270309806e-05 3.593843575799837708e-05 7.475786696886643767e-05
4.210000000000000000e+02 3.900148010253906250e+01 3.313730955123901367e+00 1.403371425112709403e-05 6.043976100045256317e-05 2.234204293927177787e-05 -1.086138363461941481e-04
4.220000000000000000e+02 3.958341979980468750e+01 3.534279346466064453e+00 -3.637005866039544344e-04 -1.230013440363109112e-04 -1.460105704609304667e-04 1.490382273914292455e-04
4.230000000000000000e+02 3.813346481323242188e+01 3.013882160186767578e+00 -1.021739080897532403e-05 2.652628381838439964e-06 -2.269428705403697677e-06 7.267467299243435264e-05
4.240000000000000000e+02 3.831784057617187500e+01 5.172395706176757812e+00 2.587624476291239262e-04 -4.987063584849238396e-04 -7.198316598078235984e-05 3.857725096167996526e-05
4.250000000000000000e+02 3.650807952880859375e+01 8.181112289428710938e+00 2.151190710719674826e-04 -4.543647810351103544e-04 -7.177371298894286156e-05 -3.217320909243426286e-06
4.260000000000000000e+02 3.337657928466796875e+01 9.628591537475585938e+00 1.138440566137433052e-04 6.124507053755223751e-04 2.178884315071627498e-04 -1.200442329718498513e-05
4.270000000000000000e+02 3.922933959960937500e+01 7.919878482818603516e+00 1.130759832449257374e-03 6.692829774692654610e-04 5.400128429755568504e-04 -1.970002922462299466e-04
4.280000000000000000e+02 3.968464660644531250e+01 9.211056709289550781e+00 -9.323951671831309795e-04 4.511932784225791693e-04 -1.443605724489316344e-04 5.280664190649986267e-04
4.290000000000000000e+02 4.034813690185546875e+01 1.047210979461669922e+01 2.810125879477709532e-04 3.793958167079836130e-04 1.981225213967263699e-04 -6.219640490598976612e-04
4.300000000000000000e+02 4.003177642822265625e+01 1.218298339843750000e+01 -4.369943402707576752e-03 6.167927640490233898e-04 -1.125945243984460831e-03 -2.249582670629024506e-03
4.310000000000000000e+02 3.990526199340820312e+01 1.524431896209716797e+01 -1.510747149586677551e-02 5.968247074633836746e-03 -2.741767326369881630e-03 -5.020356620661914349e-04
4.320000000000000000e+02 4.072134399414062500e+01 1.343550014495849609e+01 -1.036920305341482162e-02 1.271978137083351612e-03 -2.729167463257908821e-03 -2.597516868263483047e-03
4.330000000000000000e+02 4.142739868164062500e+01 1.474931430816650391e+01 -1.355279516428709030e-02 2.566138748079538345e-03 -3.295996924862265587e-03 -4.633176606148481369e-03
4.340000000000000000e+02 4.475565338134765625e+01 1.599171352386474609e+01 -2.266688272356987000e-02 -9.917858056724071503e-03 -9.775422513484954834e-03 -1.341831404715776443e-02
4.350000000000000000e+02 4.582897186279296875e+01 1.695271682739257812e+01 -2.703698165714740753e-02 -1.111498475074768066e-02 -1.144558936357498169e-02 -1.934747397899627686e-02
4.360000000000000000e+02 5.446408081054687500e+01 -2.842175960540771484e+00 1.241402745246887207e+00 1.164156436920166016e+00 7.216677665710449219e-01 1.129130363464355469e+00
4.370000000000000000e+02 5.092290496826171875e+01 -5.402408123016357422e+00 3.204949378967285156e+00 6.016320586204528809e-01 1.141974449157714844e+00 6.500343084335327148e-01
4.380000000000000000e+02 5.326736450195312500e+01 -5.894666671752929688e+00 1.632786512374877930e+00 7.552292346954345703e-01 7.164047360420227051e-01 3.980000615119934082e-01
4.390000000000000000e+02 5.413661956787109375e+01 -9.692562103271484375e+00 -2.204985469579696655e-01 3.636676371097564697e-01 4.295073077082633972e-02 -1.208066046237945557e-01
4.400000000000000000e+02 5.796952819824218750e+01 -1.171202850341796875e+01 -1.125734448432922363e+00 6.408432126045227051e-02 -3.184950351715087891e-01 -4.402763247489929199e-01
4.410000000000000000e+02 3.994077301025390625e+01 -4.978081285953521729e-01 1.907524913549423218e-01 5.784402787685394287e-02 7.457895576953887939e-02 -1.355192065238952637e-01
4.420000000000000000e+02 3.933624267578125000e+01 -6.574104428291320801e-01 2.476081103086471558e-01 -7.820944883860647678e-04 7.404780387878417969e-02 -1.374890953302383423e-01
4.430000000000000000e+02 3.939765167236328125e+01 -1.496922135353088379e+00 4.074455797672271729e-01 -2.028782665729522705e-02 1.161473318934440613e-01 -1.925088912248611450e-01
4.440000000000000000e+02 3.799330520629882812e+01 -9.085454940795898438e-01 3.545902967453002930e-01 -8.624157309532165527e-02 8.050461858510971069e-02 -9.596827626228332520e-02
4.450000000000000000e+02 3.409474563598632812e+01 -2.669332265853881836e+00 2.986180484294891357e-01 -6.811709702014923096e-02 6.915028393268585205e-02 1.339218616485595703e-01
4.460000000000000000e+02 3.241806030273437500e+01 -8.042401313781738281e+00 -2.646761238574981689e-01 -1.313040554523468018e-01 -1.187940612435340881e-01 3.137254416942596436e-01
4.470000000000000000e+02 3.351496124267578125e+01 -2.682212591171264648e+00 2.571399211883544922e-01 1.362914592027664185e-02 8.123072236776351929e-02 1.486747115850448608e-01
4.480000000000000000e+02 3.105701637268066406e+01 -2.720906734466552734e+00 1.197156533598899841e-01 4.994867742061614990e-02 5.089930072426795959e-02 2.198919802904129028e-01
4.490000000000000000e+02 3.183325958251953125e+01 -2.210002660751342773e+00 2.445858716964721680e-01 3.960673511028289795e-02 8.525778353214263916e-02 2.273156195878982544e-01
4.500000000000000000e+02 3.147103881835937500e+01 -1.953132867813110352e+00 2.464375048875808716e-01 -6.998851895332336426e-02 5.293469503521919250e-02 1.867524087429046631e-01
4.510000000000000000e+02 2.660857772827148438e+01 -7.171195030212402344e+00 -9.844794869422912598e-01 7.878919839859008789e-01 -5.897624790668487549e-02 6.362621188163757324e-01
4.520000000000000000e+02 2.695285415649414062e+01 -8.600572586059570312e+00 1.967957496643066406e+00 1.015830397605895996e+00 8.951364159584045410e-01 1.456616997718811035e+00
4.530000000000000000e+02 2.553555870056152344e+01 -9.543055534362792969e+00 2.310617685317993164e+00 6.698167324066162109e-01 8.941303491592407227e-01 1.351983189582824707e+00
4.540000000000000000e+02 2.254211235046386719e+01 -8.272096633911132812e+00 1.364268809556961060e-01 -1.658132374286651611e-01 -8.815906941890716553e-03 -2.272238880395889282e-01
4.550000000000000000e+02 1.940432167053222656e+01 -1.035726356506347656e+01 9.415330290794372559e-01 2.273799031972885132e-01 3.506738841533660889e-01 2.468475103378295898e-01
4.560000000000000000e+02 1.804408836364746094e+01 -1.183785152435302734e+01 1.469799160957336426e+00 3.898784220218658447e-01 5.579032897949218750e-01 5.607205033302307129e-01
4.570000000000000000e+02 1.129660320281982422e+01 -1.146981620788574219e+01 2.736789286136627197e-01 4.176541864871978760e-01 2.073999345302581787e-01 -1.767394691705703735e-01
4.580000000000000000e+02 7.694251060485839844e+00 -1.163943958282470703e+01 1.557523906230926514e-01 4.912460222840309143e-03 4.819945245981216431e-02 -2.860375642776489258e-01
4.590000000000000000e+02 5.645348072052001953e+00 -1.078609752655029297e+01 7.876672595739364624e-02 -1.886950880289077759e-01 -3.297850862145423889e-02 -2.981508374214172363e-01
4.600000000000000000e+02 1.800829887390136719e+00 -1.074196720123291016e+01 9.137914516031742096e-03 -5.809874534606933594e-01 -1.715548634529113770e-01 -1.465564221143722534e-01
4.610000000000000000e+02 6.148003339767456055e-01 -1.350108909606933594e+01 5.623475182801485062e-03 -9.371535181999206543e-01 -2.794589996337890625e-01 -3.860297054052352905e-02
4.620000000000000000e+02 1.850198745727539062e+00 -1.346941947937011719e+01 1.743030361831188202e-02 -7.312651276588439941e-01 -2.141504436731338501e-01 -1.095346659421920776e-01
4.630000000000000000e+02 6.304509043693542480e-01 -1.631526947021484375e+01 5.788448266685009003e-03 -1.069408178329467773e+00 -3.190859258174896240e-01 -1.803397573530673981e-02
4.640000000000000000e+02 4.428064346313476562e+00 -1.612875556945800781e+01 1.012250855565071106e-01 -4.204835295677185059e-01 -9.577753394842147827e-02 -9.764530509710311890e-02
4.650000000000000000e+02 4.482472896575927734e+00 -2.039347648620605469e+01 8.897067606449127197e-02 -4.087568521499633789e-01 -9.593585878610610962e-02 5.825546011328697205e-02
4.660000000000000000e+02 8.439239501953125000e+00 -2.234338188171386719e+01 1.666347384452819824e-01 1.924531310796737671e-01 1.077263578772544861e-01 1.370197683572769165e-01
4.670000000000000000e+02 1.352562427520751953e+01 -2.770572853088378906e+01 -1.760688051581382751e-02 5.348293781280517578e-01 1.551667600870132446e-01 -3.332079574465751648e-02
4.680000000000000000e+02 1.612443733215332031e+01 -2.996581840515136719e+01 -2.550715394318103790e-02 4.500675797462463379e-01 1.273681223392486572e-01 -1.066956445574760437e-01
4.690000000000000000e+02 1.982906723022460938e+01 -3.467008209228515625e+01 -6.568121165037155151e-02 2.836558222770690918e-01 6.539238244295120239e-02 -9.847225993871688843e-02
4.700000000000000000e+02 2.434092712402343750e+01 -3.681657791137695312e+01 -3.090472891926765442e-02 1.606359034776687622e-01 3.891935572028160095e-02 -7.430954277515411377e-02
4.710000000000000000e+02 2.636365127563476562e+01 -4.052220535278320312e+01 -3.208723291754722595e-02 1.298838555812835693e-01 2.933898568153381348e-02 -1.997331529855728149e-02
4.720000000000000000e+02 2.960441398620605469e+01 -3.887224960327148438e+01 -1.595965586602687836e-03 7.212378084659576416e-02 2.115834504365921021e-02 -2.238905243575572968e-02
4.730000000000000000e+02 3.323946380615234375e+01 -4.073667526245117188e+01 6.156392395496368408e-03 4.457177966833114624e-02 1.521845161914825439e-02 -3.822425380349159241e-03
4.740000000000000000e+02 3.445614624023437500e+01 -3.753488922119140625e+01 1.046371646225452423e-02 2.524783462285995483e-02 1.071346551179885864e-02 -7.170655298978090286e-03
4.750000000000000000e+02 3.258143615722656250e+01 -3.414427947998046875e+01 1.150358747690916061e-02 1.463238708674907684e-02 7.840792648494243622e-03 -8.680854924023151398e-03
4.760000000000000000e+02 3.113962173461914062e+01 -3.056802940368652344e+01 -1.023431681096553802e-02 -1.238443539477884769e-03 -3.441828070208430290e-03 -2.481861738488078117e-03
4.770000000000000000e+02 3.337359619140625000e+01 -2.622482299804687500e+01 -1.308806613087654114e-02 -5.941993556916713715e-03 -5.709018092602491379e-03 -8.397247642278671265e-03
4.780000000000000000e+02 3.528312301635742188e+01 -2.383708572387695312e+01 -5.243489053100347519e-03 -2.296003047376871109e-03 -2.261847490444779396e-03 -3.215578151866793633e-03
4.790000000000000000e+02 3.442975997924804688e+01 -2.518307495117187500e+01 -8.273329585790634155e-03 -3.668345976620912552e-03 -3.582502482458949089e-03 -5.854688119143247604e-03
4.800000000000000000e+02 2.501735687255859375e+01 -8.275694847106933594e+00 6.374132037162780762e-01 -8.087301850318908691e-01 -5.139509588479995728e-02 3.445442020893096924e-01
4.810000000000000000e+02 2.304705429077148438e+01 -9.887684822082519531e+00 1.403638482093811035e+00 -1.576074212789535522e-01 3.738093078136444092e-01 1.896579116582870483e-01
4.820000000000000000e+02 2.287794685363769531e+01 -7.214832305908203125e+00 -9.613783359527587891e-01 -8.481304347515106201e-02 -3.138574063777923584e-01 -7.905120402574539185e-02
4.830000000000000000e+02 1.808432197570800781e+01 -1.504581809043884277e+00 -5.810469985008239746e-01 6.172555312514305115e-02 -1.557964384555816650e-01 1.475851088762283325e-01
4.840000000000000000e+02 1.436322784423828125e+01 -2.518155097961425781e+00 -5.844968557357788086e-01 6.942661851644515991e-02 -1.545210629701614380e-01 -3.740309178829193115e-02
4.850000000000000000e+02 1.347364807128906250e+01 -1.831061244010925293e+00 -6.698396205902099609e-01 2.807735279202461243e-02 -1.925286799669265747e-01 -6.967417150735855103e-02
4.860000000000000000e+02 1.130263328552246094e+01 -2.602130413055419922e+00 -4.983972907066345215e-01 3.399506956338882446e-02 -1.393206715583801270e-01 -1.670602113008499146e-01
4.870000000000000000e+02 1.195101070404052734e+01 -1.858137607574462891e+00 -6.181579232215881348e-01 1.861844770610332489e-02 -1.798618435859680176e-01 -1.190638989210128784e-01
4.880000000000000000e+02 1.187348556518554688e+01 -5.659572601318359375e+00 -2.120296508073806763e-01 1.678705811500549316e-01 -1.324772369116544724e-02 -2.256718724966049194e-01
4.890000000000000000e+02 1.266006565093994141e+01 -5.599629878997802734e+00 -2.341896295547485352e-01 1.955721527338027954e-01 -1.158524304628372192e-02 -1.846490502357482910e-01
4.900000000000000000e+02 1.537644386291503906e+01 -6.360318660736083984e+00 -1.894037425518035889e-01 3.473465740680694580e-01 4.738285019993782043e-02 -1.947735622525215149e-02
4.910000000000000000e+02 1.566062164306640625e+01 -5.329187393188476562e+00 -3.050678968429565430e-01 2.896728217601776123e-01 -4.618525039404630661e-03 8.173897862434387207e-03
4.920000000000000000e+02 1.500704288482666016e+01 -1.768123745918273926e+00 -6.846462488174438477e-01 3.867385908961296082e-02 -1.937917172908782959e-01 -4.980038385838270187e-03
4.930000000000000000e+02 2.348749923706054688e+01 -1.086514234542846680e+00 -6.583844870328903198e-02 -7.521682232618331909e-02 -4.231658205389976501e-02 7.674898952245712280e-02
4.940000000000000000e+02 2.193742370605468750e+01 -8.542602062225341797e-01 -1.946445107460021973e-01 -1.546204928308725357e-02 -6.303197145462036133e-02 1.417592912912368774e-01
4.950000000000000000e+02 1.119288730621337891e+01 -1.863975048065185547e+00 -5.839506983757019043e-01 1.631087437272071838e-02 -1.702919453382492065e-01 -1.355794370174407959e-01
4.960000000000000000e+02 6.612586498260498047e+00 -1.872939348220825195e+00 -2.863533794879913330e-01 -9.412645362317562103e-03 -8.872980624437332153e-02 -1.610164940357208252e-01
4.970000000000000000e+02 3.547104835510253906e+00 -1.971072554588317871e+00 -1.054611504077911377e-01 -3.279472887516021729e-02 -4.147676378488540649e-02 -1.091395094990730286e-01
4.980000000000000000e+02 1.196936726570129395e+00 -2.139059782028198242e+00 -1.632986217737197876e-02 -4.224349185824394226e-02 -1.757200621068477631e-02 -3.329500183463096619e-02
4.990000000000000000e+02 6.686813235282897949e-01 -6.460372447967529297e+00 -1.353042083792388439e-03 -3.069052994251251221e-01 -9.247750043869018555e-02 -6.318751722574234009e-02
5.000000000000000000e+02 1.814611077308654785e+00 -8.066395759582519531e+00 1.291151857003569603e-03 -3.931265175342559814e-01 -1.175506040453910828e-01 -1.598569005727767944e-01
5.010000000000000000e+02 5.947958827018737793e-01 -9.311859130859375000e+00 -8.450407767668366432e-05 -5.891471505165100098e-01 -1.767694950103759766e-01 -5.587170645594596863e-02
5.020000000000000000e+02 4.570086896419525146e-01 -3.566922903060913086e+00 -6.212859880179166794e-03 -8.032742887735366821e-02 -2.596208639442920685e-02 -2.543312124907970428e-02
5.030000000000000000e+02 6.307970881462097168e-01 -1.912924766540527344e+01 6.280143279582262039e-03 -1.103854417800903320e+00 -3.292723000049591064e-01 4.015313927084207535e-03
5.040000000000000000e+02 1.864155054092407227e+00 -2.044049072265625000e+01 1.860382594168186188e-02 -8.525920510292053223e-01 -2.501964867115020752e-01 3.341211378574371338e-02
5.050000000000000000e+02 5.439776420593261719e+00 -2.366975212097167969e+01 6.574517488479614258e-02 -2.402937561273574829e-01 -5.236457660794258118e-02 1.580628752708435059e-01
5.060000000000000000e+02 9.271386146545410156e+00 -2.690019035339355469e+01 1.559023279696702957e-03 2.334721684455871582e-01 7.050935178995132446e-02 1.646978706121444702e-01
5.070000000000000000e+02 1.339261913299560547e+01 -3.105172538757324219e+01 -9.131147712469100952e-02 3.736231029033660889e-01 8.469349145889282227e-02 1.671191304922103882e-02
5.080000000000000000e+02 1.626657295227050781e+01 -3.492241287231445312e+01 -1.123622059822082520e-01 3.092288970947265625e-01 5.906000733375549316e-02 -3.697345405817031860e-02
5.090000000000000000e+02 2.082221031188964844e+01 -3.770058441162109375e+01 -8.887404203414916992e-02 2.433512508869171143e-01 4.634316638112068176e-02 -6.002097204327583313e-02
5.100000000000000000e+02 2.196139717102050781e+01 -4.090256500244140625e+01 -8.856272697448730469e-02 2.141090631484985352e-01 3.766389936208724976e-02 -1.885216683149337769e-02
5.110000000000000000e+02 5.996086001396179199e-01 -2.191912078857421875e+01 4.904926288872957230e-03 -1.044719815254211426e+00 -3.119444549083709717e-01 2.173189446330070496e-02
5.120000000000000000e+02 1.796655893325805664e+00 -2.308438491821289062e+01 9.840997867286205292e-03 -7.910009622573852539e-01 -2.343479841947555542e-01 7.663612812757492065e-02
5.130000000000000000e+02 6.362074375152587891e+00 -2.971820640563964844e+01 -3.721977397799491882e-02 -8.039796352386474609e-02 -3.528532013297080994e-02 1.731711626052856445e-01
5.140000000000000000e+02 8.375966072082519531e+00 -3.189607238769531250e+01 -7.650637626647949219e-02 6.773174554109573364e-02 -2.632390242069959641e-03 1.411355286836624146e-01
5.150000000000000000e+02 1.264175033569335938e+01 -3.543774032592773438e+01 -1.284530907869338989e-01 2.360064238309860229e-01 3.226599842309951782e-02 4.021820798516273499e-02
5.160000000000000000e+02 1.685321998596191406e+01 -3.814533233642578125e+01 -1.317398250102996826e-01 2.612356245517730713e-01 3.884874284267425537e-02 -2.056550793349742889e-02
5.170000000000000000e+02 1.731894302368164062e+01 -4.110619735717773438e+01 -1.355226784944534302e-01 2.495982795953750610e-01 3.422268107533454895e-02 -7.059837225824594498e-03
5.180000000000000000e+02 8.192641735076904297e-01 -2.753580474853515625e+01 2.087217988446354866e-03 -7.426799535751342773e-01 -2.221778184175491333e-01 4.492620006203651428e-02
5.190000000000000000e+02 2.440911054611206055e+00 -2.881179428100585938e+01 -7.602134719491004944e-03 -5.010727643966674805e-01 -1.526024639606475830e-01 1.115086004137992859e-01
5.200000000000000000e+02 6.611315727233886719e+00 -3.180566787719726562e+01 -5.399885401129722595e-02 -6.945357471704483032e-02 -3.703572973608970642e-02 1.498759537935256958e-01
5.210000000000000000e+02 9.547912597656250000e+00 -3.593809509277343750e+01 -1.047511771321296692e-01 9.097582101821899414e-02 -4.132607020437717438e-03 8.414832502603530884e-02
5.220000000000000000e+02 1.284517192840576172e+01 -3.842105865478515625e+01 -1.342062205076217651e-01 1.960474550724029541e-01 1.855237223207950592e-02 2.041132375597953796e-02
5.230000000000000000e+02 1.265797519683837891e+01 -4.119598007202148438e+01 -1.374174058437347412e-01 1.759224086999893188e-01 1.155150216072797775e-02 6.226513069123029709e-03
5.240000000000000000e+02 8.038371205329895020e-01 -2.897247314453125000e+01 -3.476689336821436882e-03 -6.673220992088317871e-01 -2.012396305799484253e-01 4.308071359992027283e-02
5.250000000000000000e+02 2.354424476623535156e+00 -3.026552200317382812e+01 -9.115290828049182892e-03 -4.624876379966735840e-01 -1.414808779954910278e-01 1.036308035254478455e-01
5.260000000000000000e+02 5.895977973937988281e+00 -3.314944076538085938e+01 -5.494125559926033020e-02 -1.234532222151756287e-01 -5.351834371685981750e-02 1.334774345159530640e-01
5.270000000000000000e+02 7.346695661544799805e-01 -3.460374832153320312e+01 -1.765936729498207569e-03 -4.222560524940490723e-01 -1.272065937519073486e-01 2.530057355761528015e-02
5.280000000000000000e+02 2.253652334213256836e+00 -3.439971160888671875e+01 -7.682444062083959579e-03 -3.566673099994659424e-01 -1.093049272894859314e-01 6.887940317392349243e-02
5.290000000000000000e+02 5.295001029968261719e+00 -3.589787673950195312e+01 -4.476579651236534119e-02 -1.576963216066360474e-01 -6.073863431811332703e-02 9.010841697454452515e-02
5.300000000000000000e+02 8.211061477661132812e+00 -4.113235092163085938e+01 -8.584129065275192261e-02 -4.596806131303310394e-03 -2.713142894208431244e-02 1.853113621473312378e-02
5.310000000000000000e+02 7.340474724769592285e-01 -3.599644851684570312e+01 -2.673201262950897217e-03 -3.784334063529968262e-01 -1.143319830298423767e-01 2.075739018619060516e-02
5.320000000000000000e+02 7.779566049575805664e-01 -3.736714935302734375e+01 2.764786360785365105e-03 -3.372567594051361084e-01 -1.003475859761238098e-01 2.207706309854984283e-02
5.330000000000000000e+02 2.039149045944213867e+00 -4.162762832641601562e+01 -2.717881649732589722e-02 -2.599501311779022217e-01 -8.613868057727813721e-02 7.694687694311141968e-03
5.340000000000000000e+02 1.338847756385803223e+00 -4.005429077148437500e+01 5.156042054295539856e-03 -2.710128724575042725e-01 -7.975704967975616455e-02 2.433275245130062103e-02
5.350000000000000000e+02 3.773887634277343750e+01 -4.099942016601562500e+01 1.203404832631349564e-02 1.328413467854261398e-02 7.595454808324575424e-03 9.380741394124925137e-04
5.360000000000000000e+02 3.814036560058593750e+01 -3.800431823730468750e+01 9.555286727845668793e-03 1.307435892522335052e-02 6.788893602788448334e-03 1.727385097183287144e-03
5.370000000000000000e+02 3.822622299194335938e+01 -3.512575149536132812e+01 4.968151915818452835e-03 9.396166540682315826e-03 4.309295676648616791e-03 2.352869836613535881e-03
5.380000000000000000e+02 3.668393325805664062e+01 -3.090817260742187500e+01 -7.307750172913074493e-03 7.325968239456415176e-03 5.465407866722671315e-06 3.381205489858984947e-03
5.390000000000000000e+02 3.646632003784179688e+01 -1.922832489013671875e+01 -1.626933080842718482e-04 1.784535270417109132e-04 4.728067324322182685e-06 1.371411781292408705e-04
5.400000000000000000e+02 3.551527023315429688e+01 -1.931157684326171875e+01 2.274466824019327760e-04 7.546679698862135410e-04 2.946344029624015093e-04 6.373100040946155787e-05
5.410000000000000000e+02 3.543313598632812500e+01 -1.793375396728515625e+01 -2.297490718774497509e-04 5.082404240965843201e-04 8.354739838978275657e-05 5.204507760936394334e-05
5.420000000000000000e+02 3.567084503173828125e+01 -1.294720554351806641e+01 -3.507507426547817886e-05 -1.962849819392431527e-05 -1.641107155592180789e-05 8.468814485240727663e-06
5.430000000000000000e+02 3.603072357177734375e+01 -1.445392036437988281e+01 -1.108359356294386089e-04 -1.167558707493299153e-06 -3.360104892635717988e-05 -6.081952051317784935e-06
5.440000000000000000e+02 4.231883239746093750e+01 -3.791861343383789062e+01 7.579600438475608826e-03 1.824295264668762684e-03 2.821168629452586174e-03 2.551119774580001831e-03
5.450000000000000000e+02 4.160977172851562500e+01 -3.472119140625000000e+01 3.169954288750886917e-03 4.184533841907978058e-03 2.206346485763788223e-03 3.985330462455749512e-03
5.460000000000000000e+02 4.024487304687500000e+01 -3.197166824340820312e+01 -3.124250797554850578e-03 5.656867753714323044e-03 7.597851217724382877e-04 4.154692869633436203e-03
5.470000000000000000e+02 4.054602432250976562e+01 -2.744846916198730469e+01 -9.037570096552371979e-03 4.919621162116527557e-03 -1.235384726896882057e-03 2.658693352714180946e-03
5.480000000000000000e+02 3.951228332519531250e+01 -2.309708976745605469e+01 -4.706993233412504196e-03 1.080425921827554703e-03 -1.087970216758549213e-03 -1.168363160104490817e-04
5.490000000000000000e+02 4.307884979248046875e+01 -1.745588684082031250e+01 4.383029590826481581e-05 1.029288468998856843e-04 4.402774357004091144e-05 -1.128429066739045084e-04
5.500000000000000000e+02 4.128600692749023438e+01 -1.621540069580078125e+01 1.287827326450496912e-04 -1.532853930257260799e-04 -7.350800387939671054e-06 -7.020759949227795005e-05
5.510000000000000000e+02 4.069678497314453125e+01 -1.579066467285156250e+01 2.332973526790738106e-04 -3.800336708081886172e-05 5.858819713466800749e-05 -1.229863119078800082e-05
5.520000000000000000e+02 3.913312911987304688e+01 -1.578642559051513672e+01 1.167924856417812407e-04 -2.276106097269803286e-04 -3.324543649796396494e-05 6.176000169944018126e-05
5.530000000000000000e+02 3.834923553466796875e+01 -1.549462795257568359e+01 2.131263026967644691e-04 -3.320583709864877164e-05 5.397613858804106712e-05 1.272275258088484406e-04
5.540000000000000000e+02 4.244626617431640625e+01 -4.102714538574218750e+01 9.673544205725193024e-03 2.159542404115200043e-03 3.549925982952117920e-03 4.172308836132287979e-04
5.550000000000000000e+02 4.424749755859375000e+01 -2.977664375305175781e+01 -6.748912390321493149e-03 1.384961418807506561e-03 -1.609185361303389072e-03 4.110180307179689407e-03
5.560000000000000000e+02 4.432533645629882812e+01 -2.594949913024902344e+01 -6.740116979926824570e-03 -6.162635982036590576e-04 -2.206914126873016357e-03 4.682647995650768280e-03
5.570000000000000000e+02 4.539464569091796875e+01 -2.283753585815429688e+01 -4.121570673305541277e-04 -5.323580116964876652e-04 -2.833545149769634008e-04 6.806383607909083366e-04
5.580000000000000000e+02 4.567607879638671875e+01 -1.968300628662109375e+01 3.289437927378457971e-06 7.884319638833403587e-04 2.375164331169798970e-04 -8.963236723502632231e-06
5.590000000000000000e+02 4.713646697998046875e+01 -4.098394775390625000e+01 7.151550147682428360e-03 -3.433940466493368149e-03 1.115282881073653698e-03 1.047616824507713318e-03
5.600000000000000000e+02 4.654021453857421875e+01 -3.789746475219726562e+01 5.466835573315620422e-03 -2.416186500340700150e-03 9.151947451755404472e-04 2.205475699156522751e-03
5.610000000000000000e+02 4.686045074462890625e+01 -3.517453002929687500e+01 2.597220242023468018e-03 -3.116839565336704254e-03 -1.558858202770352364e-04 3.350480459630489349e-03
5.620000000000000000e+02 4.632764816284179688e+01 -3.199545478820800781e+01 -3.096019616350531578e-03 -3.280614968389272690e-03 -1.912990352138876915e-03 3.309648483991622925e-03
5.630000000000000000e+02 4.651914596557617188e+01 -2.705022621154785156e+01 -7.587165571749210358e-03 -6.950776558369398117e-03 -4.361382685601711273e-03 6.730726920068264008e-03
5.640000000000000000e+02 4.581776046752929688e+01 -2.569009208679199219e+01 -4.826799035072326660e-03 -5.592083092778921127e-03 -3.125664545223116875e-03 4.657199606299400330e-03
5.650000000000000000e+02 4.356285476684570312e+01 -2.011302566528320312e+01 -4.409025423228740692e-04 -1.294583780691027641e-04 -1.711082732072100043e-04 8.980208076536655426e-05
5.660000000000000000e+02 4.431285095214843750e+01 -1.843594551086425781e+01 -7.135097257560119033e-05 2.093712100759148598e-04 4.140607052249833941e-05 -1.550612942082807422e-04
5.670000000000000000e+02 5.160546493530273438e+01 -4.078740692138671875e+01 4.360264167189598083e-03 -4.662038758397102356e-03 -9.053239045897498727e-05 7.361602620221674442e-04
5.680000000000000000e+02 5.020416259765625000e+01 -3.774514389038085938e+01 3.726547583937644958e-03 -4.855554085224866867e-03 -3.387019678484648466e-04 2.881518099457025528e-03
5.690000000000000000e+02 4.986368942260742188e+01 -3.378153991699218750e+01 -3.780018596444278955e-04 -4.736674483865499496e-03 -1.534402836114168167e-03 4.476050846278667450e-03
5.700000000000000000e+02 5.435314178466796875e+01 -3.096154785156250000e+01 -4.591421689838171005e-03 -9.084793273359537125e-04 -1.649970305152237415e-03 1.860325923189520836e-03
5.710000000000000000e+02 5.596445083618164062e+01 -3.104727554321289062e+01 -2.730239182710647583e-03 -3.286863793618977070e-04 -9.176776511594653130e-04 1.067327568307518959e-03
5.720000000000000000e+02 6.018082809448242188e+01 -2.960832977294921875e+01 -1.794553281797561795e-05 3.513886667860788293e-06 -4.329493549448670819e-06 2.339085185667499900e-04
5.730000000000000000e+02 6.352068328857421875e+01 -2.925994682312011719e+01 1.344152260571718216e-04 3.868409839924424887e-05 5.192979733692482114e-05 8.077317943389061838e-06
5.740000000000000000e+02 6.372355651855468750e+01 -2.728116989135742188e+01 2.566642360761761665e-04 1.514098257757723331e-04 1.224222214659675956e-04 1.154763667727820575e-04
5.750000000000000000e+02 6.669224548339843750e+01 -2.425759887695312500e+01 4.280617213225923479e-05 2.734651206992566586e-05 2.104580562445335090e-05 8.291074482258409262e-05
5.760000000000000000e+02 7.042818450927734375e+01 -2.305047035217285156e+01 6.353441222017863765e-06 -9.152558050118386745e-06 -8.397352075917297043e-07 2.254489845654461533e-05
5.770000000000000000e+02 7.572959899902343750e+01 -2.572848510742187500e+01 -2.985034916491713375e-05 1.056263954524183646e-05 -5.786313067801529542e-06 -2.328712253074627370e-05
5.780000000000000000e+02 7.807102966308593750e+01 -2.569623565673828125e+01 -3.033802204299718142e-05 2.772617335722316056e-05 -7.835544124645821285e-07 -2.454919558658730239e-05
5.790000000000000000e+02 7.745137786865234375e+01 -2.041683387756347656e+01 3.455878686509095132e-05 -7.171836955421895254e-07 1.015248108160449192e-05 -1.303280623687896878e-05
5.800000000000000000e+02 7.769499206542968750e+01 -1.841770935058593750e+01 1.367735876556253061e-05 -1.180612571261008270e-06 3.749024017452029511e-06 -2.318483211638522334e-06
5.810000000000000000e+02 7.571912384033203125e+01 -1.825256347656250000e+01 -2.608521526781260036e-06 -2.246475787615054287e-06 -1.456499262530996930e-06 1.979624130399315618e-06
5.820000000000000000e+02 7.428562927246093750e+01 -1.816790390014648438e+01 -8.869463272276334465e-06 1.040030383592238650e-06 -2.348829866605228744e-06 1.394347890482094954e-07
5.830000000000000000e+02 7.287433624267578125e+01 -1.815820884704589844e+01 -1.064011848939117044e-05 1.502281747889355756e-06 -2.741350954238441773e-06 2.136077227987698279e-06
5.840000000000000000e+02 6.934322357177734375e+01 -1.955123901367187500e+01 1.197444998979335651e-05 1.932455461428617127e-06 4.172071385255549103e-06 2.413492802588734776e-05
5.850000000000000000e+02 7.219336700439453125e+01 -1.893701553344726562e+01 -1.182741289085242897e-05 9.873490398604189977e-07 -3.252019041610765271e-06 2.515847882023081183e-06
5.860000000000000000e+02 7.120198059082031250e+01 -2.203079032897949219e+01 6.743676931364461780e-05 -8.463767699140589684e-06 1.769190203049220145e-05 -8.067408089118544012e-06
5.870000000000000000e+02 7.076383209228515625e+01 -1.834877204895019531e+01 8.868536497175227851e-06 4.579091637424426153e-06 4.034288394905161113e-06 -1.914270114866667427e-06
5.880000000000000000e+02 7.490702819824218750e+01 -2.347740936279296875e+01 5.312128268997184932e-05 -9.956800568033941090e-06 1.294934463658137247e-05 -2.466699515935033560e-05
5.890000000000000000e+02 5.293422698974609375e+01 -3.654742050170898438e+01 1.806039479561150074e-03 -4.242877475917339325e-03 -7.310514338314533234e-04 2.856950275599956512e-03
5.900000000000000000e+02 5.145402908325195312e+01 -3.467959976196289062e+01 3.819624835159629583e-04 -4.520966205745935440e-03 -1.241701189428567886e-03 4.167780745774507523e-03
5.910000000000000000e+02 5.498199462890625000e+01 -3.915408325195312500e+01 2.016103127971291542e-03 -3.501364029943943024e-03 -4.455783055163919926e-04 1.517626456916332245e-03
5.920000000000000000e+02 5.690150070190429688e+01 -3.649739074707031250e+01 2.740425406955182552e-04 -2.310086740180850029e-03 -6.108132656663656235e-04 2.008794108405709267e-03
5.930000000000000000e+02 5.486623382568359375e+01 -3.496175765991210938e+01 -4.744766920339316130e-04 -2.716742921620607376e-03 -9.573659044690430164e-04 3.061961848288774490e-03
5.940000000000000000e+02 5.838078689575195312e+01 -4.076121139526367188e+01 1.498291036114096642e-03 -2.746564568951725960e-03 -3.744820423889905214e-04 5.956192617304623127e-04
5.950000000000000000e+02 5.986342239379882812e+01 -3.752465820312500000e+01 1.704955211607739329e-04 -1.462586456909775734e-03 -3.876272821798920631e-04 1.138015417382121086e-03
5.960000000000000000e+02 6.229539489746093750e+01 -3.017934036254882812e+01 -1.512876187916845083e-04 -1.552784306113608181e-05 -5.004463673685677350e-05 1.735507394187152386e-04
5.970000000000000000e+02 6.648204803466796875e+01 -3.214973068237304688e+01 -1.623797143111005425e-04 -1.307328493567183614e-04 -8.793376764515414834e-05 6.599955668207257986e-05
5.980000000000000000e+02 7.164099884033203125e+01 -2.986792945861816406e+01 6.584332004422321916e-05 -5.777388287242501974e-05 2.420831606286810711e-06 -8.604596223449334502e-05
5.990000000000000000e+02 7.427732086181640625e+01 -3.136442184448242188e+01 -7.683199328312184662e-06 -4.414250724948942661e-06 -3.629234925028868020e-06 -7.209093746496364474e-05
6.000000000000000000e+02 7.808072662353515625e+01 -2.980407142639160156e+01 4.620700929081067443e-05 7.299111894099041820e-05 3.575943992473185062e-05 -3.158565232297405601e-05
6.010000000000000000e+02 7.933457946777343750e+01 -2.827894020080566406e+01 4.224518488626927137e-05 6.859360291855409741e-05 3.325163561385124922e-05 -9.234005119651556015e-06
6.020000000000000000e+02 7.935403442382812500e+01 -2.555491828918457031e+01 3.070163438678719103e-05 2.893400414905045182e-05 1.789069210644811392e-05 -4.732345132651971653e-06
6.030000000000000000e+02 6.283371734619140625e+01 -4.107864379882812500e+01 2.613341202959418297e-04 -1.198785728774964809e-03 -2.812354941852390766e-04 5.348512058844789863e-05
6.040000000000000000e+02 6.355061340332031250e+01 -3.819891738891601562e+01 1.833367714425548911e-04 -9.716833592392504215e-04 -2.365039836149662733e-04 4.117436474189162254e-04
6.050000000000000000e+02 6.461791229248046875e+01 -3.562685775756835938e+01 -2.149783394997939467e-04 -4.634336801245808601e-04 -2.035236102528870106e-04 3.788501489907503128e-04
6.060000000000000000e+02 6.744302368164062500e+01 -4.116913604736328125e+01 -8.313608304888475686e-06 -4.769544466398656368e-04 -1.455804158467799425e-04 8.702222112333402038e-05
6.070000000000000000e+02 6.761685943603515625e+01 -3.396932601928710938e+01 -1.546173589304089546e-04 -1.968169090105220675e-04 -1.054302847478538752e-04 5.938809044891968369e-05
6.080000000000000000e+02 6.574037170410156250e+01 -3.363652420043945312e+01 -1.303838798776268959e-04 -1.922567898873239756e-04 -9.679220238467678428e-05 1.259623386431485415e-04
6.090000000000000000e+02 7.195650482177734375e+01 -4.091154479980468750e+01 -3.400883360882289708e-05 -1.306582707911729813e-04 -4.940012877341359854e-05 -5.679325477103702724e-05
6.100000000000000000e+02 7.317151641845703125e+01 -3.663245391845703125e+01 6.015777671564137563e-06 -5.908185994485393167e-05 -1.591982436366379261e-05 -6.331969780148938298e-05
6.110000000000000000e+02 7.195269775390625000e+01 -3.468284225463867188e+01 -5.792469892185181379e-05 -7.664386066608130932e-05 -4.037056714878417552e-05 -2.163558383472263813e-05
6.120000000000000000e+02 7.348686218261718750e+01 -3.359602737426757812e+01 -1.298103052249643952e-05 -2.492942621756810695e-05 -1.137313665822148323e-05 -8.593864913564175367e-05
6.130000000000000000e+02 7.548594665527343750e+01 -4.013775253295898438e+01 -2.242648770334199071e-05 1.108322248910553753e-04 2.652172042871825397e-05 -3.524217618178226985e-06
6.140000000000000000e+02 7.477388000488281250e+01 -3.264213943481445312e+01 -5.378380137699423358e-06 1.938240166055038571e-05 4.201206138532143086e-06 -5.372441955842077732e-05
6.150000000000000000e+02 7.552625274658203125e+01 -3.372331619262695312e+01 1.490649356128415093e-05 4.329649163992144167e-05 1.746089583321008831e-05 -7.684337469981983304e-05
6.160000000000000000e+02 7.808650207519531250e+01 -4.166141510009765625e+01 3.904940967913717031e-05 1.840810873545706272e-04 6.693915202049538493e-05 1.159308430942473933e-05
6.170000000000000000e+02 7.894199371337890625e+01 -4.023508834838867188e+01 -5.903458441025577486e-05 1.993762125493958592e-04 4.210248880553990602e-05 2.103851511492393911e-05
6.180000000000000000e+02 7.910966491699218750e+01 -3.771908569335937500e+01 -2.260334440506994724e-05 2.117730327881872654e-04 5.675090505974367261e-05 2.892727252401527949e-06
6.190000000000000000e+02 7.786351013183593750e+01 -3.484087753295898438e+01 5.247613080427981913e-05 1.213295035995543003e-04 5.214169141254387796e-05 -2.179863804485648870e-05
6.200000000000000000e+02 7.940957641601562500e+01 -3.229809188842773438e+01 -6.337959348456934094e-05 1.493784657213836908e-04 2.579966349003370851e-05 -1.538008291390724480e-05
6.210000000000000000e+02 7.899906158447265625e+01 -1.854422950744628906e+01 3.430617880439967848e-06 3.278985332144657150e-06 2.012880941038019955e-06 7.163509962992975488e-07
6.220000000000000000e+02 6.829595184326171875e+01 -2.184264373779296875e+01 -1.412069104844704270e-05 9.867926564766094089e-06 -1.275829390579019673e-06 3.348438622197136283e-05
6.230000000000000000e+02 6.869872283935546875e+01 -2.381988716125488281e+01 2.411695459159091115e-05 -1.727294147713109851e-05 2.053204070762149058e-06 4.572408943204209208e-05
6.240000000000000000e+02 6.473262786865234375e+01 -2.629261779785156250e+01 1.156758007709868252e-04 5.248800516710616648e-05 5.044913996243849397e-05 1.495450560469180346e-04
6.250000000000000000e+02 6.264255142211914062e+01 -2.820706748962402344e+01 2.653735864441841841e-04 8.756003808230161667e-05 1.058800844475626945e-04 2.295418089488521218e-04
6.260000000000000000e+02 5.886708068847656250e+01 -3.014373779296875000e+01 -3.473369870334863663e-04 1.591954351169988513e-04 -5.644246994052082300e-05 1.010273263091221452e-04
6.270000000000000000e+02 5.136064529418945312e+01 -3.044935226440429688e+01 -9.936918504536151886e-03 -3.105806885287165642e-03 -3.912817686796188354e-03 4.433884751051664352e-03
6.280000000000000000e+02 4.904150390625000000e+01 -3.142649650573730469e+01 -5.129498895257711411e-03 -5.747385323047637939e-03 -3.263065125793218613e-03 4.512178711593151093e-03
6.290000000000000000e+02 4.868621063232421875e+01 -2.912567138671875000e+01 -1.183184608817100525e-02 -7.274889387190341949e-03 -5.732020828872919083e-03 7.976026274263858795e-03
6.300000000000000000e+02 3.622124862670898438e+01 -1.659977912902832031e+01 -9.949373634299263358e-05 1.385641808155924082e-04 1.172113479697145522e-05 1.506568223703652620e-04
6.310000000000000000e+02 3.557773971557617188e+01 -2.222131156921386719e+01 -9.646945982240140438e-04 -5.087154568172991276e-04 -4.420230106916278601e-04 -1.170152565464377403e-03
6.320000000000000000e+02 3.691645050048828125e+01 -2.203820991516113281e+01 -2.145000267773866653e-03 -2.572930825408548117e-04 -7.206880254670977592e-04 -1.541390316560864449e-03
6.330000000000000000e+02 3.452055358886718750e+01 -2.745395469665527344e+01 -1.474452950060367584e-02 1.756460871547460556e-03 -3.896420588716864586e-03 -4.737558308988809586e-03
6.340000000000000000e+02 3.237355422973632812e+01 -2.725478172302246094e+01 -1.763448864221572876e-02 -8.058771491050720215e-03 -7.707978133112192154e-03 -1.274435408413410187e-02
6.350000000000000000e+02 2.964857482910156250e+01 -3.138685989379882812e+01 8.104939945042133331e-03 2.855769358575344086e-03 3.288212697952985764e-03 -1.540496107190847397e-02
6.360000000000000000e+02 2.614693832397460938e+01 -3.268798828125000000e+01 3.204922378063201904e-02 7.405649125576019287e-02 3.183171525597572327e-02 -8.596643060445785522e-02
6.370000000000000000e+02 2.719823455810546875e+01 -3.564873886108398438e+01 3.504424821585416794e-03 9.227641671895980835e-02 2.873425185680389404e-02 -5.934597179293632507e-02
6.380000000000000000e+02 3.147187423706054688e+01 -3.632487869262695312e+01 1.396260224282741547e-02 3.328148275613784790e-02 1.417322549968957901e-02 -1.920047961175441742e-02
6.390000000000000000e+02 2.932593727111816406e+01 -3.439066314697265625e+01 1.961700804531574249e-02 3.433069586753845215e-02 1.618431136012077332e-02 -3.332318365573883057e-02
6.400000000000000000e+02 2.442918777465820312e+01 -3.002677917480468750e+01 1.241157129406929016e-01 5.304646864533424377e-02 5.314865335822105408e-02 -8.709383755922317505e-02
6.410000000000000000e+02 2.582359886169433594e+01 -3.017244911193847656e+01 5.143577232956886292e-02 1.951224356889724731e-02 2.128440514206886292e-02 -4.900530725717544556e-02
6.420000000000000000e+02 2.311867523193359375e+01 -3.065212821960449219e+01 1.056011542677879333e-01 1.463137269020080566e-01 7.557446509599685669e-02 -1.262429505586624146e-01
6.430000000000000000e+02 1.793544006347656250e+01 -2.763516616821289062e+01 1.549700796604156494e-01 4.448265135288238525e-01 1.799389719963073730e-01 -2.528694570064544678e-01
6.440000000000000000e+02 1.615864753723144531e+01 -2.342919921875000000e+01 3.706623911857604980e-01 7.723418474197387695e-01 3.429012596607208252e-01 -5.118491649627685547e-01
6.450000000000000000e+02 1.065487384796142578e+01 -2.180555915832519531e+01 2.308392971754074097e-01 5.910625457763671875e-01 2.465705424547195435e-01 8.425757288932800293e-02
6.460000000000000000e+02 1.012504768371582031e+01 -1.699244499206542969e+01 3.514807522296905518e-01 5.277689695358276367e-01 2.637749016284942627e-01 -1.886809803545475006e-02
6.470000000000000000e+02 4.344891548156738281e+00 -1.477159214019775391e+01 9.791509062051773071e-02 -4.167853891849517822e-01 -9.566109627485275269e-02 -1.487475782632827759e-01
6.480000000000000000e+02 3.168827056884765625e+00 -1.620722198486328125e+01 6.201047822833061218e-02 -6.093600392341613770e-01 -1.642048656940460205e-01 -8.006374537944793701e-02
6.490000000000000000e+02 7.708292961120605469e+00 -1.864320755004882812e+01 2.213682979345321655e-01 7.480851560831069946e-02 8.885304629802703857e-02 1.070115249603986740e-02
6.500000000000000000e+02 2.222409439086914062e+01 -2.928588294982910156e+01 1.971042007207870483e-01 1.641570627689361572e-01 1.083783805370330811e-01 -1.693199574947357178e-01
6.510000000000000000e+02 1.498316764831542969e+01 -2.436478424072265625e+01 1.783363074064254761e-01 8.677569031715393066e-01 3.138279616832733154e-01 -3.128512501716613770e-01
6.520000000000000000e+02 1.458650588989257812e+01 -2.103328132629394531e+01 3.661454617977142334e-01 1.842460513114929199e+00 6.625818014144897461e-01 -4.879329502582550049e-01
6.530000000000000000e+02 1.430787181854248047e+01 -1.962705993652343750e+01 1.743387579917907715e-01 1.933309435844421387e+00 6.322944760322570801e-01 -1.679250746965408325e-01
6.540000000000000000e+02 1.430104160308837891e+01 -1.819853210449218750e+01 5.604552477598190308e-02 1.854031324386596680e+00 5.730230808258056641e-01 3.588996455073356628e-02
6.550000000000000000e+02 1.440651321411132812e+01 -1.690196418762207031e+01 1.717312484979629517e-01 1.958527803421020508e+00 6.390777230262756348e-01 2.728836834430694580e-01
6.560000000000000000e+02 1.391105556488037109e+01 -1.601072502136230469e+01 3.360893726348876953e-01 1.629498004913330078e+00 5.896762013435363770e-01 3.088843524456024170e-01
6.570000000000000000e+02 1.472558498382568359e+01 -1.498996925354003906e+01 4.310036599636077881e-01 1.691455483436584473e+00 6.367377638816833496e-01 5.972564220428466797e-01
6.580000000000000000e+02 1.412074184417724609e+01 -1.246330928802490234e+01 4.837215840816497803e-01 8.902081847190856934e-01 4.121789336204528809e-01 1.917123943567276001e-01
6.590000000000000000e+02 1.639382362365722656e+01 -1.125922203063964844e+01 7.656516432762145996e-01 6.718479990959167480e-01 4.312498867511749268e-01 2.797171175479888916e-01
6.600000000000000000e+02 1.943299865722656250e+01 -1.151250076293945312e+01 1.403343439102172852e+00 1.748598664999008179e-01 4.734610021114349365e-01 2.808387577533721924e-01
6.610000000000000000e+02 2.189488983154296875e+01 -1.017537212371826172e+01 1.182093501091003418e+00 -1.061987355351448059e-01 3.227684497833251953e-01 7.611786574125289917e-02
6.620000000000000000e+02 2.597143936157226562e+01 -8.602719306945800781e+00 1.626973986625671387e+00 3.815890252590179443e-01 6.025688648223876953e-01 1.130522966384887695e+00
6.630000000000000000e+02 7.571177673339843750e+01 -5.813350677490234375e+00 -4.829479008913040161e-02 -2.561902105808258057e-01 -9.134550392627716064e-02 -2.799960672855377197e-01
6.640000000000000000e+02 7.570404815673828125e+01 -3.206474065780639648e+00 -1.263775955885648727e-02 -3.765213191509246826e-01 -1.167477220296859741e-01 -3.052269220352172852e-01
6.650000000000000000e+02 6.875926208496093750e+01 -7.093809127807617188e+00 -2.461325973272323608e-01 -4.964887350797653198e-02 -8.873444050550460815e-02 -4.890675842761993408e-01
6.660000000000000000e+02 5.640029144287109375e+01 -2.629942893981933594e+00 1.008044362068176270e+00 8.787977695465087891e-01 5.660526156425476074e-01 7.914397716522216797e-01
6.670000000000000000e+02 5.737155914306640625e+01 -3.482489824295043945e+00 8.704268336296081543e-01 5.760317444801330566e-01 4.339375793933868408e-01 5.384275317192077637e-01
6.680000000000000000e+02 4.757116317749023438e+01 -6.943032741546630859e+00 1.154627084732055664e+00 2.540581524372100830e-01 4.226056039333343506e-01 2.103937417268753052e-01
6.690000000000000000e+02 4.614007186889648438e+01 -1.107084560394287109e+01 -4.952228665351867676e-01 2.645524740219116211e-01 -6.920111924409866333e-02 4.241615235805511475e-01
6.700000000000000000e+02 4.791298294067382812e+01 -8.612352371215820312e+00 4.619766175746917725e-01 3.644649684429168701e-01 2.479324787855148315e-01 4.072932302951812744e-01
6.710000000000000000e+02 4.880987167358398438e+01 -1.047943496704101562e+01 -3.253799974918365479e-01 4.125747680664062500e-01 2.615842968225479126e-02 3.935066163539886475e-01
6.720000000000000000e+02 4.292292785644531250e+01 -5.630690097808837891e+00 7.947357296943664551e-01 5.391119047999382019e-02 2.545940577983856201e-01 -6.920821964740753174e-02
6.730000000000000000e+02 4.120312500000000000e+01 -6.009977817535400391e+00 5.361656546592712402e-01 -1.133482083678245544e-01 1.268452256917953491e-01 1.055786982178688049e-01
6.740000000000000000e+02 4.011002349853515625e+01 -2.697317123413085938e+00 6.585794091224670410e-01 -3.075022995471954346e-02 1.883487552404403687e-01 -2.281558513641357422e-01
6.750000000000000000e+02 3.667298126220703125e+01 -1.842495918273925781e+00 3.951663970947265625e-01 -1.345616579055786133e-01 7.818141579627990723e-02 -7.486864924430847168e-03
6.760000000000000000e+02 3.528940963745117188e+01 -2.224683523178100586e+00 3.609381318092346191e-01 -1.150548160076141357e-01 7.376499474048614502e-02 6.014768406748771667e-02
6.770000000000000000e+02 2.080887222290039062e+01 -7.134471416473388672e+00 -3.566112518310546875e-01 2.882412374019622803e-01 -2.051100507378578186e-02 9.843299537897109985e-02
6.780000000000000000e+02 1.917361640930175781e+01 -7.471860408782958984e+00 -9.289829432964324951e-02 3.671598732471466064e-01 8.227847516536712646e-02 1.043359711766242981e-01
6.790000000000000000e+02 1.820149993896484375e+01 -2.122760295867919922e+00 -5.445106029510498047e-01 9.830389171838760376e-02 -1.338620036840438843e-01 1.934049576520919800e-01
6.800000000000000000e+02 1.895334053039550781e+01 -2.001706838607788086e+00 -5.066131353378295898e-01 8.662827312946319580e-02 -1.259954571723937988e-01 2.260462194681167603e-01
6.810000000000000000e+02 4.502534866333007812e+00 -2.791594266891479492e+00 -1.397132575511932373e-01 -4.742909222841262817e-02 -5.614270642399787903e-02 -1.744647026062011719e-01
6.820000000000000000e+02 3.837748765945434570e+00 -5.288045406341552734e+00 -6.110909581184387207e-02 -1.468315422534942627e-01 -6.238219141960144043e-02 -2.343318760395050049e-01
6.830000000000000000e+02 4.140594005584716797e+00 -7.389619827270507812e+00 -1.661510951817035675e-02 -2.187901586294174194e-01 -7.062157988548278809e-02 -2.820136845111846924e-01
6.840000000000000000e+02 9.673714637756347656e+00 -1.868536949157714844e+00 -4.948931336402893066e-01 8.794105611741542816e-03 -1.458297073841094971e-01 -1.575324833393096924e-01
6.850000000000000000e+02 5.080653190612792969e+00 -1.905341029167175293e+00 -1.872633993625640869e-01 -2.061656117439270020e-02 -6.236398965120315552e-02 -1.418895125389099121e-01
6.860000000000000000e+02 2.343376922607421875e+01 -7.681576251983642578e+00 -5.740606784820556641e-01 -3.988712430000305176e-01 -2.918795645236968994e-01 -3.366351425647735596e-01
6.870000000000000000e+02 3.651255416870117188e+01 -8.481133460998535156e+00 -3.247855603694915771e-01 -3.227416872978210449e-01 -1.942581683397293091e-01 3.902842998504638672e-01
6.880000000000000000e+02 5.545720672607421875e+01 -7.432996273040771484e+00 5.018668174743652344e-01 3.811002671718597412e-01 2.648901343345642090e-01 2.023967448621988297e-03
6.890000000000000000e+02 6.007806015014648438e+01 -1.084486484527587891e+01 -1.052514076232910156e+00 -2.594617195427417755e-02 -3.235380649566650391e-01 -3.564006090164184570e-01
6.900000000000000000e+02 6.721361541748046875e+01 -8.916183471679687500e+00 -5.051004886627197266e-01 -5.480223521590232849e-02 -1.679708212614059448e-01 -5.137567520141601562e-01
6.910000000000000000e+02 9.336320877075195312e+00 -5.721343517303466797e+00 -1.612525582313537598e-01 6.406605243682861328e-02 -2.915595285594463348e-02 -3.101030588150024414e-01
6.920000000000000000e+02 7.031890106201171875e+01 2.408903390169143677e-01 1.370111107826232910e-01 -7.266885042190551758e-02 1.930267736315727234e-02 -3.539911806583404541e-01
6.930000000000000000e+02 7.572640991210937500e+01 -1.881571769714355469e+00 1.248856168240308762e-02 -4.404662549495697021e-01 -1.283933073282241821e-01 -3.036207258701324463e-01
6.940000000000000000e+02 6.686521148681640625e+01 -4.697955131530761719e+00 1.649215072393417358e-02 -5.643605440855026245e-02 -1.198317110538482666e-02 -4.337308108806610107e-01
6.950000000000000000e+02 6.334739685058593750e+01 -2.390209436416625977e+00 3.557186126708984375e-01 2.036990076303482056e-01 1.678252816200256348e-01 -5.935873463749885559e-02
6.960000000000000000e+02 7.817845916748046875e+01 -3.121069669723510742e+00 -4.799885209649801254e-03 -5.205206871032714844e-01 -1.575961709022521973e-01 -1.564755886793136597e-01
6.970000000000000000e+02 7.005151367187500000e+01 4.398436546325683594e+00 1.924708187580108643e-01 4.045435786247253418e-02 6.987755000591278076e-02 -2.356841862201690674e-01
6.980000000000000000e+02 7.570140838623046875e+01 2.192409992218017578e+00 4.316862300038337708e-02 -6.030421853065490723e-01 -1.679620742797851562e-01 -2.590076029300689697e-01
6.990000000000000000e+02 6.591257476806640625e+01 1.428784251213073730e+00 2.959896326065063477e-01 3.537873923778533936e-01 1.949331015348434448e-01 -1.139384508132934570e-01
7.000000000000000000e+02 6.408897399902343750e+01 1.710818529129028320e+00 3.704356253147125244e-01 5.722628831863403320e-01 2.828095555305480957e-01 7.781157642602920532e-02
7.010000000000000000e+02 6.073955917358398438e+01 8.418938517570495605e-01 4.922737479209899902e-01 8.342572450637817383e-01 3.979592919349670410e-01 4.738281965255737305e-01
7.020000000000000000e+02 7.938636016845703125e+01 -2.940837144851684570e-01 3.288293257355690002e-03 -8.459700942039489746e-01 -2.528045475482940674e-01 -5.362533777952194214e-02
7.030000000000000000e+02 6.986952972412109375e+01 8.037148475646972656e+00 2.066919654607772827e-01 1.689472794532775879e-01 1.126917749643325806e-01 -1.320061534643173218e-01
7.040000000000000000e+02 7.560351562500000000e+01 5.037616252899169922e+00 5.116036906838417053e-02 -6.798870563507080078e-01 -1.886180043220520020e-01 -2.007586658000946045e-01
7.050000000000000000e+02 6.834847259521484375e+01 4.591201305389404297e+00 2.408822327852249146e-01 2.693122923374176025e-01 1.530583649873733521e-01 -1.699490398168563843e-01
7.060000000000000000e+02 6.358755874633789062e+01 4.637770175933837891e+00 3.939181864261627197e-01 1.011246323585510254e+00 4.215493798255920410e-01 2.203298807144165039e-01
7.070000000000000000e+02 5.960549926757812500e+01 3.808929681777954102e+00 5.645297169685363770e-01 1.191917181015014648e+00 5.269340872764587402e-01 7.979004979133605957e-01
7.080000000000000000e+02 7.812037658691406250e+01 3.840908050537109375e+00 1.383991073817014694e-02 -9.888378977775573730e-01 -2.924993932247161865e-01 -1.205419525504112244e-01
7.090000000000000000e+02 6.956312561035156250e+01 1.058204078674316406e+01 2.192621827125549316e-01 2.648018598556518555e-01 1.452192217111587524e-01 -7.652569562196731567e-02
7.100000000000000000e+02 7.431846618652343750e+01 9.306780815124511719e+00 9.016878902912139893e-02 -5.512153506278991699e-01 -1.383139640092849731e-01 -1.200360059738159180e-01
7.110000000000000000e+02 6.683705902099609375e+01 9.204598426818847656e+00 2.616690993309020996e-01 7.416102886199951172e-01 3.009838163852691650e-01 -8.201422169804573059e-04
7.120000000000000000e+02 6.477024841308593750e+01 7.630039215087890625e+00 2.843174040317535400e-01 1.098881363868713379e+00 4.149596393108367920e-01 1.488219499588012695e-01
7.130000000000000000e+02 7.936419677734375000e+01 6.725893974304199219e+00 1.113745849579572678e-03 -1.352706432342529297e+00 -4.054778218269348145e-01 -3.070807270705699921e-02
7.140000000000000000e+02 7.141403961181640625e+01 1.407393169403076172e+01 1.871679127216339111e-01 -7.412435859441757202e-02 3.391306474804878235e-02 6.911844946444034576e-03
7.150000000000000000e+02 7.535725402832031250e+01 1.253021907806396484e+01 7.529856264591217041e-02 -7.429553866386413574e-01 -2.002970427274703979e-01 -2.848402783274650574e-02
7.160000000000000000e+02 6.488227081298828125e+01 1.094996070861816406e+01 2.382539808750152588e-01 1.294363737106323242e+00 4.597853124141693115e-01 8.705645054578781128e-02
7.170000000000000000e+02 7.168422698974609375e+01 1.706978988647460938e+01 1.703115701675415039e-01 -1.366744190454483032e-01 1.009114272892475128e-02 9.608042985200881958e-02
7.180000000000000000e+02 7.573661041259765625e+01 1.680994796752929688e+01 5.735894292593002319e-02 -8.060489296913146973e-01 -2.246069908142089844e-01 8.075578510761260986e-02
7.190000000000000000e+02 6.841206359863281250e+01 1.320500373840332031e+01 2.473045289516448975e-01 5.300360918045043945e-01 2.332021892070770264e-01 -2.575076743960380554e-02
7.200000000000000000e+02 7.809165191650390625e+01 1.386296463012695312e+01 1.528111658990383148e-02 -1.266273379325866699e+00 -3.752976655960083008e-01 4.677174612879753113e-03
7.210000000000000000e+02 7.113130187988281250e+01 2.065886497497558594e+01 1.246961951255798340e-01 -4.545315727591514587e-02 2.377291209995746613e-02 2.032699286937713623e-01
7.220000000000000000e+02 7.279991912841796875e+01 2.100133895874023438e+01 8.429471403360366821e-02 -3.113428652286529541e-01 -6.811444461345672607e-02 2.026878148317337036e-01
7.230000000000000000e+02 6.410343170166015625e+01 1.669986534118652344e+01 3.238092362880706787e-01 1.604709148406982422e+00 5.785555243492126465e-01 -2.156038433313369751e-01
7.240000000000000000e+02 6.857380676269531250e+01 2.101978492736816406e+01 1.768690049648284912e-01 3.208387792110443115e-01 1.493123471736907959e-01 1.923028081655502319e-01
7.250000000000000000e+02 6.406000518798828125e+01 2.110871696472167969e+01 3.499880731105804443e-01 1.070883393287658691e+00 4.262614250183105469e-01 -6.817578524351119995e-02
7.260000000000000000e+02 5.130165481567382812e+01 2.192829895019531250e+01 3.994889929890632629e-02 -6.539670284837484360e-03 1.002276781946420670e-02 -2.637588232755661011e-02
7.270000000000000000e+02 9.725287437438964844e+00 2.063338470458984375e+01 -1.285394420847296715e-03 -7.131217716960236430e-05 -4.070119757670909166e-04 1.545760605949908495e-04
7.280000000000000000e+02 4.246412277221679688e+00 2.183161735534667969e+01 -6.364108994603157043e-04 -2.099248958984389901e-04 -2.539007400628179312e-04 3.672212769743055105e-04
7.290000000000000000e+02 5.600734710693359375e+00 1.723698806762695312e+01 1.619265276531223208e-05 -1.416168670402839780e-04 -3.762726555578410625e-05 -9.788515308173373342e-05
7.300000000000000000e+02 9.197237014770507812e+00 1.891890907287597656e+01 -7.143590482883155346e-04 -1.801111211534589529e-04 -2.683410421013832092e-04 1.647875797061715275e-05
7.310000000000000000e+02 6.120737791061401367e-01 2.059325790405273438e+01 -2.508325851522386074e-04 4.504730168264359236e-04 5.989213241264224052e-05 6.065904017305001616e-06
7.320000000000000000e+02 7.169903564453125000e+01 2.534191131591796875e+01 -2.525218063965439796e-03 -1.181468144059181213e-01 -3.620161116123199463e-02 2.554570734500885010e-01
7.330000000000000000e+02 7.314308929443359375e+01 2.839136505126953125e+01 -3.960755467414855957e-02 -2.713150382041931152e-01 -9.327677637338638306e-02 2.224162667989730835e-01
7.340000000000000000e+02 6.429841613769531250e+01 2.513795089721679688e+01 -1.017820741981267929e-02 6.944252252578735352e-01 2.052741050720214844e-01 4.846564307808876038e-02
7.350000000000000000e+02 5.959514617919921875e+01 2.702270507812500000e+01 -1.478549093008041382e-02 5.470189452171325684e-01 1.596700400114059448e-01 -2.098396271467208862e-01
7.360000000000000000e+02 5.644762420654296875e+01 2.668290901184082031e+01 1.195968240499496460e-01 2.685900032520294189e-01 1.164560541510581970e-01 -2.617654204368591309e-01
7.370000000000000000e+02 5.471613311767578125e+01 2.281072044372558594e+01 2.524545788764953613e-01 9.661994874477386475e-03 7.863497734069824219e-02 -8.303032815456390381e-02
7.380000000000000000e+02 4.960784912109375000e+01 2.506928443908691406e+01 7.584208995103836060e-02 2.817342057824134827e-02 3.120465204119682312e-02 -6.682694703340530396e-02
7.390000000000000000e+02 3.928742980957031250e+01 2.513712120056152344e+01 4.215248860418796539e-03 1.766578294336795807e-02 6.564309354871511459e-03 -4.356766119599342346e-03
7.400000000000000000e+02 2.830282592773437500e+01 2.480756187438964844e+01 -1.063886191695928574e-02 -9.814762510359287262e-03 -6.136087235063314438e-03 7.558099459856748581e-03
7.410000000000000000e+02 2.709476089477539062e+01 2.502608489990234375e+01 -1.305775996297597885e-02 -1.011006999760866165e-02 -6.950349081307649612e-03 9.695065207779407501e-03
7.420000000000000000e+02 1.423567962646484375e+01 2.373937797546386719e+01 -5.233092699199914932e-03 6.136936717666685581e-04 -1.385819748975336552e-03 1.939195441082119942e-03
7.430000000000000000e+02 1.326778984069824219e+01 2.500027656555175781e+01 -4.613120574504137039e-03 5.678321031155064702e-05 -1.366901211440563202e-03 3.134542377665638924e-03
7.440000000000000000e+02 4.803351879119873047e+00 2.453038787841796875e+01 -8.608482312411069870e-04 -6.173435831442475319e-04 -4.434575384948402643e-04 9.549735113978385925e-04
7.450000000000000000e+02 6.611948609352111816e-01 2.341768836975097656e+01 -2.490696788299828768e-04 1.928461861098185182e-04 -1.686705036263447255e-05 9.369156759930774570e-05
7.460000000000000000e+02 7.776268005371093750e+01 2.363590621948242188e+01 6.653274409472942352e-03 -9.507990479469299316e-01 -2.832437455654144287e-01 1.165642738342285156e-01
7.470000000000000000e+02 7.024708557128906250e+01 3.302006530761718750e+01 -1.218698844313621521e-01 -2.385103516280651093e-02 -4.371627792716026306e-02 1.564786434173583984e-01
7.480000000000000000e+02 6.712187957763671875e+01 2.887372589111328125e+01 -1.220311895012855530e-01 2.894870340824127197e-01 5.023675039410591125e-02 1.545895636081695557e-01
7.490000000000000000e+02 6.061355590820312500e+01 3.027938270568847656e+01 -1.342655122280120850e-01 4.469436407089233398e-01 9.380343556404113770e-02 -9.876015782356262207e-02
7.500000000000000000e+02 4.964528656005859375e+01 2.925969505310058594e+01 4.479699581861495972e-02 9.136112779378890991e-02 4.084743559360504150e-02 -9.859429299831390381e-02
7.510000000000000000e+02 4.570867919921875000e+01 2.845985603332519531e+01 3.464871644973754883e-02 4.683228954672813416e-02 2.444430068135261536e-02 -4.917327314615249634e-02
7.520000000000000000e+02 3.755352020263671875e+01 2.917458724975585938e+01 1.077506784349679947e-02 2.162497304379940033e-02 9.720012545585632324e-03 -1.091806031763553619e-02
7.530000000000000000e+02 3.509476089477539062e+01 2.983230400085449219e+01 7.646271493285894394e-03 1.633270084857940674e-02 7.193691562861204147e-03 -6.323685403913259506e-03
7.540000000000000000e+02 3.232682800292968750e+01 3.000937271118164062e+01 6.446702405810356140e-03 6.559514906257390976e-03 3.901865100488066673e-03 -1.471205148845911026e-03
7.550000000000000000e+02 2.807901573181152344e+01 2.759198760986328125e+01 -2.187082078307867050e-03 -5.624196957796812057e-03 -2.343383850529789925e-03 5.624484736472368240e-03
7.560000000000000000e+02 2.640916442871093750e+01 2.889647865295410156e+01 6.316337385214865208e-04 -6.464470643550157547e-03 -1.749851042404770851e-03 6.602523382753133774e-03
7.570000000000000000e+02 2.012579917907714844e+01 2.581623649597167969e+01 -1.008344721049070358e-02 -3.053069813176989555e-03 -3.940955270081758499e-03 7.269806228578090668e-03
7.580000000000000000e+02 1.694242286682128906e+01 2.558537483215332031e+01 -7.184390444308519363e-03 -6.828964105807244778e-04 -2.360186073929071426e-03 5.406710319221019745e-03
7.590000000000000000e+02 9.513490676879882812e+00 2.921480560302734375e+01 -7.831033435650169849e-04 -1.736761652864515781e-03 -7.559594814665615559e-04 3.700846107676625252e-03
7.600000000000000000e+02 7.112364768981933594e-01 2.768623161315917969e+01 1.709279313217848539e-04 -1.003164448775351048e-03 -2.496709639672189951e-04 2.974306116811931133e-04
7.610000000000000000e+02 7.748185729980468750e+01 2.653235435485839844e+01 -3.030865453183650970e-03 -7.986339926719665527e-01 -2.404994666576385498e-01 1.313197165727615356e-01
7.620000000000000000e+02 6.762370300292968750e+01 3.296834945678710938e+01 -1.559595018625259399e-01 1.520372033119201660e-01 -1.176691148430109024e-03 1.279765218496322632e-01
7.630000000000000000e+02 6.501773834228515625e+01 3.245639419555664062e+01 -1.789705157279968262e-01 3.185999989509582520e-01 4.188884049654006958e-02 5.995137989521026611e-02
7.640000000000000000e+02 5.409436416625976562e+01 3.146652412414550781e+01 -2.527457848191261292e-02 2.464991658926010132e-01 6.636737287044525146e-02 -1.685940027236938477e-01
7.650000000000000000e+02 4.242853546142578125e+01 3.250545120239257812e+01 1.295891031622886658e-02 5.715584009885787964e-02 2.103442512452602386e-02 -3.342544659972190857e-02
7.660000000000000000e+02 2.218965911865234375e+01 3.077728271484375000e+01 2.426727674901485443e-03 -5.494901444762945175e-03 -9.204521193169057369e-04 7.766216993331909180e-03
7.670000000000000000e+02 1.788632774353027344e+01 3.310297393798828125e+01 3.408198943361639977e-03 -4.624414257705211639e-03 -3.648645360954105854e-04 6.262360606342554092e-03
7.680000000000000000e+02 1.278347206115722656e+01 2.978432273864746094e+01 -1.690859557129442692e-03 -2.087451051920652390e-03 -1.133493147790431976e-03 4.896373488008975983e-03
7.690000000000000000e+02 9.143060684204101562e+00 3.264220428466796875e+01 5.504168802872300148e-04 -3.006801940500736237e-03 -7.369155064225196838e-04 3.502058330923318863e-03
7.700000000000000000e+02 4.626572132110595703e+00 3.162102508544921875e+01 1.277796691283583641e-04 -2.629318973049521446e-03 -7.504617678932845592e-04 1.910703023895621300e-03
7.710000000000000000e+02 6.779023408889770508e-01 3.051820755004882812e+01 1.922922674566507339e-04 -2.277702325955033302e-03 -6.256230408325791359e-04 3.576142189558595419e-04
7.720000000000000000e+02 7.760869598388671875e+01 3.041096687316894531e+01 -1.070435252040624619e-02 -6.469929814338684082e-01 -1.973092108964920044e-01 1.049940064549446106e-01
7.730000000000000000e+02 7.076853942871093750e+01 3.826405715942382812e+01 -1.185931488871574402e-01 -8.874331414699554443e-02 -6.220093742012977600e-02 7.596882432699203491e-02
7.740000000000000000e+02 6.121211242675781250e+01 3.415116882324218750e+01 -1.775238215923309326e-01 3.456633985042572021e-01 5.044186860322952271e-02 -4.667720943689346313e-02
7.750000000000000000e+02 5.119398880004882812e+01 3.435655593872070312e+01 -3.425462171435356140e-02 1.844826936721801758e-01 4.506842046976089478e-02 -9.855166822671890259e-02
7.760000000000000000e+02 4.701734542846679688e+00 3.583400344848632812e+01 3.971274418290704489e-04 -4.060211591422557831e-03 -1.098925247788429260e-03 1.460945466533303261e-03
7.770000000000000000e+02 5.726888775825500488e-01 3.465938568115234375e+01 -1.743072934914380312e-04 -4.257753957062959671e-03 -1.329618273302912712e-03 2.427230356261134148e-04
7.780000000000000000e+02 7.704984283447265625e+01 3.324155044555664062e+01 -1.536044571548700333e-02 -5.353747606277465820e-01 -1.652205586433410645e-01 1.010355576872825623e-01
7.790000000000000000e+02 8.083887100219726562e-01 3.730408096313476562e+01 -9.777879313332960010e-05 -5.199121776968240738e-03 -1.589070190675556660e-03 1.863355137174949050e-04
7.800000000000000000e+02 7.737045288085937500e+01 3.644831085205078125e+01 -1.152609847486019135e-02 -4.789376854896545410e-01 -1.471391320228576660e-01 7.400676608085632324e-02
7.810000000000000000e+02 5.314089298248291016e+00 1.321254253387451172e+01 6.869901699246838689e-05 -4.462092329049482942e-05 7.223427019198425114e-06 -1.465254754293709993e-04
7.820000000000000000e+02 8.410327911376953125e+00 1.321551990509033203e+01 -2.189745100622531027e-05 -1.748701906763017178e-04 -5.903029523324221373e-05 -3.332643609610386193e-05
7.830000000000000000e+02 6.732102632522583008e-01 1.635245704650878906e+01 1.842804340412840247e-04 3.244500549044460058e-04 1.526191481389105320e-04 -4.379342499305494130e-05
7.840000000000000000e+02 4.048935890197753906e+00 1.021775817871093750e+01 -5.445189890451729298e-05 -3.681244925246573985e-05 -2.737930481089279056e-05 -8.432270078628789634e-06
7.850000000000000000e+02 9.860591888427734375e+00 1.254302883148193359e+01 -4.078823985764756799e-05 -1.474985037930309772e-04 -5.648602382279932499e-05 2.163421413570176810e-05
7.860000000000000000e+02 7.104629278182983398e-01 1.347926330566406250e+01 1.418066385667771101e-04 1.994442136492580175e-04 1.023752556648105383e-04 -4.001944398623891175e-05
7.870000000000000000e+02 3.686344623565673828e+00 4.741300106048583984e+00 -3.016641858266666532e-05 -1.487635654484620318e-05 -1.351283208350650966e-05 -1.213225277751917019e-05
7.880000000000000000e+02 1.014604187011718750e+01 6.319566249847412109e+00 -6.755285721737891436e-05 -1.753116703184787184e-05 -2.552520709286909550e-05 1.304426496062660590e-05
7.890000000000000000e+02 1.656603431701660156e+01 6.275943279266357422e+00 -5.548902117880061269e-05 -4.868655378231778741e-05 -3.125267176073975861e-05 -3.810270209214650095e-05
7.900000000000000000e+02 1.183744716644287109e+01 5.504209995269775391e+00 6.635930913034826517e-05 3.967242810176685452e-05 3.180952262482605875e-05 -6.867808224342297763e-06
7.910000000000000000e+02 5.814567804336547852e-01 9.247669219970703125e+00 -1.072351515176706016e-04 5.900877658859826624e-05 -1.446791156922699884e-05 3.834686594927916303e-06
7.920000000000000000e+02 5.774732589721679688e+00 1.890919446945190430e+00 -6.292257694440195337e-06 -2.019650855800136924e-05 -7.946629921207204461e-06 5.741973836848046631e-06
7.930000000000000000e+02 8.850969314575195312e+00 2.555792808532714844e+00 3.244831532356329262e-05 2.692463203857187182e-05 1.781188439053948969e-05 -7.586740139231551439e-06
7.940000000000000000e+02 6.055753827095031738e-01 6.432053565979003906e+00 -6.089044836699031293e-05 1.849289947131182998e-05 -1.271926430490566418e-05 5.364874141378095374e-06
7.950000000000000000e+02 1.976372528076171875e+01 4.113494396209716797e+00 -1.649041769269388169e-05 -3.388930781511589885e-05 -1.511391747044399381e-05 -9.341489203507080674e-06
7.960000000000000000e+02 3.721348190307617188e+01 1.674085807800292969e+01 -1.380053721368312836e-02 5.862699355930089951e-03 -2.381351543590426445e-03 5.719114094972610474e-03
7.970000000000000000e+02 3.516285705566406250e+01 1.441966152191162109e+01 -7.160544861108064651e-03 6.359510007314383984e-04 -1.957378117367625237e-03 4.809386562556028366e-03
7.980000000000000000e+02 4.109310150146484375e+01 1.167631435394287109e+01 -3.657076507806777954e-03 -9.473733371123671532e-04 -1.381334965117275715e-03 -1.149785588495433331e-03
7.990000000000000000e+02 3.527428054809570312e+01 1.300029850006103516e+01 -4.659879952669143677e-03 2.201983006671071053e-04 -1.331904553808271885e-03 2.711191540583968163e-03
8.000000000000000000e+02 3.741784667968750000e+01 1.187618160247802734e+01 -4.549375735223293304e-03 2.749958948697894812e-04 -1.282313955016434193e-03 5.167175550013780594e-04
8.010000000000000000e+02 3.555285644531250000e+01 6.675229072570800781e+00 -2.326256799278780818e-04 -3.757512604352086782e-04 -1.825130748329684138e-04 -1.293432142119854689e-04
8.020000000000000000e+02 3.755350112915039062e+01 7.068731784820556641e+00 1.031050458550453186e-03 -8.089966286206617951e-05 2.850452437996864319e-04 1.616756053408607841e-04
8.030000000000000000e+02 3.733087158203125000e+01 2.789424419403076172e+00 1.705753093119710684e-04 -5.284186408971436322e-05 3.532003393047489226e-05 -2.317669532203581184e-05
8.040000000000000000e+02 3.381091690063476562e+01 6.945542335510253906e+00 1.916412438731640577e-04 2.337056357646360993e-04 1.276040566153824329e-04 -8.677056030137464404e-05
8.050000000000000000e+02 8.908421516418457031e+00 -1.867744088172912598e+00 -4.447601437568664551e-01 4.829806275665760040e-03 -1.319791078567504883e-01 -1.644956320524215698e-01
8.060000000000000000e+02 3.028038978576660156e+00 -1.078146266937255859e+01 2.675431780517101288e-02 -4.501106142997741699e-01 -1.270068883895874023e-01 -2.157110869884490967e-01
8.070000000000000000e+02 4.329413414001464844e+00 -1.208172130584716797e+01 6.791790574789047241e-02 -3.574328422546386719e-01 -8.685448020696640015e-02 -2.388978451490402222e-01
8.080000000000000000e+02 9.001905441284179688e+00 -1.470283699035644531e+01 3.013369441032409668e-01 2.411777973175048828e-01 1.627544313669204712e-01 -1.467795222997665405e-01
8.090000000000000000e+02 1.287677097320556641e+01 -2.010003852844238281e+01 3.304467201232910156e-01 1.200628995895385742e+00 4.593227207660675049e-01 -1.166090816259384155e-01
8.100000000000000000e+02 8.922109603881835938e+00 -1.128292751312255859e+01 1.755221933126449585e-01 1.349101960659027100e-01 9.312971681356430054e-02 -2.860384881496429443e-01
8.110000000000000000e+02 9.985688209533691406e+00 -1.310417938232421875e+01 3.104990124702453613e-01 3.168151378631591797e-01 1.881942451000213623e-01 -1.753289848566055298e-01
8.120000000000000000e+02 1.291740798950195312e+01 -1.845135879516601562e+01 2.530308663845062256e-01 1.356152653694152832e+00 4.827550649642944336e-01 1.080513279885053635e-02
8.130000000000000000e+02 1.337703132629394531e+01 -1.441329479217529297e+01 4.997264146804809570e-01 1.015447616577148438e+00 4.545522332191467285e-01 1.819501668214797974e-01
8.140000000000000000e+02 1.252891731262207031e+01 -1.291652202606201172e+01 4.124670922756195068e-01 6.833828687667846680e-01 3.287549912929534912e-01 -8.314476348459720612e-03
8.150000000000000000e+02 1.531799697875976562e+01 -1.388854789733886719e+01 6.926569938659667969e-01 1.315325617790222168e+00 6.023947596549987793e-01 7.522475123405456543e-01
8.160000000000000000e+02 1.406726837158203125e+01 -1.053953933715820312e+01 3.731741011142730713e-01 5.863955020904541016e-01 2.878708839416503906e-01 -9.078977629542350769e-03
8.170000000000000000e+02 1.552868938446044922e+01 -1.270724582672119141e+01 8.011913299560546875e-01 9.627364277839660645e-01 5.291783213615417480e-01 5.752308368682861328e-01
8.180000000000000000e+02 9.611873626708984375e+00 -1.392914867401123047e+01 3.113663494586944580e-01 3.181515038013458252e-01 1.888553649187088013e-01 -1.564410626888275146e-01
8.190000000000000000e+02 1.315762042999267578e+01 -1.706849098205566406e+01 2.787047624588012695e-01 1.284271359443664551e+00 4.688928127288818359e-01 1.127100139856338501e-01
8.200000000000000000e+02 9.375750541687011719e+00 -2.108378410339355469e+01 2.433270215988159180e-01 3.515736758708953857e-01 1.784702092409133911e-01 9.587780386209487915e-02
8.210000000000000000e+02 9.534352302551269531e+00 -2.318270111083984375e+01 1.489303261041641235e-01 3.424935638904571533e-01 1.474271714687347412e-01 1.366366297006607056e-01
8.220000000000000000e+02 3.745617389678955078e+00 -2.227915382385253906e+01 4.928203299641609192e-02 -5.055745244026184082e-01 -1.368877589702606201e-01 1.044215485453605652e-01
8.230000000000000000e+02 1.279075622558593750e+01 -2.416886520385742188e+01 1.297704428434371948e-01 7.874206900596618652e-01 2.751573324203491211e-01 -1.288949046283960342e-02
8.240000000000000000e+02 1.180763816833496094e+01 -2.286969947814941406e+01 1.982221305370330811e-01 7.423710227012634277e-01 2.821779549121856689e-01 3.578139096498489380e-02
8.250000000000000000e+02 4.720456123352050781e+00 -2.166691207885742188e+01 8.348990231752395630e-02 -3.572310209274291992e-01 -8.212233334779739380e-02 1.013541072607040405e-01
8.260000000000000000e+02 7.675088405609130859e+00 -2.352742385864257812e+01 1.036002859473228455e-01 6.773487478494644165e-02 5.140054598450660706e-02 1.632432192564010620e-01
8.270000000000000000e+02 1.708230018615722656e+01 -2.452111625671386719e+01 3.588455319404602051e-01 6.134478449821472168e-01 2.916880249977111816e-01 -4.398289620876312256e-01
8.280000000000000000e+02 1.576318740844726562e+01 -2.775002098083496094e+01 5.347394198179244995e-02 5.518277287483215332e-01 1.815904974937438965e-01 -1.720021814107894897e-01
8.290000000000000000e+02 2.010757255554199219e+01 -2.748865890502929688e+01 2.606130242347717285e-01 2.788076996803283691e-01 1.618262082338333130e-01 -2.690939307212829590e-01
8.300000000000000000e+02 4.270242214202880859e+00 -2.721497344970703125e+01 -3.540932200849056244e-03 -3.428246974945068359e-01 -1.039096862077713013e-01 1.661705821752548218e-01
8.310000000000000000e+02 7.565941333770751953e+00 -2.581669044494628906e+01 2.597530558705329895e-02 3.962086141109466553e-02 1.967884972691535950e-02 1.863451749086380005e-01
8.320000000000000000e+02 1.682866859436035156e+01 -2.867825698852539062e+01 5.707167088985443115e-02 4.737498164176940918e-01 1.592464447021484375e-01 -1.706126481294631958e-01
8.330000000000000000e+02 1.980688858032226562e+01 -3.230126190185546875e+01 -1.344074774533510208e-02 2.960737943649291992e-01 8.478991687297821045e-02 -1.320254355669021606e-01
8.340000000000000000e+02 1.889398002624511719e+01 -2.869407081604003906e+01 1.384532749652862549e-01 3.551849722862243652e-01 1.480914801359176636e-01 -2.187907397747039795e-01
8.350000000000000000e+02 1.158492946624755859e+01 -3.282625961303710938e+01 -1.109790951013565063e-01 2.522724270820617676e-01 4.238799959421157837e-02 7.270012795925140381e-02
8.360000000000000000e+02 1.455129909515380859e+01 -2.911975669860839844e+01 -3.251556679606437683e-02 4.951202571392059326e-01 1.387813985347747803e-01 -6.745333224534988403e-02
8.370000000000000000e+02 2.427564048767089844e+01 -3.223710250854492188e+01 2.114334516227245331e-02 1.270974874496459961e-01 4.447225108742713928e-02 -1.121343374252319336e-01
8.380000000000000000e+02 2.269539451599121094e+01 -3.394383621215820312e+01 -5.416831932961940765e-03 1.898277997970581055e-01 5.532329156994819641e-02 -1.134903132915496826e-01
8.390000000000000000e+02 2.874891662597656250e+01 -2.961960029602050781e+01 -3.085747919976711273e-02 -4.551738500595092773e-03 -1.062276493757963181e-02 -1.557766832411289215e-02
8.400000000000000000e+02 2.804379272460937500e+01 -3.216198348999023438e+01 2.543142996728420258e-02 2.394461631774902344e-02 1.481281407177448273e-02 -4.016141220927238464e-02
8.410000000000000000e+02 3.384283828735351562e+01 -3.121625137329101562e+01 -4.779974464327096939e-03 6.292499601840972900e-03 4.537574423011392355e-04 1.522687729448080063e-03
8.420000000000000000e+02 3.497298812866210938e+01 -2.976192665100097656e+01 -1.158478204160928726e-02 6.579082924872636795e-03 -1.501709688454866409e-03 2.066942164674401283e-03
8.430000000000000000e+02 4.525768661499023438e+01 -3.068134117126464844e+01 -4.180394113063812256e-03 -1.254546688869595528e-03 -1.630482263863086700e-03 4.330511670559644699e-03
8.440000000000000000e+02 4.642756652832031250e+01 -2.942091560363769531e+01 -7.505898363888263702e-03 -3.840092802420258522e-03 -3.403797280043363571e-03 4.887704737484455109e-03
8.450000000000000000e+02 7.723832702636718750e+01 -3.239847946166992188e+01 -4.683626684709452093e-05 9.537432197248563170e-05 1.456141671951627359e-05 -5.433003752841614187e-05
8.460000000000000000e+02 7.446807861328125000e+01 -2.829166221618652344e+01 -1.637760033190716058e-05 1.380002686346415430e-06 -4.499279384617693722e-06 -3.314060450065881014e-05
8.470000000000000000e+02 7.187386322021484375e+01 -2.594889640808105469e+01 5.816069824504666030e-05 -2.602781205496285111e-05 9.639866220823023468e-06 -4.868454198003746569e-05
8.480000000000000000e+02 7.012859344482421875e+01 -2.546950149536132812e+01 6.053917604731395841e-05 -2.621327439555898309e-05 1.029777104122331366e-05 -2.759634844551328570e-05
8.490000000000000000e+02 6.887079620361328125e+01 -2.624192619323730469e+01 7.260171696543693542e-05 -5.729348777094855905e-05 4.592469849740155041e-06 2.587792005215305835e-05
8.500000000000000000e+02 6.667581939697265625e+01 -2.825493621826171875e+01 7.511193689424544573e-05 -7.864975486882030964e-05 -1.061345187736151274e-06 4.450622873264364898e-05
8.510000000000000000e+02 6.650377655029296875e+01 -3.023943710327148438e+01 -2.919778853538446128e-05 -1.014560475596226752e-04 -3.919615119230002165e-05 3.559188917279243469e-05
8.520000000000000000e+02 6.321633529663085938e+01 -3.143844795227050781e+01 -1.958047650987282395e-04 -5.771920405095443130e-05 -7.605719292769208550e-05 1.167252994491718709e-04
8.530000000000000000e+02 4.291406250000000000e+01 -2.575057983398437500e+01 -6.419678218662738800e-03 1.482578110881149769e-03 -1.481130137108266354e-03 3.400857793167233467e-03
8.540000000000000000e+02 3.757702255249023438e+01 -2.926113700866699219e+01 -9.576988406479358673e-03 7.013655733317136765e-03 -7.689998601563274860e-04 2.496415050700306892e-03
8.550000000000000000e+02 3.858871459960937500e+00 -3.431998443603515625e+01 -2.852120995521545410e-02 -2.473288327455520630e-01 -8.275501430034637451e-02 9.723538905382156372e-02
8.560000000000000000e+02 3.515001296997070312e+01 -3.476832199096679688e+01 8.144089952111244202e-03 1.362862158566713333e-02 6.531813647598028183e-03 -1.409087795764207840e-03
8.570000000000000000e+02 6.569944858551025391e+00 -3.808177185058593750e+01 -6.664601713418960571e-02 -6.735926121473312378e-02 -4.020158573985099792e-02 6.155392527580261230e-02
8.580000000000000000e+02 9.259952545166015625e+00 -3.844988250732421875e+01 -1.035300344228744507e-01 5.745706707239151001e-02 -1.382188871502876282e-02 5.827262625098228455e-02
8.590000000000000000e+02 6.735591888427734375e+01 -3.853148269653320312e+01 -5.652580512105487287e-05 -4.196025838609784842e-04 -1.428385148756206036e-04 2.169550498365424573e-05
8.600000000000000000e+02 7.082801818847656250e+01 -3.804197692871093750e+01 -4.330468800617381930e-05 -1.615584333194419742e-04 -6.145893712528049946e-05 3.340642433613538742e-05
8.610000000000000000e+02 7.515753936767578125e+01 -3.770309448242187500e+01 -9.510252129985019565e-05 3.976289735874161124e-05 -1.660188536334317178e-05 -6.829334597568958998e-05
8.620000000000000000e+02 7.955406951904296875e+01 -1.996895408630371094e+01 1.440914093109313399e-05 -1.352747290184197482e-06 3.916918103641364723e-06 -2.485642653482500464e-06
8.630000000000000000e+02 7.552139282226562500e+01 -1.900944137573242188e+01 1.415235692547867075e-05 -4.871779992754454724e-07 4.099553734704386443e-06 -3.271525429227040149e-06
8.640000000000000000e+02 7.148458862304687500e+01 -1.824257087707519531e+01 -6.758568815712351352e-06 5.530313842427858617e-07 -1.861661189650476445e-06 5.666102424584096298e-06
8.650000000000000000e+02 4.421630096435546875e+01 -2.308412551879882812e+01 -1.492019044235348701e-03 -9.580327314324676991e-04 -7.350154919549822807e-04 1.872230670414865017e-03
8.660000000000000000e+02 4.036830520629882812e+01 -2.447710227966308594e+01 -6.401531398296356201e-03 2.501809969544410706e-03 -1.169916475191712379e-03 1.317787682637572289e-03
8.670000000000000000e+02 4.552721405029296875e+01 -2.421421051025390625e+01 -1.370783662423491478e-03 -2.755291527137160301e-03 -1.237822580151259899e-03 2.047617221251130104e-03
8.680000000000000000e+02 3.937300109863281250e+01 -2.165003395080566406e+01 -2.568295691162347794e-03 8.122347935568541288e-05 -7.461216882802546024e-04 1.294862340728286654e-05
8.690000000000000000e+02 3.477129745483398438e+01 -8.774586677551269531e+00 -4.369252920150756836e-01 -2.099377363920211792e-01 -1.940589100122451782e-01 3.628735542297363281e-01
8.700000000000000000e+02 3.792683410644531250e+01 -9.714580535888671875e+00 -5.865639448165893555e-01 -3.781189918518066406e-01 -2.894048988819122314e-01 4.626209139823913574e-01
8.710000000000000000e+02 4.008727645874023438e+01 -1.094279289245605469e+01 -7.998379468917846680e-01 -3.784542679786682129e-01 -3.534876704216003418e-01 5.255852937698364258e-01
8.720000000000000000e+02 4.077801132202148438e+01 -1.134831523895263672e+01 -8.275103569030761719e-01 -3.450173139572143555e-01 -3.517583012580871582e-01 5.338281989097595215e-01
8.730000000000000000e+02 4.308938217163085938e+01 -1.190176296234130859e+01 -7.805715799331665039e-01 -6.922658532857894897e-02 -2.549394369125366211e-01 4.400789737701416016e-01
8.740000000000000000e+02 4.400823593139648438e+01 -1.349659919738769531e+01 -9.675143957138061523e-01 -1.287569385021924973e-02 -2.941170334815979004e-01 4.481694698333740234e-01
8.750000000000000000e+02 4.337195587158203125e+01 -1.306185817718505859e+01 -9.536672234535217285e-01 -8.370434492826461792e-02 -3.112114667892456055e-01 4.833323657512664795e-01
8.760000000000000000e+02 4.273212814331054688e+01 -1.262768173217773438e+01 -9.340620040893554688e-01 -1.816951334476470947e-01 -3.347271382808685303e-01 5.128095149993896484e-01
8.770000000000000000e+02 4.528366851806640625e+01 -1.436347675323486328e+01 -1.008694887161254883e+00 1.810207366943359375e-01 -2.483022361993789673e-01 3.476347029209136963e-01
8.780000000000000000e+02 4.591819000244140625e+01 -1.479660129547119141e+01 -1.019996285438537598e+00 2.390683442354202271e-01 -2.342783808708190918e-01 2.835410535335540771e-01
8.790000000000000000e+02 4.651216506958007812e+01 -1.524120998382568359e+01 -1.008408904075622559e+00 2.275823503732681274e-01 -2.342479526996612549e-01 1.981343775987625122e-01
8.800000000000000000e+02 5.448048019409179688e+01 -1.345569801330566406e+01 -1.690122008323669434e+00 1.111717056483030319e-02 -5.037014484405517578e-01 -2.804618477821350098e-01
8.810000000000000000e+02 5.467530059814453125e+01 -1.463644695281982422e+01 -2.249145030975341797e+00 -2.096900902688503265e-02 -6.810342073440551758e-01 -2.860715985298156738e-01
8.820000000000000000e+02 5.576908111572265625e+01 -1.328545665740966797e+01 -1.590555667877197266e+00 1.206858456134796143e-02 -4.735461175441741943e-01 -3.547788858413696289e-01
8.830000000000000000e+02 5.862377929687500000e+01 -1.411442756652832031e+01 -1.573526859283447266e+00 -1.607063598930835724e-02 -4.768792390823364258e-01 -3.846229314804077148e-01
8.840000000000000000e+02 5.946265411376953125e+01 -1.248536396026611328e+01 -1.385135769844055176e+00 1.416751183569431305e-02 -4.112904667854309082e-01 -5.049169659614562988e-01
8.850000000000000000e+02 6.834575653076171875e+01 -1.480382823944091797e+01 -9.738337248563766479e-02 -1.616078615188598633e-02 -3.406324982643127441e-02 4.551660269498825073e-02
8.860000000000000000e+02 6.972781372070312500e+01 -1.463946533203125000e+01 -1.433108597993850708e-01 1.488152984529733658e-02 -3.852880001068115234e-02 2.532717771828174591e-02
8.870000000000000000e+02 7.279376220703125000e+01 -1.367585182189941406e+01 -1.352000534534454346e-01 9.234581142663955688e-03 -3.778964281082153320e-02 -5.191747099161148071e-02
8.880000000000000000e+02 7.359027099609375000e+01 -1.440929317474365234e+01 -8.627896755933761597e-02 4.709409549832344055e-03 -2.447086572647094727e-02 -3.257703781127929688e-02
8.890000000000000000e+02 7.435818481445312500e+01 -1.368494319915771484e+01 -9.343211352825164795e-02 -1.736443606205284595e-03 -2.855056710541248322e-02 -5.080223828554153442e-02
8.900000000000000000e+02 7.592893218994140625e+01 -1.444537448883056641e+01 -3.808910772204399109e-02 -9.575029835104942322e-03 -1.429924182593822479e-02 -2.177711576223373413e-02
8.910000000000000000e+02 7.661805725097656250e+01 -1.453990268707275391e+01 -2.685306221246719360e-02 -9.111096151173114777e-03 -1.078924816101789474e-02 -1.448768097907304764e-02
8.920000000000000000e+02 7.835103607177734375e+01 -1.449167156219482422e+01 -6.780989933758974075e-03 -1.138376910239458084e-02 -5.449427757412195206e-03 -2.315247664228081703e-03
8.930000000000000000e+02 7.939726257324218750e+01 -1.146374893188476562e+01 -3.573510563001036644e-03 -2.598805911839008331e-02 -8.868470788002014160e-03 -1.505202241241931915e-02
8.940000000000000000e+02 7.897489166259765625e+01 -1.437638282775878906e+01 -5.045528523623943329e-04 -9.277517674490809441e-04 -4.296913975849747658e-04 3.546222578734159470e-03
8.950000000000000000e+02 7.964915466308593750e+01 -1.429980087280273438e+01 6.682854727841913700e-04 9.472870267927646637e-03 3.042346797883510590e-03 6.886293413117527962e-04
8.960000000000000000e+02 7.498073577880859375e+01 4.015794372558593750e+01 -4.795455560088157654e-02 -3.298204541206359863e-01 -1.133325025439262390e-01 2.457542717456817627e-02
8.970000000000000000e+02 7.872853851318359375e+01 4.002042388916015625e+01 1.018269453197717667e-02 -4.480349421501159668e-01 -1.313556730747222900e-01 2.584168128669261932e-02
8.980000000000000000e+02 7.670989990234375000e+01 3.880132293701171875e+01 -1.450916938483715057e-02 -4.346443414688110352e-01 -1.347460448741912842e-01 5.406384915113449097e-02
8.990000000000000000e+02 7.903589630126953125e+01 3.478977203369140625e+01 -3.060755552724003792e-03 -6.019982695579528809e-01 -1.815177202224731445e-01 3.324798867106437683e-02
9.000000000000000000e+02 7.922354888916015625e+01 2.918451881408691406e+01 -4.382593091577291489e-03 -8.476048707962036133e-01 -2.555962204933166504e-01 4.040004312992095947e-02
9.010000000000000000e+02 7.919225311279296875e+01 2.781325149536132812e+01 -3.184227272868156433e-03 -9.247940778732299805e-01 -2.783935070037841797e-01 4.712649434804916382e-02
9.020000000000000000e+02 7.930502319335937500e+01 2.220001029968261719e+01 2.090661320835351944e-03 -1.254116058349609375e+00 -3.756076097488403320e-01 3.972062841057777405e-02
9.030000000000000000e+02 7.800514221191406250e+01 2.082315826416015625e+01 7.647353224456310272e-03 -1.101333379745483398e+00 -3.281058073043823242e-01 9.198262542486190796e-02
9.040000000000000000e+02 7.937883758544921875e+01 1.800127220153808594e+01 4.410359077155590057e-03 -1.454742789268493652e+00 -4.350997507572174072e-01 2.423180267214775085e-02
9.050000000000000000e+02 7.815032958984375000e+01 1.668294143676757812e+01 1.609360426664352417e-02 -1.246480107307434082e+00 -3.691159486770629883e-01 4.701314494013786316e-02
9.060000000000000000e+02 7.935517120361328125e+01 1.096818637847900391e+01 2.548889257013797760e-03 -1.506546854972839355e+00 -4.511993825435638428e-01 -1.162004284560680389e-02
9.070000000000000000e+02 7.807532501220703125e+01 9.539054870605468750e+00 1.679874956607818604e-02 -1.211063623428344727e+00 -3.582794666290283203e-01 -5.688162520527839661e-02
9.080000000000000000e+02 7.809864044189453125e+01 6.671237468719482422e+00 1.357498392462730408e-02 -1.121676325798034668e+00 -3.324304223060607910e-01 -9.041526913642883301e-02
9.090000000000000000e+02 7.936962890625000000e+01 3.913099527359008789e+00 3.100191242992877960e-04 -1.184210062026977539e+00 -3.551700115203857422e-01 -4.165282472968101501e-02
9.100000000000000000e+02 7.813796234130859375e+01 2.428071737289428711e+00 8.827086538076400757e-03 -9.079607129096984863e-01 -2.697400748729705811e-01 -1.345253586769104004e-01
9.110000000000000000e+02 7.939258575439453125e+01 -3.085076093673706055e+00 2.093094633892178535e-03 -5.884079933166503906e-01 -1.758944690227508545e-01 -5.496816709637641907e-02
9.120000000000000000e+02 7.818446350097656250e+01 -4.487516880035400391e+00 -2.566031645983457565e-03 -4.208239614963531494e-01 -1.270169913768768311e-01 -1.508339792490005493e-01
9.130000000000000000e+02 7.821286010742187500e+01 -7.203510284423828125e+00 -1.116317976266145706e-02 -2.402603030204772949e-01 -7.542704790830612183e-02 -1.211014017462730408e-01
9.140000000000000000e+02 7.820056152343750000e+01 -1.125620841979980469e+01 -2.291758544743061066e-02 -6.048820167779922485e-02 -2.502173557877540588e-02 -4.878855869174003601e-02
9.150000000000000000e+02 3.987379074096679688e-01 2.164478540420532227e+00 3.025832847924903035e-05 9.768141353561077267e-06 1.200794122269144282e-05 -9.471512385061942041e-06
9.160000000000000000e+02 6.242312788963317871e-01 4.960772037506103516e+00 4.513911335379816592e-05 1.311344021814875305e-05 1.747576607158407569e-05 -1.045096269081113860e-05
9.170000000000000000e+02 1.824125170707702637e+00 6.444227218627929688e+00 8.333389268955215812e-05 2.539426714065484703e-05 3.261844904045574367e-05 -3.470284718787297606e-05
9.180000000000000000e+02 1.730297207832336426e+00 9.197343826293945312e+00 1.151035248767584562e-04 4.831479236599989235e-05 4.902549699181690812e-05 -5.711667836294509470e-05
9.190000000000000000e+02 6.512994170188903809e-01 1.205427932739257812e+01 -1.287270424654707313e-04 1.412869169143959880e-04 3.767959924516617320e-06 -1.483289634052198380e-05
9.200000000000000000e+02 1.931934356689453125e+00 1.191042041778564453e+01 1.558172225486487150e-04 7.964351243572309613e-05 7.063821976771578193e-05 -9.087313810596242547e-05
9.210000000000000000e+02 1.994566798210144043e+00 1.642178535461425781e+01 -2.006288123084232211e-04 1.799841847969219089e-04 -6.193385161168407649e-06 -7.613092748215422034e-05
9.220000000000000000e+02 1.818625926971435547e+00 1.922288322448730469e+01 -2.613464021123945713e-04 2.143313613487407565e-04 -1.410451568517601117e-05 -1.930043617903720587e-05
9.230000000000000000e+02 6.304584741592407227e-01 2.200298118591308594e+01 2.112069196300581098e-04 3.666229604277759790e-04 1.733489625621587038e-04 6.600087363040074706e-05
9.240000000000000000e+02 6.944730281829833984e-01 2.483783340454101562e+01 1.745279732858762145e-04 -1.000911433948203921e-04 2.233104714832734317e-05 1.869490952230989933e-04
9.250000000000000000e+02 7.144550085067749023e-01 2.626251602172851562e+01 -2.250217803521081805e-04 -4.995937342755496502e-04 -2.173846442019566894e-04 2.163497410947456956e-04
9.260000000000000000e+02 6.976867318153381348e-01 2.910626029968261719e+01 -2.089946938212960958e-04 -1.604301854968070984e-03 -5.439889500848948956e-04 3.028060018550604582e-04
9.270000000000000000e+02 2.091845512390136719e+00 2.920210838317871094e+01 1.059528076439164579e-04 -1.802926184609532356e-03 -5.090920021757483482e-04 9.822351858019828796e-04
9.280000000000000000e+02 6.082373857498168945e-01 3.330073928833007812e+01 2.065176377072930336e-04 -3.624466713517904282e-03 -1.025384641252458096e-03 2.808705612551420927e-04
9.290000000000000000e+02 6.354742050170898438e-01 3.599217224121093750e+01 1.736025878926739097e-04 -4.813606850802898407e-03 -1.392001286149024963e-03 2.051469637081027031e-04
9.300000000000000000e+02 1.344756484031677246e+00 4.004580307006835938e+01 -8.140932186506688595e-05 -5.656867288053035736e-03 -1.721482956781983376e-03 1.774745614966377616e-04
9.310000000000000000e+02 9.607085227966308594e+00 1.853037118911743164e+00 2.673954440979287028e-05 2.740972195169888437e-05 1.624477954464964569e-05 -2.889084953494602814e-06
9.320000000000000000e+02 8.842234611511230469e+00 1.852998852729797363e+00 -4.104091203771531582e-06 -2.903156928368844092e-05 -9.940697964339051396e-06 8.861046808306127787e-06
9.330000000000000000e+02 6.542923927307128906e+00 1.874718904495239258e+00 2.877288352465257049e-05 1.920273643918335438e-05 1.439268544345395640e-05 -1.313133998337434605e-05
9.340000000000000000e+02 5.004488468170166016e+00 1.913022994995117188e+00 2.343376218050252646e-05 1.788877671060618013e-05 1.239676112163579091e-05 -1.431754571967758238e-05
9.350000000000000000e+02 2.649245023727416992e+00 2.088438034057617188e+00 -2.060025326500181109e-05 -1.073500607162714005e-05 -9.400578164786566049e-06 7.561525450228145928e-08
9.360000000000000000e+02 1.873998403549194336e+00 2.061005115509033203e+00 1.953252285602502525e-05 2.765151657513342798e-05 1.415521182934753597e-05 8.755792805459350348e-06
9.370000000000000000e+02 1.036106681823730469e+01 1.855812549591064453e+00 -6.575569841515971348e-06 -3.198362901457585394e-05 -1.156775942945387214e-05 7.029573225736385211e-06
9.380000000000000000e+02 1.109358501434326172e+01 2.568514585494995117e+00 -1.465286732127424330e-05 -3.261657911934889853e-05 -1.418083411408588290e-05 8.678289304953068495e-06
9.390000000000000000e+02 1.332115268707275391e+01 1.879830598831176758e+00 -1.334449461865006015e-05 -3.478084545349702239e-05 -1.443760265829041600e-05 5.936991783528355882e-06
9.400000000000000000e+02 1.549713611602783203e+01 1.944187283515930176e+00 1.318320573773235083e-05 4.172584885964170098e-05 1.647271528781857342e-05 6.456600658566458151e-07
9.410000000000000000e+02 1.620765304565429688e+01 1.985410571098327637e+00 -7.452637873939238489e-06 -4.156035356572829187e-05 -1.470389725000131875e-05 -2.832314294209936634e-06
9.420000000000000000e+02 1.761128616333007812e+01 2.139557838439941406e+00 -1.584367237228434533e-05 -2.993878479173872620e-05 -1.373473696730798110e-05 -1.325136872765142471e-05
9.430000000000000000e+02 1.900292396545410156e+01 2.333819150924682617e+00 -2.172580207115970552e-05 -1.509582489234162495e-05 -1.104648799810092896e-05 -1.898862706184445415e-06
9.440000000000000000e+02 2.072184753417968750e+01 3.557049751281738281e+00 -3.132653000648133457e-05 -8.251835424744058400e-06 -1.187350972031708807e-05 -2.898032107623293996e-06
9.450000000000000000e+02 2.105929946899414062e+01 2.735724210739135742e+00 2.036304067587479949e-05 8.001974492799490690e-06 8.509504368703346699e-06 -5.115671683597611263e-06
9.460000000000000000e+02 2.323951911926269531e+01 3.530314683914184570e+00 -1.524400158814387396e-05 -1.855729533417616040e-05 -1.014038934954442084e-05 -9.564990250510163605e-06
9.470000000000000000e+02 2.237024497985839844e+01 4.418586254119873047e+00 1.683817026787437499e-05 3.175810707034543157e-05 1.457888265576912090e-05 1.512054950580932200e-05
9.480000000000000000e+02 1.978414916992187500e+01 5.236652374267578125e+00 -7.106929842848330736e-05 4.696956693805987015e-06 -1.991170393011998385e-05 -3.872542947647161782e-05
9.490000000000000000e+02 1.929656982421875000e+01 6.114809036254882812e+00 1.132411489379592240e-04 1.086274642148055136e-05 3.723116969922557473e-05 3.904359982698224485e-05
9.500000000000000000e+02 1.841183471679687500e+01 2.222650527954101562e+01 -1.133977994322776794e-02 -1.373705599689856172e-04 -3.443144960328936577e-03 -8.514535729773342609e-04
9.510000000000000000e+02 2.720211982727050781e+01 2.168910408020019531e+01 -3.794237971305847168e-02 -6.710936781018972397e-03 -1.339599490165710449e-02 1.503960881382226944e-02
9.520000000000000000e+02 2.864794349670410156e+01 2.123853302001953125e+01 -3.948988765478134155e-02 -1.751517690718173981e-02 -1.710151880979537964e-02 1.834184676408767700e-02
9.530000000000000000e+02 3.211152648925781250e+01 1.499364948272705078e+01 -2.578862477093935013e-03 -5.837955046445131302e-03 -2.525045303627848625e-03 4.198691342025995255e-03
9.540000000000000000e+02 3.386882400512695312e+01 5.519124507904052734e+00 -1.127899813582189381e-04 9.344721547677181661e-06 -3.103357812506146729e-05 -1.506238186266273260e-04
9.550000000000000000e+02 3.520497894287109375e+01 2.289079427719116211e+00 -1.763494947226718068e-04 5.446291106636635959e-05 -3.656597255030646920e-05 -1.162915868917480111e-04
9.560000000000000000e+02 3.650974273681640625e+01 3.417970657348632812e+00 3.500209422782063484e-04 -1.417138846591114998e-04 6.249212310649454594e-05 7.198716048151254654e-05
9.570000000000000000e+02 3.938680648803710938e+01 4.783131599426269531e+00 2.420183736830949783e-04 1.972023164853453636e-04 1.317662099609151483e-04 -1.135405545937828720e-05
9.580000000000000000e+02 3.921307373046875000e+01 5.932564258575439453e+00 -8.660096500534564257e-05 3.556351875886321068e-04 8.071026968536898494e-05 9.029708598973229527e-05
9.590000000000000000e+02 4.188898849487304688e+01 1.283220005035400391e+01 -5.075715947896242142e-03 -2.267738338559865952e-03 -2.203036332502961159e-03 -4.661092534661293030e-03
9.600000000000000000e+02 4.370132446289062500e+01 1.499919986724853516e+01 -1.535588409751653671e-02 -6.497391499578952789e-03 -6.555982865393161774e-03 -1.129662524908781052e-02
9.610000000000000000e+02 5.053284072875976562e+01 2.013126373291015625e+01 -4.307161644101142883e-02 -1.064733322709798813e-02 -1.611568406224250793e-02 -2.421551942825317383e-02
9.620000000000000000e+02 5.681068420410156250e+01 2.206788063049316406e+01 3.572106957435607910e-01 5.016738921403884888e-02 1.222134307026863098e-01 -1.151869669556617737e-01
9.630000000000000000e+02 6.271258544921875000e+01 1.506845092773437500e+01 1.012883260846138000e-01 2.090152025222778320e+00 6.574320793151855469e-01 -6.350773572921752930e-02
9.640000000000000000e+02 6.184740066528320312e+01 9.415748596191406250e+00 1.942017227411270142e-01 2.078860998153686523e+00 6.819188594818115234e-01 4.259617328643798828e-01
9.650000000000000000e+02 5.715824508666992188e+01 4.622979462146759033e-01 6.518117785453796387e-01 1.199621796607971191e+00 5.554300546646118164e-01 8.705327510833740234e-01
9.660000000000000000e+02 5.345484924316406250e+01 -3.893043756484985352e+00 1.542738676071166992e+00 1.212020874023437500e+00 8.264278769493103027e-01 1.339165449142456055e+00
9.670000000000000000e+02 4.744031524658203125e+01 -5.142507076263427734e+00 2.014325380325317383e+00 1.773744225502014160e-01 6.575099229812622070e-01 -3.048040568828582764e-01
9.680000000000000000e+02 4.494112396240234375e+01 -4.188014984130859375e+00 1.452309489250183105e+00 1.262052655220031738e-01 4.735544025897979736e-01 -3.905683755874633789e-01
9.690000000000000000e+02 3.869053649902343750e+01 -7.885458469390869141e-01 3.144011795520782471e-01 -3.836071491241455078e-02 8.281214535236358643e-02 -1.384831219911575317e-01
9.700000000000000000e+02 2.861105537414550781e+01 -2.067884922027587891e+00 5.989587400108575821e-03 5.153151601552963257e-02 1.725633069872856140e-02 6.792070716619491577e-02
9.710000000000000000e+02 2.723708534240722656e+01 -3.372926235198974609e+00 -8.371976763010025024e-02 5.827113986015319824e-02 -7.634588517248630524e-03 -8.032717742025852203e-03
9.720000000000000000e+02 2.768278312683105469e+01 -2.242519378662109375e+00 -9.886227548122406006e-03 3.039925731718540192e-02 6.153909023851156235e-03 3.195640072226524353e-02
9.730000000000000000e+02 2.705773925781250000e+01 -3.838485240936279297e+00 -1.352366060018539429e-01 6.071473658084869385e-02 -2.235655859112739563e-02 -6.207743659615516663e-02
9.740000000000000000e+02 2.697746658325195312e+01 -4.070657730102539062e+00 -1.594542562961578369e-01 6.425619125366210938e-02 -2.855942025780677795e-02 -7.469774037599563599e-02
9.750000000000000000e+02 2.673038291931152344e+01 -5.668663501739501953e+00 -7.911615967750549316e-01 3.281130194664001465e-01 -1.389145702123641968e-01 -2.838103771209716797e-01
9.760000000000000000e+02 2.672239685058593750e+01 -6.355848312377929688e+00 -1.226102352142333984e+00 6.016249060630798340e-01 -1.873432397842407227e-01 -3.527235612273216248e-02
9.770000000000000000e+02 2.342955780029296875e+01 -5.334567070007324219e+00 -7.184302210807800293e-01 -5.537043213844299316e-01 -3.816403448581695557e-01 7.844016551971435547e-01
9.780000000000000000e+02 2.311781120300292969e+01 -5.337265014648437500e+00 -7.464553117752075195e-01 -3.686240613460540771e-01 -3.345237970352172852e-01 7.070667147636413574e-01
9.790000000000000000e+02 2.357183456420898438e+01 -3.736324548721313477e+00 -1.270705759525299072e-01 -3.784074187278747559e-01 -1.516433954238891602e-01 3.473321199417114258e-01
9.800000000000000000e+02 2.366605377197265625e+01 -3.090775251388549805e+00 -7.007324695587158203e-02 -2.792861461639404297e-01 -1.048078164458274841e-01 2.340950667858123779e-01
9.810000000000000000e+02 2.377402305603027344e+01 -2.582771778106689453e+00 -5.791324004530906677e-02 -2.109547555446624756e-01 -8.066039532423019409e-02 1.711170226335525513e-01
9.820000000000000000e+02 2.354332542419433594e+01 -4.311551153659820557e-01 -5.443971604108810425e-02 -3.344400972127914429e-02 -2.636511810123920441e-02 3.609380125999450684e-02
9.830000000000000000e+02 2.431648635864257812e+01 -2.287157475948333740e-01 -2.180736511945724487e-02 -2.343718521296977997e-02 -1.357336528599262238e-02 5.577154923230409622e-03
9.840000000000000000e+02 2.273631477355957031e+01 -6.582486629486083984e-01 -1.097345203161239624e-01 -4.012851044535636902e-02 -4.495890811085700989e-02 9.020634740591049194e-02
9.850000000000000000e+02 1.885107231140136719e+01 -1.415218710899353027e+00 -5.223793983459472656e-01 6.091068685054779053e-02 -1.384406238794326782e-01 1.785770654678344727e-01
9.860000000000000000e+02 2.039188003540039062e+01 -1.157024621963500977e+00 -3.693239688873291016e-01 3.375294059514999390e-02 -1.006713062524795532e-01 1.965627670288085938e-01
9.870000000000000000e+02 2.116226196289062500e+01 -1.008955240249633789e+00 -2.829217910766601562e-01 8.332239463925361633e-03 -8.237686753273010254e-02 1.771001666784286499e-01
9.880000000000000000e+02 1.654428100585937500e+01 -1.667098641395568848e+00 -6.569792032241821289e-01 5.298784747719764709e-02 -1.811974197626113892e-01 7.287628203630447388e-02
9.890000000000000000e+02 1.577396583557128906e+01 -1.727460741996765137e+00 -6.765150427818298340e-01 4.651381075382232666e-02 -1.890003681182861328e-01 3.360730409622192383e-02
9.900000000000000000e+02 1.271009731292724609e+01 -1.849678516387939453e+00 -6.482036113739013672e-01 2.304740808904170990e-02 -1.875468492507934570e-01 -9.554814547300338745e-02
9.910000000000000000e+02 1.043512630462646484e+01 -1.867521524429321289e+00 -5.414640903472900391e-01 1.288839615881443024e-02 -1.585727035999298096e-01 -1.488236933946609497e-01
9.920000000000000000e+02 8.271059036254882812e+00 -2.602622747421264648e+00 -3.487705588340759277e-01 3.001167904585599899e-03 -1.037308126688003540e-01 -2.129425555467605591e-01
9.930000000000000000e+02 7.377791881561279297e+00 -1.868149757385253906e+00 -3.392214477062225342e-01 -4.188194405287504196e-03 -1.030228957533836365e-01 -1.659484952688217163e-01
9.940000000000000000e+02 6.762250900268554688e+00 -2.614101409912109375e+00 -2.628746032714843750e-01 -1.474549714475870132e-02 -8.328603208065032959e-02 -2.084225565195083618e-01
9.950000000000000000e+02 4.313883304595947266e+00 -1.933797478675842285e+00 -1.440508663654327393e-01 -2.592996321618556976e-02 -5.099425092339515686e-02 -1.266620308160781860e-01
9.960000000000000000e+02 2.168622732162475586e+00 -3.172989606857299805e+00 -4.106349870562553406e-02 -9.430602192878723145e-02 -4.061085730791091919e-02 -1.082438528537750244e-01
9.970000000000000000e+02 1.989106178283691406e+00 -2.073710203170776367e+00 -3.954484686255455017e-02 -4.707062989473342896e-02 -2.598464302718639374e-02 -6.000312417745590210e-02
9.980000000000000000e+02 3.998273313045501709e-01 -2.189281463623046875e+00 -2.620503772050142288e-03 -1.842058822512626648e-02 -6.312327925115823746e-03 -1.006523612886667252e-02
9.990000000000000000e+02 5.085269927978515625e+00 -4.031636047363281250e+01 -4.464298486709594727e-02 -1.548250317573547363e-01 -5.984040722250938416e-02 1.974342763423919678e-02
1.000000000000000000e+03 9.584701657295227051e-01 -3.869919967651367188e+01 -2.846950199455022812e-03 -3.008169531822204590e-01 -9.109917283058166504e-02 2.046934701502323151e-02
1.001000000000000000e+03 7.454746961593627930e-01 -3.320968627929687500e+01 -2.439734758809208870e-03 -4.735944271087646484e-01 -1.428102552890777588e-01 2.913095057010650635e-02
1.002000000000000000e+03 7.573934793472290039e-01 -3.181469917297363281e+01 -1.587964245118200779e-03 -5.315786004066467285e-01 -1.599499732255935669e-01 3.309617936611175537e-02
1.003000000000000000e+03 7.691565752029418945e-01 -2.611483573913574219e+01 1.389849465340375900e-03 -8.177896142005920410e-01 -2.449199408292770386e-01 4.184715822339057922e-02
1.004000000000000000e+03 1.786759376525878906e+00 -2.177549934387207031e+01 2.215958200395107269e-02 -8.352649211883544922e-01 -2.439316064119338989e-01 6.159250810742378235e-02
1.005000000000000000e+03 1.909553408622741699e+00 -1.905697059631347656e+01 2.344696596264839172e-02 -8.511382937431335449e-01 -2.483073920011520386e-01 7.677720859646797180e-03
1.006000000000000000e+03 6.051971912384033203e-01 -1.210061168670654297e+01 1.017534523271024227e-03 -8.368992209434509277e-01 -2.507644891738891602e-01 -4.622126370668411255e-02
1.007000000000000000e+03 1.950802803039550781e+00 -6.708399295806884766e+00 -8.096340112388134003e-03 -2.892795801162719727e-01 -8.921277523040771484e-02 -1.621270030736923218e-01
1.008000000000000000e+03 1.664797425270080566e+00 -4.640603542327880859e+00 -2.181018516421318054e-02 -1.674160957336425781e-01 -5.676788464188575745e-02 -1.173950806260108948e-01
1.009000000000000000e+03 7.966190338134765625e+01 -1.863328933715820312e+01 -1.154285018856171519e-05 -3.371309276190004312e-06 -4.474247816688148305e-06 1.061619286701898091e-06
1.010000000000000000e+03 7.941569519042968750e+01 -2.279756355285644531e+01 2.202276664320379496e-05 5.124868948769290000e-06 8.144290404743514955e-06 -2.061365421468508430e-06
1.011000000000000000e+03 7.825208282470703125e+01 -2.288908386230468750e+01 -2.462700831529218704e-05 1.103752310882555321e-05 -4.076845470990519971e-06 -8.305873961944598705e-06
1.012000000000000000e+03 7.933137512207031250e+01 -2.691990661621093750e+01 -3.343672869959846139e-05 4.662585706682875752e-05 3.956738510169088840e-06 -1.279460502701113001e-05
1.013000000000000000e+03 7.797918701171875000e+01 -2.708986473083496094e+01 4.086564513272605836e-05 4.071750663570128381e-05 2.447494443913456053e-05 -2.509692967578303069e-05
1.014000000000000000e+03 7.939668273925781250e+01 -3.096191215515136719e+01 5.971917926217429340e-05 1.188455280498601496e-04 5.356941255740821362e-05 -1.026260542857926339e-05
1.015000000000000000e+03 7.826821899414062500e+01 -3.232690429687500000e+01 5.529781628865748644e-05 1.129421143559738994e-04 5.047197919338941574e-05 -2.938323632406536490e-05
1.016000000000000000e+03 7.927463531494140625e+01 -3.498240661621093750e+01 -4.991201421944424510e-05 2.059808321064338088e-04 4.682064536609686911e-05 -2.013589073612820357e-05
1.017000000000000000e+03 7.751335906982421875e+01 -3.623245620727539062e+01 -7.147638098103925586e-05 1.458758488297462463e-04 2.231983853562269360e-05 -5.024367783335037529e-05
1.018000000000000000e+03 7.915409851074218750e+01 -3.902296066284179688e+01 3.900466981576755643e-05 2.147713821614161134e-04 7.613281195517629385e-05 -7.375261247943853959e-06
1.019000000000000000e+03 7.672332000732421875e+01 -2.034679031372070312e+01 -1.499466634413693100e-05 -5.289315595291554928e-06 -6.085194854676956311e-06 1.320205319643719122e-05
1.020000000000000000e+03 7.704373168945312500e+01 -1.837945938110351562e+01 -1.037533638736931607e-05 1.837903624846148887e-07 -3.057463800359982997e-06 6.561880582012236118e-06
1.021000000000000000e+03 7.639722442626953125e+01 -1.832291793823242188e+01 7.527294656028971076e-06 3.603381856009946205e-06 3.339202976349042729e-06 -7.162521796999499202e-06
1.022000000000000000e+03 7.357592010498046875e+01 -1.815112876892089844e+01 1.620617331354878843e-05 -1.589052885719866026e-06 4.385135980555787683e-06 -1.456465724913869053e-06
1.023000000000000000e+03 7.500166320800781250e+01 -1.819796371459960938e+01 1.082658764062216505e-05 -4.586961566133140877e-08 3.234215455449884757e-06 -1.018818466036464088e-06
1.024000000000000000e+03 7.218087005615234375e+01 -1.819172286987304688e+01 1.603495729796122760e-05 -1.870102551038144156e-06 4.249456196703249589e-06 -3.427228875807486475e-06
1.025000000000000000e+03 6.572267150878906250e+01 -2.529061508178710938e+01 1.477668120060116053e-04 8.128223998937755823e-05 6.871471850899979472e-05 4.869995609624311328e-05
1.026000000000000000e+03 6.144710922241210938e+01 -2.897854614257812500e+01 2.859159721992909908e-04 1.658884430071339011e-04 1.355413260171189904e-04 1.387227384839206934e-04
1.027000000000000000e+03 5.750050354003906250e+01 -3.074332618713378906e+01 -1.436869497410953045e-03 -3.457664861343801022e-04 -5.347908008843660355e-04 6.003337330184876919e-04
1.028000000000000000e+03 5.241165161132812500e+01 -3.286380004882812500e+01 -2.435092115774750710e-03 -3.682004520669579506e-03 -1.835128990933299065e-03 4.373958334326744080e-03
1.029000000000000000e+03 5.283876037597656250e+01 -3.080064392089843750e+01 -7.044668309390544891e-03 -1.011469517834484577e-03 -2.416841452941298485e-03 2.887967741116881371e-03
1.030000000000000000e+03 4.532607650756835938e+01 -2.154807853698730469e+01 -4.340236773714423180e-05 4.288149357307702303e-04 1.156237703980877995e-04 2.505315642338246107e-04
1.031000000000000000e+03 4.502172851562500000e+01 -1.908677291870117188e+01 -8.794771565590053797e-05 1.761920284479856491e-04 2.647329165483824909e-05 -1.606090663699433208e-04
1.032000000000000000e+03 4.366683197021484375e+01 -1.789963150024414062e+01 -9.111292456509545445e-05 8.956259080150630325e-06 -2.464700082782655954e-05 -2.010654716286808252e-04
1.033000000000000000e+03 4.248837661743164062e+01 -1.703260040283203125e+01 2.898189632105641067e-05 -7.847097003832459450e-05 -1.484672338847303763e-05 -1.530193403596058488e-04
1.034000000000000000e+03 3.982500839233398438e+01 -1.750271987915039062e+01 3.918735819752328098e-05 -2.855793572962284088e-04 -7.391760300379246473e-05 1.233919465448707342e-05
1.035000000000000000e+03 3.947228622436523438e+01 -1.500780868530273438e+01 2.582398883532732725e-04 -3.675752668641507626e-05 6.644471432082355022e-05 7.610950706293806434e-05
1.036000000000000000e+03 3.876384735107421875e+01 -1.461299419403076172e+01 8.277304004877805710e-05 -1.379981113132089376e-04 -1.656751919654197991e-05 3.164168811053968966e-05
1.037000000000000000e+03 3.798270416259765625e+01 -1.416120433807373047e+01 1.856372255133464932e-04 1.992439683817792684e-05 6.166848470456898212e-05 8.316840830957517028e-05
1.038000000000000000e+03 3.637644195556640625e+01 -1.326353740692138672e+01 8.378153870580717921e-05 5.240622340352274477e-05 4.085632826900109649e-05 4.441226337803527713e-05
1.039000000000000000e+03 3.516286468505859375e+01 -1.434481334686279297e+01 2.308421826455742121e-04 7.255405216710641980e-05 9.101886826101690531e-05 -5.396108099375851452e-05
1.040000000000000000e+03 3.419954681396484375e+01 -1.261275959014892578e+01 -1.153616613009944558e-04 -3.357596142450347543e-05 -4.468128463486209512e-05 2.450270221743267030e-05
1.041000000000000000e+03 3.516172409057617188e+01 -1.530101013183593750e+01 -2.195031265728175640e-04 6.956059223739430308e-05 -4.498276030062697828e-05 5.391142985899932683e-05
1.042000000000000000e+03 3.555987167358398438e+01 -2.071784210205078125e+01 -2.953048679046332836e-04 7.320887525565922260e-04 1.310351653955876827e-04 -3.743377601495012641e-05
1.043000000000000000e+03 3.133432388305664062e+01 -2.825415420532226562e+01 -3.035275824368000031e-02 -1.205136254429817200e-02 -1.272123679518699646e-02 -1.540010515600442886e-02
1.044000000000000000e+03 2.114048957824707031e+01 -2.843021965026855469e+01 2.399615049362182617e-01 2.354001998901367188e-01 1.426085084676742554e-01 -2.231695204973220825e-01
1.045000000000000000e+03 1.805360984802246094e+01 -2.555398750305175781e+01 3.419843614101409912e-01 4.732142984867095947e-01 2.445596009492874146e-01 -3.800839185714721680e-01
1.046000000000000000e+03 1.527355957031250000e+01 -2.228853034973144531e+01 4.228378534317016602e-01 1.206334352493286133e+00 4.887516498565673828e-01 -5.997906327247619629e-01
1.047000000000000000e+03 2.214528656005859375e+01 -1.109623813629150391e+01 1.544829607009887695e+00 6.895244121551513672e-02 4.841346144676208496e-01 3.235020637512207031e-01
1.048000000000000000e+03 2.764466667175292969e+01 -7.998944282531738281e+00 9.771556854248046875e-01 8.938849568367004395e-01 5.613121986389160156e-01 9.521580934524536133e-01
1.049000000000000000e+03 2.730380058288574219e+01 -3.001690673828125000e+01 -1.532638561911880970e-03 7.836597040295600891e-03 1.891187392175197601e-03 -2.758850902318954468e-02
1.050000000000000000e+03 2.341411209106445312e+01 -5.519340038299560547e+00 -8.205503821372985840e-01 -5.164842009544372559e-01 -4.011103808879852295e-01 7.937473654747009277e-01
1.051000000000000000e+03 2.198765182495117188e+01 -6.821835041046142578e+00 -6.797825694084167480e-01 1.384524554014205933e-01 -1.623990237712860107e-01 1.679931282997131348e-01
1.052000000000000000e+03 2.349336051940917969e+01 -4.177760124206542969e+00 -1.928455531597137451e-01 -4.642261266708374023e-01 -1.971215009689331055e-01 4.516518712043762207e-01
1.053000000000000000e+03 2.349227714538574219e+01 -3.946882247924804688e+00 -1.555551588535308838e-01 -4.214109182357788086e-01 -1.730898320674896240e-01 3.984374105930328369e-01
1.054000000000000000e+03 2.350379371643066406e+01 -4.762565612792968750e+00 -3.351877033710479736e-01 -5.791371464729309082e-01 -2.742974460124969482e-01 5.981853604316711426e-01
1.055000000000000000e+03 2.363862991333007812e+01 -3.336555480957031250e+00 -9.000515937805175781e-02 -3.191703855991363525e-01 -1.227526590228080750e-01 2.731359302997589111e-01
1.056000000000000000e+03 2.322753143310546875e+01 -4.435585021972656250e+00 -2.993259727954864502e-01 -4.425148069858551025e-01 -2.225522398948669434e-01 5.424997806549072266e-01
1.057000000000000000e+03 2.320080184936523438e+01 -4.960276603698730469e+00 -5.012108087539672852e-01 -4.540463984012603760e-01 -2.865771651268005371e-01 6.683092117309570312e-01
1.058000000000000000e+03 2.352376747131347656e+01 -4.572331905364990234e+00 -2.697614729404449463e-01 -5.445109605789184570e-01 -2.442817240953445435e-01 5.452926754951477051e-01
1.059000000000000000e+03 2.304594802856445312e+01 -3.881622076034545898e+00 -2.293617278337478638e-01 -3.287011981010437012e-01 -1.674188822507858276e-01 4.474900662899017334e-01
1.060000000000000000e+03 2.352546501159667969e+01 -4.380091667175292969e+00 -2.213474959135055542e-01 -5.094549655914306641e-01 -2.192407399415969849e-01 4.931411147117614746e-01
1.061000000000000000e+03 2.330664253234863281e+01 -3.532413721084594727e+00 -1.408291459083557129e-01 -3.306786119937896729e-01 -1.414523273706436157e-01 3.497360348701477051e-01
1.062000000000000000e+03 2.674929618835449219e+01 -5.462131977081298828e+00 -6.594050526618957520e-01 2.541563510894775391e-01 -1.215746104717254639e-01 -2.756634354591369629e-01
1.063000000000000000e+03 2.672666549682617188e+01 -5.883884429931640625e+00 -9.661152362823486328e-01 4.574410915374755859e-01 -1.526022404432296753e-01 -2.386542260646820068e-01
1.064000000000000000e+03 2.680792808532714844e+01 -4.854969978332519531e+00 -3.677976429462432861e-01 1.245254352688789368e-01 -7.298166304826736450e-02 -2.046535611152648926e-01
1.065000000000000000e+03 2.688458442687988281e+01 -4.466265678405761719e+00 -2.431412041187286377e-01 8.986124396324157715e-02 -4.598398879170417786e-02 -1.273076981306076050e-01
1.066000000000000000e+03 2.708683204650878906e+01 -4.834689140319824219e+00 -3.814207017421722412e-01 1.941363811492919922e-01 -5.618529766798019409e-02 -1.446644663810729980e-01
1.067000000000000000e+03 3.378490447998046875e+01 2.566244840621948242e+00 1.793742012523580343e-05 -1.830985420383512974e-04 -4.954833639203570783e-05 1.649145269766449928e-04
1.068000000000000000e+03 3.141409683227539062e+01 -2.972847700119018555e+00 1.027043089270591736e-01 1.345401536673307419e-02 3.484749794006347656e-02 2.520670592784881592e-01
1.069000000000000000e+03 3.026990127563476562e+01 -1.904265761375427246e+00 1.039136722683906555e-01 3.524321317672729492e-02 4.174706712365150452e-02 1.147014796733856201e-01
1.070000000000000000e+03 3.168567276000976562e+01 -7.892363548278808594e+00 -1.974186599254608154e-01 -1.192465722560882568e-01 -9.499956667423248291e-02 3.273477852344512939e-01
1.071000000000000000e+03 3.320455551147460938e+01 -8.279124259948730469e+00 -3.254405260086059570e-01 -1.550367474555969238e-01 -1.441431790590286255e-01 3.250454366207122803e-01
1.072000000000000000e+03 3.101694297790527344e+01 -6.563954353332519531e+00 -2.266130223870277405e-02 -5.150676146149635315e-02 -2.225041948258876801e-02 4.291443228721618652e-01
1.073000000000000000e+03 3.100248527526855469e+01 -7.287651538848876953e+00 -6.344561278820037842e-02 -9.978549182415008545e-02 -4.896933212876319885e-02 3.862220644950866699e-01
1.074000000000000000e+03 7.717470550537109375e+01 -1.461590576171875000e+01 -2.000466175377368927e-02 -7.810816168785095215e-03 -8.344643749296665192e-03 -1.092763710767030716e-02
1.075000000000000000e+03 7.754406738281250000e+01 -1.390342998504638672e+01 -2.545457892119884491e-02 -1.549522299319505692e-02 -1.228494010865688324e-02 -1.369434408843517303e-02
1.076000000000000000e+03 7.784941101074218750e+01 -1.240136528015136719e+01 -1.853747479617595673e-02 -3.105682693421840668e-02 -1.487829070538282394e-02 -3.213783353567123413e-02
1.077000000000000000e+03 7.774973297119140625e+01 -1.456643199920654297e+01 -9.751970879733562469e-03 -6.024335976690053940e-03 -4.732891917228698730e-03 -6.084403954446315765e-03
1.078000000000000000e+03 7.754898071289062500e+01 -1.940901184082031250e+01 -1.926568074850365520e-05 2.956337539217201993e-06 -4.892802735412260517e-06 4.737886229122523218e-06
1.079000000000000000e+03 7.834728240966796875e+01 -1.846215438842773438e+01 -7.714380444667767733e-06 5.069312436489781248e-08 -2.299106199643574655e-06 -9.583164484183726017e-08
1.080000000000000000e+03 7.944901275634765625e+01 -2.137575149536132812e+01 -1.600225186848547310e-05 2.853370233424357139e-06 -3.944664513255702332e-06 -4.617291438080428634e-07
1.081000000000000000e+03 3.802972793579101562e+01 -1.594512939453125000e+00 4.179928600788116455e-01 -1.218568757176399231e-01 8.884079754352569580e-02 -1.016606912016868591e-01
1.082000000000000000e+03 4.572872924804687500e+01 -1.357281112670898438e+01 -1.019210100173950195e+00 2.658008337020874023e-01 -2.260227650403976440e-01 3.746103048324584961e-01
1.083000000000000000e+03 6.903566741943359375e+01 -1.332439708709716797e+01 -3.404874503612518311e-01 4.464725032448768616e-02 -8.875206112861633301e-02 7.934124208986759186e-03
1.084000000000000000e+03 7.045611572265625000e+01 -1.384834194183349609e+01 -2.074695527553558350e-01 3.627466037869453430e-02 -5.135846883058547974e-02 -9.285421110689640045e-03
1.085000000000000000e+03 6.830012512207031250e+01 -1.404136371612548828e+01 -2.690183520317077637e-01 2.022797055542469025e-02 -7.463711500167846680e-02 6.529016047716140747e-02
1.086000000000000000e+03 2.178610610961914062e+01 2.928950548171997070e+00 -1.133807199948932976e-05 -9.139251233136747032e-06 -6.143196969787823036e-06 7.739657121419440955e-06
1.087000000000000000e+03 1.837011337280273438e+01 4.799720764160156250e+00 8.697545126779004931e-05 -4.531191279966151342e-06 2.473327731422614306e-05 1.755736957420594990e-05
1.088000000000000000e+03 1.806545639038085938e+01 2.992955923080444336e+00 -3.600565469241701066e-05 -1.748931390466168523e-05 -1.604849057912360877e-05 -1.756155870680231601e-05
1.089000000000000000e+03 2.037885284423828125e+01 2.593688726425170898e+00 -1.864672231022268534e-05 -1.241744121216470376e-05 -9.319249329564627260e-06 -2.475481437613780145e-07
1.090000000000000000e+03 2.138288497924804688e+01 3.703014135360717773e+00 2.407267129456158727e-05 6.877087344037136063e-07 7.428113804053282365e-06 -1.072847226168960333e-05
1.091000000000000000e+03 7.156358337402343750e+01 -1.896885681152343750e+01 2.562327426858246326e-05 -6.417555596271995455e-06 5.761715328844729811e-06 -5.541567588807083666e-06
1.092000000000000000e+03 6.994950103759765625e+01 -1.840258979797363281e+01 -6.782685431971913204e-06 -5.706138836103491485e-06 -3.746647280422621407e-06 6.624740080951596610e-07
1.093000000000000000e+03 7.096875762939453125e+01 -1.916462135314941406e+01 7.619069606334960554e-07 1.063262880052207038e-05 3.418360847717849538e-06 2.315463689228636213e-06
1.094000000000000000e+03 7.037661743164062500e+01 -1.972413444519042969e+01 4.591217020788462833e-06 -9.884978680929634720e-06 -1.588128384355513845e-06 7.233697488118195906e-06
1.095000000000000000e+03 1.610337257385253906e+01 2.637165546417236328e+00 8.007827091205399483e-06 5.231685281614772975e-05 1.809740388125646859e-05 3.292909241281449795e-06
1.096000000000000000e+03 1.830974578857421875e+01 2.228883981704711914e+00 2.278569627378601581e-05 2.007337388931773603e-05 1.285772123083006591e-05 8.765190614212770015e-06
1.097000000000000000e+03 1.874385452270507812e+01 3.110073804855346680e+00 3.689433287945576012e-05 1.240097299159970134e-05 1.478859121561981738e-05 1.641520270823093597e-06
1.098000000000000000e+03 1.675591087341308594e+01 2.716521978378295898e+00 -2.974307108161156066e-06 -5.210559902479872108e-05 -1.652397259022109210e-05 -1.483179767092224211e-05
1.099000000000000000e+03 3.709501266479492188e+01 4.321649551391601562e+00 7.189208408817648888e-04 -2.433690970065072179e-04 1.426655217073857784e-04 -2.049066242761909962e-04
1.100000000000000000e+03 3.661622619628906250e+01 2.623503684997558594e+00 -1.419021427864208817e-04 4.370767419459298253e-05 -2.945834239653777331e-05 -4.793085827259346843e-05
1.101000000000000000e+03 3.512164688110351562e+01 2.958921670913696289e+00 2.198665897594764829e-04 -1.029135892167687416e-04 3.508590089040808380e-05 5.609843810816528276e-06
1.102000000000000000e+03 3.721400833129882812e+01 3.600563526153564453e+00 -2.899291575886309147e-04 1.435079757357016206e-04 -4.392635673866607249e-05 8.135970711009576917e-05
1.103000000000000000e+03 3.580974578857421875e+01 3.212587833404541016e+00 -1.030540079227648675e-04 4.221206108923070133e-05 -1.825258368626236916e-05 -1.030067578540183604e-04
1.104000000000000000e+03 4.031658172607421875e+01 -1.640900230407714844e+01 1.010442356346175075e-04 -2.914942742791026831e-04 -5.713501377613283694e-05 1.012221559903991874e-07
1.105000000000000000e+03 4.153127670288085938e+01 -1.725922203063964844e+01 -6.039199797669425607e-05 -1.939057838171720505e-04 -7.628933235537260771e-05 -7.303257734747603536e-05
1.106000000000000000e+03 3.979367828369140625e+01 -1.601565742492675781e+01 1.853725989349186420e-04 -9.635143942432478070e-05 2.670634967216756195e-05 7.658258255105465651e-05
1.107000000000000000e+03 4.009955215454101562e+01 -1.538185596466064453e+01 1.787735236575827003e-04 -1.996428036363795400e-04 -6.260784175537992269e-06 -3.963095878134481609e-05
1.108000000000000000e+03 1.400177192687988281e+01 3.292511463165283203e+00 2.933965333795640618e-05 4.994948540115728974e-05 2.378674071223940700e-05 7.398785328405210748e-06
1.109000000000000000e+03 1.183265972137451172e+01 2.571390628814697266e+00 3.241157173761166632e-05 3.267502688686363399e-05 1.952597995114047080e-05 1.808374349820951466e-06
1.110000000000000000e+03 1.477698516845703125e+01 1.921672344207763672e+00 -1.347194847767241299e-05 -3.702421599882654846e-05 -1.514884934294968843e-05 5.025208338338416070e-06
1.111000000000000000e+03 1.543052673339843750e+01 2.616228818893432617e+00 -1.543883445265237242e-05 -4.054127930430695415e-05 -1.679403430898673832e-05 6.443335678341099992e-06
1.112000000000000000e+03 1.473423194885253906e+01 2.606856584548950195e+00 2.606378984637558460e-05 3.906968777300789952e-05 1.954004437720868737e-05 9.539323855278780684e-07
1.113000000000000000e+03 7.485511016845703125e+01 -1.891190147399902344e+01 -7.476244263671105728e-06 6.309810487437061965e-07 -2.053579009952954948e-06 1.218223701471288223e-06
1.114000000000000000e+03 7.351998138427734375e+01 -1.891534805297851562e+01 -1.453113600291544572e-05 3.235164058423833922e-06 -3.388791583347483538e-06 2.735703219514107332e-06
1.115000000000000000e+03 7.418622589111328125e+01 -1.890019989013671875e+01 2.103700353472959250e-05 -2.512639866836252622e-06 5.557309123105369508e-06 -2.975157720186416554e-08
1.116000000000000000e+03 4.230611801147460938e+01 -1.854537963867187500e+01 -2.241816837340593338e-04 -4.404104038258083165e-05 -8.046681614359840751e-05 -4.340962914284318686e-05
1.117000000000000000e+03 4.188874053955078125e+01 -1.662370491027832031e+01 1.937008782988414168e-04 -7.870115950936451554e-06 5.574923125095665455e-05 -6.986865628277882934e-05
1.118000000000000000e+03 4.213292694091796875e+01 -1.761270713806152344e+01 -3.820195615844568238e-06 -3.833810114883817732e-05 -1.264748971152585000e-05 -5.420392335508950055e-05
1.119000000000000000e+03 4.087819671630859375e+01 -1.689047813415527344e+01 1.423710200469940901e-04 -1.140156673500314355e-04 8.506604899594094604e-06 -2.235087958979420364e-05
1.120000000000000000e+03 1.398764228820800781e+01 3.994052410125732422e+00 -2.200398012064397335e-05 -5.645979763357900083e-05 -2.353913441766053438e-05 7.451079909515101463e-06
1.121000000000000000e+03 1.258637237548828125e+01 1.866937518119812012e+00 2.284625770698767155e-05 3.496064164210110903e-05 1.734207035042345524e-05 1.485641860199393705e-06
1.122000000000000000e+03 1.256812763214111328e+01 2.574749946594238281e+00 -1.726433401927351952e-05 -3.468514478299766779e-05 -1.558484291308559477e-05 9.918546311382669955e-06
1.123000000000000000e+03 1.329811000823974609e+01 2.581942081451416016e+00 2.751175816229078919e-05 3.954958447138778865e-05 2.011840297200251371e-05 2.911480578404734842e-06
1.124000000000000000e+03 1.142175674438476562e+01 -3.346956014633178711e+00 -4.224449694156646729e-01 5.900897830724716187e-02 -1.090307980775833130e-01 -1.886920779943466187e-01
1.125000000000000000e+03 1.054431629180908203e+01 -2.608210086822509766e+00 -4.662775099277496338e-01 2.669197879731655121e-02 -1.318756639957427979e-01 -1.846435368061065674e-01
1.126000000000000000e+03 1.206232929229736328e+01 -2.590557336807250977e+00 -5.284130573272705078e-01 4.231104627251625061e-02 -1.458306014537811279e-01 -1.416409760713577271e-01
1.127000000000000000e+03 4.644761276245117188e+01 -1.396520328521728516e+01 -1.088946461677551270e+00 3.143219649791717529e-01 -2.323873639106750488e-01 3.325343728065490723e-01
1.128000000000000000e+03 4.504754257202148438e+01 -1.317209529876708984e+01 -9.491968154907226562e-01 1.898503452539443970e-01 -2.278039306402206421e-01 4.018485248088836670e-01
1.129000000000000000e+03 4.439094161987304688e+01 -1.275487232208251953e+01 -8.972427845001220703e-01 1.099713519215583801e-01 -2.361814230680465698e-01 4.200324118137359619e-01
1.130000000000000000e+03 7.281030273437500000e+01 -1.442068386077880859e+01 -1.055872961878776550e-01 9.054379537701606750e-03 -2.895987406373023987e-02 -2.538222819566726685e-02
1.131000000000000000e+03 7.512143707275390625e+01 -1.370797824859619141e+01 -7.150151580572128296e-02 -1.141418889164924622e-02 -2.487471140921115875e-02 -4.462341964244842529e-02
1.132000000000000000e+03 7.589845275878906250e+01 -1.363575172424316406e+01 -4.951941594481468201e-02 -1.516785193234682083e-02 -1.940618082880973816e-02 -3.835421428084373474e-02
1.133000000000000000e+03 7.669329833984375000e+01 -1.334943580627441406e+01 -4.312305897474288940e-02 -2.233679965138435364e-02 -1.963795721530914307e-02 -3.394760191440582275e-02
1.134000000000000000e+03 1.424063396453857422e+01 -1.802014112472534180e+00 -6.840808987617492676e-01 3.382567688822746277e-02 -1.950765699148178101e-01 -3.889836370944976807e-02
1.135000000000000000e+03 1.371098232269287109e+01 -3.268029451370239258e+00 -4.867769479751586914e-01 9.973973780870437622e-02 -1.161111667752265930e-01 -8.403459191322326660e-02
1.136000000000000000e+03 1.282461929321289062e+01 -2.573812961578369141e+00 -5.519762635231018066e-01 5.061842873692512512e-02 -1.504073441028594971e-01 -1.130158230662345886e-01
1.137000000000000000e+03 1.359249591827392578e+01 -2.550706386566162109e+00 -5.724860429763793945e-01 6.042235717177391052e-02 -1.536190956830978394e-01 -7.663683593273162842e-02
1.138000000000000000e+03 1.513251495361328125e+01 -2.472131013870239258e+00 -5.933193564414978027e-01 7.975057512521743774e-02 -1.540706306695938110e-01 7.870370522141456604e-03
1.139000000000000000e+03 7.339412689208984375e+00 2.592018842697143555e+00 3.814469528151676059e-05 1.886874269985128194e-05 1.710403194010723382e-05 -1.462386990169761702e-05
1.140000000000000000e+03 8.096001625061035156e+00 2.568259716033935547e+00 -8.923667337512597442e-06 -3.017654671566560864e-05 -1.173006421595346183e-05 1.230486122949514538e-05
1.141000000000000000e+03 2.741895914077758789e+00 3.062171697616577148e+00 3.341043702675960958e-05 -5.380147740652319044e-06 8.409087058680597693e-06 -3.218525307602249086e-05
1.142000000000000000e+03 2.821520090103149414e+00 3.897887229919433594e+00 -1.761035309755243361e-05 -2.074895746773108840e-05 -1.150779371528187767e-05 2.667809894774109125e-05
1.143000000000000000e+03 4.277409553527832031e+00 2.818359613418579102e+00 2.968569970107637346e-05 1.657585744396783412e-05 1.387846714351326227e-05 -1.845710357883945107e-05
1.144000000000000000e+03 6.581895351409912109e+00 2.627586603164672852e+00 -1.308809260081034154e-05 -2.201551069447305053e-05 -1.053108098858501762e-05 7.438361990352859721e-06
1.145000000000000000e+03 5.818902969360351562e+00 2.676769971847534180e+00 3.459816798567771912e-05 1.517996133770793676e-05 1.493343916081357747e-05 -1.468363370804581791e-05
1.146000000000000000e+03 1.434440135955810547e+00 3.016279697418212891e+00 -9.640854841563850641e-06 -8.240149327320978045e-06 -5.364301159715978429e-06 -1.253305435966467485e-05
1.147000000000000000e+03 1.159331560134887695e+00 2.041242361068725586e+00 1.483355845266487449e-05 -2.250007855764124542e-05 -2.299955895068706013e-06 3.362092826364460052e-08
1.148000000000000000e+03 1.035251617431640625e+01 2.562913894653320312e+00 3.332476626383140683e-05 2.943673280242364854e-05 1.882845026557333767e-05 1.306416265833831858e-06
1.149000000000000000e+03 9.605200767517089844e+00 2.555839061737060547e+00 -7.845233994885347784e-06 -3.398825356271117926e-05 -1.255004644917789847e-05 8.704881111043505371e-06
1.150000000000000000e+03 8.143099784851074219e+00 -1.867083549499511719e+00 -3.922241330146789551e-01 3.308997838757932186e-04 -1.175679713487625122e-01 -1.663272082805633545e-01
1.151000000000000000e+03 9.786636352539062500e+00 -2.609311580657958984e+00 -4.294590055942535400e-01 1.930028945207595825e-02 -1.230476126074790955e-01 -1.994152814149856567e-01
1.152000000000000000e+03 5.847073078155517578e+00 -1.884745717048645020e+00 -2.356608659029006958e-01 -1.442525908350944519e-02 -7.502584159374237061e-02 -1.536726057529449463e-01
1.153000000000000000e+03 3.987785577774047852e+00 -3.843071460723876953e+00 -9.692762047052383423e-02 -8.807320147752761841e-02 -5.550024658441543579e-02 -2.000430524349212646e-01
1.154000000000000000e+03 3.198196172714233398e+00 -3.957838296890258789e+00 -6.987757235765457153e-02 -1.052332222461700439e-01 -5.253323912620544434e-02 -1.768640726804733276e-01
1.155000000000000000e+03 7.650953292846679688e+00 -3.334106206893920898e+00 -2.690590023994445801e-01 -6.080921739339828491e-03 -8.254197239875793457e-02 -2.507902383804321289e-01
1.156000000000000000e+03 7.515130996704101562e+00 -2.603284120559692383e+00 -3.056067824363708496e-01 -5.925335455685853958e-03 -9.345963597297668457e-02 -2.119948565959930420e-01
1.157000000000000000e+03 6.011427879333496094e+00 -2.644472122192382812e+00 -2.201872467994689941e-01 -2.431875839829444885e-02 -7.335180044174194336e-02 -1.999144107103347778e-01
1.158000000000000000e+03 2.773798227310180664e+00 -2.016607046127319336e+00 -6.962554156780242920e-02 -4.217996448278427124e-02 -3.354165330529212952e-02 -8.779314160346984863e-02
1.159000000000000000e+03 6.070576310157775879e-01 -4.984612464904785156e+00 -1.119756605476140976e-02 -1.928999423980712891e-01 -6.122925132513046265e-02 -5.104248598217964172e-02
1.160000000000000000e+03 4.374131393432617188e+01 -1.232966232299804688e+01 -8.340535759925842285e-01 5.102524533867835999e-03 -2.486853152513504028e-01 4.423275589942932129e-01
1.161000000000000000e+03 4.243399047851562500e+01 -1.147304153442382812e+01 -7.279824614524841309e-01 -1.600011885166168213e-01 -2.663950920104980469e-01 4.558235704898834229e-01
1.162000000000000000e+03 4.177309799194335938e+01 -1.105001831054687500e+01 -6.654810905456542969e-01 -2.197986096143722534e-01 -2.655839025974273682e-01 4.492221772670745850e-01
1.163000000000000000e+03 3.286303710937500000e+01 -2.580641746520996094e+00 2.240707278251647949e-01 5.617316439747810364e-02 8.407316356897354126e-02 1.894764006137847900e-01
1.164000000000000000e+03 3.465124130249023438e+01 -2.447844266891479492e+00 3.282707929611206055e-01 -8.369738608598709106e-02 7.337202876806259155e-02 1.006663814187049866e-01
1.165000000000000000e+03 3.226891326904296875e+01 -2.820066928863525391e+00 1.756864637136459351e-01 5.225983634591102600e-02 6.838389486074447632e-02 2.372753471136093140e-01
1.166000000000000000e+03 3.314496612548828125e+01 -4.189669132232666016e+00 1.342537850141525269e-01 -6.410589069128036499e-02 2.104436792433261871e-02 2.570396363735198975e-01
1.167000000000000000e+03 3.577831649780273438e+01 -1.343542575836181641e+00 3.721439242362976074e-01 -8.848575502634048462e-02 8.509745448827743530e-02 4.373615607619285583e-02
1.168000000000000000e+03 3.591407394409179688e+01 -3.529602527618408203e+00 3.435862362384796143e-01 -1.940682232379913330e-01 4.485540464520454407e-02 9.996002167463302612e-02
1.169000000000000000e+03 1.744302749633789062e+01 -2.232849121093750000e+00 -5.717861056327819824e-01 9.905875474214553833e-02 -1.418182104825973511e-01 1.500969827175140381e-01
1.170000000000000000e+03 1.757215499877929688e+01 -2.879510402679443359e+00 -5.291107892990112305e-01 1.458771228790283203e-01 -1.149701029062271118e-01 1.775241941213607788e-01
1.171000000000000000e+03 1.731560325622558594e+01 -1.588108658790588379e+00 -6.255466341972351074e-01 5.964067205786705017e-02 -1.697717905044555664e-01 1.121698915958404541e-01
1.172000000000000000e+03 1.590270709991455078e+01 -2.410365581512451172e+00 -5.935564041137695312e-01 8.774760365486145020e-02 -1.517426371574401855e-01 5.437119677662849426e-02
1.173000000000000000e+03 1.667528343200683594e+01 -2.330556154251098633e+00 -5.872657895088195801e-01 9.637413173913955688e-02 -1.472674906253814697e-01 1.038303524255752563e-01
1.174000000000000000e+03 2.318696403503417969e+01 -6.567950248718261719e+00 -1.363718271255493164e+00 -8.856037259101867676e-02 -4.356835782527923584e-01 2.359596788883209229e-01
1.175000000000000000e+03 2.467896270751953125e+01 -9.056525230407714844e+00 1.522265076637268066e+00 -6.797063946723937988e-01 2.527675926685333252e-01 2.931083142757415771e-01
1.176000000000000000e+03 2.239577674865722656e+01 -6.955612659454345703e+00 -7.989320755004882812e-01 9.543626755475997925e-02 -2.110487371683120728e-01 1.517260968685150146e-01
1.177000000000000000e+03 2.860963821411132812e+01 -8.276731491088867188e+00 1.322113871574401855e+00 4.408783614635467529e-01 5.288976430892944336e-01 6.736825704574584961e-01
1.178000000000000000e+03 2.713594055175781250e+01 -6.847802639007568359e+00 -1.203383803367614746e+00 9.318449497222900391e-01 -8.146166801452636719e-02 3.754815459251403809e-01
1.179000000000000000e+03 7.123841857910156250e+01 -1.451268863677978516e+01 -1.351888775825500488e-01 2.257795631885528564e-02 -3.378327563405036926e-02 -4.726857878267765045e-03
1.180000000000000000e+03 7.200074005126953125e+01 -1.373268508911132812e+01 -1.654660552740097046e-01 2.552884630858898163e-02 -4.198116436600685120e-02 -3.826737776398658752e-02
1.181000000000000000e+03 7.121841430664062500e+01 -1.379185867309570312e+01 -1.896716207265853882e-01 2.392808534204959869e-02 -4.972306266427040100e-02 -3.456514328718185425e-02
1.182000000000000000e+03 7.358403778076171875e+01 -1.365816783905029297e+01 -1.138032898306846619e-01 5.606694146990776062e-03 -3.245897963643074036e-02 -4.712974280118942261e-02
1.183000000000000000e+03 1.970903587341308594e+01 -1.868543863296508789e+00 -4.488567709922790527e-01 6.621425598859786987e-02 -1.147927567362785339e-01 2.506954073905944824e-01
1.184000000000000000e+03 1.962017822265625000e+01 -1.298844337463378906e+00 -4.510512650012969971e-01 4.823887348175048828e-02 -1.208437159657478333e-01 1.940985471010208130e-01
1.185000000000000000e+03 4.076821899414062500e+01 -9.527675628662109375e+00 -3.460239470005035400e-01 -2.757492661476135254e-01 -1.865319609642028809e-01 3.822320103645324707e-01
1.186000000000000000e+03 3.977550888061523438e+01 -9.812049865722656250e+00 -4.940181970596313477e-01 -3.539339303970336914e-01 -2.543856501579284668e-01 4.314182698726654053e-01
1.187000000000000000e+03 3.917117309570312500e+01 -9.310105323791503906e+00 -3.698849081993103027e-01 -3.659829795360565186e-01 -2.207603752613067627e-01 4.096302390098571777e-01
1.188000000000000000e+03 3.869939041137695312e+01 -1.006214904785156250e+01 -6.423894166946411133e-01 -4.029852449893951416e-01 -3.136124014854431152e-01 4.794177412986755371e-01
1.189000000000000000e+03 3.711409759521484375e+01 -9.498961448669433594e+00 -5.644557476043701172e-01 -3.522851467132568359e-01 -2.750222682952880859e-01 4.451806247234344482e-01
1.190000000000000000e+03 3.432092285156250000e+01 -7.150116443634033203e+00 -1.302011311054229736e-01 -2.213222831487655640e-01 -1.054570227861404419e-01 3.286358118057250977e-01
1.191000000000000000e+03 3.728069305419921875e+01 -8.656014442443847656e+00 -3.321374952793121338e-01 -3.511732220649719238e-01 -2.049932181835174561e-01 4.127722084522247314e-01
1.192000000000000000e+03 3.495493316650390625e+01 -8.059428215026855469e+00 -2.872658967971801758e-01 -2.421128898859024048e-01 -1.588136404752731323e-01 3.533323109149932861e-01
1.193000000000000000e+03 3.416284942626953125e+01 -7.843831539154052734e+00 -2.510311305522918701e-01 -1.989409923553466797e-01 -1.349916309118270874e-01 3.436688184738159180e-01
1.194000000000000000e+03 3.805651473999023438e+01 -8.780193328857421875e+00 -3.098600804805755615e-01 -3.779563605785369873e-01 -2.063449323177337646e-01 4.018126130104064941e-01
1.195000000000000000e+03 3.256140136718750000e+01 -7.427870273590087891e+00 -1.680910140275955200e-01 -1.355861872434616089e-01 -9.110315889120101929e-02 3.414105772972106934e-01
1.196000000000000000e+03 2.415013122558593750e+01 -1.009016394615173340e+00 -3.571948036551475525e-02 -4.843718558549880981e-02 -2.524699829518795013e-02 3.232310339808464050e-02
1.197000000000000000e+03 2.815618515014648438e+01 -3.269346475601196289e+00 -9.949756413698196411e-02 1.059125959873199463e-01 1.924508484080433846e-03 5.381612852215766907e-02
1.198000000000000000e+03 2.864109611511230469e+01 -2.624211788177490234e+00 -2.183485589921474457e-02 6.633799523115158081e-02 1.335094124078750610e-02 8.721897006034851074e-02
1.199000000000000000e+03 2.274253082275390625e+01 -1.218799591064453125e+00 -1.293442845344543457e-01 -6.570125371217727661e-02 -5.851366370916366577e-02 1.364452838897705078e-01
1.200000000000000000e+03 2.327885627746582031e+01 -2.447587966918945312e+00 -1.051115691661834717e-01 -1.845666468143463135e-01 -8.690346032381057739e-02 2.111970633268356323e-01
1.201000000000000000e+03 2.396369552612304688e+01 -1.808348536491394043e+00 -3.620621189475059509e-02 -1.250555813312530518e-01 -4.837853834033012390e-02 8.392153680324554443e-02
1.202000000000000000e+03 3.688050460815429688e+01 -1.455888462066650391e+01 1.302176679018884897e-04 8.322101348312571645e-05 6.403160659829154611e-05 1.329779479419812560e-04
1.203000000000000000e+03 3.513174819946289062e+01 -1.359967708587646484e+01 -8.855302439769729972e-05 3.753456257982179523e-05 -1.530553709017112851e-05 6.569435936398804188e-05
1.204000000000000000e+03 3.457189559936523438e+01 -1.370081329345703125e+01 9.398801194038242102e-05 6.418840257538249716e-06 3.012205525010358542e-05 1.332338797510601580e-06
1.205000000000000000e+03 1.883272361755371094e+01 7.120607852935791016e+00 -1.231310743605718017e-04 -3.199916318408213556e-05 -4.653906944440677762e-05 -5.063574280939064920e-05
1.206000000000000000e+03 1.922544097900390625e+01 4.664907455444335938e+00 -1.615777000552043319e-05 1.731313022901304066e-05 3.466081750502780778e-07 2.782965020742267370e-05
1.207000000000000000e+03 3.760633087158203125e+01 -1.499280071258544922e+01 4.916719262837432325e-05 -1.475728786317631602e-04 -2.952170507342088968e-05 9.780384425539523363e-05
1.208000000000000000e+03 3.715430450439453125e+01 -1.371070003509521484e+01 -1.108298602048307657e-05 -5.911738844588398933e-05 -2.106011197611223906e-05 1.315160989179275930e-05
1.209000000000000000e+03 3.598090362548828125e+01 -2.022397279739379883e+00 3.916741907596588135e-01 -1.281337887048721313e-01 7.906211912631988525e-02 2.879311703145503998e-02
1.210000000000000000e+03 3.443611907958984375e+01 2.742532491683959961e+00 -3.479217411950230598e-04 2.322617074241861701e-04 -3.469801231403835118e-05 -1.146590439020656049e-04
1.211000000000000000e+03 3.442926025390625000e+01 2.138954639434814453e+00 1.560235104989260435e-04 1.608605634828563780e-05 5.163286914466880262e-05 9.233863238478079438e-05
1.212000000000000000e+03 6.924361419677734375e+01 -1.898213386535644531e+01 -2.397021125943865627e-05 -5.825650077895261347e-06 -8.938758583099115640e-06 -1.476995566918049008e-05
1.213000000000000000e+03 6.863153839111328125e+01 -2.048573875427246094e+01 4.568440635921433568e-05 4.610496944223996252e-06 1.508847071818308905e-05 -1.018517014017561451e-05
1.214000000000000000e+03 2.456408119201660156e+01 -1.022464942932128906e+01 1.951376557350158691e+00 3.053267896175384521e-01 6.770110130310058594e-01 8.918705582618713379e-01
1.215000000000000000e+03 4.323131561279296875e+01 -1.942201423645019531e+01 -3.004377649631351233e-04 -3.887714774464257061e-05 -1.017944741761311889e-04 9.361742741020862013e-06
1.216000000000000000e+03 4.495174407958984375e+01 -2.050745773315429688e+01 -2.166008925996720791e-04 2.475338114891201258e-04 9.279877303924877197e-06 5.026776489103212953e-05
1.217000000000000000e+03 5.592935562133789062e+01 2.485010910034179688e+01 1.825341433286666870e-01 1.752038151025772095e-01 1.073213890194892883e-01 -2.551775574684143066e-01
1.218000000000000000e+03 1.278605175018310547e+01 2.078001213073730469e+01 -2.016355050727725029e-03 1.408831594744697213e-04 -5.626415368169546127e-04 -2.169375329685863107e-05
1.219000000000000000e+03 5.988056564331054688e+01 -1.377349662780761719e+01 -1.405796647071838379e+00 -7.584203779697418213e-02 -4.444915950298309326e-01 -5.127902626991271973e-01
1.220000000000000000e+03 5.705025482177734375e+01 -1.309957695007324219e+01 -1.474134325981140137e+00 1.265521440654993057e-02 -4.384437203407287598e-01 -4.397278726100921631e-01
1.221000000000000000e+03 5.828722763061523438e+01 -1.284366416931152344e+01 -1.402281403541564941e+00 3.543756902217864990e-02 -4.100531339645385742e-01 -5.086083412170410156e-01
1.222000000000000000e+03 5.204553985595703125e+01 -1.497178554534912109e+01 -2.301691770553588867e+00 -4.562794789671897888e-02 -7.041959166526794434e-01 -2.797448337078094482e-01
1.223000000000000000e+03 6.855728149414062500e+01 -1.237038612365722656e+01 -4.889696538448333740e-01 5.542445927858352661e-02 -1.300635486841201782e-01 -5.693858489394187927e-02
1.224000000000000000e+03 5.196494674682617188e+01 -1.385797691345214844e+01 -1.726502299308776855e+00 5.857453122735023499e-02 -5.003783106803894043e-01 -1.032348573207855225e-01
1.225000000000000000e+03 5.321215438842773438e+01 -1.365446090698242188e+01 -1.717919588088989258e+00 6.724094972014427185e-03 -5.133586525917053223e-01 -2.211856395006179810e-01
1.226000000000000000e+03 1.220326423645019531e+01 1.881123924255371094e+01 -4.573802580125629902e-04 -1.076886692317202687e-04 -1.695206883596256375e-04 -2.034614772128406912e-05
1.227000000000000000e+03 5.533234405517578125e+01 2.362128257751464844e+01 2.884027361869812012e-01 6.571409851312637329e-02 1.062350496649742126e-01 -2.097680270671844482e-01
1.228000000000000000e+03 1.510027980804443359e+01 2.238637161254882812e+01 -5.644544027745723724e-03 7.091352017596364021e-04 -1.480622566305100918e-03 9.341521654278039932e-04
1.229000000000000000e+03 7.820510101318359375e+01 -1.944465446472167969e+01 1.735395380819682032e-05 -1.499352492828620598e-06 4.756380349135724828e-06 2.754286015260731801e-06
1.230000000000000000e+03 7.820262908935546875e+01 -3.108275985717773438e+01 -4.852925849263556302e-05 9.779473475646227598e-05 1.477964178775437176e-05 -3.735996506293304265e-05
1.231000000000000000e+03 7.936270141601562500e+01 -2.962504386901855469e+01 -5.121642607264220715e-05 9.287332795793190598e-05 1.249707111128373072e-05 -1.390128454659134150e-05
1.232000000000000000e+03 7.938402557373046875e+01 -2.418230056762695312e+01 -2.410728302493225783e-05 1.602749034645967185e-05 -2.423937985440716147e-06 -7.482657110813306645e-06
1.233000000000000000e+03 7.917111968994140625e+01 -3.634994125366210938e+01 2.199574919359292835e-05 2.174680121243000031e-04 7.183913112385198474e-05 5.163934929441893473e-06
1.234000000000000000e+03 7.728479766845703125e+01 -3.774768447875976562e+01 6.370620212692301720e-06 1.846632221713662148e-04 5.731015335186384618e-05 -1.768328047546674497e-06
1.235000000000000000e+03 7.936751556396484375e+01 -3.363573074340820312e+01 6.128820677986368537e-05 1.757337886374443769e-04 7.110660226317122579e-05 -8.483449164486955851e-06
1.236000000000000000e+03 7.815576171875000000e+01 -3.356187057495117188e+01 -6.100500104366801679e-05 1.400266628479585052e-04 2.370649781369138509e-05 -4.276416439097374678e-05
1.237000000000000000e+03 7.817007446289062500e+01 -2.429941749572753906e+01 3.694847691804170609e-05 1.204010732180904597e-05 1.469657490815734491e-05 -1.311454252572730184e-05
1.238000000000000000e+03 7.798124694824218750e+01 -2.847165489196777344e+01 -3.709224256454035640e-05 5.540002530324272811e-05 5.492334821610711515e-06 -3.340605690027587116e-05
1.239000000000000000e+03 7.755766296386718750e+01 -3.927288436889648438e+01 -1.804567727958783507e-05 1.823958591558039188e-04 4.930505747324787080e-05 7.402579285553656518e-06
1.240000000000000000e+03 3.114233779907226562e+01 2.301491737365722656e+01 -1.616554707288742065e-02 -5.579967983067035675e-03 -6.523654330521821976e-03 4.562038462609052658e-03
1.241000000000000000e+03 1.449112129211425781e+01 1.088011264801025391e+01 1.120702436310239136e-04 8.428421278949826956e-05 5.890633838134817779e-05 6.673826283076778054e-05
1.242000000000000000e+03 2.031032180786132812e+01 2.443552398681640625e+01 -1.318835932761430740e-02 -3.007621970027685165e-03 -4.858794622123241425e-03 7.387690711766481400e-03
1.243000000000000000e+03 4.301280593872070312e+01 -2.445668029785156250e+01 -5.064138211309909821e-03 5.582114099524915218e-04 -1.351777929812669754e-03 3.289347048848867416e-03
1.244000000000000000e+03 1.460939884185791016e+01 1.395446491241455078e+01 -1.520438236184418201e-04 2.709138498175889254e-04 3.566100713214837015e-05 -5.023023913963697851e-05
1.245000000000000000e+03 1.590049457550048828e+01 7.140909671783447266e+00 4.875530066783539951e-05 4.848479511565528810e-05 2.917202800745144486e-05 4.747030470753088593e-05
1.246000000000000000e+03 2.653626441955566406e+01 2.351175880432128906e+01 -2.308607473969459534e-02 -7.393149659037590027e-03 -9.143766947090625763e-03 1.234176941215991974e-02
1.247000000000000000e+03 2.453922080993652344e+01 2.242090797424316406e+01 -3.010386042296886444e-02 -2.302792388945817947e-03 -9.721995331346988678e-03 9.288094937801361084e-03
1.248000000000000000e+03 2.318880462646484375e+01 2.537066459655761719e+01 -1.285316981375217438e-02 -5.519782193005084991e-03 -5.511885508894920349e-03 8.553919382393360138e-03
1.249000000000000000e+03 3.404046630859375000e+01 1.269317817687988281e+01 -2.590205287560820580e-03 -8.520178962498903275e-04 -1.032667001709342003e-03 2.317505422979593277e-03
1.250000000000000000e+03 3.725519180297851562e+01 4.983906269073486328e+00 -6.720287492498755455e-04 -2.276693267049267888e-04 -2.699094184208661318e-04 3.467987698968499899e-04
1.251000000000000000e+03 2.421977233886718750e+01 2.450751876831054688e+01 -1.741598732769489288e-02 -5.723199341446161270e-03 -6.941756233572959900e-03 8.761760778725147247e-03
1.252000000000000000e+03 3.378456497192382812e+01 1.406975269317626953e+01 -4.299599211663007736e-03 -1.722073531709611416e-03 -1.806501764804124832e-03 4.408915992826223373e-03
1.253000000000000000e+03 3.428181457519531250e+01 1.134729766845703125e+01 -1.398831256665289402e-03 -2.668765373528003693e-04 -4.997123614884912968e-04 1.003901939839124680e-03
1.254000000000000000e+03 3.299409484863281250e+01 1.684642219543457031e+01 -9.811554104089736938e-03 -4.907486494630575180e-03 -4.415712319314479828e-03 9.698280133306980133e-03
1.255000000000000000e+03 3.310930633544921875e+01 1.097215938568115234e+01 -4.173627239651978016e-04 3.468610520940274000e-04 -2.115050665452145040e-05 1.048732883646152914e-04
1.256000000000000000e+03 1.907167243957519531e+01 2.419180107116699219e+01 -1.327303145080804825e-02 -5.207482026889920235e-04 -4.138133954256772995e-03 4.628275986760854721e-03
1.257000000000000000e+03 1.812341880798339844e+01 5.744930744171142578e+00 -9.707870776765048504e-05 -3.316575384815223515e-05 -3.907334030373021960e-05 -4.052756412420421839e-05
1.258000000000000000e+03 1.691454696655273438e+01 7.606815338134765625e+00 -8.551964856451377273e-05 -2.739234514592681080e-05 -3.387359902262687683e-05 -5.499559847521595657e-05
1.259000000000000000e+03 1.760787963867187500e+01 6.680457115173339844e+00 9.940232848748564720e-05 5.476286605698987842e-05 4.624955909093841910e-05 4.980236917617730796e-05
1.260000000000000000e+03 1.525230789184570312e+01 9.671611785888671875e+00 -1.060378272086381912e-04 3.878465940942987800e-05 -2.017595033976249397e-05 -4.876731691183522344e-05
1.261000000000000000e+03 5.187750244140625000e+01 2.054578781127929688e+01 -2.764099277555942535e-02 -9.990082122385501862e-03 -1.128932274878025055e-02 -1.973304897546768188e-02
1.262000000000000000e+03 3.930162048339843750e+01 1.092789840698242188e+01 -3.286143066361546516e-03 8.569060446461662650e-05 -9.601357160136103630e-04 -3.981036425102502108e-04
1.263000000000000000e+03 4.756639862060546875e+01 -2.816305351257324219e+01 -9.691294282674789429e-03 -7.562205195426940918e-03 -5.176049657166004181e-03 8.285280317068099976e-03
1.264000000000000000e+03 4.995380020141601562e+01 -2.989517974853515625e+01 -1.179499831050634384e-02 -4.852435085922479630e-03 -4.994229879230260849e-03 6.797065958380699158e-03
1.265000000000000000e+03 5.592313385009765625e+01 -3.324521255493164062e+01 -1.631992519833147526e-03 -1.384477480314671993e-03 -9.049410000443458557e-04 2.126204315572977066e-03
1.266000000000000000e+03 5.067233276367187500e+01 -3.214791870117187500e+01 -3.797285957261919975e-03 -4.628584720194339752e-03 -2.527761273086071014e-03 5.095625296235084534e-03
1.267000000000000000e+03 4.274302291870117188e+01 1.394612789154052734e+01 -1.182233076542615891e-02 -5.178449209779500961e-03 -5.100233945995569229e-03 -6.527717225253582001e-03
1.268000000000000000e+03 3.859604263305664062e+01 6.715040206909179688e+00 -8.585414616391062737e-04 -3.081749018747359514e-04 -3.500149177853018045e-04 4.922931548207998276e-04
1.269000000000000000e+03 3.651831436157226562e+01 7.132900238037109375e+00 -2.785828546620905399e-04 -1.541004166938364506e-04 -1.298049755860120058e-04 -2.439736272208392620e-04
1.270000000000000000e+03 4.729999542236328125e+01 2.235316848754882812e+01 1.950981654226779938e-02 1.263717422261834145e-03 6.232060492038726807e-03 -1.065638102591037750e-02
1.271000000000000000e+03 4.692664718627929688e+01 1.786691093444824219e+01 -3.530094400048255920e-02 -1.564749144017696381e-02 -1.528452988713979721e-02 -2.061383984982967377e-02
1.272000000000000000e+03 6.757582092285156250e+01 -2.312823486328125000e+01 8.130582136800512671e-05 4.049962444696575403e-05 3.654163447208702564e-05 1.595541471033357084e-05
1.273000000000000000e+03 4.762779235839843750e+01 -3.050431060791015625e+01 -6.191970780491828918e-03 -4.982427693903446198e-03 -3.352319588884711266e-03 4.679393954575061798e-03
1.274000000000000000e+03 5.267093276977539062e+01 2.214374542236328125e+01 9.165830165147781372e-02 -1.269236207008361816e-02 2.368978224694728851e-02 -3.872127830982208252e-02
1.275000000000000000e+03 4.476651763916015625e+01 1.812201690673828125e+01 -2.547471225261688232e-02 2.519920235499739647e-04 -7.566816173493862152e-03 -7.798420265316963196e-03
1.276000000000000000e+03 4.242518997192382812e+01 1.598532772064208984e+01 -1.944243907928466797e-02 2.190420636907219887e-03 -5.175605881959199905e-03 -4.641479346901178360e-03
1.277000000000000000e+03 3.848461532592773438e+01 9.608160972595214844e+00 2.242196642328053713e-04 -4.614496720023453236e-05 5.342240910977125168e-05 -3.689966106321662664e-04
1.278000000000000000e+03 4.980122375488281250e+01 2.166072463989257812e+01 1.982195861637592316e-02 -9.180511347949504852e-03 3.192433854565024376e-03 -1.765110157430171967e-02
1.279000000000000000e+03 4.711198425292968750e+01 2.007619667053222656e+01 -1.978776976466178894e-02 -3.619164461269974709e-03 -7.022080477327108383e-03 -8.832153864204883575e-03
1.280000000000000000e+03 4.591323089599609375e+01 1.912644577026367188e+01 -2.339711412787437439e-02 8.660739695187658072e-05 -6.993151735514402390e-03 -1.065764389932155609e-02
1.281000000000000000e+03 3.246892547607421875e+01 -2.963322830200195312e+01 -1.769122667610645294e-02 1.909740967676043510e-03 -4.734445363283157349e-03 -1.643433352001011372e-03
1.282000000000000000e+03 3.012506866455078125e+01 -2.905248069763183594e+01 -3.840697184205055237e-02 -9.328976273536682129e-03 -1.432078424841165543e-02 -1.610470376908779144e-02
1.283000000000000000e+03 6.180935287475585938e+01 -3.240195465087890625e+01 -6.147796520963311195e-04 -1.792204566299915314e-04 -2.382000238867476583e-04 5.020556272938847542e-04
1.284000000000000000e+03 6.100550842285156250e+01 -3.094523429870605469e+01 -3.781678969971835613e-04 9.296310599893331528e-05 -8.556143438909202814e-05 2.006387512665241957e-04
1.285000000000000000e+03 5.862390136718750000e+01 -3.238616943359375000e+01 -1.242205617018043995e-03 -2.275346050737425685e-04 -4.409220709931105375e-04 9.405405726283788681e-04
1.286000000000000000e+03 1.593546485900878906e+01 -1.025685024261474609e+01 4.782479405403137207e-01 5.992115139961242676e-01 3.232378363609313965e-01 1.164161264896392822e-01
1.287000000000000000e+03 4.524850845336914062e+01 -2.832961082458496094e+01 -7.775983773171901703e-03 -1.534165698103606701e-03 -2.793044783174991608e-03 4.941069055348634720e-03
1.288000000000000000e+03 5.417424774169921875e+01 -3.309350967407226562e+01 -2.085688523948192596e-03 -2.094533760100603104e-03 -1.254066708497703075e-03 3.240429563447833061e-03
1.289000000000000000e+03 6.465264892578125000e+01 -2.826557159423828125e+01 1.342531613772735000e-04 -4.410600740811787546e-05 2.704414691834244877e-05 9.378440154250711203e-05
1.290000000000000000e+03 7.023574066162109375e+01 -2.131051445007324219e+01 1.203350734613195527e-06 -8.069566320045851171e-06 -2.059864755210583098e-06 3.118422682746313512e-05
1.291000000000000000e+03 6.676559448242187500e+01 -2.623475646972656250e+01 8.531760977348312736e-05 -2.925423723354469985e-05 1.681901267147623003e-05 7.885938975960016251e-05
1.292000000000000000e+03 6.783362579345703125e+01 -2.513460731506347656e+01 1.337745925411581993e-04 -1.038069285641540773e-06 3.982095586252398789e-05 -1.095241486837039702e-06
1.293000000000000000e+03 4.378994750976562500e+01 -1.900005149841308594e+01 -2.559023560024797916e-04 -2.508837496861815453e-05 -8.429722220171242952e-05 -1.312097447225823998e-04
1.294000000000000000e+03 4.387797164916992188e+01 -2.094890213012695312e+01 -4.976848140358924866e-04 -1.255714450962841511e-04 -1.869768748292699456e-04 3.164076770190149546e-04
1.295000000000000000e+03 2.874258995056152344e+01 -7.576988220214843750e+00 5.665663629770278931e-02 5.906212925910949707e-01 1.941833794116973877e-01 8.312776684761047363e-01
1.296000000000000000e+03 6.208963012695312500e+01 2.505374336242675781e+01 7.191171171143651009e-04 7.753267288208007812e-01 2.328137606382369995e-01 -1.235214769840240479e-01
1.297000000000000000e+03 1.684333229064941406e+01 -1.246216106414794922e+01 1.169389009475708008e+00 8.497974276542663574e-01 6.057559251785278320e-01 7.731062173843383789e-01
1.298000000000000000e+03 2.385862731933593750e+01 -8.868341445922851562e+00 7.747312188148498535e-01 -5.009881854057312012e-01 8.212289959192276001e-02 -8.814638853073120117e-02
1.299000000000000000e+03 3.661613464355468750e+01 -2.059161567687988281e+01 -1.996452774619683623e-04 -2.899014507420361042e-04 -1.468640111852437258e-04 -2.587912604212760925e-04
1.300000000000000000e+03 1.824518585205078125e+01 -9.955045700073242188e+00 6.710821986198425293e-01 4.511466920375823975e-01 3.366686701774597168e-01 2.344559282064437866e-01
1.301000000000000000e+03 3.357480621337890625e+01 -2.853824043273925781e+01 -1.918975636363029480e-02 2.509309910237789154e-03 -5.004134029150009155e-03 -4.409716464579105377e-03
1.302000000000000000e+03 2.084527015686035156e+01 -3.072674369812011719e+01 6.003216654062271118e-02 2.833498716354370117e-01 1.030146107077598572e-01 -1.626321524381637573e-01
1.303000000000000000e+03 2.166326713562011719e+01 -3.196280097961425781e+01 2.058747038245201111e-02 2.407264113426208496e-01 7.839415967464447021e-02 -1.473148614168167114e-01
1.304000000000000000e+03 2.340688133239746094e+01 -1.072437191009521484e+01 1.757811307907104492e+00 6.742911785840988159e-02 5.475721359252929688e-01 5.440078973770141602e-01
1.305000000000000000e+03 2.068209075927734375e+01 -1.034934616088867188e+01 1.140138387680053711e+00 6.453091651201248169e-02 3.614008128643035889e-01 1.529945582151412964e-01
1.306000000000000000e+03 2.083121871948242188e+01 -1.136844825744628906e+01 1.329604744911193848e+00 -2.110064402222633362e-02 3.925512433052062988e-01 2.201789021492004395e-01
1.307000000000000000e+03 3.608923339843750000e+01 -1.544574069976806641e+01 1.484499225625768304e-04 1.068808778654783964e-04 7.659923721803352237e-05 1.388214295729994774e-04
1.308000000000000000e+03 3.531760787963867188e+01 -1.658156394958496094e+01 2.273392310598865151e-04 2.833199687302112579e-04 1.531977613922208548e-04 3.691226447699591517e-05
1.309000000000000000e+03 1.907571983337402344e+01 -2.652804183959960938e+01 3.049601018428802490e-01 3.544691801071166992e-01 1.978287845849990845e-01 -3.146893978118896484e-01
1.310000000000000000e+03 1.406231307983398438e+01 -2.311604881286621094e+01 1.825645565986633301e-01 1.069384694099426270e+00 3.755847811698913574e-01 -1.917021423578262329e-01
1.311000000000000000e+03 2.404148292541503906e+01 -9.553773880004882812e+00 1.750462651252746582e+00 -3.408824205398559570e-01 4.228740632534027100e-01 3.731481432914733887e-01
1.312000000000000000e+03 1.594013309478759766e+01 -2.552999114990234375e+01 1.823505908250808716e-01 6.532663106918334961e-01 2.506850659847259521e-01 -3.017252385616302490e-01
1.313000000000000000e+03 3.634865570068359375e+01 -1.789102554321289062e+01 1.092379825422540307e-04 2.342683292226865888e-04 1.030518906190991402e-04 1.848076499300077558e-04
1.314000000000000000e+03 3.566904449462890625e+01 -2.669120407104492188e+01 -1.227289158850908279e-02 2.377676311880350113e-03 -2.968564629554748535e-03 -2.691054018214344978e-03
1.315000000000000000e+03 5.441194915771484375e+01 -6.719145298004150391e+00 9.076682329177856445e-01 5.439115762710571289e-01 4.354739487171173096e-01 1.909010559320449829e-01
1.316000000000000000e+03 5.441311645507812500e+01 -4.800863742828369141e+00 1.632090330123901367e+00 6.909490823745727539e-01 6.969118118286132812e-01 7.966163754463195801e-01
1.317000000000000000e+03 7.927948760986328125e+01 3.755663299560546875e+01 6.265101954340934753e-03 -5.222757458686828613e-01 -1.548031866550445557e-01 1.964258402585983276e-02
1.318000000000000000e+03 7.707906341552734375e+01 3.485345077514648438e+01 -1.310636196285486221e-02 -4.980681836605072021e-01 -1.533523648977279663e-01 8.234579861164093018e-02
1.319000000000000000e+03 7.919283294677734375e+01 3.055439186096191406e+01 6.903004366904497147e-03 -7.709016203880310059e-01 -2.291995733976364136e-01 4.297413676977157593e-02
1.320000000000000000e+03 7.749570465087890625e+01 2.793947029113769531e+01 -1.028233766555786133e-02 -7.532773613929748535e-01 -2.290679067373275757e-01 1.247317269444465637e-01
1.321000000000000000e+03 7.823765563964843750e+01 -9.910189628601074219e+00 -1.379011385142803192e-02 -1.043701544404029846e-01 -3.544808179140090942e-02 -7.252805680036544800e-02
1.322000000000000000e+03 7.822871398925781250e+01 -8.562706947326660156e+00 -2.112390473484992981e-02 -1.635481268167495728e-01 -5.540160834789276123e-02 -9.927180409431457520e-02
1.323000000000000000e+03 7.940744781494140625e+01 -7.251502990722656250e+00 -6.253943778574466705e-03 -2.347844392061233521e-01 -7.231151312589645386e-02 -4.199683293700218201e-02
1.324000000000000000e+03 7.936648559570312500e+01 5.318941116333007812e+00 4.324359353631734848e-03 -1.274439573287963867e+00 -3.810345828533172607e-01 -3.640878945589065552e-02
1.325000000000000000e+03 7.935757446289062500e+01 1.238164043426513672e+01 3.890355583280324936e-03 -1.528343915939331055e+00 -4.573360681533813477e-01 -4.748959094285964966e-03
1.326000000000000000e+03 7.806292724609375000e+01 1.243374156951904297e+01 1.442118734121322632e-02 -1.256208181381225586e+00 -3.725360929965972900e-01 -1.436509098857641220e-02
1.327000000000000000e+03 7.936688232421875000e+01 1.379073905944824219e+01 2.138838171958923340e-03 -1.534830808639526367e+00 -4.598076045513153076e-01 1.995692960917949677e-03
1.328000000000000000e+03 7.936196899414062500e+01 1.939772224426269531e+01 4.865726223215460777e-04 -1.396214365959167480e+00 -4.187183380126953125e-01 3.004267625510692596e-02
1.329000000000000000e+03 7.926072692871093750e+01 2.360925102233886719e+01 2.475632587447762489e-03 -1.172936201095581055e+00 -3.511381745338439941e-01 4.414125159382820129e-02
1.330000000000000000e+03 7.921473693847656250e+01 2.502235984802246094e+01 1.022884505800902843e-03 -1.089790225028991699e+00 -3.266302049160003662e-01 4.753304645419120789e-02
1.331000000000000000e+03 7.918627929687500000e+01 2.642844581604003906e+01 6.503412732854485512e-04 -1.006462335586547852e+00 -3.017435967922210693e-01 4.896216839551925659e-02
1.332000000000000000e+03 7.909823608398437500e+01 3.193613243103027344e+01 -1.013412512838840485e-02 -7.036346793174743652e-01 -2.141306400299072266e-01 3.939682245254516602e-02
1.333000000000000000e+03 7.903263092041015625e+01 3.335047912597656250e+01 2.019822597503662109e-03 -6.497546434402465820e-01 -1.943204402923583984e-01 3.408393263816833496e-02
1.334000000000000000e+03 7.918762207031250000e+01 3.875962829589843750e+01 -6.602732464671134949e-03 -4.812208414077758789e-01 -1.463470757007598877e-01 1.720880530774593353e-02
1.335000000000000000e+03 7.817356872558593750e+01 -1.745321512222290039e+00 4.673403222113847733e-03 -6.219645142555236816e-01 -1.851873248815536499e-01 -1.572513729333877563e-01
1.336000000000000000e+03 7.938151550292968750e+01 1.104938149452209473e+00 -5.398605717346072197e-04 -9.684088230133056641e-01 -2.906846106052398682e-01 -5.101880058646202087e-02
1.337000000000000000e+03 7.936026763916015625e+01 8.136480331420898438e+00 3.461113432422280312e-03 -1.418502211570739746e+00 -4.245123267173767090e-01 -2.563909441232681274e-02
1.338000000000000000e+03 7.807781982421875000e+01 1.944052124023437500e+01 1.074573583900928497e-02 -1.163524866104125977e+00 -3.458337485790252686e-01 7.622153311967849731e-02
1.339000000000000000e+03 7.933695220947265625e+01 2.079649353027343750e+01 3.306244732812047005e-03 -1.329040169715881348e+00 -3.977201879024505615e-01 3.396029025316238403e-02
1.340000000000000000e+03 7.813138580322265625e+01 1.527963066101074219e+01 1.671957969665527344e-02 -1.264942884445190430e+00 -3.744670152664184570e-01 2.511245012283325195e-02
1.341000000000000000e+03 7.938345336914062500e+01 1.660220718383789062e+01 1.993371173739433289e-03 -1.498815059661865234e+00 -4.490465223789215088e-01 1.714982464909553528e-02
1.342000000000000000e+03 7.808734893798828125e+01 8.097826957702636719e+00 1.170670054852962494e-02 -1.171328425407409668e+00 -3.478865027427673340e-01 -7.327427715063095093e-02
1.343000000000000000e+03 7.935650634765625000e+01 9.551268577575683594e+00 3.471832722425460815e-03 -1.470426917076110840e+00 -4.400865435600280762e-01 -1.819451339542865753e-02
1.344000000000000000e+03 7.815422821044921875e+01 1.027523040771484375e+00 1.054491475224494934e-02 -8.185007572174072266e-01 -2.423867434263229370e-01 -1.455697566270828247e-01
1.345000000000000000e+03 7.937580871582031250e+01 2.507144689559936523e+00 4.410672932863235474e-03 -1.081979513168334961e+00 -3.232706487178802490e-01 -4.646155983209609985e-02
1.346000000000000000e+03 7.819601440429687500e+01 -5.845672607421875000e+00 -1.339624170213937759e-02 -3.266245424747467041e-01 -1.020062342286109924e-01 -1.390708386898040771e-01
1.347000000000000000e+03 7.939706420898437500e+01 -4.475830554962158203e+00 -4.210932645946741104e-03 -4.617344439029693604e-01 -1.397836208343505859e-01 -5.255515128374099731e-02
1.348000000000000000e+03 7.949290466308593750e+01 -1.291044330596923828e+01 -4.183285403996706009e-03 -1.454149722121655941e-03 -1.691230572760105133e-03 -6.442398764193058014e-03
1.349000000000000000e+03 5.229011154174804688e+01 -7.125193119049072266e+00 1.087140679359436035e+00 8.268373608589172363e-01 5.741934180259704590e-01 2.637724876403808594e-01
1.350000000000000000e+03 4.129625320434570312e+01 -2.293487310409545898e+00 6.439872384071350098e-01 3.475065827369689941e-01 2.974481582641601562e-01 -4.450896382331848145e-01
1.351000000000000000e+03 4.056675338745117188e+01 -4.077290058135986328e+00 7.302061915397644043e-01 -7.304242253303527832e-02 1.971491277217864990e-01 -7.026620954275131226e-02
1.352000000000000000e+03 6.401364898681640625e+01 1.808328437805175781e+01 4.107892811298370361e-01 1.378591656684875488e+00 5.368142724037170410e-01 -1.963658183813095093e-01
1.353000000000000000e+03 4.665963745117187500e+01 -6.255928516387939453e+00 1.286028742790222168e+00 1.087230816483497620e-01 4.184255599975585938e-01 7.326997071504592896e-02
1.354000000000000000e+03 2.156114816665649414e+00 2.630611610412597656e+01 7.746179471723735332e-05 -8.250931277871131897e-04 -2.242893970105797052e-04 6.931686075404286385e-04
1.355000000000000000e+03 6.499830484390258789e-01 3.191839599609375000e+01 -1.683146256254985929e-04 -2.977595664560794830e-03 -9.437730768695473671e-04 2.990487555507570505e-04
1.356000000000000000e+03 2.609155654907226562e+00 3.481614685058593750e+01 2.914417418651282787e-04 -4.159679636359214783e-03 -1.160471467301249504e-03 9.572575218044221401e-04
1.357000000000000000e+03 3.482786893844604492e+00 3.906290817260742188e+01 3.522234910633414984e-04 -5.043122451752424240e-03 -1.407269737683236599e-03 6.734528578817844391e-04
1.358000000000000000e+03 1.017488837242126465e+00 3.864901733398437500e+01 8.872952457750216126e-05 -5.444684065878391266e-03 -1.606786390766501427e-03 1.464772794861346483e-04
1.359000000000000000e+03 1.971765995025634766e+00 2.340032386779785156e+01 1.137205981649458408e-04 -1.660044654272496700e-04 -1.568515654071234167e-05 3.413185768295079470e-04
1.360000000000000000e+03 2.045356273651123047e+00 3.061375808715820312e+01 -1.715403777780011296e-04 -2.361772116273641586e-03 -7.599937380291521549e-04 9.066482889465987682e-04
1.361000000000000000e+03 2.374847173690795898e+00 3.662742996215820312e+01 2.525014861021190882e-04 -4.620318301022052765e-03 -1.310345018282532692e-03 7.352091488428413868e-04
1.362000000000000000e+03 2.567223548889160156e+00 -3.802031326293945312e+01 -4.166677128523588181e-03 -2.690427899360656738e-01 -8.196283876895904541e-02 5.282360315322875977e-02
1.363000000000000000e+03 7.751654386520385742e-01 -3.040224456787109375e+01 -3.072650404646992683e-03 -5.961124300956726074e-01 -1.797555238008499146e-01 3.717679902911186218e-02
1.364000000000000000e+03 2.521529436111450195e+00 -2.727769660949707031e+01 -9.675972396507859230e-04 -5.448200106620788574e-01 -1.637362837791442871e-01 1.198115199804306030e-01
1.365000000000000000e+03 1.837216854095458984e+00 4.979547023773193359e+00 -5.522415085579268634e-05 -6.474103884102078155e-06 -1.850947592174634337e-05 -5.988531484035775065e-06
1.366000000000000000e+03 6.340920925140380859e-01 -1.772360610961914062e+01 3.850771812722086906e-03 -1.098996996879577637e+00 -3.285438716411590576e-01 -7.341895718127489090e-03
1.367000000000000000e+03 1.895772457122802734e+00 -1.626151847839355469e+01 2.254416048526763916e-02 -8.251032829284667969e-01 -2.407677322626113892e-01 -5.180253833532333374e-02
1.368000000000000000e+03 2.457373142242431641e+00 -4.141186714172363281e+00 -4.353558272123336792e-02 -1.288217157125473022e-01 -5.170718953013420105e-02 -1.493709385395050049e-01
1.369000000000000000e+03 5.968561768531799316e-01 -1.070532226562500000e+01 3.787314519286155701e-03 -7.193553447723388672e-01 -2.146704047918319702e-01 -5.182215198874473572e-02
1.370000000000000000e+03 1.787640452384948730e+00 -9.402243614196777344e+00 7.106520235538482666e-03 -4.885571300983428955e-01 -1.444351822137832642e-01 -1.557549387216567993e-01
1.371000000000000000e+03 6.163064241409301758e-01 -2.052924919128417969e+01 2.144604921340942383e-03 -1.085083961486816406e+00 -3.248818218708038330e-01 1.327276974916458130e-02
1.372000000000000000e+03 1.913623213768005371e+00 -1.766110801696777344e+01 2.448340132832527161e-02 -8.440629243850708008e-01 -2.458738535642623901e-01 -2.200667001307010651e-02
1.373000000000000000e+03 6.120930314064025879e-01 -2.331040000915527344e+01 4.637203179299831390e-03 -9.785140752792358398e-01 -2.921630740165710449e-01 3.316613286733627319e-02
1.374000000000000000e+03 2.340059280395507812e+00 -2.577553939819335938e+01 5.636560730636119843e-03 -6.162551641464233398e-01 -1.831855773925781250e-01 1.150366216897964478e-01
1.375000000000000000e+03 2.301186084747314453e+00 -3.302399826049804688e+01 -1.166522968560457230e-02 -3.857141733169555664e-01 -1.192138195037841797e-01 7.915284484624862671e-02
1.376000000000000000e+03 2.203709840774536133e+00 -3.575100326538085938e+01 -8.466312661767005920e-03 -3.236807286739349365e-01 -9.964410960674285889e-02 6.255569308996200562e-02
1.377000000000000000e+03 1.876728296279907227e+00 2.199253273010253906e+01 -3.349106700625270605e-04 6.209018465597182512e-05 -8.184614853234961629e-05 1.405008952133357525e-04
1.378000000000000000e+03 6.113731861114501953e-01 1.918487548828125000e+01 2.202823670813813806e-04 4.439759650267660618e-04 1.992775069084018469e-04 -1.003165016300044954e-05
1.379000000000000000e+03 6.319947838783264160e-01 1.777343559265136719e+01 -2.169249783037230372e-04 4.028987023048102856e-04 5.579211938311345875e-05 -2.670901449164375663e-05
1.380000000000000000e+03 7.186179757118225098e-01 1.491632366180419922e+01 -1.551378663862124085e-04 2.586012415122240782e-04 3.103901326539926231e-05 -2.205645796493627131e-05
1.381000000000000000e+03 6.025211215019226074e-01 1.064571189880371094e+01 1.285447506234049797e-04 9.173008584184572101e-05 6.608245166717097163e-05 -2.944975676655303687e-05
1.382000000000000000e+03 5.856302976608276367e-01 7.846758365631103516e+00 8.655161218484863639e-05 3.807532630162313581e-05 3.738807936315424740e-05 -2.151520493498537689e-05
1.383000000000000000e+03 2.163869380950927734e+00 1.337063598632812500e+01 -1.480668288422748446e-04 8.868367876857519150e-05 -1.781494393071625382e-05 -4.614650606526993215e-05
1.384000000000000000e+03 3.510552644729614258e+00 -3.902339172363281250e+01 -1.700813695788383484e-02 -2.502546906471252441e-01 -8.017884939908981323e-02 4.243762791156768799e-02
1.385000000000000000e+03 2.314776659011840820e+00 -3.166305732727050781e+01 -9.774127043783664703e-03 -4.194480776786804199e-01 -1.287666559219360352e-01 9.189216047525405884e-02
1.386000000000000000e+03 1.984120845794677734e+00 -2.440717506408691406e+01 6.105565465986728668e-03 -7.211695313453674316e-01 -2.145191878080368042e-01 9.140289574861526489e-02
1.387000000000000000e+03 6.755326390266418457e-01 -2.471135711669921875e+01 1.260899356566369534e-03 -8.972303271293640137e-01 -2.687908411026000977e-01 3.913237527012825012e-02
1.388000000000000000e+03 1.872396349906921387e+00 -1.486242008209228516e+01 2.535827830433845520e-02 -7.877882719039916992e-01 -2.287289947271347046e-01 -8.353850245475769043e-02
1.389000000000000000e+03 6.230780482292175293e-01 -1.490748310089111328e+01 3.405848518013954163e-03 -1.015380859375000000e+00 -3.035925030708312988e-01 -2.838530018925666809e-02
1.390000000000000000e+03 1.825262546539306641e+00 -1.209566211700439453e+01 1.704908721148967743e-02 -6.630521416664123535e-01 -1.938009113073348999e-01 -1.307751685380935669e-01
1.391000000000000000e+03 3.105605363845825195e+00 -7.114976406097412109e+00 -1.683245413005352020e-02 -2.589895725250244141e-01 -8.274661004543304443e-02 -2.381971031427383423e-01
1.392000000000000000e+03 6.089896559715270996e-01 -7.911386489868164062e+00 4.049303941428661346e-03 -4.489833116531372070e-01 -1.334802061319351196e-01 -6.076209992170333862e-02
1.393000000000000000e+03 1.339029073715209961e+00 -3.396604299545288086e+00 -1.673333719372749329e-02 -1.017008274793624878e-01 -3.553025051951408386e-02 -6.863307952880859375e-02
1.394000000000000000e+03 4.321583557128906250e+01 -4.620805263519287109e+00 1.065047383308410645e+00 1.769682019948959351e-01 3.726046979427337646e-01 -2.451726049184799194e-01
1.395000000000000000e+03 6.243840026855468750e+01 4.108745098114013672e+00 4.143943786621093750e-01 1.042755722999572754e+00 4.371450245380401611e-01 3.320961892604827881e-01
1.396000000000000000e+03 6.160936355590820312e+01 5.463306903839111328e+00 4.550433158874511719e-01 1.515972375869750977e+00 5.913047194480895996e-01 5.445343255996704102e-01
1.397000000000000000e+03 5.633809661865234375e+01 -6.882906556129455566e-01 9.061272144317626953e-01 1.286181688308715820e+00 6.576926708221435547e-01 9.892452955245971680e-01
1.398000000000000000e+03 6.271160125732421875e+01 6.924873352050781250e+00 3.209011852741241455e-01 1.395095705986022949e+00 5.147990584373474121e-01 3.935748934745788574e-01
1.399000000000000000e+03 6.300434112548828125e+01 5.797315597534179688e+00 3.588417768478393555e-01 1.190677881240844727e+00 4.648559093475341797e-01 3.080130815505981445e-01
1.400000000000000000e+03 4.563124465942382812e+01 -5.675543785095214844e+00 1.377995967864990234e+00 6.364393979310989380e-02 4.324919581413269043e-01 -1.354224532842636108e-01
1.401000000000000000e+03 5.544778442382812500e+01 -3.720756530761718750e+00 1.142254590988159180e+00 8.311344981193542480e-01 5.920166969299316406e-01 8.696870207786560059e-01
1.402000000000000000e+03 4.905819702148437500e+01 -7.014028549194335938e+00 1.514525532722473145e+00 3.812099993228912354e-01 5.687206387519836426e-01 3.968401551246643066e-01
1.403000000000000000e+03 5.895364379882812500e+01 6.923062205314636230e-01 6.072704792022705078e-01 9.483693242073059082e-01 4.666919410228729248e-01 7.233784198760986328e-01
1.404000000000000000e+03 6.554911804199218750e+01 1.686298561096191406e+01 3.459407389163970947e-01 1.068505883216857910e+00 4.243339896202087402e-01 -5.323003605008125305e-02
1.405000000000000000e+03 6.425994110107421875e+01 1.289068794250488281e+01 1.777379810810089111e-01 1.551535367965698242e+00 5.187820196151733398e-01 2.404009923338890076e-02
1.406000000000000000e+03 6.518509674072265625e+01 1.394664955139160156e+01 2.195132821798324585e-01 1.320140004158020020e+00 4.618959724903106689e-01 -1.826388016343116760e-02
1.407000000000000000e+03 5.973547744750976562e+01 1.757048606872558594e+00 5.254229307174682617e-01 9.851405620574951172e-01 4.531690478324890137e-01 6.589429974555969238e-01
1.408000000000000000e+03 3.370036697387695312e+01 3.145659208297729492e+00 -2.215119166066870093e-04 1.977167412405833602e-04 -7.138552518881624565e-06 -2.499162801541388035e-04
1.409000000000000000e+03 3.692638778686523438e+01 -2.452895355224609375e+01 -7.510181982070207596e-03 1.687416806817054749e-03 -1.746829599142074585e-03 -2.769574290141463280e-03
1.410000000000000000e+03 6.494298553466796875e+01 -1.020516109466552734e+01 -7.593681216239929199e-01 -3.284826874732971191e-01 -3.263552188873291016e-01 -4.896390140056610107e-01
1.411000000000000000e+03 2.346063041687011719e+01 -5.141520977020263672e+00 -5.396548509597778320e-01 -5.825102925300598145e-01 -3.366495668888092041e-01 7.127031087875366211e-01
1.412000000000000000e+03 2.318985176086425781e+01 -5.135793685913085938e+00 -6.054318547248840332e-01 -4.351358413696289062e-01 -3.121703267097473145e-01 7.156967520713806152e-01
1.413000000000000000e+03 2.677373886108398438e+01 -5.258205413818359375e+00 -5.254915356636047363e-01 1.885413080453872681e-01 -1.010850667953491211e-01 -2.560948133468627930e-01
1.414000000000000000e+03 2.717575454711914062e+01 -6.161828041076660156e+00 -9.339182972908020020e-01 7.055023908615112305e-01 -6.852477788925170898e-02 4.670463874936103821e-02
1.415000000000000000e+03 2.679690170288085938e+01 -5.054350852966308594e+00 -4.348819553852081299e-01 1.522963345050811768e-01 -8.477568626403808594e-02 -2.272728532552719116e-01
1.416000000000000000e+03 2.738617134094238281e+01 -4.698570251464843750e+00 -3.593383431434631348e-01 2.339749932289123535e-01 -3.760900348424911499e-02 -7.172676920890808105e-02
1.417000000000000000e+03 2.715637016296386719e+01 -4.427101135253906250e+00 -2.573152184486389160e-01 1.280425190925598145e-01 -3.878180682659149170e-02 -1.030162721872329712e-01
1.418000000000000000e+03 2.685368537902832031e+01 -4.666424274444580078e+00 -2.984604537487030029e-01 1.092548146843910217e-01 -5.676168948411941528e-02 -1.560278832912445068e-01
1.419000000000000000e+03 2.673027038574218750e+01 -6.111730098724365234e+00 -1.058181285858154297e+00 5.523906946182250977e-01 -1.517371684312820435e-01 -1.609503924846649170e-01
1.420000000000000000e+03 2.721022605895996094e+01 -6.489394187927246094e+00 -8.880769014358520508e-01 8.764879107475280762e-01 -3.476700047031044960e-03 2.305596172809600830e-01
1.421000000000000000e+03 2.735293960571289062e+01 -4.232915401458740234e+00 -2.412208914756774902e-01 1.483482122421264648e-01 -2.786180190742015839e-02 -6.165512651205062866e-02
1.422000000000000000e+03 7.684320831298828125e+01 -1.936650276184082031e+01 1.740502557368017733e-05 4.574803824652917683e-06 6.593948910449398682e-06 -1.018090188154019415e-05
1.423000000000000000e+03 7.616341400146484375e+01 -1.921378517150878906e+01 -5.508138087861880194e-07 -5.293064077704912052e-06 -1.753163360262988135e-06 3.765364681385108270e-06
1.424000000000000000e+03 2.219965362548828125e+01 -7.676748752593994141e+00 -3.897908031940460205e-01 4.046326875686645508e-02 -1.047982648015022278e-01 -1.818200647830963135e-01
1.425000000000000000e+03 2.171051406860351562e+01 -9.301356315612792969e+00 7.620598077774047852e-01 -1.894697360694408417e-02 2.229338586330413818e-01 -3.136495500802993774e-02
1.426000000000000000e+03 7.805775451660156250e+01 -1.368554878234863281e+01 -1.600985415279865265e-02 -1.253222208470106125e-02 -8.562622591853141785e-03 -1.436588261276483536e-02
1.427000000000000000e+03 2.771135902404785156e+01 -6.657765865325927734e+00 -7.088692784309387207e-01 9.335567951202392578e-01 6.740626692771911621e-02 5.171774625778198242e-01
1.428000000000000000e+03 7.285092163085937500e+01 -1.891335487365722656e+01 2.295636113558430225e-05 -9.053923690771625843e-07 6.615290203626500443e-06 -5.257807060843333602e-06
1.429000000000000000e+03 7.472529602050781250e+01 -1.957014274597167969e+01 2.534642771934159100e-05 -4.041890406369930133e-06 6.391361239366233349e-06 -1.139401229011127725e-05
1.430000000000000000e+03 3.556049346923828125e+01 -2.939435958862304688e+00 3.449517488479614258e-01 -1.525756567716598511e-01 5.771282687783241272e-02 8.764946460723876953e-02
1.431000000000000000e+03 1.942267227172851562e+01 3.221396207809448242e+00 -2.302331813552882522e-05 -1.753531250869855285e-05 -1.216758937516715378e-05 4.257190994394477457e-06
1.432000000000000000e+03 1.711638259887695312e+01 3.578708171844482422e+00 -1.576243812451139092e-05 -5.115545718581415713e-05 -2.007536750170402229e-05 -3.892507083946838975e-05
1.433000000000000000e+03 3.870505142211914062e+01 -1.555053234100341797e+00 4.252190291881561279e-01 -9.145514667034149170e-02 1.001291647553443909e-01 -1.430136263370513916e-01
1.434000000000000000e+03 3.830588150024414062e+01 -3.226412296295166016e+00 5.273342728614807129e-01 -2.070244550704956055e-01 9.609294682741165161e-02 -3.413572162389755249e-02
1.435000000000000000e+03 4.030915069580078125e+01 -4.670190811157226562e-01 1.439970135688781738e-01 1.675743460655212402e-01 9.347140789031982422e-02 -1.530283540487289429e-01
1.436000000000000000e+03 7.695490264892578125e+01 -1.406304931640625000e+01 -2.110154181718826294e-02 -9.930408559739589691e-03 -9.309585206210613251e-03 -1.819874159991741180e-02
1.437000000000000000e+03 1.602783966064453125e+01 3.258167266845703125e+00 -4.650945811590645462e-06 -5.005687853554263711e-05 -1.641234666749369353e-05 1.124996106227627024e-05
1.438000000000000000e+03 1.540234565734863281e+01 3.301130771636962891e+00 3.253853356000036001e-05 3.593040673877112567e-05 2.054068136203568429e-05 3.854693488847260596e-07
1.439000000000000000e+03 6.774951934814453125e+01 -1.209935855865478516e+01 -6.425080299377441406e-01 1.150772869586944580e-01 -1.582292318344116211e-01 1.724539697170257568e-02
1.440000000000000000e+03 6.972931671142578125e+01 -1.393897056579589844e+01 -2.236882150173187256e-01 2.773120813071727753e-02 -5.878710374236106873e-02 3.052702173590660095e-03
1.441000000000000000e+03 2.007946395874023438e+01 3.376142978668212891e+00 2.247842348879203200e-05 2.117509393428917974e-05 1.309605522692436352e-05 3.274706386946490966e-06
1.442000000000000000e+03 2.037748146057128906e+01 4.427073001861572266e+00 4.870997145189903677e-05 1.315284043812425807e-05 1.855884329415857792e-05 1.024578432406997308e-05
1.443000000000000000e+03 2.117707443237304688e+01 4.455680847167968750e+00 -1.076027729141060263e-05 -8.018011612875852734e-06 -5.633486580336466432e-06 1.168622384284390137e-05
1.444000000000000000e+03 7.104740905761718750e+01 -2.044331169128417969e+01 3.338688475196249783e-05 6.325933554762741551e-06 1.191384581034071743e-05 -1.013297242025146261e-05
1.445000000000000000e+03 7.150177764892578125e+01 -1.967071151733398438e+01 -1.786880966392345726e-05 -5.404228886618511751e-06 -6.981911610637325794e-06 1.359481393592432141e-05
1.446000000000000000e+03 1.402081298828125000e+01 2.594613075256347656e+00 -2.061349186988081783e-05 -3.584372461773455143e-05 -1.693716512818355113e-05 4.598900432029040530e-06
1.447000000000000000e+03 1.255679798126220703e+01 3.284978151321411133e+00 3.588122854125685990e-05 3.789221955230459571e-05 2.213203515566419810e-05 -4.378615869882196421e-07
1.448000000000000000e+03 1.740263748168945312e+01 2.853889703750610352e+00 2.027513437496963888e-05 3.983078568126074970e-05 1.803177656256593764e-05 2.650216083566192538e-05
1.449000000000000000e+03 1.919433403015136719e+01 3.956851959228515625e+00 2.885784124373458326e-05 1.847329258453100920e-05 1.419934051227755845e-05 -1.623815478524193168e-05
1.450000000000000000e+03 4.056771469116210938e+01 -1.768434143066406250e+01 -1.685451279627159238e-04 -2.723875804804265499e-04 -1.322798198089003563e-04 4.018262188765220344e-05
1.451000000000000000e+03 4.184406280517578125e+01 -1.818755722045898438e+01 -2.501163398846983910e-04 -2.054480719380080700e-04 -1.366693177260458469e-04 -7.794604607624933124e-05
1.452000000000000000e+03 3.453680801391601562e+01 4.106593608856201172e+00 -5.394085892476141453e-04 -1.272813678951933980e-04 -2.000069944187998772e-04 1.943207898875698447e-04
1.453000000000000000e+03 3.495259094238281250e+01 3.611664772033691406e+00 -7.090126746334135532e-05 2.121989673469215631e-04 4.238931069266982377e-05 1.704386522760614753e-05
1.454000000000000000e+03 7.527888488769531250e+01 -1.966917037963867188e+01 -1.560157943458762020e-05 8.148268534569069743e-06 -2.235993179056094959e-06 3.535478754201903939e-06
1.455000000000000000e+03 3.899683380126953125e+01 -1.666622543334960938e+01 1.151607648353092372e-04 -2.084877487504854798e-04 -2.799809408315923065e-05 8.264998177764937282e-05
1.456000000000000000e+03 3.814583206176757812e+01 -1.657036399841308594e+01 2.567918454587925225e-05 -1.642534189159050584e-04 -4.157226794632151723e-05 1.812317059375345707e-04
1.457000000000000000e+03 7.415056610107421875e+01 -1.965583992004394531e+01 -7.415204891003668308e-06 2.475193696227506734e-06 -1.482003426644951105e-06 -7.134518455131910741e-06
1.458000000000000000e+03 4.323624038696289062e+01 -1.845684432983398438e+01 -1.114989136112853885e-04 5.512505231308750808e-05 -1.691215766186360270e-05 -8.665474888402968645e-05
1.459000000000000000e+03 4.269108581542968750e+01 -1.801045417785644531e+01 -1.649970508879050612e-04 -1.172447809949517250e-04 -8.467254519928246737e-05 -1.275296235689893365e-04
1.460000000000000000e+03 4.125288009643554688e+01 -1.795832633972167969e+01 -7.109819125616922975e-05 -1.766801287885755301e-04 -7.433349674101918936e-05 -2.755842979240696877e-05
1.461000000000000000e+03 1.108567810058593750e+01 3.283162117004394531e+00 4.384148996905423701e-05 2.677195334399584681e-05 2.118403244821820408e-05 3.627277010309626348e-06
1.462000000000000000e+03 1.328537654876708984e+01 3.282696723937988281e+00 -2.090211091854143888e-05 -4.039033592562191188e-05 -1.838773459894582629e-05 1.175036413769703358e-05
1.463000000000000000e+03 2.197399139404296875e+01 -1.381338834762573242e+00 -2.128992825746536255e-01 -4.050855711102485657e-02 -7.602235674858093262e-02 1.934505850076675415e-01
1.464000000000000000e+03 2.200564384460449219e+01 -1.925247550010681152e+00 -2.277759760618209839e-01 -6.481228768825531006e-02 -8.777648210525512695e-02 2.504798471927642822e-01
1.465000000000000000e+03 8.154240608215332031e+00 3.286021232604980469e+00 4.020113556180149317e-05 2.417429459455888718e-05 1.931262886500917375e-05 -1.679979504842776805e-05
1.466000000000000000e+03 1.078849506378173828e+01 -4.132874965667724609e+00 -3.267615437507629395e-01 7.189879566431045532e-02 -7.645882666110992432e-02 -2.339365482330322266e-01
1.467000000000000000e+03 9.904575347900390625e+00 -3.362170696258544922e+00 -3.659088611602783203e-01 3.396702185273170471e-02 -9.958255290985107422e-02 -2.300677895545959473e-01
1.468000000000000000e+03 3.512588119506835938e+01 -7.315844058990478516e+00 -1.356440484523773193e-01 -2.539074420928955078e-01 -1.168654486536979675e-01 3.456220328807830811e-01
1.469000000000000000e+03 4.610250473022460938e+01 -1.277694606781005859e+01 -9.302530288696289062e-01 3.127942979335784912e-01 -1.852376163005828857e-01 3.967043459415435791e-01
1.470000000000000000e+03 4.541437911987304688e+01 -1.242552185058593750e+01 -8.575986623764038086e-01 2.466511279344558716e-01 -1.832842528820037842e-01 4.128136932849884033e-01
1.471000000000000000e+03 4.686400985717773438e+01 -1.306002998352050781e+01 -1.029345989227294922e+00 3.042293488979339600e-01 -2.175349891185760498e-01 3.946319520473480225e-01
1.472000000000000000e+03 7.509250640869140625e+01 -1.304902935028076172e+01 -8.822991698980331421e-02 -1.319797709584236145e-02 -3.042836859822273254e-02 -6.400065124034881592e-02
1.473000000000000000e+03 7.439281463623046875e+01 -1.294736862182617188e+01 -1.066574156284332275e-01 -7.771793287247419357e-03 -3.432876244187355042e-02 -6.725294142961502075e-02
1.474000000000000000e+03 7.632341003417968750e+01 -1.255523967742919922e+01 -4.467623308300971985e-02 -3.343470767140388489e-02 -2.343328297138214111e-02 -5.474734306335449219e-02
1.475000000000000000e+03 7.569426727294921875e+01 -1.294753074645996094e+01 -7.372688502073287964e-02 -2.632648497819900513e-02 -3.001601062715053558e-02 -6.023436039686203003e-02
1.476000000000000000e+03 1.448602104187011719e+01 -3.230555772781372070e+00 -5.039618611335754395e-01 1.145531088113784790e-01 -1.168226301670074463e-01 -3.554410114884376526e-02
1.477000000000000000e+03 9.028565406799316406e+00 -2.606312036514282227e+00 -3.899410068988800049e-01 1.113605592399835587e-02 -1.136414855718612671e-01 -2.074858695268630981e-01
1.478000000000000000e+03 1.066216182708740234e+01 -3.359786748886108398e+00 -3.945194780826568604e-01 4.622083157300949097e-02 -1.044895946979522705e-01 -2.136787027120590210e-01
1.479000000000000000e+03 7.420932769775390625e+00 3.334438562393188477e+00 -1.737038292048964649e-05 -2.630796006997115910e-05 -1.310350307903718203e-05 1.535995215817820281e-05
1.480000000000000000e+03 8.884369850158691406e+00 3.255095005035400391e+00 -6.073767963243881240e-06 -3.928360456484369934e-05 -1.360721125820418820e-05 1.306614012719364837e-05
1.481000000000000000e+03 5.144167900085449219e+00 3.565378904342651367e+00 3.753116834559477866e-05 1.280449032492469996e-05 1.510069705545902252e-05 -1.738789615046698600e-05
1.482000000000000000e+03 2.843979597091674805e+00 4.890533924102783203e+00 2.516561835363972932e-06 4.800791793968528509e-05 1.515734402346424758e-05 -2.589060204627458006e-05
1.483000000000000000e+03 5.298507690429687500e+00 4.364386558532714844e+00 -1.855731534305959940e-05 -1.282724315387895331e-05 -9.415367458132095635e-06 -4.249910034559434280e-06
1.484000000000000000e+03 6.677932262420654297e+00 3.394362688064575195e+00 4.981374877388589084e-05 9.658050657890271395e-06 1.784153937478549778e-05 -1.711390177661087364e-05
1.485000000000000000e+03 6.824713706970214844e+00 4.178760528564453125e+00 -2.848217627615667880e-05 -1.759784390742424875e-05 -1.382400569127639756e-05 1.285123107663821429e-05
1.486000000000000000e+03 1.035072612762451172e+01 3.269709825515747070e+00 -1.682919537415727973e-05 -3.388316690688952804e-05 -1.521370813861722127e-05 6.323292836896143854e-06
1.487000000000000000e+03 9.617113113403320312e+00 3.252444028854370117e+00 3.614956949604675174e-05 3.001864570251200348e-05 1.985046401387080550e-05 1.017161821437184699e-06
1.488000000000000000e+03 6.917921543121337891e+00 -3.343132019042968750e+00 -2.343921661376953125e-01 -1.969308778643608093e-02 -7.622557878494262695e-02 -2.458616197109222412e-01
1.489000000000000000e+03 5.258405685424804688e+00 -2.703284502029418945e+00 -1.794190555810928345e-01 -3.448590263724327087e-02 -6.417148560285568237e-02 -1.898628622293472290e-01
1.490000000000000000e+03 3.744658946990966797e+00 -2.903391599655151367e+00 -1.055897921323776245e-01 -5.867696553468704224e-02 -4.928002506494522095e-02 -1.554429829120635986e-01
1.491000000000000000e+03 6.381168365478515625e+00 -4.091824054718017578e+00 -1.769125908613204956e-01 -4.034116864204406738e-02 -6.517612934112548828e-02 -2.691212892532348633e-01
1.492000000000000000e+03 2.969136714935302734e+00 -3.015000820159912109e+00 -7.517068833112716675e-02 -7.240898907184600830e-02 -4.427390545606613159e-02 -1.356880217790603638e-01
1.493000000000000000e+03 4.410252571105957031e+00 -4.685404777526855469e+00 -8.878316730260848999e-02 -1.078149154782295227e-01 -5.897942557930946350e-02 -2.394216954708099365e-01
1.494000000000000000e+03 7.065964221954345703e+00 -4.068483829498291016e+00 -2.025299966335296631e-01 -2.410934306681156158e-02 -6.799180060625076294e-02 -2.778919935226440430e-01
1.495000000000000000e+03 8.396422386169433594e+00 -3.340622425079345703e+00 -3.024227619171142578e-01 7.714928127825260162e-03 -8.841235190629959106e-02 -2.489084452390670776e-01
1.496000000000000000e+03 4.453908538818359375e+01 -1.086256885528564453e+01 -4.909852743148803711e-01 1.315507292747497559e-01 -1.078303679823875427e-01 3.979971408843994141e-01
1.497000000000000000e+03 4.388171005249023438e+01 -1.040995693206787109e+01 -3.928183317184448242e-01 5.841121450066566467e-02 -1.003221347928047180e-01 3.663566410541534424e-01
1.498000000000000000e+03 4.346308898925781250e+01 -1.116586971282958984e+01 -6.052845120429992676e-01 -5.547721870243549347e-03 -1.832496672868728638e-01 4.116490781307220459e-01
1.499000000000000000e+03 4.109960174560546875e+01 -1.064072704315185547e+01 -6.241490244865417480e-01 -2.838044166564941406e-01 -2.723860144615173340e-01 4.548567533493041992e-01
1.500000000000000000e+03 7.602629852294921875e+01 -2.058045768737792969e+01 1.368500852549914271e-05 7.655539775441866368e-06 6.402164672181243077e-06 -4.675303443946177140e-06
1.501000000000000000e+03 3.735229492187500000e+01 -1.686532616615295410e+00 4.052038490772247314e-01 -1.304397732019424438e-01 8.242922276258468628e-02 -5.425321310758590698e-02
1.502000000000000000e+03 3.725683593750000000e+01 -1.038980007171630859e+00 3.739081323146820068e-01 -9.261422604322433472e-02 8.438816666603088379e-02 -6.070070713758468628e-02
1.503000000000000000e+03 4.476379776000976562e+01 -1.202330589294433594e+01 -7.564032077789306641e-01 1.643835157155990601e-01 -1.776059120893478394e-01 4.212962687015533447e-01
1.504000000000000000e+03 4.411948013305664062e+01 -1.159775638580322266e+01 -6.820747852325439453e-01 8.536422997713088989e-02 -1.790131628513336182e-01 4.037876427173614502e-01
1.505000000000000000e+03 1.770143699645996094e+01 -3.527768135070800781e+00 -4.936166405677795410e-01 1.922213435173034668e-01 -9.041859209537506104e-02 1.911582201719284058e-01
1.506000000000000000e+03 1.831937217712402344e+01 -2.744611501693725586e+00 -5.185798406600952148e-01 1.355691254138946533e-01 -1.149032115936279297e-01 2.243929356336593628e-01
1.507000000000000000e+03 2.259308052062988281e+01 -6.538132190704345703e+00 -9.154637455940246582e-01 4.207686334848403931e-02 -2.620160579681396484e-01 2.472897768020629883e-01
1.508000000000000000e+03 2.753584671020507812e+01 -3.971557617187500000e+00 -1.792802065610885620e-01 1.322096288204193115e-01 -1.412117481231689453e-02 -1.337479241192340851e-02
1.509000000000000000e+03 1.218070888519287109e+01 -3.325452089309692383e+00 -4.464065134525299072e-01 7.226938754320144653e-02 -1.122411414980888367e-01 -1.606261581182479858e-01
1.510000000000000000e+03 1.294177722930908203e+01 -3.298235654830932617e+00 -4.693326056003570557e-01 8.566119521856307983e-02 -1.151014193892478943e-01 -1.237256750464439392e-01
1.511000000000000000e+03 3.370453643798828125e+01 -6.312369823455810547e+00 -3.796524554491043091e-02 -1.782049834728240967e-01 -6.485106796026229858e-02 3.195928633213043213e-01
1.512000000000000000e+03 7.197640991210937500e+01 -1.299669742584228516e+01 -1.962930709123611450e-01 1.841682568192481995e-02 -5.336287617683410645e-02 -7.660539448261260986e-02
1.513000000000000000e+03 7.277790832519531250e+01 -1.289425754547119141e+01 -1.725772470235824585e-01 1.971482299268245697e-02 -4.585872590541839600e-02 -7.202800363302230835e-02
1.514000000000000000e+03 7.041977691650390625e+01 -1.305734348297119141e+01 -2.803380787372589111e-01 4.329598695039749146e-02 -7.111262530088424683e-02 -5.348399281501770020e-02
1.515000000000000000e+03 2.121706199645996094e+01 -1.558143734931945801e+00 -3.015489578247070312e-01 5.636802525259554386e-04 -9.029558300971984863e-02 2.354760318994522095e-01
1.516000000000000000e+03 3.973533248901367188e+01 -8.725311279296875000e+00 -1.626367419958114624e-01 -3.248117268085479736e-01 -1.462345421314239502e-01 3.577978610992431641e-01
1.517000000000000000e+03 4.105389404296875000e+01 -8.779920578002929688e+00 -9.018336981534957886e-02 -2.245712727308273315e-01 -9.442639350891113281e-02 3.190979361534118652e-01
1.518000000000000000e+03 1.526159667968750000e+01 -3.175292253494262695e+00 -5.152681469917297363e-01 1.264106929302215576e-01 -1.166572421789169312e-01 1.408700644969940186e-02
1.519000000000000000e+03 2.902350997924804688e+01 -3.756842136383056641e+00 -1.218558624386787415e-01 1.621135771274566650e-01 1.207731291651725769e-02 1.710146665573120117e-01
1.520000000000000000e+03 3.876337814331054688e+01 -7.959570884704589844e+00 -5.261601880192756653e-02 -3.539201319217681885e-01 -1.219608485698699951e-01 3.258179426193237305e-01
1.521000000000000000e+03 3.668438339233398438e+01 -7.680586338043212891e+00 -1.285568922758102417e-01 -3.242431581020355225e-01 -1.358400136232376099e-01 3.589617013931274414e-01
1.522000000000000000e+03 3.176634979248046875e+01 -7.295934677124023438e+00 -1.291076391935348511e-01 -1.143906414508819580e-01 -7.304948568344116211e-02 3.467818796634674072e-01
1.523000000000000000e+03 2.947970962524414062e+01 -6.920315742492675781e+00 -1.078612729907035828e-01 3.486436009407043457e-01 7.223469763994216919e-02 6.408833265304565430e-01
1.524000000000000000e+03 3.793780899047851562e+01 3.889693737030029297e+00 2.043011918431147933e-04 -9.753347694640979171e-05 3.203031519660726190e-05 -1.757921563694253564e-04
1.525000000000000000e+03 3.657688903808593750e+01 5.158945083618164062e+00 9.366372833028435707e-04 -1.200786573463119566e-04 2.449675812385976315e-04 2.799209141812752932e-05
1.526000000000000000e+03 7.360162353515625000e+01 -1.286957550048828125e+01 -1.405021995306015015e-01 8.173178066499531269e-04 -4.190546274185180664e-02 -8.275138586759567261e-02
1.527000000000000000e+03 2.046644592285156250e+01 -1.724042177200317383e+00 -3.797681927680969238e-01 3.374703973531723022e-02 -1.038063466548919678e-01 2.509891688823699951e-01
1.528000000000000000e+03 3.305188369750976562e+01 -3.482748270034790039e+00 1.556541621685028076e-01 -1.792347617447376251e-02 4.131920635700225830e-02 2.360980659723281860e-01
1.529000000000000000e+03 3.352111053466796875e+01 -6.965549945831298828e+00 -1.097317710518836975e-01 -1.652234643697738647e-01 -8.248656988143920898e-02 3.372215330600738525e-01
1.530000000000000000e+03 3.186806869506835938e+01 -6.617953300476074219e+00 -5.899243429303169250e-02 -8.940159529447555542e-02 -4.451820999383926392e-02 3.770876824855804443e-01
1.531000000000000000e+03 4.212130355834960938e+01 -1.030363368988037109e+01 -4.616368710994720459e-01 -1.569780856370925903e-01 -1.855844855308532715e-01 3.964656889438629150e-01
1.532000000000000000e+03 7.216819000244140625e+01 -1.970310592651367188e+01 2.725754166021943092e-05 -4.612513393453809840e-08 8.163424354279413819e-06 6.117752946011023596e-06
1.533000000000000000e+03 2.930261230468750000e+01 -3.196858167648315430e+00 -4.784102365374565125e-02 1.051168665289878845e-01 1.718275249004364014e-02 1.544564515352249146e-01
1.534000000000000000e+03 3.527236938476562500e+01 -6.527385234832763672e+00 -2.492077182978391647e-03 -2.611543238162994385e-01 -7.909391820430755615e-02 2.995037138462066650e-01
1.535000000000000000e+03 2.880677986145019531e+01 -6.993310928344726562e+00 -1.764117740094661713e-02 4.933815896511077881e-01 1.427221298217773438e-01 6.608664989471435547e-01
1.536000000000000000e+03 3.029001235961914062e+01 -7.402966976165771484e+00 1.148359104990959167e-01 -1.488094776868820190e-01 -1.019206736236810684e-02 4.335325062274932861e-01
1.537000000000000000e+03 3.621854019165039062e+01 -2.686383485794067383e+00 3.891228735446929932e-01 -1.725142598152160645e-01 6.498259305953979492e-02 3.771104291081428528e-02
1.538000000000000000e+03 3.877323532104492188e+01 -8.668772697448730469e+00 -2.550861537456512451e-01 -3.687769174575805664e-01 -1.871589273214340210e-01 3.868773281574249268e-01
1.539000000000000000e+03 6.960488128662109375e+01 -2.037856483459472656e+01 2.023577735599246807e-06 8.022982001421041787e-06 3.013968125742394477e-06 -1.426005610483116470e-06
1.540000000000000000e+03 3.904039382934570312e+01 -3.450390815734863281e+00 6.009970307350158691e-01 -1.951192766427993774e-01 1.217633336782455444e-01 -6.820084899663925171e-02
1.541000000000000000e+03 4.001291656494140625e+01 -1.176370382308959961e+00 3.329225480556488037e-01 5.140883848071098328e-02 1.152994111180305481e-01 -2.038313895463943481e-01
1.542000000000000000e+03 4.843133544921875000e+01 -1.517452335357666016e+01 -1.570795774459838867e+00 -6.599230319261550903e-02 -4.910364151000976562e-01 -5.074558407068252563e-02
1.543000000000000000e+03 4.963310623168945312e+01 -1.409612846374511719e+01 -1.450133204460144043e+00 6.887272000312805176e-02 -4.143781363964080811e-01 7.740021497011184692e-02
1.544000000000000000e+03 2.716780662536621094e+01 -7.336966037750244141e+00 -2.945651710033416748e-01 1.098888278007507324e+00 2.412969172000885010e-01 9.232413768768310547e-01
1.545000000000000000e+03 6.054188156127929688e+01 2.747682809829711914e+00 4.431033432483673096e-01 1.131008267402648926e+00 4.722335040569305420e-01 5.852003693580627441e-01
1.546000000000000000e+03 3.068105697631835938e+01 -2.557131767272949219e+00 1.202145069837570190e-01 3.867233917117118835e-02 4.766605421900749207e-02 1.938624382019042969e-01
1.547000000000000000e+03 2.939377212524414062e+01 -2.561606645584106445e+00 1.455811224877834320e-02 6.849397718906402588e-02 2.491562627255916595e-02 1.284506767988204956e-01
1.548000000000000000e+03 4.448152923583984375e+01 -5.138638496398925781e+00 1.183498859405517578e+00 9.719254076480865479e-02 3.842074275016784668e-01 -2.784061133861541748e-01
1.549000000000000000e+03 6.273275756835937500e+01 8.046797752380371094e+00 2.580448985099792480e-01 1.657341480255126953e+00 5.746158957481384277e-01 3.784704804420471191e-01
1.550000000000000000e+03 2.281775474548339844e+01 -9.038561820983886719e+00 7.525676488876342773e-01 -3.045356869697570801e-01 1.344095915555953979e-01 -1.405509561300277710e-01
1.551000000000000000e+03 1.380245399475097656e+01 -2.538273620605468750e+01 6.542825698852539062e-02 7.333480119705200195e-01 2.396328747272491455e-01 -9.560982137918472290e-02
1.552000000000000000e+03 6.745994567871093750e+01 -1.326669406890869141e+01 -3.651550710201263428e-01 -2.607334405183792114e-02 -1.173685193061828613e-01 6.924107670783996582e-02
1.553000000000000000e+03 5.385327529907226562e+01 2.440846061706542969e+01 1.474994868040084839e-01 6.786621361970901489e-02 6.460970640182495117e-02 -1.550485193729400635e-01
1.554000000000000000e+03 5.680158615112304688e+01 -1.196094894409179688e+01 -1.132564544677734375e+00 7.947098463773727417e-02 -3.159280717372894287e-01 -4.272389709949493408e-01
1.555000000000000000e+03 1.383687591552734375e+01 -1.342636203765869141e+01 5.051168203353881836e-01 9.855230450630187988e-01 4.471919536590576172e-01 1.822545230388641357e-01
1.556000000000000000e+03 2.063512420654296875e+01 -9.404100418090820312e+00 6.586275100708007812e-01 1.262535452842712402e-01 2.354643195867538452e-01 6.387530267238616943e-02
1.557000000000000000e+03 4.429386520385742188e+01 -2.442423057556152344e+01 -3.409071592614054680e-03 -1.680191373452544212e-03 -1.526778796687722206e-03 3.586731851100921631e-03
1.558000000000000000e+03 1.959877395629882812e+01 -9.328008651733398438e+00 5.510908365249633789e-01 2.844578623771667480e-01 2.506645917892456055e-01 9.492564946413040161e-02
1.559000000000000000e+03 6.571975708007812500e+01 -2.725859832763671875e+01 1.881480711745098233e-04 1.523163518868386745e-05 6.101391045376658440e-05 1.245901148649863899e-05
1.560000000000000000e+03 7.065511322021484375e+01 -2.873867797851562500e+01 1.449029696232173592e-05 -7.048156112432479858e-05 -1.679737943049985915e-05 -3.033618486369960010e-05
1.561000000000000000e+03 3.640351104736328125e+01 4.261485576629638672e+00 -5.057145608589053154e-04 1.463849621359258890e-04 -1.077988781617023051e-04 -9.993585263146087527e-05
1.562000000000000000e+03 6.445591735839843750e+01 -3.033305740356445312e+01 -7.175094651756808162e-05 -8.807199628790840507e-05 -4.794688356923870742e-05 7.196460501290857792e-05
1.563000000000000000e+03 5.970592117309570312e+01 -3.153502464294433594e+01 -1.037068315781652927e-03 2.026125548582058400e-05 -3.050421073567122221e-04 5.252113915048539639e-04
1.564000000000000000e+03 5.185023498535156250e+01 -1.276280117034912109e+01 -1.253367662429809570e+00 1.757829934358596802e-01 -3.232754170894622803e-01 -2.613456360995769501e-02
1.565000000000000000e+03 5.074078750610351562e+01 -1.292732238769531250e+01 -1.206867098808288574e+00 1.707736700773239136e-01 -3.108280301094055176e-01 1.211990565061569214e-01
1.566000000000000000e+03 2.955106735229492188e+01 -7.540474891662597656e+00 3.571019768714904785e-01 1.673551350831985474e-01 1.573371440172195435e-01 7.469666004180908203e-01
1.567000000000000000e+03 3.543365097045898438e+01 1.170333766937255859e+01 -2.571625169366598129e-03 -2.725629601627588272e-04 -8.532564388588070869e-04 1.171283773146569729e-03
1.568000000000000000e+03 6.654137420654296875e+01 -9.927559852600097656e+00 -6.703578829765319824e-01 -1.081209108233451843e-01 -2.335436344146728516e-01 -4.352422654628753662e-01
1.569000000000000000e+03 6.688598632812500000e+01 -1.169389247894287109e+01 -1.097228765487670898e+00 1.003514602780342102e-01 -2.990631759166717529e-01 -1.608957797288894653e-01
1.570000000000000000e+03 5.426445388793945312e+01 -1.225202178955078125e+01 -1.181644558906555176e+00 1.001297757029533386e-01 -3.244544267654418945e-01 -2.455177009105682373e-01
1.571000000000000000e+03 5.555461120605468750e+01 -1.211225509643554688e+01 -1.151629924774169922e+00 9.756559878587722778e-02 -3.162193000316619873e-01 -3.515464067459106445e-01
1.572000000000000000e+03 3.485761642456054688e+01 8.776637077331542969e+00 -1.508987588749732822e-05 -2.780421054922044277e-04 -8.793959568720310926e-05 -5.322421930031850934e-05
1.573000000000000000e+03 5.301606750488281250e+01 -1.248446559906005859e+01 -1.230080366134643555e+00 1.327169835567474365e-01 -3.292090296745300293e-01 -1.194684728980064392e-01
1.574000000000000000e+03 6.058710861206054688e+01 -1.202134895324707031e+01 -1.375147342681884766e+00 -3.884039819240570068e-02 -4.241963028907775879e-01 -4.965562224388122559e-01
1.575000000000000000e+03 6.556979370117187500e+01 2.116971969604492188e+01 2.582707703113555908e-01 7.891989350318908691e-01 3.142409026622772217e-01 9.149464964866638184e-02
1.576000000000000000e+03 3.435280609130859375e+01 1.736884880065917969e+01 -1.290794182568788528e-02 8.447651052847504616e-04 -3.618952818214893341e-03 9.152375161647796631e-03
1.577000000000000000e+03 7.833893585205078125e+01 -2.147376441955566406e+01 2.611201125546358526e-05 3.147911911582923494e-06 8.777977200224995613e-06 -1.558900862619339023e-06
1.578000000000000000e+03 7.701387023925781250e+01 -2.437866401672363281e+01 -3.127947275061160326e-05 1.854207403084728867e-05 -3.821219252131413668e-06 -1.979338776436634362e-05
1.579000000000000000e+03 7.683968353271484375e+01 -2.577655792236328125e+01 5.826606866321526468e-05 9.698361282062251121e-06 2.038932871073484421e-05 -2.839336957549676299e-05
1.580000000000000000e+03 7.703512573242187500e+01 -3.134384155273437500e+01 3.463189568719826639e-05 7.229303446365520358e-05 3.207747795386239886e-05 -4.394897041493095458e-05
1.581000000000000000e+03 7.658334350585937500e+01 -2.724407768249511719e+01 -3.130259574390947819e-05 2.329720700799953192e-05 -2.401616939096129499e-06 -4.762765820487402380e-05
1.582000000000000000e+03 7.710469055175781250e+01 -3.336334609985351562e+01 5.621433956548571587e-05 7.875387382227927446e-05 4.049046401632949710e-05 -4.962042658007703722e-05
1.583000000000000000e+03 7.657468414306640625e+01 -3.445973205566406250e+01 -6.863148155389353633e-05 1.004431251203641295e-04 9.543494343233760446e-06 -4.222735151415690780e-05
1.584000000000000000e+03 7.708653259277343750e+01 -2.294623565673828125e+01 4.457547402125783265e-05 1.158599388872971758e-06 1.372022234136238694e-05 -1.542624704597983509e-05
1.585000000000000000e+03 7.655876922607421875e+01 -2.874063301086425781e+01 4.233184881741181016e-05 3.457976708887144923e-05 2.307348404428921640e-05 -3.901608579326421022e-05
1.586000000000000000e+03 7.679589080810546875e+01 -3.011890029907226562e+01 -2.557922744017560035e-05 5.104730371385812759e-05 7.640423064003698528e-06 -6.045008194632828236e-05
1.587000000000000000e+03 6.939048004150390625e+01 -2.242392539978027344e+01 7.031061250017955899e-05 5.406046511780004948e-06 2.271499761263839900e-05 -6.175902854010928422e-06
1.588000000000000000e+03 2.205817985534667969e+01 2.642760086059570312e+01 -1.005189679563045502e-02 -5.508658941835165024e-03 -4.668166860938072205e-03 8.753889240324497223e-03
1.589000000000000000e+03 3.791151809692382812e+01 8.270884513854980469e+00 -7.737737614661455154e-04 -4.752169770654290915e-04 -3.746972070075571537e-04 3.652241721283644438e-04
1.590000000000000000e+03 4.434529495239257812e+01 -1.969853401184082031e+01 -1.748723589116707444e-04 1.598241360625252128e-04 -4.514469765126705170e-06 -3.734963001988944598e-06
1.591000000000000000e+03 4.180635833740234375e+01 -2.209597396850585938e+01 -2.334886463358998299e-03 9.190846321871504188e-05 -6.728934240527451038e-04 9.327792213298380375e-04
1.592000000000000000e+03 4.409953689575195312e+01 -2.192338943481445312e+01 -8.104189182631671429e-04 -5.953937652520835400e-04 -4.217438108753412962e-04 8.570086210966110229e-04
1.593000000000000000e+03 4.016884613037109375e+01 -4.839944362640380859e+00 6.297377943992614746e-01 -1.644608527421951294e-01 1.395830959081649780e-01 5.588639155030250549e-02
1.594000000000000000e+03 4.199056625366210938e+01 -3.945149898529052734e+00 9.398019313812255859e-01 1.476411372423171997e-01 3.262329101562500000e-01 -2.205730825662612915e-01
1.595000000000000000e+03 1.265742969512939453e+01 1.754598999023437500e+01 -3.107782104052603245e-04 -1.289282226935029030e-04 -1.319119328400120139e-04 -2.563530870247632265e-06
1.596000000000000000e+03 1.296518230438232422e+01 1.628479003906250000e+01 1.990777964238077402e-04 1.834685390349477530e-04 1.147639050032012165e-04 2.316238678758963943e-04
1.597000000000000000e+03 1.235068130493164062e+01 1.320298862457275391e+01 -1.050318896886892617e-04 1.505758882558438927e-05 -2.699228934943675995e-05 5.736344246543012559e-05
1.598000000000000000e+03 4.262895202636718750e+01 1.814922523498535156e+01 -2.032426558434963226e-02 6.868205964565277100e-03 -4.036818165332078934e-03 -1.999730942770838737e-03
1.599000000000000000e+03 1.551281166076660156e+01 2.466982269287109375e+01 -6.691412534564733505e-03 1.393210113747045398e-04 -1.965627539902925491e-03 3.679675515741109848e-03
1.600000000000000000e+03 7.688803863525390625e+01 3.738819360733032227e+00 2.719224430620670319e-02 -8.111382126808166504e-01 -2.351837754249572754e-01 -1.825340241193771362e-01
1.601000000000000000e+03 7.691654205322265625e+01 2.324819564819335938e+00 2.832419052720069885e-02 -7.501645684242248535e-01 -2.165521085262298584e-01 -2.038937211036682129e-01
1.602000000000000000e+03 7.554880523681640625e+01 9.414268493652343750e+00 6.335243582725524902e-02 -7.539854645729064941e-01 -2.071899026632308960e-01 -1.051684543490409851e-01
1.603000000000000000e+03 7.680535125732421875e+01 9.496708869934082031e+00 3.476649895310401917e-02 -9.736953377723693848e-01 -2.816786468029022217e-01 -8.370961993932723999e-02
1.604000000000000000e+03 7.692449951171875000e+01 1.675716590881347656e+01 3.294720500707626343e-02 -1.013045549392700195e+00 -2.940295040607452393e-01 6.632421910762786865e-02
1.605000000000000000e+03 7.666002655029296875e+01 2.078446960449218750e+01 2.287271805107593536e-02 -8.892531991004943848e-01 -2.599141299724578857e-01 1.317282766103744507e-01
1.606000000000000000e+03 7.624422454833984375e+01 2.354813385009765625e+01 1.197832264006137848e-02 -7.337374091148376465e-01 -2.165277153253555298e-01 1.721066981554031372e-01
1.607000000000000000e+03 7.649284362792968750e+01 2.214881896972656250e+01 1.858508959412574768e-02 -8.203470110893249512e-01 -2.405285835266113281e-01 1.568371355533599854e-01
1.608000000000000000e+03 7.592723846435546875e+01 2.502120399475097656e+01 6.912642624229192734e-03 -6.462986469268798828e-01 -1.918158084154129028e-01 1.850116550922393799e-01
1.609000000000000000e+03 7.677750396728515625e+01 1.943628501892089844e+01 2.304503321647644043e-02 -9.389226436614990234e-01 -2.747632861137390137e-01 1.135265007615089417e-01
1.610000000000000000e+03 7.689247894287109375e+01 1.537891387939453125e+01 4.083174839615821838e-02 -1.020916104316711426e+00 -2.940253019332885742e-01 4.081517085433006287e-02
1.611000000000000000e+03 7.679481506347656250e+01 1.395589923858642578e+01 3.888444975018501282e-02 -1.015007495880126953e+00 -2.928369343280792236e-01 8.731378242373466492e-03
1.612000000000000000e+03 7.674207305908203125e+01 1.248583984375000000e+01 3.662993758916854858e-02 -1.004958987236022949e+00 -2.904987335205078125e-01 -2.135997079312801361e-02
1.613000000000000000e+03 7.682604217529296875e+01 8.032906532287597656e+00 3.308383375406265259e-02 -9.465574026107788086e-01 -2.740420699119567871e-01 -1.119449064135551453e-01
1.614000000000000000e+03 7.683993530273437500e+01 6.592681407928466797e+00 2.883743122220039368e-02 -9.095843434333801270e-01 -2.642240822315216064e-01 -1.357139796018600464e-01
1.615000000000000000e+03 7.693856048583984375e+01 9.309807419776916504e-01 1.689185388386249542e-02 -6.819317340850830078e-01 -1.995119601488113403e-01 -2.209713011980056763e-01
1.616000000000000000e+03 7.695195007324218750e+01 -4.456179738044738770e-01 1.471539586782455444e-02 -6.068840622901916504e-01 -1.776506006717681885e-01 -2.322223782539367676e-01
1.617000000000000000e+03 7.695689392089843750e+01 -1.808105468750000000e+00 1.248095766641199589e-03 -5.300638079643249512e-01 -1.586447060108184814e-01 -2.379861474037170410e-01
1.618000000000000000e+03 7.699916839599609375e+01 -7.151872634887695312e+00 -3.854460641741752625e-02 -2.256651967763900757e-01 -7.926294207572937012e-02 -1.905704885721206665e-01
1.619000000000000000e+03 7.701879119873046875e+01 -8.477743148803710938e+00 -3.951288014650344849e-02 -1.625218838453292847e-01 -6.061042845249176025e-02 -1.583479195833206177e-01
1.620000000000000000e+03 7.691006469726562500e+01 -1.191208457946777344e+01 -4.966410249471664429e-02 -4.976694658398628235e-02 -2.982931397855281830e-02 -6.535861641168594360e-02
1.621000000000000000e+03 7.699915313720703125e+01 -9.786783218383789062e+00 -5.188836529850959778e-02 -1.079058796167373657e-01 -4.793827235698699951e-02 -1.231145784258842468e-01
1.622000000000000000e+03 7.706221008300781250e+01 -1.097560882568359375e+01 -4.695709049701690674e-02 -7.124864310026168823e-02 -3.546172007918357849e-02 -8.682788163423538208e-02
1.623000000000000000e+03 7.695430755615234375e+01 -3.161141395568847656e+00 -9.786179289221763611e-04 -4.498700797557830811e-01 -1.352546066045761108e-01 -2.384756654500961304e-01
1.624000000000000000e+03 7.695331573486328125e+01 -4.499324798583984375e+00 -1.843103207647800446e-02 -3.712544441223144531e-01 -1.169056445360183716e-01 -2.309723645448684692e-01
1.625000000000000000e+03 7.676781463623046875e+01 1.098503112792968750e+01 4.268240183591842651e-02 -9.883208274841308594e-01 -2.836915254592895508e-01 -5.600997060537338257e-02
1.626000000000000000e+03 7.506267547607421875e+01 3.504254913330078125e+01 -4.497383534908294678e-02 -3.533510863780975342e-01 -1.194974780082702637e-01 1.129952967166900635e-01
1.627000000000000000e+03 7.561914062500000000e+01 2.659231758117675781e+01 -6.386303342878818512e-03 -5.689692497253417969e-01 -1.726066768169403076e-01 1.929603070020675659e-01
1.628000000000000000e+03 4.490191650390625000e+01 2.040540695190429688e+01 -1.252698618918657303e-02 6.818472407758235931e-03 -1.712554134428501129e-03 -2.908641239628195763e-03
1.629000000000000000e+03 3.826361846923828125e+01 -1.779676437377929688e+01 1.236048592545557767e-05 -2.580269065219908953e-04 -7.369992817984893918e-05 1.228750043082982302e-04
1.630000000000000000e+03 3.718793869018554688e+01 -1.654933166503906250e+01 1.083039605873636901e-04 4.227964382153004408e-06 3.375957749085500836e-05 1.958337379619479179e-04
1.631000000000000000e+03 3.446821212768554688e+00 3.075056266784667969e+01 3.770676266867667437e-05 -2.330516697838902473e-03 -6.878429558128118515e-04 1.611519139260053635e-03
1.632000000000000000e+03 3.247554540634155273e+00 2.331741714477539062e+01 -5.560920108109712601e-04 -3.085599164478480816e-04 -2.593955723568797112e-04 4.623795684892684221e-04
1.633000000000000000e+03 3.455670595169067383e+00 2.476630783081054688e+01 -8.201896707760170102e-05 -6.265316042117774487e-04 -2.125651808455586433e-04 8.056741789914667606e-04
1.634000000000000000e+03 3.497477293014526367e+00 2.933503341674804688e+01 -3.438680723775178194e-04 -1.939767971634864807e-03 -6.850908393971621990e-04 1.337970839813351631e-03
1.635000000000000000e+03 3.660023450851440430e+00 2.636915206909179688e+01 -5.662606563419103622e-04 -1.011881977319717407e-03 -4.734427784569561481e-04 1.026023062877357006e-03
1.636000000000000000e+03 3.549657106399536133e+00 2.790438079833984375e+01 -1.137649087468162179e-04 -1.411299104802310467e-03 -4.575191996991634369e-04 1.386436284519731998e-03
1.637000000000000000e+03 4.675648689270019531e+00 2.878844642639160156e+01 -2.142826124327257276e-04 -1.713983132503926754e-03 -5.784797249361872673e-04 1.689422293566167355e-03
1.638000000000000000e+03 3.685470342636108398e+00 -2.504742622375488281e+01 1.662609912455081940e-02 -4.588117003440856934e-01 -1.326556801795959473e-01 1.476298570632934570e-01
1.639000000000000000e+03 3.975845336914062500e+00 -3.152411651611328125e+01 -2.618145197629928589e-02 -2.881402075290679932e-01 -9.429650008678436279e-02 1.316249519586563110e-01
1.640000000000000000e+03 4.745929718017578125e+00 1.578302860260009766e+01 7.968112913658842444e-05 -1.082728267647325993e-04 -8.577510016039013863e-06 -7.306956104002892971e-05
1.641000000000000000e+03 3.077701091766357422e+00 1.796329879760742188e+01 -2.514645457267761230e-04 4.689909474109299481e-05 -6.136963202152401209e-05 -4.530433579930104315e-05
1.642000000000000000e+03 3.535130977630615234e+00 1.294137954711914062e+01 1.090324440156109631e-04 5.611311644315719604e-05 4.954366886522620916e-05 -1.523767568869516253e-04
1.643000000000000000e+03 3.574062824249267578e+00 1.523275470733642578e+01 -1.174674180219881237e-04 1.578390219947323203e-05 -3.050505438295658678e-05 -1.228042383445426822e-04
1.644000000000000000e+03 3.024195671081542969e+00 6.669706821441650391e+00 -6.638511695200577378e-05 -3.178810857207281515e-06 -2.086917811539024115e-05 -9.606148523744195700e-06
1.645000000000000000e+03 2.880740165710449219e+00 7.921040058135986328e+00 1.042857838911004364e-04 2.607900933071505278e-05 3.910943996743299067e-05 -5.213323311181738973e-05
1.646000000000000000e+03 3.091669082641601562e+00 -1.343754863739013672e+01 5.031580850481987000e-02 -5.540022850036621094e-01 -1.511059403419494629e-01 -1.618897914886474609e-01
1.647000000000000000e+03 3.066465139389038086e+00 -1.208826732635498047e+01 3.658595681190490723e-02 -5.040303468704223633e-01 -1.402333229780197144e-01 -1.953498572111129761e-01
1.648000000000000000e+03 2.409805774688720703e+00 -5.578850746154785156e+00 -2.762951888144016266e-02 -2.043401896953582764e-01 -6.959091126918792725e-02 -1.738699227571487427e-01
1.649000000000000000e+03 3.167064905166625977e+00 -2.044661903381347656e+01 5.332550033926963806e-02 -6.171298027038574219e-01 -1.691412925720214844e-01 5.512368679046630859e-02
1.650000000000000000e+03 3.224073648452758789e+00 -1.900819396972656250e+01 5.930888652801513672e-02 -6.216339468955993652e-01 -1.686975061893463135e-01 7.848440669476985931e-03
1.651000000000000000e+03 3.168824434280395508e+00 -2.391507720947265625e+01 1.875524036586284637e-02 -5.765560269355773926e-01 -1.673402339220046997e-01 1.201728060841560364e-01
1.652000000000000000e+03 2.940064907073974609e+00 -2.174022483825683594e+01 4.040006175637245178e-02 -6.347274184226989746e-01 -1.782982051372528076e-01 7.904891669750213623e-02
1.653000000000000000e+03 3.697539806365966797e+00 -3.570454788208007812e+01 -2.141475863754749298e-02 -2.576168775558471680e-01 -8.370948582887649536e-02 7.199846208095550537e-02
1.654000000000000000e+03 2.940686702728271484e+00 1.039019203186035156e+01 1.284906174987554550e-04 4.384639032650738955e-05 5.170109943719580770e-05 -9.962957119569182396e-05
1.655000000000000000e+03 4.603361129760742188e+00 -2.415367317199707031e+01 3.923874720931053162e-02 -3.437164425849914551e-01 -9.134330600500106812e-02 1.524515300989151001e-01
1.656000000000000000e+03 3.121238708496093750e+00 -1.481751632690429688e+01 5.323468148708343506e-02 -5.871527791023254395e-01 -1.601754277944564819e-01 -1.215552985668182373e-01
1.657000000000000000e+03 2.990062236785888672e+00 -8.267431259155273438e+00 2.646168461069464684e-03 -3.246432542800903320e-01 -9.659912437200546265e-02 -2.347101867198944092e-01
1.658000000000000000e+03 3.440981626510620117e+00 5.625854492187500000e+00 8.895596693037077785e-05 -9.497408086645009462e-07 2.640186721691861749e-05 -1.305543446505907923e-05
1.659000000000000000e+03 2.988813400268554688e+00 -9.503127098083496094e+00 1.365515962243080139e-02 -3.925572037696838379e-01 -1.136706173419952393e-01 -2.289283275604248047e-01
1.660000000000000000e+03 3.222208738327026367e+00 -1.760301017761230469e+01 5.667677521705627441e-02 -6.196764111518859863e-01 -1.688998788595199585e-01 -3.335176408290863037e-02
1.661000000000000000e+03 2.993557929992675781e+00 2.060618400573730469e+01 -4.006186500191688538e-04 -8.924972462409641594e-06 -1.228630862897261977e-04 1.132989709731191397e-04
1.662000000000000000e+03 3.084970474243164062e+00 2.194099426269531250e+01 4.310774238547310233e-05 -1.860426127677783370e-04 -4.288045965950004756e-05 2.806416305247694254e-04
1.663000000000000000e+03 2.990490198135375977e+00 1.928399276733398438e+01 1.233691291417926550e-04 8.888217735147918575e-07 3.727738658199086785e-05 8.518311005900613964e-06
1.664000000000000000e+03 4.121782302856445312e+00 2.058902931213378906e+01 -1.212310326081933454e-05 -2.037110098171979189e-04 -6.475023837992921472e-05 1.612967753317207098e-04
1.665000000000000000e+03 3.150540113449096680e+00 1.163834285736083984e+01 -7.969530270202085376e-05 2.728461822698591277e-06 -2.309005139977671206e-05 -7.966837983985897154e-06
1.666000000000000000e+03 2.858315229415893555e+00 9.158559799194335938e+00 -8.434827759629115462e-05 1.328292455582413822e-05 -2.131960536644328386e-05 -5.575536761170951650e-06
1.667000000000000000e+03 3.232895278930664062e+01 -3.223048782348632812e+01 4.563940688967704773e-03 6.479500327259302139e-03 3.313032211735844612e-03 -2.764188451692461967e-03
1.668000000000000000e+03 6.990798187255859375e+01 -2.418013381958007812e+01 1.065743417711928487e-04 -2.335633325856178999e-05 2.496540218999143690e-05 7.248790097946766764e-06
1.669000000000000000e+03 7.825436401367187500e+01 -2.033504104614257812e+01 -2.471927109581883997e-05 4.528868430497823283e-06 -6.057121026969980448e-06 -9.282958671974483877e-06
1.670000000000000000e+03 3.892667388916015625e+01 1.263522624969482422e+01 -7.428171113133430481e-03 1.546645420603454113e-03 -1.764457789249718189e-03 -5.560271674767136574e-04
1.671000000000000000e+03 3.831717681884765625e+01 1.141940593719482422e+01 -3.000160213559865952e-03 6.782552227377891541e-04 -6.965715438127517700e-04 -7.054323796182870865e-04
1.672000000000000000e+03 1.850984001159667969e+01 3.917993783950805664e+00 -5.538948244065977633e-05 -1.142169139711768366e-06 -1.695949504210148007e-05 -4.783585154655156657e-07
1.673000000000000000e+03 1.168299484252929688e+01 1.581950092315673828e+01 -1.374213170493021607e-04 -1.708516792859882116e-04 -9.248189599020406604e-05 5.081944254925474524e-05
1.674000000000000000e+03 3.741473770141601562e+01 -1.910958862304687500e+01 -9.688641148386523128e-05 -2.038866514340043068e-04 -9.023192251333966851e-05 3.854696115013211966e-05
1.675000000000000000e+03 6.759318542480468750e+01 -2.931785392761230469e+01 9.107317600864917040e-05 -7.135258783819153905e-05 5.916176178288878873e-06 -7.443867798428982496e-05
1.676000000000000000e+03 3.757566070556640625e+01 -2.033169174194335938e+01 -7.907974068075418472e-04 -3.616439935285598040e-04 -3.457324346527457237e-04 -4.486410762183368206e-04
1.677000000000000000e+03 3.648984146118164062e+01 1.197437286376953125e+01 -4.087518434971570969e-03 5.102684954181313515e-04 -1.073174993507564068e-03 1.058971276506781578e-03
1.678000000000000000e+03 3.081367301940917969e+01 -3.308437728881835938e+01 1.492372434586286545e-02 1.276051253080368042e-02 8.305271156132221222e-03 -1.469341572374105453e-02
1.679000000000000000e+03 1.138550376892089844e+01 -2.019000434875488281e+01 3.339614868164062500e-01 7.849778532981872559e-01 3.356818258762359619e-01 2.797019481658935547e-02
1.680000000000000000e+03 6.752671051025390625e+01 -1.481200885772705078e+01 -9.547979384660720825e-02 -5.639809370040893555e-02 -4.556336626410484314e-02 5.052281171083450317e-02
1.681000000000000000e+03 2.124404907226562500e+01 2.511106109619140625e+01 -1.154953427612781525e-02 -3.697076113894581795e-03 -4.573983140289783478e-03 7.402606774121522903e-03
1.682000000000000000e+03 6.218209838867187500e+01 2.390756130218505859e+00 4.298004209995269775e-01 8.489820957183837891e-01 3.836347460746765137e-01 3.283967077732086182e-01
1.683000000000000000e+03 1.609919738769531250e+01 8.592199325561523438e+00 8.248772792285308242e-05 3.956694490625523031e-05 3.661640221253037453e-05 5.803160456707701087e-05
1.684000000000000000e+03 1.509969997406005859e+01 8.067099571228027344e+00 -4.398060991661623120e-05 2.544075186960981227e-06 -1.243096085090655833e-05 -4.284043461666442454e-05
1.685000000000000000e+03 1.982230186462402344e+01 -2.978736305236816406e+01 1.020217388868331909e-01 2.995030879974365234e-01 1.204574480652809143e-01 -1.853709369897842407e-01
1.686000000000000000e+03 3.943979644775390625e+01 1.389337444305419922e+01 -9.968336671590805054e-03 3.116512671113014221e-03 -2.055547200143337250e-03 -1.280767493881285191e-03
1.687000000000000000e+03 1.416594982147216797e+01 9.094844818115234375e+00 4.294299651519395411e-05 4.375247590360231698e-05 2.600864172563888133e-05 8.192451059585437179e-05
1.688000000000000000e+03 5.826654815673828125e+01 -2.382450103759765625e+00 8.166902661323547363e-01 5.973386168479919434e-01 4.242086708545684814e-01 5.460310578346252441e-01
1.689000000000000000e+03 5.729846954345703125e+01 -1.517499446868896484e+00 8.582819700241088867e-01 8.752244114875793457e-01 5.200518965721130371e-01 7.472259998321533203e-01
1.690000000000000000e+03 5.913334274291992188e+01 -1.300451993942260742e+00 6.920021772384643555e-01 6.523655056953430176e-01 4.033102989196777344e-01 5.311174392700195312e-01
1.691000000000000000e+03 3.795233154296875000e+01 -2.145248222351074219e+01 -2.173482440412044525e-03 -1.671822101343423128e-04 -7.021993515081703663e-04 -7.632350316271185875e-04
1.692000000000000000e+03 3.498558044433593750e+01 5.657989501953125000e+00 3.711162717081606388e-04 2.968065382447093725e-04 2.003768313443288207e-04 -4.352585528977215290e-05
1.693000000000000000e+03 3.582310104370117188e+01 5.428667545318603516e+00 -2.377518976572901011e-04 -3.947927907574921846e-04 -1.897634065244346857e-04 -8.301859452330972999e-06
1.694000000000000000e+03 7.187824249267578125e+01 -2.103531455993652344e+01 -9.360003787151072174e-06 -6.188062798173632473e-06 -4.664419975597411394e-06 1.958407847268972546e-05
1.695000000000000000e+03 1.529810428619384766e+01 -1.150115966796875000e+01 6.610960364341735840e-01 7.040702700614929199e-01 4.095498919486999512e-01 2.330829501152038574e-01
1.696000000000000000e+03 4.956797790527343750e+01 -3.549273300170898438e+01 2.389667788520455360e-03 -4.405455198138952255e-03 -6.047362112440168858e-04 3.472357755526900291e-03
1.697000000000000000e+03 2.072671890258789062e+00 3.697818040847778320e+00 4.570715827867388725e-05 2.501851486158557236e-05 2.121770194207783788e-05 -2.210988299111704691e-07
1.698000000000000000e+03 3.710108566284179688e+01 -2.617031097412109375e+01 -9.980608709156513214e-03 3.806036664173007011e-03 -1.852371729910373688e-03 -1.623131916858255863e-03
1.699000000000000000e+03 3.773597717285156250e+01 -2.327699851989746094e+01 -5.157272331416606903e-03 5.262946942821145058e-04 -1.389293232932686806e-03 -1.828630454838275909e-03
1.700000000000000000e+03 5.044130706787109375e+01 -7.579600334167480469e+00 8.326329588890075684e-01 7.153489589691162109e-01 4.643945693969726562e-01 3.783409297466278076e-01
1.701000000000000000e+03 6.323247528076171875e+01 1.043076705932617188e+01 1.923054903745651245e-01 1.716040968894958496e+00 5.725039839744567871e-01 2.401060461997985840e-01
1.702000000000000000e+03 1.745802879333496094e+01 -1.075301456451416016e+01 7.950179576873779297e-01 5.772804617881774902e-01 4.116895198822021484e-01 2.952152788639068604e-01
1.703000000000000000e+03 6.567404174804687500e+01 1.567081832885742188e+01 3.119996786117553711e-01 1.121438264846801758e+00 4.300313889980316162e-01 -8.153793215751647949e-02
1.704000000000000000e+03 2.602061653137207031e+01 2.526525688171386719e+01 -1.389225665479898453e-02 -7.560259662568569183e-03 -6.435754708945751190e-03 9.904621168971061707e-03
1.705000000000000000e+03 2.506752395629882812e+01 2.583520126342773438e+01 -1.153836399316787720e-02 -8.573076687753200531e-03 -6.033432204276323318e-03 1.021001022309064865e-02
1.706000000000000000e+03 1.552431011199951172e+01 -8.377408027648925781e+00 9.566156566143035889e-02 4.746131300926208496e-01 1.710824072360992432e-01 -2.011438831686973572e-02
1.707000000000000000e+03 2.938783454895019531e+01 2.291041183471679688e+01 -1.899831183254718781e-02 -1.253056991845369339e-02 -9.458664804697036743e-03 8.727467618882656097e-03
1.708000000000000000e+03 4.404490280151367188e+01 -6.081665039062500000e+00 9.183280467987060547e-01 7.876451313495635986e-02 2.991277575492858887e-01 -4.746052250266075134e-02
1.709000000000000000e+03 6.348411941528320312e+01 -1.056368827819824219e+01 -9.566377401351928711e-01 -4.573496282100677490e-01 -4.241962134838104248e-01 -3.785192072391510010e-01
1.710000000000000000e+03 3.512271499633789062e+01 7.559345245361328125e+00 3.436076076468452811e-05 -2.161052725568879396e-05 3.825069597951369360e-06 -1.044851160258986056e-04
1.711000000000000000e+03 5.905578231811523438e+01 -1.133688068389892578e+01 -1.076071023941040039e+00 4.211349412798881531e-02 -3.101872801780700684e-01 -4.457206130027770996e-01
1.712000000000000000e+03 6.758901977539062500e+01 -1.418693351745605469e+01 -2.324738800525665283e-01 -5.415783822536468506e-02 -8.598951250314712524e-02 7.113423943519592285e-02
1.713000000000000000e+03 2.320524024963378906e+01 -4.778155326843261719e+00 -4.266250431537628174e-01 -4.454462528228759766e-01 -2.616213858127593994e-01 6.283437609672546387e-01
1.714000000000000000e+03 2.324902725219726562e+01 -4.596058368682861328e+00 -3.434078991413116455e-01 -4.617730677127838135e-01 -2.415542900562286377e-01 5.752127170562744141e-01
1.715000000000000000e+03 2.286328506469726562e+01 -4.123613834381103516e+00 -3.106046617031097412e-01 -3.088224530220031738e-01 -1.858281344175338745e-01 5.058465003967285156e-01
1.716000000000000000e+03 2.706355285644531250e+01 -5.488953113555908203e+00 -6.607639789581298828e-01 3.772797882556915283e-01 -8.504525572061538696e-02 -1.709945648908615112e-01
1.717000000000000000e+03 2.292792129516601562e+01 -5.993447780609130859e+00 -1.186588883399963379e+00 -8.531608432531356812e-02 -3.815714716911315918e-01 5.921530127525329590e-01
1.718000000000000000e+03 2.312978172302246094e+01 -5.564963817596435547e+00 -9.343343377113342285e-01 -3.263048529624938965e-01 -3.781917691230773926e-01 7.417997717857360840e-01
1.719000000000000000e+03 2.777429199218750000e+01 -3.625982522964477539e+00 -1.426779180765151978e-01 1.248092651367187500e-01 -5.360595416277647018e-03 1.974814757704734802e-02
1.720000000000000000e+03 2.293300819396972656e+01 -4.730031490325927734e+00 -4.769142270088195801e-01 -3.397096693515777588e-01 -2.449871748685836792e-01 6.184912919998168945e-01
1.721000000000000000e+03 2.324877738952636719e+01 -6.123875141143798828e+00 -1.336037039756774902e+00 -1.685542762279510498e-01 -4.513773918151855469e-01 6.446030139923095703e-01
1.722000000000000000e+03 2.248628234863281250e+01 -6.160080432891845703e+00 -9.879924058914184570e-01 6.363145262002944946e-02 -2.773082852363586426e-01 3.664670884609222412e-01
1.723000000000000000e+03 2.213977241516113281e+01 -6.421534061431884766e+00 -7.901629805564880371e-01 1.402745097875595093e-01 -1.949665397405624390e-01 2.813139557838439941e-01
1.724000000000000000e+03 7.642445373535156250e+01 -2.127778625488281250e+01 1.495505330240121111e-05 1.109299046220257878e-05 7.814413038431666791e-06 -2.486374796717427671e-05
1.725000000000000000e+03 7.575167846679687500e+01 -1.994267654418945312e+01 2.348970156162977219e-06 3.167862061559389986e-08 7.141945843613939360e-07 -8.229444574681110680e-06
1.726000000000000000e+03 2.997276115417480469e+01 -3.227006673812866211e+00 -7.515947800129652023e-03 9.781181812286376953e-02 2.708876132965087891e-02 2.097122669219970703e-01
1.727000000000000000e+03 3.437092208862304688e+01 3.363634347915649414e+00 6.674390751868486404e-04 -2.906997106038033962e-04 1.130218151956796646e-04 -9.469265933148562908e-05
1.728000000000000000e+03 3.591957092285156250e+01 -7.504187583923339844e+00 -1.381236016750335693e-01 -2.964704334735870361e-01 -1.303782016038894653e-01 3.420570492744445801e-01
1.729000000000000000e+03 1.619431304931640625e+01 5.053984642028808594e+00 -1.850895750976633281e-05 -7.371397805400192738e-05 -2.766688157862517983e-05 -3.158878826070576906e-05
1.730000000000000000e+03 3.961035537719726562e+01 -1.829167366027832031e+01 -3.696127678267657757e-04 -3.732488548848778009e-04 -2.228584926342591643e-04 7.135247142286971211e-05
1.731000000000000000e+03 1.469721794128417969e+01 4.012695312500000000e+00 2.777012923615984619e-05 6.821744318585842848e-05 2.879627027141395956e-05 1.663633884163573384e-05
1.732000000000000000e+03 1.330869483947753906e+01 4.668499469757080078e+00 -9.313262125942856073e-06 -5.593880268861539662e-05 -1.957562017196323723e-05 4.525835902313701808e-05
1.733000000000000000e+03 1.181456184387207031e+01 4.018486976623535156e+00 5.350962601369246840e-05 2.473199310770723969e-05 2.347248482692521065e-05 -2.893178134399931878e-06
1.734000000000000000e+03 1.747006988525390625e+01 4.603866100311279297e+00 -5.854494520463049412e-05 -3.878200004692189395e-05 -2.919808321166783571e-05 -4.605924186762422323e-05
1.735000000000000000e+03 3.873389434814453125e+01 -2.093451309204101562e+01 -1.727215712890028954e-03 2.162934542866423726e-04 -4.532766761258244514e-04 -4.650565097108483315e-04
1.736000000000000000e+03 3.975097274780273438e+01 -1.670227050781250000e+01 3.443942478043027222e-05 -1.914435270009562373e-04 -4.710123175755143166e-05 7.379135058727115393e-05
1.737000000000000000e+03 1.470966815948486328e+01 3.305800199508666992e+00 -2.861223219952080399e-05 -3.667512282845564187e-05 -1.958620669029187411e-05 -2.297320634170318954e-06
1.738000000000000000e+03 1.328418254852294922e+01 3.982162475585937500e+00 2.988449887197930366e-05 5.573701128014363348e-05 2.568645322753582150e-05 -2.905338078562635928e-06
1.739000000000000000e+03 3.774057388305664062e+01 -6.222932815551757812e+00 2.106223702430725098e-01 -3.242598176002502441e-01 -3.409123048186302185e-02 2.338288128376007080e-01
1.740000000000000000e+03 1.546345233917236328e+01 4.017032623291015625e+00 -4.188313323538750410e-05 -3.772816489799879491e-05 -2.388338907621800900e-05 -2.310410309291910380e-05
1.741000000000000000e+03 1.182190418243408203e+01 3.287187814712524414e+00 -2.373101233388297260e-05 -3.153842408210039139e-05 -1.658083056099712849e-05 1.463118496758397669e-05
1.742000000000000000e+03 1.107186412811279297e+01 4.011958599090576172e+00 -3.379431291250512004e-05 -2.526359276089351624e-05 -1.771737152012065053e-05 1.178900311060715467e-05
1.743000000000000000e+03 1.034385776519775391e+01 3.980275630950927734e+00 5.203119144425727427e-05 2.309438787051476538e-05 2.253767343063373119e-05 1.276863258681260049e-05
1.744000000000000000e+03 4.278450393676757812e+01 -1.896016311645507812e+01 -3.848174528684467077e-04 -1.389911631122231483e-04 -1.571425818838179111e-04 -3.518498851917684078e-05
1.745000000000000000e+03 1.255755329132080078e+01 4.004452228546142578e+00 -2.635406235640402883e-05 -3.645451943157240748e-05 -1.884257471829187125e-05 2.713217691052705050e-05
1.746000000000000000e+03 3.593454837799072266e+00 3.810181379318237305e+00 4.017155879409983754e-05 1.776203680492471904e-05 1.738007813401054591e-05 -2.519967165426351130e-05
1.747000000000000000e+03 1.155803108215332031e+01 -4.110292434692382812e+00 -3.494041264057159424e-01 9.109061956405639648e-02 -7.749405503273010254e-02 -2.068734467029571533e-01
1.748000000000000000e+03 7.621957397460937500e+01 -1.125465583801269531e+01 -6.491201370954513550e-02 -5.860538780689239502e-02 -3.705522045493125916e-02 -1.003356128931045532e-01
1.749000000000000000e+03 7.454708862304687500e+01 -1.221490287780761719e+01 -1.256564110517501831e-01 -2.018645778298377991e-02 -4.375286400318145752e-02 -1.032400056719779968e-01
1.750000000000000000e+03 4.639876174926757812e+01 -1.200712680816650391e+01 -8.062606453895568848e-01 3.148720264434814453e-01 -1.474165916442871094e-01 4.387191832065582275e-01
1.751000000000000000e+03 9.148903846740722656e+00 -3.353492259979248047e+00 -3.355227708816528320e-01 2.134681865572929382e-02 -9.425278753042221069e-02 -2.435056269168853760e-01
1.752000000000000000e+03 4.504230117797851562e+01 -1.012425518035888672e+01 -2.746543884277343750e-01 1.799646317958831787e-01 -2.840692549943923950e-02 3.689523339271545410e-01
1.753000000000000000e+03 1.473588943481445312e+01 -4.657121181488037109e+00 -3.591637313365936279e-01 2.132329195737838745e-01 -4.377924650907516479e-02 -3.971429541707038879e-02
1.754000000000000000e+03 1.603590011596679688e+01 -3.097304821014404297e+00 -5.262189507484436035e-01 1.376743763685226440e-01 -1.165633723139762878e-01 6.890111416578292847e-02
1.755000000000000000e+03 9.636691093444824219e+00 3.938141584396362305e+00 -9.204121852235402912e-06 -4.312256714911200106e-05 -1.569800588185898960e-05 2.147157374565722421e-06
1.756000000000000000e+03 1.383411788940429688e+01 -3.983710765838623047e+00 -4.129630029201507568e-01 1.446855664253234863e-01 -8.048323541879653931e-02 -8.773756772279739380e-02
1.757000000000000000e+03 5.493196010589599609e+00 5.067264080047607422e+00 7.573952461825683713e-05 -1.683708069322165102e-05 1.767073263181373477e-05 -2.466568548697978258e-05
1.758000000000000000e+03 7.563042640686035156e+00 4.107308387756347656e+00 5.645306373480707407e-05 1.159161911346018314e-05 2.041340485448017716e-05 -2.577270970505196601e-05
1.759000000000000000e+03 4.511064052581787109e+00 4.608541011810302734e+00 3.636429028119891882e-05 1.293918285227846354e-05 1.479104230384109542e-05 -2.718539508350659162e-05
1.760000000000000000e+03 5.919840812683105469e+00 3.466606140136718750e+00 -1.775371310941409320e-05 -1.749276816553901881e-05 -1.057394456438487396e-05 1.839821379689965397e-06
1.761000000000000000e+03 4.369274139404296875e+00 3.697313070297241211e+00 -1.525708557892357931e-05 -1.542821337352506816e-05 -9.205589776684064418e-06 3.461143251115572639e-06
1.762000000000000000e+03 6.195232868194580078e+00 -3.380043745040893555e+00 -2.004553228616714478e-01 -3.310751169919967651e-02 -7.006885111331939697e-02 -2.393785715103149414e-01
1.763000000000000000e+03 7.195203781127929688e+00 -4.823302268981933594e+00 -1.672921031713485718e-01 -2.771933749318122864e-02 -5.850343406200408936e-02 -3.017443716526031494e-01
1.764000000000000000e+03 7.772201538085937500e+00 -4.064171791076660156e+00 -2.285601645708084106e-01 -4.804013762623071671e-03 -7.000925391912460327e-02 -2.810125946998596191e-01
1.765000000000000000e+03 5.473028659820556641e+00 -3.462803840637207031e+00 -1.655801683664321899e-01 -4.780540987849235535e-02 -6.401567161083221436e-02 -2.283388376235961914e-01
1.766000000000000000e+03 4.744769573211669922e+00 -3.612292766571044922e+00 -1.314640939235687256e-01 -6.538216769695281982e-02 -5.905387923121452332e-02 -2.176226973533630371e-01
1.767000000000000000e+03 3.037499427795410156e+00 -4.777866840362548828e+00 -5.280921235680580139e-02 -1.407984644174575806e-01 -5.808230116963386536e-02 -1.911343932151794434e-01
1.768000000000000000e+03 8.505618095397949219e+00 -4.082762718200683594e+00 -2.560896575450897217e-01 1.583328470587730408e-02 -7.207691669464111328e-02 -2.797365784645080566e-01
1.769000000000000000e+03 1.001941776275634766e+01 -4.136206626892089844e+00 -3.027067184448242188e-01 5.297518149018287659e-02 -7.491945475339889526e-02 -2.567578554153442383e-01
1.770000000000000000e+03 1.680840492248535156e+01 -2.998381853103637695e+00 -5.309401750564575195e-01 1.436701864004135132e-01 -1.161809936165809631e-01 1.228805184364318848e-01
1.771000000000000000e+03 1.784009170532226562e+01 -4.179459095001220703e+00 -4.574870169162750244e-01 2.447839975357055664e-01 -6.381090730428695679e-02 1.989113390445709229e-01
1.772000000000000000e+03 8.951779365539550781e+00 3.948910713195800781e+00 3.172176366206258535e-05 3.524696512613445520e-05 2.009061790886335075e-05 -8.057988452492281795e-06
1.773000000000000000e+03 3.444226455688476562e+01 -6.447524070739746094e+00 -2.427626587450504303e-02 -2.089432626962661743e-01 -6.996585428714752197e-02 3.182475268840789795e-01
1.774000000000000000e+03 4.706251525878906250e+01 -1.219398689270019531e+01 -8.339716792106628418e-01 3.237654864788055420e-01 -1.530618667602539062e-01 4.036288857460021973e-01
1.775000000000000000e+03 1.694631576538085938e+01 -3.672386646270751953e+00 -4.818674027919769287e-01 1.977158337831497192e-01 -8.524546772241592407e-02 1.347735226154327393e-01
1.776000000000000000e+03 1.231634235382080078e+01 -4.072346210479736328e+00 -3.719735741615295410e-01 1.080624163150787354e-01 -7.917334884405136108e-02 -1.714236140251159668e-01
1.777000000000000000e+03 6.929943084716796875e+01 -1.266935729980468750e+01 -3.633891642093658447e-01 7.220100611448287964e-02 -8.735644817352294922e-02 -3.905646875500679016e-02
1.778000000000000000e+03 6.968621063232421875e+01 -1.321105384826660156e+01 -3.139286637306213379e-01 5.326404422521591187e-02 -7.819938659667968750e-02 -3.074590861797332764e-02
1.779000000000000000e+03 1.905492591857910156e+01 -2.601571798324584961e+00 -4.927165508270263672e-01 1.179956048727035522e-01 -1.124162822961807251e-01 2.653981447219848633e-01
1.780000000000000000e+03 2.054176330566406250e+01 -2.326920509338378906e+00 -3.916913866996765137e-01 3.925502300262451172e-02 -1.057309061288833618e-01 3.100655376911163330e-01
1.781000000000000000e+03 3.772637557983398438e+01 -2.857474088668823242e+00 4.632273614406585693e-01 -2.019014507532119751e-01 7.839776575565338135e-02 -2.959747798740863800e-02
1.782000000000000000e+03 2.767922592163085938e+01 -4.480443000793457031e+00 -2.958852052688598633e-01 2.300391048192977905e-01 -1.975382678210735321e-02 -5.434225313365459442e-03
1.783000000000000000e+03 7.192144012451171875e+01 -1.229234218597412109e+01 -2.450759261846542358e-01 3.710107505321502686e-02 -6.239245459437370300e-02 -1.074729412794113159e-01
1.784000000000000000e+03 7.567373657226562500e+01 -1.193132019042968750e+01 -9.301199764013290405e-02 -4.277902841567993164e-02 -4.073730856180191040e-02 -9.738045185804367065e-02
1.785000000000000000e+03 4.016362762451171875e+01 -9.190778732299804688e+00 -2.704626917839050293e-01 -3.151551783084869385e-01 -1.756853610277175903e-01 3.726752400398254395e-01
1.786000000000000000e+03 4.077268600463867188e+01 -6.797125816345214844e+00 3.395252227783203125e-01 -1.945862174034118652e-01 4.348170012235641479e-02 1.851916313171386719e-01
1.787000000000000000e+03 1.461018848419189453e+01 -3.941131830215454102e+00 -4.293169379234313965e-01 1.635495126247406006e-01 -7.973022013902664185e-02 -3.931904584169387817e-02
1.788000000000000000e+03 1.539286327362060547e+01 -3.880970001220703125e+00 -4.485663771629333496e-01 1.792825311422348022e-01 -8.078515529632568359e-02 1.810020394623279572e-02
1.789000000000000000e+03 4.761887359619140625e+01 -1.488527107238769531e+01 -1.188726067543029785e+00 2.184459269046783447e-01 -2.910840213298797607e-01 1.873827725648880005e-01
1.790000000000000000e+03 7.120683288574218750e+01 -1.305667877197265625e+01 -2.387422621250152588e-01 4.382079467177391052e-02 -5.847644060850143433e-02 -6.072222441434860229e-02
1.791000000000000000e+03 4.143731689453125000e+01 -9.899983406066894531e+00 -3.798959553241729736e-01 -2.193626910448074341e-01 -1.797775924205780029e-01 3.828147351741790771e-01
1.792000000000000000e+03 4.177067184448242188e+01 -9.127088546752929688e+00 -1.645475775003433228e-01 -1.659663021564483643e-01 -9.915416687726974487e-02 3.271005153656005859e-01
1.793000000000000000e+03 3.811601257324218750e+01 -7.904438972473144531e+00 -7.297297567129135132e-02 -3.460050523281097412e-01 -1.256934106349945068e-01 3.497385084629058838e-01
1.794000000000000000e+03 7.366352844238281250e+01 -1.201333618164062500e+01 -1.582682877779006958e-01 -6.967751542106270790e-04 -4.768951982259750366e-02 -1.049912944436073303e-01
1.795000000000000000e+03 3.610291290283203125e+01 -6.731567382812500000e+00 1.966524869203567505e-02 -2.926792204380035400e-01 -8.190418779850006104e-02 3.078765273094177246e-01
1.796000000000000000e+03 3.095607376098632812e+01 -4.181362628936767578e+00 -1.722978428006172180e-02 7.196735590696334839e-02 1.642127148807048798e-02 3.254387378692626953e-01
1.797000000000000000e+03 3.059494972229003906e+01 -3.117478370666503906e+00 3.678984194993972778e-02 5.034260079264640808e-02 2.613973245024681091e-02 2.366753220558166504e-01
1.798000000000000000e+03 4.319672012329101562e+01 -9.960166931152343750e+00 -3.090692460536956787e-01 -2.406706660985946655e-02 -9.994089603424072266e-02 3.635302782058715820e-01
1.799000000000000000e+03 1.843281555175781250e+01 -3.369236469268798828e+00 -4.961105287075042725e-01 1.796623319387435913e-01 -9.493445605039596558e-02 2.463209182024002075e-01
1.800000000000000000e+03 2.271670150756835938e+01 -1.816875219345092773e+00 -1.479647457599639893e-01 -1.046221107244491577e-01 -7.577605545520782471e-02 1.935087293386459351e-01
1.801000000000000000e+03 7.272179412841796875e+01 -1.205088710784912109e+01 -1.908179670572280884e-01 5.529006477445363998e-03 -5.558668822050094604e-02 -1.224649995565414429e-01
1.802000000000000000e+03 6.974215698242187500e+01 -1.191660594940185547e+01 -4.266125261783599854e-01 6.578554213047027588e-02 -1.082480996847152710e-01 -1.244613528251647949e-01
1.803000000000000000e+03 7.279284667968750000e+01 -1.965683174133300781e+01 -8.808860911813098937e-06 -5.227538622420979664e-06 -4.210919996694428846e-06 1.329601036559324712e-05
1.804000000000000000e+03 7.514878845214843750e+01 -2.025033187866210938e+01 4.207606252748519182e-05 -6.968868547119200230e-06 1.053215873980661854e-05 -4.260618027274176711e-07
1.805000000000000000e+03 3.250446319580078125e+01 -3.604702472686767578e+00 1.328712999820709229e-01 6.356921046972274780e-03 4.176846519112586975e-02 2.592484056949615479e-01
1.806000000000000000e+03 3.418721389770507812e+01 -5.841093540191650391e+00 5.376942083239555359e-02 -1.939312219619750977e-01 -4.204854369163513184e-02 2.977186739444732666e-01
1.807000000000000000e+03 3.372472763061523438e+01 -4.779760837554931641e+00 1.195525974035263062e-01 -1.219679564237594604e-01 -7.246080785989761353e-04 2.575108110904693604e-01
1.808000000000000000e+03 3.933436584472656250e+01 -2.467900753021240234e+00 5.472020506858825684e-01 -8.715688437223434448e-02 1.380135565996170044e-01 -1.598479449748992920e-01
1.809000000000000000e+03 3.861443328857421875e+01 -2.382898807525634766e+00 4.958645999431610107e-01 -1.467862874269485474e-01 1.047234907746315002e-01 -1.162628903985023499e-01
1.810000000000000000e+03 3.423479843139648438e+01 -4.941274642944335938e+00 1.401853263378143311e-01 -1.601175516843795776e-01 -5.979669746011495590e-03 2.564107477664947510e-01
1.811000000000000000e+03 3.480882644653320312e+01 -3.726682662963867188e+00 2.703708410263061523e-01 -1.415202319622039795e-01 3.865518048405647278e-02 1.596549898386001587e-01
1.812000000000000000e+03 3.044073295593261719e+01 -5.548500537872314453e+00 -9.969278424978256226e-02 1.370568126440048218e-01 1.120920758694410324e-02 4.598017632961273193e-01
1.813000000000000000e+03 2.339131736755371094e+01 -1.781472206115722656e+00 -8.408244699239730835e-02 -1.230809614062309265e-01 -6.214902177453041077e-02 1.395634561777114868e-01
1.814000000000000000e+03 2.861745452880859375e+01 -4.156570434570312500e+00 -2.155641615390777588e-01 2.345656454563140869e-01 5.700444802641868591e-03 1.459824293851852417e-01
1.815000000000000000e+03 4.294827270507812500e+01 -2.211509895324707031e+01 -1.873434172011911869e-03 -2.312097058165818453e-04 -6.313931662589311600e-04 1.219020574353635311e-03
1.816000000000000000e+03 3.290878677368164062e+01 -6.025377273559570312e+00 -7.414420135319232941e-03 -1.223483234643936157e-01 -3.892882168292999268e-02 3.467425405979156494e-01
1.817000000000000000e+03 3.270869445800781250e+01 -6.758086204528808594e+00 -9.499587118625640869e-02 -1.430949568748474121e-01 -7.142724841833114624e-02 3.431980013847351074e-01
1.818000000000000000e+03 3.729784774780273438e+01 -1.783530426025390625e+01 -7.610701140947639942e-05 -6.765252328477799892e-05 -4.312786040827631950e-05 2.091548813041299582e-04
1.819000000000000000e+03 3.838515472412109375e+01 -1.903689956665039062e+01 -4.302097659092396498e-04 -3.596215683501213789e-04 -2.369493886362761259e-04 -1.156592043116688728e-05
1.820000000000000000e+03 2.790811347961425781e+01 -6.232053279876708984e+00 -5.724886059761047363e-01 7.244436144828796387e-01 4.558651149272918701e-02 3.877455890178680420e-01
1.821000000000000000e+03 4.363174819946289062e+01 -9.161320686340332031e+00 -3.073592670261859894e-02 1.810267381370067596e-02 -3.789975773543119431e-03 3.053172230720520020e-01
1.822000000000000000e+03 4.456405258178710938e+01 -7.496809005737304688e+00 5.683176517486572266e-01 8.804729580879211426e-02 1.969094872474670410e-01 1.507471054792404175e-01
1.823000000000000000e+03 3.552661895751953125e+01 -5.747979164123535156e+00 1.260927915573120117e-01 -2.490353584289550781e-01 -3.688276931643486023e-02 2.641947567462921143e-01
1.824000000000000000e+03 3.662678527832031250e+01 1.444723606109619141e+01 -9.018556214869022369e-03 2.707979874685406685e-03 -1.893172855488955975e-03 3.649791935458779335e-03
1.825000000000000000e+03 3.201353454589843750e+01 -5.872807025909423828e+00 -8.495122194290161133e-03 -8.043824136257171631e-02 -2.668000757694244385e-02 3.671483099460601807e-01
1.826000000000000000e+03 4.864649963378906250e+01 -1.408376693725585938e+01 -1.341236829757690430e+00 1.291800141334533691e-01 -3.636170625686645508e-01 2.019385695457458496e-01
1.827000000000000000e+03 4.969559478759765625e+01 -1.297148895263671875e+01 -1.196746349334716797e+00 2.061669379472732544e-01 -2.971738278865814209e-01 2.120673209428787231e-01
1.828000000000000000e+03 4.113566207885742188e+01 -2.092466545104980469e+01 -1.356151071377098560e-03 -1.054463791660964489e-04 -4.384792118798941374e-04 2.792970335576683283e-04
1.829000000000000000e+03 3.842461776733398438e+01 -2.011799621582031250e+01 -1.000980613753199577e-03 -2.047700545517727733e-04 -3.617251932155340910e-04 -3.431447257753461599e-04
1.830000000000000000e+03 3.745790481567382812e+01 -2.314387321472167969e+00 4.331658184528350830e-01 -1.716342866420745850e-01 7.845945656299591064e-02 -3.562726825475692749e-02
1.831000000000000000e+03 3.871834564208984375e+01 -4.405922412872314453e+00 5.226691365242004395e-01 -2.472691535949707031e-01 8.262000232934951782e-02 7.097300142049789429e-02
1.832000000000000000e+03 2.156136703491210938e+01 -8.518511772155761719e+00 2.667602896690368652e-01 6.523869931697845459e-02 9.959969669580459595e-02 -9.473322331905364990e-02
1.833000000000000000e+03 1.540166664123535156e+01 4.752716064453125000e+00 1.808764500310644507e-05 8.868623262969776988e-05 3.203216328984126449e-05 2.219232192146591842e-05
1.834000000000000000e+03 1.708224105834960938e+01 5.432534694671630859e+00 5.564948151004500687e-05 7.076332985889166594e-05 3.792384450207464397e-05 4.398758755996823311e-05
1.835000000000000000e+03 1.294597244262695312e+01 -1.208480930328369141e+01 4.055873453617095947e-01 6.511072516441345215e-01 3.170083761215209961e-01 -2.341264486312866211e-02
1.836000000000000000e+03 1.213078975677490234e+01 -1.391081333160400391e+01 4.137374460697174072e-01 7.248858809471130371e-01 3.415870070457458496e-01 5.536909680813550949e-03
1.837000000000000000e+03 4.737734222412109375e+01 -1.145069694519042969e+01 -6.658446192741394043e-01 3.613812029361724854e-01 -9.133902192115783691e-02 4.407601952552795410e-01
1.838000000000000000e+03 6.271679687500000000e+01 -1.108363533020019531e+01 -1.108391284942626953e+00 -3.774128556251525879e-01 -4.457412660121917725e-01 -2.943005561828613281e-01
1.839000000000000000e+03 3.966665029525756836e+00 9.140341758728027344e+00 1.123611582443118095e-04 2.015358222706709057e-05 3.975442086812108755e-05 -7.597682997584342957e-05
1.840000000000000000e+03 3.021121788024902344e+01 -6.697473049163818359e+00 2.171619795262813568e-02 1.081191003322601318e-01 3.895058855414390564e-02 6.091958880424499512e-01
1.841000000000000000e+03 2.934518432617187500e+01 -6.407481193542480469e+00 -1.241055130958557129e-01 3.587603867053985596e-01 7.039646059274673462e-02 6.083372235298156738e-01
1.842000000000000000e+03 4.478443622589111328e+00 2.313102340698242188e+01 -2.165663463529199362e-04 -4.604255082085728645e-04 -2.030975592788308859e-04 6.107108201831579208e-04
1.843000000000000000e+03 3.697430038452148438e+01 -1.544661045074462891e+01 1.349314970866544172e-05 3.029569597856607288e-05 1.313665416091680527e-05 9.153218707069754601e-05
1.844000000000000000e+03 3.746332931518554688e+01 1.024141883850097656e+01 -1.872669323347508907e-03 -7.162187248468399048e-04 -7.766663911752402782e-04 2.199466980528086424e-04
1.845000000000000000e+03 3.652139282226562500e+01 1.312464618682861328e+01 -6.236324552446603775e-03 1.052232924848794937e-03 -1.555227441713213921e-03 2.206723904237151146e-03
1.846000000000000000e+03 5.363561248779296875e+01 2.335941505432128906e+01 2.035918533802032471e-01 -9.933476103469729424e-04 6.077955290675163269e-02 -1.229693591594696045e-01
1.847000000000000000e+03 6.106235504150390625e+01 -1.027288246154785156e+01 -8.375278115272521973e-01 -1.633379459381103516e-01 -3.002597391605377197e-01 -3.044541776180267334e-01
1.848000000000000000e+03 1.760099983215332031e+01 -2.971925163269042969e+01 2.625986561179161072e-02 4.018158316612243652e-01 1.284227073192596436e-01 -1.547313630580902100e-01
1.849000000000000000e+03 6.975033569335937500e+01 -2.751800918579101562e+01 1.026219106279313564e-04 -6.257833592826500535e-05 1.201307259179884568e-05 -5.519272963283583522e-05
1.850000000000000000e+03 6.774667358398437500e+01 -2.726776695251464844e+01 1.390378311043605208e-04 -3.836405085166916251e-05 3.020213443960528821e-05 -3.269073204137384892e-05
1.851000000000000000e+03 6.819151306152343750e+01 -1.109221744537353516e+01 -7.694491147994995117e-01 1.221344172954559326e-01 -1.941944062709808350e-01 -2.621508240699768066e-01
1.852000000000000000e+03 5.662253189086914062e+01 -1.091254234313964844e+01 -8.096719384193420410e-01 1.177172288298606873e-01 -2.075864076614379883e-01 -3.496407270431518555e-01
1.853000000000000000e+03 2.059499168395996094e+01 2.732420158386230469e+01 -5.823998246341943741e-03 -4.213810432702302933e-03 -3.011342603713274002e-03 8.627357892692089081e-03
1.854000000000000000e+03 1.771145820617675781e+01 2.379547119140625000e+01 -1.063547283411026001e-02 -1.251164212590083480e-04 -3.228176850825548172e-03 3.284159814938902855e-03
1.855000000000000000e+03 7.355204772949218750e+01 2.636010169982910156e+01 -1.317913830280303955e-02 -3.203190565109252930e-01 -1.000494584441184998e-01 2.360502034425735474e-01
1.856000000000000000e+03 3.626257324218750000e+01 6.294181346893310547e+00 7.050157873891294003e-04 -1.132146353484131396e-04 1.775403507053852081e-04 2.629854425322264433e-04
1.857000000000000000e+03 3.706274795532226562e+01 6.067193031311035156e+00 -8.749726112000644207e-04 3.889463187078945339e-05 -2.508233883418142796e-04 1.188298392662545666e-05
1.858000000000000000e+03 7.637516021728515625e+01 -3.281900405883789062e+01 -9.797959137358702719e-06 6.573241989826783538e-05 1.678033913776744157e-05 -4.044709203299134970e-05
1.859000000000000000e+03 7.572129058837890625e+01 8.118159174919128418e-01 3.461562097072601318e-02 -5.520241260528564453e-01 -1.552225500345230103e-01 -2.785730659961700439e-01
1.860000000000000000e+03 5.276167392730712891e+00 -3.079969787597656250e+01 -3.574687615036964417e-02 -1.905832737684249878e-01 -6.789904832839965820e-02 1.549271941184997559e-01
1.861000000000000000e+03 3.398808717727661133e+00 -6.125194549560546875e+00 -3.339516744017601013e-02 -2.063611000776290894e-01 -7.192688435316085815e-02 -2.367396056652069092e-01
1.862000000000000000e+03 6.315018177032470703e+00 -2.228332519531250000e+01 1.136001870036125183e-01 -1.201600581407546997e-01 -1.967961201444268227e-03 1.382209360599517822e-01
1.863000000000000000e+03 1.077234077453613281e+01 1.412346553802490234e+01 -8.203210018109530210e-05 -1.453218428650870919e-04 -6.820618000347167253e-05 4.593861012835986912e-05
1.864000000000000000e+03 1.202011394500732422e+01 1.454993247985839844e+01 1.989866286749020219e-04 1.394821174471871927e-05 6.388045585481449962e-05 2.028198068728670478e-04
1.865000000000000000e+03 4.096523666381835938e+01 -3.212280035018920898e+00 8.342846632003784180e-01 5.551256984472274780e-02 2.669391632080078125e-01 -2.200070023536682129e-01
1.866000000000000000e+03 4.070689773559570312e+01 -5.356375217437744141e+00 5.565869212150573730e-01 -1.505418419837951660e-01 1.218135282397270203e-01 6.991118937730789185e-02
1.867000000000000000e+03 3.915468978881835938e+01 -6.378691673278808594e+00 2.722654342651367188e-01 -2.972413301467895508e-01 -7.492767646908760071e-03 2.049842327833175659e-01
1.868000000000000000e+03 4.873386859893798828e+00 5.355103969573974609e+00 4.960173464496619999e-05 -8.850326594256330281e-06 1.222542232426349074e-05 9.017247066367417574e-06
1.869000000000000000e+03 3.518955612182617188e+01 4.750867366790771484e+00 3.322700795251876116e-04 2.023501438088715076e-04 1.603860728209838271e-04 -5.008659209124743938e-04
1.870000000000000000e+03 3.622516632080078125e+01 9.357868194580078125e+00 -3.370778285898268223e-04 -1.987611613003537059e-04 -1.607517042430117726e-04 -2.086590538965538144e-04
1.871000000000000000e+03 7.208158874511718750e+01 -2.350622177124023438e+01 6.676190969301387668e-05 -2.122680234606377780e-05 1.366053311357973143e-05 -7.731719961157068610e-06
1.872000000000000000e+03 3.574638748168945312e+01 1.049997711181640625e+01 -1.622861134819686413e-03 -3.534984425641596317e-04 -5.929078906774520874e-04 4.781511379405856133e-04
1.873000000000000000e+03 7.569744873046875000e+01 1.551589298248291016e+01 6.461159884929656982e-02 -8.047748208045959473e-01 -2.220489680767059326e-01 4.861402139067649841e-02
1.874000000000000000e+03 5.074615859985351562e+01 -1.193703460693359375e+01 -8.975372910499572754e-01 2.835620045661926270e-01 -1.841925829648971558e-01 1.607292592525482178e-01
1.875000000000000000e+03 4.978445053100585938e+01 -1.183682537078857422e+01 -8.158106207847595215e-01 2.969940304756164551e-01 -1.556449681520462036e-01 2.618234753608703613e-01
1.876000000000000000e+03 5.541775894165039062e+01 -1.098095035552978516e+01 -7.438367009162902832e-01 1.848731040954589844e-01 -1.676890850067138672e-01 -3.041027188301086426e-01
1.877000000000000000e+03 5.269016647338867188e+01 -1.126943302154541016e+01 -7.329146862030029297e-01 3.015689551830291748e-01 -1.294037103652954102e-01 -4.036879912018775940e-02
1.878000000000000000e+03 1.099382019042968750e+01 -1.346416378021240234e+01 3.570734262466430664e-01 5.020881891250610352e-01 2.577484846115112305e-01 -1.105336397886276245e-01
1.879000000000000000e+03 1.274103450775146484e+01 -1.545791149139404297e+01 4.372857809066772461e-01 1.039885282516479492e+00 4.431513249874114990e-01 1.648262441158294678e-01
1.880000000000000000e+03 1.210129547119140625e+01 9.777642250061035156e+00 7.955881301313638687e-05 3.739475141628645360e-05 3.508606823743321002e-05 6.941578612895682454e-05
1.881000000000000000e+03 3.678088378906250000e+01 1.105675315856933594e+01 -2.044871449470520020e-03 -3.804083826253190637e-05 -6.248736754059791565e-04 2.804947434924542904e-04
1.882000000000000000e+03 6.428368377685546875e+01 1.000181388854980469e+01 1.942815482616424561e-01 1.410747051239013672e+00 4.815085828304290771e-01 1.333831548690795898e-01
1.883000000000000000e+03 4.371525955200195312e+01 1.929701423645019531e+01 -1.701288297772407532e-02 7.721430156379938126e-03 -2.787435660138726234e-03 -3.403157694265246391e-03
1.884000000000000000e+03 7.530068969726562500e+01 -2.706748962402343750e+01 6.806656892877072096e-05 4.237635039316955954e-06 2.169126128137577325e-05 -5.965624586679041386e-05
1.885000000000000000e+03 7.284654235839843750e+01 -3.199301719665527344e+01 9.300777492171619087e-06 -3.814493902609683573e-05 -8.653248187329154462e-06 -5.238358789938502014e-05
1.886000000000000000e+03 7.726184844970703125e+01 -2.157209205627441406e+01 -2.674793722690083086e-05 5.687436896550934762e-06 -6.318149644357617944e-06 1.795936782400531229e-06
1.887000000000000000e+03 7.622225189208984375e+01 2.973963737487792969e+01 -2.451903186738491058e-02 -5.380848050117492676e-01 -1.687811464071273804e-01 1.605416685342788696e-01
1.888000000000000000e+03 7.497383880615234375e+01 3.308579635620117188e+01 -4.436352849006652832e-02 -3.741983771324157715e-01 -1.255685687065124512e-01 1.461397707462310791e-01
1.889000000000000000e+03 1.323847103118896484e+01 -2.172584724426269531e+01 3.157851696014404297e-01 1.094331979751586914e+00 4.230351448059082031e-01 -7.218978554010391235e-02
1.890000000000000000e+03 4.249720764160156250e+01 -2.704115104675292969e+01 -7.848083041608333588e-03 2.598705701529979706e-03 -1.574813155457377434e-03 3.814935451373457909e-03
1.891000000000000000e+03 4.388676452636718750e+01 -2.755290222167968750e+01 -7.698572706431150436e-03 9.472751989960670471e-04 -2.025389345362782478e-03 4.349174443632364273e-03
1.892000000000000000e+03 5.641374588012695312e+00 -1.210806846618652344e+01 1.050955355167388916e-01 -2.069569081068038940e-01 -3.055841289460659027e-02 -2.660018205642700195e-01
1.893000000000000000e+03 3.386395263671875000e+01 1.877535247802734375e+01 -1.682558096945285797e-02 4.819671157747507095e-04 -4.903084132820367813e-03 1.104862522333860397e-02
1.894000000000000000e+03 3.249624633789062500e+01 1.823625755310058594e+01 -1.362782623618841171e-02 -6.390190683305263519e-03 -6.005404982715845108e-03 1.171137206256389618e-02
1.895000000000000000e+03 4.315818309783935547e+00 1.403225421905517578e+01 3.769055547309108078e-05 -8.037533552851527929e-05 -1.280543256143573672e-05 4.980567609891295433e-06
1.896000000000000000e+03 4.688579082489013672e+00 1.229330825805664062e+01 -2.535790008550975472e-05 -9.362256969325244427e-05 -3.569413820514455438e-05 -2.682842387002892792e-05
1.897000000000000000e+03 1.195161437988281250e+01 2.203470993041992188e+01 -2.833607373759150505e-03 3.993911959696561098e-04 -7.302648737095296383e-04 4.267319745849817991e-04
1.898000000000000000e+03 1.156716060638427734e+01 2.008393859863281250e+01 -1.305710175074636936e-03 5.287611566018313169e-05 -3.758502134587615728e-04 -9.386795136379078031e-05
1.899000000000000000e+03 1.089118194580078125e+01 1.825195121765136719e+01 -5.890390602871775627e-04 -1.740365696605294943e-04 -2.289226831635460258e-04 -2.121811121469363570e-05
1.900000000000000000e+03 1.328419971466064453e+01 8.290613174438476562e+00 3.050699706363957375e-05 3.639710485003888607e-05 2.007123111980035901e-05 -7.090673079801490530e-06
1.901000000000000000e+03 1.499552917480468750e+01 6.614029884338378906e+00 -2.266213596158195287e-05 -7.213576282083522528e-06 -8.962713764049112797e-06 -2.137561568815726787e-05
1.902000000000000000e+03 1.502716350555419922e+01 -1.048939037322998047e+01 4.322584271430969238e-01 6.159015893936157227e-01 3.144479990005493164e-01 6.606471538543701172e-02
1.903000000000000000e+03 7.581111145019531250e+01 -8.372574806213378906e+00 -8.204983174800872803e-02 -1.432324498891830444e-01 -6.758468598127365112e-02 -2.118083536624908447e-01
1.904000000000000000e+03 7.561090087890625000e+01 1.807980155944824219e+01 5.113434791564941406e-02 -7.696219086647033691e-01 -2.155462652444839478e-01 1.102832257747650146e-01
1.905000000000000000e+03 6.562287902832031250e+01 -9.076846122741699219e+00 -5.954887270927429199e-01 -1.885140240192413330e-01 -2.352008223533630371e-01 -5.164335370063781738e-01
1.906000000000000000e+03 6.480797576904296875e+01 -8.023941993713378906e+00 -3.055934607982635498e-01 -2.252892106771469116e-01 -1.592648029327392578e-01 -4.874249994754791260e-01
1.907000000000000000e+03 7.556172943115234375e+01 7.938133716583251953e+00 5.796312913298606873e-02 -7.379229664802551270e-01 -2.039879411458969116e-01 -1.394191533327102661e-01
1.908000000000000000e+03 3.373132467269897461e+00 3.214662933349609375e+01 -2.692526504688430578e-05 -3.007454331964254379e-03 -9.103138581849634647e-04 1.402440248057246208e-03
1.909000000000000000e+03 3.190157175064086914e+00 3.357178115844726562e+01 1.811021502362564206e-04 -3.408643882721662521e-03 -9.682624950073659420e-04 1.472268952056765556e-03
1.910000000000000000e+03 3.994456100463867188e+01 1.668738746643066406e+01 -1.639157533645629883e-02 7.139511406421661377e-03 -2.775619272142648697e-03 1.092495513148605824e-03
1.911000000000000000e+03 4.411766433715820312e+01 2.178864288330078125e+01 -6.797861424274742603e-04 1.119423657655715942e-02 3.154335077852010727e-03 -2.990225329995155334e-03
1.912000000000000000e+03 1.736014747619628906e+01 -9.247856140136718750e+00 3.466211855411529541e-01 5.281851887702941895e-01 2.624419033527374268e-01 1.191748231649398804e-01
1.913000000000000000e+03 4.602054977416992188e+01 -7.194920539855957031e+00 8.616570234298706055e-01 1.615560799837112427e-01 3.069639205932617188e-01 1.425075232982635498e-01
1.914000000000000000e+03 4.693325424194335938e+01 -7.850594520568847656e+00 7.129808068275451660e-01 2.268289029598236084e-01 2.819429039955139160e-01 2.765611410140991211e-01
1.915000000000000000e+03 4.187498092651367188e+01 -6.372737407684326172e+00 5.194980502128601074e-01 -6.857315450906753540e-02 1.352774798870086670e-01 8.993729948997497559e-02
1.916000000000000000e+03 4.171322631835937500e+01 -2.442918777465820312e+01 -5.509851034730672836e-03 1.675661536864936352e-03 -1.150256837718188763e-03 2.119103213772177696e-03
1.917000000000000000e+03 4.168394088745117188e+01 -2.553354835510253906e+01 -6.840347778052091599e-03 2.456181682646274567e-03 -1.315249712206423283e-03 2.846423303708434105e-03
1.918000000000000000e+03 5.104188156127929688e+01 -6.604644298553466797e+00 1.632257938385009766e+00 8.827438354492187500e-01 7.545005083084106445e-01 5.074815750122070312e-01
1.919000000000000000e+03 6.550971221923828125e+01 1.818014526367187500e+01 3.537109494209289551e-01 1.059720873832702637e+00 4.240295290946960449e-01 -4.734410718083381653e-02
1.920000000000000000e+03 5.413861846923828125e+01 2.568224716186523438e+01 1.542584300041198730e-01 1.150022819638252258e-01 8.077821135520935059e-02 -1.815733015537261963e-01
1.921000000000000000e+03 6.551627349853515625e+01 1.960704612731933594e+01 3.629018068313598633e-01 9.009630680084228516e-01 3.791594505310058594e-01 -6.110505666583776474e-03
1.922000000000000000e+03 6.403965759277343750e+01 1.951512527465820312e+01 4.176254570484161377e-01 1.281273007392883301e+00 5.096695423126220703e-01 -1.296351701021194458e-01
1.923000000000000000e+03 5.863959884643554688e+01 -1.033797168731689453e+01 -7.826505303382873535e-01 5.588779598474502563e-02 -2.180288136005401611e-01 -3.489256203174591064e-01
1.924000000000000000e+03 3.698257064819335938e+01 1.565535831451416016e+01 -1.229936815798282623e-02 4.524423275142908096e-03 -2.332483418285846710e-03 4.849492572247982025e-03
1.925000000000000000e+03 6.368497467041015625e+01 1.164185428619384766e+01 1.284607350826263428e-01 1.704742431640625000e+00 5.499609708786010742e-01 1.223545372486114502e-01
1.926000000000000000e+03 7.527078247070312500e+01 3.116407966613769531e+01 -3.311555460095405579e-02 -4.370129108428955078e-01 -1.410385370254516602e-01 1.677694022655487061e-01
1.927000000000000000e+03 6.559146118164062500e+01 -2.925766563415527344e+01 1.099998771678656340e-04 -3.251342059229500592e-05 2.324593879166059196e-05 -4.790851380676031113e-05
1.928000000000000000e+03 4.785860061645507812e+01 2.370518302917480469e+01 4.192144423723220825e-02 4.530337173491716385e-03 1.393553428351879120e-02 -2.623139694333076477e-02
1.929000000000000000e+03 4.614086914062500000e+01 2.139052581787109375e+01 1.060465467162430286e-03 4.569637123495340347e-03 1.689030672423541546e-03 -7.182674482464790344e-03
1.930000000000000000e+03 4.022957611083984375e+01 2.368501663208007812e+01 1.589070074260234833e-03 1.679805107414722443e-02 5.516136530786752701e-03 -2.788698999211192131e-03
1.931000000000000000e+03 2.063640785217285156e+01 -8.554433822631835938e+00 2.809267938137054443e-01 1.989544332027435303e-01 1.439643651247024536e-01 -1.141456328332424164e-02
1.932000000000000000e+03 1.894592475891113281e+01 -8.210574150085449219e+00 1.395335346460342407e-01 3.848997354507446289e-01 1.573299914598464966e-01 8.234603703022003174e-02
1.933000000000000000e+03 5.642585754394531250e+01 -4.571435928344726562e+00 1.060322761535644531e+00 5.021765828132629395e-01 4.687497913837432861e-01 5.169664621353149414e-01
1.934000000000000000e+03 5.833758163452148438e+01 -4.343623161315917969e+00 7.356402873992919922e-01 3.347751200199127197e-01 3.211246132850646973e-01 3.067745268344879150e-01
1.935000000000000000e+03 4.842176818847656250e+01 -7.659160137176513672e+00 9.962885379791259766e-01 3.690209090709686279e-01 4.095928370952606201e-01 3.303055763244628906e-01
1.936000000000000000e+03 2.959082221984863281e+01 2.466526412963867188e+01 -1.057319436222314835e-02 -6.878983229398727417e-03 -5.235653370618820190e-03 5.125051364302635193e-03
1.937000000000000000e+03 4.797881698608398438e+01 -3.311994934082031250e+01 -1.557222800329327583e-03 -4.126092419028282166e-03 -1.704994472675025463e-03 3.897420130670070648e-03
1.938000000000000000e+03 5.541788864135742188e+01 -5.642897605895996094e+00 1.086577177047729492e+00 4.940293133258819580e-01 4.741819500923156738e-01 3.126656413078308105e-01
1.939000000000000000e+03 4.298993301391601562e+01 -2.322424507141113281e+01 -2.857648069038987160e-03 -3.168987168464809656e-04 -9.523640619590878487e-04 2.213990315794944763e-03
1.940000000000000000e+03 4.051881790161132812e+01 -2.329471397399902344e+01 -4.646762739866971970e-03 1.341589377261698246e-03 -9.915521368384361267e-04 5.209490191191434860e-04
1.941000000000000000e+03 7.588790893554687500e+01 -3.585423278808593750e+01 4.274665479897521436e-05 5.153079837327823043e-05 2.828323522408027202e-05 -4.647941750590689480e-05
1.942000000000000000e+03 5.812881088256835938e+01 -8.097302436828613281e+00 -2.078824304044246674e-02 1.268955469131469727e-01 3.183218836784362793e-02 -1.594718396663665771e-01
1.943000000000000000e+03 4.356695175170898438e+00 3.435767364501953125e+01 5.789638380520045757e-04 -3.675988642498850822e-03 -9.291074820794165134e-04 1.718685030937194824e-03
1.944000000000000000e+03 3.569018936157226562e+01 -3.249509048461914062e+01 3.223568492103368044e-04 8.700509555637836456e-03 2.706859726458787918e-03 2.568012103438377380e-03
1.945000000000000000e+03 6.739688110351562500e+01 -1.059347724914550781e+01 -6.778746247291564941e-01 1.983624696731567383e-02 -1.974115073680877686e-01 -4.248950183391571045e-01
1.946000000000000000e+03 7.020353317260742188e+00 -3.428583145141601562e+01 -7.121003419160842896e-02 -3.863880038261413574e-02 -3.295465186238288879e-02 1.268973499536514282e-01
1.947000000000000000e+03 4.121942043304443359e+00 -8.414004325866699219e+00 1.529979286715388298e-03 -2.537020742893218994e-01 -7.565163075923919678e-02 -2.875306308269500732e-01
1.948000000000000000e+03 5.099958419799804688e+00 -7.500692844390869141e+00 -2.458651177585124969e-02 -1.641536056995391846e-01 -5.662203207612037659e-02 -3.155432939529418945e-01
1.949000000000000000e+03 6.423925781250000000e+01 6.204895019531250000e+00 3.175955414772033691e-01 1.075549125671386719e+00 4.179433882236480713e-01 1.890154629945755005e-01
1.950000000000000000e+03 4.149872779846191406e+00 7.024044990539550781e+00 9.526281792204827070e-05 1.859312214946839958e-05 3.415678293094970286e-05 -5.156562110641971231e-05
1.951000000000000000e+03 5.142848205566406250e+01 -8.364161491394042969e+00 4.913794994354248047e-01 6.692081093788146973e-01 3.481763005256652832e-01 2.752578854560852051e-01
1.952000000000000000e+03 4.940801620483398438e+01 -7.971859455108642578e+00 8.202306032180786133e-01 5.715540647506713867e-01 4.175354242324829102e-01 4.750125706195831299e-01
1.953000000000000000e+03 4.544416046142578125e+01 -8.042919158935546875e+00 4.677007198333740234e-01 1.450154930353164673e-01 1.838148683309555054e-01 2.472616285085678101e-01
1.954000000000000000e+03 2.561765861511230469e+01 2.714693069458007812e+01 -5.523753818124532700e-03 -6.692382972687482834e-03 -3.664841176941990852e-03 7.749676238745450974e-03
1.955000000000000000e+03 6.431527709960937500e+01 3.504409551620483398e+00 3.464493453502655029e-01 7.278033494949340820e-01 3.222758173942565918e-01 8.874683827161788940e-02
1.956000000000000000e+03 1.200052165985107422e+01 -1.662263107299804688e+01 3.447745740413665771e-01 1.002532482147216797e+00 4.041920900344848633e-01 7.555893063545227051e-02
1.957000000000000000e+03 1.159894752502441406e+01 -1.865606307983398438e+01 3.477556407451629639e-01 8.888025283813476562e-01 3.709674477577209473e-01 -2.013034187257289886e-02
1.958000000000000000e+03 6.427545166015625000e+01 -3.267703247070312500e+01 -2.815805200953036547e-04 -1.884851662907749414e-04 -1.410197000950574875e-04 2.017691294895485044e-04
1.959000000000000000e+03 6.543489074707031250e+01 -3.133622932434082031e+01 -5.135299579706043005e-05 -7.323110912693664432e-05 -3.737523002200759947e-05 -1.190083821711596102e-05
1.960000000000000000e+03 4.052660751342773438e+01 -2.565728759765625000e+01 -7.303673774003982544e-03 3.104421775788068771e-03 -1.259775483049452305e-03 1.628824044018983841e-03
1.961000000000000000e+03 3.863386535644531250e+01 -2.239556884765625000e+01 -3.245344851166009903e-03 8.581780712120234966e-04 -7.161499815993010998e-04 -8.058570674620568752e-04
1.962000000000000000e+03 2.289672660827636719e+01 -4.445712089538574219e+00 -3.826261162757873535e-01 -3.385706543922424316e-01 -2.163590341806411743e-01 5.717162489891052246e-01
1.963000000000000000e+03 2.274429702758789062e+01 -3.749716281890869141e+00 -2.762212455272674561e-01 -2.464209049940109253e-01 -1.567926406860351562e-01 4.533789455890655518e-01
1.964000000000000000e+03 2.327579879760742188e+01 -3.249721765518188477e+00 -1.264569759368896484e-01 -2.987548112869262695e-01 -1.275635361671447754e-01 3.214211463928222656e-01
1.965000000000000000e+03 2.128509140014648438e+01 -2.132597923278808594e+00 -3.176293671131134033e-01 -1.447353791445493698e-02 -9.963087737560272217e-02 2.922908961772918701e-01
1.966000000000000000e+03 2.257164001464843750e+01 -2.888924837112426758e+00 -2.052930891513824463e-01 -1.743052750825881958e-01 -1.138795092701911926e-01 3.326984941959381104e-01
1.967000000000000000e+03 2.737306022644042969e+01 -5.823898792266845703e+00 -7.798546552658081055e-01 5.823356509208679199e-01 -5.925570428371429443e-02 -1.312244776636362076e-02
1.968000000000000000e+03 2.266874885559082031e+01 -2.401138067245483398e+00 -1.697875708341598511e-01 -1.452337056398391724e-01 -9.450638294219970703e-02 2.640682160854339600e-01
1.969000000000000000e+03 2.167213249206542969e+01 -6.290215969085693359e+00 -6.985875964164733887e-01 1.809004098176956177e-01 -1.553061455488204956e-01 2.900018095970153809e-01
1.970000000000000000e+03 1.979204559326171875e+01 -2.459395885467529297e+00 -4.555743038654327393e-01 8.603186160326004028e-02 -1.108627319335937500e-01 2.939355969429016113e-01
1.971000000000000000e+03 3.479002761840820312e+01 -5.359799385070800781e+00 1.144264191389083862e-01 -2.063384056091308594e-01 -2.757359668612480164e-02 2.534160614013671875e-01
1.972000000000000000e+03 1.615626907348632812e+01 3.831200599670410156e+00 2.882638364098966122e-05 -1.408121624990599230e-05 4.423550308274570853e-06 1.653053732297848910e-05
1.973000000000000000e+03 3.938172149658203125e+01 -1.924991989135742188e+01 -5.578160635195672512e-04 -2.242447808384895325e-04 -2.346182591281831264e-04 -1.229918561875820160e-04
1.974000000000000000e+03 3.909791946411132812e+01 -1.762793731689453125e+01 -8.118994446704164147e-05 -2.160669391741976142e-04 -8.917706873035058379e-05 1.289887295570224524e-04
1.975000000000000000e+03 1.668059349060058594e+01 4.288940429687500000e+00 1.502241138950921595e-05 6.856353866169229150e-05 2.507578392396681011e-05 3.544213541317731142e-05
1.976000000000000000e+03 1.263440799713134766e+01 7.458266258239746094e+00 -1.114533279178431258e-05 2.095202489726943895e-06 -2.715039272516150959e-06 8.461283141514286399e-05
1.977000000000000000e+03 1.395695114135742188e+01 4.719130039215087891e+00 2.330038842046633363e-05 8.183952741092070937e-05 3.154197474941611290e-05 3.351859049871563911e-06
1.978000000000000000e+03 4.179218673706054688e+01 -1.879316329956054688e+01 -2.954170049633830786e-04 -2.546195464674383402e-04 -1.650109625188633800e-04 1.502621125837322325e-05
1.979000000000000000e+03 4.195213317871093750e+01 -2.114470672607421875e+01 -1.612212276086211205e-03 -1.146893991972319782e-04 -5.180704756639897823e-04 5.365983815863728523e-04
1.980000000000000000e+03 4.667378997802734375e+01 -1.131251811981201172e+01 -5.336505770683288574e-01 3.437847197055816650e-01 -5.695975199341773987e-02 4.595875144004821777e-01
1.981000000000000000e+03 2.938660049438476562e+01 -4.151133537292480469e+00 -1.504266113042831421e-01 2.037705928087234497e-01 1.600319333374500275e-02 2.337906062602996826e-01
1.982000000000000000e+03 3.067370414733886719e+01 -3.717318534851074219e+00 1.023527979850769043e-02 8.443743735551834106e-02 2.840181440114974976e-02 2.809622585773468018e-01
1.983000000000000000e+03 1.104565906524658203e+01 4.762277603149414062e+00 7.079813804011791945e-05 1.691024408501107246e-05 2.631251481943763793e-05 1.210555865327478386e-06
1.984000000000000000e+03 3.117110824584960938e+01 -3.624563932418823242e+00 7.297459244728088379e-02 4.307956993579864502e-02 3.481625020503997803e-02 2.703074514865875244e-01
1.985000000000000000e+03 1.030194759368896484e+01 4.710937500000000000e+00 -4.024828376714140177e-05 -2.175676127080805600e-05 -1.860151314758695662e-05 1.573068630023044534e-06
1.986000000000000000e+03 7.325491333007812500e+01 -2.063234329223632812e+01 -1.918596171890385449e-05 -6.863917292321275454e-07 -5.961705937806982547e-06 7.192391876742476597e-06
1.987000000000000000e+03 1.181850242614746094e+01 4.767274856567382812e+00 -4.129342414671555161e-05 -2.675529322004877031e-05 -2.041461448243353516e-05 2.448154373269062489e-05
1.988000000000000000e+03 9.640285491943359375e+00 4.596398830413818359e+00 4.467814869713038206e-05 2.723617035371717066e-05 2.157429662474896759e-05 2.697595118661411107e-05
1.989000000000000000e+03 1.171145057678222656e+01 -4.887198925018310547e+00 -2.799611985683441162e-01 1.283305883407592773e-01 -4.548918455839157104e-02 -2.156677693128585815e-01
1.990000000000000000e+03 1.091729450225830078e+01 -4.922033309936523438e+00 -2.592267096042633057e-01 1.050717905163764954e-01 -4.624647647142410278e-02 -2.517216503620147705e-01
1.991000000000000000e+03 2.853611183166503906e+01 -3.538480758666992188e+00 -1.263573765754699707e-01 1.478231996297836304e-01 6.439746823161840439e-03 9.929273277521133423e-02
1.992000000000000000e+03 2.822492027282714844e+01 -3.894205808639526367e+00 -1.773759424686431885e-01 1.778854876756668091e-01 1.528621360193938017e-04 8.238368481397628784e-02
1.993000000000000000e+03 4.297033786773681641e+00 -6.523205280303955078e+00 -4.338312521576881409e-02 -1.745379418134689331e-01 -6.537631899118423462e-02 -2.802981734275817871e-01
1.994000000000000000e+03 4.999920845031738281e+00 -5.317563056945800781e+00 -8.897596597671508789e-02 -1.110826358199119568e-01 -6.001758202910423279e-02 -2.758627235889434814e-01
1.995000000000000000e+03 4.435985183715820312e+01 -9.633422851562500000e+00 -1.526469439268112183e-01 1.014782711863517761e-01 -1.535060442984104156e-02 3.592142462730407715e-01
1.996000000000000000e+03 6.532092571258544922e+00 -4.812946319580078125e+00 -1.497579813003540039e-01 -4.620025679469108582e-02 -5.878746882081031799e-02 -2.965672910213470459e-01
1.997000000000000000e+03 5.421703815460205078e+00 -4.945641517639160156e+00 -1.083235666155815125e-01 -9.029091894626617432e-02 -5.958434566855430603e-02 -2.766259610652923584e-01
1.998000000000000000e+03 5.510869979858398438e+00 5.693847179412841797e+00 -7.399722380796447396e-05 8.397800002057920210e-07 -2.194723310822155327e-05 1.463981607230380177e-05
1.999000000000000000e+03 6.066847324371337891e+00 4.247714042663574219e+00 6.220734212547540665e-05 -1.518899125585448928e-06 1.820653233153279871e-05 -1.712069206405431032e-05
2.000000000000000000e+03 9.257332801818847656e+00 -4.115479946136474609e+00 -2.792992591857910156e-01 3.462548553943634033e-02 -7.340212911367416382e-02 -2.695027887821197510e-01
2.001000000000000000e+03 1.011887264251708984e+01 -4.937251091003417969e+00 -2.395216822624206543e-01 7.483235001564025879e-02 -4.940680041909217834e-02 -2.758366167545318604e-01
2.002000000000000000e+03 8.269794464111328125e+00 4.022810935974121094e+00 -7.296472631423966959e-06 -4.172163971816189587e-05 -1.470543338655261323e-05 2.471699372108560055e-05
2.003000000000000000e+03 6.990933895111083984e+00 4.984189510345458984e+00 7.616715447511523962e-05 -1.851017486842465587e-06 2.229484016424976289e-05 -2.593558747321367264e-05
2.004000000000000000e+03 1.306996536254882812e+01 -4.026738166809082031e+00 -3.920677304267883301e-01 1.262346953153610229e-01 -7.974991202354431152e-02 -1.346730589866638184e-01
2.005000000000000000e+03 5.059288024902343750e+00 -4.347505092620849609e+00 -1.199579164385795593e-01 -7.915817201137542725e-02 -5.973482877016067505e-02 -2.493890970945358276e-01
2.006000000000000000e+03 4.598966598510742188e+00 -5.833182811737060547e+00 -6.647639721632003784e-02 -1.412488371133804321e-01 -6.231756880879402161e-02 -2.792207896709442139e-01
2.007000000000000000e+03 7.872623443603515625e+00 -4.795988559722900391e+00 -1.868955790996551514e-01 -3.408357501029968262e-03 -5.709118023514747620e-02 -3.073125779628753662e-01
2.008000000000000000e+03 7.767609596252441406e+00 4.917668819427490234e+00 -2.275746555824298412e-05 -3.135121369268745184e-05 -1.623260322958230972e-05 2.896479236369486898e-05
2.009000000000000000e+03 9.078493118286132812e+00 4.612549304962158203e+00 2.060307269857730716e-05 -5.996158506604842842e-05 -1.180755407403921708e-05 1.296922164328861982e-05
2.010000000000000000e+03 8.480394363403320312e+00 4.783151626586914062e+00 4.024881491204723716e-05 2.572484481788706034e-05 1.979209810087922961e-05 -2.765710996754933149e-05
2.011000000000000000e+03 9.333374977111816406e+00 -4.897707462310791016e+00 -2.236230075359344482e-01 4.980395734310150146e-02 -5.214571580290794373e-02 -2.924296557903289795e-01
2.012000000000000000e+03 1.396369552612304688e+01 -4.699458599090576172e+00 -3.410064876079559326e-01 1.947461962699890137e-01 -4.387808963656425476e-02 -9.390570223331451416e-02
2.013000000000000000e+03 1.617472457885742188e+01 -3.791511535644531250e+00 -4.647374451160430908e-01 1.904444247484207153e-01 -8.228790760040283203e-02 7.431340217590332031e-02
2.014000000000000000e+03 4.775643539428710938e+01 -1.311014366149902344e+01 -1.068731784820556641e+00 3.020128309726715088e-01 -2.300156950950622559e-01 3.617920577526092529e-01
2.015000000000000000e+03 1.247550773620605469e+01 -4.830872535705566406e+00 -2.997586131095886230e-01 1.487436294555664062e-01 -4.530449956655502319e-02 -1.814853101968765259e-01
2.016000000000000000e+03 1.321501159667968750e+01 -4.759336948394775391e+00 -3.224446475505828857e-01 1.709560453891754150e-01 -4.544658213853836060e-02 -1.397401541471481323e-01
2.017000000000000000e+03 3.947348785400390625e+01 -4.594336509704589844e+00 5.766489505767822266e-01 -2.117924541234970093e-01 1.094569414854049683e-01 4.073192551732063293e-02
2.018000000000000000e+03 3.686703491210937500e+01 -2.501589298248291016e+00 4.172337353229522705e-01 -1.671621203422546387e-01 7.502148300409317017e-02 -6.714258808642625809e-03
2.019000000000000000e+03 7.525434875488281250e+01 -1.249226665496826172e+01 -8.010260015726089478e-02 -2.283007837831974030e-02 -3.087980300188064575e-02 -7.408730685710906982e-02
2.020000000000000000e+03 4.779704284667968750e+01 -1.206340217590332031e+01 -8.137801289558410645e-01 3.386343419551849365e-01 -1.425437331199645996e-01 3.912662565708160400e-01
2.021000000000000000e+03 1.710037612915039062e+01 -4.361001968383789062e+00 -4.321849346160888672e-01 2.508237063884735107e-01 -5.440836027264595032e-02 1.361271291971206665e-01
2.022000000000000000e+03 4.158301544189453125e+01 -7.160542964935302734e+00 3.391848206520080566e-01 -1.245861724019050598e-01 6.437959522008895874e-02 1.941705942153930664e-01
2.023000000000000000e+03 7.238098907470703125e+01 -1.123336505889892578e+01 -2.639376819133758545e-01 2.570286393165588379e-02 -7.147044688463211060e-02 -1.598352640867233276e-01
2.024000000000000000e+03 7.092956542968750000e+01 -1.136702060699462891e+01 -3.540072143077850342e-01 4.993192106485366821e-02 -9.122259169816970825e-02 -1.844326257705688477e-01
2.025000000000000000e+03 3.933066558837890625e+01 -8.201555252075195312e+00 -8.030719310045242310e-02 -3.315389454364776611e-01 -1.235538423061370850e-01 3.362346887588500977e-01
2.026000000000000000e+03 3.827098846435546875e+01 -7.097862720489501953e+00 9.146162122488021851e-02 -3.400397896766662598e-01 -7.457344979047775269e-02 2.767125666141510010e-01
2.027000000000000000e+03 3.920998382568359375e+01 -2.026881980895996094e+01 -1.367924385704100132e-03 -2.828339638654142618e-04 -4.952275194227695465e-04 4.923588494420982897e-05
2.028000000000000000e+03 4.039516067504882812e+01 -1.855071258544921875e+01 -2.481653355062007904e-04 -2.816207706928253174e-04 -1.589358289493247867e-04 -2.239739478682167828e-05
2.029000000000000000e+03 7.395239257812500000e+01 -1.114728832244873047e+01 -1.758894473314285278e-01 -1.911425404250621796e-02 -5.850110948085784912e-02 -1.570071578025817871e-01
2.030000000000000000e+03 3.369611358642578125e+01 -3.446068525314331055e+00 2.051641345024108887e-01 -5.278683826327323914e-02 4.571318998932838440e-02 1.881823688745498657e-01
2.031000000000000000e+03 1.552744197845458984e+01 -4.596839427947998047e+00 -3.789927065372467041e-01 2.347514778375625610e-01 -4.327236488461494446e-02 1.163654495030641556e-02
2.032000000000000000e+03 1.632616806030273438e+01 -4.502651691436767578e+00 -4.078218042850494385e-01 2.495943754911422729e-01 -4.746823012828826904e-02 7.726999372243881226e-02
2.033000000000000000e+03 3.686193466186523438e+01 -6.894223213195800781e+00 3.741264715790748596e-02 -3.309328854084014893e-01 -8.805607259273529053e-02 2.970493137836456299e-01
2.034000000000000000e+03 3.619834136962890625e+01 -4.384130001068115234e+00 3.197305798530578613e-01 -2.407855689525604248e-01 2.368350140750408173e-02 1.484655737876892090e-01
2.035000000000000000e+03 1.854679679870605469e+01 -3.995778322219848633e+00 -4.765929281711578369e-01 2.192479074001312256e-01 -7.720350474119186401e-02 2.523571550846099854e-01
2.036000000000000000e+03 2.151826095581054688e+01 -6.760785579681396484e+00 -6.078492403030395508e-01 2.182532846927642822e-01 -1.168787851929664612e-01 2.047892659902572632e-01
2.037000000000000000e+03 2.145007133483886719e+01 -7.838962078094482422e+00 -1.434079855680465698e-01 1.536790281534194946e-01 3.081313101574778557e-03 -6.615059077739715576e-02
2.038000000000000000e+03 6.896264648437500000e+01 -1.150850105285644531e+01 -5.227766633033752441e-01 1.097998917102813721e-01 -1.238930299878120422e-01 -1.264264434576034546e-01
2.039000000000000000e+03 3.741917037963867188e+01 -7.818132400512695312e+00 -1.062806546688079834e-01 -3.576112389564514160e-01 -1.391675770282745361e-01 3.477236628532409668e-01
2.040000000000000000e+03 5.265767574310302734e+00 -6.230583190917968750e+00 -6.754949688911437988e-02 -1.213771104812622070e-01 -5.667798221111297607e-02 -3.055751323699951172e-01
2.041000000000000000e+03 5.347058296203613281e+00 6.410993576049804688e+00 1.043593510985374451e-04 -3.465905820121406578e-07 3.120382825727574527e-05 -4.794300548383034766e-05
2.042000000000000000e+03 4.287401580810546875e+01 -8.720288276672363281e+00 1.960367150604724884e-02 -5.238552391529083252e-02 -9.834555909037590027e-03 2.852907180786132812e-01
2.043000000000000000e+03 4.249097442626953125e+01 -9.526082038879394531e+00 -2.083306461572647095e-01 -9.962634742259979248e-02 -9.238709509372711182e-02 3.334723711013793945e-01
2.044000000000000000e+03 3.518198013305664062e+01 -4.704008579254150391e+00 2.192263603210449219e-01 -2.040809094905853271e-01 4.543633665889501572e-03 2.055461555719375610e-01
2.045000000000000000e+03 7.054423522949218750e+01 -1.219908618927001953e+01 -3.220408260822296143e-01 6.758039444684982300e-02 -7.633812725543975830e-02 -8.800607919692993164e-02
2.046000000000000000e+03 3.800555038452148438e+01 -2.271578311920166016e+00 4.661591053009033203e-01 -1.598124653100967407e-01 9.190399199724197388e-02 -7.891263812780380249e-02
2.047000000000000000e+03 3.115027427673339844e+01 -5.785211086273193359e+00 -9.370509535074234009e-03 2.104688063263893127e-02 3.502911189571022987e-03 4.427619278430938721e-01
2.048000000000000000e+03 2.792916297912597656e+01 -5.348750114440917969e+00 -4.989968836307525635e-01 4.748477339744567871e-01 -7.244746200740337372e-03 1.421306431293487549e-01
2.049000000000000000e+03 2.995931243896484375e+01 -6.109797000885009766e+00 -1.145773902535438538e-01 2.129284143447875977e-01 2.950530871748924255e-02 5.018726587295532227e-01
2.050000000000000000e+03 2.142437934875488281e+01 -7.255609989166259766e+00 -4.681130349636077881e-01 2.260149419307708740e-01 -7.262942939996719360e-02 2.577231265604496002e-02
2.051000000000000000e+03 6.385116958618164062e+01 -8.563981056213378906e+00 -3.952131271362304688e-01 -3.468399941921234131e-01 -2.226159274578094482e-01 -3.960085809230804443e-01
2.052000000000000000e+03 3.757904052734375000e+01 -7.009518623352050781e+00 6.347042322158813477e-02 -3.266910016536712646e-01 -7.896617054939270020e-02 2.988353371620178223e-01
2.053000000000000000e+03 3.632008743286132812e+01 -5.984649181365966797e+00 1.330224722623825073e-01 -2.975802123546600342e-01 -4.936732724308967590e-02 2.469497323036193848e-01
2.054000000000000000e+03 3.588293457031250000e+01 -5.033846855163574219e+00 2.261299937963485718e-01 -2.513544857501983643e-01 -7.567347493022680283e-03 1.965034604072570801e-01
2.055000000000000000e+03 4.139087677001953125e+01 -4.724612712860107422e+00 7.735331058502197266e-01 -1.284163538366556168e-02 2.282074391841888428e-01 -4.866760969161987305e-02
2.056000000000000000e+03 7.593135833740234375e+01 -2.313407707214355469e+01 -1.911310755531303585e-05 8.716357115190476179e-06 -3.119024995612562634e-06 -1.835496186686214060e-05
2.057000000000000000e+03 3.134504127502441406e+01 -5.027759075164794922e+00 -2.187653258442878723e-02 3.285336121916770935e-02 3.293048590421676636e-03 3.798901438713073730e-01
2.058000000000000000e+03 3.204093170166015625e+01 -4.385605335235595703e+00 5.835097655653953552e-02 7.289929199032485485e-04 1.772399060428142548e-02 3.167565166950225830e-01
2.059000000000000000e+03 4.287845993041992188e+01 -2.115172004699707031e+01 -1.018775743432343006e-03 -3.746656875591725111e-04 -4.180324031040072441e-04 6.022488232702016830e-04
2.060000000000000000e+03 1.673368644714355469e+01 -9.834923744201660156e+00 4.286981523036956787e-01 5.464767813682556152e-01 2.925524711608886719e-01 1.184687688946723938e-01
2.061000000000000000e+03 1.475480365753173828e+01 -9.629548072814941406e+00 2.772032022476196289e-01 5.351634025573730469e-01 2.437099814414978027e-01 -2.068670839071273804e-02
2.062000000000000000e+03 3.206785964965820312e+01 -5.097884654998779297e+00 2.877411060035228729e-02 -2.615269459784030914e-02 7.864246726967394352e-04 3.634053170680999756e-01
2.063000000000000000e+03 4.274667739868164062e+01 -2.030275154113769531e+01 -7.181221153587102890e-04 -1.647663593757897615e-04 -2.648665395099669695e-04 1.863723882706835866e-04
2.064000000000000000e+03 1.317033290863037109e+01 -1.133754634857177734e+01 3.682568669319152832e-01 6.204035282135009766e-01 2.965981066226959229e-01 -3.591802343726158142e-02
2.065000000000000000e+03 1.128557395935058594e+01 -1.249339389801025391e+01 3.347423076629638672e-01 4.791694879531860352e-01 2.441735416650772095e-01 -1.334241479635238647e-01
2.066000000000000000e+03 7.083762359619140625e+01 -2.667442131042480469e+01 5.459723251988179982e-05 -5.707253149012103677e-05 -7.425887815770693123e-07 -5.257665179669857025e-06
2.067000000000000000e+03 7.553603363037109375e+01 -2.198025512695312500e+01 3.538370583555661142e-05 -1.127780524257104844e-05 7.231770723592489958e-06 5.048877937952056527e-06
2.068000000000000000e+03 7.449052429199218750e+01 -2.016076660156250000e+01 -1.985636117751710117e-05 2.541856929383357055e-06 -5.194351160753285512e-06 1.661802707531023771e-05
2.069000000000000000e+03 5.663925552368164062e+01 -8.937761306762695312e+00 -1.765940040349960327e-01 2.017074227333068848e-01 7.534025236964225769e-03 -2.044707834720611572e-01
2.070000000000000000e+03 5.545550155639648438e+01 -9.902512550354003906e+00 -4.023352563381195068e-01 2.351638078689575195e-01 -5.015143752098083496e-02 -2.233245372772216797e-01
2.071000000000000000e+03 1.003836345672607422e+01 1.653149795532226562e+01 -2.591859665699303150e-04 -2.601260493975132704e-04 -1.557936047902330756e-04 1.909900311147794127e-05
2.072000000000000000e+03 9.663532257080078125e+00 1.773858261108398438e+01 -1.736524136504158378e-04 -2.839560329448431730e-04 -1.372825354337692261e-04 5.419125955086201429e-05
2.073000000000000000e+03 6.534807586669921875e+01 6.770817756652832031e+00 2.982834279537200928e-01 8.631018996238708496e-01 3.484156131744384766e-01 4.851736500859260559e-02
2.074000000000000000e+03 6.942274475097656250e+01 -1.066994094848632812e+01 -5.484790802001953125e-01 9.202840179204940796e-02 -1.369352042675018311e-01 -2.696616053581237793e-01
2.075000000000000000e+03 6.387195968627929688e+01 7.124759197235107422e+00 3.096823990345001221e-01 1.209995388984680176e+00 4.559033215045928955e-01 2.009056955575942993e-01
2.076000000000000000e+03 6.570457458496093750e+01 8.399755477905273438e+00 2.721765935420989990e-01 9.311575889587402344e-01 3.610002696514129639e-01 4.240299388766288757e-02
2.077000000000000000e+03 4.364929199218750000e+01 -7.005899906158447266e+00 5.483253598213195801e-01 3.951021656394004822e-02 1.763506680727005005e-01 1.138957366347312927e-01
2.078000000000000000e+03 4.073306274414062500e+01 1.838239669799804688e+01 -1.724615134298801422e-02 1.049811579287052155e-02 -2.024410758167505264e-03 1.645007752813398838e-03
2.079000000000000000e+03 3.848046875000000000e+01 1.667719459533691406e+01 -1.562792062759399414e-02 8.741246536374092102e-03 -2.066002227365970612e-03 3.268002299591898918e-03
2.080000000000000000e+03 7.277185821533203125e+01 -2.150732231140136719e+01 6.031502198311500251e-05 -1.268074447580147535e-05 1.429028361599193886e-05 -9.179089829558506608e-06
2.081000000000000000e+03 3.836955261230468750e+01 1.542108631134033203e+01 -1.264571212232112885e-02 5.497634410858154297e-03 -2.144423313438892365e-03 2.327563706785440445e-03
2.082000000000000000e+03 1.224514675140380859e+01 8.739555358886718750e+00 -1.063793461071327329e-04 -2.255487925140187144e-05 -3.868026760756038129e-05 5.035331923863850534e-05
2.083000000000000000e+03 1.123743915557861328e+01 8.566340446472167969e+00 8.672859257785603404e-05 3.630595892900601029e-05 3.691036545205861330e-05 6.401808059308677912e-05
2.084000000000000000e+03 4.873727035522460938e+01 -1.182680225372314453e+01 -7.974628806114196777e-01 3.245406150817871094e-01 -1.418766826391220093e-01 3.588524162769317627e-01
2.085000000000000000e+03 3.995255661010742188e+01 -6.520127296447753906e+00 3.350112736225128174e-01 -2.458921372890472412e-01 2.673573791980743408e-02 1.940377056598663330e-01
2.086000000000000000e+03 7.466543579101562500e+01 -8.283941268920898438e+00 -1.096353158354759216e-01 -1.186789497733116150e-01 -6.849428266286849976e-02 -2.538201808929443359e-01
2.087000000000000000e+03 7.577897644042968750e+01 -7.103873729705810547e+00 -5.790766328573226929e-02 -1.979074627161026001e-01 -7.674453407526016235e-02 -2.499614655971527100e-01
2.088000000000000000e+03 4.171301269531250000e+01 -2.323117065429687500e+01 -4.195809364318847656e-03 9.177974425256252289e-04 -9.834035299718379974e-04 1.640895730815827847e-03
2.089000000000000000e+03 7.556690216064453125e+01 6.482034206390380859e+00 5.588463693857192993e-02 -7.096710801124572754e-01 -1.961359381675720215e-01 -1.739608347415924072e-01
2.090000000000000000e+03 7.322971343994140625e+01 3.146809816360473633e+00 1.084033772349357605e-01 -3.456622958183288574e-01 -7.117767632007598877e-02 -2.883499860763549805e-01
2.091000000000000000e+03 4.273881435394287109e+00 1.127508258819580078e+01 1.102323585655540228e-04 2.140183823939878494e-05 3.949025995098054409e-05 -1.132937541115097702e-04
2.092000000000000000e+03 1.420618629455566406e+01 7.442353248596191406e+00 6.893296358612133190e-06 3.257963908254168928e-05 1.184188113256823272e-05 3.832381116808392107e-05
2.093000000000000000e+03 4.316921234130859375e+00 -1.341262340545654297e+01 8.706811070442199707e-02 -3.880951404571533203e-01 -9.030810743570327759e-02 -1.993457525968551636e-01
2.094000000000000000e+03 5.164523696899414062e+01 -1.177614784240722656e+01 -8.636200428009033203e-01 2.894295454025268555e-01 -1.722571402788162231e-01 9.821927547454833984e-02
2.095000000000000000e+03 6.867240905761718750e+01 -2.842765235900878906e+01 3.864841710310429335e-05 -7.882282079663127661e-05 -1.205232183565385640e-05 2.517627081033424474e-06
2.096000000000000000e+03 3.775648880004882812e+01 1.298259449005126953e+01 -6.843467243015766144e-03 2.012065378949046135e-03 -1.449420582503080368e-03 6.053054239600896835e-04
2.097000000000000000e+03 3.806917572021484375e+01 1.419742393493652344e+01 -1.078014168888330460e-02 3.842322854325175285e-03 -2.081345533952116966e-03 1.489320886321365833e-03
2.098000000000000000e+03 4.943409347534179688e+01 2.339076614379882812e+01 5.315742641687393188e-02 6.900950800627470016e-03 1.801751367747783661e-02 -3.319351375102996826e-02
2.099000000000000000e+03 5.920708465576171875e+01 -3.252455472946166992e+00 6.603696942329406738e-01 3.936649262905120850e-01 3.162103891372680664e-01 3.245492279529571533e-01
2.100000000000000000e+03 7.594527435302734375e+01 -2.444466781616210938e+01 5.916019290452823043e-05 -1.976033672690391541e-06 1.715524740575347096e-05 -2.734101326495874673e-05
2.101000000000000000e+03 7.426074981689453125e+01 -2.657601737976074219e+01 -8.157831871358212084e-06 -1.219647310790605843e-05 -6.106291493779281154e-06 -2.881490581785328686e-05
2.102000000000000000e+03 3.987718582153320312e+01 1.927764701843261719e+01 -1.434392388910055161e-02 1.215352211147546768e-02 -6.571206613443791866e-04 3.197368700057268143e-03
2.103000000000000000e+03 1.039976406097412109e+01 1.533732700347900391e+01 1.411531557096168399e-04 -1.656243985053151846e-04 -7.341371201619040221e-06 8.872420585248619318e-05
2.104000000000000000e+03 1.110052871704101562e+01 1.285233592987060547e+01 1.900782372104004025e-04 -3.794287476921454072e-05 4.564060873235575855e-05 1.417883031535893679e-04
2.105000000000000000e+03 5.377422332763671875e+00 2.164044952392578125e+01 -2.807672717608511448e-04 -3.334284992888569832e-04 -1.842587371356785297e-04 3.212456067558377981e-04
2.106000000000000000e+03 7.517996215820312500e+01 -2.101525115966796875e+01 -9.515016245131846517e-06 -3.114584615104831755e-06 -3.788880349020473659e-06 -1.388971031701657921e-05
2.107000000000000000e+03 1.465182590484619141e+01 4.743783473968505859e+00 -1.773637814039830118e-05 -6.983488856349140406e-05 -2.627138019306585193e-05 1.445677389710908756e-05
2.108000000000000000e+03 7.404437255859375000e+01 -2.380146026611328125e+01 -7.999136641956283711e-07 -6.675671784250880592e-07 -4.402442641548987012e-07 -5.433730166259920225e-06
2.109000000000000000e+03 7.573131561279296875e+01 -5.463366508483886719e-01 1.844633370637893677e-02 -5.006150603294372559e-01 -1.446506083011627197e-01 -2.921968996524810791e-01
2.110000000000000000e+03 7.318585968017578125e+01 -2.045540809631347656e+00 2.264549210667610168e-02 -2.725796997547149658e-01 -7.498025894165039062e-02 -3.891798257827758789e-01
2.111000000000000000e+03 6.268768310546875000e+01 -1.009962177276611328e+01 -8.785913586616516113e-01 -2.994816899299621582e-01 -3.534219264984130859e-01 -3.400608301162719727e-01
2.112000000000000000e+03 4.713799667358398438e+01 -9.431977272033691406e+00 9.254294633865356445e-02 3.358367979526519775e-01 1.285139322280883789e-01 4.175301194190979004e-01
2.113000000000000000e+03 6.042255783081054688e+01 -9.114895820617675781e+00 -4.930229783058166504e-01 -7.505150884389877319e-02 -1.704223453998565674e-01 -3.014419674873352051e-01
2.114000000000000000e+03 5.952861022949218750e+01 -9.788097381591796875e+00 -6.139923334121704102e-01 -2.765331044793128967e-02 -1.924937069416046143e-01 -3.088784515857696533e-01
2.115000000000000000e+03 6.225592041015625000e+01 1.350369572639465332e+00 4.240928888320922852e-01 7.572786808013916016e-01 3.544114530086517334e-01 3.005639016628265381e-01
2.116000000000000000e+03 6.136281585693359375e+01 1.835756897926330566e+00 4.474371671676635742e-01 8.804094791412353516e-01 3.983539938926696777e-01 3.981067240238189697e-01
2.117000000000000000e+03 4.195746421813964844e+00 -9.568154335021972656e+00 2.948344126343727112e-02 -2.896837592124938965e-01 -7.806009799242019653e-02 -2.825658917427062988e-01
2.118000000000000000e+03 1.005441856384277344e+01 -1.977286720275878906e+01 2.858733534812927246e-01 4.776103496551513672e-01 2.290451079607009888e-01 4.276798292994499207e-02
2.119000000000000000e+03 1.109693717956542969e+01 2.317798614501953125e+01 -2.843966707587242126e-03 9.148667595582082868e-05 -8.257440058514475822e-04 1.382420072332024574e-03
2.120000000000000000e+03 7.687369537353515625e+01 1.810057449340820312e+01 2.753497660160064697e-02 -9.873477816581726074e-01 -2.879438400268554688e-01 9.099239856004714966e-02
2.121000000000000000e+03 4.132179641723632812e+01 -2.649276733398437500e+01 -7.696413435041904449e-03 3.742426401004195213e-03 -1.186196110211312771e-03 2.645855769515037537e-03
2.122000000000000000e+03 6.558116912841796875e+01 1.195534706115722656e+01 2.182773947715759277e-01 1.142963171005249023e+00 4.083721637725830078e-01 3.304075449705123901e-02
2.123000000000000000e+03 5.639341735839843750e+01 -6.439016819000244141e+00 6.682786941528320312e-01 3.444617390632629395e-01 3.038221299648284912e-01 1.240685507655143738e-01
2.124000000000000000e+03 5.351951599121093750e+01 -7.880602836608886719e+00 5.811980366706848145e-01 5.864108204841613770e-01 3.502826690673828125e-01 5.797225981950759888e-02
2.125000000000000000e+03 7.436713409423828125e+01 -1.028349685668945312e+01 -1.356752514839172363e-01 -5.328236892819404602e-02 -5.668728798627853394e-02 -1.835188120603561401e-01
2.126000000000000000e+03 6.422647476196289062e+00 2.187894821166992188e+01 -8.326274110004305840e-04 -3.157205064781010151e-04 -3.445043694227933884e-04 4.439652548171579838e-04
2.127000000000000000e+03 5.235565185546875000e+01 2.605574607849121094e+01 1.058586388826370239e-01 7.596401870250701904e-02 5.454679951071739197e-02 -1.387721896171569824e-01
2.128000000000000000e+03 5.235929870605468750e+01 2.470816612243652344e+01 1.403428316116333008e-01 3.481507673859596252e-02 5.254737287759780884e-02 -1.121541857719421387e-01
2.129000000000000000e+03 7.394931793212890625e+01 2.055343818664550781e+01 7.142542302608489990e-02 -4.736178219318389893e-01 -1.206577196717262268e-01 1.838477849960327148e-01
2.130000000000000000e+03 7.509551239013671875e+01 2.198285675048828125e+01 3.359511867165565491e-02 -6.155170202255249023e-01 -1.745765656232833862e-01 1.904458552598953247e-01
2.131000000000000000e+03 6.904177188873291016e+00 1.336458110809326172e+01 -7.898793228378053755e-06 -7.210426701931282878e-05 -2.400091761955991387e-05 -1.067423945642076433e-04
2.132000000000000000e+03 4.180045127868652344e+00 -2.327826881408691406e+01 4.339855164289474487e-02 -4.068609476089477539e-01 -1.090387180447578430e-01 1.340276896953582764e-01
2.133000000000000000e+03 5.799792289733886719e+00 -2.130960845947265625e+01 1.211284026503562927e-01 -2.002772241830825806e-01 -2.374464645981788635e-02 1.006711199879646301e-01
2.134000000000000000e+03 5.484188079833984375e+00 -1.341976261138916016e+01 1.250314861536026001e-01 -2.442862242460250854e-01 -3.577642142772674561e-02 -2.207405418157577515e-01
2.135000000000000000e+03 9.861287117004394531e+00 -1.536536693572998047e+01 3.444806933403015137e-01 4.113455712795257568e-01 2.267478853464126587e-01 -8.384226262569427490e-02
2.136000000000000000e+03 1.089548206329345703e+01 -1.597748184204101562e+01 3.705640733242034912e-01 6.213937997817993164e-01 2.975873649120330811e-01 -2.272976934909820557e-02
2.137000000000000000e+03 4.003022384643554688e+01 -5.619746208190917969e+00 4.675135016441345215e-01 -2.112377434968948364e-01 7.688272744417190552e-02 1.153179481625556946e-01
2.138000000000000000e+03 4.048656845092773438e+01 -7.713862419128417969e+00 1.162072122097015381e-01 -2.449627220630645752e-01 -3.862665593624114990e-02 2.753967046737670898e-01
2.139000000000000000e+03 7.430744934082031250e+01 4.850170135498046875e+00 8.440986275672912598e-02 -5.034786462783813477e-01 -1.257206499576568604e-01 -2.364157140254974365e-01
2.140000000000000000e+03 7.177206993103027344e+00 3.182633399963378906e+01 2.268061944050714374e-04 -2.771696075797080994e-03 -7.634669309481978416e-04 2.716569229960441589e-03
2.141000000000000000e+03 4.518491363525390625e+01 2.274283027648925781e+01 1.433765422552824020e-02 1.047591026872396469e-02 7.444069255143404007e-03 -8.567861281335353851e-03
2.142000000000000000e+03 6.126911163330078125e+00 -2.593894767761230469e+01 1.294521056115627289e-02 -1.291239708662033081e-01 -3.485362604260444641e-02 1.811845898628234863e-01
2.143000000000000000e+03 4.173055171966552734e+00 -2.876846122741699219e+01 -1.418511103838682175e-02 -3.279759287834167480e-01 -1.026483103632926941e-01 1.584528386592864990e-01
2.144000000000000000e+03 5.754029464721679688e+01 -8.977955818176269531e+00 -2.314046919345855713e-01 1.366903632879257202e-01 -2.841429971158504486e-02 -2.450248450040817261e-01
2.145000000000000000e+03 4.077863693237304688e+01 -2.167697525024414062e+01 -2.610730472952127457e-03 1.090425575966946781e-04 -7.505063549615442753e-04 5.819823709316551685e-04
2.146000000000000000e+03 1.876891708374023438e+01 2.797433090209960938e+01 -4.775987472385168076e-03 -3.057021880522370338e-03 -2.349902875721454620e-03 7.627982180565595627e-03
2.147000000000000000e+03 3.138090705871582031e+01 2.122549057006835938e+01 -2.399808540940284729e-02 -5.208432674407958984e-03 -8.761955425143241882e-03 8.159485645592212677e-03
2.148000000000000000e+03 7.102986145019531250e+01 -2.387473106384277344e+01 5.390452133724465966e-05 -3.174389348714612424e-05 6.648188445979030803e-06 -7.112786533980397508e-06
2.149000000000000000e+03 1.310475254058837891e+01 -1.049128341674804688e+01 2.967633903026580811e-01 5.486674308776855469e-01 2.536292374134063721e-01 -8.414375782012939453e-02
2.150000000000000000e+03 1.417633056640625000e+01 -1.148640060424804688e+01 4.851035475730895996e-01 7.109194397926330566e-01 3.588069081306457520e-01 1.128423437476158142e-01
2.151000000000000000e+03 5.142469406127929688e+00 2.612413406372070312e+01 -3.851443761959671974e-04 -9.887653868645429611e-04 -4.121729289181530476e-04 1.372592640109360218e-03
2.152000000000000000e+03 1.692413711547851562e+01 -2.661084938049316406e+01 1.734671592712402344e-01 5.451928377151489258e-01 2.155980020761489868e-01 -2.726469337940216064e-01
2.153000000000000000e+03 1.477043247222900391e+01 -2.660287475585937500e+01 5.615722015500068665e-02 6.447868943214416504e-01 2.102832198143005371e-01 -1.646624952554702759e-01
2.154000000000000000e+03 4.292584896087646484e+00 -1.080476665496826172e+01 4.637459665536880493e-02 -3.268155157566070557e-01 -8.413226902484893799e-02 -2.656453847885131836e-01
2.155000000000000000e+03 7.448686981201171875e+01 -3.496797561645507812e+01 -5.561842408496886492e-05 2.329270137124694884e-05 -9.697716450318694115e-06 -3.539708268363028765e-05
2.156000000000000000e+03 1.691095352172851562e+01 2.877668762207031250e+01 -2.517513697966933250e-03 -2.684226725250482559e-03 -1.560522126965224743e-03 6.991116330027580261e-03
2.157000000000000000e+03 7.428427124023437500e+01 7.834882736206054688e+00 9.315813332796096802e-02 -5.322002172470092773e-01 -1.317126303911209106e-01 -1.594287753105163574e-01
2.158000000000000000e+03 5.645576477050781250e+01 2.895517730712890625e+01 1.660590805113315582e-02 3.347500264644622803e-01 1.054067760705947876e-01 -2.400823831558227539e-01
2.159000000000000000e+03 5.331181049346923828e+00 1.479794692993164062e+01 -4.952630115440115333e-05 -5.643716576742008328e-05 -3.178904080414213240e-05 -1.597341470187529922e-04
2.160000000000000000e+03 2.311617088317871094e+01 -4.268729209899902344e+00 -2.858813107013702393e-01 -3.851750195026397705e-01 -2.013168931007385254e-01 5.156122446060180664e-01
2.161000000000000000e+03 2.249888610839843750e+01 -3.971494197845458984e+00 -3.369025588035583496e-01 -2.077701091766357422e-01 -1.634017974138259888e-01 4.940347969532012939e-01
2.162000000000000000e+03 2.300167274475097656e+01 -3.611116886138916016e+00 -1.942392438650131226e-01 -2.996405363082885742e-01 -1.481639444828033447e-01 3.981637358665466309e-01
2.163000000000000000e+03 2.766703605651855469e+01 -5.010243415832519531e+00 -4.364067912101745605e-01 3.451147675514221191e-01 -2.738760598003864288e-02 -4.043006803840398788e-03
2.164000000000000000e+03 2.296087265014648438e+01 -3.076896190643310547e+00 -1.594262272119522095e-01 -2.325074672698974609e-01 -1.175801083445549011e-01 3.231810033321380615e-01
2.165000000000000000e+03 2.737225341796875000e+01 -5.207094192504882812e+00 -5.313718914985656738e-01 3.727941215038299561e-01 -4.757333546876907349e-02 -6.435198336839675903e-02
2.166000000000000000e+03 2.262029647827148438e+01 -5.419942855834960938e+00 -7.825508713722229004e-01 -1.150734350085258484e-01 -2.692872881889343262e-01 6.221747994422912598e-01
2.167000000000000000e+03 2.111340332031250000e+01 -3.032609701156616211e+00 -3.787201941013336182e-01 3.642818424850702286e-03 -1.125232130289077759e-01 3.784208595752716064e-01
2.168000000000000000e+03 2.229235649108886719e+01 -4.312999725341796875e+00 -4.341203272342681885e-01 -1.576815098524093628e-01 -1.775405555963516235e-01 5.299488306045532227e-01
2.169000000000000000e+03 2.204445648193359375e+01 -2.437511682510375977e+00 -2.505901157855987549e-01 -8.623895049095153809e-02 -1.010487228631973267e-01 3.031468093395233154e-01
2.170000000000000000e+03 3.159160614013671875e+01 -3.772400617599487305e+00 6.525564938783645630e-02 2.450824156403541565e-02 2.692916616797447205e-02 2.946090996265411377e-01
2.171000000000000000e+03 3.069273376464843750e+01 -4.808351516723632812e+00 -3.927911072969436646e-02 9.888932108879089355e-02 1.788306422531604767e-02 3.659791648387908936e-01
2.172000000000000000e+03 2.946473503112792969e+01 -5.115180969238281250e+00 -2.107136845588684082e-01 2.838204503059387207e-01 2.193203195929527283e-02 3.599953651428222656e-01
2.173000000000000000e+03 2.836926841735839844e+01 -6.437320709228515625e+00 -4.465552270412445068e-01 6.861278414726257324e-01 7.187177240848541260e-02 5.116384625434875488e-01
2.174000000000000000e+03 2.804184532165527344e+01 -5.778573513031005859e+00 -5.373541712760925293e-01 5.772609710693359375e-01 1.197203621268272400e-02 2.421864271163940430e-01
2.175000000000000000e+03 4.034997940063476562e+01 -8.532960891723632812e+00 -9.227550774812698364e-02 -2.793536186218261719e-01 -1.114887446165084839e-01 3.278319537639617920e-01
2.176000000000000000e+03 1.259656906127929688e+01 4.745666980743408203e+00 5.676085493178106844e-05 2.888315430027432740e-05 2.569320349721238017e-05 -1.272294957743724808e-05
2.177000000000000000e+03 1.355625152587890625e+01 5.319259643554687500e+00 9.231279364030342549e-06 3.786255183513276279e-05 1.412814890500158072e-05 -6.988568202359601855e-06
2.178000000000000000e+03 4.576535415649414062e+01 -1.170758152008056641e+01 -6.748050451278686523e-01 2.789102792739868164e-01 -1.187684237957000732e-01 4.338345229625701904e-01
2.179000000000000000e+03 1.984420776367187500e+01 -3.067651748657226562e+00 -4.618116915225982666e-01 1.142522469162940979e-01 -1.042678281664848328e-01 3.278672099113464355e-01
2.180000000000000000e+03 1.914523315429687500e+01 -3.210759878158569336e+00 -4.874779880046844482e-01 1.492556631565093994e-01 -1.014667004346847534e-01 2.905952930450439453e-01
2.181000000000000000e+03 3.002955245971679688e+01 -3.937388420104980469e+00 -6.175808236002922058e-02 1.260365098714828491e-01 1.928352750837802887e-02 2.643149495124816895e-01
2.182000000000000000e+03 4.241732788085937500e+01 -7.495462894439697266e+00 3.062142133712768555e-01 -7.335522770881652832e-02 6.985769420862197876e-02 1.895461529493331909e-01
2.183000000000000000e+03 2.861601448059082031e+01 -4.739123344421386719e+00 -3.021683394908905029e-01 3.248164951801300049e-01 6.794443354010581970e-03 1.856347918510437012e-01
2.184000000000000000e+03 1.104603672027587891e+01 -5.695725440979003906e+00 -1.928685456514358521e-01 1.405075490474700928e-01 -1.570830121636390686e-02 -2.598296105861663818e-01
2.185000000000000000e+03 7.488284301757812500e+01 -1.146861171722412109e+01 -1.092230603098869324e-01 -3.114982880651950836e-02 -4.211186617612838745e-02 -1.133795157074928284e-01
2.186000000000000000e+03 7.574339294433593750e+01 -9.585561752319335938e+00 -8.264862000942230225e-02 -9.812189638614654541e-02 -5.423115566372871399e-02 -1.702250987291336060e-01
2.187000000000000000e+03 6.213895320892333984e+00 5.013780117034912109e+00 -4.106575579498894513e-05 -1.205472381116123870e-05 -1.593614433659240603e-05 9.880213838187046349e-06
2.188000000000000000e+03 6.267924785614013672e+00 7.372243404388427734e+00 8.087278547463938594e-05 2.420770579192321748e-05 3.152414865326136351e-05 -5.074765431345440447e-05
2.189000000000000000e+03 3.704592514038085938e+01 -6.143039703369140625e+00 1.732132583856582642e-01 -3.063777089118957520e-01 -3.994933143258094788e-02 2.504319250583648682e-01
2.190000000000000000e+03 4.422967910766601562e+00 6.059759616851806641e+00 -5.677619628841057420e-05 -1.014727331494214013e-05 -2.007704097195528448e-05 -9.980029972211923450e-06
2.191000000000000000e+03 7.055106353759765625e+01 -9.234574317932128906e+00 -3.616015613079071045e-01 1.837645657360553741e-02 -1.029675304889678955e-01 -3.315699994564056396e-01
2.192000000000000000e+03 2.990810012817382812e+01 -5.262609004974365234e+00 -1.459623426198959351e-01 2.296537756919860840e-01 2.510742843151092529e-02 4.071132838726043701e-01
2.193000000000000000e+03 5.718025207519531250e+00 -6.686710834503173828e+00 -5.145460739731788635e-02 -1.130793616175651550e-01 -4.936018958687782288e-02 -3.267413973808288574e-01
2.194000000000000000e+03 8.588875770568847656e+00 -5.507963657379150391e+00 -1.618707180023193359e-01 3.146491199731826782e-02 -3.912174329161643982e-02 -3.180590271949768066e-01
2.195000000000000000e+03 8.581189155578613281e+00 -4.820102691650390625e+00 -2.059933543205261230e-01 2.743720449507236481e-02 -5.356684327125549316e-02 -3.023801445960998535e-01
2.196000000000000000e+03 3.318853759765625000e+01 -4.792690277099609375e+00 1.031680554151535034e-01 -8.495460450649261475e-02 5.464036483317613602e-03 2.886851131916046143e-01
2.197000000000000000e+03 3.258783340454101562e+01 -4.290402412414550781e+00 9.065679460763931274e-02 -2.420609258115291595e-02 1.993521116673946381e-02 2.992469370365142822e-01
2.198000000000000000e+03 1.485470008850097656e+01 -5.388283252716064453e+00 -2.854613363742828369e-01 2.654899656772613525e-01 -5.991412792354822159e-03 -4.606373980641365051e-02
2.199000000000000000e+03 3.378895187377929688e+01 -4.165779113769531250e+00 1.691946387290954590e-01 -8.807273954153060913e-02 2.433657087385654449e-02 2.354806512594223022e-01
2.200000000000000000e+03 4.488736343383789062e+01 -8.846673965454101562e+00 1.618372797966003418e-01 1.314063966274261475e-01 8.797310292720794678e-02 2.964458465576171875e-01
2.201000000000000000e+03 1.976083183288574219e+01 -8.440333366394042969e+00 2.077890336513519287e-01 2.911857366561889648e-01 1.496924310922622681e-01 5.969672650098800659e-02
2.202000000000000000e+03 3.551524734497070312e+01 -4.055104732513427734e+00 2.762999236583709717e-01 -2.012861967086791992e-01 2.250411733984947205e-02 1.440399736166000366e-01
2.203000000000000000e+03 1.649667358398437500e+01 -5.245603561401367188e+00 -3.343752324581146240e-01 3.107909262180328369e-01 -7.075298111885786057e-03 7.006027549505233765e-02
2.204000000000000000e+03 1.729342842102050781e+01 -5.079690456390380859e+00 -3.754301667213439941e-01 3.115677535533905029e-01 -1.915872469544410706e-02 1.334005594253540039e-01
2.205000000000000000e+03 7.247831726074218750e+01 -2.029925537109375000e+01 3.575088339857757092e-05 9.860010550255537964e-07 1.102106580219697207e-05 -2.044120083155576140e-05
2.206000000000000000e+03 2.068227767944335938e+01 -7.800473213195800781e+00 -9.835145622491836548e-02 2.555496096611022949e-01 4.715944454073905945e-02 9.518031962215900421e-03
2.207000000000000000e+03 1.854806709289550781e+01 -7.186975002288818359e+00 -1.201628074049949646e-01 4.138641655445098877e-01 8.811040967702865601e-02 1.110027208924293518e-01
2.208000000000000000e+03 3.007552909851074219e+01 -4.641287326812744141e+00 -1.124672144651412964e-01 1.705637276172637939e-01 1.742895506322383881e-02 3.478095829486846924e-01
2.209000000000000000e+03 4.261006546020507812e+01 -1.955326843261718750e+01 -3.742338740266859531e-04 -2.247589873149991035e-04 -1.796978613128885627e-04 6.027348354109562933e-05
2.210000000000000000e+03 4.053161239624023438e+01 -2.035949134826660156e+01 -1.248928485438227654e-03 -3.614317683968693018e-04 -4.831080732401460409e-04 2.621212624944746494e-04
2.211000000000000000e+03 3.897222137451171875e+01 -7.216441154479980469e+00 1.184303909540176392e-01 -3.205495476722717285e-01 -6.063574925065040588e-02 2.847721278667449951e-01
2.212000000000000000e+03 2.118691444396972656e+01 -5.840378284454345703e+00 -6.092308759689331055e-01 2.104874402284622192e-01 -1.196230351924896240e-01 3.486235141754150391e-01
2.213000000000000000e+03 1.800780296325683594e+01 -4.823925495147705078e+00 -4.219019711017608643e-01 2.851261496543884277e-01 -4.103274270892143250e-02 1.954416036605834961e-01
2.214000000000000000e+03 4.326128768920898438e+01 -7.884434700012207031e+00 3.129203021526336670e-01 -2.089222334325313568e-02 8.760842680931091309e-02 2.106369435787200928e-01
2.215000000000000000e+03 2.867253494262695312e+01 -6.168147087097167969e+00 -3.490697443485260010e-01 5.357000827789306641e-01 5.598911270499229431e-02 4.765466749668121338e-01
2.216000000000000000e+03 2.833157539367675781e+01 -5.095047950744628906e+00 -3.742913007736206055e-01 3.851100802421569824e-01 3.245628438889980316e-03 1.779517233371734619e-01
2.217000000000000000e+03 7.351515960693359375e+01 -1.005447959899902344e+01 -1.941141933202743530e-01 -3.388177603483200073e-02 -6.839879602193832397e-02 -2.181639522314071655e-01
2.218000000000000000e+03 3.753550338745117188e+01 -4.863320350646972656e+00 3.873719274997711182e-01 -2.901638150215148926e-01 2.916242741048336029e-02 1.481688916683197021e-01
2.219000000000000000e+03 7.101403808593750000e+01 -9.866136550903320312e+00 -3.225667178630828857e-01 2.026580087840557098e-02 -9.069027006626129150e-02 -3.130791485309600830e-01
2.220000000000000000e+03 5.107189941406250000e+01 -1.108300495147705078e+01 -6.006764769554138184e-01 3.429959118366241455e-01 -7.730417698621749878e-02 1.646471172571182251e-01
2.221000000000000000e+03 6.726603698730468750e+01 -7.185347080230712891e+00 -2.651653885841369629e-01 -8.421067893505096436e-02 -1.048128232359886169e-01 -4.997288882732391357e-01
2.222000000000000000e+03 6.643421936035156250e+01 -8.113690376281738281e+00 -3.371387720108032227e-01 -1.348278820514678955e-01 -1.415899991989135742e-01 -5.098853707313537598e-01
2.223000000000000000e+03 1.019618988037109375e+01 -5.777323246002197266e+00 -1.722716391086578369e-01 1.028009951114654541e-01 -2.084119431674480438e-02 -2.936611175537109375e-01
2.224000000000000000e+03 7.315563964843750000e+01 -1.074104881286621094e+01 -1.860150545835494995e-01 -1.367809064686298370e-02 -5.990794301033020020e-02 -1.831072717905044556e-01
2.225000000000000000e+03 3.644847869873046875e+01 -3.277522325515747070e+00 3.872359097003936768e-01 -2.014040052890777588e-01 5.574956908822059631e-02 6.214367970824241638e-02
2.226000000000000000e+03 6.930680084228515625e+01 -9.331331253051757812e+00 -4.527515769004821777e-01 2.643078751862049103e-02 -1.278962343931198120e-01 -3.690083920955657959e-01
2.227000000000000000e+03 4.628784561157226562e+01 -1.000906372070312500e+01 -2.036742717027664185e-01 2.704141139984130859e-01 2.002195082604885101e-02 3.988651633262634277e-01
2.228000000000000000e+03 3.378707504272460938e+01 -5.321637630462646484e+00 7.105253636837005615e-02 -1.466706544160842896e-01 -2.268543466925621033e-02 2.969824075698852539e-01
2.229000000000000000e+03 5.005876159667968750e+01 -1.068789291381835938e+01 -4.302928745746612549e-01 4.305258989334106445e-01 6.990401743678376079e-05 2.948750853538513184e-01
2.230000000000000000e+03 1.106018352508544922e+01 6.305629253387451172e+00 9.793222125153988600e-05 7.536617886216845363e-06 3.164065128657966852e-05 -1.648272336751688272e-05
2.231000000000000000e+03 5.080500602722167969e+00 -6.761907100677490234e+00 -4.134514927864074707e-02 -1.499591767787933350e-01 -5.739129707217216492e-02 -3.068148791790008545e-01
2.232000000000000000e+03 5.893607616424560547e+00 -5.328854084014892578e+00 -1.073015406727790833e-01 -8.155484497547149658e-02 -5.665691569447517395e-02 -3.002762496471405029e-01
2.233000000000000000e+03 7.343710327148437500e+01 -2.926926803588867188e+01 7.654080400243401527e-05 -3.927895158994942904e-05 1.117855572374537587e-05 -9.343308920506387949e-05
2.234000000000000000e+03 7.133923339843750000e+01 -2.495131111145019531e+01 6.619495252380147576e-05 -4.061115032527595758e-05 7.675140295759774745e-06 -1.100295776268467307e-05
2.235000000000000000e+03 7.302909851074218750e+01 -2.339783859252929688e+01 5.857392352481838316e-06 -9.644852070778142661e-06 -1.136237983700993937e-06 -1.796525339159416035e-06
2.236000000000000000e+03 5.995147228240966797e+00 -7.381603717803955078e+00 -3.079521097242832184e-02 -1.129516512155532837e-01 -4.312405735254287720e-02 -3.307529985904693604e-01
2.237000000000000000e+03 8.014570236206054688e+00 5.753910064697265625e+00 6.537006265716627240e-05 1.624947071832139045e-05 2.448586019454523921e-05 -2.241435868199914694e-05
2.238000000000000000e+03 3.268523025512695312e+01 -4.946801185607910156e+00 7.148376852273941040e-02 -8.200238645076751709e-02 -3.155585611239075661e-03 3.273100554943084717e-01
2.239000000000000000e+03 3.312184906005859375e+01 -5.357318878173828125e+00 4.161036759614944458e-02 -1.160116344690322876e-01 -2.232038043439388275e-02 3.082897067070007324e-01
2.240000000000000000e+03 7.418922424316406250e+01 -2.096075439453125000e+01 4.415115472511388361e-05 -1.976658040803158656e-06 1.265234823222272098e-05 -1.533711292722728103e-05
2.241000000000000000e+03 7.373403930664062500e+01 -2.190028190612792969e+01 -1.066731215360050555e-06 -7.443314189004013315e-06 -2.553013700890005566e-06 4.842800080950837582e-06
2.242000000000000000e+03 7.442342376708984375e+01 -3.245000123977661133e+00 -5.480018444359302521e-03 -3.081986904144287109e-01 -9.410361200571060181e-02 -3.581119179725646973e-01
2.243000000000000000e+03 7.447143554687500000e+01 -1.962393999099731445e+00 8.549693971872329712e-03 -3.530151844024658203e-01 -1.033396497368812561e-01 -3.522163033485412598e-01
2.244000000000000000e+03 7.586470127105712891e+00 1.950461959838867188e+01 -6.853948580101132393e-04 -1.844064681790769100e-04 -2.609404036775231361e-04 9.134234278462827206e-05
2.245000000000000000e+03 1.035372734069824219e+01 1.946402549743652344e+01 -6.987255765125155449e-04 -2.636999124661087990e-04 -2.887276350520551205e-04 1.396471197949722409e-04
2.246000000000000000e+03 7.448612213134765625e+01 6.739085316658020020e-01 4.608164355158805847e-02 -4.367328584194183350e-01 -1.171953603625297546e-01 -3.186031579971313477e-01
2.247000000000000000e+03 4.271989440917968750e+01 -6.616275310516357422e+00 5.730964541435241699e-01 -3.740687668323516846e-02 1.607068777084350586e-01 1.011432483792304993e-01
2.248000000000000000e+03 7.438766479492187500e+01 -5.857411384582519531e+00 -6.424725055694580078e-02 -2.054743617773056030e-01 -8.091647922992706299e-02 -3.380415737628936768e-01
2.249000000000000000e+03 7.223972320556640625e+01 -2.246015357971191406e+01 -1.824689888962893747e-06 -1.247778618562733755e-05 -4.290742708690231666e-06 -3.250659347031614743e-06
2.250000000000000000e+03 1.122059345245361328e+01 1.038221073150634766e+01 1.874714362202212214e-04 -2.492318708391394466e-05 4.876447565038688481e-05 4.878127219853922725e-05
2.251000000000000000e+03 3.928329849243164062e+01 -5.492251873016357422e+00 4.397475421428680420e-01 -2.562908828258514404e-01 5.503699555993080139e-02 1.493858098983764648e-01
2.252000000000000000e+03 3.842970275878906250e+01 -6.275827884674072266e+00 2.398150712251663208e-01 -3.070181012153625488e-01 -2.016091346740722656e-02 2.361443340778350830e-01
2.253000000000000000e+03 5.270188331604003906e+00 1.092797946929931641e+01 -2.320736894034780562e-05 -7.335971895372495055e-05 -2.897012564062606543e-05 -3.418312553549185395e-05
2.254000000000000000e+03 6.132290363311767578e+00 1.404068279266357422e+01 4.859042746829800308e-05 -1.891705032903701067e-04 -4.217402238282375038e-05 5.070796760264784098e-05
2.255000000000000000e+03 1.493646144866943359e+01 5.371053695678710938e+00 9.267865607398562133e-06 -1.579693707753904164e-05 -1.958721668415819295e-06 -1.474615146435098723e-05
2.256000000000000000e+03 6.871360778808593750e+01 -1.017060375213623047e+01 -5.029984712600708008e-01 4.371757060289382935e-02 -1.377842724323272705e-01 -3.702903091907501221e-01
2.257000000000000000e+03 5.728619003295898438e+01 -7.280632019042968750e+00 2.976470291614532471e-01 2.122155129909515381e-01 1.529587656259536743e-01 -7.618769258260726929e-02
2.258000000000000000e+03 5.570783615112304688e+01 -8.905833244323730469e+00 -4.863560944795608521e-02 2.759377360343933105e-01 6.819064170122146606e-02 -1.730721741914749146e-01
2.259000000000000000e+03 3.996207046508789062e+01 -2.090995216369628906e+01 -1.649785321205854416e-03 2.259834727738052607e-04 -4.271405632607638836e-04 -1.052662046276964247e-04
2.260000000000000000e+03 4.030787658691406250e+01 -1.946857833862304688e+01 -9.068966028280556202e-04 -1.754555123625323176e-04 -3.247056447435170412e-04 1.187613161164335907e-04
2.261000000000000000e+03 6.672273254394531250e+01 1.107898235321044922e+01 2.534603774547576904e-01 8.540132045745849609e-01 3.322420716285705566e-01 1.032511889934539795e-02
2.262000000000000000e+03 4.209313583374023438e+01 -8.326051712036132812e+00 9.896562993526458740e-02 -1.215805411338806152e-01 -6.784472148865461349e-03 2.644145190715789795e-01
2.263000000000000000e+03 3.609574508666992188e+01 1.646613311767578125e+01 -1.229343656450510025e-02 4.507465288043022156e-03 -2.335791476070880890e-03 6.312312558293342590e-03
2.264000000000000000e+03 3.715124511718750000e+01 -3.896293640136718750e+00 4.124161303043365479e-01 -2.400629222393035889e-01 5.170596390962600708e-02 7.305858284235000610e-02
2.265000000000000000e+03 5.274596786499023438e+01 -9.134722709655761719e+00 3.182249143719673157e-02 5.548542141914367676e-01 1.760030239820480347e-01 4.655602946877479553e-02
2.266000000000000000e+03 6.416007232666015625e+01 -6.927682399749755859e+00 -1.438350826501846313e-01 -2.027414590120315552e-01 -1.039729639887809753e-01 -3.923950493335723877e-01
2.267000000000000000e+03 5.245065212249755859e+00 7.315377712249755859e+00 -3.921142342733219266e-05 -4.805872958968393505e-05 -2.618104554130695760e-05 4.511472070589661598e-06
2.268000000000000000e+03 1.052751731872558594e+01 -1.441929626464843750e+01 3.628979325294494629e-01 4.651156365871429443e-01 2.484040707349777222e-01 -9.516242891550064087e-02
2.269000000000000000e+03 8.229724884033203125e+00 -2.039011383056640625e+01 2.160677611827850342e-01 1.691971570253372192e-01 1.155794784426689148e-01 7.111524045467376709e-02
2.270000000000000000e+03 7.460311126708984375e+01 -9.341397285461425781e+00 -1.384223401546478271e-01 -8.142631500959396362e-02 -6.595459580421447754e-02 -2.205732911825180054e-01
2.271000000000000000e+03 4.516083145141601562e+01 -1.130639934539794922e+01 -5.919414162635803223e-01 2.021138519048690796e-01 -1.169482693076133728e-01 4.044040143489837646e-01
2.272000000000000000e+03 9.440381050109863281e+00 -1.805768203735351562e+01 3.112940490245819092e-01 3.875423967838287354e-01 2.096509337425231934e-01 -7.753228768706321716e-03
2.273000000000000000e+03 1.115978717803955078e+01 -1.763612174987792969e+01 3.319215774536132812e-01 8.082834482192993164e-01 3.420615196228027344e-01 -1.622669771313667297e-02
2.274000000000000000e+03 7.458991241455078125e+01 -7.111369609832763672e+00 -1.028218790888786316e-01 -1.570634692907333374e-01 -7.796560227870941162e-02 -2.999521195888519287e-01
2.275000000000000000e+03 7.278166198730468750e+01 -1.009068489074707031e+01 -2.375493049621582031e-01 -4.172864835709333420e-03 -7.251664996147155762e-02 -2.224063873291015625e-01
2.276000000000000000e+03 7.499269104003906250e+01 -2.450222396850585938e+01 -1.471726955060148612e-05 -4.305135803406301420e-07 -4.544334842648822814e-06 -1.323632204730529338e-05
2.277000000000000000e+03 6.798216247558593750e+01 -9.597333908081054688e+00 -5.615194439888000488e-01 -1.919175265356898308e-03 -1.690315902233123779e-01 -3.985198438167572021e-01
2.278000000000000000e+03 6.864013671875000000e+01 -8.686016082763671875e+00 -4.033763706684112549e-01 -8.690198883414268494e-03 -1.236199662089347839e-01 -4.762146472930908203e-01
2.279000000000000000e+03 7.349559020996093750e+01 -2.757731437683105469e+01 7.760698645142838359e-05 -3.037987153220456094e-05 1.416813483956502751e-05 -7.692164945183321834e-05
2.280000000000000000e+03 7.477043914794921875e+01 -2.554878807067871094e+01 6.500828021671622992e-05 -2.405291752438643016e-06 1.878089642559643835e-05 -4.993687980459071696e-05
2.281000000000000000e+03 5.739413452148437500e+01 -5.414885044097900391e+00 7.269762158393859863e-01 3.218538165092468262e-01 3.146490156650543213e-01 1.971981525421142578e-01
2.282000000000000000e+03 5.633752059936523438e+01 -8.106388092041015625e+00 1.724111735820770264e-01 2.496717721223831177e-01 1.266248822212219238e-01 -1.007036492228507996e-01
2.283000000000000000e+03 6.011118698120117188e+01 -4.069893836975097656e+00 5.310805439949035645e-01 2.097321003675460815e-01 2.222438007593154907e-01 1.470721215009689331e-01
2.284000000000000000e+03 6.091020202636718750e+01 -3.112964630126953125e+00 5.023477673530578613e-01 2.862502336502075195e-01 2.365794032812118530e-01 1.375764161348342896e-01
2.285000000000000000e+03 7.432510375976562500e+01 -4.549906730651855469e+00 -4.347175732254981995e-02 -2.525569498538970947e-01 -8.880861103534698486e-02 -3.567121028900146484e-01
2.286000000000000000e+03 1.133553218841552734e+01 1.153150463104248047e+01 -9.618483454687520862e-05 -4.970548980054445565e-05 -4.376709694042801857e-05 5.659268208546563983e-05
2.287000000000000000e+03 3.484222030639648438e+01 1.590964508056640625e+01 -1.006562449038028717e-02 6.700712256133556366e-04 -2.818666165694594383e-03 7.402863353490829468e-03
2.288000000000000000e+03 6.093576431274414062e+01 -1.282117247581481934e+00 5.425863862037658691e-01 5.066739320755004883e-01 3.147780895233154297e-01 3.022935390472412109e-01
2.289000000000000000e+03 6.539506912231445312e+00 2.559121322631835938e+01 -1.354062696918845177e-03 -7.611229666508734226e-04 -6.345557048916816711e-04 1.579288626089692116e-03
2.290000000000000000e+03 6.403603363037109375e+01 9.036007881164550781e+00 2.434757649898529053e-01 1.402727246284484863e+00 4.938609004020690918e-01 1.984804421663284302e-01
2.291000000000000000e+03 6.504403686523437500e+01 9.311758995056152344e+00 2.713013887405395508e-01 1.121688008308410645e+00 4.178968071937561035e-01 1.124165654182434082e-01
2.292000000000000000e+03 6.557266235351562500e+00 1.889121246337890625e+01 -2.209939120803028345e-04 -3.295040805824100971e-04 -1.651493948884308338e-04 9.148915705736726522e-05
2.293000000000000000e+03 1.611489295959472656e+01 -9.049568176269531250e+00 2.377525568008422852e-01 5.317676663398742676e-01 2.308560609817504883e-01 5.312329903244972229e-02
2.294000000000000000e+03 1.381840038299560547e+01 -8.879488945007324219e+00 1.282003968954086304e-01 4.561608135700225830e-01 1.753083616495132446e-01 -1.189954280853271484e-01
2.295000000000000000e+03 7.460044097900390625e+01 1.576601314544677734e+01 8.522847294807434082e-02 -6.285222768783569336e-01 -1.629881411790847778e-01 6.131077185273170471e-02
2.296000000000000000e+03 1.215843009948730469e+01 2.403554916381835938e+01 -3.552250564098358154e-03 2.942859428003430367e-04 -9.773893980309367180e-04 1.714959507808089256e-03
2.297000000000000000e+03 3.901171875000000000e+01 -2.414773941040039062e+01 -6.547975819557905197e-03 2.638921840116381645e-03 -1.172716147266328335e-03 -4.575729835778474808e-04
2.298000000000000000e+03 7.332369995117187500e+01 1.364308643341064453e+01 1.341532915830612183e-01 -3.986336290836334229e-01 -7.934410125017166138e-02 -7.194844540208578110e-03
2.299000000000000000e+03 7.544644165039062500e+01 1.410533523559570312e+01 7.260318845510482788e-02 -7.632173895835876465e-01 -2.071842700242996216e-01 1.409769244492053986e-02
2.300000000000000000e+03 6.520411968231201172e+00 -2.344958877563476562e+01 9.346040338277816772e-02 -8.385048806667327881e-02 2.882975386455655098e-03 1.620354056358337402e-01
2.301000000000000000e+03 5.652556419372558594e+00 -2.033835601806640625e+01 1.240754127502441406e-01 -2.270260304212570190e-01 -3.088518790900707245e-02 7.216130942106246948e-02
2.302000000000000000e+03 1.046553230285644531e+01 -2.431820106506347656e+01 9.622424840927124023e-02 4.393420517444610596e-01 1.606698930263519287e-01 1.279775649309158325e-01
2.303000000000000000e+03 1.153753376007080078e+01 -2.549132728576660156e+01 4.918980970978736877e-02 5.412569046020507812e-01 1.771340221166610718e-01 7.842669636011123657e-02
2.304000000000000000e+03 3.793355941772460938e+01 -4.123694896697998047e+00 4.589564800262451172e-01 -2.607258260250091553e-01 5.946919694542884827e-02 5.625619739294052124e-02
2.305000000000000000e+03 4.439021587371826172e+00 1.695038414001464844e+01 -1.938468631124123931e-04 -1.006532766041345894e-04 -8.835003973217681050e-05 -3.729888703674077988e-05
2.306000000000000000e+03 5.724111080169677734e+00 3.033316421508789062e+01 -3.574082511477172375e-04 -2.235084073618054390e-03 -7.777477148920297623e-04 2.263471717014908791e-03
2.307000000000000000e+03 6.853890228271484375e+01 1.666417121887207031e+01 2.800886631011962891e-01 4.114073514938354492e-01 2.074488103389739990e-01 4.616639763116836548e-02
2.308000000000000000e+03 5.809174060821533203e+00 3.332380294799804688e+01 1.092090096790343523e-04 -3.156573511660099030e-03 -9.142093476839363575e-04 2.273478312417864799e-03
2.309000000000000000e+03 4.077495574951171875e+01 2.020274543762207031e+01 -1.176113449037075043e-02 1.313509233295917511e-02 4.121873062103986740e-04 2.631041686981916428e-03
2.310000000000000000e+03 3.837455749511718750e+01 1.801218223571777344e+01 -1.545346993952989578e-02 9.222752414643764496e-03 -1.869215513579547405e-03 4.527525044977664948e-03
2.311000000000000000e+03 5.662102222442626953e+00 -1.598979949951171875e+01 1.546010971069335938e-01 -2.573737800121307373e-01 -3.083180263638496399e-02 -1.120452731847763062e-01
2.312000000000000000e+03 7.476760101318359375e+01 2.331098937988281250e+01 2.047266997396945953e-02 -5.468202233314514160e-01 -1.579042673110961914e-01 2.097797989845275879e-01
2.313000000000000000e+03 7.209642791748046875e+01 2.305832481384277344e+01 4.895296692848205566e-02 -1.987382173538208008e-01 -4.493557661771774292e-02 2.373693883419036865e-01
2.314000000000000000e+03 7.403080749511718750e+01 1.924491500854492188e+01 7.842054218053817749e-02 -5.028630495071411133e-01 -1.273327469825744629e-01 1.609166115522384644e-01
2.315000000000000000e+03 7.544491577148437500e+01 1.937178230285644531e+01 4.428157582879066467e-02 -7.350603938102722168e-01 -2.072336375713348389e-01 1.360298246145248413e-01
2.316000000000000000e+03 4.759277725219726562e+01 -1.048129749298095703e+01 -2.941392064094543457e-01 3.777443170547485352e-01 2.508153766393661499e-02 4.294233024120330811e-01
2.317000000000000000e+03 4.298569107055664062e+01 -2.910153198242187500e+01 -7.163949310779571533e-03 2.218279056251049042e-03 -1.483701053075492382e-03 4.162122495472431183e-03
2.318000000000000000e+03 1.829630470275878906e+01 -3.123970794677734375e+01 -1.212772261351346970e-02 3.503675460815429688e-01 1.014719456434249878e-01 -1.310350149869918823e-01
2.319000000000000000e+03 4.049541473388671875e+00 -3.288220596313476562e+01 -2.781294472515583038e-02 -2.646779716014862061e-01 -8.774726837873458862e-02 1.198910176753997803e-01
2.320000000000000000e+03 9.058641433715820312e+00 -3.370556259155273438e+01 -9.443510323762893677e-02 8.695919811725616455e-02 -2.242772607132792473e-03 1.103722229599952698e-01
2.321000000000000000e+03 5.300424098968505859e+00 -2.462599563598632812e+01 4.658111184835433960e-02 -2.459823787212371826e-01 -5.982038006186485291e-02 1.746387481689453125e-01
2.322000000000000000e+03 4.716275691986083984e+00 -2.577926063537597656e+01 1.350748352706432343e-02 -3.183292150497436523e-01 -9.144651889801025391e-02 1.718550175428390503e-01
2.323000000000000000e+03 6.543788146972656250e+01 4.161025047302246094e+00 3.343480527400970459e-01 6.630933284759521484e-01 2.992324233055114746e-01 1.165711041539907455e-02
2.324000000000000000e+03 7.272637176513671875e+01 3.299544906616210938e+01 -7.853280752897262573e-02 -2.009581625461578369e-01 -8.384729176759719849e-02 1.610378175973892212e-01
2.325000000000000000e+03 1.531792545318603516e+01 -7.326843261718750000e+00 -6.189993768930435181e-02 4.026323258876800537e-01 1.022197157144546509e-01 -4.426180571317672729e-02
2.326000000000000000e+03 6.942514896392822266e+00 2.698644447326660156e+01 -6.971113034524023533e-04 -1.219138852320611477e-03 -5.748750409111380577e-04 2.166427904739975929e-03
2.327000000000000000e+03 5.655632019042968750e+01 -9.922816276550292969e+00 -4.881815016269683838e-01 1.688046157360076904e-01 -9.581306576728820801e-02 -2.930238544940948486e-01
2.328000000000000000e+03 5.076857089996337891e+00 8.242873191833496094e+00 1.217919561895541847e-04 -1.327986228716326877e-05 3.255362753407098353e-05 -6.106014916440472007e-05
2.329000000000000000e+03 6.062804222106933594e+00 1.040755462646484375e+01 4.157914008828811347e-05 -6.170565029606223106e-05 -6.037952516635414213e-06 -1.474575128668220714e-05
2.330000000000000000e+03 6.639867401123046875e+01 7.467631816864013672e+00 2.763062119483947754e-01 7.450494766235351562e-01 3.064067065715789795e-01 1.366995088756084442e-02
2.331000000000000000e+03 4.014995574951171875e+01 -2.238024139404296875e+01 -3.087033051997423172e-03 7.325534825213253498e-04 -7.063438533805310726e-04 1.193118587252683938e-04
2.332000000000000000e+03 6.224500656127929688e+01 2.258397674560546875e+01 2.927369177341461182e-01 1.026684045791625977e+00 3.958262801170349121e-01 -1.707211881875991821e-01
2.333000000000000000e+03 2.047421836853027344e+01 -3.587552785873413086e+00 -4.585472345352172852e-01 9.907820075750350952e-02 -1.078407093882560730e-01 3.889888226985931396e-01
2.334000000000000000e+03 2.219057655334472656e+01 -4.740211486816406250e+00 -5.407775044441223145e-01 -9.489808976650238037e-02 -1.907026767730712891e-01 5.643786191940307617e-01
2.335000000000000000e+03 2.223908424377441406e+01 -3.682210922241210938e+00 -3.372299969196319580e-01 -1.518190950155258179e-01 -1.467147171497344971e-01 4.621887207031250000e-01
2.336000000000000000e+03 2.253125000000000000e+01 -4.787220478057861328e+00 -5.380476713180541992e-01 -1.925326287746429443e-01 -2.191740870475769043e-01 5.874809622764587402e-01
2.337000000000000000e+03 2.926098251342773438e+01 -5.435229301452636719e+00 -2.705044150352478027e-01 3.566809892654418945e-01 2.585297264158725739e-02 3.815861940383911133e-01
2.338000000000000000e+03 2.278007507324218750e+01 -3.353001594543457031e+00 -2.109220772981643677e-01 -2.349482923746109009e-01 -1.337611079216003418e-01 3.807245790958404541e-01
2.339000000000000000e+03 2.207351112365722656e+01 -2.897415399551391602e+00 -2.698562741279602051e-01 -1.082733199000358582e-01 -1.134388819336891174e-01 3.603707551956176758e-01
2.340000000000000000e+03 2.754779434204101562e+01 -5.480068206787109375e+00 -6.087205410003662109e-01 4.978733956813812256e-01 -3.325414657592773438e-02 1.182921323925256729e-02
2.341000000000000000e+03 2.279370689392089844e+01 -4.918653011322021484e+00 -5.613712072372436523e-01 -2.758481502532958984e-01 -2.511658072471618652e-01 6.502187252044677734e-01
2.342000000000000000e+03 2.829210281372070312e+01 -4.482944965362548828e+00 -2.801224291324615479e-01 2.766893208026885986e-01 -1.029932638630270958e-03 1.139024943113327026e-01
2.343000000000000000e+03 2.900542068481445312e+01 -4.783869743347167969e+00 -2.593640983104705811e-01 3.061833679676055908e-01 1.404578238725662231e-02 2.539270520210266113e-01
2.344000000000000000e+03 2.890743255615234375e+01 -4.437874794006347656e+00 -2.167586237192153931e-01 2.495828568935394287e-01 9.847272187471389771e-03 1.950325965881347656e-01
2.345000000000000000e+03 2.248652648925781250e+01 -3.246036291122436523e+00 -2.457798570394515991e-01 -1.863080114126205444e-01 -1.296263635158538818e-01 3.951219916343688965e-01
2.346000000000000000e+03 2.168587684631347656e+01 -5.251862049102783203e+00 -6.425637602806091309e-01 7.359001785516738892e-02 -1.706921160221099854e-01 4.870977103710174561e-01
2.347000000000000000e+03 3.658394622802734375e+01 -5.269445419311523438e+00 2.555409073829650879e-01 -2.805880606174468994e-01 -7.514145690947771072e-03 2.062619775533676147e-01
2.348000000000000000e+03 1.101688385009765625e+01 5.520984649658203125e+00 -5.552354923565872014e-05 -3.036544330825563520e-05 -2.576669794507324696e-05 3.701304012793116271e-05
2.349000000000000000e+03 1.922680091857910156e+01 -3.824445724487304688e+00 -4.841013252735137939e-01 1.918966472148895264e-01 -8.766140043735504150e-02 3.051263689994812012e-01
2.350000000000000000e+03 1.987965774536132812e+01 -3.680847644805908203e+00 -4.772486984729766846e-01 1.442751139402389526e-01 -9.989207237958908081e-02 3.488298356533050537e-01
2.351000000000000000e+03 2.111276626586914062e+01 -5.127015113830566406e+00 -5.947929620742797852e-01 1.490351706743240356e-01 -1.337273418903350830e-01 4.282009899616241455e-01
2.352000000000000000e+03 2.170750808715820312e+01 -5.781807422637939453e+00 -7.438599467277526855e-01 1.378707289695739746e-01 -1.817967593669891357e-01 4.069500863552093506e-01
2.353000000000000000e+03 2.957784080505371094e+01 -5.716376781463623047e+00 -1.950554698705673218e-01 3.096101880073547363e-01 3.436641395092010498e-02 4.784367382526397705e-01
2.354000000000000000e+03 1.262628746032714844e+01 6.275000095367431641e+00 6.902952736709266901e-05 2.143426718248520046e-05 2.713913818297442049e-05 2.360088001296389848e-05
2.355000000000000000e+03 9.445554733276367188e+00 5.175467014312744141e+00 -8.130449714371934533e-06 -1.726014670566655695e-05 -7.617179107910487801e-06 -8.764814992900937796e-06
2.356000000000000000e+03 1.867540168762207031e+01 -4.615537643432617188e+00 -4.542617201805114746e-01 2.643228769302368164e-01 -5.698164924979209900e-02 2.486349493265151978e-01
2.357000000000000000e+03 7.979860305786132812e+00 -5.495393753051757812e+00 -1.483941823244094849e-01 8.339663036167621613e-03 -4.201635718345642090e-02 -3.243460655212402344e-01
2.358000000000000000e+03 9.791451454162597656e+00 -7.032077789306640625e+00 -7.661741226911544800e-02 1.158462762832641602e-01 1.176865771412849426e-02 -3.167151808738708496e-01
2.359000000000000000e+03 4.669414901733398438e+01 -1.066021823883056641e+01 -3.476440012454986572e-01 3.207745850086212158e-01 -8.060825988650321960e-03 4.179861545562744141e-01
2.360000000000000000e+03 2.103999519348144531e+01 -6.638516426086425781e+00 -5.475787520408630371e-01 2.650710940361022949e-01 -8.475230634212493896e-02 1.903180181980133057e-01
2.361000000000000000e+03 1.955211067199707031e+01 -5.445296287536621094e+00 -4.539406001567840576e-01 2.933769226074218750e-01 -4.816909879446029663e-02 2.714201807975769043e-01
2.362000000000000000e+03 1.408959579467773438e+01 -5.402325153350830078e+00 -2.722115218639373779e-01 2.415351271629333496e-01 -9.202917106449604034e-03 -9.367883205413818359e-02
2.363000000000000000e+03 1.337994861602783203e+01 -5.491484642028808594e+00 -2.543523907661437988e-01 2.229611277580261230e-01 -9.417378343641757965e-03 -1.435318589210510254e-01
2.364000000000000000e+03 7.051780700683593750e+01 -1.036769962310791016e+01 -4.186031520366668701e-01 5.778999626636505127e-02 -1.082439497113227844e-01 -2.656556665897369385e-01
2.365000000000000000e+03 6.997949981689453125e+01 -8.580264091491699219e+00 -3.258987069129943848e-01 -4.795609507709741592e-03 -9.920829534530639648e-02 -4.260322153568267822e-01
2.366000000000000000e+03 3.721698760986328125e+01 -5.449730873107910156e+00 2.594851851463317871e-01 -3.031075000762939453e-01 -1.308669429272413254e-02 1.924641728401184082e-01
2.367000000000000000e+03 3.688440322875976562e+01 -4.598934650421142578e+00 3.475907146930694580e-01 -2.732738554477691650e-01 2.229505777359008789e-02 1.318030804395675659e-01
2.368000000000000000e+03 5.612143039703369141e+00 -5.796175479888916016e+00 -8.859298378229141235e-02 -1.027907282114028931e-01 -5.741511285305023193e-02 -3.035224676132202148e-01
2.369000000000000000e+03 1.006677150726318359e+01 -8.607345581054687500e+00 4.617621749639511108e-02 1.767984479665756226e-01 6.689240038394927979e-02 -3.095996379852294922e-01
2.370000000000000000e+03 2.950079345703125000e+01 -4.666655063629150391e+00 -1.740460693836212158e-01 2.398959100246429443e-01 1.975494995713233948e-02 2.992568314075469971e-01
2.371000000000000000e+03 1.627826499938964844e+01 -6.486751079559326172e+00 -1.785136461257934570e-01 3.915639817714691162e-01 6.391510367393493652e-02 3.094033524394035339e-02
2.372000000000000000e+03 6.272866249084472656e+00 5.766240119934082031e+00 9.701478848000988364e-05 1.887630219243874308e-06 2.967072578030638397e-05 -4.813388659385964274e-05
2.373000000000000000e+03 6.237761020660400391e+00 6.527420043945312500e+00 -5.527602115762419999e-05 -3.700966408359818161e-05 -2.768570448097307235e-05 4.135048220632597804e-05
2.374000000000000000e+03 3.970032501220703125e+01 -7.447514533996582031e+00 1.048222258687019348e-01 -3.013854920864105225e-01 -5.896897986531257629e-02 2.735631763935089111e-01
2.375000000000000000e+03 4.408794784545898438e+01 -8.342615127563476562e+00 2.229606509208679199e-01 5.965264514088630676e-02 8.478398621082305908e-02 2.598610520362854004e-01
2.376000000000000000e+03 7.199469757080078125e+01 -1.040128707885742188e+01 -2.659657299518585205e-01 6.025011651217937469e-03 -7.798220962285995483e-02 -2.366210669279098511e-01
2.377000000000000000e+03 7.175545501708984375e+01 -9.486437797546386719e+00 -2.905068695545196533e-01 3.914214670658111572e-03 -8.597779273986816406e-02 -2.873100936412811279e-01
2.378000000000000000e+03 6.567651748657226562e+00 -5.601097583770751953e+00 -1.119614541530609131e-01 -5.883729457855224609e-02 -5.123962461948394775e-02 -3.175094425678253174e-01
2.379000000000000000e+03 6.638233184814453125e+00 1.125597000122070312e+01 4.053051816299557686e-05 -1.825204672059044242e-04 -4.259698107489384711e-05 -3.757860031328164041e-05
2.380000000000000000e+03 7.128250598907470703e+00 5.811357021331787109e+00 -3.489162190817296505e-05 -4.349287337390705943e-05 -2.351534749323036522e-05 1.980889283004216850e-05
2.381000000000000000e+03 7.450933837890625000e+01 -2.254756736755371094e+01 4.958581484970636666e-06 7.368194474111078307e-06 3.698032742249779403e-06 -1.959201654244679958e-05
2.382000000000000000e+03 7.375762939453125000e+01 -2.311311149597167969e+01 4.782746691489592195e-05 -2.517012217140290886e-05 6.797203695896314457e-06 -1.988614531001076102e-05
2.383000000000000000e+03 5.895820140838623047e+00 8.802170753479003906e+00 1.009034895105287433e-05 -5.870596169188502245e-07 2.850986902558361180e-06 3.089598067163024098e-06
2.384000000000000000e+03 1.509007263183593750e+01 -8.753838539123535156e+00 1.506977826356887817e-01 4.856706559658050537e-01 1.909105330705642700e-01 -2.343128621578216553e-02
2.385000000000000000e+03 6.330868911743164062e+01 -7.516057014465332031e+00 -1.953402757644653320e-01 -2.168717831373214722e-01 -1.236636191606521606e-01 -3.557175099849700928e-01
2.386000000000000000e+03 5.395302295684814453e+00 -9.532414436340332031e+00 3.711139410734176636e-02 -1.884675472974777222e-01 -4.540684446692466736e-02 -3.169842660427093506e-01
2.387000000000000000e+03 6.873777389526367188e+00 -7.030445098876953125e+00 -5.032015964388847351e-02 -5.726484209299087524e-02 -3.227550163865089417e-02 -3.453913033008575439e-01
2.388000000000000000e+03 7.094775390625000000e+01 -6.634954929351806641e+00 -1.689179837703704834e-01 -8.265269547700881958e-02 -7.547120749950408936e-02 -4.263845086097717285e-01
2.389000000000000000e+03 1.014315414428710938e+01 -1.225183963775634766e+01 2.588135600090026855e-01 3.077604472637176514e-01 1.699721962213516235e-01 -2.114049345254898071e-01
2.390000000000000000e+03 1.663671493530273438e+01 -8.571802139282226562e+00 1.717519909143447876e-01 4.913567602634429932e-01 1.989326328039169312e-01 5.107156559824943542e-02
2.391000000000000000e+03 1.584505271911621094e+01 -6.917383193969726562e+00 -1.272737234830856323e-01 3.970178067684173584e-01 8.092322945594787598e-02 -5.619505885988473892e-03
2.392000000000000000e+03 6.505806732177734375e+01 -6.250573635101318359e+00 -5.435548350214958191e-02 -1.357087194919586182e-01 -5.701925978064537048e-02 -4.319794178009033203e-01
2.393000000000000000e+03 7.321213722229003906e+00 -5.664085388183593750e+00 -1.254655420780181885e-01 -2.932510524988174438e-02 -4.643719643354415894e-02 -3.277504742145538330e-01
2.394000000000000000e+03 8.360508918762207031e+00 6.571125030517578125e+00 7.967571946210227907e-06 -5.795461402158252895e-05 -1.499611244071274996e-05 1.462006821384420618e-05
2.395000000000000000e+03 7.709146499633789062e+00 6.925438404083251953e+00 2.695261173357721418e-05 -1.121565674111479893e-05 4.721086497738724574e-06 1.060266913555096835e-05
2.396000000000000000e+03 1.782350349426269531e+01 -8.558183670043945312e+00 2.194335013628005981e-01 4.777809083461761475e-01 2.091643214225769043e-01 1.129136458039283752e-01
2.397000000000000000e+03 1.865148925781250000e+01 -9.033049583435058594e+00 3.980773091316223145e-01 3.601687848567962646e-01 2.274738252162933350e-01 1.250320374965667725e-01
2.398000000000000000e+03 6.703562164306640625e+01 6.522171497344970703e+00 2.695063352584838867e-01 5.451060533523559570e-01 2.443837076425552368e-01 -6.003585830330848694e-02
2.399000000000000000e+03 1.488843822479248047e+01 -6.698022365570068359e+00 -1.358550786972045898e-01 3.670355975627899170e-01 6.935415416955947876e-02 -6.441016495227813721e-02
2.400000000000000000e+03 1.176620101928710938e+01 7.933760643005371094e+00 7.777160499244928360e-05 -2.377380224061198533e-05 1.619934118934907019e-05 -5.850505476701073349e-05
2.401000000000000000e+03 6.326386642456054688e+01 8.296980857849121094e-01 3.964829146862030029e-01 5.533945560455322266e-01 2.849632501602172852e-01 1.167334988713264465e-01
2.402000000000000000e+03 1.340956401824951172e+01 6.758467197418212891e+00 -1.278707259189104661e-05 8.598178283136803657e-06 -1.256668156202067621e-06 5.305075774231227115e-06
2.403000000000000000e+03 1.126405239105224609e+01 7.157469272613525391e+00 -7.162017573136836290e-05 -1.795238944168886519e-07 -2.153991044906433672e-05 6.583548383787274361e-05
2.404000000000000000e+03 5.468646621704101562e+01 -8.491346359252929688e+00 1.870690137147903442e-01 4.048005342483520508e-01 1.775608658790588379e-01 -6.359924376010894775e-02
2.405000000000000000e+03 3.853238296508789062e+01 -5.375236988067626953e+00 3.911486566066741943e-01 -2.909981906414031982e-01 3.004513680934906006e-02 1.482373028993606567e-01
2.406000000000000000e+03 1.108518314361572266e+01 9.456056594848632812e+00 -6.828007462900131941e-05 -3.640287468442693353e-05 -3.140488479402847588e-05 7.061345968395471573e-05
2.407000000000000000e+03 4.563965606689453125e+01 -9.397086143493652344e+00 8.397500962018966675e-03 2.086788713932037354e-01 6.512290984392166138e-02 3.796548843383789062e-01
2.408000000000000000e+03 4.564491271972656250e+01 -1.062058353424072266e+01 -3.854852914810180664e-01 2.393124699592590332e-01 -4.385184869170188904e-02 4.012909829616546631e-01
2.409000000000000000e+03 7.362461090087890625e+01 -8.283918380737304688e+00 -1.629455387592315674e-01 -8.695602416992187500e-02 -7.497046887874603271e-02 -2.960467934608459473e-01
2.410000000000000000e+03 1.302138805389404297e+01 -9.629734992980957031e+00 1.926691085100173950e-01 4.622139334678649902e-01 1.964649111032485962e-01 -1.476131379604339600e-01
2.411000000000000000e+03 1.549570178985595703e+01 -9.419328689575195312e+00 2.585186958312988281e-01 5.403233170509338379e-01 2.396526038646697998e-01 1.904804259538650513e-02
2.412000000000000000e+03 4.195402526855468750e+01 -2.031166076660156250e+01 -7.353589753620326519e-04 -3.673749160952866077e-04 -3.308201848994940519e-04 2.969304623547941446e-04
2.413000000000000000e+03 1.205906295776367188e+01 -7.161451816558837891e+00 -7.625861465930938721e-02 2.530025243759155273e-01 5.302317813038825989e-02 -2.338309735059738159e-01
2.414000000000000000e+03 1.300925922393798828e+01 -7.216226100921630859e+00 -7.760212570428848267e-02 3.024957478046417236e-01 6.746809184551239014e-02 -1.780399829149246216e-01
2.415000000000000000e+03 1.820091438293457031e+01 -7.849320888519287109e+00 3.850432485342025757e-02 4.113949537277221680e-01 1.349697858095169067e-01 1.005709394812583923e-01
2.416000000000000000e+03 1.417741775512695312e+01 5.981812477111816406e+00 6.061096883058780804e-06 1.434822752344189212e-05 6.122797458374407142e-06 2.745134042925201356e-05
2.417000000000000000e+03 1.002271652221679688e+01 1.142421627044677734e+01 1.686263422016054392e-04 -2.737727845669724047e-05 4.237471875967457891e-05 9.129679528996348381e-05
2.418000000000000000e+03 7.349895477294921875e+01 -2.480561637878417969e+01 2.783541822282131761e-05 -7.693821316934190691e-06 6.042479071766138077e-06 -2.531000427552498877e-05
2.419000000000000000e+03 7.318013000488281250e+01 -2.268012046813964844e+01 5.212230826145969331e-05 -5.311057520884787664e-06 1.404337490384932607e-05 -1.928673191287089139e-05
2.420000000000000000e+03 6.788882255554199219e+00 -1.247179222106933594e+01 1.442230194807052612e-01 -9.406831115484237671e-02 1.504641398787498474e-02 -2.653309106826782227e-01
2.421000000000000000e+03 6.526192188262939453e+00 -9.298516273498535156e+00 4.361638426780700684e-02 -1.001549065113067627e-01 -1.696155592799186707e-02 -3.330945074558258057e-01
2.422000000000000000e+03 7.320099639892578125e+01 5.470510721206665039e-01 7.785374671220779419e-02 -3.165262639522552490e-01 -7.160175591707229614e-02 -3.480356633663177490e-01
2.423000000000000000e+03 7.324461364746093750e+01 -7.869357466697692871e-01 4.651244357228279114e-02 -2.998273372650146484e-01 -7.599446922540664673e-02 -3.725996613502502441e-01
2.424000000000000000e+03 7.418669891357421875e+01 -2.455195999145507812e+01 6.099806705606169999e-05 -1.128219264501240104e-05 1.491476177761796862e-05 -4.269120472599752247e-05
2.425000000000000000e+03 8.377771377563476562e+00 -1.399261951446533203e+01 2.567678689956665039e-01 1.263572424650192261e-01 1.149375289678573608e-01 -1.843246966600418091e-01
2.426000000000000000e+03 7.609658718109130859e+00 -1.436491298675537109e+01 2.227885425090789795e-01 2.792216651141643524e-02 7.521321624517440796e-02 -1.846362799406051636e-01
2.427000000000000000e+03 7.443218994140625000e+01 3.416129827499389648e+00 8.009307086467742920e-02 -4.852150678634643555e-01 -1.215365976095199585e-01 -2.678053677082061768e-01
2.428000000000000000e+03 7.448593139648437500e+01 2.035533905029296875e+00 6.656789034605026245e-02 -4.632241427898406982e-01 -1.189968734979629517e-01 -2.968448102474212646e-01
2.429000000000000000e+03 8.271152496337890625e+00 -1.744810867309570312e+01 2.745684385299682617e-01 1.612292975187301636e-01 1.307393163442611694e-01 -3.392669185996055603e-02
2.430000000000000000e+03 7.233900451660156250e+01 -2.448414421081542969e+01 3.293430927442386746e-05 -1.837429590523242950e-05 4.368004283605841920e-06 -2.118820702889934182e-05
2.431000000000000000e+03 7.312635803222656250e+01 -3.261823654174804688e+00 -1.400705520063638687e-02 -2.400590032339096069e-01 -7.621981948614120483e-02 -3.948313295841217041e-01
2.432000000000000000e+03 6.174147033691406250e+01 -2.302717924118041992e+00 4.854424595832824707e-01 2.962531745433807373e-01 2.345086932182312012e-01 1.152521446347236633e-01
2.433000000000000000e+03 6.815469360351562500e+01 1.521957206726074219e+01 2.641896307468414307e-01 5.449087619781494141e-01 2.427295148372650146e-01 2.029942115768790245e-03
2.434000000000000000e+03 4.371216201782226562e+01 -3.138773155212402344e+01 -3.339283401146531105e-03 2.048391615971922874e-03 -3.872675297316163778e-04 4.472120199352502823e-03
2.435000000000000000e+03 1.230269145965576172e+01 -1.138721370697021484e+01 3.190321326255798340e-01 5.346252322196960449e-01 2.560971975326538086e-01 -1.160929203033447266e-01
2.436000000000000000e+03 5.708423137664794922e+00 1.618624496459960938e+01 -1.700519496807828546e-04 -1.678356493357568979e-04 -1.013662767945788801e-04 -1.812498339859303087e-05
2.437000000000000000e+03 1.050079345703125000e+01 -1.856765937805175781e+01 3.436495065689086914e-01 5.884071588516235352e-01 2.796170115470886230e-01 3.075588960200548172e-03
2.438000000000000000e+03 7.136343955993652344e+00 -1.973593902587890625e+01 1.978609263896942139e-01 -2.432175446301698685e-03 5.862862616777420044e-02 5.632684007287025452e-02
2.439000000000000000e+03 5.890120315551757812e+01 -8.880724906921386719e+00 -3.695773184299468994e-01 3.404944762587547302e-02 -1.006583571434020996e-01 -2.717916369438171387e-01
2.440000000000000000e+03 4.251863002777099609e+00 1.815444564819335938e+01 7.751175871817395091e-05 -1.016116802929900587e-04 -7.229976745293242857e-06 -4.956516568199731410e-05
2.441000000000000000e+03 5.163211345672607422e+00 1.949780654907226562e+01 -5.205723937251605093e-05 -2.659156161826103926e-04 -9.539185703033581376e-05 7.214827928692102432e-05
2.442000000000000000e+03 7.474192619323730469e+00 2.351520347595214844e+01 -1.580111100338399410e-03 -3.468663489911705256e-04 -5.780932260677218437e-04 1.137866871431469917e-03
2.443000000000000000e+03 4.594745635986328125e+00 -1.896831703186035156e+01 1.041983813047409058e-01 -3.996700346469879150e-01 -8.864150196313858032e-02 1.451060548424720764e-02
2.444000000000000000e+03 3.296166610717773438e+01 2.335876464843750000e+01 -1.303969882428646088e-02 2.222046954557299614e-03 -3.245295723900198936e-03 3.230178961530327797e-03
2.445000000000000000e+03 7.472511768341064453e+00 -2.464305305480957031e+01 5.377568304538726807e-02 2.975245192646980286e-02 2.505844086408615112e-02 1.773101240396499634e-01
2.446000000000000000e+03 7.368354034423828125e+01 1.639159584045410156e+01 1.069997921586036682e-01 -4.540412127971649170e-01 -1.041124314069747925e-01 8.636829257011413574e-02
2.447000000000000000e+03 7.308437347412109375e+01 1.549684047698974609e+01 1.457555145025253296e-01 -3.483130931854248047e-01 -6.076727807521820068e-02 4.969191178679466248e-02
2.448000000000000000e+03 9.067921638488769531e+00 1.484586811065673828e+01 -1.327703212155029178e-04 -1.962871028808876872e-04 -9.871722431853413582e-05 -2.506609916963498108e-06
2.449000000000000000e+03 1.006624031066894531e+01 2.241479873657226562e+01 -2.076987177133560181e-03 6.714041956001892686e-05 -6.029540672898292542e-04 6.709441659040749073e-04
2.450000000000000000e+03 7.512529373168945312e+00 1.707496833801269531e+01 -4.815079955733381212e-05 -2.227459772257134318e-04 -8.126903412630781531e-05 -5.326360769686289132e-05
2.451000000000000000e+03 6.578093528747558594e+00 -2.071108245849609375e+01 1.475353986024856567e-01 -8.676249533891677856e-02 1.823187246918678284e-02 8.712562918663024902e-02
2.452000000000000000e+03 5.939546585083007812e+00 -1.918864631652832031e+01 1.496941894292831421e-01 -1.961070299148559570e-01 -1.392385177314281464e-02 2.452679723501205444e-02
2.453000000000000000e+03 6.850471496582031250e+01 1.815257644653320312e+01 2.587718665599822998e-01 4.049122035503387451e-01 1.991052180528640747e-01 9.172469377517700195e-02
2.454000000000000000e+03 6.684431457519531250e+01 1.567131519317626953e+01 3.068529665470123291e-01 8.001807928085327148e-01 3.321101367473602295e-01 -1.910406351089477539e-02
2.455000000000000000e+03 7.261471557617187500e+01 -2.683186721801757812e+01 2.463941382302436978e-05 -3.624961027526296675e-05 -3.483058662823168561e-06 -1.845256520027760416e-05
2.456000000000000000e+03 6.592983245849609375e+01 5.826887130737304688e+00 3.002188205718994141e-01 7.240015268325805664e-01 3.072660863399505615e-01 1.020905841141939163e-02
2.457000000000000000e+03 3.828009414672851562e+01 -2.531907463073730469e+01 -7.918645627796649933e-03 3.067848039790987968e-03 -1.455239253118634224e-03 -3.057510184589773417e-05
2.458000000000000000e+03 7.306895446777343750e+01 1.751951980590820312e+01 1.212879866361618042e-01 -3.517429828643798828e-01 -6.913650035858154297e-02 1.128946617245674133e-01
2.459000000000000000e+03 3.883149337768554688e+01 2.260656547546386719e+01 -6.089982111006975174e-03 1.411254890263080597e-02 2.406770130619406700e-03 1.993644284084439278e-03
2.460000000000000000e+03 3.982873916625976562e+01 2.133705902099609375e+01 -7.893891073763370514e-03 1.447143685072660446e-02 1.973263919353485107e-03 1.772813382558524609e-03
2.461000000000000000e+03 5.092785644531250000e+01 2.474208831787109375e+01 9.730832278728485107e-02 2.338875643908977509e-02 3.620912507176399231e-02 -8.307542651891708374e-02
2.462000000000000000e+03 7.327536773681640625e+01 1.901656985282897949e+00 8.285853266716003418e-02 -3.410936594009399414e-01 -7.747054100036621094e-02 -3.193702399730682373e-01
2.463000000000000000e+03 4.080924606323242188e+01 -2.942147636413574219e+01 -6.661529187113046646e-03 5.264679901301860809e-03 -4.190548206679522991e-04 4.028801806271076202e-03
2.464000000000000000e+03 3.250399351119995117e+00 1.663295745849609375e+01 1.360243331873789430e-04 3.242083403165452182e-05 5.053355198469944298e-05 -6.764313002349808812e-05
2.465000000000000000e+03 7.854989051818847656e+00 1.417264270782470703e+01 1.073478269972838461e-04 -2.369564317632466555e-04 -3.888257924700155854e-05 3.808108158409595490e-05
2.466000000000000000e+03 3.768320465087890625e+01 1.915860748291015625e+01 -1.450535748153924942e-02 1.024186145514249802e-02 -1.279048970900475979e-03 5.047979298979043961e-03
2.467000000000000000e+03 5.861361312866210938e+01 2.930034446716308594e+01 -7.297195494174957275e-02 4.462115168571472168e-01 1.119718626141548157e-01 -1.991916745901107788e-01
2.468000000000000000e+03 3.941062545776367188e+01 -2.644315719604492188e+01 -8.452446199953556061e-03 4.367033950984477997e-03 -1.225623534992337227e-03 8.279474568553268909e-04
2.469000000000000000e+03 8.735501289367675781e+00 1.607841491699218750e+01 6.696827040286734700e-05 -2.221028553321957588e-04 -4.654037547879852355e-05 -1.828925064728537109e-07
2.470000000000000000e+03 6.701381683349609375e+01 1.962005424499511719e+01 2.806273698806762695e-01 6.271526217460632324e-01 2.723340094089508057e-01 1.058625206351280212e-01
2.471000000000000000e+03 6.709735107421875000e+01 2.111616516113281250e+01 2.165602594614028931e-01 5.527632236480712891e-01 2.307970374822616577e-01 1.400046944618225098e-01
2.472000000000000000e+03 8.366117477416992188e+00 2.276023101806640625e+01 -1.514347502961754799e-03 -1.883484219433739781e-04 -5.108087789267301559e-04 8.434600313194096088e-04
2.473000000000000000e+03 8.020017623901367188e+00 2.116788482666015625e+01 -1.110081560909748077e-03 -1.723222230793908238e-04 -3.847211482934653759e-04 3.207157715223729610e-04
2.474000000000000000e+03 7.123697662353515625e+01 -3.276516342163085938e+01 -1.904895179904997349e-05 -1.009265033644624054e-04 -3.599263800424523652e-05 -8.288816025014966726e-05
2.475000000000000000e+03 7.396483612060546875e+01 -3.012935066223144531e+01 4.641775376512669027e-06 2.575030521256849170e-06 2.165041678381385282e-06 -6.597802712349221110e-05
2.476000000000000000e+03 7.553817749023437500e+01 -3.065729331970214844e+01 1.144073212344665080e-05 3.925598502974025905e-05 1.520901514595607296e-05 -5.696947846445254982e-05
2.477000000000000000e+03 3.581794357299804688e+01 -2.833348846435546875e+01 -1.353123039007186890e-02 5.511967465281486511e-03 -2.405778970569372177e-03 -4.968944704160094261e-04
2.478000000000000000e+03 1.271822834014892578e+01 -2.647226715087890625e+01 2.138462662696838379e-02 5.984132289886474609e-01 1.859393566846847534e-01 7.442226167768239975e-03
2.479000000000000000e+03 6.892926788330078125e+01 9.506319999694824219e+00 2.291254997253417969e-01 3.638583421707153320e-01 1.778951585292816162e-01 -7.654452323913574219e-02
2.480000000000000000e+03 6.753076171875000000e+01 1.210958671569824219e+01 2.449078708887100220e-01 6.954436898231506348e-01 2.821054756641387939e-01 -1.336960028856992722e-02
2.481000000000000000e+03 6.625229644775390625e+01 1.474320411682128906e+01 2.494934797286987305e-01 1.012587189674377441e+00 3.786242008209228516e-01 -5.542553588747978210e-02
2.482000000000000000e+03 6.701020812988281250e+01 1.819404792785644531e+01 3.289603888988494873e-01 6.593180894851684570e-01 2.964835464954376221e-01 4.191125184297561646e-02
2.483000000000000000e+03 1.806058764457702637e+00 3.560580444335937500e+01 -7.823151099728420377e-05 -4.352565854787826538e-03 -1.329239108599722385e-03 6.063259206712245941e-04
2.484000000000000000e+03 1.669674754142761230e+00 3.456377410888671875e+01 2.027215523412451148e-04 -4.017817322164773941e-03 -1.144528738223016262e-03 7.108559948392212391e-04
2.485000000000000000e+03 7.125226593017578125e+01 7.232532024383544922e+00 1.599921882152557373e-01 -9.918054193258285522e-02 1.824349723756313324e-02 -1.766415089368820190e-01
2.486000000000000000e+03 7.286647796630859375e+01 6.210453987121582031e+00 1.302085220813751221e-01 -3.090744912624359131e-01 -5.365978553891181946e-02 -2.135882973670959473e-01
2.487000000000000000e+03 2.053300285339355469e+01 -2.968611717224121094e+00 -4.220910668373107910e-01 5.722907185554504395e-02 -1.094585955142974854e-01 3.559954464435577393e-01
2.488000000000000000e+03 2.255008125305175781e+01 -3.522825717926025391e+00 -2.640429139137268066e-01 -2.203516215085983276e-01 -1.453183591365814209e-01 4.346846342086791992e-01
2.489000000000000000e+03 2.227996253967285156e+01 -5.462299823760986328e+00 -7.594941854476928711e-01 -2.458225004374980927e-02 -2.352229356765747070e-01 5.476090908050537109e-01
2.490000000000000000e+03 2.049750328063964844e+01 -4.137321472167968750e+00 -4.945757091045379639e-01 1.307968646287918091e-01 -1.091336533427238464e-01 3.989844024181365967e-01
2.491000000000000000e+03 2.039159393310546875e+01 -6.359507083892822266e+00 -4.700823724269866943e-01 3.058060705661773682e-01 -4.928288608789443970e-02 2.176798880100250244e-01
2.492000000000000000e+03 1.964817047119140625e+01 -6.545064449310302734e+00 -3.318347334861755371e-01 3.568807542324066162e-01 7.513800635933876038e-03 1.726557612419128418e-01
2.493000000000000000e+03 1.723058700561523438e+01 -6.281509399414062500e+00 -2.432296723127365112e-01 3.865849375724792480e-01 4.300657659769058228e-02 9.467902779579162598e-02
2.494000000000000000e+03 2.867014122009277344e+01 -5.385286808013916016e+00 -3.839157521724700928e-01 4.364949762821197510e-01 1.577376201748847961e-02 2.803305387496948242e-01
2.495000000000000000e+03 8.327004432678222656e+00 -6.060968399047851562e+00 -1.231913864612579346e-01 2.633420750498771667e-02 -2.905715256929397583e-02 -3.315778374671936035e-01
2.496000000000000000e+03 1.185909843444824219e+01 6.196835994720458984e+00 -4.210108090774156153e-05 -3.936986468033865094e-05 -2.444128222123254091e-05 6.398000550689175725e-05
2.497000000000000000e+03 1.931926155090332031e+01 -4.425641059875488281e+00 -4.814924895763397217e-01 2.324811816215515137e-01 -7.470338791608810425e-02 3.019370734691619873e-01
2.498000000000000000e+03 2.158887481689453125e+01 -3.035228490829467773e+00 -3.327137529850006104e-01 -5.774558335542678833e-02 -1.171378046274185181e-01 3.863613009452819824e-01
2.499000000000000000e+03 2.080845260620117188e+01 -6.327677726745605469e+00 -5.196678042411804199e-01 2.888841331005096436e-01 -6.923510134220123291e-02 2.407311350107192993e-01
2.500000000000000000e+03 1.883947372436523438e+01 -5.232871055603027344e+00 -4.264851808547973633e-01 2.987450361251831055e-01 -3.832204267382621765e-02 2.332843840122222900e-01
2.501000000000000000e+03 1.203377723693847656e+01 -8.727214813232421875e+00 7.509310543537139893e-02 3.310150802135467529e-01 1.218324527144432068e-01 -2.292266190052032471e-01
2.502000000000000000e+03 1.297175216674804688e+01 -8.003700256347656250e+00 1.183148659765720367e-02 3.530967235565185547e-01 1.094784587621688843e-01 -1.835939586162567139e-01
2.503000000000000000e+03 8.131571769714355469e+00 7.629285335540771484e+00 1.099460223485948518e-05 -5.439348751679062843e-05 -1.301966494793305174e-05 2.549308010202366859e-05
2.504000000000000000e+03 7.100202560424804688e+00 7.225111961364746094e+00 -1.152891127276234329e-05 -5.122274160385131836e-05 -1.882549622678197920e-05 -8.701447768544312567e-06
2.505000000000000000e+03 1.822553634643554688e+01 -5.445832252502441406e+00 -3.913893997669219971e-01 3.291043043136596680e-01 -1.868552714586257935e-02 1.885777115821838379e-01
2.506000000000000000e+03 1.991286849975585938e+01 -7.626755237579345703e+00 -7.747633755207061768e-02 3.324916660785675049e-01 7.650459557771682739e-02 6.690768897533416748e-02
2.507000000000000000e+03 3.645168304443359375e+01 -3.812770128250122070e+00 3.515637218952178955e-01 -2.268171608448028564e-01 3.742396458983421326e-02 8.947291225194931030e-02
2.508000000000000000e+03 7.360423278808593750e+01 -9.224664688110351562e+00 -1.652032136917114258e-01 -5.994999408721923828e-02 -6.754596531391143799e-02 -2.484436035156250000e-01
2.509000000000000000e+03 1.398576545715332031e+01 -7.386767387390136719e+00 -5.796335265040397644e-02 3.632396161556243896e-01 9.158288687467575073e-02 -1.237663254141807556e-01
2.510000000000000000e+03 1.289256668090820312e+01 -6.406053066253662109e+00 -1.535920053720474243e-01 2.532322406768798828e-01 2.989206835627555847e-02 -1.803157180547714233e-01
2.511000000000000000e+03 7.315803527832031250e+01 -6.184015274047851562e+00 -1.062014028429985046e-01 -1.478114724159240723e-01 -7.620386034250259399e-02 -3.788641095161437988e-01
2.512000000000000000e+03 1.653416061401367188e+01 -5.949899196624755859e+00 -2.621645331382751465e-01 3.459039926528930664e-01 2.512183412909507751e-02 6.127845123410224915e-02
2.513000000000000000e+03 1.643461990356445312e+01 -7.460038185119628906e+00 -3.550477698445320129e-02 4.443309307098388672e-01 1.226478442549705505e-01 3.002492524683475494e-02
2.514000000000000000e+03 6.225017547607421875e+00 -8.274329185485839844e+00 -1.694447128102183342e-03 -1.104116588830947876e-01 -3.363183140754699707e-02 -3.398024141788482666e-01
2.515000000000000000e+03 7.082397460937500000e+00 6.558898448944091797e+00 1.111869642045348883e-04 -2.975800498461467214e-06 3.246334745199419558e-05 -4.936672485200688243e-05
2.516000000000000000e+03 6.271492481231689453e+00 -6.278264522552490234e+00 -7.989414781332015991e-02 -7.632897049188613892e-02 -4.686693474650382996e-02 -3.274769783020019531e-01
2.517000000000000000e+03 1.586658859252929688e+01 -5.997288227081298828e+00 -2.447410970926284790e-01 3.422999978065490723e-01 2.926766872406005859e-02 7.269576191902160645e-03
2.518000000000000000e+03 1.485070896148681641e+01 -6.068528175354003906e+00 -2.262825220823287964e-01 3.070648610591888428e-01 2.423469908535480499e-02 -6.468575447797775269e-02
2.519000000000000000e+03 6.041488647460937500e+00 1.995575904846191406e+01 -4.936776822432875633e-04 -1.916727924253791571e-04 -2.056051307590678334e-04 1.570610038470476866e-04
2.520000000000000000e+03 4.118242263793945312e+00 1.937044143676757812e+01 -4.071875300724059343e-04 -7.207258022390305996e-05 -1.437780301785096526e-04 7.274658128153532743e-05
2.521000000000000000e+03 6.936895751953125000e+01 -7.867977142333984375e+00 -2.915891110897064209e-01 -4.007186368107795715e-02 -9.949829429388046265e-02 -4.424259364604949951e-01
2.522000000000000000e+03 1.419640731811523438e+01 -6.061331272125244141e+00 -2.105061858892440796e-01 2.748565971851348877e-01 1.930511929094791412e-02 -9.406886249780654907e-02
2.523000000000000000e+03 1.485088634490966797e+01 -7.800801753997802734e+00 -4.281482193619012833e-03 4.229216277599334717e-01 1.255920380353927612e-01 -6.175107508897781372e-02
2.524000000000000000e+03 8.408674240112304688e+00 -1.244784450531005859e+01 2.123707085847854614e-01 9.002073854207992554e-02 9.071743488311767578e-02 -2.563309967517852783e-01
2.525000000000000000e+03 9.127655029296875000e+00 -1.282732963562011719e+01 2.553493976593017578e-01 2.121348679065704346e-01 1.402452886104583740e-01 -2.224717736244201660e-01
2.526000000000000000e+03 7.703715801239013672e+00 -6.548154354095458984e+00 -8.304382860660552979e-02 -3.968592267483472824e-03 -2.610372751951217651e-02 -3.436424434185028076e-01
2.527000000000000000e+03 1.454665470123291016e+01 -8.915704727172851562e+00 1.485242098569869995e-01 4.881188869476318359e-01 1.909929364919662476e-01 -5.842685326933860779e-02
2.528000000000000000e+03 1.751417922973632812e+01 -7.389304161071777344e+00 -5.085200443863868713e-02 4.469276964664459229e-01 1.188227087259292603e-01 8.557013422250747681e-02
2.529000000000000000e+03 9.255492210388183594e+00 7.918332099914550781e+00 9.037266863742843270e-05 -4.161512697464786470e-05 1.462726322642993182e-05 5.690457692253403366e-05
2.530000000000000000e+03 7.031233310699462891e+00 -1.705459594726562500e+01 2.314146906137466431e-01 -3.067890927195549011e-02 6.022073701024055481e-02 -6.470889598131179810e-02
2.531000000000000000e+03 7.350697326660156250e+01 -7.259082794189453125e+00 -1.263076812028884888e-01 -1.262120902538299561e-01 -7.575593143701553345e-02 -3.319291472434997559e-01
2.532000000000000000e+03 1.208895683288574219e+01 6.817890167236328125e+00 5.406246418715454638e-05 -4.701392697370465612e-07 1.607769809197634459e-05 -3.862740413751453161e-05
2.533000000000000000e+03 9.401781082153320312e+00 7.193586826324462891e+00 -4.161932520219124854e-05 -4.831762635149061680e-05 -2.698108619370032102e-05 -4.405544132168870419e-06
2.534000000000000000e+03 5.206595420837402344e+00 -8.433898925781250000e+00 5.044820252805948257e-03 -1.812437176704406738e-01 -5.285966768860816956e-02 -3.172350227832794189e-01
2.535000000000000000e+03 8.634613990783691406e+00 2.005281257629394531e+01 -6.788764731027185917e-04 -3.350110491737723351e-04 -3.041662566829472780e-04 2.901716507039964199e-04
2.536000000000000000e+03 8.907458305358886719e+00 1.026742935180664062e+01 1.637192617636173964e-04 -2.219361522293183953e-05 4.245769378030672669e-05 2.156771188310813159e-05
2.537000000000000000e+03 6.962482929229736328e+00 1.208846092224121094e+01 6.151744310045614839e-05 -1.492431510996539146e-05 1.397793857904616743e-05 -5.861774479853920639e-05
2.538000000000000000e+03 6.681007385253906250e+00 9.644691467285156250e+00 8.355072350241243839e-05 -3.941693285014480352e-05 1.324013737757923082e-05 -4.789073136635124683e-05
2.539000000000000000e+03 5.971609115600585938e+01 -8.168847084045410156e+00 -2.163643687963485718e-01 -1.420138124376535416e-02 -6.916972249746322632e-02 -2.224833816289901733e-01
2.540000000000000000e+03 5.835865020751953125e+01 -6.303430080413818359e+00 4.130048453807830811e-01 1.676338315010070801e-01 1.741915941238403320e-01 1.983344927430152893e-02
2.541000000000000000e+03 8.863412857055664062e+00 -1.922123527526855469e+01 2.644547224044799805e-01 2.702341079711914062e-01 1.604066491127014160e-01 4.500424489378929138e-02
2.542000000000000000e+03 8.731803894042968750e+00 1.223085975646972656e+01 1.494003518018871546e-04 -7.495302270399406552e-05 2.233419945696368814e-05 6.418907287297770381e-05
2.543000000000000000e+03 7.341275787353515625e+01 -2.601998901367187500e+01 6.312139157671481371e-05 -1.688492375251371413e-05 1.387094107485609129e-05 -5.587546183960512280e-05
2.544000000000000000e+03 7.243453979492187500e+01 1.468430709838867188e+01 1.616559624671936035e-01 -2.336962819099426270e-01 -2.161209471523761749e-02 2.735055796802043915e-02
2.545000000000000000e+03 9.035512924194335938e+00 -6.494594097137451172e+00 -1.083670035004615784e-01 6.414524465799331665e-02 -1.326652616262435913e-02 -3.265069723129272461e-01
2.546000000000000000e+03 7.764283180236816406e+00 1.198225593566894531e+01 -1.016240094031672925e-05 -1.916864130180329084e-04 -6.055464473320171237e-05 -3.403520167921669781e-05
2.547000000000000000e+03 9.006613731384277344e+00 -1.632296371459960938e+01 3.113406300544738770e-01 2.673157453536987305e-01 1.735969185829162598e-01 -7.928714156150817871e-02
2.548000000000000000e+03 7.425104522705078125e+01 1.077724933624267578e+01 9.847379475831985474e-02 -5.538243055343627930e-01 -1.366051584482192993e-01 -8.491473644971847534e-02
2.549000000000000000e+03 5.844136238098144531e+00 -1.723382949829101562e+01 1.613037735223770142e-01 -2.248934805393218994e-01 -1.907691173255443573e-02 -5.838216841220855713e-02
2.550000000000000000e+03 4.584508895874023438e+00 -1.752779197692871094e+01 1.127152889966964722e-01 -4.051900207996368408e-01 -8.774241805076599121e-02 -4.165066406130790710e-02
2.551000000000000000e+03 1.115264320373535156e+01 -1.046454429626464844e+01 2.052695751190185547e-01 3.438596427440643311e-01 1.647387742996215820e-01 -2.228836268186569214e-01
2.552000000000000000e+03 1.597495841979980469e+01 -7.939978599548339844e+00 3.411196544766426086e-02 4.705491662025451660e-01 1.513983458280563354e-01 8.012264035642147064e-03
2.553000000000000000e+03 7.278651428222656250e+01 -3.044068717956542969e+01 -4.207364690955728292e-05 -4.550960147753357887e-05 -2.627497451612725854e-05 -7.902969082351773977e-05
2.554000000000000000e+03 6.848050689697265625e+01 1.958733749389648438e+01 2.399800717830657959e-01 3.590711355209350586e-01 1.797153651714324951e-01 1.347805559635162354e-01
2.555000000000000000e+03 6.769274139404296875e+01 5.570659160614013672e+00 2.658243179321289062e-01 4.201724529266357422e-01 2.057990282773971558e-01 -1.021541059017181396e-01
2.556000000000000000e+03 6.942451477050781250e+01 5.306676387786865234e+00 2.113638967275619507e-01 1.479923129081726074e-01 1.078068614006042480e-01 -1.856965869665145874e-01
2.557000000000000000e+03 1.016950702667236328e+01 5.472218036651611328e+00 9.826152381720021367e-05 2.009322770391008817e-06 3.008125531778205186e-05 1.072711711458396167e-05
2.558000000000000000e+03 8.120996475219726562e+00 -1.319234466552734375e+01 2.177518755197525024e-01 7.721783220767974854e-02 8.849091082811355591e-02 -2.362948358058929443e-01
2.559000000000000000e+03 8.121588706970214844e+00 -1.542108154296875000e+01 2.745903432369232178e-01 1.168938130140304565e-01 1.174452453851699829e-01 -1.202862039208412170e-01
2.560000000000000000e+03 9.048308372497558594e+00 2.173872947692871094e+01 -1.383567578159272671e-03 -2.364874962950125337e-04 -4.860165063291788101e-04 6.609265110455453396e-04
2.561000000000000000e+03 6.963464260101318359e+00 2.062599754333496094e+01 -5.812746821902692318e-04 -3.396345709916204214e-04 -2.762727672234177589e-04 3.739440871868282557e-04
2.562000000000000000e+03 1.416148185729980469e+01 -6.692291736602783203e+00 -1.343340873718261719e-01 3.225635886192321777e-01 5.646884813904762268e-02 -1.058458685874938965e-01
2.563000000000000000e+03 1.207348346710205078e+01 -9.578273773193359375e+00 1.626562923192977905e-01 3.847187459468841553e-01 1.642125099897384644e-01 -2.036157995462417603e-01
2.564000000000000000e+03 7.276935577392578125e+01 -2.532110214233398438e+01 4.542746683000586927e-05 -3.554976865416392684e-05 2.963309952974668704e-06 -1.862151293607894331e-05
2.565000000000000000e+03 7.321912384033203125e+01 -2.412334632873535156e+01 6.105312058934941888e-05 -2.666513137228321284e-05 1.031639658322092146e-05 -2.956440039270091802e-05
2.566000000000000000e+03 7.399203491210937500e+01 -2.527915000915527344e+01 6.853965260233962908e-06 -2.023650267801713198e-05 -4.014761088910745457e-06 -1.677409090916626155e-05
2.567000000000000000e+03 6.620874404907226562e+00 1.717813873291015625e+01 -1.910408172989264131e-04 -3.806273452937602997e-04 -1.715004473226144910e-04 1.369600358884781599e-04
2.568000000000000000e+03 8.345576286315917969e+00 2.441568183898925781e+01 -1.510282512754201889e-03 -4.515181353781372309e-04 -5.885402206331491470e-04 1.301429467275738716e-03
2.569000000000000000e+03 6.168120956420898438e+01 -3.953007221221923828e+00 3.991042673587799072e-01 1.224207431077957153e-01 1.564574986696243286e-01 -2.813010942190885544e-03
2.570000000000000000e+03 5.933069992065429688e+01 -5.211241245269775391e+00 4.742305576801300049e-01 1.724275499582290649e-01 1.939974278211593628e-01 6.348972022533416748e-02
2.571000000000000000e+03 7.265206909179687500e+01 -9.239899635314941406e+00 -2.274112552404403687e-01 -3.183284774422645569e-02 -7.777322828769683838e-02 -2.903265357017517090e-01
2.572000000000000000e+03 7.268131256103515625e+01 -8.342166900634765625e+00 -1.917612254619598389e-01 -5.975205451250076294e-02 -7.545398920774459839e-02 -3.196769654750823975e-01
2.573000000000000000e+03 7.293884277343750000e+01 4.553067207336425781e+00 1.153468638658523560e-01 -3.142564296722412109e-01 -5.967286601662635803e-02 -2.581659555435180664e-01
2.574000000000000000e+03 7.265604400634765625e+01 1.887578964233398438e+01 1.223587468266487122e-01 -2.928933203220367432e-01 -5.116036906838417053e-02 1.509086638689041138e-01
2.575000000000000000e+03 7.207271575927734375e+01 2.003651237487792969e+01 1.178203225135803223e-01 -1.794019341468811035e-01 -1.847448572516441345e-02 1.849707812070846558e-01
2.576000000000000000e+03 1.012533569335937500e+01 -1.135206985473632812e+01 2.249877601861953735e-01 2.816745638847351074e-01 1.519986987113952637e-01 -2.437796443700790405e-01
2.577000000000000000e+03 6.731199645996093750e+01 1.399942302703857422e+01 2.691880166530609131e-01 7.602893710136413574e-01 3.088432252407073975e-01 -1.533737499266862869e-02
2.578000000000000000e+03 6.996920776367187500e+01 -3.565131378173828125e+01 -7.382180046988651156e-05 -1.835599687183275819e-04 -7.721452857367694378e-05 -4.446189632290042937e-05
2.579000000000000000e+03 6.617291259765625000e+01 3.127467393875122070e+00 2.954762279987335205e-01 4.617858529090881348e-01 2.271786332130432129e-01 -8.335556089878082275e-02
2.580000000000000000e+03 6.477581787109375000e+01 5.197700023651123047e+00 3.289972543716430664e-01 8.286991119384765625e-01 3.473089039325714111e-01 9.424033761024475098e-02
2.581000000000000000e+03 6.350011825561523438e+01 -5.950452327728271484e+00 6.794804334640502930e-02 -1.085096821188926697e-01 -1.216849125921726227e-02 -3.071457147598266602e-01
2.582000000000000000e+03 7.228131866455078125e+01 2.312190771102905273e+00 1.136889532208442688e-01 -2.400317937135696411e-01 -3.790285438299179077e-02 -3.138836324214935303e-01
2.583000000000000000e+03 7.257436370849609375e+01 -2.860310554504394531e+01 -6.957429832255002111e-06 -3.423600355745293200e-05 -1.235802938026608899e-05 -2.910325383709277958e-05
2.584000000000000000e+03 6.258160781860351562e+01 -1.571460604667663574e+00 4.377318322658538818e-01 3.417798578739166260e-01 2.338535040616989136e-01 8.742330968379974365e-02
2.585000000000000000e+03 6.416826629638671875e+01 -1.866925135254859924e-02 3.545627593994140625e-01 3.916187286376953125e-01 2.238544523715972900e-01 -8.340954780578613281e-03
2.586000000000000000e+03 1.446060466766357422e+01 2.608499145507812500e+01 -4.697748459875583649e-03 -2.613168908283114433e-04 -1.487719593569636345e-03 4.155657719820737839e-03
2.587000000000000000e+03 1.122284412384033203e+01 2.508034706115722656e+01 -3.287351923063397408e-03 -1.403093629050999880e-04 -1.028298400342464447e-03 2.601157408207654953e-03
2.588000000000000000e+03 7.261203002929687500e+01 -7.529030323028564453e+00 -1.699081212282180786e-01 -8.570712804794311523e-02 -7.668457180261611938e-02 -3.691990673542022705e-01
2.589000000000000000e+03 8.116426467895507812e+00 1.844019508361816406e+01 -2.379918005317449570e-04 -3.619786002673208714e-04 -1.799911260604858398e-04 1.161721593234688044e-04
2.590000000000000000e+03 7.513230323791503906e+00 1.598177146911621094e+01 -1.882088836282491684e-04 -3.194289747625589371e-04 -1.522913662483915687e-04 8.658105798531323671e-05
2.591000000000000000e+03 6.185791397094726562e+01 -9.585063934326171875e+00 -7.024001479148864746e-01 -2.188335508108139038e-01 -2.763701081275939941e-01 -3.562849462032318115e-01
2.592000000000000000e+03 3.464619064331054688e+01 2.061284065246582031e+01 -1.606719382107257843e-02 5.052238237112760544e-03 -3.304486395791172981e-03 7.169859018176794052e-03
2.593000000000000000e+03 6.809849548339843750e+01 7.260466575622558594e+00 2.504306137561798096e-01 4.232645332813262939e-01 2.021085470914840698e-01 -8.956210315227508545e-02
2.594000000000000000e+03 6.264055252075195312e+01 -7.518228143453598022e-02 4.265748858451843262e-01 5.087955594062805176e-01 2.806111276149749756e-01 1.622076183557510376e-01
2.595000000000000000e+03 4.103723144531250000e+01 2.226960182189941406e+01 -3.170167561620473862e-03 1.518201641738414764e-02 3.603554563596844673e-03 6.195552996359765530e-04
2.596000000000000000e+03 7.186655426025390625e+01 -2.122626066207885742e+00 3.257326409220695496e-02 -1.934291273355484009e-01 -4.825675860047340393e-02 -4.116463363170623779e-01
2.597000000000000000e+03 3.335742568969726562e+01 2.018767356872558594e+01 -1.956767030060291290e-02 2.008964307606220245e-03 -5.267612170428037643e-03 8.120830170810222626e-03
2.598000000000000000e+03 6.495843410491943359e+00 -1.348362064361572266e+01 1.556423455476760864e-01 -1.361504793167114258e-01 5.847556982189416885e-03 -2.227125018835067749e-01
2.599000000000000000e+03 7.335410118103027344e+00 -1.332780647277832031e+01 1.993472278118133545e-01 -1.606398448348045349e-02 5.498497188091278076e-02 -2.234213054180145264e-01
2.600000000000000000e+03 1.071779537200927734e+01 -2.701118087768554688e+01 -6.545454729348421097e-03 3.699738085269927979e-01 1.090285032987594604e-01 1.281699091196060181e-01
2.601000000000000000e+03 7.507703304290771484e+00 1.270740604400634766e+01 1.232813519891351461e-04 -1.626682351343333721e-04 -1.181606603495310992e-05 1.979139051400125027e-05
2.602000000000000000e+03 6.046552658081054688e+01 -5.864506721496582031e+00 2.618488669395446777e-01 4.691787436604499817e-02 9.263002872467041016e-02 -5.550596863031387329e-02
2.603000000000000000e+03 6.268674850463867188e+01 -6.669371128082275391e+00 -2.661591023206710815e-02 -1.341354548931121826e-01 -4.822541028261184692e-02 -2.767008543014526367e-01
2.604000000000000000e+03 7.049915313720703125e+01 9.951724052429199219e+00 2.018637359142303467e-01 8.423528820276260376e-02 8.582970499992370605e-02 -8.979330956935882568e-02
2.605000000000000000e+03 6.857160949707031250e+01 1.130370140075683594e+01 2.368076890707015991e-01 4.639100134372711182e-01 2.102153152227401733e-01 -4.562985897064208984e-02
2.606000000000000000e+03 7.015575408935546875e+00 -1.046566772460937500e+01 9.257744252681732178e-02 -6.503617018461227417e-02 8.262382820248603821e-03 -3.188107311725616455e-01
2.607000000000000000e+03 8.854634284973144531e+00 -1.347576713562011719e+01 2.751151025295257568e-01 1.877344846725463867e-01 1.388548761606216431e-01 -2.068116813898086548e-01
2.608000000000000000e+03 4.200821685791015625e+01 -3.075217437744140625e+01 -4.673846997320652008e-03 4.316800739616155624e-03 -1.071139195119030774e-04 4.003739450126886368e-03
2.609000000000000000e+03 7.399755096435546875e+01 1.229734802246093750e+01 1.102373749017715454e-01 -5.150869488716125488e-01 -1.214548721909523010e-01 -3.925191983580589294e-02
2.610000000000000000e+03 7.616413593292236328e+00 -2.722625541687011719e+01 -1.104240212589502335e-02 4.863836243748664856e-02 1.127878855913877487e-02 1.884422600269317627e-01
2.611000000000000000e+03 9.047264099121093750e+00 -2.536081123352050781e+01 4.180259257555007935e-02 2.397262752056121826e-01 8.445865660905838013e-02 1.652363389730453491e-01
2.612000000000000000e+03 2.182624626159667969e+01 -4.241592407226562500e+00 -4.491675198078155518e-01 -6.299638003110885620e-02 -1.536491662263870239e-01 5.017102956771850586e-01
2.613000000000000000e+03 2.041554832458496094e+01 -5.911213397979736328e+00 -5.113750100135803223e-01 2.812265157699584961e-01 -6.904454529285430908e-02 2.763344645500183105e-01
2.614000000000000000e+03 1.995771026611328125e+01 -4.287795543670654297e+00 -4.926966130733489990e-01 1.882440149784088135e-01 -9.133578836917877197e-02 3.590534329414367676e-01
2.615000000000000000e+03 1.201476764678955078e+01 -6.421948432922363281e+00 -1.465246528387069702e-01 2.125670611858367920e-01 1.981272175908088684e-02 -2.287449240684509277e-01
2.616000000000000000e+03 1.118821525573730469e+01 -6.410375118255615234e+00 -1.409650743007659912e-01 1.665882468223571777e-01 7.686951663345098495e-03 -2.646933495998382568e-01
2.617000000000000000e+03 1.765170478820800781e+01 -5.720843791961669922e+00 -3.147212266921997070e-01 3.474570214748382568e-01 9.820741601288318634e-03 1.294430643320083618e-01
2.618000000000000000e+03 1.910678863525390625e+01 -5.707232475280761719e+00 -3.960081636905670166e-01 3.343338668346405029e-01 -1.850228570401668549e-02 2.285218238830566406e-01
2.619000000000000000e+03 1.018807029724121094e+01 8.269020080566406250e+00 -8.347309631062671542e-05 -1.765399247233290225e-05 -3.033812572539318353e-05 9.730627425597049296e-06
2.620000000000000000e+03 9.213402748107910156e+00 6.366425514221191406e+00 8.599682041676715016e-05 2.525517857066006400e-06 2.655670141393784434e-05 8.200694537663366646e-06
2.621000000000000000e+03 7.143839263916015625e+01 -7.329137325286865234e+00 -2.047511488199234009e-01 -5.412006750702857971e-02 -7.766136527061462402e-02 -4.157480299472808838e-01
2.622000000000000000e+03 7.129775238037109375e+01 -8.657037734985351562e+00 -2.649701535701751709e-01 -1.814019121229648590e-02 -8.493310213088989258e-02 -3.718068301677703857e-01
2.623000000000000000e+03 6.546691417694091797e+00 1.621507644653320312e+01 -1.589549901837017387e-05 -7.266430475283414125e-05 -2.656794094946235418e-05 -1.716295228106901050e-04
2.624000000000000000e+03 8.618790626525878906e+00 8.386939048767089844e+00 1.138844672823324800e-04 -4.191093830741010606e-05 2.159205905627459288e-05 -3.231595110264606774e-05
2.625000000000000000e+03 7.818577289581298828e+00 8.615076065063476562e+00 -3.085604839725419879e-05 -3.038903741980902851e-05 -1.837352647271472961e-05 5.588614840235095471e-06
2.626000000000000000e+03 7.170303821563720703e+00 -7.988550662994384766e+00 -8.845428936183452606e-03 -4.724495485424995422e-02 -1.682711578905582428e-02 -3.460886776447296143e-01
2.627000000000000000e+03 7.420499324798583984e+00 7.922882080078125000e+00 9.581013728165999055e-05 -4.934245953336358070e-05 1.394030277879210189e-05 2.317173539267969318e-06
2.628000000000000000e+03 6.613784313201904297e+00 8.249552726745605469e+00 2.163386852771509439e-05 -5.229996168054640293e-05 -9.199827218253631145e-06 -2.184112418035510927e-05
2.629000000000000000e+03 6.339485931396484375e+01 -8.230706453323364258e-01 3.899933993816375732e-01 3.750439584255218506e-01 2.295112162828445435e-01 3.458974882960319519e-02
2.630000000000000000e+03 1.215083885192871094e+01 -1.046605014801025391e+01 2.327212095260620117e-01 4.425801634788513184e-01 2.025904059410095215e-01 -1.784063577651977539e-01
2.631000000000000000e+03 1.007976913452148438e+01 -1.042262172698974609e+01 1.684714853763580322e-01 2.410376369953155518e-01 1.228527352213859558e-01 -2.735953629016876221e-01
2.632000000000000000e+03 2.016167640686035156e+01 -6.915100097656250000e+00 -3.361005187034606934e-01 3.263394236564636230e-01 -2.928334055468440056e-03 1.432648152112960815e-01
2.633000000000000000e+03 7.511011123657226562e+00 -8.872368812561035156e+00 3.677671775221824646e-02 -1.869183219969272614e-02 5.425466224551200867e-03 -3.492536544799804688e-01
2.634000000000000000e+03 7.702477455139160156e+00 1.107674694061279297e+01 1.306363992625847459e-04 -1.000437077891547233e-05 3.618960909079760313e-05 7.912614819360896945e-06
2.635000000000000000e+03 7.182621765136718750e+01 1.139678573608398438e+01 1.616993099451065063e-01 -1.363728046417236328e-01 7.597949821501970291e-03 -6.289297342300415039e-02
2.636000000000000000e+03 5.437654018402099609e+00 1.840941047668457031e+01 -3.823451115749776363e-04 -1.475406170357018709e-04 -1.589657185832038522e-04 7.587438449263572693e-05
2.637000000000000000e+03 1.384080982208251953e+01 -8.129883766174316406e+00 3.232463821768760681e-02 4.082151651382446289e-01 1.321619451045989990e-01 -1.213797852396965027e-01
2.638000000000000000e+03 6.134707260131835938e+01 -8.639695167541503906e+00 -3.697904646396636963e-01 -1.317536383867263794e-01 -1.504632234573364258e-01 -2.746200859546661377e-01
2.639000000000000000e+03 8.080830574035644531e+00 -9.785285949707031250e+00 9.184961020946502686e-02 4.259072616696357727e-02 4.033210128545761108e-02 -3.343141674995422363e-01
2.640000000000000000e+03 7.047698974609375000e+01 -3.109670448303222656e+01 -2.932607276306953281e-05 -8.644384797662496567e-05 -3.473097604000940919e-05 -2.203769327024929225e-05
2.641000000000000000e+03 1.003621292114257812e+01 1.036968612670898438e+01 -7.884750812081620097e-05 -8.188938954845070839e-05 -4.822106711799278855e-05 2.340024184377398342e-05
2.642000000000000000e+03 8.853891372680664062e+00 1.123770141601562500e+01 -2.268814205308444798e-05 -1.679255219642072916e-04 -5.718409738619811833e-05 -5.793679633825377095e-07
2.643000000000000000e+03 1.029275608062744141e+01 7.273756504058837891e+00 1.339774025836959481e-04 -1.984050686587579548e-05 3.424107126193121076e-05 3.796821329160593450e-05
2.644000000000000000e+03 6.966534423828125000e+01 -6.333926677703857422e+00 -1.540590673685073853e-01 -7.591151446104049683e-02 -6.899117678403854370e-02 -4.673624634742736816e-01
2.645000000000000000e+03 9.158159255981445312e+00 -1.214648818969726562e+01 2.160355597734451294e-01 1.824935972690582275e-01 1.195587441325187683e-01 -2.431002855300903320e-01
2.646000000000000000e+03 6.882865905761718750e+01 6.342600822448730469e+00 2.362354397773742676e-01 2.729879021644592285e-01 1.527670025825500488e-01 -1.391054540872573853e-01
2.647000000000000000e+03 7.303400421142578125e+01 -4.418671131134033203e+00 -3.990339115262031555e-02 -2.003858685493469238e-01 -7.208677381277084351e-02 -4.006322026252746582e-01
2.648000000000000000e+03 7.185404205322265625e+01 -4.459916114807128906e+00 -5.294357240200042725e-02 -1.570912301540374756e-01 -6.301043927669525146e-02 -4.303143322467803955e-01
2.649000000000000000e+03 6.863308715820312500e+01 8.276345252990722656e+00 2.387969046831130981e-01 3.675333559513092041e-01 1.818990856409072876e-01 -8.363376557826995850e-02
2.650000000000000000e+03 7.195899963378906250e+01 -8.029898643493652344e+00 -2.239374816417694092e-01 -5.405664443969726562e-02 -8.339823782444000244e-02 -3.569536507129669189e-01
2.651000000000000000e+03 9.043466567993164062e+00 -8.494431495666503906e+00 2.958510443568229675e-02 9.894697368144989014e-02 3.855962306261062622e-02 -3.317696750164031982e-01
2.652000000000000000e+03 1.360435581207275391e+01 -6.222359180450439453e+00 -1.803593486547470093e-01 2.841869592666625977e-01 3.114828281104564667e-02 -1.419476121664047241e-01
2.653000000000000000e+03 6.305746459960937500e+01 -4.901317119598388672e+00 2.047289907932281494e-01 -1.535625755786895752e-02 5.681182071566581726e-02 -2.009137123823165894e-01
2.654000000000000000e+03 7.220618438720703125e+01 1.297874069213867188e+01 1.533217877149581909e-01 -1.971502453088760376e-01 -1.314853969961404800e-02 -2.282023616135120392e-02
2.655000000000000000e+03 1.046478462219238281e+01 -6.595888614654541016e+00 -1.135233789682388306e-01 1.386348754167556763e-01 7.533446885645389557e-03 -2.955777347087860107e-01
2.656000000000000000e+03 1.105327033996582031e+01 -8.664115905761718750e+00 5.922425910830497742e-02 2.550638020038604736e-01 9.428641945123672485e-02 -2.736228406429290771e-01
2.657000000000000000e+03 6.656929016113281250e+01 4.846724510192871094e+00 2.890524864196777344e-01 5.252164006233215332e-01 2.442806661128997803e-01 -6.344451010227203369e-02
2.658000000000000000e+03 6.596573638916015625e+01 -5.495300292968750000e+00 -2.800081670284271240e-02 -9.248618781566619873e-02 -3.614610061049461365e-02 -4.278777241706848145e-01
2.659000000000000000e+03 6.570691680908203125e+01 -7.202565670013427734e+00 -2.471713870763778687e-01 -1.561574637889862061e-01 -1.209986582398414612e-01 -4.787511229515075684e-01
2.660000000000000000e+03 6.943243026733398438e+00 -1.583489704132080078e+01 2.179304510354995728e-01 -4.328636080026626587e-02 5.239322409033775330e-02 -1.162652298808097839e-01
2.661000000000000000e+03 5.522829055786132812e+00 -1.471908187866210938e+01 1.461884081363677979e-01 -2.564105689525604248e-01 -3.306665271520614624e-02 -1.710395216941833496e-01
2.662000000000000000e+03 6.534673690795898438e+00 -1.810548782348632812e+01 1.920099556446075439e-01 -1.145540326833724976e-01 2.323677763342857361e-02 -8.315069600939750671e-03
2.663000000000000000e+03 7.314413452148437500e+01 9.232069969177246094e+00 1.226339787244796753e-01 -3.654437065124511719e-01 -7.284291833639144897e-02 -1.325799524784088135e-01
2.664000000000000000e+03 6.939161682128906250e+01 1.437690925598144531e+01 2.449472546577453613e-01 3.085639178752899170e-01 1.660533547401428223e-01 2.052006777375936508e-03
2.665000000000000000e+03 6.511117553710937500e+01 2.432065248489379883e+00 3.284796178340911865e-01 5.512276887893676758e-01 2.639122009277343750e-01 -4.561783280223608017e-03
2.666000000000000000e+03 7.182469940185546875e+01 -3.355010986328125000e+00 -6.669112015515565872e-03 -1.705807745456695557e-01 -5.317496508359909058e-02 -4.294731318950653076e-01
2.667000000000000000e+03 7.203033447265625000e+01 -9.012005925178527832e-01 6.871968507766723633e-02 -2.150976210832595825e-01 -4.391337931156158447e-02 -3.930721879005432129e-01
2.668000000000000000e+03 6.167825317382812500e+01 -6.211741447448730469e+00 1.275313645601272583e-01 -6.539070606231689453e-02 1.864219643175601959e-02 -1.915348917245864868e-01
2.669000000000000000e+03 7.195467376708984375e+01 1.576035308837890625e+01 1.720769405364990234e-01 -1.662703454494476318e-01 1.741976244375109673e-03 5.686867982149124146e-02
2.670000000000000000e+03 7.061497497558593750e+01 1.528889942169189453e+01 2.073331326246261597e-01 7.964636385440826416e-02 8.609385043382644653e-02 4.002696275711059570e-02
2.671000000000000000e+03 1.022707843780517578e+01 2.420793151855468750e+01 -2.382064005360007286e-03 -9.554015559842810035e-05 -7.432812708429992199e-04 1.507788663730025291e-03
2.672000000000000000e+03 1.324830245971679688e+01 2.729505157470703125e+01 -3.662669798359274864e-03 -9.378306567668914795e-04 -1.380150089971721172e-03 4.700636956840753555e-03
2.673000000000000000e+03 3.641451644897460938e+01 2.269382286071777344e+01 -9.354738518595695496e-03 1.065386272966861725e-02 3.897374263033270836e-04 3.111201338469982147e-03
2.674000000000000000e+03 6.993146514892578125e+01 2.088713836669921875e+01 1.484353542327880859e-01 1.272258907556533813e-01 8.269837498664855957e-02 1.985303312540054321e-01
2.675000000000000000e+03 7.374021911621093750e+01 2.173246955871582031e+01 5.362785235047340393e-02 -4.291202127933502197e-01 -1.126477122306823730e-01 2.107055783271789551e-01
2.676000000000000000e+03 7.105268096923828125e+01 1.961164474487304688e+01 1.572020947933197021e-01 -3.420682996511459351e-02 3.689857572317123413e-02 1.734289526939392090e-01
2.677000000000000000e+03 1.030979919433593750e+01 2.597329711914062500e+01 -2.160113072022795677e-03 -5.332008004188537598e-04 -8.079941617324948311e-04 2.479881979525089264e-03
2.678000000000000000e+03 9.244332313537597656e+00 2.345148468017578125e+01 -2.045155735686421394e-03 -1.614269276615232229e-04 -6.619748310185968876e-04 1.342200557701289654e-03
2.679000000000000000e+03 7.408542633056640625e+00 -2.151497077941894531e+01 1.646174341440200806e-01 3.829558938741683960e-02 6.087391078472137451e-02 1.146060675382614136e-01
2.680000000000000000e+03 5.906350708007812500e+01 -7.288170814514160156e+00 1.132899895310401917e-01 8.116721361875534058e-02 5.833715945482254028e-02 -1.363524943590164185e-01
2.681000000000000000e+03 3.766128921508789062e+01 2.145463562011718750e+01 -9.995114058256149292e-03 1.232895813882350922e-02 7.001532940194010735e-04 3.285608021542429924e-03
2.682000000000000000e+03 3.492065429687500000e+01 2.537238311767578125e+01 -3.956933040171861649e-03 8.919270709156990051e-03 1.488701207563281059e-03 -5.234455456957221031e-04
2.683000000000000000e+03 6.951358795166015625e+01 -3.360678863525390625e+01 -4.344439366832375526e-05 -1.580367679707705975e-04 -6.044434485374949872e-05 2.315623169124592096e-05
2.684000000000000000e+03 8.722137451171875000e+00 -2.950895500183105469e+01 -5.189654603600502014e-02 1.285651624202728271e-01 2.300058491528034210e-02 1.610140800476074219e-01
2.685000000000000000e+03 6.906588745117187500e+01 -3.192310905456542969e+01 -3.478345024632290006e-05 -1.196151133626699448e-04 -4.631956835510209203e-05 -6.531338294735178351e-05
2.686000000000000000e+03 1.429570865631103516e+01 2.866407775878906250e+01 -1.846230472438037395e-03 -1.810843124985694885e-03 -1.097122090868651867e-03 5.358423572033643723e-03
2.687000000000000000e+03 6.816125488281250000e+01 -6.280530929565429688e+00 -1.419414281845092773e-01 -7.583474367856979370e-02 -6.533285230398178101e-02 -4.887502193450927734e-01
2.688000000000000000e+03 7.198016357421875000e+01 2.212634235620498657e-01 9.443465620279312134e-02 -2.149911969900131226e-01 -3.616696223616600037e-02 -3.635049164295196533e-01
2.689000000000000000e+03 2.135766792297363281e+01 -4.178972244262695312e+00 -4.765888452529907227e-01 2.271652035415172577e-02 -1.361616998910903931e-01 4.613991677761077881e-01
2.690000000000000000e+03 2.174073982238769531e+01 -4.732075214385986328e+00 -5.552071928977966309e-01 -2.083086175844073296e-03 -1.671870797872543335e-01 5.094857811927795410e-01
2.691000000000000000e+03 2.184841728210449219e+01 -3.804410696029663086e+00 -3.891656398773193359e-01 -9.061560779809951782e-02 -1.439343690872192383e-01 4.674372673034667969e-01
2.692000000000000000e+03 2.000777816772460938e+01 -4.869907379150390625e+00 -5.078257322311401367e-01 2.251188606023788452e-01 -8.481205254793167114e-02 3.459509909152984619e-01
2.693000000000000000e+03 1.942667770385742188e+01 -4.982252120971679688e+00 -4.719566702842712402e-01 2.762593924999237061e-01 -5.870918557047843933e-02 2.902937829494476318e-01
2.694000000000000000e+03 2.056859397888183594e+01 -4.939326763153076172e+00 -5.315839648246765137e-01 1.912593841552734375e-01 -1.020973771810531616e-01 3.870861232280731201e-01
2.695000000000000000e+03 1.792236900329589844e+01 -6.740259170532226562e+00 -1.893106251955032349e-01 3.970048427581787109e-01 6.230826303362846375e-02 1.123143211007118225e-01
2.696000000000000000e+03 1.937397766113281250e+01 -6.081312179565429688e+00 -3.791808784008026123e-01 3.455082774162292480e-01 -1.010178402066230774e-02 2.019138634204864502e-01
2.697000000000000000e+03 1.010800361633300781e+01 -7.773466110229492188e+00 -1.917866803705692291e-02 1.539588421583175659e-01 4.043405130505561829e-02 -3.065408766269683838e-01
2.698000000000000000e+03 1.906840324401855469e+01 -6.823965072631835938e+00 -2.343536913394927979e-01 3.659844994544982910e-01 3.948924690485000610e-02 1.413420438766479492e-01
2.699000000000000000e+03 1.108212375640869141e+01 -9.540493011474609375e+00 1.287239193916320801e-01 2.939046323299407959e-01 1.267885565757751465e-01 -2.590216398239135742e-01
2.700000000000000000e+03 1.296683311462402344e+01 -8.803182601928710938e+00 1.018108278512954712e-01 4.048717916011810303e-01 1.520047783851623535e-01 -1.657560020685195923e-01
2.701000000000000000e+03 1.823869514465332031e+01 -6.081925392150878906e+00 -3.003617823123931885e-01 3.750406503677368164e-01 2.240366116166114807e-02 1.526785790920257568e-01
2.702000000000000000e+03 7.070546722412109375e+01 -7.926591873168945312e+00 -2.607795894145965576e-01 -3.897053003311157227e-02 -8.992503583431243896e-02 -3.969587683677673340e-01
2.703000000000000000e+03 2.004589271545410156e+01 -6.115831851959228516e+00 -4.541683197021484375e-01 3.100962042808532715e-01 -4.322164133191108704e-02 2.341199964284896851e-01
2.704000000000000000e+03 7.951443195343017578e+00 9.306199073791503906e+00 1.460297498852014542e-04 -3.029945219168439507e-05 3.471908712526783347e-05 -2.418566054984694347e-06
2.705000000000000000e+03 1.001104927062988281e+01 9.314623832702636719e+00 1.648208854021504521e-04 -2.742398100963328034e-05 4.121907113585621119e-05 4.412221824168227613e-05
2.706000000000000000e+03 7.201138305664062500e+01 9.246452331542968750e+00 1.486622989177703857e-01 -1.920948028564453125e-01 -1.302975229918956757e-02 -1.236411109566688538e-01
2.707000000000000000e+03 6.252845382690429688e+01 -3.227346897125244141e+00 3.811099231243133545e-01 1.740963160991668701e-01 1.665618717670440674e-01 -3.709869831800460815e-02
2.708000000000000000e+03 6.658650207519531250e+01 4.260532259941101074e-01 2.569606900215148926e-01 2.210178673267364502e-01 1.433935612440109253e-01 -1.975348293781280518e-01
2.709000000000000000e+03 9.012660026550292969e+00 -9.437690734863281250e+00 8.152833580970764160e-02 1.076562255620956421e-01 5.675536766648292542e-02 -3.222292065620422363e-01
2.710000000000000000e+03 6.921090698242187500e+01 -5.378688812255859375e+00 -9.739022701978683472e-02 -7.443807274103164673e-02 -5.154848843812942505e-02 -4.710478484630584717e-01
2.711000000000000000e+03 1.203267288208007812e+01 -7.916745185852050781e+00 -2.642236184328794479e-03 2.868201136589050293e-01 8.525335788726806641e-02 -2.327009290456771851e-01
2.712000000000000000e+03 1.103838729858398438e+01 -7.801890850067138672e+00 -1.642163656651973724e-02 2.195612341165542603e-01 6.094188243150711060e-02 -2.836080491542816162e-01
2.713000000000000000e+03 1.005847263336181641e+01 -9.498041152954101562e+00 1.030655056238174438e-01 2.033565491437911987e-01 9.192661941051483154e-02 -2.951418757438659668e-01
2.714000000000000000e+03 6.132245635986328125e+01 -7.447352886199951172e+00 -1.347573846578598022e-01 -1.114178076386451721e-01 -7.385256141424179077e-02 -2.342522442340850830e-01
2.715000000000000000e+03 7.046614074707031250e+01 5.901581764221191406e+00 2.049631327390670776e-01 3.269889205694198608e-02 7.129860669374465942e-02 -1.975283920764923096e-01
2.716000000000000000e+03 9.303413391113281250e+00 -7.645204067230224609e+00 -3.056238591670989990e-02 9.868246316909790039e-02 2.043602243065834045e-02 -3.312934041023254395e-01
2.717000000000000000e+03 8.069548606872558594e+00 -8.119563102722167969e+00 -2.812736784107983112e-05 3.122714720666408539e-02 9.359706193208694458e-03 -3.524013757705688477e-01
2.718000000000000000e+03 6.635866165161132812e+00 -1.461909866333007812e+01 1.947780996561050415e-01 -1.074196770787239075e-01 2.620752528309822083e-02 -1.753369271755218506e-01
2.719000000000000000e+03 7.301360321044921875e+01 7.795827388763427734e+00 1.207580491900444031e-01 -3.385922312736511230e-01 -6.535025686025619507e-02 -1.681159287691116333e-01
2.720000000000000000e+03 7.281003570556640625e+01 1.182913494110107422e+01 1.520685106515884399e-01 -2.888227403163909912e-01 -4.102626442909240723e-02 -5.339249968528747559e-02
2.721000000000000000e+03 6.841925048828125000e+01 -3.052321624755859375e+01 -2.142407902283594012e-05 -9.694261825643479824e-05 -3.551000918378122151e-05 9.826191671891137958e-06
2.722000000000000000e+03 7.763564109802246094e+00 1.012243843078613281e+01 -2.668346132850274444e-05 -1.323108153883367777e-04 -4.769828228745609522e-05 2.046536974376067519e-05
2.723000000000000000e+03 3.768118667602539062e+01 2.399446105957031250e+01 -3.212290350347757339e-03 1.361804734915494919e-02 3.121726913377642632e-03 -4.373826086521148682e-04
2.724000000000000000e+03 6.994685363769531250e+01 1.819951438903808594e+01 2.233057767152786255e-01 1.509362757205963135e-01 1.122726202011108398e-01 1.195990517735481262e-01
2.725000000000000000e+03 7.069845581054687500e+01 2.374150276184082031e+01 4.900679364800453186e-02 3.508644178509712219e-02 2.522797137498855591e-02 2.487896382808685303e-01
2.726000000000000000e+03 3.195107650756835938e+01 1.967360877990722656e+01 -2.146116644144058228e-02 -6.802792195230722427e-03 -8.479187265038490295e-03 1.388135645538568497e-02
2.727000000000000000e+03 7.015424346923828125e+01 -7.171680450439453125e+00 -2.286902517080307007e-01 -4.880993813276290894e-02 -8.325005322694778442e-02 -4.572750329971313477e-01
2.728000000000000000e+03 6.497537994384765625e+01 -8.220729231834411621e-01 3.087612390518188477e-01 2.554479241371154785e-01 1.692627519369125366e-01 -1.231868118047714233e-01
2.729000000000000000e+03 6.417019653320312500e+01 -1.605864048004150391e+00 3.365148305892944336e-01 2.354441583156585693e-01 1.715876907110214233e-01 -8.885030448436737061e-02
2.730000000000000000e+03 6.344331741333007812e+00 -2.469613838195800781e+01 4.513099044561386108e-02 -1.083580479025840759e-01 -1.896811649203300476e-02 1.745172291994094849e-01
2.731000000000000000e+03 7.066147613525390625e+01 3.575862407684326172e+00 1.869771331548690796e-01 -3.890008106827735901e-02 4.442311450839042664e-02 -2.662721574306488037e-01
2.732000000000000000e+03 7.026802825927734375e+01 -1.385259985923767090e+00 8.781602233648300171e-02 -9.796576201915740967e-02 -3.044921671971678734e-03 -3.988772630691528320e-01
2.733000000000000000e+03 6.961860656738281250e+01 -2.243261575698852539e+00 7.872212678194046021e-02 -8.010585606098175049e-02 -4.151188768446445465e-04 -4.103084504604339600e-01
2.734000000000000000e+03 6.693199157714843750e+01 2.097401142120361328e+00 2.753042280673980713e-01 3.144713640213012695e-01 1.769326776266098022e-01 -1.565158665180206299e-01
2.735000000000000000e+03 6.798336791992187500e+01 2.852259635925292969e+00 2.414746433496475220e-01 2.298939675092697144e-01 1.414105743169784546e-01 -2.005838155746459961e-01
2.736000000000000000e+03 7.657602787017822266e+00 2.811870956420898438e+01 -1.282170414924621582e-03 -1.303616561926901340e-03 -7.757360581308603287e-04 2.621087711304426193e-03
2.737000000000000000e+03 8.551977157592773438e+00 2.739525794982910156e+01 -9.721347014419734478e-04 -1.285052392631769180e-03 -6.771561456844210625e-04 2.765358891338109970e-03
2.738000000000000000e+03 2.124847412109375000e+01 -4.643991470336914062e+00 -5.367252230644226074e-01 7.767403125762939453e-02 -1.377153545618057251e-01 4.659159481525421143e-01
2.739000000000000000e+03 2.144940185546875000e+01 -3.729710340499877930e+00 -4.146123230457305908e-01 -1.998595334589481354e-02 -1.303794831037521362e-01 4.451720118522644043e-01
2.740000000000000000e+03 2.092775726318359375e+01 -4.083649635314941406e+00 -4.838991761207580566e-01 7.388302683830261230e-02 -1.230048462748527527e-01 4.378679394721984863e-01
2.741000000000000000e+03 2.076855087280273438e+01 -4.489882469177246094e+00 -5.196110606193542480e-01 1.353169828653335571e-01 -1.152882277965545654e-01 4.197449386119842529e-01
2.742000000000000000e+03 2.092397308349609375e+01 -5.549883365631103516e+00 -5.962350368499755859e-01 2.108822613954544067e-01 -1.156058385968208313e-01 3.626793324947357178e-01
2.743000000000000000e+03 1.998221206665039062e+01 -5.388819694519042969e+00 -4.992685317993164062e-01 2.795117795467376709e-01 -6.592703610658645630e-02 3.111045360565185547e-01
2.744000000000000000e+03 1.887132263183593750e+01 -6.196511268615722656e+00 -3.299501240253448486e-01 3.590725660324096680e-01 8.736733347177505493e-03 1.786783784627914429e-01
2.745000000000000000e+03 1.686342430114746094e+01 -6.913887500762939453e+00 -1.339244991540908813e-01 4.138713479042053223e-01 8.398405462503433228e-02 4.690150544047355652e-02
2.746000000000000000e+03 6.660233306884765625e+01 -6.351828098297119141e+00 -1.231909021735191345e-01 -1.013982594013214111e-01 -6.737674772739410400e-02 -4.874932467937469482e-01
2.747000000000000000e+03 7.156743621826171875e+01 6.154424667358398438e+00 1.645922958850860596e-01 -1.395915597677230835e-01 7.500222884118556976e-03 -2.043907046318054199e-01
2.748000000000000000e+03 7.069012451171875000e+01 -5.839738845825195312e+00 -1.353840529918670654e-01 -9.419990330934524536e-02 -6.887518614530563354e-02 -4.500516951084136963e-01
2.749000000000000000e+03 7.159871673583984375e+01 -6.022056102752685547e+00 -1.224786266684532166e-01 -9.950713813304901123e-02 -6.659573316574096680e-02 -4.354744255542755127e-01
2.750000000000000000e+03 6.446903228759765625e+01 -5.351783752441406250e+00 7.063837349414825439e-02 -8.648665994405746460e-02 -4.754484631121158600e-03 -3.366588056087493896e-01
2.751000000000000000e+03 6.765939331054687500e+01 1.008832931518554688e+00 2.297959327697753906e-01 1.645082384347915649e-01 1.182912513613700867e-01 -2.464867383241653442e-01
2.752000000000000000e+03 7.098908996582031250e+01 8.129178047180175781e+00 1.817332208156585693e-01 -4.087370261549949646e-02 4.225785657763481140e-02 -1.506107896566390991e-01
2.753000000000000000e+03 6.974112701416015625e+01 2.746420383453369141e+00 1.868945211172103882e-01 3.063024021685123444e-02 6.525743007659912109e-02 -2.697845995426177979e-01
2.754000000000000000e+03 7.433538818359375000e+01 1.792963218688964844e+01 8.312957733869552612e-02 -5.770844221115112305e-01 -1.481864452362060547e-01 1.202321797609329224e-01
2.755000000000000000e+03 6.332740402221679688e+01 -3.910387277603149414e+00 2.841527462005615234e-01 4.986022785305976868e-02 1.002038940787315369e-01 -1.593553721904754639e-01
2.756000000000000000e+03 6.536236572265625000e+01 -4.656882286071777344e+00 8.666835725307464600e-02 -4.915679991245269775e-02 1.125346682965755463e-02 -3.620692491531372070e-01
2.757000000000000000e+03 8.939498901367187500e+00 -1.034072399139404297e+01 1.404814869165420532e-01 1.187362000346183777e-01 7.776530832052230835e-02 -3.058991730213165283e-01
2.758000000000000000e+03 7.063548278808593750e+01 -2.301771640777587891e+00 5.331799015402793884e-02 -1.226441785693168640e-01 -2.079785801470279694e-02 -4.242617785930633545e-01
2.759000000000000000e+03 7.052365112304687500e+01 -4.787752628326416016e+00 -5.240500345826148987e-02 -1.075632944703102112e-01 -4.799048975110054016e-02 -4.591567516326904297e-01
2.760000000000000000e+03 7.108129119873046875e+01 5.126192092895507812e+00 1.540185362100601196e-01 -8.915571123361587524e-02 1.945884712040424347e-02 -2.339675724506378174e-01
2.761000000000000000e+03 7.141699981689453125e+01 2.971673011779785156e+00 1.421486735343933105e-01 -1.552243977785110474e-01 -3.922718111425638199e-03 -2.965689003467559814e-01
2.762000000000000000e+03 6.952307128906250000e+01 1.018620133399963379e+00 1.710716336965560913e-01 1.594797358848154545e-03 5.179992690682411194e-02 -3.178001642227172852e-01
2.763000000000000000e+03 7.052077484130859375e+01 1.950893521308898926e+00 1.558338701725006104e-01 -6.587173044681549072e-02 2.698864415287971497e-02 -3.102790713310241699e-01
2.764000000000000000e+03 7.286595153808593750e+01 2.410990333557128906e+01 2.318306267261505127e-02 -2.880226373672485352e-01 -7.945187389850616455e-02 2.431189268827438354e-01
2.765000000000000000e+03 6.099943923950195312e+01 -4.732432365417480469e+00 3.914063274860382080e-01 1.027489975094795227e-01 1.482466012239456177e-01 -2.687374688684940338e-02
2.766000000000000000e+03 4.241791534423828125e+01 2.297517204284667969e+01 5.479899235069751740e-03 1.712735928595066071e-02 6.782177835702896118e-03 -4.890704993158578873e-03
2.767000000000000000e+03 7.192964935302734375e+01 8.007734298706054688e+00 1.532284021377563477e-01 -1.752784699201583862e-01 -6.615018937736749649e-03 -1.627431660890579224e-01
2.768000000000000000e+03 7.035465240478515625e+01 1.329648494720458984e+01 2.013626545667648315e-01 1.214894652366638184e-01 9.685563296079635620e-02 -2.014179155230522156e-02
2.769000000000000000e+03 2.044497489929199219e+01 -5.453117370605468750e+00 -5.386085510253906250e-01 2.409290969371795654e-01 -8.930383622646331787e-02 3.378109037876129150e-01
2.770000000000000000e+03 7.048030090332031250e+01 -3.535681724548339844e+00 -1.175628858618438244e-03 -1.207352355122566223e-01 -3.657325729727745056e-02 -4.433714449405670166e-01
2.771000000000000000e+03 6.660848236083984375e+01 -2.267156839370727539e+00 1.807491034269332886e-01 4.983192309737205505e-02 6.917431205511093140e-02 -3.160171210765838623e-01
2.772000000000000000e+03 6.562712860107421875e+01 -3.106531858444213867e+00 1.971260607242584229e-01 3.331227600574493408e-02 6.913150101900100708e-02 -2.991401553153991699e-01
2.773000000000000000e+03 6.492931365966796875e+01 -2.358328342437744141e+00 2.606431245803833008e-01 1.199300885200500488e-01 1.141719669103622437e-01 -2.057784646749496460e-01
2.774000000000000000e+03 6.902503204345703125e+01 3.637094736099243164e+00 2.303979843854904175e-01 1.411935389041900635e-01 1.114774569869041443e-01 -2.201105356216430664e-01
2.775000000000000000e+03 6.924243164062500000e+01 -3.384308099746704102e+00 3.148331120610237122e-02 -6.551709026098251343e-02 -1.021013502031564713e-02 -4.396139383316040039e-01
2.776000000000000000e+03 6.771446990966796875e+01 -3.891730785369873047e+00 4.254137352108955383e-02 -4.829021170735359192e-02 -1.724651898257434368e-03 -4.258313477039337158e-01
2.777000000000000000e+03 6.860039520263671875e+01 -1.797625899314880371e+00 1.153741702437400818e-01 -1.330935303121805191e-02 3.061944618821144104e-02 -3.796203434467315674e-01
2.778000000000000000e+03 6.396319961547851562e+01 -4.528283119201660156e+00 1.666934788227081299e-01 -2.510195039212703705e-02 4.247745871543884277e-02 -2.630301415920257568e-01
2.779000000000000000e+03 1.380639839172363281e+01 3.165941619873046875e+01 7.175674545578658581e-04 -3.145011607557535172e-03 -7.282332517206668854e-04 5.341314245015382767e-03
2.780000000000000000e+03 4.393407058715820312e+01 2.335021209716796875e+01 1.493325736373662949e-02 1.296444889158010483e-02 8.369311690330505371e-03 -9.586887434124946594e-03
2.781000000000000000e+03 1.197304534912109375e+01 2.825437736511230469e+01 -1.629531150683760643e-03 -1.430661999620497227e-03 -9.180579218082129955e-04 4.158142022788524628e-03
2.782000000000000000e+03 6.752622604370117188e+00 2.909701347351074219e+01 -3.238006320316344500e-04 -1.891457475721836090e-03 -6.645774701610207558e-04 2.461948432028293610e-03
2.783000000000000000e+03 1.012795066833496094e+01 2.769318962097167969e+01 -1.344251562841236591e-03 -1.256667310371994972e-03 -7.802756736055016518e-04 3.294815542176365852e-03
2.784000000000000000e+03 6.873667907714843750e+01 1.886427402496337891e+00 2.102853804826736450e-01 1.051823645830154419e-01 9.464032948017120361e-02 -2.621030807495117188e-01
2.785000000000000000e+03 6.940834808349609375e+01 1.234428977966308594e+01 2.297156751155853271e-01 3.091297745704650879e-01 1.616536378860473633e-01 -4.418027773499488831e-02
2.786000000000000000e+03 6.847502136230468750e+01 3.369379043579101562e-02 1.850743740797042847e-01 5.923416092991828918e-02 7.329256087541580200e-02 -3.094407916069030762e-01
2.787000000000000000e+03 6.818151092529296875e+01 -2.949688911437988281e+00 9.881063550710678101e-02 -2.927530556917190552e-02 2.086059935390949249e-02 -4.038774073123931885e-01
2.788000000000000000e+03 6.852983856201171875e+01 -4.522830963134765625e+00 -1.441274955868721008e-02 -6.900201737880706787e-02 -2.502442896366119385e-02 -4.577819406986236572e-01
2.789000000000000000e+03 6.578888702392578125e+01 -1.543121814727783203e+00 2.491779476404190063e-01 1.377130746841430664e-01 1.160673052072525024e-01 -2.294095009565353394e-01
2.790000000000000000e+03 6.654438018798828125e+01 -6.044447422027587891e-01 2.389185875654220581e-01 1.601308137178421021e-01 1.197148188948631287e-01 -2.394431084394454956e-01
2.791000000000000000e+03 6.753854370117187500e+01 -1.154195666313171387e+00 1.895053833723068237e-01 6.165815517306327820e-02 7.534906268119812012e-02 -3.150357306003570557e-01
2.792000000000000000e+03 1.069291210174560547e+01 2.890312767028808594e+01 -1.901157433167099953e-03 -1.482153078541159630e-03 -1.014993176795542240e-03 3.765472676604986191e-03
2.793000000000000000e+03 7.002121734619140625e+01 9.124412536621093750e+00 2.190509140491485596e-01 1.528094857931137085e-01 1.115581169724464417e-01 -1.109545528888702393e-01
2.794000000000000000e+03 7.783929347991943359e+00 2.545683670043945312e+01 -1.304879551753401756e-03 -6.595904706045985222e-04 -5.893409834243357182e-04 1.996009610593318939e-03
2.795000000000000000e+03 7.030696868896484375e+01 1.150946044921875000e+01 2.075298726558685303e-01 1.389380991458892822e-01 1.039403900504112244e-01 -5.747661367058753967e-02
2.796000000000000000e+03 7.955194950103759766e+00 2.649524497985839844e+01 -1.767643960192799568e-03 -7.724652532488107681e-04 -7.620327523909509182e-04 2.125960076227784157e-03
2.797000000000000000e+03 6.195439815521240234e+00 2.407001495361328125e+01 -6.497682188637554646e-04 -5.975354579277336597e-04 -3.741910913959145546e-04 1.047555240802466869e-03
2.798000000000000000e+03 6.717877197265625000e+01 -3.129540681838989258e+00 1.198889985680580139e-01 -4.403738304972648621e-03 3.464557603001594543e-02 -3.803262710571289062e-01
2.799000000000000000e+03 3.445628356933593750e+01 2.184811973571777344e+01 -1.499349717050790787e-02 5.966915749013423920e-03 -2.707974286749958992e-03 5.032754968851804733e-03
2.800000000000000000e+03 1.146018695831298828e+01 3.246569061279296875e+01 4.947771667502820492e-04 -3.181335749104619026e-03 -8.059676038101315498e-04 4.148140083998441696e-03
2.801000000000000000e+03 6.939724731445312500e+01 -7.060620188713073730e-01 1.442169398069381714e-01 -3.751210123300552368e-02 3.201145306229591370e-02 -3.644083738327026367e-01
2.802000000000000000e+03 7.112918090820312500e+01 1.073697662353515625e+01 1.881750971078872681e-01 -1.556855812668800354e-02 5.178196355700492859e-02 -8.198776096105575562e-02
2.803000000000000000e+03 7.427355957031250000e+01 2.472888183593750000e+01 1.310738734900951385e-02 -4.381485879421234131e-01 -1.275123506784439087e-01 2.317429631948471069e-01
2.804000000000000000e+03 3.712913131713867188e+01 1.800584220886230469e+01 -1.588323526084423065e-02 9.010402485728263855e-03 -2.061849692836403847e-03 6.090157665312290192e-03
2.805000000000000000e+03 5.942116737365722656e+00 -2.725430679321289062e+01 -9.003813378512859344e-03 -1.483840793371200562e-01 -4.721636697649955750e-02 1.812749356031417847e-01
2.806000000000000000e+03 3.876770019531250000e+01 2.023005485534667969e+01 -1.293805334717035294e-02 1.244782935827970505e-02 -1.470672432333230972e-04 4.535527434200048447e-03
2.807000000000000000e+03 5.789453125000000000e+01 -3.413951492309570312e+01 -1.097253989428281784e-03 -9.244171087630093098e-04 -6.065013003535568714e-04 1.732801203615963459e-03
2.808000000000000000e+03 3.414617538452148438e+00 -3.699390792846679688e+01 -1.408549956977367401e-02 -2.644253671169281006e-01 -8.355326205492019653e-02 6.996423751115798950e-02
2.809000000000000000e+03 4.634711837768554688e+01 2.369075393676757812e+01 2.827787213027477264e-02 1.285317260771989822e-02 1.233931351453065872e-02 -2.048122696578502655e-02
2.810000000000000000e+03 6.572466278076171875e+01 2.285046005249023438e+01 1.294044554233551025e-01 6.975935101509094238e-01 2.480993866920471191e-01 1.233760714530944824e-01
2.811000000000000000e+03 7.963324069976806641e+00 3.014429664611816406e+01 -5.540035199373960495e-04 -2.027434995397925377e-03 -7.744315662421286106e-04 3.135705133900046349e-03
2.812000000000000000e+03 8.517764091491699219e+00 2.895019912719726562e+01 -6.366968154907226562e-04 -1.830320921726524830e-03 -7.401053444482386112e-04 3.006970742717385292e-03
2.813000000000000000e+03 1.145083332061767578e+01 -2.949854278564453125e+01 -7.344295084476470947e-02 3.373162448406219482e-01 7.916198670864105225e-02 9.181120246648788452e-02
2.814000000000000000e+03 1.212502956390380859e+01 -2.785383605957031250e+01 -3.254029154777526855e-02 4.661394059658050537e-01 1.300797313451766968e-01 5.442784726619720459e-02
2.815000000000000000e+03 6.037648010253906250e+01 -3.483162307739257812e+01 -4.222595889586955309e-04 -7.980488007888197899e-04 -3.660925140138715506e-04 1.036211266182363033e-03
2.816000000000000000e+03 6.022021102905273438e+01 -3.289282608032226562e+01 -8.899141685105860233e-04 -1.874303561635315418e-04 -3.232033632230013609e-04 8.328791009262204170e-04
2.817000000000000000e+03 6.731334686279296875e+01 2.263074684143066406e+01 1.211120858788490295e-01 4.603181183338165283e-01 1.744290590286254883e-01 1.891605854034423828e-01
2.818000000000000000e+03 7.313120841979980469e+00 -2.864625549316406250e+01 -3.017686121165752411e-02 2.902619354426860809e-02 -3.452002711128443480e-04 1.866043657064437866e-01
2.819000000000000000e+03 3.833938980102539062e+01 -2.763151741027832031e+01 -1.090779993683099747e-02 5.404670722782611847e-03 -1.650938647799193859e-03 9.702488896436989307e-04
2.820000000000000000e+03 7.557997131347656250e+01 3.699001693725585938e+01 -3.060955367982387543e-02 -3.818723857402801514e-01 -1.237445771694183350e-01 7.077036052942276001e-02
2.821000000000000000e+03 6.383108520507812500e+01 2.895851898193359375e+01 -1.446356475353240967e-01 4.881760776042938232e-01 1.030621305108070374e-01 1.691063307225704193e-02
2.822000000000000000e+03 1.945029449462890625e+01 2.993966484069824219e+01 6.580715853488072753e-05 -4.333241377025842667e-03 -1.280230237171053886e-03 7.690523751080036163e-03
2.823000000000000000e+03 1.008263492584228516e+01 -3.093452072143554688e+01 -8.466766774654388428e-02 2.129791527986526489e-01 3.849344328045845032e-02 1.163427159190177917e-01
2.824000000000000000e+03 3.788663482666015625e+01 -3.261205673217773438e+01 -1.346638891845941544e-04 8.377492427825927734e-03 2.472848398610949516e-03 3.970498684793710709e-03
2.825000000000000000e+03 7.032185363769531250e+01 3.056480216979980469e+01 -1.024399176239967346e-01 -2.430899039609357715e-04 -3.080490045249462128e-02 1.960931718349456787e-01
2.826000000000000000e+03 8.973987579345703125e+00 3.520947265625000000e+01 1.137893879786133766e-03 -3.753457218408584595e-03 -7.846690132282674313e-04 2.725970698520541191e-03
2.827000000000000000e+03 6.742395782470703125e+01 -3.606232070922851562e+01 -1.310218158323550597e-05 -3.686566196847707033e-04 -1.145276401075534523e-04 1.252234214916825294e-04
2.828000000000000000e+03 2.035449218750000000e+01 3.189930152893066406e+01 2.601293148472905159e-03 -4.836928099393844604e-03 -6.706905551254749298e-04 7.233303505927324295e-03
2.829000000000000000e+03 2.429269599914550781e+01 2.992094802856445312e+01 8.133711526170372963e-04 -5.320650525391101837e-03 -1.352183753624558449e-03 7.271358743309974670e-03
2.830000000000000000e+03 2.513257789611816406e+01 3.217412948608398438e+01 6.832171697169542313e-03 -4.114750307053327560e-03 8.152262889780104160e-04 5.538446828722953796e-03
2.831000000000000000e+03 3.956436538696289062e+01 2.801540374755859375e+01 1.201002206653356552e-02 2.381007187068462372e-02 1.074602827429771423e-02 -1.217039674520492554e-02
2.832000000000000000e+03 6.266267395019531250e+01 3.141951370239257812e+01 -1.628184169530868530e-01 4.149777293205261230e-01 7.564779371023178101e-02 -2.850040793418884277e-02
2.833000000000000000e+03 6.768942260742187500e+01 2.406912994384765625e+01 5.138945206999778748e-02 4.105612933635711670e-01 1.385852247476577759e-01 2.071118652820587158e-01
2.834000000000000000e+03 4.589022064208984375e+01 2.572978782653808594e+01 3.835691884160041809e-02 2.015393041074275970e-02 1.755325496196746826e-02 -3.021780587732791901e-02
2.835000000000000000e+03 6.617877960205078125e+01 2.459730529785156250e+01 1.318419165909290314e-02 5.319822430610656738e-01 1.635499298572540283e-01 1.502088755369186401e-01
2.836000000000000000e+03 7.006365203857421875e+01 2.649506378173828125e+01 -2.604921720921993256e-02 6.004560366272926331e-02 1.019891630858182907e-02 2.413282543420791626e-01
2.837000000000000000e+03 6.882711029052734375e+01 2.245721054077148438e+01 1.112702116370201111e-01 2.668817937374114990e-01 1.134456023573875427e-01 2.170358002185821533e-01
2.838000000000000000e+03 6.716983795166015625e+01 2.621504592895507812e+01 -4.680263623595237732e-02 3.840071260929107666e-01 1.011613458395004272e-01 1.818766593933105469e-01
2.839000000000000000e+03 6.858512115478515625e+01 2.768088531494140625e+01 -7.358863204717636108e-02 2.245565354824066162e-01 4.529036954045295715e-02 2.024897933006286621e-01
2.840000000000000000e+03 4.301456832885742188e+01 2.780843544006347656e+01 2.263133227825164795e-02 3.431361541152000427e-02 1.708348467946052551e-02 -2.589688822627067566e-02
2.841000000000000000e+03 3.682477569580078125e+01 2.731965446472167969e+01 4.541113041341304779e-03 1.610036008059978485e-02 6.192441564053297043e-03 -5.588614847511053085e-03
2.842000000000000000e+03 4.048052978515625000e+01 -1.666489481925964355e+00 4.013006389141082764e-01 1.755186170339584351e-01 1.730457693338394165e-01 -2.596999406814575195e-01
2.843000000000000000e+03 3.867714309692382812e+01 4.337810516357421875e+00 -1.244584855157881975e-04 -1.883068944152910262e-05 -4.298675048630684614e-05 2.722841745708137751e-04
2.844000000000000000e+03 3.492126464843750000e+01 -1.277301311492919922e+01 3.825537351076491177e-05 4.218501271679997444e-05 2.413211586826946586e-05 -1.984408118005376309e-05
2.845000000000000000e+03 6.874797058105468750e+01 -1.954782295227050781e+01 -5.814842734253033996e-05 -1.055377288139425218e-05 -2.061065970337949693e-05 1.927562880155164748e-05
2.846000000000000000e+03 2.326413345336914062e+01 -2.940689086914062500e+00 -1.130973249673843384e-01 -2.438718676567077637e-01 -1.070907562971115112e-01 2.712908983230590820e-01
2.847000000000000000e+03 2.362662887573242188e+01 -3.549227714538574219e+00 -8.797092735767364502e-02 -3.570760786533355713e-01 -1.335141062736511230e-01 2.984510064125061035e-01
2.848000000000000000e+03 2.348481941223144531e+01 -4.950437545776367188e+00 -4.196004271507263184e-01 -5.806394815444946289e-01 -3.000719547271728516e-01 6.526440382003784180e-01
2.849000000000000000e+03 2.335628700256347656e+01 -5.699844360351562500e+00 -1.015385031700134277e+00 -4.048283100128173828e-01 -4.260640144348144531e-01 7.944001555442810059e-01
2.850000000000000000e+03 2.330633163452148438e+01 -5.898141384124755859e+00 -1.170358896255493164e+00 -3.334665298461914062e-01 -4.511476457118988037e-01 7.574397921562194824e-01
2.851000000000000000e+03 3.363206100463867188e+01 2.039590120315551758e+00 -9.309368033427745104e-05 -1.571713073644787073e-04 -7.507950067520141602e-05 -1.376921261453389889e-07
2.852000000000000000e+03 6.787725830078125000e+01 -1.487264728546142578e+01 -8.031060546636581421e-02 5.639433860778808594e-03 -2.240135148167610168e-02 5.008815601468086243e-02
2.853000000000000000e+03 2.690327453613281250e+01 -4.267212390899658203e+00 -1.957056671380996704e-01 7.366198301315307617e-02 -3.661310672760009766e-02 -1.008160412311553955e-01
2.854000000000000000e+03 2.711711502075195312e+01 -5.072711944580078125e+00 -4.504725933074951172e-01 2.492412477731704712e-01 -6.036939844489097595e-02 -1.372589617967605591e-01
2.855000000000000000e+03 2.709160232543945312e+01 -5.286746501922607422e+00 -5.866989493370056152e-01 3.359930813312530518e-01 -7.521177083253860474e-02 -1.584707498550415039e-01
2.856000000000000000e+03 2.703660774230957031e+01 -5.680239200592041016e+00 -7.991901636123657227e-01 4.658373892307281494e-01 -1.000058352947235107e-01 -1.579749882221221924e-01
2.857000000000000000e+03 2.669275665283203125e+01 -6.634130477905273438e+00 -1.258164644241333008e+00 7.252812981605529785e-01 -1.598649919033050537e-01 1.659089624881744385e-01
2.858000000000000000e+03 2.625963401794433594e+01 -7.802410125732421875e+00 -4.301373362541198730e-01 1.517074555158615112e-01 -8.352895826101303101e-02 8.681386709213256836e-01
2.859000000000000000e+03 4.054102706909179688e+01 -5.975509285926818848e-01 1.061682105064392090e-01 2.318322956562042236e-01 1.014001518487930298e-01 -1.484803408384323120e-01
2.860000000000000000e+03 6.910823822021484375e+01 -1.842546844482421875e+01 7.220588486234191805e-06 3.776415269385324791e-06 3.299101308584795333e-06 -5.563015292864292860e-06
2.861000000000000000e+03 6.848120117187500000e+01 -1.897549057006835938e+01 -1.784948653948958963e-05 -1.213998257298953831e-05 -8.996840733743738383e-06 7.391799044853542000e-06
2.862000000000000000e+03 6.860988616943359375e+01 -1.848994255065917969e+01 -8.816998160909861326e-06 1.674504346738103777e-05 2.378413455517147668e-06 -1.667913966230116785e-05
2.863000000000000000e+03 6.881951904296875000e+01 -1.900949478149414062e+01 1.260513636225368828e-05 1.872760577725784970e-07 3.837723852484486997e-06 -1.368680955238232855e-06
2.864000000000000000e+03 2.414986228942871094e+01 -8.113541603088378906e+00 2.410821020603179932e-01 -9.439271092414855957e-01 -2.108535021543502808e-01 -2.209921479225158691e-01
2.865000000000000000e+03 3.778876876831054688e+01 5.734155654907226562e+00 9.123822092078626156e-04 2.122942678397521377e-04 3.374029474798589945e-04 -3.754594654310494661e-04
2.866000000000000000e+03 3.584924316406250000e+01 -1.362433147430419922e+01 1.172475604107603431e-04 -2.097715196214267053e-06 3.454495163168758154e-05 6.729774031555280089e-05
2.867000000000000000e+03 4.752369880676269531e+00 -3.749235534667968750e+01 -3.197538107633590698e-02 -1.867166757583618164e-01 -6.560761481523513794e-02 5.567158758640289307e-02
2.868000000000000000e+03 2.868392372131347656e+01 -3.119331836700439453e+00 -7.110374420881271362e-02 1.089392155408859253e-01 1.135064288973808289e-02 9.892650693655014038e-02
2.869000000000000000e+03 2.276605224609375000e+01 -5.688035964965820312e+00 -9.215540885925292969e-01 -1.327385157346725464e-01 -3.162877857685089111e-01 6.114779114723205566e-01
2.870000000000000000e+03 1.778645133972167969e+01 3.787926435470581055e+00 5.318927287589758635e-05 1.712222547212149948e-05 2.109344859491102397e-05 3.161927816108800471e-05
2.871000000000000000e+03 2.304990196228027344e+01 -4.558811664581298828e+00 -3.735253810882568359e-01 -3.762989342212677002e-01 -2.249472886323928833e-01 5.769861340522766113e-01
2.872000000000000000e+03 2.266727447509765625e+01 -4.377579689025878906e+00 -4.087621271610260010e-01 -2.575680613517761230e-01 -1.998990476131439209e-01 5.683730244636535645e-01
2.873000000000000000e+03 2.299123573303222656e+01 -5.056678771972656250e+00 -6.013768315315246582e-01 -3.477011024951934814e-01 -2.847234010696411133e-01 6.719490289688110352e-01
2.874000000000000000e+03 2.285210800170898438e+01 -5.253828525543212891e+00 -7.046540379524230957e-01 -2.451570183038711548e-01 -2.849433124065399170e-01 6.750209927558898926e-01
2.875000000000000000e+03 2.195585727691650391e+00 -3.699259567260742188e+01 -1.088342908769845963e-02 -3.014070987701416016e-01 -9.368715435266494751e-02 4.695561155676841736e-02
2.876000000000000000e+03 7.747595977783203125e+01 -1.323273372650146484e+01 -2.940836921334266663e-02 -2.308375015854835510e-02 -1.574763655662536621e-02 -2.820822410285472870e-02
2.877000000000000000e+03 3.181961822509765625e+01 -3.281035184860229492e+00 1.267895847558975220e-01 2.822322584688663483e-02 4.650384560227394104e-02 2.664445042610168457e-01
2.878000000000000000e+03 2.794042015075683594e+01 -4.210880756378173828e+00 -2.510741353034973145e-01 2.183529585599899292e-01 -9.816357865929603577e-03 3.617460653185844421e-02
2.879000000000000000e+03 1.158833503723144531e+01 -1.493387317657470703e+01 4.018760025501251221e-01 7.215453982353210449e-01 3.370264172554016113e-01 -8.594369515776634216e-03
2.880000000000000000e+03 2.427087593078613281e+01 2.678205871582031250e+01 -8.146916516125202179e-03 -7.180698681622743607e-03 -4.598284605890512466e-03 9.472899138927459717e-03
2.881000000000000000e+03 5.175562667846679688e+01 3.178731346130371094e+01 -3.372614504769444466e-03 1.747058033943176270e-01 5.139995738863945007e-02 -1.256451904773712158e-01
2.882000000000000000e+03 6.981207275390625000e+01 -1.912894058227539062e+01 8.810892722976859659e-06 1.496997174399439245e-05 7.134259249141905457e-06 2.214557525803684257e-06
2.883000000000000000e+03 7.287368774414062500e+01 3.531749725341796875e+01 -8.423308283090591431e-02 -2.089945375919342041e-01 -8.796828240156173706e-02 1.225991547107696533e-01
2.884000000000000000e+03 2.228699111938476562e+01 -5.781394004821777344e+00 -8.393335938453674316e-01 5.086331814527511597e-02 -2.365410774946212769e-01 4.983586668968200684e-01
2.885000000000000000e+03 2.198758316040039062e+01 -7.217922210693359375e+00 -6.828384399414062500e-01 1.658667325973510742e-01 -1.550915092229843140e-01 5.400408804416656494e-02
2.886000000000000000e+03 2.270653533935546875e+01 -4.593631267547607422e+00 -4.576048851013183594e-01 -2.576922476291656494e-01 -2.145891487598419189e-01 5.915138125419616699e-01
2.887000000000000000e+03 2.752783584594726562e+01 -6.042539596557617188e+00 -7.922944426536560059e-01 7.326365113258361816e-01 -1.789738424122333527e-02 1.708082556724548340e-01
2.888000000000000000e+03 2.708452415466308594e+01 -5.895523548126220703e+00 -8.379620909690856934e-01 5.410010218620300293e-01 -8.908833563327789307e-02 -8.243335038423538208e-02
2.889000000000000000e+03 2.727780342102050781e+01 -5.606911182403564453e+00 -6.960271000862121582e-01 4.922435581684112549e-01 -6.113506108522415161e-02 -5.675207823514938354e-02
2.890000000000000000e+03 2.799581909179687500e+01 -4.773445129394531250e+00 -3.704640567302703857e-01 3.281378448009490967e-01 -1.269786432385444641e-02 6.208895519375801086e-02
2.891000000000000000e+03 3.464513540267944336e+00 3.552859115600585938e+01 1.635677908780053258e-04 -4.040098283439874649e-03 -1.162959146313369274e-03 1.126811490394175053e-03
2.892000000000000000e+03 5.456535339355468750e+00 -3.445809173583984375e+01 -4.633040353655815125e-02 -1.671910285949707031e-01 -6.405643373727798462e-02 1.050235554575920105e-01
2.893000000000000000e+03 3.973340749740600586e+00 -3.021770477294921875e+01 -1.877783052623271942e-02 -3.110378086566925049e-01 -9.894469380378723145e-02 1.472521275281906128e-01
2.894000000000000000e+03 7.142029285430908203e+00 -3.604560089111328125e+01 -7.586072385311126709e-02 -4.110389947891235352e-02 -3.508938476443290710e-02 9.663259983062744141e-02
2.895000000000000000e+03 5.829224586486816406e+00 -2.860288429260253906e+01 -2.092541567981243134e-02 -1.500972658395767212e-01 -5.130680277943611145e-02 1.760052442550659180e-01
2.896000000000000000e+03 2.212185668945312500e+01 -3.303315639495849609e+00 -2.963584363460540771e-01 -1.308335661888122559e-01 -1.281576007604598999e-01 4.073739945888519287e-01
2.897000000000000000e+03 5.710187435150146484e+00 -4.162103652954101562e+00 -1.496125459671020508e-01 -5.802459269762039185e-02 -6.229114159941673279e-02 -2.617529034614562988e-01
2.898000000000000000e+03 3.767785644531250000e+01 4.588998794555664062e+00 -2.089465851895511150e-04 3.966445219703018665e-04 5.630938176182098687e-05 1.501058868598192930e-04
2.899000000000000000e+03 5.999469757080078125e+01 -2.509096562862396240e-01 6.123923063278198242e-01 6.910052299499511719e-01 3.910192549228668213e-01 4.957073032855987549e-01
2.900000000000000000e+03 7.881541442871093750e+01 -1.968297576904296875e+01 -3.877762537740636617e-06 -4.055905833411088679e-07 -1.285005964746233076e-06 7.278190992110467050e-07
2.901000000000000000e+03 3.202223968505859375e+01 -3.769299507141113281e+00 9.599505364894866943e-02 3.110990673303604126e-02 3.813148662447929382e-02 2.933464348316192627e-01
2.902000000000000000e+03 3.148299980163574219e+01 -4.357846736907958984e+00 3.706555441021919250e-02 3.736902400851249695e-02 2.233037352561950684e-02 3.316285908222198486e-01
2.903000000000000000e+03 3.449169540405273438e+01 -4.343343734741210938e+00 1.887236237525939941e-01 -1.583598554134368896e-01 9.109130129218101501e-03 2.060847282409667969e-01
2.904000000000000000e+03 4.448212051391601562e+01 -3.354986572265625000e+01 2.120690187439322472e-04 -2.052828640444204211e-04 2.035849320236593485e-06 3.778174752369523048e-03
2.905000000000000000e+03 6.269890213012695312e+01 -3.417766571044921875e+01 -3.050137311220169067e-04 -3.814901574514806271e-04 -2.059511753031983972e-04 4.919304628856480122e-04
2.906000000000000000e+03 1.709543991088867188e+01 -8.011335372924804688e+00 6.323128193616867065e-02 4.715783894062042236e-01 1.604429036378860474e-01 5.723188072443008423e-02
2.907000000000000000e+03 3.978119277954101562e+01 -3.686930656433105469e+00 6.810809373855590820e-01 -1.439358890056610107e-01 1.611435264348983765e-01 -5.030099302530288696e-02
2.908000000000000000e+03 4.174401092529296875e+01 -2.828586387634277344e+01 -7.695302367210388184e-03 4.462440032511949539e-03 -9.698587236925959587e-04 4.080932587385177612e-03
2.909000000000000000e+03 5.423552322387695312e+01 2.926389884948730469e+01 4.706977680325508118e-02 1.951853930950164795e-01 7.267655432224273682e-02 -1.828496754169464111e-01
2.910000000000000000e+03 4.629579162597656250e+01 -8.662836074829101562e+00 3.579509556293487549e-01 2.330239862203598022e-01 1.772924810647964478e-01 3.269404768943786621e-01
2.911000000000000000e+03 3.431556320190429688e+01 -3.283917188644409180e+00 2.514924407005310059e-01 -9.048160165548324585e-02 4.830325394868850708e-02 1.500981450080871582e-01
2.912000000000000000e+03 3.490591049194335938e+01 -3.110071182250976562e+00 3.072689175605773926e-01 -1.354874223470687866e-01 5.153444409370422363e-02 1.147205829620361328e-01
2.913000000000000000e+03 6.397933959960937500e+01 -9.623841285705566406e+00 -7.554742097854614258e-01 -4.216748476028442383e-01 -3.531447052955627441e-01 -4.528489708900451660e-01
2.914000000000000000e+03 2.246364974975585938e+01 -5.017457962036132812e+00 -6.057283878326416016e-01 -1.377767026424407959e-01 -2.230515182018280029e-01 5.898240208625793457e-01
2.915000000000000000e+03 2.266093254089355469e+01 -5.097946166992187500e+00 -6.465287804603576660e-01 -1.861943900585174561e-01 -2.498169541358947754e-01 6.215866208076477051e-01
2.916000000000000000e+03 2.250343704223632812e+01 -5.210233688354492188e+00 -6.781781315803527832e-01 -1.150788664817810059e-01 -2.379771023988723755e-01 5.869129300117492676e-01
2.917000000000000000e+03 5.238256454467773438e+01 2.342292022705078125e+01 1.190997287631034851e-01 8.916972205042839050e-03 3.840501233935356140e-02 -7.560351490974426270e-02
2.918000000000000000e+03 4.918471527099609375e+01 -9.122524261474609375e+00 2.415468394756317139e-01 5.323867797851562500e-01 2.321800887584686279e-01 4.037226438522338867e-01
2.919000000000000000e+03 7.126712036132812500e+01 -1.234326457977294922e+01 -2.807652652263641357e-01 3.708615154027938843e-02 -7.310373336076736450e-02 -1.058056801557540894e-01
2.920000000000000000e+03 6.228777694702148438e+01 -8.690691947937011719e+00 -4.370527565479278564e-01 -2.467741072177886963e-01 -2.051480561494827271e-01 -3.043413758277893066e-01
2.921000000000000000e+03 2.145019149780273438e+01 -2.615142107009887695e+00 -3.234100341796875000e-01 -2.972891554236412048e-02 -1.059416830539703369e-01 3.380426168441772461e-01
2.922000000000000000e+03 2.120021820068359375e+01 -6.253184318542480469e+00 -6.338115334510803223e-01 2.176366299390792847e-01 -1.248524785041809082e-01 2.851004302501678467e-01
2.923000000000000000e+03 7.347399902343750000e+01 -1.975324821472167969e+01 3.852726513287052512e-05 -6.549657882715109736e-06 9.593282811692915857e-06 -7.288897450052900240e-06
2.924000000000000000e+03 1.391871643066406250e+01 -9.673802375793457031e+00 2.379733473062515259e-01 5.238360762596130371e-01 2.285428196191787720e-01 -6.886459887027740479e-02
2.925000000000000000e+03 2.881186485290527344e+01 -6.532990932464599609e+00 -3.000909388065338135e-01 5.691119432449340820e-01 8.070629835128784180e-02 6.449190974235534668e-01
2.926000000000000000e+03 2.862825393676757812e+00 -2.282714271545410156e+01 2.112199366092681885e-02 -6.401842832565307617e-01 -1.857186853885650635e-01 9.842465817928314209e-02
2.927000000000000000e+03 1.567096042633056641e+01 5.845015525817871094e+00 2.303229302924592048e-05 6.083671178203076124e-05 2.516070162528194487e-05 3.881458542309701443e-05
2.928000000000000000e+03 4.190785217285156250e+01 -5.558244705200195312e+00 6.957092881202697754e-01 -5.305582657456398010e-03 2.071211040019989014e-01 8.812073618173599243e-03
2.929000000000000000e+03 2.234576606750488281e+01 3.274768447875976562e+01 4.977421835064888000e-03 -4.661371931433677673e-03 9.481490997131913900e-05 5.983632523566484451e-03
2.930000000000000000e+03 6.176723480224609375e+01 3.427051007747650146e-01 4.897695779800415039e-01 6.049375534057617188e-01 3.284121453762054443e-01 2.881933152675628662e-01
2.931000000000000000e+03 6.239542388916015625e+01 -7.651266098022460938e+00 -1.859139353036880493e-01 -1.968548893928527832e-01 -1.148306429386138916e-01 -2.962680160999298096e-01
2.932000000000000000e+03 3.961125946044921875e+01 1.810569763183593750e+01 -1.664389669895172119e-02 1.133483368903398514e-02 -1.592718763276934624e-03 2.545397263020277023e-03
2.933000000000000000e+03 6.915080261230468750e+01 2.395346832275390625e+01 5.143857374787330627e-02 1.863868236541748047e-01 7.134761661291122437e-02 2.366585135459899902e-01
2.934000000000000000e+03 7.438015937805175781e+00 2.232863998413085938e+01 -8.696966688148677349e-04 -4.067096160724759102e-04 -3.829218912869691849e-04 7.493399898521602154e-04
2.935000000000000000e+03 5.187710571289062500e+01 -1.023172283172607422e+01 -3.198470175266265869e-01 4.547924995422363281e-01 4.048364236950874329e-02 1.245899349451065063e-01
2.936000000000000000e+03 2.221042633056640625e+01 -5.051444053649902344e+00 -6.225600838661193848e-01 -7.108063250780105591e-02 -2.080922126770019531e-01 5.536711215972900391e-01
2.937000000000000000e+03 2.229317855834960938e+01 -5.250699043273925781e+00 -7.188430428504943848e-01 -7.523608952760696411e-02 -2.382237464189529419e-01 5.978587865829467773e-01
2.938000000000000000e+03 5.915337562561035156e+00 -4.787783622741699219e+00 -1.296590417623519897e-01 -6.625854223966598511e-02 -5.877527222037315369e-02 -2.854040861129760742e-01
2.939000000000000000e+03 2.100753402709960938e+01 -3.594958066940307617e+00 -4.354420304298400879e-01 3.462347015738487244e-02 -1.202455610036849976e-01 4.160429239273071289e-01
2.940000000000000000e+03 2.171206092834472656e+01 -3.433611154556274414e+00 -3.519668877124786377e-01 -7.025626301765441895e-02 -1.266669481992721558e-01 4.225399792194366455e-01
2.941000000000000000e+03 2.208540153503417969e+01 -5.269776344299316406e+00 -7.051201462745666504e-01 -1.230890955775976181e-02 -2.152287214994430542e-01 5.441150069236755371e-01
2.942000000000000000e+03 6.769377899169921875e+01 -3.237225341796875000e+01 -5.416701606009155512e-05 -1.384056231472641230e-04 -5.777179467258974910e-05 4.375914068077690899e-05
2.943000000000000000e+03 6.731007385253906250e+01 -3.121710395812988281e+01 -1.100821555155562237e-05 -9.319093805970624089e-05 -3.125974399154074490e-05 -6.599807966267690063e-05
2.944000000000000000e+03 7.533512592315673828e+00 -3.064218330383300781e+01 -6.000743433833122253e-02 1.411693636327981949e-02 -1.376715023070573807e-02 1.657209992408752441e-01
2.945000000000000000e+03 5.721083068847656250e+01 3.371104049682617188e+01 -1.239946335554122925e-01 3.173148036003112793e-01 5.799605697393417358e-02 -1.107211932539939880e-01
2.946000000000000000e+03 2.764263534545898438e+01 -5.771790981292724609e+00 -6.552644968032836914e-01 6.365028619766235352e-01 -5.628495011478662491e-03 1.465499401092529297e-01
2.947000000000000000e+03 1.595775890350341797e+01 -3.200669479370117188e+01 -7.791008800268173218e-02 3.773057460784912109e-01 8.981869369745254517e-02 -6.400890648365020752e-02
2.948000000000000000e+03 4.425239086151123047e+00 3.755629730224609375e+01 4.982015234418213367e-04 -4.343838430941104889e-03 -1.153691089712083340e-03 1.272130873985588551e-03
2.949000000000000000e+03 6.956848144531250000e+01 -2.970731163024902344e+01 6.838706030976027250e-05 -8.984178566606715322e-05 -6.436417606892064214e-06 -8.053881174419075251e-05
2.950000000000000000e+03 5.063285064697265625e+01 2.599880027770996094e+01 9.354022145271301270e-02 4.641186818480491638e-02 4.198562726378440857e-02 -9.614670276641845703e-02
2.951000000000000000e+03 3.113466644287109375e+01 2.498506164550781250e+01 -8.751577697694301605e-03 -2.920740982517600060e-03 -3.501695813611149788e-03 3.171671181917190552e-03
2.952000000000000000e+03 2.984748649597167969e+01 2.919082069396972656e+01 3.749955212697386742e-03 -3.172567630826961249e-06 1.124034752137959003e-03 2.025635214522480965e-03
2.953000000000000000e+03 1.577396106719970703e+01 2.728564071655273438e+01 -4.813537467271089554e-03 -1.503805513493716717e-03 -1.895202905870974064e-03 6.139148492366075516e-03
2.954000000000000000e+03 3.943744659423828125e+01 -2.993630599975585938e+01 -6.744502577930688858e-03 6.711477879434823990e-03 -9.907521416607778519e-06 3.979335539042949677e-03
2.955000000000000000e+03 9.904852867126464844e+00 -2.832266807556152344e+01 -4.503020271658897400e-02 2.478430271148681641e-01 6.084384769201278687e-02 1.455562710762023926e-01
2.956000000000000000e+03 8.503153800964355469e+00 -2.419989585876464844e+01 8.684735000133514404e-02 1.978257000446319580e-01 8.540191501379013062e-02 1.727662235498428345e-01
2.957000000000000000e+03 2.851753425598144531e+01 -5.774885177612304688e+00 -4.256866574287414551e-01 5.157225728034973145e-01 2.701077796518802643e-02 3.627299666404724121e-01
2.958000000000000000e+03 5.167135238647460938e+00 -2.272513961791992188e+01 7.472605258226394653e-02 -2.840935587882995605e-01 -6.281025707721710205e-02 1.328415423631668091e-01
2.959000000000000000e+03 7.167341613769531250e+01 -2.773463821411132812e+01 7.563587132608518004e-05 -4.661621278501115739e-05 8.705896107130683959e-06 -7.374646520474925637e-05
2.960000000000000000e+03 3.294248580932617188e+01 2.529794883728027344e+01 -6.088697817176580429e-03 2.562063513323664665e-03 -1.057990244589745998e-03 8.443572442047297955e-04
2.961000000000000000e+03 3.076388740539550781e+01 2.700500869750976562e+01 -1.824680133722722530e-03 -8.259803289547562599e-04 -7.951981388032436371e-04 2.029358409345149994e-03
2.962000000000000000e+03 2.080435943603515625e+01 -5.914473056793212891e+00 -5.524947643280029297e-01 2.450576871633529663e-01 -9.223112463951110840e-02 3.086254596710205078e-01
2.963000000000000000e+03 3.711682891845703125e+01 -3.172162532806396484e+00 4.334017634391784668e-01 -2.156110107898712158e-01 6.533722579479217529e-02 1.836055330932140350e-02
2.964000000000000000e+03 3.273631668090820312e+01 2.750385093688964844e+01 8.798452909104526043e-04 4.386709537357091904e-03 1.579966396093368530e-03 -8.150351350195705891e-04
2.965000000000000000e+03 3.487496566772460938e+01 2.756538772583007812e+01 3.463826142251491547e-03 1.069282181560993195e-02 4.246994387358427048e-03 -3.216712968423962593e-03
2.966000000000000000e+03 4.121010208129882812e+01 -2.024519348144531250e+01 -1.174919656477868557e-03 -8.287128730444237590e-05 -3.773372736759483814e-04 2.722294593695551157e-04
2.967000000000000000e+03 4.188933944702148438e+01 -1.951308250427246094e+01 -6.598837790079414845e-04 -1.455992169212549925e-04 -2.416448987787589431e-04 1.041355644701980054e-04
2.968000000000000000e+03 4.112100982666015625e+01 -1.948726844787597656e+01 -5.912060732953250408e-04 -3.407550684642046690e-04 -2.795883337967097759e-04 8.214731496991589665e-05
2.969000000000000000e+03 2.905566024780273438e+01 -5.147665977478027344e+00 -2.726804912090301514e-01 3.388307392597198486e-01 1.984507776796817780e-02 3.016597330570220947e-01
2.970000000000000000e+03 2.913329315185546875e+01 -6.001539230346679688e+00 -2.882897853851318359e-01 4.213373959064483643e-01 3.991428390145301819e-02 4.750574827194213867e-01
2.971000000000000000e+03 2.892216491699218750e+01 -5.664265155792236328e+00 -2.942709922790527344e-01 4.165188670158386230e-01 3.667436540126800537e-02 4.186215400695800781e-01
2.972000000000000000e+03 3.973829269409179688e+01 -2.852786064147949219e+01 -9.001431055366992950e-03 6.379493512213230133e-03 -7.865812513045966625e-04 3.340520430356264114e-03
2.973000000000000000e+03 9.194851875305175781e+00 2.823518562316894531e+01 -1.856889692135155201e-03 -1.139406464062631130e-03 -8.988888585008680820e-04 3.071987070143222809e-03
2.974000000000000000e+03 7.591118621826171875e+01 -3.185940742492675781e+01 -1.304380566580221057e-05 4.670145790441893041e-05 1.009729567158501595e-05 -6.743724952684715390e-05
2.975000000000000000e+03 1.457383537292480469e+01 -8.340009689331054688e+00 6.316146254539489746e-02 4.429000914096832275e-01 1.518184691667556763e-01 -8.478060364723205566e-02
2.976000000000000000e+03 6.159269809722900391e+00 1.545503997802734375e+01 -4.232348601362900808e-06 -2.377067867200821638e-04 -7.258174446178600192e-05 1.925153810589108616e-05
2.977000000000000000e+03 6.198844528198242188e+01 -4.987063884735107422e+00 2.595432400703430176e-01 1.818881928920745850e-02 8.331961929798126221e-02 -1.347363144159317017e-01
2.978000000000000000e+03 4.112060928344726562e+01 -1.871082496643066406e+01 -4.909253912046551704e-04 -2.274629223393276334e-04 -2.155164838768541813e-04 4.268979319022037089e-05
2.979000000000000000e+03 6.624422454833984375e+01 -3.896669626235961914e+00 1.069845706224441528e-01 -2.017655782401561737e-02 2.604240551590919495e-02 -3.711662590503692627e-01
2.980000000000000000e+03 7.161352539062500000e+01 -1.171125411987304688e+01 -2.588360905647277832e-01 3.628332912921905518e-02 -6.676582247018814087e-02 -1.335660368204116821e-01
2.981000000000000000e+03 5.123347759246826172e+00 1.007807254791259766e+01 1.223377621499821544e-04 1.044068881128623616e-06 3.701454988913610578e-05 -9.241647785529494286e-05
2.982000000000000000e+03 1.977349853515625000e+01 -5.785108566284179688e+00 -4.377500414848327637e-01 3.180443644523620605e-01 -3.591169789433479309e-02 2.573085129261016846e-01
2.983000000000000000e+03 7.127413749694824219e+00 1.795524978637695312e+01 -3.824990999419242144e-04 -1.356596767436712980e-04 -1.554476330056786537e-04 -4.638854443328455091e-05
2.984000000000000000e+03 5.055085659027099609e+00 9.150703430175781250e+00 -2.576944825705140829e-05 -6.520943861687555909e-05 -2.729366678977385163e-05 -2.238147499156184494e-05
2.985000000000000000e+03 9.437705039978027344e+00 2.673563385009765625e+01 -2.351352944970130920e-03 -6.455216789618134499e-04 -8.990624337457120419e-04 2.787909470498561859e-03
2.986000000000000000e+03 3.783161163330078125e+01 -5.432395935058593750e+00 3.217731714248657227e-01 -2.908886969089508057e-01 9.265336208045482635e-03 1.782358884811401367e-01
2.987000000000000000e+03 5.746944427490234375e+01 -9.836082458496093750e+00 -5.437015891075134277e-01 1.189981475472450256e-01 -1.274110376834869385e-01 -2.929989397525787354e-01
2.988000000000000000e+03 6.409095001220703125e+01 -3.125862360000610352e+00 2.924843728542327881e-01 9.464266896247863770e-02 1.161381155252456665e-01 -1.746972054243087769e-01
2.989000000000000000e+03 8.468520164489746094e+00 -7.227041721343994141e+00 -4.673083126544952393e-02 4.385806620121002197e-02 -8.618299034424126148e-04 -3.435359597206115723e-01
2.990000000000000000e+03 1.114732551574707031e+01 -7.056584835052490234e+00 -7.725673913955688477e-02 1.906117647886276245e-01 3.400650992989540100e-02 -2.714738249778747559e-01
2.991000000000000000e+03 8.707695960998535156e+00 2.593549156188964844e+01 -1.560464268550276756e-03 -7.183083798736333847e-04 -6.836318061687052250e-04 2.141897100955247879e-03
2.992000000000000000e+03 5.819570159912109375e+01 -9.508444786071777344e+00 -4.488074183464050293e-01 8.840663731098175049e-02 -1.081202253699302673e-01 -2.919026911258697510e-01
2.993000000000000000e+03 7.517240905761718750e+01 -2.933639526367187500e+01 1.133755904447752982e-05 3.683173190438537858e-06 4.506219738686922938e-06 -7.507215195801109076e-05
2.994000000000000000e+03 8.737649917602539062e+00 7.312909603118896484e+00 3.460337393335066736e-05 2.361730912525672466e-05 1.746620546327903867e-05 -6.153019967314321548e-06
2.995000000000000000e+03 7.207617282867431641e+00 8.974056243896484375e+00 5.143759699421934783e-05 -8.652907854411751032e-05 -1.052744482876732945e-05 -6.215291250555310398e-06
2.996000000000000000e+03 7.309745788574218750e+01 1.056747627258300781e+01 1.260753870010375977e-01 -3.613924384117126465e-01 -7.059511542320251465e-02 -9.409072995185852051e-02
2.997000000000000000e+03 7.097773742675781250e+01 9.133810997009277344e+00 1.844699680805206299e-01 4.737389739602804184e-03 5.676220729947090149e-02 -1.222935616970062256e-01
2.998000000000000000e+03 7.203513336181640625e+01 1.041331577301025391e+01 1.696277558803558350e-01 -1.661753207445144653e-01 1.035731169395148754e-03 -8.844868093729019165e-02
2.999000000000000000e+03 7.107609558105468750e+01 -5.456983447074890137e-01 1.007587537169456482e-01 -1.405522823333740234e-01 -1.193805877119302750e-02 -3.859749436378479004e-01
3.000000000000000000e+03 3.359871292114257812e+01 1.501616358757019043e+00 1.660282432567328215e-04 -1.056681721820496023e-04 1.810801950341556221e-05 -1.309844992647413164e-05
3.001000000000000000e+03 3.386261749267578125e+01 1.048467040061950684e+00 -2.335589488211553544e-05 -1.505322434240952134e-04 -5.216644058236852288e-05 -7.197194645414128900e-05
3.002000000000000000e+03 3.461767959594726562e+01 9.406403899192810059e-01 2.151936059817671776e-04 1.150415046140551567e-04 9.907053754432126880e-05 -2.055281038337852806e-05
3.003000000000000000e+03 3.428038787841796875e+01 6.043561100959777832e-01 -1.003819561447016895e-04 4.092989183845929801e-05 -1.783562038326635957e-05 7.381199247902259231e-05
3.004000000000000000e+03 3.448412704467773438e+01 1.531275749206542969e+00 -1.698090491117909551e-04 2.719661461014766246e-05 -4.278373307897709310e-05 -2.563711313996464014e-05
3.005000000000000000e+03 3.088315010070800781e+01 1.369637846946716309e-01 -1.091064987122081220e-04 1.795658608898520470e-04 2.113781010848470032e-05 -3.409945566090755165e-05
3.006000000000000000e+03 3.085827255249023438e+01 4.608943760395050049e-01 1.019335177261382341e-04 -9.022009180625900626e-06 2.787345329124946147e-05 -2.151457010768353939e-05
3.007000000000000000e+03 3.164820289611816406e+01 3.707765936851501465e-01 6.225786819413769990e-06 -5.253743074717931449e-05 -1.389349290548125282e-05 3.083750698351650499e-06
3.008000000000000000e+03 3.293296813964843750e+01 -1.437336444854736328e+00 3.819298744201660156e-01 2.254302352666854858e-01 1.822080314159393311e-01 1.751361191272735596e-01
3.009000000000000000e+03 3.369779968261718750e+01 -1.458120226860046387e+00 3.327727913856506348e-01 4.828448873013257980e-03 1.012803763151168823e-01 5.247819796204566956e-02
3.010000000000000000e+03 3.284732055664062500e+01 -1.682937741279602051e+00 3.570654392242431641e-01 1.389774978160858154e-01 1.488128751516342163e-01 1.451280564069747925e-01
3.011000000000000000e+03 3.231448364257812500e+01 -1.727027297019958496e+00 3.068917095661163330e-01 1.016002297401428223e-01 1.225475817918777466e-01 2.150746285915374756e-01
3.012000000000000000e+03 3.330375671386718750e+01 -1.829273939132690430e+00 3.389334678649902344e-01 9.164323657751083374e-02 1.291730105876922607e-01 1.052307859063148499e-01
3.013000000000000000e+03 3.277976608276367188e+01 -1.938349246978759766e+00 2.800599932670593262e-01 8.637102693319320679e-02 1.099293008446693420e-01 1.794408410787582397e-01
3.014000000000000000e+03 3.212217712402343750e+01 -1.481541037559509277e+00 4.219254851341247559e-01 4.682478681206703186e-02 1.406250745058059692e-01 1.908403187990188599e-01
3.015000000000000000e+03 3.100585174560546875e+01 -8.920080184936523438e+00 -3.393923342227935791e-01 -1.431738883256912231e-01 -1.447698622941970825e-01 2.780643701553344727e-01
3.016000000000000000e+03 3.131526565551757812e+01 -8.545426368713378906e+00 -3.186573684215545654e-01 -1.065494716167449951e-01 -1.275620460510253906e-01 2.849469482898712158e-01
3.017000000000000000e+03 3.186168861389160156e+01 -9.464828491210937500e+00 -4.484811425209045410e-01 -1.059458181262016296e-01 -1.663280874490737915e-01 1.961809545755386353e-01
3.018000000000000000e+03 3.251086044311523438e+01 -9.066474914550781250e+00 -4.411878585815429688e-01 -1.215861365199089050e-01 -1.688321977853775024e-01 2.674704790115356445e-01
3.019000000000000000e+03 3.371839904785156250e+01 -9.191536903381347656e+00 -5.140140056610107422e-01 -1.433143168687820435e-01 -1.971984952688217163e-01 3.159399330615997314e-01
3.020000000000000000e+03 3.426917648315429688e+01 -1.016659069061279297e+01 -7.722229361534118652e-01 -1.103413626551628113e-01 -2.647692859172821045e-01 3.118909895420074463e-01
3.021000000000000000e+03 3.580917358398437500e+01 -1.068415164947509766e+01 -9.897744059562683105e-01 -1.553044468164443970e-01 -3.435236513614654541e-01 3.966947495937347412e-01
3.022000000000000000e+03 3.609215927124023438e+01 -9.995286941528320312e+00 -7.755706310272216797e-01 -2.316820621490478516e-01 -3.021757900714874268e-01 4.245245456695556641e-01
3.023000000000000000e+03 3.657500457763671875e+01 -1.094214725494384766e+01 -1.131634354591369629e+00 -1.864935904741287231e-01 -3.954384028911590576e-01 4.520235359668731689e-01
3.024000000000000000e+03 3.734017562866210938e+01 -1.120081138610839844e+01 -1.319001793861389160e+00 -3.049960136413574219e-01 -4.871993362903594971e-01 5.719810724258422852e-01
3.025000000000000000e+03 3.763973999023437500e+01 -1.052015495300292969e+01 -8.902628421783447266e-01 -3.957984149456024170e-01 -3.858183920383453369e-01 5.267547369003295898e-01
3.026000000000000000e+03 3.187426185607910156e+01 -8.957004547119140625e+00 -4.081883132457733154e-01 -1.147321462631225586e-01 -1.568761467933654785e-01 2.800167202949523926e-01
3.027000000000000000e+03 3.298913574218750000e+01 -8.844696044921875000e+00 -4.362638890743255615e-01 -1.372608542442321777e-01 -1.720574200153350830e-01 2.900355756282806396e-01
3.028000000000000000e+03 3.453558349609375000e+01 -9.469518661499023438e+00 -6.189424991607666016e-01 -1.743631362915039062e-01 -2.379916906356811523e-01 3.352152109146118164e-01
3.029000000000000000e+03 3.531685638427734375e+01 -9.733313560485839844e+00 -6.873703598976135254e-01 -1.922805458307266235e-01 -2.638952732086181641e-01 3.886094689369201660e-01
3.030000000000000000e+03 3.686627960205078125e+01 -1.025738620758056641e+01 -8.541020750999450684e-01 -3.020738661289215088e-01 -3.468527793884277344e-01 5.105298161506652832e-01
3.031000000000000000e+03 3.263451004028320312e+01 -9.674182891845703125e+00 -5.859612226486206055e-01 -7.668350636959075928e-02 -1.987934112548828125e-01 2.450603991746902466e-01
3.032000000000000000e+03 3.346028137207031250e+01 -9.892712593078613281e+00 -6.783739924430847168e-01 -1.193098723888397217e-01 -2.393051534891128540e-01 2.676297128200531006e-01
3.033000000000000000e+03 3.504216003417968750e+01 -1.042628192901611328e+01 -8.793441653251647949e-01 -1.431083977222442627e-01 -3.067357540130615234e-01 3.410595059394836426e-01
3.034000000000000000e+03 3.235822677612304688e+01 -8.564474105834960938e+00 -3.237286806106567383e-01 -1.266904324293136597e-01 -1.351257264614105225e-01 3.054552674293518066e-01
3.035000000000000000e+03 3.176610565185546875e+01 -8.452316284179687500e+00 -2.888832092285156250e-01 -1.139283999800682068e-01 -1.208434849977493286e-01 2.881341874599456787e-01
3.036000000000000000e+03 3.047583389282226562e+01 -4.882135987281799316e-01 1.512337625026702881e-01 1.487896777689456940e-02 4.983381927013397217e-02 2.414368838071823120e-02
3.037000000000000000e+03 2.937611007690429688e+01 -4.500006735324859619e-01 1.059812232851982117e-01 4.909876734018325806e-04 3.194166347384452820e-02 2.401305921375751495e-02
3.038000000000000000e+03 3.022586822509765625e+01 -1.316400766372680664e+00 1.195076107978820801e-01 1.351323910057544708e-02 3.990625590085983276e-02 8.653929084539413452e-02
3.039000000000000000e+03 2.871447563171386719e+01 -4.992029666900634766e-01 7.165010273456573486e-02 8.814087137579917908e-03 2.413925714790821075e-02 1.753174141049385071e-02
3.040000000000000000e+03 2.806721115112304688e+01 -9.454493522644042969e-01 3.781789168715476990e-02 1.086229551583528519e-02 1.460405625402927399e-02 2.774016000330448151e-02
3.041000000000000000e+03 2.865741729736328125e+01 -1.504474043846130371e+00 3.491890430450439453e-02 2.301104925572872162e-02 1.737898588180541992e-02 5.266418308019638062e-02
3.042000000000000000e+03 2.702323532104492188e+01 -1.146089076995849609e+00 1.448454055935144424e-02 7.269050460308790207e-03 6.526077166199684143e-03 1.584271714091300964e-02
3.043000000000000000e+03 2.667534446716308594e+01 -7.105588912963867188e-01 4.236706998199224472e-03 -5.401468370109796524e-04 1.108967931941151619e-03 3.892256645485758781e-03
3.044000000000000000e+03 2.748233604431152344e+01 -1.618556737899780273e+00 1.579067297279834747e-02 1.458688452839851379e-02 9.113267064094543457e-03 2.959136106073856354e-02
3.045000000000000000e+03 3.099446105957031250e+01 -1.178481101989746094e+00 1.829882711172103882e-01 -1.657734997570514679e-02 4.992327466607093811e-02 7.002213597297668457e-02
3.046000000000000000e+03 2.944693183898925781e+01 -1.437558531761169434e+00 7.087036967277526855e-02 2.212133072316646576e-02 2.789750881493091583e-02 6.718097627162933350e-02
3.047000000000000000e+03 2.733591079711914062e+01 -6.080904603004455566e-01 1.901473477482795715e-02 5.121274851262569427e-03 7.240802980959415436e-03 7.103006355464458466e-03
3.048000000000000000e+03 2.989335441589355469e+01 -7.312059402465820312e-01 1.110970526933670044e-01 -4.014180507510900497e-03 3.212486207485198975e-02 4.571964219212532043e-02
3.049000000000000000e+03 2.935321044921875000e+01 -9.462856054306030273e-01 7.910948246717453003e-02 1.752912439405918121e-02 2.899158187210559845e-02 4.517843201756477356e-02
3.050000000000000000e+03 2.801831054687500000e+01 -5.425308942794799805e-01 4.260532557964324951e-02 -1.885935198515653610e-03 1.221581734716892242e-02 1.157428603619337082e-02
3.051000000000000000e+03 2.870331382751464844e+01 -9.794598817825317383e-01 6.144746765494346619e-02 8.538046851754188538e-03 2.099565416574478149e-02 3.749513626098632812e-02
3.052000000000000000e+03 2.796617507934570312e+01 -1.356489419937133789e+00 2.797235362231731415e-02 1.794282346963882446e-02 1.377455331385135651e-02 3.432125225663185120e-02
3.053000000000000000e+03 2.754085350036621094e+01 -9.888810515403747559e-01 2.231355756521224976e-02 2.891567535698413849e-03 7.561537902802228928e-03 1.500866096466779709e-02
3.054000000000000000e+03 3.470178604125976562e+01 -2.625477313995361328e-02 3.545050919055938721e-01 -2.548572234809398651e-02 9.870581328868865967e-02 9.042785316705703735e-02
3.055000000000000000e+03 3.480463027954101562e+01 -7.595628499984741211e-01 3.656817078590393066e-01 -4.284344241023063660e-02 9.685148298740386963e-02 1.098378002643585205e-01
3.056000000000000000e+03 3.355125427246093750e+01 4.824572801589965820e-01 3.187010952387936413e-05 -2.179464645450934768e-04 -5.582290759775787592e-05 -3.790215487242676318e-05
3.057000000000000000e+03 3.286275482177734375e+01 1.366154551506042480e+00 -7.610448665218427777e-05 1.997920480789616704e-04 3.710627061082050204e-05 -2.782414412649814039e-05
3.058000000000000000e+03 3.228193283081054688e+01 9.034321308135986328e-01 -9.295222298533190042e-06 -9.324549318989738822e-05 -3.076221400988288224e-05 9.683540156402159482e-07
3.059000000000000000e+03 3.287930679321289062e+01 4.690015316009521484e-01 3.154368823743425310e-05 2.319348423043265939e-04 7.904355879873037338e-05 1.966115178220206872e-06
3.060000000000000000e+03 3.326515960693359375e+01 8.809211850166320801e-01 -3.695336999953724444e-05 -3.004949758178554475e-05 -2.010086063819471747e-05 6.859556742710992694e-05
3.061000000000000000e+03 2.951741981506347656e+01 -3.279185667634010315e-02 4.044743400299921632e-05 9.591322159394621849e-04 2.998739073518663645e-04 3.877942799590528011e-04
3.062000000000000000e+03 2.688651847839355469e+01 4.911503791809082031e-01 2.071409020572900772e-03 8.532330393791198730e-04 8.773925947025418282e-04 8.867890574038028717e-04
3.063000000000000000e+03 2.649583435058593750e+01 6.524201631546020508e-01 4.719186690635979176e-04 5.066202953457832336e-03 1.661436515860259533e-03 -7.281189318746328354e-04
3.064000000000000000e+03 2.631357765197753906e+01 -1.790881156921386719e-01 3.338314127177000046e-04 9.064857847988605499e-03 2.819606801494956017e-03 1.517722150310873985e-03
3.065000000000000000e+03 2.591490554809570312e+01 3.433449566364288330e-01 -3.912874031811952591e-03 7.474929094314575195e-03 1.068616402335464954e-03 -4.635882098227739334e-03
3.066000000000000000e+03 2.677953529357910156e+01 8.505731225013732910e-01 1.342765608569607139e-04 -2.455567475408315659e-03 -6.963873165659606457e-04 -4.692166112363338470e-04
3.067000000000000000e+03 2.782596778869628906e+01 5.826087594032287598e-01 7.488235860364511609e-05 -2.521332935430109501e-04 -5.317528120940551162e-05 -1.836723822634667158e-04
3.068000000000000000e+03 2.993951988220214844e+01 1.827919930219650269e-01 4.382620099931955338e-04 -5.883535413886420429e-05 1.138279912993311882e-04 1.127979267039336264e-04
3.069000000000000000e+03 3.011803436279296875e+01 6.747683510184288025e-03 -5.795810138806700706e-04 -6.651192088611423969e-04 -3.734100610017776489e-04 -2.707252569962292910e-04
3.070000000000000000e+03 2.708199691772460938e+01 -3.083082661032676697e-02 -8.110577618936076760e-05 -2.341124461963772774e-03 -7.266690954566001892e-04 -3.194648597855120897e-04
3.071000000000000000e+03 2.702083778381347656e+01 8.066630959510803223e-01 -8.868196164257824421e-04 -2.744582947343587875e-03 -1.089420751668512821e-03 3.116406733170151711e-03
3.072000000000000000e+03 2.914468383789062500e+01 3.426322638988494873e-01 -6.094410855439491570e-05 2.186307683587074280e-04 4.730599903268739581e-05 9.177967876894399524e-05
3.073000000000000000e+03 2.791765022277832031e+01 1.627639681100845337e-02 -3.486596324364654720e-05 6.899276631884276867e-04 1.965185074368491769e-04 8.855266059981659055e-05
3.074000000000000000e+03 2.880649185180664062e+01 -1.081501692533493042e-02 4.263487062416970730e-05 -5.616903072223067284e-04 -1.557166251586750150e-04 -1.462869840906932950e-04
3.075000000000000000e+03 3.216930389404296875e+01 -3.035623431205749512e-01 1.457841098308563232e-01 2.568374946713447571e-02 5.144035443663597107e-02 -6.089805811643600464e-02
3.076000000000000000e+03 3.272078323364257812e+01 -9.904289841651916504e-01 5.736399888992309570e-01 1.827227026224136353e-01 2.269088178873062134e-01 6.870033591985702515e-02
3.077000000000000000e+03 3.127615165710449219e+01 -3.863770067691802979e-01 1.663691550493240356e-01 -4.828936979174613953e-02 3.542393445968627930e-02 2.314171195030212402e-02
3.078000000000000000e+03 3.394290924072265625e+01 -8.329316377639770508e-01 5.277200341224670410e-01 -4.458485916256904602e-02 1.449405550956726074e-01 1.243221312761306763e-01
3.079000000000000000e+03 3.328374099731445312e+01 -6.707439422607421875e-01 5.369673371315002441e-01 1.819304674863815308e-01 2.156693488359451294e-01 2.078170329332351685e-01
3.080000000000000000e+03 3.391826629638671875e+01 -9.152818471193313599e-02 1.658093631267547607e-01 4.918293096125125885e-03 5.121829733252525330e-02 1.357567906379699707e-01
3.081000000000000000e+03 3.331253814697265625e+01 -1.001551300287246704e-01 3.272248432040214539e-02 8.955202251672744751e-02 3.668235242366790771e-02 5.342714115977287292e-02
3.082000000000000000e+03 3.283485031127929688e+01 -1.750801205635070801e-01 6.010007928125560284e-04 -2.572498051449656487e-03 -5.914491484872996807e-04 1.596574729774147272e-04
3.083000000000000000e+03 3.182851982116699219e+01 -1.073151588439941406e+00 2.661273181438446045e-01 -6.980211287736892700e-02 5.889756232500076294e-02 8.740587532520294189e-02
3.084000000000000000e+03 2.505991363525390625e+01 5.675789713859558105e-01 -9.236592450179159641e-04 2.037420490523800254e-04 -2.159751602448523045e-04 -9.803980588912963867e-03
3.085000000000000000e+03 2.606805801391601562e+01 8.736732006072998047e-01 -2.342521678656339645e-03 4.492365289479494095e-03 6.449531065300107002e-04 -5.451122764497995377e-03
3.086000000000000000e+03 2.541969490051269531e+01 8.198022246360778809e-01 -2.804010000545531511e-04 1.112658414058387280e-03 2.496772212907671928e-04 -8.219575509428977966e-03
3.087000000000000000e+03 2.557369804382324219e+01 6.554924845695495605e-01 -2.279054839164018631e-03 3.077324014157056808e-03 2.394807524979114532e-04 -8.018539287149906158e-03
3.088000000000000000e+03 2.680468750000000000e+01 1.088164567947387695e+00 -6.172693334519863129e-03 -5.732380319386720657e-03 -3.571522189304232597e-03 6.956579745747148991e-04
3.089000000000000000e+03 2.496577453613281250e+01 -6.089445590972900391e+00 2.119595557451248169e-01 -5.841065049171447754e-01 -1.116440817713737488e-01 -4.204776883125305176e-01
3.090000000000000000e+03 2.496991920471191406e+01 -5.890447616577148438e+00 -9.479389339685440063e-02 -1.123235940933227539e+00 -3.654089570045471191e-01 6.696439348161220551e-03
3.091000000000000000e+03 2.497406387329101562e+01 -5.691449642181396484e+00 4.254203289747238159e-02 -8.378309011459350586e-01 -2.385866492986679077e-01 -7.072791457176208496e-02
3.092000000000000000e+03 2.497820663452148438e+01 -5.492452144622802734e+00 -1.861784793436527252e-02 -7.250893115997314453e-01 -2.231121510267257690e-01 -2.523000724613666534e-02
3.093000000000000000e+03 2.490754318237304688e+01 -6.093946933746337891e+00 3.712317049503326416e-01 -2.486597061157226562e+00 -6.346096396446228027e-01 -1.051222458481788635e-01
3.094000000000000000e+03 2.487286567687988281e+01 -5.897950172424316406e+00 -2.967865206301212311e-02 -1.441922187805175781e+00 -4.414802491664886475e-01 5.050851032137870789e-02
3.095000000000000000e+03 2.483818817138671875e+01 -5.701952934265136719e+00 -2.530582994222640991e-02 -1.351595759391784668e+00 -4.130704998970031738e-01 1.575980782508850098e-01
3.096000000000000000e+03 2.480351066589355469e+01 -5.505956649780273438e+00 1.359532028436660767e-02 -1.093759417533874512e+00 -3.240492343902587891e-01 1.114058047533035278e-01
3.097000000000000000e+03 2.485130119323730469e+01 -6.109699249267578125e+00 -3.396018967032432556e-02 -3.218046665191650391e+00 -9.756020903587341309e-01 7.822847366333007812e-01
3.098000000000000000e+03 2.477912902832031250e+01 -5.924203872680664062e+00 -2.388332411646842957e-02 -2.142907142639160156e+00 -6.500371694564819336e-01 4.315102696418762207e-01
3.099000000000000000e+03 2.470695686340332031e+01 -5.738708972930908203e+00 -1.353641152381896973e-01 -1.598260164260864258e+00 -5.200873017311096191e-01 4.025255143642425537e-01
3.100000000000000000e+03 2.463478469848632812e+01 -5.553213596343994141e+00 -8.794627338647842407e-02 -1.390035510063171387e+00 -4.433945417404174805e-01 3.922051191329956055e-01
3.101000000000000000e+03 2.479920196533203125e+01 -6.136099815368652344e+00 -6.794528365135192871e-01 -3.479060411453247070e+00 -1.247553944587707520e+00 1.516199946403503418e+00
3.102000000000000000e+03 2.469229888916015625e+01 -5.968204498291015625e+00 -4.314045906066894531e-01 -2.343418836593627930e+00 -8.324470520019531250e-01 9.764522314071655273e-01
3.103000000000000000e+03 2.458539390563964844e+01 -5.800309658050537109e+00 -3.319639861583709717e-01 -1.856305718421936035e+00 -6.564809083938598633e-01 7.737847566604614258e-01
3.104000000000000000e+03 2.447848892211914062e+01 -5.632414817810058594e+00 -3.218373656272888184e-01 -1.469593286514282227e+00 -5.374292135238647461e-01 6.919410824775695801e-01
3.105000000000000000e+03 2.475324058532714844e+01 -6.172137737274169922e+00 -1.662154555320739746e+00 -3.230797529220581055e+00 -1.467885613441467285e+00 2.069399833679199219e+00
3.106000000000000000e+03 2.461569595336914062e+01 -6.028268337249755859e+00 -9.837958812713623047e-01 -2.345420598983764648e+00 -9.987649321556091309e-01 1.400519013404846191e+00
3.107000000000000000e+03 2.447814941406250000e+01 -5.884398460388183594e+00 -8.009372353553771973e-01 -1.788381695747375488e+00 -7.767956852912902832e-01 1.128093004226684570e+00
3.108000000000000000e+03 2.434060287475585938e+01 -5.740529060363769531e+00 -6.454632878303527832e-01 -1.488150715827941895e+00 -6.400842070579528809e-01 9.829069972038269043e-01
3.109000000000000000e+03 2.471517562866210938e+01 -6.216434955596923828e+00 -2.652299880981445312e+00 -2.830902099609375000e+00 -1.644960522651672363e+00 2.305797576904296875e+00
3.110000000000000000e+03 2.455225181579589844e+01 -6.102096557617187500e+00 -1.772942423820495605e+00 -2.051978111267089844e+00 -1.147476196289062500e+00 1.624324321746826172e+00
3.111000000000000000e+03 2.438932800292968750e+01 -5.987757682800292969e+00 -1.305804967880249023e+00 -1.637783408164978027e+00 -8.830764889717102051e-01 1.342281460762023926e+00
3.112000000000000000e+03 2.422640419006347656e+01 -5.873419284820556641e+00 -1.141780138015747070e+00 -1.285234570503234863e+00 -7.281044125556945801e-01 1.160883784294128418e+00
3.113000000000000000e+03 2.468646049499511719e+01 -6.267294883728027344e+00 -3.697362661361694336e+00 -2.314928054809570312e+00 -1.803687214851379395e+00 2.161184072494506836e+00
3.114000000000000000e+03 2.450439453125000000e+01 -6.186863422393798828e+00 -2.471230268478393555e+00 -1.738221526145935059e+00 -1.262835502624511719e+00 1.654152393341064453e+00
3.115000000000000000e+03 2.432232856750488281e+01 -6.106431484222412109e+00 -1.978622555732727051e+00 -1.323140263557434082e+00 -9.905288815498352051e-01 1.322028636932373047e+00
3.116000000000000000e+03 2.414026260375976562e+01 -6.026000022888183594e+00 -1.553721189498901367e+00 -1.068236470222473145e+00 -7.865872979164123535e-01 1.174958348274230957e+00
3.117000000000000000e+03 2.466819763183593750e+01 -6.322772026062011719e+00 -4.499994754791259766e+00 -1.945596933364868164e+00 -1.933677434921264648e+00 1.785259842872619629e+00
3.118000000000000000e+03 2.447395515441894531e+01 -6.279325008392333984e+00 -3.142271995544433594e+00 -1.397410988807678223e+00 -1.361904859542846680e+00 1.382987380027770996e+00
3.119000000000000000e+03 2.427971458435058594e+01 -6.235878467559814453e+00 -2.479638814926147461e+00 -1.081931948661804199e+00 -1.068471193313598633e+00 1.189924001693725586e+00
3.120000000000000000e+03 2.408547401428222656e+01 -6.192431449890136719e+00 -2.142901897430419922e+00 -7.931154966354370117e-01 -8.808051943778991699e-01 9.862144589424133301e-01
3.121000000000000000e+03 2.466108512878417969e+01 -6.380743026733398438e+00 -5.016132831573486328e+00 -1.680481910705566406e+00 -2.008984327316284180e+00 1.173747539520263672e+00
3.122000000000000000e+03 2.446210098266601562e+01 -6.375943660736083984e+00 -3.628633975982666016e+00 -1.273093938827514648e+00 -1.470518350601196289e+00 1.009340763092041016e+00
3.123000000000000000e+03 2.426311874389648438e+01 -6.371144294738769531e+00 -2.868409156799316406e+00 -8.383793234825134277e-01 -1.112036585807800293e+00 8.087766766548156738e-01
3.124000000000000000e+03 2.406413650512695312e+01 -6.366344928741455078e+00 -2.408740282058715820e+00 -7.449063658714294434e-01 -9.460940361022949219e-01 7.902426123619079590e-01
3.125000000000000000e+03 2.466539382934570312e+01 -6.438989639282226562e+00 -5.280660629272460938e+00 -1.841070890426635742e+00 -2.136519432067871094e+00 5.806443095207214355e-01
3.126000000000000000e+03 2.446928405761718750e+01 -6.473021507263183594e+00 -3.840357542037963867e+00 -1.135190248489379883e+00 -1.492664337158203125e+00 4.697127938270568848e-01
3.127000000000000000e+03 2.427317428588867188e+01 -6.507053375244140625e+00 -3.110573768615722656e+00 -9.272979497909545898e-01 -1.211361527442932129e+00 4.430537819862365723e-01
3.128000000000000000e+03 2.407706451416015625e+01 -6.541085243225097656e+00 -2.421640396118164062e+00 -6.124163269996643066e-01 -9.102169871330261230e-01 2.654630243778228760e-01
3.129000000000000000e+03 2.468096160888671875e+01 -6.495283126831054688e+00 -5.140720844268798828e+00 -2.024530172348022461e+00 -2.149575233459472656e+00 -4.158479347825050354e-02
3.130000000000000000e+03 2.449522972106933594e+01 -6.566843509674072266e+00 -3.922520399093627930e+00 -1.378406405448913574e+00 -1.590278029441833496e+00 6.208933889865875244e-02
3.131000000000000000e+03 2.430949783325195312e+01 -6.638404369354248047e+00 -3.033184766769409180e+00 -9.643073678016662598e-01 -1.199247598648071289e+00 -6.454151123762130737e-02
3.132000000000000000e+03 2.412376594543457031e+01 -6.709964752197265625e+00 -2.603105306625366211e+00 -7.564586400985717773e-01 -1.007869243621826172e+00 -9.810681641101837158e-02
3.133000000000000000e+03 2.470718955993652344e+01 -6.547468662261962891e+00 -4.952569484710693359e+00 -2.508126258850097656e+00 -2.238208770751953125e+00 -3.996053934097290039e-01
3.134000000000000000e+03 2.453894424438476562e+01 -6.653819561004638672e+00 -3.636993408203125000e+00 -1.649804592132568359e+00 -1.586039423942565918e+00 -3.536664843559265137e-01
3.135000000000000000e+03 2.437069702148437500e+01 -6.760169982910156250e+00 -2.962028264999389648e+00 -1.221187353134155273e+00 -1.254964709281921387e+00 -3.573033809661865234e-01
3.136000000000000000e+03 2.420245170593261719e+01 -6.866520881652832031e+00 -2.431896209716796875e+00 -9.398572444915771484e-01 -1.011526107788085938e+00 -3.980645239353179932e-01
3.137000000000000000e+03 2.474307632446289062e+01 -6.593548774719238281e+00 -4.474938869476318359e+00 -2.967849969863891602e+00 -2.232836484909057617e+00 -6.280159950256347656e-01
3.138000000000000000e+03 2.459875488281250000e+01 -6.730620384216308594e+00 -3.382326126098632812e+00 -2.094242095947265625e+00 -1.642970442771911621e+00 -5.395448207855224609e-01
3.139000000000000000e+03 2.445443153381347656e+01 -6.867691516876220703e+00 -2.597541332244873047e+00 -1.525851488113403320e+00 -1.237017869949340820e+00 -5.358515977859497070e-01
3.140000000000000000e+03 2.431011199951171875e+01 -7.004762172698974609e+00 -2.136577367782592773e+00 -1.211461544036865234e+00 -1.004411697387695312e+00 -4.891593158245086670e-01
3.141000000000000000e+03 2.478724670410156250e+01 -6.631761074066162109e+00 -4.153489589691162109e+00 -3.462519645690917969e+00 -2.284802675247192383e+00 -5.943489670753479004e-01
3.142000000000000000e+03 2.467237281799316406e+01 -6.794306755065917969e+00 -2.912534236907958984e+00 -2.497768163681030273e+00 -1.623090744018554688e+00 -5.935589671134948730e-01
3.143000000000000000e+03 2.455749893188476562e+01 -6.956852912902832031e+00 -2.284175395965576172e+00 -1.946048974990844727e+00 -1.269067287445068359e+00 -4.876131117343902588e-01
3.144000000000000000e+03 2.444262313842773438e+01 -7.119398593902587891e+00 -1.629235506057739258e+00 -1.484658598899841309e+00 -9.341682791709899902e-01 -4.814456105232238770e-01
3.145000000000000000e+03 2.483801269531250000e+01 -6.660642623901367188e+00 -3.704441308975219727e+00 -3.865673542022705078e+00 -2.271034479141235352e+00 -3.992144167423248291e-01
3.146000000000000000e+03 2.475698280334472656e+01 -6.842442512512207031e+00 -2.650284528732299805e+00 -2.823304176330566406e+00 -1.642076611518859863e+00 -4.209368824958801270e-01
3.147000000000000000e+03 2.467595100402832031e+01 -7.024242877960205078e+00 -1.828443050384521484e+00 -2.309066772460937500e+00 -1.241252899169921875e+00 -3.734967112541198730e-01
3.148000000000000000e+03 2.459491920471191406e+01 -7.206042766571044922e+00 -1.340907335281372070e+00 -1.879603385925292969e+00 -9.661532044410705566e-01 -3.022088706493377686e-01
3.149000000000000000e+03 2.489342880249023438e+01 -6.679088115692138672e+00 -3.487921953201293945e+00 -4.041740894317626953e+00 -2.258898973464965820e+00 -1.326046288013458252e-01
3.150000000000000000e+03 2.484934425354003906e+01 -6.873185157775878906e+00 -2.368067741394042969e+00 -3.106678485870361328e+00 -1.642423868179321289e+00 -6.748230010271072388e-02
3.151000000000000000e+03 2.480525779724121094e+01 -7.067282199859619141e+00 -1.643154978752136230e+00 -2.420774459838867188e+00 -1.219178795814514160e+00 -1.528372168540954590e-01
3.152000000000000000e+03 2.476117134094238281e+01 -7.261379241943359375e+00 -1.058429718017578125e+00 -2.196262598037719727e+00 -9.764077067375183105e-01 -1.316301077604293823e-01
3.153000000000000000e+03 2.495137786865234375e+01 -6.686391830444335938e+00 -3.459737539291381836e+00 -4.129367828369140625e+00 -2.276731729507446289e+00 3.426155149936676025e-01
3.154000000000000000e+03 2.494592285156250000e+01 -6.885357856750488281e+00 -2.217203140258789062e+00 -3.091972589492797852e+00 -1.592752814292907715e+00 2.211795002222061157e-01
3.155000000000000000e+03 2.494046783447265625e+01 -7.084323883056640625e+00 -1.621910452842712402e+00 -2.517096042633056641e+00 -1.241701960563659668e+00 2.747316658496856689e-01
3.156000000000000000e+03 2.493501281738281250e+01 -7.283290386199951172e+00 -1.036392331123352051e+00 -1.959481239318847656e+00 -8.987621068954467773e-01 6.926407665014266968e-02
3.157000000000000000e+03 2.500963783264160156e+01 -6.682273864746093750e+00 -3.468597173690795898e+00 -3.971018314361572266e+00 -2.231884717941284180e+00 7.088271379470825195e-01
3.158000000000000000e+03 2.504302406311035156e+01 -6.878495216369628906e+00 -2.397542715072631836e+00 -2.900972604751586914e+00 -1.589554548263549805e+00 6.527320146560668945e-01
3.159000000000000000e+03 2.507640838623046875e+01 -7.074716091156005859e+00 -1.611638188362121582e+00 -2.302792310714721680e+00 -1.174329161643981934e+00 5.126714706420898438e-01
3.160000000000000000e+03 2.510979270935058594e+01 -7.270937442779541016e+00 -1.268408060073852539e+00 -1.904578089714050293e+00 -9.518958330154418945e-01 5.494584441184997559e-01
3.161000000000000000e+03 2.506598091125488281e+01 -6.666892528533935547e+00 -3.664157867431640625e+00 -3.565576314926147461e+00 -2.168920278549194336e+00 1.093490600585937500e+00
3.162000000000000000e+03 2.513693046569824219e+01 -6.852859497070312500e+00 -2.690055131912231445e+00 -2.586185455322265625e+00 -1.582872152328491211e+00 8.998795151710510254e-01
3.163000000000000000e+03 2.520787811279296875e+01 -7.038826465606689453e+00 -1.858206272125244141e+00 -1.874020695686340332e+00 -1.119668126106262207e+00 8.497562408447265625e-01
3.164000000000000000e+03 2.527882575988769531e+01 -7.224793434143066406e+00 -1.438199281692504883e+00 -1.485037326812744141e+00 -8.769709467887878418e-01 6.442633867263793945e-01
3.165000000000000000e+03 2.511825180053710938e+01 -6.640836238861083984e+00 -4.199001312255859375e+00 -3.173721551895141602e+00 -2.211816787719726562e+00 1.218779563903808594e+00
3.166000000000000000e+03 2.522404861450195312e+01 -6.809432029724121094e+00 -2.906667947769165039e+00 -1.958312511444091797e+00 -1.459494113922119141e+00 1.157227754592895508e+00
3.167000000000000000e+03 2.532984352111816406e+01 -6.978028297424316406e+00 -2.360438346862792969e+00 -1.539294481277465820e+00 -1.169919848442077637e+00 8.843291401863098145e-01
3.168000000000000000e+03 2.543564033508300781e+01 -7.146624565124511719e+00 -1.669010877609252930e+00 -6.362938880920410156e-01 -6.915914416313171387e-01 1.009315848350524902e+00
3.169000000000000000e+03 2.516445159912109375e+01 -6.605102062225341797e+00 -4.497265338897705078e+00 -2.302725076675415039e+00 -2.039997100830078125e+00 1.330853819847106934e+00
3.170000000000000000e+03 2.530104637145996094e+01 -6.749875545501708984e+00 -3.426997661590576172e+00 -1.641900420188903809e+00 -1.520669460296630859e+00 9.966349005699157715e-01
3.171000000000000000e+03 2.543764114379882812e+01 -6.894648551940917969e+00 -2.615629196166992188e+00 -7.707789540290832520e-01 -1.015922427177429199e+00 1.026963114738464355e+00
3.172000000000000000e+03 2.557423591613769531e+01 -7.039421558380126953e+00 -2.133291482925415039e+00 -6.667767763137817383e-01 -8.400204777717590332e-01 1.043363928794860840e+00
3.173000000000000000e+03 2.520280838012695312e+01 -6.561057567596435547e+00 -5.012938022613525391e+00 -1.904333233833312988e+00 -2.075181484222412109e+00 1.033254146575927734e+00
3.174000000000000000e+03 2.536497497558593750e+01 -6.676467418670654297e+00 -3.679117202758789062e+00 -8.675548434257507324e-01 -1.364001631736755371e+00 8.226950764656066895e-01
3.175000000000000000e+03 2.552714157104492188e+01 -6.791877746582031250e+00 -2.942924976348876953e+00 -6.197643876075744629e-01 -1.068806886672973633e+00 8.120809793472290039e-01
3.176000000000000000e+03 2.568930816650390625e+01 -6.907287597656250000e+00 -2.315430879592895508e+00 -2.319418787956237793e-01 -7.642117738723754883e-01 8.695975542068481445e-01
3.177000000000000000e+03 2.523185729980468750e+01 -6.510387897491455078e+00 -5.236842155456542969e+00 -1.116823792457580566e+00 -1.906099796295166016e+00 5.780319571495056152e-01
3.178000000000000000e+03 2.541338920593261719e+01 -6.592018127441406250e+00 -3.910556316375732422e+00 -6.704390645027160645e-01 -1.374298572540283203e+00 4.145374298095703125e-01
3.179000000000000000e+03 2.559492111206054688e+01 -6.673648834228515625e+00 -3.029380321502685547e+00 -1.701703518629074097e-01 -9.598652124404907227e-01 4.571254849433898926e-01
3.180000000000000000e+03 2.577645301818847656e+01 -6.755279064178466797e+00 -2.468902826309204102e+00 -7.587804645299911499e-02 -7.634342312812805176e-01 4.730045795440673828e-01
3.181000000000000000e+03 2.525048637390136719e+01 -6.455032825469970703e+00 -5.328814983367919922e+00 -9.183980226516723633e-01 -1.874163985252380371e+00 -5.691029503941535950e-02
3.182000000000000000e+03 2.544443702697753906e+01 -6.499759674072265625e+00 -3.812612056732177734e+00 -2.802967131137847900e-01 -1.227872610092163086e+00 -9.455759078264236450e-02
3.183000000000000000e+03 2.563838577270507812e+01 -6.544486522674560547e+00 -3.034813642501831055e+00 -1.718201935291290283e-01 -9.619901776313781738e-01 -1.050410792231559753e-02
3.184000000000000000e+03 2.583233642578125000e+01 -6.589213371276855469e+00 -2.466140270233154297e+00 2.280373126268386841e-01 -6.714308261871337891e-01 8.278435468673706055e-02
3.185000000000000000e+03 2.525798034667968750e+01 -6.397109985351562500e+00 -4.992321968078613281e+00 -6.296299695968627930e-01 -1.686585545539855957e+00 -7.876836061477661133e-01
3.186000000000000000e+03 2.545692825317382812e+01 -6.403221607208251953e+00 -3.559255361557006836e+00 -4.241093099117279053e-01 -1.195009469985961914e+00 -5.881488323211669922e-01
3.187000000000000000e+03 2.565587425231933594e+01 -6.409332752227783203e+00 -2.774832725524902344e+00 1.935851410962641239e-03 -8.318690657615661621e-01 -4.823134243488311768e-01
3.188000000000000000e+03 2.585482215881347656e+01 -6.415444374084472656e+00 -2.309325456619262695e+00 -3.241000231355428696e-03 -6.937699317932128906e-01 -2.819736897945404053e-01
3.189000000000000000e+03 2.525405502319335938e+01 -6.338836193084716797e+00 -4.425810813903808594e+00 -8.940381407737731934e-01 -1.595954656600952148e+00 -1.363920927047729492e+00
3.190000000000000000e+03 2.545038604736328125e+01 -6.306098461151123047e+00 -2.990562438964843750e+00 -4.570151269435882568e-01 -1.034273266792297363e+00 -1.066277503967285156e+00
3.191000000000000000e+03 2.564671516418457031e+01 -6.273361206054687500e+00 -2.387987375259399414e+00 -2.660948038101196289e-01 -7.962246537208557129e-01 -7.740775942802429199e-01
3.192000000000000000e+03 2.584304618835449219e+01 -6.240623474121093750e+00 -1.900176048278808594e+00 -4.177582263946533203e-02 -5.825855731964111328e-01 -6.841832995414733887e-01
3.193000000000000000e+03 2.523885917663574219e+01 -6.282441616058349609e+00 -3.463820934295654297e+00 -1.183667898178100586e+00 -1.394246578216552734e+00 -1.826111197471618652e+00
3.194000000000000000e+03 2.542506027221679688e+01 -6.212108135223388672e+00 -2.350852012634277344e+00 -7.721304893493652344e-01 -9.368947148323059082e-01 -1.262652516365051270e+00
3.195000000000000000e+03 2.561125946044921875e+01 -6.141774177551269531e+00 -1.766252279281616211e+00 -4.738044738769531250e-01 -6.720170378684997559e-01 -1.010776281356811523e+00
3.196000000000000000e+03 2.579746055603027344e+01 -6.071440219879150391e+00 -1.499227166175842285e+00 -2.476175874471664429e-01 -5.240533947944641113e-01 -8.252155780792236328e-01
3.197000000000000000e+03 2.521297645568847656e+01 -6.230084419250488281e+00 -2.447927713394165039e+00 -1.595095753669738770e+00 -1.212907075881958008e+00 -1.896572351455688477e+00
3.198000000000000000e+03 2.538191986083984375e+01 -6.124845981597900391e+00 -1.525641679763793945e+00 -1.056737661361694336e+00 -7.747138142585754395e-01 -1.295486569404602051e+00
3.199000000000000000e+03 2.555086517333984375e+01 -6.019607543945312500e+00 -1.199463844299316406e+00 -7.111600637435913086e-01 -5.731871724128723145e-01 -9.872797727584838867e-01
3.200000000000000000e+03 2.571980857849121094e+01 -5.914369106292724609e+00 -9.989841580390930176e-01 -4.603082835674285889e-01 -4.377877414226531982e-01 -8.184833526611328125e-01
3.201000000000000000e+03 2.517739486694335938e+01 -6.183768749237060547e+00 -1.328038811683654785e+00 -1.933453321456909180e+00 -9.784476757049560547e-01 -1.660247206687927246e+00
3.202000000000000000e+03 2.532261848449707031e+01 -6.047652721405029297e+00 -8.221056461334228516e-01 -1.206641197204589844e+00 -6.086240410804748535e-01 -1.050193309783935547e+00
3.203000000000000000e+03 2.546784019470214844e+01 -5.911536693572998047e+00 -6.448144912719726562e-01 -8.665459156036376953e-01 -4.534081220626831055e-01 -8.041697740554809570e-01
3.204000000000000000e+03 2.561306381225585938e+01 -5.775421142578125000e+00 -5.621641278266906738e-01 -5.992741584777832031e-01 -3.484314680099487305e-01 -6.517486572265625000e-01
3.205000000000000000e+03 2.513347625732421875e+01 -6.145266056060791016e+00 -4.180648326873779297e-01 -1.903650403022766113e+00 -6.965145468711853027e-01 -1.103022813796997070e+00
3.206000000000000000e+03 2.524942016601562500e+01 -5.983481884002685547e+00 -2.311523705720901489e-01 -1.189963340759277344e+00 -4.263347089290618896e-01 -6.371238827705383301e-01
3.207000000000000000e+03 2.536536598205566406e+01 -5.821697235107421875e+00 -2.917335927486419678e-01 -7.817236781120300293e-01 -3.220371603965759277e-01 -4.789814352989196777e-01
3.208000000000000000e+03 2.548130989074707031e+01 -5.659913539886474609e+00 -2.728439867496490479e-01 -6.160666346549987793e-01 -2.666731774806976318e-01 -4.625162780284881592e-01
3.209000000000000000e+03 2.508290290832519531e+01 -6.116050243377685547e+00 3.217771649360656738e-01 -1.494478940963745117e+00 -3.518105447292327881e-01 -2.996976971626281738e-01
3.210000000000000000e+03 2.516513252258300781e+01 -5.934788703918457031e+00 -4.002137854695320129e-02 -6.744636893272399902e-01 -2.143455296754837036e-01 -1.689846515655517578e-01
3.211000000000000000e+03 2.524736022949218750e+01 -5.753527641296386719e+00 -1.333377510309219360e-01 -6.281992197036743164e-01 -2.284610867500305176e-01 -2.804481983184814453e-01
3.212000000000000000e+03 2.532959175109863281e+01 -5.572266101837158203e+00 -4.504280537366867065e-02 -4.684198200702667236e-01 -1.540387868881225586e-01 -1.974832564592361450e-01
3.213000000000000000e+03 2.502760887145996094e+01 -6.097239494323730469e+00 4.037384986877441406e-01 2.378519624471664429e-01 1.924771368503570557e-01 3.731688857078552246e-01
3.214000000000000000e+03 2.507297515869140625e+01 -5.903437614440917969e+00 -1.356368362903594971e-01 -3.618740439414978027e-01 -1.492532640695571899e-01 -1.141114830970764160e-01
3.215000000000000000e+03 2.511834335327148438e+01 -5.709635734558105469e+00 4.689017310738563538e-02 -2.565907239913940430e-01 -6.291016191244125366e-02 -3.580075874924659729e-02
3.216000000000000000e+03 2.516370964050292969e+01 -5.515833854675292969e+00 -3.072030469775199890e-02 -2.140300273895263672e-01 -7.342509925365447998e-02 -5.326046422123908997e-02
3.217000000000000000e+03 3.613071823120117188e+01 1.001799702644348145e+00 1.719407555356156081e-05 -6.524575292132794857e-05 -1.441550375602673739e-05 3.967732845922000706e-05
3.218000000000000000e+03 3.686145401000976562e+01 1.141550779342651367e+00 -1.899481139844283462e-05 1.221684069605544209e-04 3.095207648584619164e-05 -3.952437691623345017e-05
3.219000000000000000e+03 3.744598388671875000e+01 2.005382776260375977e+00 -3.753522832994349301e-05 1.098181310226209462e-04 2.168487117160111666e-05 -3.429504795349203050e-05
3.220000000000000000e+03 3.528780746459960938e+01 1.592470645904541016e+00 7.954445754876360297e-05 -8.666544090374372900e-06 2.126337312802206725e-05 1.100286463042721152e-04
3.221000000000000000e+03 3.600592422485351562e+01 1.731346011161804199e+00 -6.424110324587672949e-05 6.420641147997230291e-05 -1.040664265872237593e-08 -8.156864350894466043e-05
3.222000000000000000e+03 3.672535705566406250e+01 1.868933916091918945e+00 8.776770118856802583e-05 -1.071914448402822018e-04 -5.827123004564782605e-06 6.229137215996161103e-05
3.223000000000000000e+03 3.540129852294921875e+01 8.607612848281860352e-01 -1.889387203846126795e-05 -2.016660982917528600e-05 -1.171814437839202583e-05 -4.087716297362931073e-05
3.224000000000000000e+03 3.759338760375976562e+01 1.280162692070007324e+00 -2.581618673502816819e-06 -1.681298308540135622e-04 -5.121343565406277776e-05 5.408845026977360249e-05
3.225000000000000000e+03 2.492676544189453125e+01 -3.515638411045074463e-01 -8.172987960278987885e-03 -1.089990325272083282e-02 -5.721867550164461136e-03 -6.498456466943025589e-03
3.226000000000000000e+03 2.577524375915527344e+01 -8.727293014526367188e-01 -6.462433957494795322e-04 2.906562201678752899e-02 8.525812998414039612e-03 7.975294254720211029e-03
3.227000000000000000e+03 2.445341491699218750e+01 -3.087322473526000977e+00 9.000404737889766693e-03 -2.331274747848510742e-01 -6.723812222480773926e-02 9.289044886827468872e-02
3.228000000000000000e+03 2.459003257751464844e+01 -2.369696855545043945e+00 -8.350233547389507294e-03 -1.275037229061126709e-01 -4.075618833303451538e-02 5.629933252930641174e-02
3.229000000000000000e+03 2.528951835632324219e+01 1.055995076894760132e-01 -7.543523795902729034e-03 4.582338500767946243e-03 -8.883555419743061066e-04 -1.000970881432294846e-02
3.230000000000000000e+03 2.409228324890136719e+01 -2.814388990402221680e+00 -2.730856835842132568e-02 -2.245769500732421875e-01 -7.556565105915069580e-02 1.434087604284286499e-01
3.231000000000000000e+03 2.480880546569824219e+01 -2.913270473480224609e+00 1.210993155837059021e-02 -1.459209322929382324e-01 -4.014329984784126282e-02 6.011752784252166748e-02
3.232000000000000000e+03 2.457467269897460938e+01 -2.808958292007446289e+00 1.279390510171651840e-02 -1.810847371816635132e-01 -5.048725008964538574e-02 7.321093231439590454e-02
3.233000000000000000e+03 2.482425498962402344e+01 -3.170810461044311523e+00 9.982488118112087250e-03 -1.554873585700988770e-01 -4.365146160125732422e-02 5.206698551774024963e-02
3.234000000000000000e+03 2.503328132629394531e+01 -3.178752660751342773e+00 5.138404201716184616e-03 -1.500733941793441772e-01 -4.348049685359001160e-02 2.135340869426727295e-02
3.235000000000000000e+03 2.513637924194335938e+01 -2.827226877212524414e+00 1.294636633247137070e-02 -5.878331884741783142e-02 -1.375108491629362106e-02 2.117968164384365082e-02
3.236000000000000000e+03 2.534444046020507812e+01 -7.231349945068359375e-01 -8.078700862824916840e-03 1.198049541562795639e-02 1.170538133010268211e-03 -4.553948063403367996e-03
3.237000000000000000e+03 2.569545173645019531e+01 -3.636068701744079590e-01 -4.649326729122549295e-04 1.628760993480682373e-02 4.746803082525730133e-03 -1.494890777394175529e-03
3.238000000000000000e+03 2.463910675048828125e+01 -3.142089605331420898e+00 1.282454095780849457e-02 -2.309993803501129150e-01 -6.545244902372360229e-02 7.938326895236968994e-02
3.239000000000000000e+03 2.527846717834472656e+01 -3.118830680847167969e+00 2.978201257064938545e-03 -4.032408073544502258e-02 -1.120376400649547577e-02 1.109569985419511795e-02
3.240000000000000000e+03 2.427833747863769531e+01 -3.003713369369506836e+00 2.123008016496896744e-03 -2.303336858749389648e-01 -6.846320629119873047e-02 1.145150735974311829e-01
3.241000000000000000e+03 2.528927612304687500e+01 -2.282291173934936523e+00 -1.327421865426003933e-03 2.244021045044064522e-03 2.749797713477164507e-04 1.592567376792430878e-02
3.242000000000000000e+03 2.552225303649902344e+01 -1.551200389862060547e+00 3.568555228412151337e-03 2.264754846692085266e-02 7.864831015467643738e-03 1.028949767351150513e-02
3.243000000000000000e+03 2.455085945129394531e+01 -1.746127367019653320e+00 -1.690992154181003571e-02 -7.648415118455886841e-02 -2.801822125911712646e-02 4.434584453701972961e-02
3.244000000000000000e+03 2.466846656799316406e+01 -1.056956768035888672e+00 -2.424905821681022644e-02 -4.028429836034774780e-02 -1.936000771820545197e-02 2.105238102376461029e-02
3.245000000000000000e+03 2.505312538146972656e+01 -1.318456411361694336e+00 -5.788248963654041290e-03 -2.550552971661090851e-02 -9.388133883476257324e-03 7.969599217176437378e-03
3.246000000000000000e+03 2.646632766723632812e+01 -3.944090843200683594e+00 -9.550314396619796753e-02 1.041156798601150513e-02 -2.552747167646884918e-02 -6.998879462480545044e-02
3.247000000000000000e+03 2.647997665405273438e+01 -5.256011009216308594e+00 -4.809039831161499023e-01 5.448252335190773010e-02 -1.279264390468597412e-01 -3.342353105545043945e-01
3.248000000000000000e+03 2.580613899230957031e+01 -6.987864017486572266e+00 -2.043088674545288086e+00 -3.085469305515289307e-01 -7.054907083511352539e-01 7.957214713096618652e-01
3.249000000000000000e+03 2.557990837097167969e+01 -7.261700153350830078e+00 -1.318724632263183594e+00 -6.839993000030517578e-01 -6.008171439170837402e-01 9.261057376861572266e-01
3.250000000000000000e+03 2.467120361328125000e+01 -7.452416419982910156e+00 -8.268005847930908203e-01 -1.748153924942016602e+00 -7.724863886833190918e-01 -1.801153421401977539e-01
3.251000000000000000e+03 2.420300483703613281e+01 -7.391349792480468750e+00 -9.292516112327575684e-01 -1.139568090438842773e+00 -6.206458806991577148e-01 -4.402886927127838135e-01
3.252000000000000000e+03 2.367238426208496094e+01 -6.121565818786621094e+00 -1.530536532402038574e+00 -4.927009940147399902e-01 -6.069712638854980469e-01 7.934108376502990723e-01
3.253000000000000000e+03 2.379382514953613281e+01 -6.381008625030517578e+00 -1.959082841873168945e+00 -3.417376279830932617e-01 -6.902461647987365723e-01 5.573292374610900879e-01
3.254000000000000000e+03 2.544639968872070312e+01 -3.540353775024414062e+00 6.379003170877695084e-03 2.942550368607044220e-02 1.074135210365056992e-02 -2.976840478368103504e-04
3.255000000000000000e+03 2.552178573608398438e+01 -4.452710628509521484e+00 -1.766003109514713287e-02 -5.070559307932853699e-02 -2.050968632102012634e-02 -4.336213693022727966e-02
3.256000000000000000e+03 2.536242866516113281e+01 -4.321375370025634766e+00 3.807943547144532204e-03 -9.086451493203639984e-03 -1.583552453666925430e-03 -1.237112469971179962e-02
3.257000000000000000e+03 2.521108436584472656e+01 -5.319939136505126953e+00 1.583002856932580471e-03 -1.660924255847930908e-01 -4.935282841324806213e-02 -4.341445863246917725e-02
3.258000000000000000e+03 2.560351943969726562e+01 -5.486685276031494141e+00 -2.109685093164443970e-01 -4.542309045791625977e-01 -1.995598226785659790e-01 -3.703747689723968506e-01
3.259000000000000000e+03 2.551311683654785156e+01 -5.175635814666748047e+00 -6.393159925937652588e-02 -2.740177512168884277e-01 -1.013848036527633667e-01 -1.635916829109191895e-01
3.260000000000000000e+03 2.498319244384765625e+01 -5.290736675262451172e+00 1.271185372024774551e-02 -6.158527731895446777e-01 -1.809422820806503296e-01 -2.541715279221534729e-02
3.261000000000000000e+03 2.478249740600585938e+01 -4.850834369659423828e+00 -5.691124591976404190e-03 -6.165829300880432129e-01 -1.866822242736816406e-01 8.945602923631668091e-02
3.262000000000000000e+03 2.398099899291992188e+01 -6.770675659179687500e+00 -2.308683156967163086e+00 -6.249191164970397949e-01 -8.800806999206542969e-01 -1.414244771003723145e-01
3.263000000000000000e+03 2.416951751708984375e+01 -7.195917606353759766e+00 -1.554960250854492188e+00 -1.043337702751159668e+00 -7.794893980026245117e-01 -4.362538456916809082e-01
3.264000000000000000e+03 2.432581329345703125e+01 -7.218220710754394531e+00 -1.334833860397338867e+00 -1.302143096923828125e+00 -7.910931110382080078e-01 -3.991508483886718750e-01
3.265000000000000000e+03 2.452225303649902344e+01 -4.634179115295410156e+00 -1.793353818356990814e-02 -6.568703651428222656e-01 -2.024411559104919434e-01 1.893896907567977905e-01
3.266000000000000000e+03 2.511780357360839844e+01 -4.084372520446777344e+00 -2.304644091054797173e-03 -2.234161794185638428e-01 -6.771624833345413208e-02 -2.809257013723254204e-03
3.267000000000000000e+03 2.495354652404785156e+01 -3.655867815017700195e+00 2.556837163865566254e-03 -2.093780338764190674e-01 -6.204636022448539734e-02 3.209348022937774658e-02
3.268000000000000000e+03 2.519728279113769531e+01 -3.488006353378295898e+00 1.241142489016056061e-02 -1.259465515613555908e-01 -3.406053781509399414e-02 -2.914589131250977516e-03
3.269000000000000000e+03 2.394780158996582031e+01 -3.231623649597167969e+00 -5.852380394935607910e-02 -3.189174830913543701e-01 -1.132323890924453735e-01 2.272964566946029663e-01
3.270000000000000000e+03 2.391334342956542969e+01 -3.781140804290771484e+00 -6.407079845666885376e-02 -4.221732318401336670e-01 -1.458732038736343384e-01 2.768827974796295166e-01
3.271000000000000000e+03 2.434720802307128906e+01 -3.336203813552856445e+00 -9.939547628164291382e-03 -2.796140611171722412e-01 -8.686608076095581055e-02 1.243843957781791687e-01
3.272000000000000000e+03 2.517048454284667969e+01 -3.689110040664672852e+00 -9.702900424599647522e-03 -1.517393738031387329e-01 -4.843268543481826782e-02 -2.325908746570348740e-03
3.273000000000000000e+03 2.361697387695312500e+01 -5.916875839233398438e+00 -1.273005008697509766e+00 -5.090409517288208008e-01 -5.346137881278991699e-01 8.741045594215393066e-01
3.274000000000000000e+03 2.369481086730957031e+01 -5.173864364624023438e+00 -4.693699479103088379e-01 -7.229204773902893066e-01 -3.576871454715728760e-01 7.236054539680480957e-01
3.275000000000000000e+03 2.391119956970214844e+01 -3.414601564407348633e+00 -4.954825341701507568e-02 -3.230519294738769531e-01 -1.117800548672676086e-01 2.264900356531143188e-01
3.276000000000000000e+03 2.669253540039062500e+01 -3.789499521255493164e+00 -1.075149253010749817e-01 3.441533818840980530e-02 -2.192987687885761261e-02 -5.274790152907371521e-02
3.277000000000000000e+03 2.666501045227050781e+01 -3.992883205413818359e+00 -1.168355867266654968e-01 2.532121911644935608e-02 -2.745431102812290192e-02 -7.922688871622085571e-02
3.278000000000000000e+03 2.658238983154296875e+01 -4.391341686248779297e+00 -1.844991445541381836e-01 2.079070359468460083e-02 -4.911253228783607483e-02 -1.391701996326446533e-01
3.279000000000000000e+03 2.624508285522460938e+01 -4.537559986114501953e+00 -1.516534686088562012e-01 -4.873875901103019714e-02 -6.011766567826271057e-02 -1.599877774715423584e-01
3.280000000000000000e+03 2.627033042907714844e+01 -5.380013942718505859e+00 -5.278671383857727051e-01 -2.182007394731044769e-02 -1.649061590433120728e-01 -4.057570099830627441e-01
3.281000000000000000e+03 2.590133476257324219e+01 -5.777024745941162109e+00 -8.180034160614013672e-01 -2.730993330478668213e-01 -3.273308277130126953e-01 -6.620846986770629883e-01
3.282000000000000000e+03 2.627590179443359375e+01 -6.452153682708740234e+00 -1.657529234886169434e+00 5.203846096992492676e-01 -3.411433994770050049e-01 -1.407452672719955444e-01
3.283000000000000000e+03 2.398861885070800781e+01 -5.922885417938232422e+00 -1.400110960006713867e+00 -8.918637037277221680e-01 -6.875923871994018555e-01 1.088892340660095215e+00
3.284000000000000000e+03 2.403413391113281250e+01 -4.700425148010253906e+00 -1.440156996250152588e-01 -7.151173353195190430e-01 -2.577399015426635742e-01 4.427331984043121338e-01
3.285000000000000000e+03 2.414508247375488281e+01 -3.281281709671020508e+00 -4.306077584624290466e-02 -2.764760553836822510e-01 -9.586104750633239746e-02 1.707768589258193970e-01
3.286000000000000000e+03 2.365123748779296875e+01 -5.540186405181884766e+00 -8.328218460083007812e-01 -6.533192396163940430e-01 -4.458423256874084473e-01 8.641898632049560547e-01
3.287000000000000000e+03 2.381237983703613281e+01 -5.601263523101806641e+00 -8.466173410415649414e-01 -7.735469341278076172e-01 -4.860492646694183350e-01 8.884603977203369141e-01
3.288000000000000000e+03 2.455330276489257812e+01 -5.351417541503906250e+00 -7.282930612564086914e-02 -1.149456858634948730e+00 -3.666858375072479248e-01 3.593494296073913574e-01
3.289000000000000000e+03 2.397025299072265625e+01 -4.872199058532714844e+00 -2.246867567300796509e-01 -7.691470384597778320e-01 -2.981501221656799316e-01 5.333649516105651855e-01
3.290000000000000000e+03 2.391112327575683594e+01 -3.588649272918701172e+00 -6.760913133621215820e-02 -3.617573380470275879e-01 -1.288099437952041626e-01 2.537908554077148438e-01
3.291000000000000000e+03 2.390337181091308594e+01 -6.072059631347656250e+00 -1.655354499816894531e+00 -6.526712775230407715e-01 -6.924077272415161133e-01 9.206786155700683594e-01
3.292000000000000000e+03 2.420867729187011719e+01 -5.586245059967041016e+00 -5.796513557434082031e-01 -1.213804483413696289e+00 -5.380367636680603027e-01 8.836125731468200684e-01
3.293000000000000000e+03 2.373673057556152344e+01 -4.990550518035888672e+00 -3.609500229358673096e-01 -7.109745144844055176e-01 -3.215773701667785645e-01 6.369494199752807617e-01
3.294000000000000000e+03 2.505904960632324219e+01 -4.477891921997070312e+00 4.341153893619775772e-03 -3.209293186664581299e-01 -9.497644752264022827e-02 -5.073467735201120377e-03
3.295000000000000000e+03 2.545985221862792969e+01 -7.440971374511718750e+00 -7.343711853027343750e-01 -6.498948335647583008e-01 -4.152798056602478027e-01 9.199310541152954102e-01
3.296000000000000000e+03 2.573781585693359375e+01 -5.290805339813232422e+00 -2.107293605804443359e-01 -3.178186714649200439e-01 -1.585644036531448364e-01 -3.244446814060211182e-01
3.297000000000000000e+03 2.578364944458007812e+01 -7.198818683624267578e+00 -1.667136311531066895e+00 -4.034895896911621094e-01 -6.211878061294555664e-01 8.555447459220886230e-01
3.298000000000000000e+03 2.601608276367187500e+01 -5.954254627227783203e+00 -1.212562680244445801e+00 -4.851131141185760498e-02 -3.783222138881683350e-01 -6.702190041542053223e-01
3.299000000000000000e+03 2.588928222656250000e+01 -6.850733280181884766e+00 -2.153823614120483398e+00 2.048735022544860840e-01 -5.846850872039794922e-01 6.073708534240722656e-01
3.300000000000000000e+03 2.521912956237792969e+01 -7.525204658508300781e+00 -4.941875338554382324e-01 -1.025736927986145020e+00 -4.559773504734039307e-01 5.809031724929809570e-01
3.301000000000000000e+03 2.635590934753417969e+01 -6.270990371704101562e+00 -1.441598176956176758e+00 5.397285223007202148e-01 -2.705608606338500977e-01 -2.594094574451446533e-01
3.302000000000000000e+03 2.558274078369140625e+01 -4.932121276855468750e+00 -5.567472428083419800e-02 -1.940474361181259155e-01 -7.491665333509445190e-02 -1.336075067520141602e-01
3.303000000000000000e+03 2.636454200744628906e+01 -6.074550151824951172e+00 -1.280950307846069336e+00 3.548532724380493164e-01 -2.778291106224060059e-01 -3.852287232875823975e-01
3.304000000000000000e+03 2.648136138916015625e+01 -5.042565345764160156e+00 -3.742367923259735107e-01 2.986208721995353699e-02 -1.033124104142189026e-01 -2.813639640808105469e-01
3.305000000000000000e+03 2.408111000061035156e+01 -5.747865200042724609e+00 -9.232124090194702148e-01 -1.107460975646972656e+00 -6.092020273208618164e-01 1.030844211578369141e+00
3.306000000000000000e+03 2.391027450561523438e+01 -6.602684497833251953e+00 -2.214835643768310547e+00 -4.984603524208068848e-01 -8.139888048171997070e-01 2.484534084796905518e-01
3.307000000000000000e+03 2.386079216003417969e+01 -6.780835628509521484e+00 -2.091511726379394531e+00 -5.960705876350402832e-01 -8.062746524810791016e-01 1.162271294742822647e-02
3.308000000000000000e+03 2.365731048583984375e+01 -6.675526618957519531e+00 -1.864869117736816406e+00 -2.609862387180328369e-01 -6.377566456794738770e-01 2.912158668041229248e-01
3.309000000000000000e+03 2.392499732971191406e+01 -5.493005275726318359e+00 -6.515555381774902344e-01 -9.369952082633972168e-01 -4.765652120113372803e-01 8.845973014831542969e-01
3.310000000000000000e+03 2.394798660278320312e+01 -5.663493633270263672e+00 -8.894351124763488770e-01 -9.454075098037719727e-01 -5.504527688026428223e-01 9.659907221794128418e-01
3.311000000000000000e+03 2.503482246398925781e+01 -4.677486896514892578e+00 -6.250136997550725937e-03 -3.788782954216003418e-01 -1.155385300517082214e-01 -2.584221772849559784e-03
3.312000000000000000e+03 2.504414367675781250e+01 -7.716547489166259766e+00 -2.126384377479553223e-01 -1.112040281295776367e+00 -3.974036276340484619e-01 4.481083750724792480e-01
3.313000000000000000e+03 2.529660034179687500e+01 -4.911152839660644531e+00 -8.443372324109077454e-03 -9.034351259469985962e-02 -2.963606454432010651e-02 -3.571852296590805054e-02
3.314000000000000000e+03 2.485347557067871094e+01 -4.229238510131835938e+00 3.939056303352117538e-03 -3.613134622573852539e-01 -1.072123199701309204e-01 4.445407539606094360e-02
3.315000000000000000e+03 2.489411926269531250e+01 -4.041664600372314453e+00 3.516530850902199745e-03 -3.048393726348876953e-01 -9.039685130119323730e-02 4.201585426926612854e-02
3.316000000000000000e+03 2.514481544494628906e+01 -3.887785911560058594e+00 5.290695931762456894e-03 -1.842089444398880005e-01 -5.367547273635864258e-02 -1.075558597221970558e-03
3.317000000000000000e+03 2.385783195495605469e+01 -4.407023906707763672e+00 -1.405592560768127441e-01 -5.756005048751831055e-01 -2.148479372262954712e-01 4.143167138099670410e-01
3.318000000000000000e+03 2.480375862121582031e+01 -4.427056312561035156e+00 -1.174717559479176998e-03 -4.434208869934082031e-01 -1.333786845207214355e-01 6.734281778335571289e-02
3.319000000000000000e+03 2.450974464416503906e+01 -3.616752624511718750e+00 -7.856493815779685974e-03 -3.288438916206359863e-01 -1.010101214051246643e-01 1.137855648994445801e-01
3.320000000000000000e+03 2.654344177246093750e+01 -4.601086616516113281e+00 -2.219654321670532227e-01 1.769794151186943054e-02 -6.128024682402610779e-02 -1.723914444446563721e-01
3.321000000000000000e+03 2.651302909851074219e+01 -4.816117286682128906e+00 -2.874662876129150391e-01 2.390567958354949951e-02 -7.906818389892578125e-02 -2.178120762109756470e-01
3.322000000000000000e+03 2.644247245788574219e+01 -5.657985210418701172e+00 -7.907005548477172852e-01 1.692312806844711304e-01 -1.864407807588577271e-01 -4.169284999370574951e-01
3.323000000000000000e+03 2.641084671020507812e+01 -5.860438346862792969e+00 -1.026845455169677734e+00 2.405256032943725586e-01 -2.358959615230560303e-01 -4.469495415687561035e-01
3.324000000000000000e+03 2.608980560302734375e+01 -6.346077442169189453e+00 -1.837931871414184570e+00 2.936245799064636230e-01 -4.632921814918518066e-01 -3.779423832893371582e-01
3.325000000000000000e+03 2.631167221069335938e+01 -4.299476146697998047e+00 -1.153732389211654663e-01 -2.535145170986652374e-02 -4.221740737557411194e-02 -1.142104864120483398e-01
3.326000000000000000e+03 2.628340721130371094e+01 -3.943870067596435547e+00 -7.072585821151733398e-02 -1.775815337896347046e-02 -2.654520422220230103e-02 -7.050300389528274536e-02
3.327000000000000000e+03 2.607060813903808594e+01 -3.946179628372192383e+00 -4.353970661759376526e-02 -2.508743666112422943e-02 -2.058814279735088348e-02 -5.334601551294326782e-02
3.328000000000000000e+03 2.583306503295898438e+01 -4.611773014068603516e+00 -7.304666191339492798e-02 -1.138054803013801575e-01 -5.605564266443252563e-02 -1.215671747922897339e-01
3.329000000000000000e+03 2.541907691955566406e+01 -3.745365381240844727e+00 -6.033306475728750229e-03 2.452224865555763245e-02 5.546682979911565781e-03 2.880009822547435760e-03
3.330000000000000000e+03 2.607468795776367188e+01 -3.686495780944824219e+00 -2.908662892878055573e-02 -7.992001250386238098e-03 -1.112358924001455307e-02 -3.272807225584983826e-02
3.331000000000000000e+03 2.538442230224609375e+01 -4.126059532165527344e+00 -9.492960758507251740e-03 3.458924824371933937e-03 -1.810210756957530975e-03 -9.064265526831150055e-03
3.332000000000000000e+03 2.555432701110839844e+01 -4.036089420318603516e+00 -8.293222635984420776e-03 -1.071494631469249725e-02 -5.702450405806303024e-03 -1.531866565346717834e-02
3.333000000000000000e+03 2.455854606628417969e+01 -3.379205226898193359e+00 5.725650116801261902e-03 -2.544872462749481201e-01 -7.462847232818603516e-02 9.465768933296203613e-02
3.334000000000000000e+03 2.498504257202148438e+01 -3.450302362442016602e+00 1.639687828719615936e-02 -1.581066399812698364e-01 -4.251292720437049866e-02 3.299082070589065552e-02
3.335000000000000000e+03 2.407043266296386719e+01 -3.482880115509033203e+00 -3.332895040512084961e-02 -3.591771721839904785e-01 -1.177518367767333984e-01 2.126748859882354736e-01
3.336000000000000000e+03 2.477214050292968750e+01 -3.413934946060180664e+00 5.673441104590892792e-03 -2.352546602487564087e-01 -6.887436658143997192e-02 5.450339242815971375e-02
3.337000000000000000e+03 2.476365470886230469e+01 -5.294075489044189453e+00 -1.109483744949102402e-02 -9.342276453971862793e-01 -2.835967540740966797e-01 1.345731019973754883e-01
3.338000000000000000e+03 2.501625633239746094e+01 -4.880769252777099609e+00 7.084002252668142319e-03 -4.502087533473968506e-01 -1.329374313354492188e-01 -6.099383346736431122e-03
3.339000000000000000e+03 2.382614517211914062e+01 -5.307817935943603516e+00 -5.320013165473937988e-01 -8.187894821166992188e-01 -4.052372276782989502e-01 7.743766307830810547e-01
3.340000000000000000e+03 2.413556289672851562e+01 -4.530281066894531250e+00 -9.019128233194351196e-02 -6.459062099456787109e-01 -2.208292335271835327e-01 3.405789434909820557e-01
3.341000000000000000e+03 2.388886070251464844e+01 -3.987972259521484375e+00 -7.972849905490875244e-02 -4.735032320022583008e-01 -1.659695208072662354e-01 3.107617795467376709e-01
3.342000000000000000e+03 2.531835365295410156e+01 -4.508018016815185547e+00 -1.148048043251037598e-02 -3.258353844285011292e-02 -1.321920566260814667e-02 -1.566697657108306885e-02
3.343000000000000000e+03 2.538222885131835938e+01 -3.935291051864624023e+00 1.833072514273226261e-03 2.053134888410568237e-02 6.709326524287462234e-03 -3.434532554820179939e-03
3.344000000000000000e+03 2.588686370849609375e+01 -5.125757694244384766e+00 -1.918076425790786743e-01 -2.199966311454772949e-01 -1.235412806272506714e-01 -2.776401340961456299e-01
3.345000000000000000e+03 2.458023071289062500e+01 -4.836081504821777344e+00 -8.367286500288173556e-05 -7.367575168609619141e-01 -2.210523486137390137e-01 1.724310070276260376e-01
3.346000000000000000e+03 2.586361312866210938e+01 -3.643079280853271484e+00 -1.479435805231332779e-02 -6.788396276533603668e-03 -6.474826019257307053e-03 -2.013071067631244659e-02
3.347000000000000000e+03 2.609733009338378906e+01 -5.592330455780029297e+00 -6.708134412765502930e-01 -1.361736506223678589e-01 -2.420961260795593262e-01 -5.467945337295532227e-01
3.348000000000000000e+03 2.541732025146484375e+01 -5.383788108825683594e+00 -8.522351086139678955e-02 -3.651235699653625488e-01 -1.351041197776794434e-01 -1.988620162010192871e-01
3.349000000000000000e+03 2.442169189453125000e+01 -5.150016784667968750e+00 -9.453432261943817139e-02 -9.888677000999450684e-01 -3.250206112861633301e-01 3.771093785762786865e-01
3.350000000000000000e+03 2.437132644653320312e+01 -5.459072589874267578e+00 -2.651429176330566406e-01 -1.269576430320739746e+00 -4.604158103466033936e-01 6.307480335235595703e-01
3.351000000000000000e+03 2.424723815917968750e+01 -5.275103569030761719e+00 -2.391863465309143066e-01 -1.070952177047729492e+00 -3.930415511131286621e-01 5.945246219635009766e-01
3.352000000000000000e+03 2.397243499755859375e+01 -5.222361564636230469e+00 -3.729872107505798340e-01 -9.009971618652343750e-01 -3.821953237056732178e-01 7.020834088325500488e-01
3.353000000000000000e+03 2.376507568359375000e+01 -4.791869163513183594e+00 -2.647592723369598389e-01 -6.700509786605834961e-01 -2.804430723190307617e-01 5.625966191291809082e-01
3.354000000000000000e+03 2.417362022399902344e+01 -3.800987243652343750e+00 -3.567308187484741211e-02 -4.041004478931427002e-01 -1.319320499897003174e-01 2.157299965620040894e-01
3.355000000000000000e+03 2.426769065856933594e+01 -3.579048871994018555e+00 -2.432654239237308502e-02 -3.404990136623382568e-01 -1.094476655125617981e-01 1.735569238662719727e-01
3.356000000000000000e+03 2.583483314514160156e+01 -3.889765977859497070e+00 -2.238162234425544739e-02 -2.073435485363006592e-02 -1.293479278683662415e-02 -3.377240151166915894e-02
3.357000000000000000e+03 2.577145385742187500e+01 -4.140347957611083984e+00 -2.297266945242881775e-02 -4.351941496133804321e-02 -1.994762569665908813e-02 -4.378398507833480835e-02
3.358000000000000000e+03 2.562281608581542969e+01 -3.817522287368774414e+00 -8.429971523582935333e-03 -4.440907854586839676e-03 -3.861263627186417580e-03 -1.417905930429697037e-02
3.359000000000000000e+03 2.598523330688476562e+01 -4.443672657012939453e+00 -8.253138512372970581e-02 -8.427366614341735840e-02 -5.004151538014411926e-02 -1.205158606171607971e-01
3.360000000000000000e+03 2.473609542846679688e+01 -3.627521038055419922e+00 1.046244893223047256e-02 -2.617163658142089844e-01 -7.537617534399032593e-02 6.847991049289703369e-02
3.361000000000000000e+03 2.455832672119140625e+01 -5.012563228607177734e+00 -2.741596847772598267e-02 -8.591431379318237305e-01 -2.659677267074584961e-01 2.368061691522598267e-01
3.362000000000000000e+03 2.581316947937011719e+01 -4.953498363494873047e+00 -1.254543662071228027e-01 -1.953525841236114502e-01 -9.624208509922027588e-02 -2.014551907777786255e-01
3.363000000000000000e+03 2.432557106018066406e+01 -4.706994056701660156e+00 -5.726396664977073669e-02 -7.232141494750976562e-01 -2.341434359550476074e-01 3.114622831344604492e-01
3.364000000000000000e+03 2.426685333251953125e+01 -4.384222984313964844e+00 -3.280039131641387939e-02 -5.922395586967468262e-01 -1.875119805335998535e-01 2.643511891365051270e-01
3.365000000000000000e+03 2.574527740478515625e+01 -4.389447689056396484e+00 -3.687911853194236755e-02 -7.136698067188262939e-02 -3.247382864356040955e-02 -6.452862173318862915e-02
3.366000000000000000e+03 2.388469123840332031e+01 -4.198482036590576172e+00 -9.872288256883621216e-02 -5.194545984268188477e-01 -1.854532510042190552e-01 3.441638946533203125e-01
3.367000000000000000e+03 2.565490913391113281e+01 -3.592185258865356445e+00 -3.293758956715464592e-03 7.387913297861814499e-03 1.228246372193098068e-03 -7.628316059708595276e-03
3.368000000000000000e+03 2.531559181213378906e+01 -4.703505992889404297e+00 -1.004409138113260269e-02 -5.892206355929374695e-02 -2.068984694778919220e-02 -2.823308669030666351e-02
3.369000000000000000e+03 2.628166389465332031e+01 -3.716512918472290039e+00 -3.994838520884513855e-02 -8.569194935262203217e-03 -1.455527357757091522e-02 -3.940932080149650574e-02
3.370000000000000000e+03 2.648593139648437500e+01 -3.748120546340942383e+00 -7.452061772346496582e-02 9.160542860627174377e-03 -1.960802078247070312e-02 -4.999265819787979126e-02
3.371000000000000000e+03 2.557885360717773438e+01 -4.684271812438964844e+00 -4.865369573235511780e-02 -1.154975146055221558e-01 -4.924536123871803284e-02 -8.646292984485626221e-02
3.372000000000000000e+03 2.640112113952636719e+01 -4.110297203063964844e+00 -1.044918298721313477e-01 -5.669124424457550049e-03 -3.304828703403472900e-02 -9.293646365404129028e-02
3.373000000000000000e+03 2.525883483886718750e+01 -5.118729591369628906e+00 -1.097895856946706772e-02 -1.257473677396774292e-01 -4.101789742708206177e-02 -4.209174960851669312e-02
3.374000000000000000e+03 2.576512336730957031e+01 -5.621245384216308594e+00 -4.995452463626861572e-01 -4.126336574554443359e-01 -2.736536562442779541e-01 -5.732060670852661133e-01
3.375000000000000000e+03 2.662689590454101562e+01 -4.191245079040527344e+00 -1.434491276741027832e-01 2.287740074098110199e-02 -3.617151826620101929e-02 -1.012619659304618835e-01
3.376000000000000000e+03 2.621422386169433594e+01 -4.775994300842285156e+00 -1.958707422018051147e-01 -6.873229146003723145e-02 -7.938091456890106201e-02 -2.123465985059738159e-01
3.377000000000000000e+03 2.646518707275390625e+01 -5.456008911132812500e+00 -6.338090896606445312e-01 1.048968806862831116e-01 -1.586736589670181274e-01 -3.863820135593414307e-01
3.378000000000000000e+03 2.623130607604980469e+01 -5.767131805419921875e+00 -9.092174172401428223e-01 7.447921484708786011e-02 -2.504214644432067871e-01 -5.101402997970581055e-01
3.379000000000000000e+03 2.592603492736816406e+01 -5.440439701080322266e+00 -4.167347848415374756e-01 -2.672748565673828125e-01 -2.052028924226760864e-01 -4.558057785034179688e-01
3.380000000000000000e+03 2.508880996704101562e+01 -4.280390262603759766e+00 -8.589258650317788124e-04 -2.698031961917877197e-01 -8.119864016771316528e-02 -8.983192965388298035e-04
3.381000000000000000e+03 2.477832603454589844e+01 -4.636470794677734375e+00 4.155547358095645905e-03 -5.215529203414916992e-01 -1.552192121744155884e-01 7.529953122138977051e-02
3.382000000000000000e+03 2.476161766052246094e+01 -5.069091320037841797e+00 1.009371783584356308e-02 -7.774059176445007324e-01 -2.301936596632003784e-01 1.126575171947479248e-01
3.383000000000000000e+03 2.499658584594726562e+01 -5.086059093475341797e+00 -1.731546828523278236e-03 -5.317641496658325195e-01 -1.600487083196640015e-01 -1.154415681958198547e-02
3.384000000000000000e+03 2.607898902893066406e+01 -6.154911518096923828e+00 -1.543621301651000977e+00 1.712999641895294189e-01 -4.116963744163513184e-01 -5.469499230384826660e-01
3.385000000000000000e+03 2.618585586547851562e+01 -6.946872711181640625e+00 -1.637293815612792969e+00 2.780161201953887939e-01 -4.077832996845245361e-01 4.513743221759796143e-01
3.386000000000000000e+03 2.413637161254882812e+01 -3.991327762603759766e+00 -4.660227894783020020e-02 -4.739308655261993408e-01 -1.561599373817443848e-01 2.549477517604827881e-01
3.387000000000000000e+03 2.380542755126953125e+01 -4.601583480834960938e+00 -1.970929503440856934e-01 -6.346150040626525879e-01 -2.495123893022537231e-01 4.865440726280212402e-01
3.388000000000000000e+03 2.420562934875488281e+01 -4.820010185241699219e+00 -1.240795254707336426e-01 -7.683781385421752930e-01 -2.677372992038726807e-01 3.955467045307159424e-01
3.389000000000000000e+03 2.393032073974609375e+01 -5.047680854797363281e+00 -3.196485638618469238e-01 -8.010547161102294922e-01 -3.362109661102294922e-01 6.208423376083374023e-01
3.390000000000000000e+03 2.366921234130859375e+01 -5.348021984100341797e+00 -6.396825313568115234e-01 -7.070766091346740723e-01 -4.040277600288391113e-01 8.047925233840942383e-01
3.391000000000000000e+03 2.361821556091308594e+01 -5.730995655059814453e+00 -1.033416628837585449e+00 -6.059814095497131348e-01 -4.918194115161895752e-01 8.750888109207153320e-01
3.392000000000000000e+03 2.376695632934570312e+01 -5.756513118743896484e+00 -1.064563751220703125e+00 -6.773687005043029785e-01 -5.225797295570373535e-01 9.336581230163574219e-01
3.393000000000000000e+03 2.387879562377929688e+01 -5.814617633819580078e+00 -1.135783314704895020e+00 -8.254154920578002930e-01 -5.883595943450927734e-01 9.939667582511901855e-01
3.394000000000000000e+03 2.378503227233886719e+01 -5.901699542999267578e+00 -1.264004111289978027e+00 -6.469219923019409180e-01 -5.732778310775756836e-01 9.673319458961486816e-01
3.395000000000000000e+03 2.408854675292968750e+01 -5.406444072723388672e+00 -4.733123779296875000e-01 -1.045267462730407715e+00 -4.555739462375640869e-01 7.739938497543334961e-01
3.396000000000000000e+03 2.387093162536621094e+01 -7.179201126098632812e+00 -1.340421199798583984e+00 -7.943290472030639648e-01 -6.404250860214233398e-01 -3.837241232395172119e-01
3.397000000000000000e+03 2.397632217407226562e+01 -7.035234451293945312e+00 -1.866712212562561035e+00 -8.097192645072937012e-01 -8.029294610023498535e-01 -3.933238089084625244e-01
3.398000000000000000e+03 2.407203674316406250e+01 -6.954033374786376953e+00 -2.168590307235717773e+00 -8.503540158271789551e-01 -9.056833386421203613e-01 -3.450235128402709961e-01
3.399000000000000000e+03 2.420511627197265625e+01 -7.103343486785888672e+00 -1.820172309875488281e+00 -1.071929335594177246e+00 -8.676304817199707031e-01 -5.092730522155761719e-01
3.400000000000000000e+03 2.450788688659667969e+01 -7.637993812561035156e+00 -3.645658195018768311e-01 -1.319190502166748047e+00 -5.051268935203552246e-01 -3.850713670253753662e-01
3.401000000000000000e+03 2.445508193969726562e+01 -7.337110996246337891e+00 -9.712129235267639160e-01 -1.475650429725646973e+00 -7.340589761734008789e-01 -4.382568597793579102e-01
3.402000000000000000e+03 2.493198394775390625e+01 -7.496249675750732422e+00 -6.271644830703735352e-01 -1.735980510711669922e+00 -7.089434862136840820e-01 2.026057243347167969e-01
3.403000000000000000e+03 2.583617782592773438e+01 -7.386029720306396484e+00 -8.156287670135498047e-01 -2.725775837898254395e-01 -3.264619112014770508e-01 1.061482906341552734e+00
3.404000000000000000e+03 2.569269752502441406e+01 -7.134960174560546875e+00 -1.879303216934204102e+00 -3.906680345535278320e-01 -6.809914112091064453e-01 1.061487436294555664e+00
3.405000000000000000e+03 2.590368080139160156e+01 -7.005265235900878906e+00 -2.000534296035766602e+00 1.778637804090976715e-02 -5.948243737220764160e-01 6.969628930091857910e-01
3.406000000000000000e+03 2.596362686157226562e+01 -6.711637020111083984e+00 -2.175562143325805664e+00 2.013496905565261841e-01 -5.922636985778808594e-01 2.308638840913772583e-01
3.407000000000000000e+03 2.603422546386718750e+01 -6.885217189788818359e+00 -1.904838085174560547e+00 2.915981411933898926e-01 -4.839719831943511963e-01 6.529332399368286133e-01
3.408000000000000000e+03 2.615125656127929688e+01 -6.658265590667724609e+00 -1.830724239349365234e+00 3.109161555767059326e-01 -4.559424519538879395e-01 8.816161006689071655e-02
3.409000000000000000e+03 2.492777061462402344e+01 -3.852812290191650391e+00 9.810012998059391975e-04 -2.535646557807922363e-01 -7.577510178089141846e-02 2.998102456331253052e-02
3.410000000000000000e+03 2.442499160766601562e+01 -4.312707901000976562e+00 -3.455170616507530212e-02 -4.961589276790618896e-01 -1.592131853103637695e-01 1.991741657257080078e-01
3.411000000000000000e+03 2.472439765930175781e+01 -3.819192409515380859e+00 -6.591098499484360218e-04 -3.003423213958740234e-01 -9.030042588710784912e-02 7.434737682342529297e-02
3.412000000000000000e+03 2.604383659362792969e+01 -4.204916477203369141e+00 -6.917404383420944214e-02 -5.004241690039634705e-02 -3.576493635773658752e-02 -8.881933242082595825e-02
3.413000000000000000e+03 2.467979621887207031e+01 -3.984398841857910156e+00 -3.192614298313856125e-03 -3.670619726181030273e-01 -1.110763773322105408e-01 8.847381919622421265e-02
3.414000000000000000e+03 2.439781761169433594e+01 -4.142460823059082031e+00 -1.310440897941589355e-02 -4.705511331558227539e-01 -1.450966596603393555e-01 1.789582967758178711e-01
3.415000000000000000e+03 2.462561798095703125e+01 -4.161279201507568359e+00 1.582996803335845470e-03 -4.317298531532287598e-01 -1.290440559387207031e-01 1.116203293204307556e-01
3.416000000000000000e+03 2.453243827819824219e+01 -3.843608140945434570e+00 1.546759740449488163e-03 -3.660177290439605713e-01 -1.093412935733795166e-01 1.240617707371711731e-01
3.417000000000000000e+03 2.608887290954589844e+01 -5.242609024047851562e+00 -3.608148097991943359e-01 -1.634250134229660034e-01 -1.572719514369964600e-01 -3.855490386486053467e-01
3.418000000000000000e+03 2.598181724548339844e+01 -4.975208282470703125e+00 -2.119584828615188599e-01 -1.678847670555114746e-01 -1.139529719948768616e-01 -2.621899247169494629e-01
3.419000000000000000e+03 2.619391632080078125e+01 -5.016129016876220703e+00 -2.874976992607116699e-01 -8.966956287622451782e-02 -1.131501793861389160e-01 -2.868850231170654297e-01
3.420000000000000000e+03 2.430568695068359375e+01 -4.969478607177734375e+00 -1.163925305008888245e-01 -8.611857295036315918e-01 -2.932734787464141846e-01 4.088251590728759766e-01
3.421000000000000000e+03 2.409668922424316406e+01 -5.120778560638427734e+00 -2.484343051910400391e-01 -9.182022809982299805e-01 -3.499909639358520508e-01 5.824546217918395996e-01
3.422000000000000000e+03 2.414981079101562500e+01 -4.962971210479736328e+00 -1.758223921060562134e-01 -8.556739687919616699e-01 -3.094488978385925293e-01 4.883897006511688232e-01
3.423000000000000000e+03 2.416253662109375000e+01 -4.191808223724365234e+00 -5.693564936518669128e-02 -5.384070277214050293e-01 -1.786027997732162476e-01 2.780821919441223145e-01
3.424000000000000000e+03 2.434192848205566406e+01 -3.936242103576660156e+00 -2.419282682240009308e-02 -4.288593530654907227e-01 -1.359156519174575806e-01 1.787674725055694580e-01
3.425000000000000000e+03 2.443317794799804688e+01 -4.880738258361816406e+00 -5.306376516819000244e-02 -8.381022810935974121e-01 -2.673498094081878662e-01 2.940353453159332275e-01
3.426000000000000000e+03 2.594994544982910156e+01 -4.799030780792236328e+00 -1.300549209117889404e-01 -1.517003029584884644e-01 -8.452656865119934082e-02 -1.965582370758056641e-01
3.427000000000000000e+03 2.446231842041015625e+01 -4.454408168792724609e+00 -1.918601058423519135e-02 -5.860247015953063965e-01 -1.815632134675979614e-01 1.978887915611267090e-01
3.428000000000000000e+03 2.459326744079589844e+01 -4.350214958190917969e+00 -9.840932034421712160e-05 -5.257572531700134277e-01 -1.577567011117935181e-01 1.282335817813873291e-01
3.429000000000000000e+03 2.610774803161621094e+01 -1.683535933494567871e+00 4.861919675022363663e-03 1.584788225591182709e-02 6.212940905243158340e-03 9.381338953971862793e-03
3.430000000000000000e+03 2.614168739318847656e+01 -3.452633857727050781e+00 -2.290251478552818298e-02 -2.199133741669356823e-04 -6.936728488653898239e-03 -2.229557558894157410e-02
3.431000000000000000e+03 2.623493957519531250e+01 -1.050294280052185059e+00 2.180140465497970581e-03 5.102869123220443726e-03 2.184903016313910484e-03 2.668449655175209045e-03
3.432000000000000000e+03 2.654683113098144531e+01 -1.486540198326110840e+00 7.946025580167770386e-03 8.448855951428413391e-03 4.918464459478855133e-03 1.275458373129367828e-02
3.433000000000000000e+03 2.574663925170898438e+01 -3.283980846405029297e+00 -6.276254542171955109e-03 1.182779669761657715e-02 1.665462506935000420e-03 -3.939596004784107208e-03
3.434000000000000000e+03 2.646821784973144531e+01 -3.462378978729248047e+00 -3.546682000160217285e-02 6.087344605475664139e-03 -8.813842199742794037e-03 -2.994400821626186371e-02
3.435000000000000000e+03 2.629921340942382812e+01 -3.500817537307739258e+00 -3.443451970815658569e-02 -3.077546833083033562e-03 -1.125361956655979156e-02 -3.333878517150878906e-02
3.436000000000000000e+03 2.693282318115234375e+01 -2.065404891967773438e+00 -3.867750987410545349e-03 1.973942853510379791e-02 4.761503543704748154e-03 1.775567978620529175e-02
3.437000000000000000e+03 2.596301651000976562e+01 -3.359851598739624023e+00 -1.055169291794300079e-02 6.130590569227933884e-03 -1.326330588199198246e-03 -1.043059118092060089e-02
3.438000000000000000e+03 2.554558563232421875e+01 -3.157785654067993164e+00 -1.668946933932602406e-03 3.539066016674041748e-02 1.011651381850242615e-02 8.554502390325069427e-03
3.439000000000000000e+03 2.674337577819824219e+01 -3.337803125381469727e+00 -5.074334517121315002e-02 1.793089322745800018e-02 -9.843735024333000183e-03 -2.567034028470516205e-02
3.440000000000000000e+03 2.652812576293945312e+01 -2.703329563140869141e+00 -1.579462178051471710e-02 1.746606454253196716e-02 5.014325142838060856e-04 1.267862273380160332e-03
3.441000000000000000e+03 2.583127403259277344e+01 -2.905339956283569336e+00 -5.945282522588968277e-03 2.760177291929721832e-02 6.496946793049573898e-03 4.616747144609689713e-03
3.442000000000000000e+03 2.618072509765625000e+01 -3.078049421310424805e+00 -1.447980012744665146e-02 1.065109018236398697e-02 -1.148613053373992443e-03 -1.208085659891366959e-02
3.443000000000000000e+03 2.596494102478027344e+01 -2.377901077270507812e+00 3.824839834123849869e-03 2.634006924927234650e-02 9.049472399055957794e-03 1.251155417412519455e-02
3.444000000000000000e+03 2.632031631469726562e+01 -3.311237812042236328e+00 -2.353342249989509583e-02 6.386858411133289337e-03 -5.143969319760799408e-03 -2.062993869185447693e-02
3.445000000000000000e+03 3.626428222656250000e+01 2.291800230741500854e-01 3.569785058498382568e-01 -2.390410751104354858e-02 9.992232173681259155e-02 4.809503629803657532e-02
3.446000000000000000e+03 3.700691604614257812e+01 3.713000714778900146e-01 2.956452369689941406e-01 5.549285560846328735e-03 9.035836160182952881e-02 1.235343515872955322e-02
3.447000000000000000e+03 3.774913024902343750e+01 5.148828029632568359e-01 2.080726176500320435e-01 -2.503815852105617523e-02 5.491033941507339478e-02 -2.989391097798943520e-03
3.448000000000000000e+03 3.714301300048828125e+01 -3.560831546783447266e-01 3.275043666362762451e-01 -6.064731627702713013e-02 8.005711436271667480e-02 -3.319596871733665466e-02
3.449000000000000000e+03 3.638907623291015625e+01 -5.003663301467895508e-01 3.637036085128784180e-01 -3.802875801920890808e-02 9.770245850086212158e-02 -5.000055767595767975e-03
3.450000000000000000e+03 3.552131271362304688e+01 8.855232596397399902e-02 4.042378962039947510e-01 2.948588505387306213e-02 1.301171332597732544e-01 5.366056039929389954e-02
3.451000000000000000e+03 3.563480377197265625e+01 -6.431571245193481445e-01 3.558365702629089355e-01 -3.551731631159782410e-02 9.609577804803848267e-02 4.990940913558006287e-02
3.452000000000000000e+03 3.789653396606445312e+01 -2.103372663259506226e-01 2.828312814235687256e-01 -4.199074953794479370e-02 7.225216180086135864e-02 -7.651056349277496338e-02
3.453000000000000000e+03 3.930067825317382812e+01 9.922036528587341309e-02 1.440182477235794067e-01 1.927701197564601898e-02 4.898857697844505310e-02 -8.711868524551391602e-02
3.454000000000000000e+03 3.855447387695312500e+01 6.957588195800781250e-01 1.021429598331451416e-01 -1.161865802714601159e-04 3.060803189873695374e-02 -2.540573105216026306e-02
3.455000000000000000e+03 3.862992095947265625e+01 -4.634715989232063293e-02 2.127247452735900879e-01 -2.837563306093215942e-02 5.530473217368125916e-02 -7.865883409976959229e-02
3.456000000000000000e+03 3.938044357299804688e+01 8.772612810134887695e-01 1.677161827683448792e-02 1.444976776838302612e-03 5.464978050440549850e-03 -1.191773172467947006e-02
3.457000000000000000e+03 3.984883117675781250e+01 7.514759302139282227e-01 3.176789963617920876e-03 -1.465690322220325470e-03 5.133299273438751698e-04 -7.413013838231563568e-03
3.458000000000000000e+03 4.003703308105468750e+01 -1.348317414522171021e-02 5.158315598964691162e-02 7.581308484077453613e-02 3.821887448430061340e-02 -1.044572815299034119e-01
3.459000000000000000e+03 4.031000137329101562e+01 6.160373240709304810e-02 -2.350165098905563354e-01 3.653814271092414856e-02 -5.954350903630256653e-02 1.299654096364974976e-01
3.460000000000000000e+03 4.015410995483398438e+01 1.204976290464401245e-01 -4.216015338897705078e-02 3.860614961013197899e-03 -1.148986164480447769e-02 6.086318753659725189e-03
3.461000000000000000e+03 3.975582885742187500e+01 2.228965312242507935e-01 6.428047269582748413e-02 2.500154823064804077e-02 2.678460627794265747e-02 -6.646747887134552002e-02
3.462000000000000000e+03 4.000929260253906250e+01 3.615685105323791504e-01 7.458004401996731758e-04 5.849938094615936279e-02 1.777355559170246124e-02 -2.269284240901470184e-02
3.463000000000000000e+03 4.015885162353515625e+01 5.596781373023986816e-01 -6.734013091772794724e-03 1.988519448786973953e-03 -1.423648092895746231e-03 8.880870416760444641e-03
3.464000000000000000e+03 4.028118515014648438e+01 1.702183857560157776e-02 -1.521242409944534302e-01 2.446805536746978760e-01 2.776689268648624420e-02 -9.657591581344604492e-02
3.465000000000000000e+03 3.930390930175781250e+01 1.640066742897033691e+00 -2.527167380321770906e-04 -2.537504187785089016e-04 -1.519401412224397063e-04 2.027354057645425200e-04
3.466000000000000000e+03 3.827055740356445312e+01 2.175478458404541016e+00 6.093900537962326780e-06 -4.106919004698283970e-05 -1.049258662533247843e-05 2.660578866198193282e-05
3.467000000000000000e+03 3.842579269409179688e+01 1.451845049858093262e+00 3.058896254515275359e-05 1.728574279695749283e-04 6.103391569922678173e-05 -7.952329178806394339e-05
3.468000000000000000e+03 3.970738601684570312e+01 2.309803485870361328e+00 2.991296059917658567e-04 3.530952380970120430e-04 1.956674386747181416e-04 -2.043737913481891155e-04
3.469000000000000000e+03 3.914430999755859375e+01 2.362690210342407227e+00 1.669055636739358306e-04 -5.402642636909149587e-05 3.386374373803846538e-05 -6.265802312555024400e-07
3.470000000000000000e+03 3.270701217651367188e+01 1.813640952110290527e+00 5.593067035079002380e-04 2.986762847285717726e-04 2.573949168436229229e-04 -3.933720581699162722e-04
3.471000000000000000e+03 7.138031005859375000e+01 -1.674990081787109375e+01 -3.714324975589988753e-06 3.422915710871166084e-07 -1.011610038403887302e-06 -6.795418272531605908e-08
3.472000000000000000e+03 7.211955261230468750e+01 -1.671120262145996094e+01 3.283974479018070269e-07 1.659330166603467660e-07 1.482991365264751948e-07 -6.036630111339036375e-07
3.473000000000000000e+03 7.071197509765625000e+01 -1.752739334106445312e+01 -6.273417966440320015e-06 -5.599159180746937636e-07 -2.050000148301478475e-06 -4.269502937859215308e-07
3.474000000000000000e+03 7.287363433837890625e+01 -1.741421890258789062e+01 8.379026439797598869e-06 -8.477083497382409405e-07 2.259395387227414176e-06 -9.824610742725781165e-07
3.475000000000000000e+03 7.215311431884765625e+01 -1.745045852661132812e+01 -6.410485184460412711e-06 6.674841301901324186e-07 -1.722900265122007113e-06 2.224664058303460479e-06
3.476000000000000000e+03 7.143251037597656250e+01 -1.748818206787109375e+01 5.694739684258820489e-06 1.026076347443449777e-06 2.016244707192527130e-06 -1.660899215494282544e-06
3.477000000000000000e+03 7.285870361328125000e+01 -1.667398834228515625e+01 -4.244332103553460911e-06 -3.290250560894492082e-07 -1.372007091049454175e-06 3.610888370531029068e-07
3.478000000000000000e+03 7.064115142822265625e+01 -1.679008674621582031e+01 9.878584705802495591e-07 -1.193653588416054845e-06 -6.173853250857064268e-08 -1.918131857792104711e-07
3.479000000000000000e+03 7.509190368652343750e+01 -1.672233772277832031e+01 1.462037602095733746e-07 2.923769443441415206e-06 9.209919653585529886e-07 -2.582616787094593747e-07
3.480000000000000000e+03 7.507875823974609375e+01 -1.746236038208007812e+01 -4.648695721698459238e-06 -1.448369062018173281e-06 -1.829119469221041072e-06 7.055648438836215064e-07
3.481000000000000000e+03 7.583750152587890625e+01 -1.675157546997070312e+01 -3.243990022383513860e-06 -2.266875753775821067e-06 -1.653259687373065390e-06 1.453804657103319187e-06
3.482000000000000000e+03 7.360292816162109375e+01 -1.740974807739257812e+01 -7.260380698426160961e-06 3.144425591017352417e-07 -2.083781510009430349e-06 4.559701665129978210e-07
3.483000000000000000e+03 7.434651947021484375e+01 -1.669533538818359375e+01 -3.909251518052769825e-06 -2.108176659021410160e-06 -1.805228407647518907e-06 -3.592393582607655844e-08
3.484000000000000000e+03 7.581685638427734375e+01 -1.749131965637207031e+01 3.953063242079224437e-06 2.187575773859862238e-06 1.842191636569623370e-06 -3.304416395621956326e-06
3.485000000000000000e+03 7.434088134765625000e+01 -1.743563652038574219e+01 6.999463948886841536e-06 4.132380411192571046e-07 2.223810497525846586e-06 5.584137241498865478e-08
3.486000000000000000e+03 7.360105895996093750e+01 -1.666916847229003906e+01 7.693878956160915550e-07 1.038589630297792610e-06 5.423932520898233633e-07 -3.904477452465471288e-08
3.487000000000000000e+03 7.968632507324218750e+01 -1.742419242858886719e+01 9.128636520472355187e-06 4.802914190804585814e-06 4.179465122433612123e-06 3.066864110223832540e-06
3.488000000000000000e+03 7.850669860839843750e+01 -1.755505180358886719e+01 5.816048997075995430e-06 -1.688442694103287067e-06 1.238281924997863825e-06 -6.546829354192595929e-07
3.489000000000000000e+03 7.652082824707031250e+01 -1.751028823852539062e+01 -5.589848115050699562e-06 -1.244368377228965983e-06 -2.050264811259694397e-06 5.639803930534981191e-06
3.490000000000000000e+03 7.873721313476562500e+01 -1.681438636779785156e+01 -2.189752422054880299e-06 3.974825631303247064e-06 5.355220764613477513e-07 2.018391569436062127e-06
3.491000000000000000e+03 7.785486602783203125e+01 -1.753419113159179688e+01 -8.155740033544134349e-06 2.508277475499198772e-06 -1.694238790150848217e-06 2.572540324763394892e-06
3.492000000000000000e+03 7.802648925781250000e+01 -1.679383087158203125e+01 1.055392885973560624e-06 -4.000009994342690334e-06 -8.833851552481064573e-07 -1.408183607054525055e-06
3.493000000000000000e+03 7.718931579589843750e+01 -1.751985740661621094e+01 7.393908617814304307e-06 -8.797335908639070112e-07 1.954252411451307125e-06 -4.701022589870262891e-06
3.494000000000000000e+03 7.657466888427734375e+01 -1.677053260803222656e+01 2.813227695241948823e-07 -2.213210592572067981e-07 1.800051663281010406e-08 -2.080377271340694278e-06
3.495000000000000000e+03 7.909966278076171875e+01 -1.758989524841308594e+01 -4.531450770173250930e-07 -3.290022277724347077e-06 -1.122950266108091455e-06 2.894442786782747135e-06
3.496000000000000000e+03 7.938906860351562500e+01 -1.684892654418945312e+01 -5.812380095449043438e-06 -6.418926204787567258e-06 -3.669391844596248120e-06 -6.365556146192830056e-06
3.497000000000000000e+03 7.730204772949218750e+01 -1.677979850769042969e+01 -3.789006996157695539e-06 2.912104037022800185e-06 -2.630708593187591759e-07 2.210777211075765081e-06
3.498000000000000000e+03 7.943219757080078125e+01 -1.525699043273925781e+01 -3.102418035268783569e-03 -3.844252205453813076e-04 -1.046052901074290276e-03 2.215660642832517624e-03
3.499000000000000000e+03 7.838642120361328125e+01 -1.516350746154785156e+01 1.698103616945445538e-03 -2.477322937920689583e-03 -2.337657642783597112e-04 2.307530259713530540e-03
3.500000000000000000e+03 7.780564117431640625e+01 -1.512424659729003906e+01 -3.985356073826551437e-03 -1.020655222237110138e-02 -4.257572349160909653e-03 -2.321150852367281914e-03
3.501000000000000000e+03 7.662574768066406250e+01 -1.525570678710937500e+01 -1.234792545437812805e-02 -8.944314904510974884e-03 -6.387671921402215958e-03 -7.093643769621849060e-03
3.502000000000000000e+03 7.725820159912109375e+01 -1.518011665344238281e+01 -5.344036035239696503e-03 2.046501031145453453e-03 -9.892603848129510880e-04 -3.371567931026220322e-03
3.503000000000000000e+03 7.888636779785156250e+01 -1.611222648620605469e+01 3.648450132459402084e-03 -3.040334209799766541e-03 1.824347564252093434e-04 1.612629741430282593e-03
3.504000000000000000e+03 7.888313293457031250e+01 -1.558502388000488281e+01 4.152284003794193268e-03 3.132981713861227036e-03 2.185579622164368629e-03 2.716586226597428322e-03
3.505000000000000000e+03 7.663484954833984375e+01 -1.599727630615234375e+01 7.724409922957420349e-03 3.049130551517009735e-03 3.232062095776200294e-03 -1.632903353311121464e-03
3.506000000000000000e+03 7.962244415283203125e+01 -1.590537452697753906e+01 8.040607208386063576e-04 2.929805777966976166e-03 1.120159984566271305e-03 1.469119219109416008e-03
3.507000000000000000e+03 7.827157592773437500e+01 -1.562149429321289062e+01 1.297689857892692089e-03 -2.169154118746519089e-03 -2.614393015392124653e-04 4.411430098116397858e-03
3.508000000000000000e+03 7.741748809814453125e+01 -1.606798362731933594e+01 9.835465811192989349e-03 -4.134939517825841904e-03 1.710157725028693676e-03 -1.308163744397461414e-03
3.509000000000000000e+03 7.816462707519531250e+01 -1.613920974731445312e+01 9.364575147628784180e-03 2.745130099356174469e-03 3.632911480963230133e-03 1.947532757185399532e-03
3.510000000000000000e+03 7.763186645507812500e+01 -1.553283691406250000e+01 -1.960455672815442085e-03 -3.658061148598790169e-03 -1.685555092990398407e-03 -6.867271731607615948e-04
3.511000000000000000e+03 7.896445465087890625e+01 -1.517584800720214844e+01 -2.703696489334106445e-03 4.732656292617321014e-03 6.086878711357712746e-04 6.251935847103595734e-03
3.512000000000000000e+03 7.435244750976562500e+01 -1.591604232788085938e+01 -1.822278462350368500e-02 -6.307064555585384369e-03 -7.358954753726720810e-03 -5.279070697724819183e-03
3.513000000000000000e+03 7.588006591796875000e+01 -1.523305606842041016e+01 -1.955565623939037323e-02 2.207946265116333961e-03 -5.204312968999147415e-03 -1.073924358934164047e-02
3.514000000000000000e+03 7.359722137451171875e+01 -1.514822292327880859e+01 -5.761646479368209839e-02 -1.569422194734215736e-03 -1.775576546788215637e-02 -1.614287681877613068e-02
3.515000000000000000e+03 7.510590362548828125e+01 -1.594404602050781250e+01 -7.096183951944112778e-03 5.675487220287322998e-03 -4.262090078555047512e-04 -4.395167808979749680e-03
3.516000000000000000e+03 7.359909057617187500e+01 -1.588880252838134766e+01 -3.034793771803379059e-02 6.684331223368644714e-03 -7.099082227796316147e-03 -5.523617379367351532e-03
3.517000000000000000e+03 7.435808563232421875e+01 -1.517574119567871094e+01 -4.373559728264808655e-02 3.201550338417291641e-03 -1.216021459549665451e-02 -1.733536273241043091e-02
3.518000000000000000e+03 7.585942077636718750e+01 -1.597279930114746094e+01 1.508657238446176052e-03 -5.455957259982824326e-03 -1.184190041385591030e-03 -4.333160351961851120e-03
3.519000000000000000e+03 7.511904144287109375e+01 -1.520402336120605469e+01 -3.086495026946067810e-02 -5.869508720934391022e-03 -1.102033816277980804e-02 -1.488150469958782196e-02
3.520000000000000000e+03 7.132652282714843750e+01 -1.597409629821777344e+01 -3.778602555394172668e-02 -4.830383695662021637e-03 -1.278492249548435211e-02 1.678001019172370434e-03
3.521000000000000000e+03 7.056670379638671875e+01 -1.601350212097167969e+01 -2.620486915111541748e-02 1.096829865127801895e-02 -4.570971243083477020e-03 5.814445670694112778e-03
3.522000000000000000e+03 7.208541107177734375e+01 -1.593443489074707031e+01 -4.061036184430122375e-02 7.619573269039392471e-03 -9.897236712276935577e-03 -2.172516426071524620e-03
3.523000000000000000e+03 7.284317016601562500e+01 -1.589438438415527344e+01 -3.943286463618278503e-02 -5.496141035109758377e-03 -1.347870193421840668e-02 -3.916611429303884506e-03
3.524000000000000000e+03 7.282823944091796875e+01 -1.515415287017822266e+01 -6.807073205709457397e-02 6.606025621294975281e-03 -1.843941025435924530e-02 -1.391685660928487778e-02
3.525000000000000000e+03 7.049587249755859375e+01 -1.527619743347167969e+01 -8.393142372369766235e-02 1.470617018640041351e-02 -2.076757512986660004e-02 1.331504061818122864e-02
3.526000000000000000e+03 7.127433013916015625e+01 -1.523581504821777344e+01 -8.162803947925567627e-02 9.049667045474052429e-03 -2.177351154386997223e-02 7.082414813339710236e-04
3.527000000000000000e+03 7.205184173583984375e+01 -1.519517898559570312e+01 -7.914309203624725342e-02 3.806480206549167633e-03 -2.260098420083522797e-02 -6.107239983975887299e-03
3.528000000000000000e+03 6.817024993896484375e+01 -1.550610160827636719e+01 -3.662652149796485901e-02 -2.860825881361961365e-02 -1.957043260335922241e-02 4.111429303884506226e-02
3.529000000000000000e+03 6.846852111816406250e+01 -1.537384891510009766e+01 -4.620607942342758179e-02 -1.915120147168636322e-02 -1.960718445479869843e-02 2.970494143664836884e-02
3.530000000000000000e+03 6.969725036621093750e+01 -1.535203933715820312e+01 -8.030541986227035522e-02 -9.154726751148700714e-03 -2.683804370462894440e-02 1.042428612709045410e-02
3.531000000000000000e+03 6.900823211669921875e+01 -1.536187553405761719e+01 -1.689308136701583862e-02 -3.294502967037260532e-04 -5.166759248822927475e-03 3.135952726006507874e-02
3.532000000000000000e+03 6.970433807373046875e+01 -1.610097312927246094e+01 -5.614350549876689911e-03 -4.706402309238910675e-03 -3.096225904300808907e-03 1.021649315953254700e-02
3.533000000000000000e+03 6.807101440429687500e+01 -1.580119132995605469e+01 4.374175146222114563e-02 4.700985923409461975e-02 2.722548320889472961e-02 -1.412477158010005951e-02
3.534000000000000000e+03 6.868652343750000000e+01 -1.567752170562744141e+01 6.961032049730420113e-04 -1.006445009261369705e-02 -2.810504054650664330e-03 4.575850442051887512e-02
3.535000000000000000e+03 6.877530670166015625e+01 -1.623340034484863281e+01 -4.426856059581041336e-03 -1.528323348611593246e-02 -5.913026630878448486e-03 -1.325707416981458664e-02
3.536000000000000000e+03 6.846734619140625000e+01 -1.765766716003417969e+01 1.140977747127180919e-05 1.146487829828402027e-05 6.862396730866748840e-06 -3.765687552004237659e-06
3.537000000000000000e+03 6.902794647216796875e+01 -1.774423980712890625e+01 6.229488462849985808e-06 -3.563255631888750941e-06 7.998697810762678273e-07 -1.356789539386227261e-06
3.538000000000000000e+03 6.989218139648437500e+01 -1.761616897583007812e+01 5.658969257638091221e-06 -2.910502416852978058e-07 1.610375761629256885e-06 2.147811670738519751e-07
3.539000000000000000e+03 6.980416870117187500e+01 -1.688065528869628906e+01 -2.026388983722426929e-06 2.015558493440039456e-06 -3.249149838069342877e-09 -1.184076040772197302e-06
3.540000000000000000e+03 6.892420196533203125e+01 -1.701133537292480469e+01 -7.704507879680022597e-06 -5.626748134091030806e-06 -3.999376531282905489e-06 5.678575234924210235e-06
3.541000000000000000e+03 1.639982223510742188e+01 -2.317397296428680420e-01 -8.919923305511474609e-01 -3.880922915413975716e-03 -2.687619626522064209e-01 -3.514817357063293457e-02
3.542000000000000000e+03 1.798723983764648438e+01 -8.314419388771057129e-01 -6.346023082733154297e-01 3.256744518876075745e-02 -1.806104630231857300e-01 7.850906997919082642e-02
3.543000000000000000e+03 1.645354080200195312e+01 -9.699125885963439941e-01 -7.488433718681335449e-01 1.778335683047771454e-02 -2.193180024623870850e-01 3.434353694319725037e-02
3.544000000000000000e+03 1.875374794006347656e+01 -7.599936723709106445e-01 -5.464063286781311035e-01 2.902441844344139099e-02 -1.552145630121231079e-01 1.042472720146179199e-01
3.545000000000000000e+03 1.790756225585937500e+01 -9.563824534416198730e-02 -7.028707861900329590e-01 5.606414750218391418e-03 -2.091792970895767212e-01 -1.418480370193719864e-02
3.546000000000000000e+03 1.866109085083007812e+01 -2.537456899881362915e-02 -6.000789999961853027e-01 2.356069162487983704e-03 -1.793168783187866211e-01 -3.963859286159276962e-03
3.547000000000000000e+03 1.715376663208007812e+01 -1.644264459609985352e-01 -7.987278103828430176e-01 4.992506466805934906e-03 -2.381206005811691284e-01 -2.870476618409156799e-02
3.548000000000000000e+03 1.722046470642089844e+01 -9.014146924018859863e-01 -7.051253318786621094e-01 2.853531949222087860e-02 -2.029770016670227051e-01 5.838132277131080627e-02
3.549000000000000000e+03 1.941230964660644531e+01 7.625918835401535034e-02 -4.626240432262420654e-01 2.472770633175969124e-03 -1.380453705787658691e-01 1.002869103103876114e-03
3.550000000000000000e+03 2.090952491760253906e+01 3.449267148971557617e-01 -1.909623295068740845e-01 5.573688074946403503e-03 -5.561659485101699829e-02 2.011939138174057007e-02
3.551000000000000000e+03 1.952174568176269531e+01 -6.559218764305114746e-01 -4.552099704742431641e-01 3.187800198793411255e-02 -1.269995868206024170e-01 1.236947253346443176e-01
3.552000000000000000e+03 2.106011390686035156e+01 -3.798714280128479004e-01 -2.528765201568603516e-01 1.754392497241497040e-02 -7.059977948665618896e-02 1.066815257072448730e-01
3.553000000000000000e+03 2.183077621459960938e+01 -2.417316585779190063e-01 -1.619573831558227539e-01 -1.145303831435739994e-04 -4.862157627940177917e-02 8.664535731077194214e-02
3.554000000000000000e+03 2.165959548950195312e+01 4.794237911701202393e-01 -9.522512555122375488e-02 4.802942741662263870e-03 -2.712665498256683350e-02 2.296684868633747101e-02
3.555000000000000000e+03 2.016033744812011719e+01 2.105962187051773071e-01 -3.121420741081237793e-01 9.351349435746669769e-03 -9.083721786737442017e-02 9.853571653366088867e-03
3.556000000000000000e+03 2.029035186767578125e+01 -5.178933739662170410e-01 -3.579926490783691406e-01 2.759505994617938995e-02 -9.911927580833435059e-02 1.198545247316360474e-01
3.557000000000000000e+03 2.514934921264648438e+01 1.402895808219909668e+00 7.673576939851045609e-03 -3.340155526529997587e-04 2.201868453994393349e-03 -3.245127154514193535e-03
3.558000000000000000e+03 2.423918342590332031e+01 1.199202895164489746e+00 1.607113331556320190e-02 -2.968902699649333954e-03 3.930669277906417847e-03 3.302332188468426466e-04
3.559000000000000000e+03 2.331616210937500000e+01 9.553393721580505371e-01 1.509547419846057892e-02 -1.876065041869878769e-03 3.965822979807853699e-03 8.812476880848407745e-03
3.560000000000000000e+03 2.440349769592285156e+01 4.681853353977203369e-01 -3.452401375398039818e-03 -1.020619831979274750e-02 -4.097579978406429291e-03 -5.424913018941879272e-03
3.561000000000000000e+03 2.245861434936523438e+01 6.854391098022460938e-01 -2.197438292205333710e-02 1.636414206586778164e-03 -6.101390812546014786e-03 1.881845854222774506e-02
3.562000000000000000e+03 2.263665962219238281e+01 -3.625113889575004578e-02 -8.443580567836761475e-02 -1.148697547614574432e-02 -2.877683565020561218e-02 4.976331442594528198e-02
3.563000000000000000e+03 2.348734283447265625e+01 2.289854735136032104e-01 -2.829002775251865387e-02 -1.531240437179803848e-02 -1.308073010295629501e-02 1.545100286602973938e-02
3.564000000000000000e+03 2.613602447509765625e+01 1.302997589111328125e+00 1.546058803796768188e-03 2.789866644889116287e-03 1.300777657888829708e-03 -1.578843803144991398e-03
3.565000000000000000e+03 2.289602470397949219e+01 2.428752899169921875e+00 -7.945202924020122737e-06 -1.595216781424824148e-05 -7.169211130531039089e-06 -6.464944362960522994e-06
3.566000000000000000e+03 2.207656478881835938e+01 2.160299539566040039e+00 5.448549472930608317e-06 1.510165020590648055e-05 6.165059858176391572e-06 -2.108595708705252036e-06
3.567000000000000000e+03 2.309196090698242188e+01 1.710520744323730469e+00 5.411813162936596200e-06 6.171678705868544057e-06 3.475047606116277166e-06 -5.178614514989021700e-07
3.568000000000000000e+03 2.226285171508789062e+01 1.441366434097290039e+00 -2.924897444245289080e-06 -8.519136827089823782e-06 -3.433210395087371580e-06 -1.171137640199049201e-07
3.569000000000000000e+03 2.365754890441894531e+01 2.680384397506713867e+00 1.596096080902498215e-05 3.092700126217096113e-06 5.716097803087905049e-06 9.091086212720256299e-06
3.570000000000000000e+03 2.446170997619628906e+01 2.351509332656860352e+00 1.351794139736739453e-06 4.746230843011289835e-06 1.829407437980989926e-06 -1.201569830300286412e-06
3.571000000000000000e+03 2.386312484741210938e+01 1.962898492813110352e+00 -5.973287443339359015e-06 -5.726744802814209834e-06 -3.510009719320805743e-06 3.472179969321587123e-06
3.572000000000000000e+03 2.075237083435058594e+01 1.106616377830505371e+00 -5.329302894097054377e-06 -9.511512871540617198e-06 -4.452244411368155852e-06 1.960710505954921246e-06
3.573000000000000000e+03 2.060178184509277344e+01 1.831414580345153809e+00 1.186290410259971395e-05 1.108928245230345055e-05 6.885656148369889706e-06 -2.014181745835230686e-06
3.574000000000000000e+03 2.130817413330078125e+01 1.960395336151123047e+00 -1.047648584062699229e-05 -1.257541225641034544e-05 -6.915569429111201316e-06 3.896511316270334646e-06
3.575000000000000000e+03 1.918785858154296875e+01 1.579434752464294434e+00 1.138889820140320808e-05 1.565301681694108993e-05 8.112574505503289402e-06 2.604730752864270471e-06
3.576000000000000000e+03 1.989505195617675781e+01 1.704050064086914062e+00 -1.241686641151318327e-05 -1.304672878177370876e-05 -7.639078830834478140e-06 -5.625179255730472505e-07
3.577000000000000000e+03 1.929729461669921875e+01 8.472537398338317871e-01 -5.084511485620168969e-06 -1.039393646351527423e-05 -4.643534339265897870e-06 -4.605445269589836244e-07
3.578000000000000000e+03 2.147934150695800781e+01 1.239288687705993652e+00 2.177242322431993671e-06 1.052881088980939239e-05 3.811815986409783363e-06 -2.521328951843315735e-06
3.579000000000000000e+03 2.002506446838378906e+01 9.755603671073913574e-01 2.966627334899385460e-06 8.851727216097060591e-06 3.545506388036301360e-06 -1.283324763790005818e-06
3.580000000000000000e+03 1.701650238037109375e+01 1.350294589996337891e+00 -7.264378837135154754e-06 -2.930117079813499004e-05 -1.096966479963157326e-05 -7.315347374969860539e-06
3.581000000000000000e+03 1.708320045471191406e+01 6.133062839508056641e-01 1.218052830154192634e-06 2.550685167079791427e-05 8.017471373022999614e-06 1.384908841828291770e-06
3.582000000000000000e+03 1.634315681457519531e+01 5.465459823608398438e-01 -3.639859187387628481e-06 -3.069307058467529714e-05 -1.029987924994202331e-05 -2.478130056715599494e-07
3.583000000000000000e+03 1.782329559326171875e+01 6.808430552482604980e-01 -4.794194865098688751e-06 -1.898156187962740660e-05 -7.132726750569418073e-06 -1.774592305991973262e-06
3.584000000000000000e+03 1.847070503234863281e+01 1.483781576156616211e+00 -1.270149277843302116e-05 -1.847708699642680585e-05 -9.353573659609537572e-06 -5.795402557851048186e-06
3.585000000000000000e+03 1.856336212158203125e+01 7.491624951362609863e-01 2.167664206353947520e-06 1.363782484986586496e-05 4.741646534967003390e-06 7.552537795163516421e-07
3.586000000000000000e+03 1.628943824768066406e+01 1.284718871116638184e+00 6.098454377934103832e-06 3.369583646417595446e-05 1.193828757095616311e-05 5.240829523245338351e-06
3.587000000000000000e+03 1.774361801147460938e+01 1.416646718978881836e+00 9.358930583402980119e-06 2.426510400255210698e-05 1.008721028483705595e-05 8.296522537420969456e-06
3.588000000000000000e+03 1.408120155334472656e+01 1.187072157859802246e+00 -7.360554263868834823e-06 -3.370079866726882756e-05 -1.231840542459394783e-05 3.325985289848176762e-06
3.589000000000000000e+03 1.410851097106933594e+01 4.475762248039245605e-01 4.514889042184222490e-06 3.432614539633505046e-05 1.165231060440419242e-05 -7.746142500764108263e-07
3.590000000000000000e+03 1.336430931091308594e+01 4.183164834976196289e-01 -8.565082225686637685e-07 -3.336311783641576767e-05 -1.026588779495796189e-05 1.971115125343203545e-06
3.591000000000000000e+03 1.485382461547851562e+01 4.748390913009643555e-01 -2.902138021454447880e-06 -3.417596235522069037e-05 -1.112343034037621692e-05 1.887165012703917455e-06
3.592000000000000000e+03 1.555697250366210938e+01 1.239178419113159180e+00 -6.719502835039747879e-06 -3.402924266993068159e-05 -1.222462378791533411e-05 -1.971206131656799698e-07
3.593000000000000000e+03 1.560021686553955078e+01 5.002670884132385254e-01 2.151734179278719239e-06 3.359932088642381132e-05 1.072531631507445127e-05 -5.230150463830796070e-07
3.594000000000000000e+03 1.334496879577636719e+01 1.158104777336120605e+00 1.381741458317264915e-05 3.392173312022350729e-05 1.432174394722096622e-05 9.111274721362860873e-07
3.595000000000000000e+03 1.481854820251464844e+01 1.214042663574218750e+00 9.899143151415046304e-06 3.511292015900835395e-05 1.350361890217754990e-05 6.775147767257294618e-07
3.596000000000000000e+03 1.111325168609619141e+01 1.138490676879882812e+00 -1.926176764754927717e-06 -3.095217107329517603e-05 -9.863503692031372339e-06 3.958657089242478833e-06
3.597000000000000000e+03 1.186833381652832031e+01 4.020517766475677490e-01 2.894777253459324129e-06 -3.156036473228596151e-05 -8.599676220910623670e-06 1.871054109869874083e-06
3.598000000000000000e+03 1.037295722961425781e+01 3.924405574798583984e-01 6.331490567390574142e-06 -3.059210939682088792e-05 -7.278185421455418691e-06 1.242226289832615294e-06
3.599000000000000000e+03 1.260390949249267578e+01 1.143149375915527344e+00 -4.882870598521549255e-06 -3.235793337807990611e-05 -1.117224110203096643e-05 4.137687483307672665e-06
3.600000000000000000e+03 1.261756992340087891e+01 4.032067656517028809e-01 7.577619271614821628e-06 3.251845191698521376e-05 1.202882140205474570e-05 -1.371181657106035345e-08
3.601000000000000000e+03 1.036947441101074219e+01 1.132432341575622559e+00 1.961424459295812994e-05 2.860536187654361129e-05 1.446588248654734343e-05 5.535420086744125001e-07
3.602000000000000000e+03 1.185806560516357422e+01 1.142010807991027832e+00 1.662256727286148816e-05 3.173039294779300690e-05 1.450588842999422923e-05 1.385500013384444173e-06
3.603000000000000000e+03 1.112012767791748047e+01 3.985152244567871094e-01 1.145356873166747391e-05 3.099958121310919523e-05 1.273594443773617968e-05 3.092697795636922820e-07
3.604000000000000000e+03 8.771651268005371094e+00 3.881228864192962646e-01 8.518972208548802882e-06 -2.512262835807632655e-05 -4.981096481060376391e-06 4.684454495418322040e-07
3.605000000000000000e+03 8.818146705627441406e+00 1.128122925758361816e+00 2.110418972733896226e-05 2.243637027277145535e-05 1.306216745433630422e-05 -2.523216153349494562e-06
3.606000000000000000e+03 7.953170776367187500e+00 3.921383917331695557e-01 1.556895040266681463e-05 2.152882370864972472e-05 1.112933205149602145e-05 -2.486481776031723712e-07
3.607000000000000000e+03 6.319846630096435547e+00 3.892590403556823730e-01 1.368212360830511898e-05 1.309109757130499929e-05 8.031965990085154772e-06 -9.281322377319156658e-07
3.608000000000000000e+03 5.502897262573242188e+00 3.910058438777923584e-01 5.551808044401695952e-06 -8.536332643416244537e-06 -8.953573455983132590e-07 1.919444088116506464e-07
3.609000000000000000e+03 4.685476779937744141e+00 3.909447193145751953e-01 9.027128726302180439e-06 3.429727257753256708e-06 3.737056886166101322e-06 -3.077909241255838424e-06
3.610000000000000000e+03 3.050973415374755859e+00 3.907458484172821045e-01 5.286217401589965448e-06 -5.180432708584703505e-06 3.173534324218962865e-08 -4.703751073975581676e-06
3.611000000000000000e+03 2.234469175338745117e+00 3.876248300075531006e-01 -4.155266196903539822e-06 6.268568995437817648e-06 6.339909646158048417e-07 1.696865524536406156e-06
3.612000000000000000e+03 2.538473606109619141e+00 1.127624869346618652e+00 2.028126436925958842e-05 -4.832330887438729405e-06 4.634679953596787527e-06 -5.812516064906958491e-06
3.613000000000000000e+03 1.768125653266906738e+00 1.127171397209167480e+00 -1.433827765140449628e-05 5.102094178255356383e-07 -4.148420430283294991e-06 -6.343259883578866720e-06
3.614000000000000000e+03 1.067988038063049316e+00 1.148616075515747070e+00 -8.265475116786547005e-06 1.976436760742217302e-05 3.449667701715952717e-06 7.459036766022109077e-08
3.615000000000000000e+03 6.996063590049743652e-01 4.086160361766815186e-01 1.282969060412142426e-05 1.337121739197755232e-05 7.860272489779163152e-06 1.528299981146119535e-05
3.616000000000000000e+03 3.732481598854064941e-01 9.636608362197875977e-01 -2.216756729467306286e-05 -1.478266040066955611e-05 -1.108506876335013658e-05 -4.027569957543164492e-06
3.617000000000000000e+03 3.322789192199707031e+00 1.130745887756347656e+00 -6.933655640750657767e-06 1.426412268301646691e-06 -1.652173068578122184e-06 4.800635451829293743e-06
3.618000000000000000e+03 3.868146419525146484e+00 3.889868557453155518e-01 1.977367901417892426e-06 1.418077658854599576e-06 1.018633724925166462e-06 2.511663751647574827e-06
3.619000000000000000e+03 5.678146839141845703e+00 1.131005883216857910e+00 1.719343708828091621e-05 1.002972294372739270e-05 8.166947736754082143e-06 -8.002193681022617966e-06
3.620000000000000000e+03 7.247090816497802734e+00 1.132560849189758301e+00 2.113968184858094901e-05 1.650510785111691803e-05 1.129343672801041976e-05 -5.604773377854144201e-06
3.621000000000000000e+03 7.136218547821044922e+00 3.925608992576599121e-01 8.020028872124385089e-06 -1.777227225829847157e-05 -2.925672788478550501e-06 -3.264411816417123191e-07
3.622000000000000000e+03 8.031854629516601562e+00 1.132138371467590332e+00 1.816765006878995337e-06 -2.112936817866284400e-05 -5.793780928797787055e-06 3.832600668829400092e-06
3.623000000000000000e+03 9.590107917785644531e+00 3.879971206188201904e-01 1.451976731914328411e-05 2.691239933483302593e-05 1.242965026904130355e-05 2.726580135004041949e-07
3.624000000000000000e+03 9.604414939880371094e+00 1.127997159957885742e+00 1.138419179369520862e-06 -2.613236938486807048e-05 -7.498185368604026735e-06 3.790111804846674204e-06
3.625000000000000000e+03 6.462907791137695312e+00 1.129258990287780762e+00 5.923656090089934878e-07 -1.427929782948922366e-05 -4.106079813936958089e-06 2.935356405942002311e-06
3.626000000000000000e+03 4.892915248870849609e+00 1.130944728851318359e+00 -1.124882373915170319e-06 -6.963275609450647607e-06 -2.426447508696583100e-06 3.673237415569019504e-06
3.627000000000000000e+03 4.107773303985595703e+00 1.128986835479736328e+00 1.367933964502299204e-05 3.282235638835118152e-06 5.088472335046390072e-06 -9.940597919921856374e-06
3.628000000000000000e+03 1.431932568550109863e+00 3.871713578701019287e-01 -1.048021886163041927e-06 -6.162340923765441403e-06 -2.163108774766442366e-06 -4.494852419156813994e-06
3.629000000000000000e+03 1.338494110107421875e+01 -3.624081611633300781e-01 -9.462729692459106445e-01 -3.660557093098759651e-03 -2.849800586700439453e-01 -3.985998407006263733e-02
3.630000000000000000e+03 1.492772197723388672e+01 -1.047161340713500977e+00 -8.070201277732849121e-01 1.329476945102214813e-02 -2.381176054477691650e-01 -2.178947255015373230e-02
3.631000000000000000e+03 1.340428161621093750e+01 -1.102196455001831055e+00 -7.883461117744445801e-01 5.039062350988388062e-03 -2.349921166896820068e-01 -5.451365932822227478e-02
3.632000000000000000e+03 1.489244556427001953e+01 -3.079577088356018066e-01 -9.519525170326232910e-01 1.416246173903346062e-03 -2.851608991622924805e-01 -3.294203057885169983e-02
3.633000000000000000e+03 1.568929195404052734e+01 -1.018365263938903809e+00 -7.817521691322326660e-01 1.066132169216871262e-02 -2.313272505998611450e-01 2.465124707669019699e-03
3.634000000000000000e+03 1.564604759216308594e+01 -2.794539332389831543e-01 -9.444729685783386230e-01 -3.495459444820880890e-03 -2.843905389308929443e-01 -3.215657547116279602e-02
3.635000000000000000e+03 1.413872909545898438e+01 -3.356079757213592529e-01 -9.526406526565551758e-01 1.761033898219466209e-03 -2.852638661861419678e-01 -3.882472962141036987e-02
3.636000000000000000e+03 1.416603755950927734e+01 -1.075103878974914551e+00 -8.071329593658447266e-01 1.101597677916288376e-02 -2.388350814580917358e-01 -3.722505643963813782e-02
3.637000000000000000e+03 1.037684440612792969e+01 -3.884835243225097656e-01 -7.237142324447631836e-01 3.122786874882876873e-04 -2.170205861330032349e-01 -3.861578553915023804e-02
3.638000000000000000e+03 1.189073276519775391e+01 -1.121461629867553711e+00 -7.287576198577880859e-01 5.350504070520401001e-03 -2.170221358537673950e-01 -8.496607095003128052e-02
3.639000000000000000e+03 1.038032817840576172e+01 -1.128475308418273926e+00 -6.262875795364379883e-01 4.162016790360212326e-03 -1.866376698017120361e-01 -9.996380656957626343e-02
3.640000000000000000e+03 1.264584636688232422e+01 -1.117530822753906250e+00 -7.614130377769470215e-01 2.612411277368664742e-03 -2.276401966810226440e-01 -7.377514243125915527e-02
3.641000000000000000e+03 1.188046455383300781e+01 -3.815026283264160156e-01 -8.524612188339233398e-01 7.449582917615771294e-04 -2.555148899555206299e-01 -3.452381119132041931e-02
3.642000000000000000e+03 1.263218593597412109e+01 -3.775882422924041748e-01 -9.122459888458251953e-01 -2.303861780092120171e-03 -2.743649482727050781e-01 -3.550329059362411499e-02
3.643000000000000000e+03 1.112868118286132812e+01 -3.851337432861328125e-01 -7.905505299568176270e-01 1.048981910571455956e-03 -2.368504703044891357e-01 -3.667386993765830994e-02
3.644000000000000000e+03 1.113555717468261719e+01 -1.125109195709228516e+00 -6.804814338684082031e-01 5.556399468332529068e-03 -2.024775147438049316e-01 -9.299149364233016968e-02
3.645000000000000000e+03 9.624593734741210938e+00 -1.131355285644531250e+00 -5.675447583198547363e-01 2.493015956133604050e-03 -1.695155203342437744e-01 -1.063104942440986633e-01
3.646000000000000000e+03 9.636611938476562500e+00 -3.913553059101104736e-01 -6.517243981361389160e-01 3.296571667306125164e-04 -1.954184323549270630e-01 -3.942172974348068237e-02
3.647000000000000000e+03 8.908035278320312500e+00 -3.932945430278778076e-01 -5.768103003501892090e-01 3.943093470297753811e-04 -1.729247868061065674e-01 -4.031600058078765869e-02
3.648000000000000000e+03 8.179648399353027344e+00 -3.947979807853698730e-01 -5.007057189941406250e-01 -6.982846389291808009e-05 -1.502326726913452148e-01 -4.063770920038223267e-02
3.649000000000000000e+03 7.451354026794433594e+00 -3.965992927551269531e-01 -4.246629178524017334e-01 -3.367052122484892607e-04 -1.274998933076858521e-01 -4.047949239611625671e-02
3.650000000000000000e+03 6.723036766052246094e+00 -3.981454968452453613e-01 -3.498432040214538574e-01 -9.888404747471213341e-04 -1.052496135234832764e-01 -3.929517790675163269e-02
3.651000000000000000e+03 5.994731426239013672e+00 -3.993945717811584473e-01 -2.780148983001708984e-01 -1.424148795194923878e-03 -8.383172005414962769e-02 -3.729031607508659363e-02
3.652000000000000000e+03 5.266466140747070312e+00 -4.014726877212524414e-01 -2.105075716972351074e-01 -1.669930526986718178e-03 -6.365324556827545166e-02 -3.439981117844581604e-02
3.653000000000000000e+03 4.538172721862792969e+00 -4.045463800430297852e-01 -1.493043452501296997e-01 -2.777750836685299873e-03 -4.562462866306304932e-02 -3.071109205484390259e-02
3.654000000000000000e+03 3.810027122497558594e+00 -4.076895117759704590e-01 -9.607684612274169922e-02 -2.879650332033634186e-03 -2.968694828450679779e-02 -2.545344084501266479e-02
3.655000000000000000e+03 3.082192897796630859e+00 -4.105251729488372803e-01 -5.318604409694671631e-02 -4.365061875432729721e-03 -1.726533286273479462e-02 -1.944097504019737244e-02
3.656000000000000000e+03 2.355662584304809570e+00 -4.111475944519042969e-01 -2.216486260294914246e-02 -4.025629721581935883e-03 -7.857147604227066040e-03 -1.159181818366050720e-02
3.657000000000000000e+03 1.642585277557373047e+00 -4.047921001911163330e-01 -4.538490902632474899e-03 -2.727865008637309074e-03 -2.179906703531742096e-03 -5.048367660492658615e-03
3.658000000000000000e+03 6.508445143699645996e-01 -1.120625138282775879e+00 -6.010415032505989075e-03 -2.189148450270295143e-03 -2.459869021549820900e-03 -2.274437574669718742e-03
3.659000000000000000e+03 8.868407249450683594e+00 -1.133294582366943359e+00 -5.052436590194702148e-01 1.396122854202985764e-03 -1.511542648077011108e-01 -1.092903241515159607e-01
3.660000000000000000e+03 8.112410545349121094e+00 -1.134797930717468262e+00 -4.413219988346099854e-01 -2.298192703165113926e-04 -1.324655413627624512e-01 -1.109207421541213989e-01
3.661000000000000000e+03 7.356505870819091797e+00 -1.136599302291870117e+00 -3.767502307891845703e-01 -2.367930486798286438e-03 -1.137354522943496704e-01 -1.097396761178970337e-01
3.662000000000000000e+03 6.600578308105468750e+00 -1.138145565986633301e+00 -3.137350678443908691e-01 -4.424030892550945282e-03 -9.544772654771804810e-02 -1.067410483956336975e-01
3.663000000000000000e+03 5.844663143157958984e+00 -1.139394640922546387e+00 -2.527848184108734131e-01 -6.787499412894248962e-03 -7.787169516086578369e-02 -1.007005125284194946e-01
3.664000000000000000e+03 5.088787555694580078e+00 -1.141472697257995605e+00 -1.964391022920608521e-01 -9.109116159379482269e-03 -6.166446208953857422e-02 -9.218174964189529419e-02
3.665000000000000000e+03 4.332883834838867188e+00 -1.144546389579772949e+00 -1.453085839748382568e-01 -1.116084586828947067e-02 -4.694082587957382202e-02 -8.136206865310668945e-02
3.666000000000000000e+03 3.577128171920776367e+00 -1.147689461708068848e+00 -1.002229899168014526e-01 -1.515018753707408905e-02 -3.461195155978202820e-02 -6.786867976188659668e-02
3.667000000000000000e+03 2.821683883666992188e+00 -1.150525212287902832e+00 -6.262441724538803101e-02 -1.714216917753219604e-02 -2.392997592687606812e-02 -4.973775148391723633e-02
3.668000000000000000e+03 2.067543268203735352e+00 -1.151147603988647461e+00 -3.438656404614448547e-02 -1.736956462264060974e-02 -1.552683860063552856e-02 -3.128630667924880981e-02
3.669000000000000000e+03 1.326855897903442383e+00 -1.144792079925537109e+00 -1.506594382226467133e-02 -1.278912462294101715e-02 -8.356520906090736389e-03 -1.160594914108514786e-02
3.670000000000000000e+03 9.941840171813964844e-01 -3.806251585483551025e-01 1.932690967805683613e-03 -2.876037498936057091e-03 -2.830039884429425001e-04 2.630451053846627474e-04
3.671000000000000000e+03 3.480942845344543457e-01 -5.610816478729248047e-01 4.936422337777912617e-04 2.234321320429444313e-03 8.183890022337436676e-04 1.057534129358828068e-03
3.672000000000000000e+03 2.496163177490234375e+01 -6.288443088531494141e+00 -3.947440385818481445e-01 -6.024530887603759766e+00 -1.925782442092895508e+00 6.848911046981811523e-01
3.673000000000000000e+03 2.494222068786621094e+01 -6.289943695068359375e+00 -1.460745215415954590e+00 -6.109745502471923828e+00 -2.271147251129150391e+00 2.371731519699096680e+00
3.674000000000000000e+03 2.492347335815429688e+01 -6.295194625854492188e+00 -2.725647926330566406e+00 -5.933473110198974609e+00 -2.597736358642578125e+00 3.142637968063354492e+00
3.675000000000000000e+03 2.490610694885253906e+01 -6.303994655609130859e+00 -4.208075046539306641e+00 -5.420862674713134766e+00 -2.888681411743164062e+00 3.636009931564331055e+00
3.676000000000000000e+03 2.489078712463378906e+01 -6.316007614135742188e+00 -5.607873439788818359e+00 -4.851430416107177734e+00 -3.137791156768798828e+00 3.708022356033325195e+00
3.677000000000000000e+03 2.487809944152832031e+01 -6.330772876739501953e+00 -6.983538150787353516e+00 -4.170860767364501953e+00 -3.346319675445556641e+00 3.411551475524902344e+00
3.678000000000000000e+03 2.486852645874023438e+01 -6.347726345062255859e+00 -8.001874923706054688e+00 -3.642073631286621094e+00 -3.493184566497802734e+00 2.830383300781250000e+00
3.679000000000000000e+03 2.486244010925292969e+01 -6.366218566894531250e+00 -8.717926025390625000e+00 -3.272987842559814453e+00 -3.597274303436279297e+00 1.977634906768798828e+00
3.680000000000000000e+03 2.486006927490234375e+01 -6.385542392730712891e+00 -9.034306526184082031e+00 -3.272561311721801758e+00 -3.692060470581054688e+00 1.075777649879455566e+00
3.681000000000000000e+03 2.486150550842285156e+01 -6.404958248138427734e+00 -8.879954338073730469e+00 -3.371477127075195312e+00 -3.675429344177246094e+00 1.601971089839935303e-01
3.682000000000000000e+03 2.486669349670410156e+01 -6.423722743988037109e+00 -8.535999298095703125e+00 -3.906773328781127930e+00 -3.732831716537475586e+00 -4.961113035678863525e-01
3.683000000000000000e+03 2.487543678283691406e+01 -6.441117763519287109e+00 -7.811922550201416016e+00 -4.446807384490966797e+00 -3.677618980407714844e+00 -1.009386539459228516e+00
3.684000000000000000e+03 2.488739776611328125e+01 -6.456477642059326172e+00 -7.171565055847167969e+00 -5.144048690795898438e+00 -3.694684028625488281e+00 -1.164656400680541992e+00
3.685000000000000000e+03 2.490212249755859375e+01 -6.469215393066406250e+00 -6.372261524200439453e+00 -5.750720977783203125e+00 -3.636894702911376953e+00 -1.099239349365234375e+00
3.686000000000000000e+03 2.491904449462890625e+01 -6.478842258453369141e+00 -5.880415916442871094e+00 -6.260129928588867188e+00 -3.642163753509521484e+00 -7.954480051994323730e-01
3.687000000000000000e+03 2.493751716613769531e+01 -6.484990596771240234e+00 -5.459756374359130859e+00 -6.672533035278320312e+00 -3.639686822891235352e+00 -2.380440533161163330e-01
3.688000000000000000e+03 2.495683288574218750e+01 -6.487425327301025391e+00 -5.241493701934814453e+00 -6.772676467895507812e+00 -3.604251146316528320e+00 2.958145141601562500e-01
3.689000000000000000e+03 2.497625160217285156e+01 -6.486052989959716797e+00 -5.407850742340087891e+00 -6.703715324401855469e+00 -3.633469820022583008e+00 9.686228632926940918e-01
3.690000000000000000e+03 2.499503326416015625e+01 -6.480925559997558594e+00 -5.829313278198242188e+00 -6.412085056304931641e+00 -3.672419548034667969e+00 1.517204880714416504e+00
3.691000000000000000e+03 2.501245689392089844e+01 -6.472239971160888672e+00 -6.253384113311767578e+00 -5.700949192047119141e+00 -3.586299896240234375e+00 2.013339996337890625e+00
3.692000000000000000e+03 2.502785682678222656e+01 -6.460328578948974609e+00 -7.156772613525390625e+00 -5.190295696258544922e+00 -3.704120397567749023e+00 2.112746953964233398e+00
3.693000000000000000e+03 2.504064369201660156e+01 -6.445647239685058594e+00 -7.840888977050781250e+00 -4.072749614715576172e+00 -3.574091434478759766e+00 2.071255445480346680e+00
3.694000000000000000e+03 2.505032539367675781e+01 -6.428757667541503906e+00 -8.591039657592773438e+00 -3.451605319976806641e+00 -3.612793445587158203e+00 1.635278224945068359e+00
3.695000000000000000e+03 2.505653572082519531e+01 -6.410305500030517578e+00 -8.993765830993652344e+00 -2.539513349533081055e+00 -3.459983825683593750e+00 9.290142655372619629e-01
3.696000000000000000e+03 2.505903434753417969e+01 -6.390997886657714844e+00 -9.166018486022949219e+00 -2.194933652877807617e+00 -3.408285617828369141e+00 6.132392957806587219e-02
3.697000000000000000e+03 2.505772399902343750e+01 -6.371573448181152344e+00 -8.803478240966796875e+00 -1.824517011642456055e+00 -3.188398361206054688e+00 -9.534173607826232910e-01
3.698000000000000000e+03 2.505265998840332031e+01 -6.352775573730468750e+00 -8.148629188537597656e+00 -1.891322731971740723e+00 -3.011985540390014648e+00 -1.795472145080566406e+00
3.699000000000000000e+03 2.504403305053710938e+01 -6.335322856903076172e+00 -7.022802352905273438e+00 -2.111249923706054688e+00 -2.740215539932250977e+00 -2.528138399124145508e+00
3.700000000000000000e+03 2.503217124938964844e+01 -6.319884300231933594e+00 -5.727303981781005859e+00 -2.424536466598510742e+00 -2.445552110671997070e+00 -2.938379526138305664e+00
3.701000000000000000e+03 2.501753234863281250e+01 -6.307050228118896484e+00 -4.203702926635742188e+00 -2.850578546524047852e+00 -2.116284370422363281e+00 -3.022623062133789062e+00
3.702000000000000000e+03 2.500067520141601562e+01 -6.297311782836914062e+00 -2.713812828063964844e+00 -3.149636030197143555e+00 -1.759034633636474609e+00 -2.772089719772338867e+00
3.703000000000000000e+03 2.498224449157714844e+01 -6.291041374206542969e+00 -1.010938048362731934e+00 -3.711622476577758789e+00 -1.416768193244934082e+00 -1.649447202682495117e+00
