# el_label, x, y, sXX, sYY, sZZ, sXY
1.000000000000000000e+00 6.994189453125000000e+01 -1.650303649902343750e+01 -6.731544733047485352e-01 -2.788690090179443359e+00 -1.038553357124328613e+00 -1.588379621505737305e+00
2.000000000000000000e+00 6.975017547607421875e+01 -1.655655479431152344e+01 6.992040276527404785e-01 1.251287579536437988e+00 5.851475000381469727e-01 7.750530242919921875e-01
3.000000000000000000e+00 6.955846405029296875e+01 -1.661007308959960938e+01 -4.741274416446685791e-01 -4.026481509208679199e-01 -2.630326747894287109e-01 6.098884344100952148e-02
4.000000000000000000e+00 6.936675262451171875e+01 -1.666359329223632812e+01 -8.349716663360595703e-01 3.091026842594146729e-01 -1.577606946229934692e-01 -1.605279557406902313e-02
5.000000000000000000e+00 6.996299743652343750e+01 -1.655742835998535156e+01 9.337986946105957031e+00 -6.288331151008605957e-01 2.612746238708496094e+00 4.168907642364501953e+00
6.000000000000000000e+00 6.978535461425781250e+01 -1.664720916748046875e+01 3.310107946395874023e+00 9.984365105628967285e-01 1.292563319206237793e+00 2.018884420394897461e+00
7.000000000000000000e+00 6.960770416259765625e+01 -1.673698997497558594e+01 2.719887018203735352e+00 1.633864760398864746e+00 1.306125521659851074e+00 2.249795198440551758e+00
8.000000000000000000e+00 6.943006134033203125e+01 -1.682677268981933594e+01 1.827399969100952148e+00 6.275261640548706055e-01 7.364778518676757812e-01 1.436555147171020508e+00
9.000000000000000000e+00 6.999427795410156250e+01 -1.660667800903320312e+01 1.095059013366699219e+01 5.320655345916748047e+00 4.881373882293701172e+00 9.569145202636718750e+00
1.000000000000000000e+01 6.983747863769531250e+01 -1.672929382324218750e+01 6.577330112457275391e+00 3.457124948501586914e+00 3.010336637496948242e+00 5.537987709045410156e+00
1.100000000000000000e+01 6.968068695068359375e+01 -1.685190773010253906e+01 4.178441047668457031e+00 3.218608140945434570e+00 2.219114780426025391e+00 4.064588546752929688e+00
1.200000000000000000e+01 6.952389526367187500e+01 -1.697452354431152344e+01 3.386187553405761719e+00 3.124589681625366211e+00 1.953233122825622559e+00 3.544931888580322266e+00
1.300000000000000000e+01 7.003453826904296875e+01 -1.664890480041503906e+01 1.049520683288574219e+01 1.245519828796386719e+01 6.885121345520019531e+00 1.278196716308593750e+01
1.400000000000000000e+01 6.990457916259765625e+01 -1.679967117309570312e+01 6.559431076049804688e+00 7.983297348022460938e+00 4.362818241119384766e+00 8.324370384216308594e+00
1.500000000000000000e+01 6.977462768554687500e+01 -1.695043945312500000e+01 4.985329627990722656e+00 6.607052326202392578e+00 3.477714538574218750e+00 6.370388031005859375e+00
1.600000000000000000e+01 6.964467620849609375e+01 -1.710120391845703125e+01 3.671522140502929688e+00 5.685672760009765625e+00 2.807158470153808594e+00 5.212469577789306641e+00
1.700000000000000000e+01 7.008223724365234375e+01 -1.668249702453613281e+01 8.064963340759277344e+00 1.996258163452148438e+01 8.408264160156250000e+00 1.369672203063964844e+01
1.800000000000000000e+01 6.998408508300781250e+01 -1.685565757751464844e+01 5.656997203826904297e+00 1.344847774505615234e+01 5.731642723083496094e+00 9.765588760375976562e+00
1.900000000000000000e+01 6.988593292236328125e+01 -1.702881813049316406e+01 4.163622379302978516e+00 1.085466194152832031e+01 4.505485057830810547e+00 7.647897243499755859e+00
2.000000000000000000e+01 6.978778839111328125e+01 -1.720197868347167969e+01 3.226763963699340820e+00 9.505002975463867188e+00 3.819530010223388672e+00 6.484468936920166016e+00
2.100000000000000000e+01 7.013555908203125000e+01 -1.670617103576660156e+01 5.704480171203613281e+00 2.685551261901855469e+01 9.767997741699218750e+00 1.245484256744384766e+01
2.200000000000000000e+01 7.007295989990234375e+01 -1.689511299133300781e+01 4.025410175323486328e+00 1.882990646362304688e+01 6.856595516204833984e+00 9.486455917358398438e+00
2.300000000000000000e+01 7.001036071777343750e+01 -1.708405494689941406e+01 2.919642686843872070e+00 1.548979377746582031e+01 5.522830963134765625e+00 7.838950157165527344e+00
2.400000000000000000e+01 6.994775390625000000e+01 -1.727299690246582031e+01 2.304939985275268555e+00 1.351867294311523438e+01 4.747083663940429688e+00 6.683094501495361328e+00
2.500000000000000000e+01 7.019246673583984375e+01 -1.671902084350585938e+01 3.977909326553344727e+00 3.221832275390625000e+01 1.085886955261230469e+01 9.470319747924804688e+00
2.600000000000000000e+01 7.016780853271484375e+01 -1.691653060913085938e+01 2.740062952041625977e+00 2.361769294738769531e+01 7.907326698303222656e+00 7.829813480377197266e+00
2.700000000000000000e+01 7.014315032958984375e+01 -1.711404037475585938e+01 1.751728892326354980e+00 1.951559829711914062e+01 6.380198001861572266e+00 6.723881244659423828e+00
2.800000000000000000e+01 7.011848449707031250e+01 -1.731155014038085938e+01 1.283277988433837891e+00 1.723366546630859375e+01 5.555083274841308594e+00 5.839316368103027344e+00
2.900000000000000000e+01 7.025079345703125000e+01 -1.672056007385253906e+01 3.830520868301391602e+00 3.573200225830078125e+01 1.186875724792480469e+01 5.456276416778564453e+00
3.000000000000000000e+01 7.026501464843750000e+01 -1.691909408569335938e+01 2.069193363189697266e+00 2.704310607910156250e+01 8.733690261840820312e+00 5.260049819946289062e+00
3.100000000000000000e+01 7.027923583984375000e+01 -1.711762809753417969e+01 1.267948508262634277e+00 2.281504821777343750e+01 7.224898815155029297e+00 4.572425842285156250e+00
3.200000000000000000e+01 7.029345703125000000e+01 -1.731616210937500000e+01 6.016672253608703613e-01 1.989108276367187500e+01 6.147824764251708984e+00 4.050980567932128906e+00
3.300000000000000000e+01 7.030830383300781250e+01 -1.671072387695312500e+01 5.049429893493652344e+00 3.715696716308593750e+01 1.266191959381103516e+01 1.300236582756042480e+00
3.400000000000000000e+01 7.036086273193359375e+01 -1.690270233154296875e+01 2.714732170104980469e+00 2.895527076721191406e+01 9.501001358032226562e+00 2.235785484313964844e+00
3.500000000000000000e+01 7.041342163085937500e+01 -1.709468078613281250e+01 1.375457763671875000e+00 2.481652641296386719e+01 7.857595443725585938e+00 2.125727415084838867e+00
3.600000000000000000e+01 7.046598052978515625e+01 -1.728665924072265625e+01 7.327543497085571289e-01 2.219876670837402344e+01 6.879456520080566406e+00 1.608599305152893066e+00
3.700000000000000000e+01 7.036280059814453125e+01 -1.668989372253417969e+01 7.459465026855468750e+00 3.676984786987304688e+01 1.326879405975341797e+01 -2.194050073623657227e+00
3.800000000000000000e+01 7.045169067382812500e+01 -1.686798477172851562e+01 4.543791294097900391e+00 2.944854736328125000e+01 1.019770145416259766e+01 -6.815327405929565430e-01
3.900000000000000000e+01 7.054058074951171875e+01 -1.704607582092285156e+01 2.561548709869384766e+00 2.532980346679687500e+01 8.367405891418457031e+00 -2.253457456827163696e-01
4.000000000000000000e+01 7.062947845458984375e+01 -1.722416687011718750e+01 1.371178269386291504e+00 2.336840629577636719e+01 7.421875000000000000e+00 -1.464616656303405762e-01
4.100000000000000000e+01 7.041220855712890625e+01 -1.665886116027832031e+01 1.102152061462402344e+01 3.526844787597656250e+01 1.388699054718017578e+01 -4.466242790222167969e+00
4.200000000000000000e+01 7.053403472900390625e+01 -1.681626510620117188e+01 6.844032764434814453e+00 2.861647415161132812e+01 1.063815212249755859e+01 -3.041460514068603516e+00
4.300000000000000000e+01 7.065586853027343750e+01 -1.697366905212402344e+01 5.097115993499755859e+00 2.492840766906738281e+01 9.007657051086425781e+00 -2.138101100921630859e+00
4.400000000000000000e+01 7.077769470214843750e+01 -1.713107109069824219e+01 3.080784559249877930e+00 2.201161193847656250e+01 7.527719020843505859e+00 -1.331714391708374023e+00
4.500000000000000000e+01 7.045463562011718750e+01 -1.661881446838378906e+01 1.462272834777832031e+01 3.305538177490234375e+01 1.430343246459960938e+01 -5.451595783233642578e+00
4.600000000000000000e+01 7.060475158691406250e+01 -1.674951934814453125e+01 9.761219024658203125e+00 2.712877273559570312e+01 1.106699752807617188e+01 -4.336298465728759766e+00
4.700000000000000000e+01 7.075486755371093750e+01 -1.688022422790527344e+01 7.747429370880126953e+00 2.355286216735839844e+01 9.390088081359863281e+00 -3.371382236480712891e+00
4.800000000000000000e+01 7.090497589111328125e+01 -1.701092910766601562e+01 6.474150657653808594e+00 2.080853080749511719e+01 8.184803962707519531e+00 -2.932137727737426758e+00
4.900000000000000000e+01 7.048846435546875000e+01 -1.657127952575683594e+01 1.785904121398925781e+01 3.066011047363281250e+01 1.455574607849121094e+01 -5.247476577758789062e+00
5.000000000000000000e+01 7.066113281250000000e+01 -1.667029571533203125e+01 1.259549903869628906e+01 2.554105567932128906e+01 1.144096660614013672e+01 -4.327040672302246094e+00
5.100000000000000000e+01 7.083380126953125000e+01 -1.676931190490722656e+01 1.018432807922363281e+01 2.174138259887695312e+01 9.577713012695312500e+00 -3.929050922393798828e+00
5.200000000000000000e+01 7.100646972656250000e+01 -1.686832809448242188e+01 9.038325309753417969e+00 2.082459068298339844e+01 8.958874702453613281e+00 -3.642270088195800781e+00
5.300000000000000000e+01 7.051240539550781250e+01 -1.651807403564453125e+01 2.009102821350097656e+01 2.905337524414062500e+01 1.474332141876220703e+01 -4.096000194549560547e+00
5.400000000000000000e+01 7.070102691650390625e+01 -1.658161926269531250e+01 1.513680744171142578e+01 2.375154685974121094e+01 1.166650676727294922e+01 -3.347639322280883789e+00
5.500000000000000000e+01 7.088965606689453125e+01 -1.664516448974609375e+01 1.190588760375976562e+01 2.086107063293457031e+01 9.830087661743164062e+00 -3.385508060455322266e+00
5.600000000000000000e+01 7.107828521728515625e+01 -1.670871162414550781e+01 9.927540779113769531e+00 1.924730491638183594e+01 8.752453804016113281e+00 -2.546715974807739258e+00
5.700000000000000000e+01 7.052554321289062500e+01 -1.646122932434082031e+01 2.168202972412109375e+01 2.846554374694824219e+01 1.504427242279052734e+01 -1.970450520515441895e+00
5.800000000000000000e+01 7.072292327880859375e+01 -1.648687744140625000e+01 1.638810157775878906e+01 2.230733871459960938e+01 1.160863208770751953e+01 -2.039402484893798828e+00
5.900000000000000000e+01 7.092030334472656250e+01 -1.651252555847167969e+01 1.317984390258789062e+01 2.056519508361816406e+01 1.012351226806640625e+01 -1.472707271575927734e+00
6.000000000000000000e+01 7.111769104003906250e+01 -1.653817367553710938e+01 1.070318222045898438e+01 1.718394660949707031e+01 8.366138458251953125e+00 -1.207619905471801758e+00
6.100000000000000000e+01 7.052736663818359375e+01 -1.640291404724121094e+01 2.174415206909179688e+01 2.763666725158691406e+01 1.481424617767333984e+01 1.279911100864410400e-01
6.200000000000000000e+01 7.072596740722656250e+01 -1.638968658447265625e+01 1.661985588073730469e+01 2.293922233581542969e+01 1.186772346496582031e+01 -8.238907158374786377e-02
6.300000000000000000e+01 7.092457580566406250e+01 -1.637645912170410156e+01 1.347333335876464844e+01 1.927540397644042969e+01 9.824621200561523438e+00 2.983693480491638184e-01
6.400000000000000000e+01 7.112317657470703125e+01 -1.636323165893554688e+01 1.193713951110839844e+01 1.803129577636718750e+01 8.990530967712402344e+00 1.376385837793350220e-01
6.500000000000000000e+01 7.051781463623046875e+01 -1.634535789489746094e+01 2.093870162963867188e+01 2.859177970886230469e+01 1.485914421081542969e+01 1.897582411766052246e+00
6.600000000000000000e+01 7.071005249023437500e+01 -1.629375839233398438e+01 1.563644123077392578e+01 2.334516525268554688e+01 1.169448184967041016e+01 1.919481992721557617e+00
6.700000000000000000e+01 7.090229797363281250e+01 -1.624216079711914062e+01 1.281231784820556641e+01 2.004566955566406250e+01 9.857396125793457031e+00 1.558893442153930664e+00
6.800000000000000000e+01 7.109453582763671875e+01 -1.619056129455566406e+01 1.098141670227050781e+01 1.839678955078125000e+01 8.813461303710937500e+00 1.291388273239135742e+00
6.900000000000000000e+01 7.049726104736328125e+01 -1.629075622558593750e+01 1.895940589904785156e+01 3.038375091552734375e+01 1.480294704437255859e+01 3.376966476440429688e+00
7.000000000000000000e+01 7.067579650878906250e+01 -1.620275688171386719e+01 1.378636550903320312e+01 2.432312583923339844e+01 1.143284702301025391e+01 3.127779960632324219e+00
7.100000000000000000e+01 7.085432434082031250e+01 -1.611475563049316406e+01 1.114289474487304688e+01 2.170978736877441406e+01 9.855804443359375000e+00 2.466068506240844727e+00
7.200000000000000000e+01 7.103285980224609375e+01 -1.602675628662109375e+01 8.509693145751953125e+00 1.908564567565917969e+01 8.278601646423339844e+00 2.375355482101440430e+00
7.300000000000000000e+01 7.046647644042968750e+01 -1.624119567871093750e+01 1.594295024871826172e+01 3.180417060852050781e+01 1.432413673400878906e+01 4.134040832519531250e+00
7.400000000000000000e+01 7.062448883056640625e+01 -1.612015533447265625e+01 1.145722579956054688e+01 2.653428840637207031e+01 1.139745426177978516e+01 3.155717611312866211e+00
7.500000000000000000e+01 7.078250122070312500e+01 -1.599911403656005859e+01 8.587083816528320312e+00 2.271655464172363281e+01 9.391091346740722656e+00 2.920125722885131836e+00
7.600000000000000000e+01 7.094051361083984375e+01 -1.587807369232177734e+01 7.139343261718750000e+00 2.087444305419921875e+01 8.404135704040527344e+00 2.814720869064331055e+00
7.700000000000000000e+01 7.042664337158203125e+01 -1.619856834411621094e+01 1.307415962219238281e+01 3.411791992187500000e+01 1.415762424468994141e+01 3.418028593063354492e+00
7.800000000000000000e+01 7.055809783935546875e+01 -1.604911041259765625e+01 8.401387214660644531e+00 2.788756942749023438e+01 1.088668727874755859e+01 2.565336942672729492e+00
7.900000000000000000e+01 7.068955230712890625e+01 -1.589965057373046875e+01 6.499440193176269531e+00 2.435790061950683594e+01 9.257202148437500000e+00 2.000867366790771484e+00
8.000000000000000000e+01 7.082100677490234375e+01 -1.575019073486328125e+01 5.409860134124755859e+00 2.132938957214355469e+01 8.021775245666503906e+00 2.134299755096435547e+00
8.100000000000000000e+01 7.037928009033203125e+01 -1.616450119018554688e+01 9.620441436767578125e+00 3.575349426269531250e+01 1.361218166351318359e+01 1.636705994606018066e+00
8.200000000000000000e+01 7.047915649414062500e+01 -1.599233150482177734e+01 6.191195011138916016e+00 2.889023780822753906e+01 1.052442932128906250e+01 6.914296150207519531e-01
8.300000000000000000e+01 7.057903289794921875e+01 -1.582016086578369141e+01 4.351415634155273438e+00 2.509032821655273438e+01 8.832523345947265625e+00 5.601301789283752441e-01
8.400000000000000000e+01 7.067890930175781250e+01 -1.564799118041992188e+01 3.547817945480346680e+00 2.221573257446289062e+01 7.729064941406250000e+00 1.144678704440593719e-02
8.500000000000000000e+01 7.032619476318359375e+01 -1.614029693603515625e+01 7.093056678771972656e+00 3.639229965209960938e+01 1.304560661315917969e+01 -1.277963757514953613e+00
8.600000000000000000e+01 7.039067840576171875e+01 -1.595198917388916016e+01 4.429274559020996094e+00 2.888561630249023438e+01 9.994466781616210938e+00 -1.941899538040161133e+00
8.700000000000000000e+01 7.045516967773437500e+01 -1.576368236541748047e+01 3.087807893753051758e+00 2.462837219238281250e+01 8.314853668212890625e+00 -1.672601222991943359e+00
8.800000000000000000e+01 7.051965332031250000e+01 -1.557537555694580078e+01 2.059760332107543945e+00 2.272560501098632812e+01 7.435609340667724609e+00 -1.604079008102416992e+00
8.900000000000000000e+01 7.026941680908203125e+01 -1.612687683105468750e+01 5.559352397918701172e+00 3.563733291625976562e+01 1.235900592803955078e+01 -5.128236293792724609e+00
9.000000000000000000e+01 7.029605102539062500e+01 -1.592962455749511719e+01 3.785411357879638672e+00 2.737460708618164062e+01 9.348005294799804688e+00 -4.775731563568115234e+00
9.100000000000000000e+01 7.032268524169921875e+01 -1.573237133026123047e+01 2.551741600036621094e+00 2.331816482543945312e+01 7.760972023010253906e+00 -4.217071533203125000e+00
9.200000000000000000e+01 7.034931945800781250e+01 -1.553511810302734375e+01 1.952551007270812988e+00 2.057868957519531250e+01 6.759372234344482422e+00 -3.363829374313354492e+00
9.300000000000000000e+01 7.021111297607421875e+01 -1.612475776672363281e+01 5.541733264923095703e+00 3.295560073852539062e+01 1.154920005798339844e+01 -8.910408020019531250e+00
9.400000000000000000e+01 7.019887542724609375e+01 -1.592609024047851562e+01 4.081358432769775391e+00 2.459353446960449219e+01 8.602467536926269531e+00 -7.625466823577880859e+00
9.500000000000000000e+01 7.018663787841796875e+01 -1.572742366790771484e+01 3.090013265609741211e+00 2.055105209350585938e+01 7.092319488525390625e+00 -6.269948959350585938e+00
9.600000000000000000e+01 7.017440032958984375e+01 -1.552875709533691406e+01 2.265123605728149414e+00 1.774789619445800781e+01 6.003906250000000000e+00 -5.745445728302001953e+00
9.700000000000000000e+01 7.015351104736328125e+01 -1.613401603698730469e+01 6.915239334106445312e+00 2.839176559448242188e+01 1.059210109710693359e+01 -1.233577060699462891e+01
9.800000000000000000e+01 7.010287475585937500e+01 -1.594152164459228516e+01 5.293611526489257812e+00 2.057826042175292969e+01 7.761561393737792969e+00 -9.416446685791015625e+00
9.900000000000000000e+01 7.005223083496093750e+01 -1.574902725219726562e+01 4.194093704223632812e+00 1.680666160583496094e+01 6.300226688385009766e+00 -8.044355392456054688e+00
1.000000000000000000e+02 7.000159454345703125e+01 -1.555653381347656250e+01 3.129890918731689453e+00 1.477137660980224609e+01 5.370380401611328125e+00 -6.911112308502197266e+00
1.010000000000000000e+02 7.009880828857421875e+01 -1.615430068969726562e+01 9.053042411804199219e+00 2.248512649536132812e+01 9.461450576782226562e+00 -1.408000850677490234e+01
1.020000000000000000e+02 7.001169586181640625e+01 -1.597532939910888672e+01 7.161110877990722656e+00 1.562268733978271484e+01 6.835139751434326172e+00 -1.036680984497070312e+01
1.030000000000000000e+02 6.992459106445312500e+01 -1.579635810852050781e+01 5.358176708221435547e+00 1.273207187652587891e+01 5.427074432373046875e+00 -8.420513153076171875e+00
1.040000000000000000e+02 6.983747863769531250e+01 -1.561738777160644531e+01 4.518237113952636719e+00 1.098668384552001953e+01 4.651476383209228516e+00 -7.254657745361328125e+00
1.050000000000000000e+02 7.004908752441406250e+01 -1.618483734130859375e+01 1.189429569244384766e+01 1.572405052185058594e+01 8.285504341125488281e+00 -1.407379722595214844e+01
1.060000000000000000e+02 6.992884063720703125e+01 -1.602622222900390625e+01 8.353675842285156250e+00 1.058722496032714844e+01 5.682270050048828125e+00 -9.821741104125976562e+00
1.070000000000000000e+02 6.980859375000000000e+01 -1.586760902404785156e+01 6.878602027893066406e+00 8.429341316223144531e+00 4.592382907867431641e+00 -7.714702606201171875e+00
1.080000000000000000e+02 6.968833923339843750e+01 -1.570899581909179688e+01 5.192326068878173828e+00 7.255713462829589844e+00 3.734411954879760742e+00 -6.504180908203125000e+00
1.090000000000000000e+02 7.000626373291015625e+01 -1.622445869445800781e+01 1.331263446807861328e+01 9.198252677917480469e+00 6.753266334533691406e+00 -1.212375450134277344e+01
1.100000000000000000e+02 6.985746002197265625e+01 -1.609225845336914062e+01 9.342796325683593750e+00 5.875360012054443359e+00 4.565446853637695312e+00 -7.904707908630371094e+00
1.110000000000000000e+02 6.970866394042968750e+01 -1.596005821228027344e+01 6.999658584594726562e+00 4.695446014404296875e+00 3.508531332015991211e+00 -6.035581111907958984e+00
1.120000000000000000e+02 6.955986022949218750e+01 -1.582785892486572266e+01 5.864950180053710938e+00 4.202329158782958984e+00 3.020183801651000977e+00 -4.954300403594970703e+00
1.130000000000000000e+02 6.997196197509765625e+01 -1.627165031433105469e+01 1.349517726898193359e+01 3.679914712905883789e+00 5.152527809143066406e+00 -8.415517807006835938e+00
1.140000000000000000e+02 6.980029296875000000e+01 -1.617091369628906250e+01 8.254012107849121094e+00 2.236110687255859375e+00 3.147036790847778320e+00 -5.143649101257324219e+00
1.150000000000000000e+02 6.962862396240234375e+01 -1.607017707824707031e+01 6.431950569152832031e+00 1.988478183746337891e+00 2.526128530502319336e+00 -3.715194463729858398e+00
1.160000000000000000e+02 6.945695495605468750e+01 -1.596943950653076172e+01 4.902096271514892578e+00 2.082648277282714844e+00 2.095423460006713867e+00 -2.991136074066162109e+00
1.170000000000000000e+02 6.994749450683593750e+01 -1.632461357116699219e+01 1.040247344970703125e+01 -7.620187941938638687e-03 3.118455886840820312e+00 -4.049611568450927734e+00
1.180000000000000000e+02 6.975950622558593750e+01 -1.625918579101562500e+01 5.788451194763183594e+00 -5.432242900133132935e-02 1.720238566398620605e+00 -1.996459364891052246e+00
1.190000000000000000e+02 6.957152557373046875e+01 -1.619375801086425781e+01 3.728782653808593750e+00 8.136598467826843262e-01 1.362732768058776855e+00 -1.567224860191345215e+00
1.200000000000000000e+02 6.938354492187500000e+01 -1.612833023071289062e+01 3.399176120758056641e+00 7.929746508598327637e-01 1.257645249366760254e+00 -1.357921719551086426e+00
1.210000000000000000e+02 6.993378448486328125e+01 -1.638132476806640625e+01 4.269569396972656250e+00 -2.177400827407836914e+00 6.276506185531616211e-01 6.684922575950622559e-01
1.220000000000000000e+02 6.973667144775390625e+01 -1.635370445251464844e+01 2.703499495983123779e-01 9.511622041463851929e-02 1.096398532390594482e-01 -1.384682357311248779e-01
1.230000000000000000e+02 6.953955078125000000e+01 -1.632608413696289062e+01 1.128385424613952637e+00 2.120058834552764893e-01 4.021173715591430664e-01 -6.548650264739990234e-01
1.240000000000000000e+02 6.934243774414062500e+01 -1.629846382141113281e+01 5.359299182891845703e-01 1.842870265245437622e-01 2.160650789737701416e-01 -4.439189657568931580e-02
1.250000000000000000e+02 6.993137359619140625e+01 -1.643961906433105469e+01 -8.784149169921875000e+00 -1.142659902572631836e+00 -2.978042602539062500e+00 1.487224936485290527e+00
1.260000000000000000e+02 6.973265075683593750e+01 -1.645086097717285156e+01 -2.867490530014038086e+00 3.608545660972595215e-01 -7.519907951354980469e-01 -7.822898626327514648e-01
1.270000000000000000e+02 6.953392028808593750e+01 -1.646210098266601562e+01 -2.995495796203613281e+00 -1.053684502840042114e-01 -9.302592873573303223e-01 -1.201783046126365662e-01
1.280000000000000000e+02 6.933519744873046875e+01 -1.647334480285644531e+01 -2.373456001281738281e+00 3.021131642162799835e-02 -7.029733657836914062e-01 -1.657215654850006104e-01
1.290000000000000000e+02 7.100416564941406250e+01 -1.729841423034667969e+01 3.459712505340576172e+00 1.905320739746093750e+01 6.753876209259033203e+00 -1.713303089141845703e+00
1.300000000000000000e+02 7.140277862548828125e+01 -1.633439064025878906e+01 8.690737724304199219e+00 1.570645236968994141e+01 7.319157123565673828e+00 -8.147166669368743896e-02
1.310000000000000000e+02 7.139108276367187500e+01 -1.577572154998779297e+01 6.729181766510009766e+00 1.626364898681640625e+01 6.897849559783935547e+00 2.221894502639770508e+00
1.320000000000000000e+02 7.117301177978515625e+01 -1.592082118988037109e+01 7.706703662872314453e+00 1.792766571044921875e+01 7.690310955047607422e+00 2.524502992630004883e+00
1.330000000000000000e+02 7.053771209716796875e+01 -1.538000774383544922e+01 1.399884581565856934e+00 2.030683708190917969e+01 6.512016773223876953e+00 -2.222328424453735352e+00
1.340000000000000000e+02 6.854122924804687500e+01 -1.570253467559814453e+01 1.227634668350219727e+00 7.076072096824645996e-01 5.805725455284118652e-01 -8.851684927940368652e-01
1.350000000000000000e+02 6.791217803955078125e+01 -1.537526130676269531e+01 -1.453567445278167725e-01 -1.215148195624351501e-01 -8.006146550178527832e-02 -1.776647269725799561e-01
1.360000000000000000e+02 7.010300445556640625e+01 -1.526552486419677734e+01 1.476133227348327637e+00 1.492887783050537109e+01 4.921503543853759766e+00 -5.204345703125000000e+00
1.370000000000000000e+02 6.999467468261718750e+01 -1.508617782592773438e+01 1.463978886604309082e+00 1.295705223083496094e+01 4.326309204101562500e+00 -5.002572059631347656e+00
1.380000000000000000e+02 6.898201751708984375e+01 -1.803136253356933594e+01 3.166036009788513184e-01 4.935301303863525391e+00 1.575571417808532715e+00 2.715658187866210938e+00
1.390000000000000000e+02 6.916011810302734375e+01 -1.774047088623046875e+01 9.775481820106506348e-01 4.966446876525878906e+00 1.783198595046997070e+00 3.036249160766601562e+00
1.400000000000000000e+02 6.949543762207031250e+01 -1.725220298767089844e+01 2.774388313293457031e+00 5.390084266662597656e+00 2.449341773986816406e+00 4.458847522735595703e+00
1.410000000000000000e+02 6.992538452148437500e+01 -1.765225028991699219e+01 9.864114522933959961e-01 1.276500701904296875e+01 4.125425338745117188e+00 5.190136432647705078e+00
1.420000000000000000e+02 7.050152587890625000e+01 -1.743795967102050781e+01 5.069879889488220215e-01 2.139593696594238281e+01 6.570877552032470703e+00 1.571552634239196777e+00
1.430000000000000000e+02 6.956126403808593750e+01 -1.555352783203125000e+01 4.571606636047363281e+00 6.751790046691894531e+00 3.397019147872924805e+00 -5.706196308135986328e+00
1.440000000000000000e+02 6.852222442626953125e+01 -1.529398059844970703e+01 1.897068262100219727e+00 1.580432295799255371e+00 1.043250203132629395e+00 -1.856476187705993652e+00
1.450000000000000000e+02 6.817011260986328125e+01 -1.551280212402343750e+01 5.039154887199401855e-01 -7.203675806522369385e-02 1.295636147260665894e-01 -5.061171650886535645e-01
1.460000000000000000e+02 6.846360778808593750e+01 -1.616477203369140625e+01 -6.503101438283920288e-02 -1.682058908045291901e-02 -2.455548197031021118e-02 4.394993185997009277e-01
1.470000000000000000e+02 6.851400756835937500e+01 -1.636602210998535156e+01 -2.594217061996459961e-01 4.638484120368957520e-02 -6.391105800867080688e-02 4.845883250236511230e-01
1.480000000000000000e+02 6.835238647460937500e+01 -1.661445617675781250e+01 -1.512245833873748779e-01 -7.537858188152313232e-02 -6.798094511032104492e-02 1.070064529776573181e-01
1.490000000000000000e+02 6.913881683349609375e+01 -1.648828887939453125e+01 -1.942033410072326660e+00 8.099871873855590820e-02 -5.583103895187377930e-01 -3.124175593256950378e-02
1.500000000000000000e+02 7.134786224365234375e+01 -1.609877777099609375e+01 8.323828697204589844e+00 1.617265510559082031e+01 7.348945140838623047e+00 1.615495085716247559e+00
1.510000000000000000e+02 6.974533843994140625e+01 -1.546070766448974609e+01 3.655452251434326172e+00 9.666217803955078125e+00 3.996500968933105469e+00 -6.463971138000488281e+00
1.520000000000000000e+02 6.917480468750000000e+01 -1.672021102905273438e+01 -9.658790826797485352e-01 -9.627320617437362671e-02 -3.186456859111785889e-01 -1.550385653972625732e-01
1.530000000000000000e+02 6.898126983642578125e+01 -1.677545166015625000e+01 -8.433389067649841309e-01 1.194145157933235168e-01 -2.171773165464401245e-01 -2.920151948928833008e-01
1.540000000000000000e+02 6.938076782226562500e+01 -1.795937919616699219e+01 7.483704090118408203e-01 7.332166671752929688e+00 2.424161195755004883e+00 4.098353385925292969e+00
1.550000000000000000e+02 7.135404205322265625e+01 -1.677693176269531250e+01 7.731407642364501953e+00 1.630453681945800781e+01 7.210783481597900391e+00 -1.469604969024658203e+00
1.560000000000000000e+02 6.838990783691406250e+01 -1.685909271240234375e+01 -6.264777481555938721e-02 -1.419335007667541504e-01 -6.137438118457794189e-02 -9.396691620349884033e-02
1.570000000000000000e+02 6.848207092285156250e+01 -1.815139198303222656e+01 -7.923262119293212891e-01 2.499172687530517578e+00 5.120539665222167969e-01 2.121111899614334106e-01
1.580000000000000000e+02 6.839414978027343750e+01 -1.814681625366210938e+01 -7.366369366645812988e-01 2.593802213668823242e-01 -1.431770026683807373e-01 -6.015073060989379883e-01
1.590000000000000000e+02 6.859949493408203125e+01 -1.727470016479492188e+01 4.401905834674835205e-01 -4.982137307524681091e-02 1.171107590198516846e-01 6.247890647500753403e-03
1.600000000000000000e+02 6.854868316650390625e+01 -1.657573699951171875e+01 -5.358548760414123535e-01 2.673737891018390656e-02 -1.527352482080459595e-01 1.815038323402404785e-01
1.610000000000000000e+02 7.044696044921875000e+01 -1.512976551055908203e+01 6.737886667251586914e-01 1.710015869140625000e+01 5.332184314727783203e+00 -3.096389532089233398e+00
1.620000000000000000e+02 6.934194946289062500e+01 -1.517266654968261719e+01 2.834250211715698242e+00 6.235602855682373047e+00 2.720955848693847656e+00 -4.774124145507812500e+00
1.630000000000000000e+02 7.125030517578125000e+01 -1.709182929992675781e+01 5.592372894287109375e+00 1.787024116516113281e+01 7.038784027099609375e+00 -2.743764400482177734e+00
1.640000000000000000e+02 7.077956390380859375e+01 -1.549465656280517578e+01 3.260894060134887695e+00 1.943158721923828125e+01 6.807744026184082031e+00 2.326468527317047119e-01
1.650000000000000000e+02 6.924752807617187500e+01 -1.692629623413085938e+01 1.526427984237670898e+00 1.055272340774536133e+00 7.745100855827331543e-01 1.172634840011596680e+00
1.660000000000000000e+02 6.858674621582031250e+01 -1.683536720275878906e+01 -2.773182690143585205e-01 -9.734468162059783936e-02 -1.123988851904869080e-01 -2.491688281297683716e-01
1.670000000000000000e+02 6.917396545410156250e+01 -1.607207870483398438e+01 2.328121900558471680e+00 6.952388882637023926e-01 9.070082902908325195e-01 -7.823973298072814941e-01
1.680000000000000000e+02 6.959413909912109375e+01 -1.790852928161621094e+01 8.068214058876037598e-01 8.945199012756347656e+00 2.925606012344360352e+00 4.612821578979492188e+00
1.690000000000000000e+02 7.116556549072265625e+01 -1.573544025421142578e+01 6.432118892669677734e+00 1.805188179016113281e+01 7.345200061798095703e+00 2.407334089279174805e+00
1.700000000000000000e+02 7.067636871337890625e+01 -1.737760543823242188e+01 1.050296664237976074e+00 2.168825340270996094e+01 6.821564674377441406e+00 -6.959468126296997070e-02
1.710000000000000000e+02 6.875177001953125000e+01 -1.551052188873291016e+01 2.230093479156494141e+00 1.564763545989990234e+00 1.138457059860229492e+00 -1.912056922912597656e+00
1.720000000000000000e+02 6.914160156250000000e+01 -1.628063583374023438e+01 4.481594264507293701e-01 1.909138411283493042e-01 1.917219758033752441e-01 9.723149240016937256e-02
1.730000000000000000e+02 6.993904113769531250e+01 -1.539933490753173828e+01 2.808084011077880859e+00 1.315894031524658203e+01 4.790107250213623047e+00 -6.334416866302490234e+00
1.740000000000000000e+02 6.964471435546875000e+01 -1.738080215454101562e+01 2.427494287490844727e+00 7.960647583007812500e+00 3.116442680358886719e+00 5.533577919006347656e+00
1.750000000000000000e+02 7.077932739257812500e+01 -1.764461517333984375e+01 4.737130701541900635e-01 1.934001541137695312e+01 5.944118499755859375e+00 4.594401419162750244e-01
1.760000000000000000e+02 7.029649353027343750e+01 -1.535685729980468750e+01 1.354353666305541992e+00 1.813104629516601562e+01 5.845620155334472656e+00 -3.584045648574829102e+00
1.770000000000000000e+02 7.155928039550781250e+01 -1.656277275085449219e+01 8.754916191101074219e+00 1.496840667724609375e+01 7.116996765136718750e+00 -8.651436567306518555e-01
1.780000000000000000e+02 7.014952087402343750e+01 -1.754249382019042969e+01 3.908250927925109863e-01 1.600929450988769531e+01 4.920035839080810547e+00 5.287206172943115234e+00
1.790000000000000000e+02 7.033392333984375000e+01 -1.749580383300781250e+01 7.003926634788513184e-01 1.812302780151367188e+01 5.647026062011718750e+00 3.363281726837158203e+00
1.800000000000000000e+02 7.133173370361328125e+01 -1.655642318725585938e+01 1.097142791748046875e+01 1.612931823730468750e+01 8.130224227905273438e+00 -1.345796823501586914e+00
1.810000000000000000e+02 7.102401733398437500e+01 -1.534429454803466797e+01 2.494033336639404297e+00 1.829487800598144531e+01 6.236673831939697266e+00 1.308845996856689453e+00
1.820000000000000000e+02 6.894332122802734375e+01 -1.651044082641601562e+01 -1.470447301864624023e+00 3.066358715295791626e-02 -4.319351017475128174e-01 6.798959523439407349e-02
1.830000000000000000e+02 6.893314361572265625e+01 -1.628468894958496094e+01 8.668071031570434570e-02 2.417723834514617920e-01 9.853592514991760254e-02 2.638202607631683350e-01
1.840000000000000000e+02 6.874601745605468750e+01 -1.653999900817871094e+01 -9.953839182853698730e-01 7.297784090042114258e-02 -2.767218351364135742e-01 1.261509507894515991e-01
1.850000000000000000e+02 6.843447875976562500e+01 -1.749410247802734375e+01 1.963496059179306030e-01 -6.532753109931945801e-01 -1.370777189731597900e-01 2.448667883872985840e-01
1.860000000000000000e+02 6.878526306152343750e+01 -1.681272697448730469e+01 -5.842995643615722656e-01 -1.169343143701553345e-01 -2.103701680898666382e-01 -3.286064863204956055e-01
1.870000000000000000e+02 6.979565429687500000e+01 -1.788576126098632812e+01 4.631259739398956299e-01 1.126741504669189453e+01 3.519162178039550781e+00 5.093661308288574219e+00
1.880000000000000000e+02 6.998214721679687500e+01 -1.786649894714355469e+01 1.835151910781860352e-01 1.349686241149902344e+01 4.104113101959228516e+00 4.796030044555664062e+00
1.890000000000000000e+02 6.964957427978515625e+01 -1.531354904174804688e+01 3.270174741744995117e+00 9.086206436157226562e+00 3.706914424896240234e+00 -5.914956092834472656e+00
1.900000000000000000e+02 6.954657745361328125e+01 -1.512918758392333984e+01 2.497319221496582031e+00 8.044376373291015625e+00 3.162508487701416016e+00 -5.281759738922119141e+00
1.910000000000000000e+02 6.913845062255859375e+01 -1.521868133544921875e+01 2.689286947250366211e+00 4.406267642974853516e+00 2.128666400909423828e+00 -3.703482389450073242e+00
1.920000000000000000e+02 6.898805999755859375e+01 -1.552011299133300781e+01 3.029403448104858398e+00 2.306810379028320312e+00 1.600864171981811523e+00 -2.538226127624511719e+00
1.930000000000000000e+02 6.812989044189453125e+01 -1.534017181396484375e+01 9.109588265419006348e-01 4.481018483638763428e-01 4.077181816101074219e-01 -1.087141633033752441e+00
1.940000000000000000e+02 6.867098999023437500e+01 -1.764955139160156250e+01 1.934580653905868530e-01 1.520005941390991211e+00 5.140392184257507324e-01 8.837912678718566895e-01
1.950000000000000000e+02 6.878605651855468750e+01 -1.807828330993652344e+01 1.155567541718482971e-01 4.184587001800537109e+00 1.290043115615844727e+00 2.124123334884643555e+00
1.960000000000000000e+02 6.854610443115234375e+01 -1.550177001953125000e+01 1.493255615234375000e+00 9.800989627838134766e-01 7.420063614845275879e-01 -1.334752798080444336e+00
1.970000000000000000e+02 6.820775604248046875e+01 -1.567709922790527344e+01 4.962456524372100830e-01 -2.210683673620223999e-01 8.255318552255630493e-02 -3.059107959270477295e-01
1.980000000000000000e+02 6.843239593505859375e+01 -1.793471908569335938e+01 1.724649965763092041e-01 6.130360364913940430e-01 2.356503009796142578e-01 3.954295516014099121e-01
1.990000000000000000e+02 6.856366729736328125e+01 -1.799105834960937500e+01 -2.824055254459381104e-01 1.811435341835021973e+00 4.587089419364929199e-01 6.207407712936401367e-01
2.000000000000000000e+02 6.841173553466796875e+01 -1.707594680786132812e+01 4.251788929104804993e-02 -4.738104641437530518e-01 -1.293877661228179932e-01 -1.370808333158493042e-01
2.010000000000000000e+02 6.861680603027343750e+01 -1.744866752624511719e+01 3.507801592350006104e-01 5.727123618125915527e-01 2.770477533340454102e-01 4.713010191917419434e-01
2.020000000000000000e+02 6.845189666748046875e+01 -1.771188354492187500e+01 -9.883055835962295532e-02 -5.801550671458244324e-02 -4.705381765961647034e-02 3.122193813323974609e-01
2.030000000000000000e+02 6.797946929931640625e+01 -1.554315948486328125e+01 3.394078314304351807e-01 -4.714921414852142334e-01 -3.962529078125953674e-02 2.649881411343812943e-03
2.040000000000000000e+02 6.812462615966796875e+01 -1.588275814056396484e+01 5.274513736367225647e-02 -1.126173734664916992e+00 -3.220285773277282715e-01 4.230114519596099854e-01
2.050000000000000000e+02 6.826361083984375000e+01 -1.623353576660156250e+01 -1.221367716789245605e-01 -7.228716015815734863e-01 -2.535025179386138916e-01 4.216524362564086914e-01
2.060000000000000000e+02 6.894665527343750000e+01 -1.779350471496582031e+01 6.898432970046997070e-01 3.895930290222167969e+00 1.375732064247131348e+00 2.408624410629272461e+00
2.070000000000000000e+02 6.889281463623046875e+01 -1.752980804443359375e+01 9.129462838172912598e-01 2.228268146514892578e+00 9.423643350601196289e-01 1.420034646987915039e+00
2.080000000000000000e+02 6.938082122802734375e+01 -1.567913150787353516e+01 4.353798389434814453e+00 3.695209980010986328e+00 2.414702415466308594e+00 -3.986374139785766602e+00
2.090000000000000000e+02 6.897197723388671875e+01 -1.578971767425537109e+01 2.643268585205078125e+00 1.430709004402160645e+00 1.222193241119384766e+00 -1.573394775390625000e+00
2.100000000000000000e+02 6.935897827148437500e+01 -1.710344123840332031e+01 2.552623271942138672e+00 2.389275074005126953e+00 1.482569456100463867e+00 2.638974428176879883e+00
2.110000000000000000e+02 6.917762756347656250e+01 -1.725226402282714844e+01 1.732306599617004395e+00 2.556832790374755859e+00 1.286741852760314941e+00 2.022464036941528320e+00
2.120000000000000000e+02 6.922846984863281250e+01 -1.547181224822998047e+01 3.626271963119506836e+00 3.924755096435546875e+00 2.265308141708374023e+00 -3.859093427658081055e+00
2.130000000000000000e+02 6.904656219482421875e+01 -1.704754638671875000e+01 1.221771717071533203e+00 7.293524146080017090e-01 5.853372812271118164e-01 7.156537175178527832e-01
2.140000000000000000e+02 6.932266998291015625e+01 -1.740548896789550781e+01 2.308960914611816406e+00 4.547092914581298828e+00 2.056816101074218750e+00 3.549157381057739258e+00
2.150000000000000000e+02 6.893087005615234375e+01 -1.604685211181640625e+01 1.566443204879760742e+00 5.480529069900512695e-01 6.343488097190856934e-01 -2.674446105957031250e-01
2.160000000000000000e+02 6.873435974121093750e+01 -1.787132453918457031e+01 2.225526273250579834e-01 2.541309595108032227e+00 8.291586637496948242e-01 1.421913266181945801e+00
2.170000000000000000e+02 6.872372436523437500e+01 -1.527507400512695312e+01 2.225325822830200195e+00 2.027935266494750977e+00 1.275978326797485352e+00 -2.389080047607421875e+00
2.180000000000000000e+02 6.835621643066406250e+01 -1.550227451324462891e+01 1.132830977439880371e+00 7.187189459800720215e-01 5.554649829864501953e-01 -1.097540616989135742e+00
2.190000000000000000e+02 6.804911804199218750e+01 -1.571391582489013672e+01 -1.286888867616653442e-01 -8.944686651229858398e-01 -3.069472610950469971e-01 1.746896654367446899e-01
2.200000000000000000e+02 6.819998168945312500e+01 -1.605352592468261719e+01 -2.387041151523590088e-01 -1.022956132888793945e+00 -3.784980773925781250e-01 4.589553475379943848e-01
2.210000000000000000e+02 6.860498046875000000e+01 -1.813109779357910156e+01 -1.385473459959030151e-01 3.110825538635253906e+00 8.916834592819213867e-01 1.432599425315856934e+00
2.220000000000000000e+02 6.832594299316406250e+01 -1.531522274017333984e+01 1.377289891242980957e+00 6.887848377227783203e-01 6.198223829269409180e-01 -1.316463947296142578e+00
2.230000000000000000e+02 6.836473846435546875e+01 -1.568590927124023438e+01 7.786722779273986816e-01 2.280631214380264282e-01 3.020206093788146973e-01 -5.506027340888977051e-01
2.240000000000000000e+02 6.828428649902343750e+01 -1.581732368469238281e+01 2.822531759738922119e-01 -2.057096958160400391e-01 2.296304516494274139e-02 -1.583900898694992065e-01
2.250000000000000000e+02 6.873231506347656250e+01 -1.573667240142822266e+01 1.856256365776062012e+00 9.486233592033386230e-01 8.414639234542846680e-01 -1.032722473144531250e+00
2.260000000000000000e+02 6.918025207519531250e+01 -1.799251556396484375e+01 6.051412820816040039e-01 6.238651752471923828e+00 2.053138017654418945e+00 3.498292207717895508e+00
2.270000000000000000e+02 6.956923675537109375e+01 -1.768333816528320312e+01 1.559980869293212891e+00 8.592201232910156250e+00 3.045654535293579102e+00 4.706520080566406250e+00
2.280000000000000000e+02 6.979557800292968750e+01 -1.749725532531738281e+01 1.535532951354980469e+00 1.111692714691162109e+01 3.795737981796264648e+00 5.864004135131835938e+00
2.290000000000000000e+02 7.018592071533203125e+01 -1.781315612792968750e+01 -1.808358728885650635e-02 1.538194370269775391e+01 4.609158039093017578e+00 4.169202327728271484e+00
2.300000000000000000e+02 7.041142272949218750e+01 -1.778001976013183594e+01 -3.323417156934738159e-03 1.631007385253906250e+01 4.892025470733642578e+00 3.030695199966430664e+00
2.310000000000000000e+02 7.082878112792968750e+01 -1.732036209106445312e+01 1.804572224617004395e+00 2.130742073059082031e+01 6.933597564697265625e+00 -9.000235795974731445e-01
2.320000000000000000e+02 6.893124389648437500e+01 -1.525360584259033203e+01 2.582814693450927734e+00 3.150117874145507812e+00 1.719879746437072754e+00 -3.201812505722045898e+00
2.330000000000000000e+02 6.944238281250000000e+01 -1.538259220123291016e+01 3.625598192214965820e+00 6.033917903900146484e+00 2.897854804992675781e+00 -5.035453796386718750e+00
2.340000000000000000e+02 6.975804901123046875e+01 -1.509606647491455078e+01 2.222038984298706055e+00 1.072380828857421875e+01 3.883754014968872070e+00 -5.690938472747802734e+00
2.350000000000000000e+02 6.986492919921875000e+01 -1.526922607421875000e+01 2.408263921737670898e+00 1.150829601287841797e+01 4.174967765808105469e+00 -5.962983608245849609e+00
2.360000000000000000e+02 6.831368255615234375e+01 -1.642115974426269531e+01 -1.659020483493804932e-01 -3.317433297634124756e-01 -1.492936164140701294e-01 3.113662302494049072e-01
2.370000000000000000e+02 6.872135162353515625e+01 -1.631562232971191406e+01 -1.934423893690109253e-01 2.316592037677764893e-01 1.146504282951354980e-02 4.610067903995513916e-01
2.380000000000000000e+02 6.924382781982421875e+01 -1.585922336578369141e+01 4.005781650543212891e+00 1.773607611656188965e+00 1.733816862106323242e+00 -2.399279594421386719e+00
2.390000000000000000e+02 6.842199707031250000e+01 -1.728639221191406250e+01 3.271283209323883057e-02 -8.253105878829956055e-01 -2.377793192863464355e-01 -7.007212191820144653e-02
2.400000000000000000e+02 6.860900115966796875e+01 -1.706987190246582031e+01 1.157724261283874512e-01 -1.870110630989074707e-01 -2.137159183621406555e-02 -3.697705268859863281e-01
2.410000000000000000e+02 6.911748504638671875e+01 -1.747232246398925781e+01 1.608726024627685547e+00 3.405233144760131836e+00 1.504187703132629395e+00 2.442565917968750000e+00
2.420000000000000000e+02 6.945636749267578125e+01 -1.754867935180664062e+01 1.915706276893615723e+00 6.780255794525146484e+00 2.608788490295410156e+00 4.213712692260742188e+00
2.430000000000000000e+02 7.047869110107421875e+01 -1.756720352172851562e+01 6.306267380714416504e-01 1.914128684997558594e+01 5.931574344635009766e+00 2.039662837982177734e+00
2.440000000000000000e+02 7.105862426757812500e+01 -1.578039932250976562e+01 6.361040115356445312e+00 1.910805511474609375e+01 7.640728473663330078e+00 2.393953561782836914e+00
2.450000000000000000e+02 7.096876525878906250e+01 -1.551970100402832031e+01 3.843564033508300781e+00 1.946630859375000000e+01 6.992961883544921875e+00 1.485474824905395508e+00
2.460000000000000000e+02 7.092437744140625000e+01 -1.563533878326416016e+01 4.865344047546386719e+00 2.088649177551269531e+01 7.725551128387451172e+00 2.148297786712646484e+00
2.470000000000000000e+02 7.013515472412109375e+01 -1.537372684478759766e+01 1.822618722915649414e+00 1.622957992553710938e+01 5.415659904479980469e+00 -5.417225360870361328e+00
2.480000000000000000e+02 7.070452880859375000e+01 -1.749458885192871094e+01 9.125040173530578613e-01 2.098274421691894531e+01 6.568574428558349609e+00 9.272295981645584106e-02
2.490000000000000000e+02 6.838836669921875000e+01 -1.597324085235595703e+01 3.656301796436309814e-01 -1.303684115409851074e-01 7.057853043079376221e-02 1.168982386589050293e-01
2.500000000000000000e+02 6.936691284179687500e+01 -1.773026847839355469e+01 1.287760972976684570e+00 6.328070163726806641e+00 2.284749269485473633e+00 4.076046466827392578e+00
2.510000000000000000e+02 6.877488708496093750e+01 -1.733024024963378906e+01 7.275332212448120117e-01 1.111586928367614746e+00 5.517360568046569824e-01 5.409567356109619141e-01
2.520000000000000000e+02 6.882563018798828125e+01 -1.709295082092285156e+01 6.953564286231994629e-01 6.631595492362976074e-01 4.075547754764556885e-01 2.293050587177276611e-01
2.530000000000000000e+02 6.868515014648437500e+01 -1.608653068542480469e+01 7.461393475532531738e-01 4.023585319519042969e-01 3.445493578910827637e-01 7.377560436725616455e-02
2.540000000000000000e+02 6.859664916992187500e+01 -1.588548564910888672e+01 9.245561957359313965e-01 5.161371231079101562e-01 4.322080016136169434e-01 -3.079767525196075439e-01
2.550000000000000000e+02 6.890278625488281250e+01 -1.896086883544921875e+01 7.425668239593505859e-01 7.110773086547851562e+00 2.356001853942871094e+00 2.724572181701660156e+00
2.560000000000000000e+02 6.885400390625000000e+01 -1.833048820495605469e+01 2.499602437019348145e-01 5.238912582397460938e+00 1.646661758422851562e+00 2.722286701202392578e+00
2.570000000000000000e+02 7.090625000000000000e+01 -1.815149879455566406e+01 -8.510698378086090088e-02 1.652660179138183594e+01 4.932448387145996094e+00 7.024738788604736328e-01
2.580000000000000000e+02 6.747683715820312500e+01 -2.339605712890625000e+01 1.370367288589477539e+00 5.780928611755371094e+00 2.145388841629028320e+00 2.472796440124511719e+00
2.590000000000000000e+02 6.446657562255859375e+01 -2.649132728576660156e+01 -3.349159657955169678e-01 7.014483809471130371e-01 1.099597290158271790e-01 1.365609467029571533e-01
2.600000000000000000e+02 6.231903457641601562e+01 -2.837072563171386719e+01 -1.817349195480346680e+00 -3.410631120204925537e-01 -6.475237011909484863e-01 -7.570697665214538574e-01
2.610000000000000000e+02 6.107016754150390625e+01 -2.908746910095214844e+01 -2.452022790908813477e+00 -4.000084102153778076e-01 -8.556093573570251465e-01 -9.080135822296142578e-01
2.620000000000000000e+02 6.254178619384765625e+01 -3.884346771240234375e+01 8.685410618782043457e-01 1.802308320999145508e+00 8.012548089027404785e-01 2.462467849254608154e-01
2.630000000000000000e+02 6.647311401367187500e+01 -3.903319168090820312e+01 5.643616318702697754e-01 3.831234455108642578e+00 1.318678855895996094e+00 3.087077438831329346e-01
2.640000000000000000e+02 6.712042236328125000e+01 -4.133680725097656250e+01 5.765990018844604492e-01 4.093097209930419922e+00 1.400908827781677246e+00 1.171556711196899414e-01
2.650000000000000000e+02 7.367537689208984375e+01 -3.820060729980468750e+01 -2.042454108595848083e-02 7.686686515808105469e+00 2.299878597259521484e+00 3.947232663631439209e-02
2.660000000000000000e+02 7.931799316406250000e+01 -3.323584747314453125e+01 -5.080102011561393738e-03 1.094117355346679688e+01 3.280827999114990234e+00 -3.006597980856895447e-02
2.670000000000000000e+02 7.802613830566406250e+01 -3.007539176940917969e+01 -1.228878274559974670e-01 1.010707569122314453e+01 2.995256423950195312e+00 -2.521737813949584961e-01
2.680000000000000000e+02 7.935438537597656250e+01 -2.625316619873046875e+01 -2.860167995095252991e-02 9.812277793884277344e+00 2.935102939605712891e+00 -2.596533000469207764e-01
2.690000000000000000e+02 7.816227722167968750e+01 -2.302309226989746094e+01 -5.795828253030776978e-02 8.667860031127929688e+00 2.582970619201660156e+00 -8.945160508155822754e-01
2.700000000000000000e+02 7.940376281738281250e+01 -2.209116744995117188e+01 2.002651803195476532e-03 7.818264007568359375e+00 2.346080064773559570e+00 -3.699500262737274170e-01
2.710000000000000000e+02 7.238694000244140625e+01 -1.707863426208496094e+01 5.100814342498779297e+00 1.315544509887695312e+01 5.476877689361572266e+00 -1.470768451690673828e+00
2.720000000000000000e+02 7.837697601318359375e+01 -1.481233119964599609e+01 2.299440205097198486e-01 7.064929962158203125e+00 2.188462257385253906e+00 5.753074288368225098e-01
2.730000000000000000e+02 5.974097061157226562e+01 -2.964984893798828125e+01 -2.778299570083618164e+00 -3.563933670520782471e-01 -9.404078722000122070e-01 -8.987612128257751465e-01
2.740000000000000000e+02 5.564400482177734375e+01 -3.067113494873046875e+01 -2.363215923309326172e+00 -1.122247353196144104e-01 -7.426321506500244141e-01 -4.056183397769927979e-01
2.750000000000000000e+02 5.559359741210937500e+01 -3.607624053955078125e+01 4.109133780002593994e-01 6.158886551856994629e-01 3.080406188964843750e-01 -7.389219403266906738e-01
2.760000000000000000e+02 5.763021850585937500e+01 -3.156551361083984375e+01 -1.575077414512634277e+00 -3.117222487926483154e-01 -5.660398602485656738e-01 -4.841234683990478516e-01
2.770000000000000000e+02 5.145918655395507812e+01 -3.155728149414062500e+01 -1.452507078647613525e-01 1.126311659812927246e+00 2.943182587623596191e-01 -1.242025613784790039e+00
2.780000000000000000e+02 4.817336654663085938e+01 -2.858729553222656250e+01 2.900362730026245117e+00 4.379414558410644531e+00 2.183933019638061523e+00 -3.313149452209472656e+00
2.790000000000000000e+02 4.572008132934570312e+01 -3.088361358642578125e+01 -3.026328086853027344e-01 6.496018886566162109e+00 1.858015894889831543e+00 -1.502824664115905762e+00
2.800000000000000000e+02 3.754059219360351562e+01 -2.999075889587402344e+01 -3.173627257347106934e-01 5.827808856964111328e+00 1.653133749961853027e+00 7.613793015480041504e-01
2.810000000000000000e+02 3.329016876220703125e+01 -2.620043182373046875e+01 1.341018795967102051e+00 2.932933568954467773e+00 1.282185673713684082e+00 1.977141499519348145e+00
2.820000000000000000e+02 3.067248916625976562e+01 -2.989826393127441406e+01 -2.749254405498504639e-01 1.516406178474426270e+00 3.724442124366760254e-01 1.044687390327453613e+00
2.830000000000000000e+02 2.872061347961425781e+01 -2.938307380676269531e+01 -9.190672039985656738e-01 1.444235891103744507e-01 -2.323931008577346802e-01 1.167577505111694336e-01
2.840000000000000000e+02 2.775787353515625000e+01 -3.152818679809570312e+01 -5.088933110237121582e-01 4.071613550186157227e-01 -3.051958233118057251e-02 5.134579539299011230e-01
2.850000000000000000e+02 2.445372200012207031e+01 -2.972670364379882812e+01 -1.653117418289184570e+00 -8.871371299028396606e-02 -5.225493311882019043e-01 1.909329593181610107e-01
2.860000000000000000e+02 2.224580383300781250e+01 -2.924256706237792969e+01 -1.113747715950012207e+00 -1.094300970435142517e-01 -3.669533431529998779e-01 2.125860452651977539e-01
2.870000000000000000e+02 2.116673278808593750e+01 -2.838066291809082031e+01 -5.929026603698730469e-01 -1.495033502578735352e-02 -1.823558956384658813e-01 2.046953141689300537e-01
2.880000000000000000e+02 1.802118110656738281e+01 -2.733434104919433594e+01 -3.180086910724639893e-01 6.233444213867187500e-01 9.160071611404418945e-02 -1.594454944133758545e-01
2.890000000000000000e+02 1.540806579589843750e+01 -2.228278160095214844e+01 5.812452435493469238e-01 1.993251204490661621e+00 7.723489403724670410e-01 -9.756754040718078613e-01
2.900000000000000000e+02 1.460400009155273438e+01 -2.103614044189453125e+01 6.306985616683959961e-01 3.742036819458007812e+00 1.311820626258850098e+00 -7.732689380645751953e-01
2.910000000000000000e+02 1.429229354858398438e+01 -1.959216117858886719e+01 3.975750803947448730e-01 4.352875709533691406e+00 1.425135135650634766e+00 -1.373492181301116943e-01
2.920000000000000000e+02 1.384295177459716797e+01 -1.563263225555419922e+01 1.182717561721801758e+00 4.258710384368896484e+00 1.632428288459777832e+00 1.105823278427124023e+00
2.930000000000000000e+02 1.484983825683593750e+01 -1.482320213317871094e+01 1.381651282310485840e+00 4.734731197357177734e+00 1.834914684295654297e+00 1.915997624397277832e+00
2.940000000000000000e+02 1.562001705169677734e+01 -1.369719696044921875e+01 2.180315971374511719e+00 3.750947952270507812e+00 1.779379129409790039e+00 2.408174037933349609e+00
2.950000000000000000e+02 1.794949913024902344e+01 -1.195287609100341797e+01 3.442512035369873047e+00 1.243392586708068848e+00 1.405771374702453613e+00 1.705140948295593262e+00
2.960000000000000000e+02 1.462259674072265625e+01 -1.299318504333496094e+01 1.756639242172241211e+00 2.964224100112915039e+00 1.416259050369262695e+00 1.166621208190917969e+00
2.970000000000000000e+02 1.800666618347167969e+01 -1.602274894714355469e+00 -7.921294569969177246e-01 1.619760394096374512e-01 -1.890460252761840820e-01 4.302494525909423828e-01
2.980000000000000000e+02 1.479727363586425781e+01 -2.528004407882690430e+00 -9.605861902236938477e-01 1.841889023780822754e-01 -2.329191863536834717e-01 1.380786150693893433e-01
2.990000000000000000e+02 1.489922237396240234e+01 -1.786080360412597656e+00 -1.211839795112609863e+00 1.036555096507072449e-01 -3.324552774429321289e-01 8.939012885093688965e-02
3.000000000000000000e+02 1.183484554290771484e+01 -1.844313263893127441e+00 -1.223314404487609863e+00 5.875289812684059143e-02 -3.493684530258178711e-01 -1.916147321462631226e-01
3.010000000000000000e+02 8.860298156738281250e+00 -1.866685271263122559e+00 -9.325733780860900879e-01 2.416115626692771912e-02 -2.725236713886260986e-01 -3.284077346324920654e-01
3.020000000000000000e+02 3.204547405242919922e+00 -1.930004715919494629e+00 -2.051928788423538208e-01 -7.052356749773025513e-02 -8.271493017673492432e-02 -2.213838398456573486e-01
3.030000000000000000e+02 3.914263010025024414e+00 -1.900297522544860840e+00 -2.772033810615539551e-01 -6.226538121700286865e-02 -1.018406301736831665e-01 -2.627997696399688721e-01
3.040000000000000000e+02 5.461264252662658691e-01 -1.058879852294921875e+01 3.898981027305126190e-03 -1.560430884361267090e+00 -4.669595658779144287e-01 -8.878098428249359131e-02
3.050000000000000000e+02 1.641940951347351074e+00 -1.037959194183349609e+01 3.116668760776519775e-02 -1.198696136474609375e+00 -3.502588272094726562e-01 -2.584774792194366455e-01
3.060000000000000000e+02 6.165460944175720215e-01 -1.763261795043945312e+01 1.124526374042034149e-02 -1.958035111427307129e+00 -5.840369462966918945e-01 3.843526914715766907e-02
3.070000000000000000e+02 1.253839206695556641e+01 -2.788139724731445312e+01 -4.484797716140747070e-01 1.258182287216186523e+00 2.429107576608657837e-01 2.343446016311645508e-01
3.080000000000000000e+02 5.049968338012695312e+01 -3.018623542785644531e+01 4.469996690750122070e-01 1.165921568870544434e+00 4.838763773441314697e-01 -1.379890441894531250e+00
3.090000000000000000e+02 4.578895568847656250e+01 -2.496418571472167969e+01 2.077330112457275391e+00 1.314754390716552734e+01 4.567461967468261719e+00 -3.915517568588256836e+00
3.100000000000000000e+02 4.546148300170898438e+01 -2.358457946777343750e+01 1.233882546424865723e+00 1.389470672607421875e+01 4.538576602935791016e+00 -1.935880661010742188e+00
3.110000000000000000e+02 4.530649948120117188e+01 -2.222404861450195312e+01 2.374171763658523560e-01 1.211659812927246094e+01 3.706204652786254883e+00 -7.833383679389953613e-01
3.120000000000000000e+02 4.540908432006835938e+01 -1.881568527221679688e+01 1.625432848930358887e+00 1.135617256164550781e+01 3.894481420516967773e+00 1.919707775115966797e+00
3.130000000000000000e+02 4.562411117553710938e+01 -1.532327079772949219e+01 1.060959935188293457e+00 5.508659362792968750e+00 1.970885872840881348e+00 1.066175460815429688e+00
3.140000000000000000e+02 4.421978759765625000e+01 -6.753421783447265625e+00 -1.828311324119567871e+00 2.814084768295288086e+00 2.957320511341094971e-01 -1.044993400573730469e+00
3.150000000000000000e+02 4.675042343139648438e+01 -4.755633354187011719e+00 -4.413258552551269531e+00 -3.973164558410644531e-01 -1.443172574043273926e+00 1.247045159339904785e+00
3.160000000000000000e+02 4.286576843261718750e+01 -5.428842544555664062e+00 -2.057311296463012695e+00 4.034881114959716797e+00 5.932708382606506348e-01 -2.072265148162841797e+00
3.170000000000000000e+02 4.281563949584960938e+01 -3.788763999938964844e+00 -1.084581494331359863e+00 2.325060367584228516e+00 3.721436262130737305e-01 -1.307559967041015625e+00
3.180000000000000000e+02 4.030819320678710938e+01 -1.128774166107177734e+00 2.974151134490966797e+00 1.196620941162109375e+01 4.482108116149902344e+00 -4.946090698242187500e+00
3.190000000000000000e+02 3.970978164672851562e+01 -2.655367612838745117e+00 -3.309907615184783936e-01 1.018572521209716797e+01 2.956420421600341797e+00 -2.126789808273315430e+00
3.200000000000000000e+02 2.872587776184082031e+01 -1.981098055839538574e-01 3.342568159103393555e+00 -7.252600044012069702e-02 9.810126423835754395e-01 7.514462620019912720e-02
3.210000000000000000e+02 2.630609512329101562e+01 -1.621465563774108887e+00 1.757591009140014648e+00 -5.500645190477371216e-02 5.107753276824951172e-01 1.037000179290771484e+00
3.220000000000000000e+02 2.689147186279296875e+01 6.158555746078491211e-01 1.692722916603088379e+00 9.981983155012130737e-02 5.377628207206726074e-01 -2.067734748125076294e-01
3.230000000000000000e+02 2.590967750549316406e+01 1.719846874475479126e-01 1.465977787971496582e+00 -2.589833736419677734e-01 3.620983362197875977e-01 2.583618164062500000e-01
3.240000000000000000e+02 2.119975852966308594e+01 -1.854530334472656250e+00 -1.804039813578128815e-02 1.993098556995391846e-01 5.438083782792091370e-02 8.027520775794982910e-01
3.250000000000000000e+02 2.325689315795898438e+01 -1.047275543212890625e+01 6.827629804611206055e-01 1.625755429267883301e-01 2.536015510559082031e-01 5.053792595863342285e-01
3.260000000000000000e+02 2.577716827392578125e+01 -9.334255218505859375e+00 -1.544540375471115112e-01 2.866180241107940674e-01 3.964919596910476685e-02 2.351520508527755737e-01
3.270000000000000000e+02 2.688208580017089844e+01 -8.775379180908203125e+00 -1.539613246917724609e+00 1.255622506141662598e-01 -4.242152869701385498e-01 -4.485837742686271667e-02
3.280000000000000000e+02 2.859102058410644531e+01 -8.070944786071777344e+00 -4.499687671661376953e+00 -2.105037569999694824e-01 -1.413057327270507812e+00 3.524478077888488770e-01
3.290000000000000000e+02 3.135721588134765625e+01 -8.621994018554687500e+00 -3.667495727539062500e+00 7.909370660781860352e-01 -8.629676103591918945e-01 6.775476336479187012e-01
3.300000000000000000e+02 3.258814239501953125e+01 -9.641087532043457031e+00 -1.284017562866210938e+00 2.930677175521850586e+00 4.939979314804077148e-01 -7.506614923477172852e-01
3.310000000000000000e+02 3.357572937011718750e+01 -1.084074020385742188e+01 6.429857015609741211e-01 6.329022884368896484e+00 2.091602563858032227e+00 -2.518306016921997070e+00
3.320000000000000000e+02 3.431660079956054688e+01 -1.212507152557373047e+01 1.560093641281127930e+00 9.761983871459960938e+00 3.396623134613037109e+00 -3.369276762008666992e+00
3.330000000000000000e+02 4.347610092163085938e+01 -1.276484394073486328e+01 -7.441259920597076416e-02 5.817730903625488281e+00 1.722995519638061523e+00 -1.893183887004852295e-01
3.340000000000000000e+02 4.592835235595703125e+01 -1.769817161560058594e+01 2.199470758438110352e+00 7.982987403869628906e+00 3.054737567901611328e+00 3.049718141555786133e+00
3.350000000000000000e+02 4.851757431030273438e+01 -1.556655502319335938e+01 2.183408498764038086e+00 1.317641258239746094e+00 1.050314903259277344e+00 1.474132895469665527e+00
3.360000000000000000e+02 4.989435195922851562e+01 -1.524265575408935547e+01 9.079605937004089355e-01 2.600390911102294922e-01 3.503999114036560059e-01 6.290718913078308105e-01
3.370000000000000000e+02 5.086239624023437500e+01 -1.383872127532958984e+01 2.237515151500701904e-01 4.245408773422241211e-01 1.944877207279205322e-01 1.100779771804809570e+00
3.380000000000000000e+02 4.898108673095703125e+01 -7.380104064941406250e+00 -1.063986539840698242e+00 2.517687082290649414e-01 -2.436653524637222290e-01 1.887884736061096191e+00
3.390000000000000000e+02 5.080610275268554688e+01 -5.387931823730468750e+00 -9.343275427818298340e-01 5.013173222541809082e-01 -1.299030631780624390e-01 1.132074475288391113e+00
3.400000000000000000e+02 4.808976364135742188e+01 -5.084400177001953125e+00 -4.479741096496582031e+00 -3.344022035598754883e-01 -1.444242954254150391e+00 1.192237615585327148e+00
3.410000000000000000e+02 4.946157455444335938e+01 -5.311633586883544922e+00 -3.410881996154785156e+00 -2.485442757606506348e-01 -1.097827911376953125e+00 8.348776698112487793e-01
3.420000000000000000e+02 5.269535064697265625e+01 -1.481640434265136719e+01 -8.217330574989318848e-01 5.754250660538673401e-02 -2.292571663856506348e-01 2.428504973649978638e-01
3.430000000000000000e+02 5.953312683105468750e+01 -1.380457115173339844e+01 -2.575261592864990234e+00 2.229566127061843872e-02 -7.658898234367370605e-01 -6.170858740806579590e-01
3.440000000000000000e+02 5.988499069213867188e+01 -1.200761032104492188e+01 -3.229971170425415039e+00 5.792375206947326660e-01 -7.952201366424560547e-01 -1.447613090276718140e-01
3.450000000000000000e+02 5.561079025268554688e+01 -1.539655089378356934e+00 1.906061053276062012e+00 2.551964044570922852e+00 1.337407469749450684e+00 2.112357854843139648e+00
3.460000000000000000e+02 5.887656021118164062e+01 3.008657932281494141e+00 1.343995809555053711e+00 3.160341978073120117e+00 1.351301312446594238e+00 1.974336266517639160e+00
3.470000000000000000e+02 5.648032760620117188e+01 -4.256833493709564209e-01 1.684899926185607910e+00 2.844873428344726562e+00 1.358932018280029297e+00 2.048466920852661133e+00
3.480000000000000000e+02 6.074233245849609375e+01 -1.329338645935058594e+01 -2.951989889144897461e+00 -1.684015542268753052e-01 -9.361174106597900391e-01 -1.039517760276794434e+00
3.490000000000000000e+02 6.078046035766601562e+01 -1.141534042358398438e+01 -3.011078596115112305e+00 5.949658751487731934e-01 -7.248337864875793457e-01 3.071790635585784912e-01
3.500000000000000000e+02 6.508079528808593750e+01 -1.208502864837646484e+01 -5.106628417968750000e+00 -4.749849066138267517e-02 -1.546238064765930176e+00 4.262640140950679779e-03
3.510000000000000000e+02 6.310030364990234375e+01 -9.979633331298828125e+00 -2.049713850021362305e+00 -5.502455681562423706e-02 -6.314215064048767090e-01 -9.219463914632797241e-02
3.520000000000000000e+02 7.347593688964843750e+01 -4.636804103851318359e+00 -7.388065457344055176e-01 7.831381320953369141e+00 2.127772569656372070e+00 -9.817341566085815430e-01
3.530000000000000000e+02 7.295113372802734375e+01 3.235812902450561523e+00 1.301397681236267090e-01 6.833090782165527344e+00 2.088968992233276367e+00 -1.132662892341613770e+00
3.540000000000000000e+02 6.796520996093750000e+01 1.141656017303466797e+01 8.674317598342895508e-01 7.352192401885986328e+00 2.465887308120727539e+00 -4.999343156814575195e-01
3.550000000000000000e+02 6.796186065673828125e+01 1.502181720733642578e+01 1.052328348159790039e+00 7.349911689758300781e+00 2.520671844482421875e+00 -2.968233227729797363e-01
3.560000000000000000e+02 7.090367889404296875e+01 3.756538772583007812e+01 -7.429061084985733032e-02 5.941208362579345703e+00 1.760075330734252930e+00 -7.517942227423191071e-03
3.570000000000000000e+02 6.677924346923828125e+01 3.779133605957031250e+01 3.703632857650518417e-03 5.232005119323730469e+00 1.570712566375732422e+00 -1.359385102987289429e-01
3.580000000000000000e+02 5.748923492431640625e+01 4.063401794433593750e+01 4.196673035621643066e-01 3.535254478454589844e+00 1.186476588249206543e+00 -5.717762559652328491e-02
3.590000000000000000e+02 6.244931793212890625e+01 4.091480255126953125e+01 2.155161648988723755e-01 4.410908222198486328e+00 1.387927412986755371e+00 -7.641667127609252930e-02
3.600000000000000000e+02 6.354671096801757812e+01 3.001586532592773438e+01 -2.147567719221115112e-01 5.011418819427490234e+00 1.438998579978942871e+00 -6.741235852241516113e-01
3.610000000000000000e+02 6.163269424438476562e+01 1.996293067932128906e+01 1.977490663528442383e+00 8.284940719604492188e+00 3.078729629516601562e+00 -2.942410945892333984e+00
3.620000000000000000e+02 6.075124740600585938e+01 2.101826667785644531e+01 1.074220061302185059e+00 4.567186355590820312e+00 1.692422032356262207e+00 -2.634083271026611328e+00
3.630000000000000000e+02 6.292161941528320312e+01 1.912795448303222656e+01 1.724518418312072754e+00 9.415897369384765625e+00 3.342124700546264648e+00 -1.735205531120300293e+00
3.640000000000000000e+02 6.249124145507812500e+01 1.645943069458007812e+01 3.873601853847503662e-01 1.165112686157226562e+01 3.611546039581298828e+00 -9.117063879966735840e-01
3.650000000000000000e+02 7.205044555664062500e+01 1.922134590148925781e+01 4.172739088535308838e-01 6.578950881958007812e+00 2.098867416381835938e+00 2.380191236734390259e-01
3.660000000000000000e+02 6.624794006347656250e+01 -1.071726512908935547e+01 -2.876467943191528320e+00 2.372361421585083008e+00 -1.512319296598434448e-01 -2.272706747055053711e+00
3.670000000000000000e+02 6.624117279052734375e+01 -1.209288597106933594e+01 -2.716078758239746094e+00 1.298637390136718750e+00 -4.252324104309082031e-01 -8.166376948356628418e-01
3.680000000000000000e+02 7.053387451171875000e+01 -1.378361415863037109e+01 -1.045958280563354492e+00 1.257807159423828125e+01 3.459634065628051758e+00 -1.942530870437622070e+00
3.690000000000000000e+02 7.116256713867187500e+01 -1.476542663574218750e+01 7.586544752120971680e-01 1.623005676269531250e+01 5.096613407135009766e+00 5.759325027465820312e-01
3.700000000000000000e+02 7.195306396484375000e+01 -1.484969425201416016e+01 2.180132150650024414e+00 1.432864761352539062e+01 4.952633857727050781e+00 1.793632268905639648e+00
3.710000000000000000e+02 7.206497955322265625e+01 -1.643770027160644531e+01 6.792970657348632812e+00 1.336982917785644531e+01 6.048840045928955078e+00 -2.834067642688751221e-01
3.720000000000000000e+02 6.827092742919921875e+01 -1.507076168060302734e+01 1.274524569511413574e+00 1.085402727127075195e+00 7.079781889915466309e-01 -1.743992567062377930e+00
3.730000000000000000e+02 5.992525863647460938e+01 2.253932189941406250e+01 4.034303873777389526e-02 3.252853393554687500e+00 9.879589676856994629e-01 -1.917411684989929199e+00
3.740000000000000000e+02 5.183310699462890625e+01 2.072218894958496094e+01 -1.233127474784851074e+00 9.594268351793289185e-02 -3.411554396152496338e-01 3.930717066396027803e-04
3.750000000000000000e+02 5.468992614746093750e+01 2.143252182006835938e+01 -2.108128547668457031e+00 -1.506779342889785767e-01 -6.776419878005981445e-01 -2.166041880846023560e-01
3.760000000000000000e+02 6.416181945800781250e+01 1.737121391296386719e+01 1.496767640113830566e+00 8.567937850952148438e+00 3.019411802291870117e+00 -8.001689910888671875e-01
3.770000000000000000e+02 6.224952316284179688e+01 1.227898597717285156e+01 2.654731869697570801e-01 1.043984794616699219e+01 3.211596488952636719e+00 6.406663060188293457e-01
3.780000000000000000e+02 6.304933547973632812e+01 2.687257528305053711e+00 6.963289976119995117e-01 5.183664798736572266e+00 1.763998150825500488e+00 5.548076033592224121e-01
3.790000000000000000e+02 6.084283447265625000e+01 3.335100650787353516e+00 9.100222587585449219e-01 4.829975605010986328e+00 1.721999287605285645e+00 1.589364647865295410e+00
3.800000000000000000e+02 5.898546981811523438e+01 -3.509677886962890625e+00 8.975975513458251953e-01 2.098515987396240234e+00 8.988340497016906738e-01 1.034110188484191895e+00
3.810000000000000000e+02 5.974984359741210938e+01 -2.267138004302978516e+00 1.015690445899963379e+00 2.491720438003540039e+00 1.052223324775695801e+00 1.027882456779479980e+00
3.820000000000000000e+02 5.489776611328125000e+01 -4.445035934448242188e+00 1.001237630844116211e+00 1.935897350311279297e+00 8.811404705047607422e-01 1.516301393508911133e+00
3.830000000000000000e+02 5.373947906494140625e+01 -3.620375394821166992e+00 1.801178812980651855e+00 2.145238876342773438e+00 1.183925271034240723e+00 1.956071615219116211e+00
3.840000000000000000e+02 3.944429779052734375e+01 1.600089550018310547e+00 1.171199202537536621e+00 1.562869644165039062e+01 5.039968490600585938e+00 -2.889729976654052734e+00
3.850000000000000000e+02 3.527995300292968750e+01 -1.181409239768981934e+00 1.010715365409851074e+00 1.004358577728271484e+01 3.316290378570556641e+00 -5.565528944134712219e-02
3.860000000000000000e+02 3.531005859375000000e+01 6.379797935485839844e+00 1.103075742721557617e+00 1.486574268341064453e+01 4.790645599365234375e+00 4.140851497650146484e-01
3.870000000000000000e+02 3.292178726196289062e+01 1.170531368255615234e+01 7.502731084823608398e-01 1.178780269622802734e+01 3.761422634124755859e+00 -2.432868719100952148e+00
3.880000000000000000e+02 3.401063537597656250e+01 1.801065063476562500e+01 9.626656770706176758e-01 7.833281993865966797e+00 2.638784408569335938e+00 -1.284180998802185059e+00
3.890000000000000000e+02 3.661437988281250000e+01 2.163138008117675781e+01 -1.113242357969284058e-01 6.087512016296386719e+00 1.792856335639953613e+00 4.199999272823333740e-01
3.900000000000000000e+02 3.526444244384765625e+01 2.914858055114746094e+01 -7.137648463249206543e-01 4.335515499114990234e+00 1.086525201797485352e+00 1.151851862668991089e-01
3.910000000000000000e+02 3.757493972778320312e+01 4.035573577880859375e+01 -4.748332500457763672e-01 3.374725341796875000e+00 8.699675798416137695e-01 7.931874692440032959e-02
3.920000000000000000e+02 3.246660995483398438e+01 4.038940048217773438e+01 -5.153597593307495117e-01 3.093555927276611328e+00 7.734588384628295898e-01 -3.960952907800674438e-02
3.930000000000000000e+02 2.739257240295410156e+01 3.729312896728515625e+01 -3.152072131633758545e-01 2.379429817199707031e+00 6.192668080329895020e-01 -2.714904546737670898e-01
3.940000000000000000e+02 2.891267204284667969e+01 2.827154350280761719e+01 -3.243148326873779297e-01 3.099684000015258789e+00 8.326107263565063477e-01 -9.965899586677551270e-01
3.950000000000000000e+02 2.846353721618652344e+01 2.126109123229980469e+01 2.512269973754882812e+00 3.011349201202392578e+00 1.657085776329040527e+00 -2.301510810852050781e+00
3.960000000000000000e+02 2.584194374084472656e+01 2.201522445678710938e+01 5.584986805915832520e-01 4.234628677368164062e-01 2.945884466171264648e-01 -5.355784893035888672e-01
3.970000000000000000e+02 2.996429634094238281e+01 2.131616401672363281e+01 1.794405817985534668e+00 5.111585140228271484e+00 2.071797370910644531e+00 -2.203840017318725586e+00
3.980000000000000000e+02 3.164520072937011719e+01 2.181361961364746094e+01 4.597944021224975586e-01 5.950449466705322266e+00 1.923073053359985352e+00 -1.262742638587951660e+00
3.990000000000000000e+02 3.079454231262207031e+01 1.853882408142089844e+01 1.847510695457458496e+00 7.862223148345947266e+00 2.912919998168945312e+00 -3.466223478317260742e+00
4.000000000000000000e+02 3.178186988830566406e+01 1.584857463836669922e+01 1.031299829483032227e+00 9.555248260498046875e+00 3.175964355468750000e+00 -3.060521364212036133e+00
4.010000000000000000e+02 3.220745849609375000e+01 1.448032379150390625e+01 1.065912127494812012e+00 1.027855873107910156e+01 3.403341054916381836e+00 -2.946402549743652344e+00
4.020000000000000000e+02 3.349352645874023438e+01 8.904315948486328125e+00 6.063257455825805664e-01 1.343404960632324219e+01 4.212112426757812500e+00 -1.738672494888305664e+00
4.030000000000000000e+02 3.546896362304687500e+01 7.317056059837341309e-01 2.536925792694091797e+00 1.165197944641113281e+01 4.256671905517578125e+00 3.037648200988769531e-01
4.040000000000000000e+02 3.314396667480468750e+01 1.355409026145935059e+00 4.408187389373779297e+00 1.167264366149902344e+01 4.824249267578125000e+00 5.023478507995605469e+00
4.050000000000000000e+02 3.214717102050781250e+01 3.338057100772857666e-01 5.594248294830322266e+00 5.869687557220458984e+00 3.439180612564086914e+00 4.268368244171142578e+00
4.060000000000000000e+02 3.402621078491210938e+01 1.202040386199951172e+01 7.856366038322448730e-01 1.140388965606689453e+01 3.656857967376708984e+00 -1.992391347885131836e+00
4.070000000000000000e+02 4.271959686279296875e+01 1.376747989654541016e+01 2.259690284729003906e+00 3.999990224838256836e+00 1.877904176712036133e+00 2.916096448898315430e+00
4.080000000000000000e+02 4.388991165161132812e+01 1.678293418884277344e+01 1.190771222114562988e+00 3.201747894287109375e+00 1.317755699157714844e+00 1.951520681381225586e+00
4.090000000000000000e+02 4.214008712768554688e+01 2.255776214599609375e+01 -1.319795846939086914e-01 4.317725658416748047e+00 1.255723834037780762e+00 1.539868950843811035e+00
4.100000000000000000e+02 4.097843933105468750e+01 2.995099258422851562e+01 -4.403783977031707764e-01 3.901676177978515625e+00 1.038389325141906738e+00 9.140069484710693359e-01
4.110000000000000000e+02 4.256874847412109375e+01 4.069437789916992188e+01 -1.889477074146270752e-01 3.299264669418334961e+00 9.330950975418090820e-01 1.409229189157485962e-01
4.120000000000000000e+02 4.683498764038085938e+01 1.767662811279296875e+01 9.649122953414916992e-01 1.191731929779052734e+00 6.469932794570922852e-01 1.131478905677795410e+00
4.130000000000000000e+02 4.915536880493164062e+01 1.948103141784667969e+01 -3.872808814048767090e-02 5.590902566909790039e-01 1.561086624860763550e-01 4.718878567218780518e-01
4.140000000000000000e+02 5.290962600708007812e+01 2.279096794128417969e+01 -7.469714283943176270e-01 3.364666998386383057e-01 -1.231514140963554382e-01 4.976002573966979980e-01
4.150000000000000000e+02 4.976142501831054688e+01 2.197046852111816406e+01 -3.198847770690917969e-01 1.105162382125854492e+00 2.355832904577255249e-01 9.697188138961791992e-01
4.160000000000000000e+02 5.610375595092773438e+01 2.155134582519531250e+01 -2.300422191619873047e+00 2.031254768371582031e-01 -6.291890740394592285e-01 -3.484528660774230957e-01
4.170000000000000000e+02 5.736176681518554688e+01 2.166147994995117188e+01 -2.267351150512695312e+00 -2.484631389379501343e-01 -7.547442913055419922e-01 -3.523413836956024170e-01
4.180000000000000000e+02 5.948587417602539062e+01 3.433867645263671875e+01 3.320165574550628662e-01 3.695276021957397461e+00 1.208187818527221680e+00 -4.161387085914611816e-01
4.190000000000000000e+02 5.240342712402343750e+01 4.057378387451171875e+01 4.284587800502777100e-01 3.101165771484375000e+00 1.058887362480163574e+00 5.233054235577583313e-02
4.200000000000000000e+02 4.722099685668945312e+01 3.731801605224609375e+01 1.684217602014541626e-01 3.042047500610351562e+00 9.631407260894775391e-01 3.809640109539031982e-01
4.210000000000000000e+02 4.977916336059570312e+01 3.067856979370117188e+01 3.632967770099639893e-01 2.361376285552978516e+00 8.174018859863281250e-01 7.039186358451843262e-01
4.220000000000000000e+02 5.215972518920898438e+01 3.026922225952148438e+01 5.319800972938537598e-01 2.152165412902832031e+00 8.052436709403991699e-01 4.195972979068756104e-01
4.230000000000000000e+02 3.591677093505859375e+01 -1.313026618957519531e+01 1.109328389167785645e+00 1.015383338928222656e+01 3.378948450088500977e+00 -2.072383642196655273e+00
4.240000000000000000e+02 3.542916107177734375e+01 -1.625904464721679688e+01 5.203244090080261230e-01 1.243031978607177734e+01 3.885193109512329102e+00 -1.771669149398803711e+00
4.250000000000000000e+02 3.568011474609375000e+01 -2.048228263854980469e+01 4.969975948333740234e-01 1.080228996276855469e+01 3.389786481857299805e+00 3.031924664974212646e-01
4.260000000000000000e+02 3.536439895629882812e+01 -2.325676536560058594e+01 1.244867563247680664e+00 8.375795364379882812e+00 2.886198759078979492e+00 2.082315683364868164e+00
4.270000000000000000e+02 3.428025054931640625e+01 -2.533936500549316406e+01 1.610011816024780273e+00 5.195008754730224609e+00 2.041506290435791016e+00 2.323019742965698242e+00
4.280000000000000000e+02 3.639336776733398438e+01 -2.654750823974609375e+01 5.877453684806823730e-01 6.108630657196044922e+00 2.008912801742553711e+00 8.527960181236267090e-01
4.290000000000000000e+02 3.563367462158203125e+01 -2.481659317016601562e+01 1.418633460998535156e+00 6.872526645660400391e+00 2.487348079681396484e+00 1.636716365814208984e+00
4.300000000000000000e+02 1.931418991088867188e+01 -1.156176853179931641e+01 2.523120641708374023e+00 4.278786182403564453e-01 8.852998018264770508e-01 8.932944536209106445e-01
4.310000000000000000e+02 1.841699481010437012e+00 -1.737596893310546875e+01 5.911352857947349548e-02 -1.447421550750732422e+00 -4.164924323558807373e-01 9.240478277206420898e-02
4.320000000000000000e+02 6.470621228218078613e-01 -2.328321456909179688e+01 3.749662311747670174e-03 -1.233854532241821289e+00 -3.690314590930938721e-01 1.107896640896797180e-01
4.330000000000000000e+02 7.276241779327392578e+00 -3.164307785034179688e+01 -2.465556561946868896e-01 5.607964992523193359e-01 9.427226334810256958e-02 3.513567149639129639e-01
4.340000000000000000e+02 1.763323783874511719e+01 -4.100526428222656250e+01 -8.754949271678924561e-02 4.935831725597381592e-01 1.218101009726524353e-01 -5.881818011403083801e-02
4.350000000000000000e+02 2.240481567382812500e+01 -3.827469635009765625e+01 -2.648953720927238464e-02 5.594475269317626953e-01 1.598873883485794067e-01 -2.385605312883853912e-02
4.360000000000000000e+02 2.769796943664550781e+01 -4.108948135375976562e+01 -1.602059900760650635e-01 1.462875366210937500e+00 3.908008337020874023e-01 1.053391620516777039e-01
4.370000000000000000e+02 2.865335464477539062e+01 -3.839759445190429688e+01 -2.229374498128890991e-01 1.614723682403564453e+00 4.175358712673187256e-01 4.022283852100372314e-01
4.380000000000000000e+02 3.758509445190429688e+01 -4.100881958007812500e+01 -1.345943808555603027e+00 4.610958099365234375e+00 9.795043468475341797e-01 1.129829958081245422e-01
4.390000000000000000e+02 4.263997650146484375e+01 -4.103277969360351562e+01 -1.427907824516296387e+00 4.935606956481933594e+00 1.052309632301330566e+00 -6.657478213310241699e-02
4.400000000000000000e+02 4.357500076293945312e+01 -3.823146438598632812e+01 -1.353268027305603027e+00 5.112083911895751953e+00 1.127644658088684082e+00 -2.980739474296569824e-01
4.410000000000000000e+02 4.776318740844726562e+01 -3.888680267333984375e+01 -7.677671313285827637e-01 3.814986228942871094e+00 9.141657352447509766e-01 -7.627095580101013184e-01
4.420000000000000000e+02 5.213659286499023438e+01 -3.353562164306640625e+01 -2.450703233480453491e-01 1.482109785079956055e+00 3.711118400096893311e-01 -1.494771599769592285e+00
4.430000000000000000e+02 6.572009325027465820e-01 -2.470182609558105469e+01 1.141552929766476154e-03 -9.873117208480834961e-01 -2.958510518074035645e-01 1.159351617097854614e-01
4.440000000000000000e+02 7.418251633644104004e-01 -3.035878181457519531e+01 -7.411474827677011490e-03 -1.367379277944564819e-01 -4.324482008814811707e-02 8.562009036540985107e-02
4.450000000000000000e+02 7.754579186439514160e-01 -3.176938056945800781e+01 -4.399167839437723160e-03 1.116196811199188232e-02 2.028840128332376480e-03 7.485309988260269165e-02
4.460000000000000000e+02 9.315766692161560059e-01 -3.737287521362304688e+01 -3.124649170786142349e-03 3.543511331081390381e-01 1.053679436445236206e-01 3.239575028419494629e-02
4.470000000000000000e+02 2.845328330993652344e+00 -3.829604339599609375e+01 -2.615304477512836456e-02 3.847400248050689697e-01 1.075760945677757263e-01 7.438096404075622559e-02
4.480000000000000000e+02 7.792678833007812500e+01 -4.163898849487304688e+01 2.263827472925186157e-01 1.010720539093017578e+01 3.100076436996459961e+00 6.365060061216354370e-02
4.490000000000000000e+02 7.751597595214843750e+01 -3.668112182617187500e+01 -6.357975304126739502e-02 9.999500274658203125e+00 2.980776071548461914e+00 1.266383975744247437e-01
4.500000000000000000e+02 7.823513793945312500e+01 -2.030149269104003906e+01 1.138403862714767456e-01 7.708606243133544922e+00 2.346733808517456055e+00 -8.706576228141784668e-01
4.510000000000000000e+02 7.946597290039062500e+01 -1.237915802001953125e+01 1.548699918203055859e-03 7.254417419433593750e+00 2.176789760589599609e+00 3.292230367660522461e-01
4.520000000000000000e+02 7.831381225585937500e+01 -9.371801376342773438e+00 -1.674504131078720093e-01 8.769886970520019531e+00 2.580730915069580078e+00 5.382137894630432129e-01
4.530000000000000000e+02 7.816564178466796875e+01 -2.570639371871948242e+00 -6.124066188931465149e-02 8.575942039489746094e+00 2.554410457611083984e+00 -3.644452095031738281e-01
4.540000000000000000e+02 7.807006072998046875e+01 4.452426910400390625e+00 2.750522457063198090e-02 7.105506420135498047e+00 2.139903545379638672e+00 -4.739272892475128174e-01
4.550000000000000000e+02 7.803686523437500000e+01 1.147824954986572266e+01 4.537362605333328247e-02 5.988573074340820312e+00 1.810184001922607422e+00 -2.245269119739532471e-01
4.560000000000000000e+02 7.800071716308593750e+01 1.990948104858398438e+01 2.543474733829498291e-02 5.869939327239990234e+00 1.768612265586853027e+00 1.666593849658966064e-01
4.570000000000000000e+02 7.666696166992187500e+01 2.152471542358398438e+01 4.116475582122802734e-02 6.126896381378173828e+00 1.850418329238891602e+00 2.876713573932647705e-01
4.580000000000000000e+02 7.920252990722656250e+01 3.217028045654296875e+01 -3.547903848811984062e-03 6.823513031005859375e+00 2.045989513397216797e+00 4.051869362592697144e-02
4.590000000000000000e+02 7.622583007812500000e+01 3.802709197998046875e+01 -5.715085938572883606e-02 6.572176933288574219e+00 1.954507827758789062e+00 2.593168430030345917e-02
4.600000000000000000e+02 7.915598297119140625e+01 3.746487045288085938e+01 1.448155846446752548e-02 6.949968338012695312e+00 2.089334964752197266e+00 1.655353582464158535e-03
4.610000000000000000e+02 1.746904182434082031e+01 4.041941452026367188e+01 8.250881731510162354e-02 8.319779038429260254e-01 2.743460237979888916e-01 -3.821142762899398804e-02
4.620000000000000000e+02 2.256688690185546875e+01 4.055718994140625000e+01 -6.997983157634735107e-02 1.521034121513366699e+00 4.353162646293640137e-01 -9.433514624834060669e-02
4.630000000000000000e+02 2.351468658447265625e+01 2.843798065185546875e+01 1.663757264614105225e-01 1.185185670852661133e+00 4.054684340953826904e-01 -7.429057955741882324e-01
4.640000000000000000e+02 2.091580963134765625e+01 2.293419075012207031e+01 -6.968231201171875000e-01 -4.760445654392242432e-02 -2.233282774686813354e-01 -1.179284676909446716e-01
4.650000000000000000e+02 2.315249824523925781e+01 2.567164611816406250e+01 2.348565757274627686e-01 6.108078956604003906e-01 2.536993324756622314e-01 -6.787884831428527832e-01
4.660000000000000000e+02 2.453806877136230469e+01 2.242283058166503906e+01 3.972119092941284180e-02 1.535455882549285889e-01 5.798003450036048889e-02 -2.756567597389221191e-01
4.670000000000000000e+02 1.732588005065917969e+01 3.661714935302734375e+01 1.185376420617103577e-01 7.275043129920959473e-01 2.538125813007354736e-01 -1.068444252014160156e-01
4.680000000000000000e+02 1.697319030761718750e+01 3.144910240173339844e+01 1.623864918947219849e-01 4.270181059837341309e-01 1.768213808536529541e-01 -9.330300241708755493e-02
4.690000000000000000e+02 1.755537796020507812e+01 2.339104270935058594e+01 -4.025183618068695068e-01 -4.614870063960552216e-03 -1.221399679780006409e-01 -2.037204243242740631e-02
4.700000000000000000e+02 1.584914684295654297e+01 2.096420669555664062e+01 -4.304128587245941162e-01 -1.228614076972007751e-01 -1.659822911024093628e-01 -1.729170233011245728e-01
4.710000000000000000e+02 1.248269367218017578e+01 4.077006530761718750e+01 1.220199316740036011e-01 3.248074948787689209e-01 1.340482234954833984e-01 8.951255120337009430e-03
4.720000000000000000e+02 7.963752746582031250e+00 4.108375549316406250e+01 6.476297229528427124e-02 -1.795936003327369690e-02 1.404108386486768723e-02 2.335734292864799500e-02
4.730000000000000000e+02 7.028595447540283203e+00 3.200109100341796875e+01 3.350305929780006409e-02 -4.853671416640281677e-02 -4.510096274316310883e-03 1.216122880578041077e-01
4.740000000000000000e+02 1.304989624023437500e+01 1.642256546020507812e+01 -1.522552780807018280e-02 -1.740285381674766541e-02 -9.788514114916324615e-03 -1.646241918206214905e-02
4.750000000000000000e+02 1.317388248443603516e+01 9.245502471923828125e+00 1.023206626996397972e-03 1.701994566246867180e-03 8.175603579729795456e-04 7.739171269349753857e-04
4.760000000000000000e+02 2.261179685592651367e+00 3.731834411621093750e+00 1.552318572066724300e-03 9.693829924799501896e-04 7.565104751847684383e-04 -2.163716126233339310e-03
4.770000000000000000e+02 1.037077903747558594e+01 1.871980428695678711e+00 1.760450657457113266e-03 5.532941431738436222e-04 6.941234460100531578e-04 1.705380782368592918e-05
4.780000000000000000e+02 1.111800098419189453e+01 1.872341156005859375e+00 6.127952365204691887e-04 -8.584677125327289104e-04 -7.370175444521009922e-05 7.750368095003068447e-04
4.790000000000000000e+02 1.188989639282226562e+01 2.593868017196655273e+00 1.330519153270870447e-04 -8.700406178832054138e-04 -2.210966049460694194e-04 1.168615999631583691e-03
4.800000000000000000e+02 1.636512565612792969e+01 3.473361968994140625e+00 -3.425008908379822969e-04 -8.310151752084493637e-04 -3.520548343658447266e-04 4.345820634625852108e-04
4.810000000000000000e+02 2.080589866638183594e+01 3.417692661285400391e+00 3.007479826919734478e-04 4.278641717974096537e-04 2.185836347052827477e-04 -4.237814282532781363e-04
4.820000000000000000e+02 2.184925079345703125e+01 4.009825229644775391e+00 -3.485897832433693111e-05 7.039119955152273178e-04 2.007159055210649967e-04 -1.668902696110308170e-04
4.830000000000000000e+02 1.989674925804138184e+00 4.164686965942382812e+01 -2.257451787590980530e-02 -4.214306473731994629e-01 -1.332015544176101685e-01 -6.493969820439815521e-03
4.840000000000000000e+02 4.214862346649169922e+00 3.786874389648437500e+01 3.783750534057617188e-02 -2.724995315074920654e-01 -7.039860635995864868e-02 6.862586736679077148e-02
4.850000000000000000e+02 2.073514699935913086e+00 3.597355270385742188e+01 2.255243062973022461e-02 -3.591901659965515137e-01 -1.009913161396980286e-01 2.321774698793888092e-02
4.860000000000000000e+02 2.118276357650756836e+00 2.880489730834960938e+01 -6.161311175674200058e-03 -1.888765990734100342e-01 -5.851137265563011169e-02 6.702569127082824707e-02
4.870000000000000000e+02 1.904129028320312500e+00 2.308551597595214844e+01 -1.152502186596393585e-02 -6.195261329412460327e-02 -2.204328961670398712e-02 4.038283601403236389e-02
4.880000000000000000e+02 1.898970007896423340e+00 1.744363403320312500e+01 -8.280772715806961060e-03 -2.447287784889340401e-03 -3.218417987227439880e-03 8.234113454818725586e-03
4.890000000000000000e+02 1.732629776000976562e+00 1.178656387329101562e+01 -3.303864039480686188e-03 4.743150435388088226e-03 4.317858838476240635e-04 -1.113714301027357578e-03
4.900000000000000000e+02 1.707233905792236328e+00 8.949670791625976562e+00 -2.435371046885848045e-03 3.051196457818150520e-03 1.847476232796907425e-04 -1.168206566944718361e-03
4.910000000000000000e+02 1.689026641845703125e+01 2.076346158981323242e+00 -3.917889625881798565e-05 -1.228386885486543179e-03 -3.802697174251079559e-04 1.798246521502733231e-04
4.920000000000000000e+02 1.720433807373046875e+01 8.953718185424804688e+00 1.511473208665847778e-03 2.573088277131319046e-03 1.225368469022214413e-03 7.384659256786108017e-04
4.930000000000000000e+02 1.550745010375976562e+01 1.090703678131103516e+01 1.956014661118388176e-03 7.458029780536890030e-03 2.824213355779647827e-03 2.470468753017485142e-04
4.940000000000000000e+02 1.467099571228027344e+01 1.280861854553222656e+01 -6.725471466779708862e-03 1.090661156922578812e-02 1.254342147149145603e-03 -9.526603389531373978e-04
4.950000000000000000e+02 1.438637065887451172e+01 1.151945877075195312e+01 4.188286606222391129e-03 6.512895692139863968e-03 3.210354596376419067e-03 -5.199317820370197296e-04
4.960000000000000000e+02 1.450304508209228516e+01 1.407438945770263672e+01 8.175053633749485016e-03 1.767086423933506012e-02 7.753775455057621002e-03 7.144603296183049679e-04
4.970000000000000000e+02 1.417656230926513672e+01 1.799719047546386719e+01 -3.650490939617156982e-02 -2.078351378440856934e-02 -1.718652620911598206e-02 -3.327444940805435181e-02
4.980000000000000000e+02 1.482916450500488281e+01 2.006397247314453125e+01 -1.831689625978469849e-01 -6.473375111818313599e-02 -7.437081634998321533e-02 -1.199231445789337158e-01
4.990000000000000000e+02 1.836599922180175781e+01 2.211990356445312500e+01 -7.345349788665771484e-01 -6.221437454223632812e-02 -2.390248030424118042e-01 -1.436203271150588989e-01
5.000000000000000000e+02 1.897719955444335938e+01 2.590721893310546875e+01 -3.327004611492156982e-02 1.341942101716995239e-01 3.027724847197532654e-02 -1.119537428021430969e-01
5.010000000000000000e+02 2.115387535095214844e+01 -1.111894965171813965e+00 -6.806495040655136108e-02 1.965453177690505981e-01 3.854411095380783081e-02 6.019021272659301758e-01
5.020000000000000000e+02 6.821764373779296875e+01 -2.208857536315917969e+01 1.424472928047180176e+00 8.984643936157226562e+00 3.122735023498535156e+00 2.760511636734008789e+00
5.030000000000000000e+02 6.779148864746093750e+01 -2.891628265380859375e+01 -9.646842479705810547e-01 5.030041694641113281e+00 1.219607114791870117e+00 7.958005070686340332e-01
5.040000000000000000e+02 4.636880111694335938e+01 -2.630495643615722656e+01 2.939241886138916016e+00 1.014344120025634766e+01 3.924804925918579102e+00 -4.618497371673583984e+00
5.050000000000000000e+02 4.434536743164062500e+01 -2.417505645751953125e+01 2.197411298751831055e+00 1.058526897430419922e+01 3.834804058074951172e+00 -2.060012578964233398e+00
5.060000000000000000e+02 5.687145233154296875e+01 -1.432399654388427734e+01 -2.419516086578369141e+00 5.536398664116859436e-02 -7.092456221580505371e-01 -9.897387772798538208e-02
5.070000000000000000e+02 5.320875930786132812e+01 -1.217231655120849609e+01 -7.565109729766845703e-01 5.170494914054870605e-01 -7.183843106031417847e-02 1.295245170593261719e+00
5.080000000000000000e+02 3.680579376220703125e+01 -1.736201858520507812e+01 8.502555489540100098e-01 1.058305835723876953e+01 3.429994106292724609e+00 -1.517361521720886230e+00
5.090000000000000000e+02 7.394592285156250000e+01 -5.865667819976806641e+00 -9.034665226936340332e-01 8.218991279602050781e+00 2.194657564163208008e+00 -7.231090068817138672e-01
5.100000000000000000e+02 7.942936706542968750e+01 -5.467063426971435547e+00 -2.413984388113021851e-02 9.399971008300781250e+00 2.812749385833740234e+00 -3.655429929494857788e-02
5.110000000000000000e+02 3.691024780273437500e+01 -1.002596092224121094e+01 -1.775080561637878418e+00 9.070921897888183594e+00 2.188752412796020508e+00 -9.366524815559387207e-01
5.120000000000000000e+02 2.995387649536132812e+01 -8.098610877990722656e+00 -5.888078689575195312e+00 -6.148769855499267578e-01 -1.950886726379394531e+00 1.150789022445678711e+00
5.130000000000000000e+02 3.266316986083984375e+01 -4.791298389434814453e+00 -8.163162469863891602e-01 5.478192329406738281e+00 1.398562788963317871e+00 2.378381602466106415e-02
5.140000000000000000e+02 2.348645210266113281e+01 -5.420483946800231934e-01 5.922525525093078613e-01 -2.335624396800994873e-02 1.706688851118087769e-01 5.002475380897521973e-01
5.150000000000000000e+02 1.199318122863769531e+01 -1.371910858154296875e+01 1.242598533630371094e+00 1.946497201919555664e+00 9.567286968231201172e-01 3.034359812736511230e-01
5.160000000000000000e+02 1.107729053497314453e+01 -1.851078391075134277e+00 -1.169916868209838867e+00 4.316931217908859253e-02 -3.380242586135864258e-01 -2.376491427421569824e-01
5.170000000000000000e+02 1.380459308624267578e+01 -1.231329441070556641e+01 1.315530657768249512e+00 2.277038097381591797e+00 1.077770709991455078e+00 4.794170856475830078e-01
5.180000000000000000e+02 1.316224384307861328e+01 -1.822911262512207031e+01 5.254113674163818359e-01 3.834011316299438477e+00 1.307826757431030273e+00 4.884235858917236328e-01
5.190000000000000000e+02 1.433793735504150391e+01 -1.684284591674804688e+01 6.028780341148376465e-01 5.068882942199707031e+00 1.701528310775756836e+00 8.466206789016723633e-01
5.200000000000000000e+02 7.935954284667968750e+01 2.379870223999023438e+01 -4.476592876017093658e-03 6.074920177459716797e+00 1.821133136749267578e+00 8.259150385856628418e-02
5.210000000000000000e+02 5.915512466430664062e+01 2.435908889770507812e+01 -2.080762982368469238e-01 2.499299049377441406e+00 6.873668432235717773e-01 -1.745574951171875000e+00
5.220000000000000000e+02 7.230767822265625000e+01 2.418803215026855469e+01 -4.038686305284500122e-02 6.499102115631103516e+00 1.937614679336547852e+00 3.758490681648254395e-01
5.230000000000000000e+02 4.409390640258789062e+01 2.087662124633789062e+01 1.096570268273353577e-01 3.454930067062377930e+00 1.069376111030578613e+00 1.628106474876403809e+00
5.240000000000000000e+02 3.502693939208984375e+01 2.126916503906250000e+01 1.048511713743209839e-01 6.330725193023681641e+00 1.930673003196716309e+00 -1.577077507972717285e-01
5.250000000000000000e+02 3.263961410522460938e+01 1.764053535461425781e+01 1.253050565719604492e+00 8.137786865234375000e+00 2.817251205444335938e+00 -2.220752716064453125e+00
5.260000000000000000e+02 7.933299255371093750e+01 1.685956954956054688e+01 2.151058614253997803e-02 5.460938453674316406e+00 1.644734621047973633e+00 1.810047030448913574e-02
5.270000000000000000e+02 4.471604156494140625e+01 1.576753330230712891e+01 1.648687243461608887e+00 2.094754457473754883e+00 1.123032569885253906e+00 1.877446770668029785e+00
5.280000000000000000e+02 6.191334152221679688e+01 9.508300781250000000e+00 6.820198297500610352e-01 9.454017639160156250e+00 3.040811300277709961e+00 1.640294194221496582e+00
5.290000000000000000e+02 6.659239196777343750e+01 1.150199317932128906e+01 8.696081042289733887e-01 7.756841182708740234e+00 2.587934732437133789e+00 -3.443353176116943359e-01
5.300000000000000000e+02 7.935227203369140625e+01 8.469693183898925781e+00 2.137949690222740173e-02 6.198472499847412109e+00 1.865955591201782227e+00 -1.300920397043228149e-01
5.310000000000000000e+02 6.158108139038085938e+01 8.099669456481933594e+00 5.987275242805480957e-01 8.098164558410644531e+00 2.609067440032958984e+00 1.972900152206420898e+00
5.320000000000000000e+02 7.297077178955078125e+01 4.029913544654846191e-01 -8.581464737653732300e-02 6.994791507720947266e+00 2.072693109512329102e+00 -1.212786912918090820e+00
5.330000000000000000e+02 7.935597229003906250e+01 2.876291990280151367e+00 6.894859950989484787e-03 7.565987586975097656e+00 2.271864652633666992e+00 -1.813459843397140503e-01
5.340000000000000000e+02 3.205155181884765625e+01 -2.973106622695922852e+00 1.159421324729919434e+00 5.232533931732177734e+00 1.917586565017700195e+00 1.165705680847167969e+00
5.350000000000000000e+02 3.828181838989257812e+01 3.005435466766357422e+00 1.515175104141235352e+00 1.473235607147216797e+01 4.874259471893310547e+00 -1.106781125068664551e+00
5.360000000000000000e+02 3.727182388305664062e+01 7.173556804656982422e+00 1.446770548820495605e+00 1.444625473022460938e+01 4.767907619476318359e+00 1.059177160263061523e+00
5.370000000000000000e+02 8.689933776855468750e+00 -3.105874252319335938e+01 -3.055648803710937500e-01 7.091204524040222168e-01 1.210666596889495850e-01 3.666679859161376953e-01
5.380000000000000000e+02 1.765126991271972656e+01 -2.911852264404296875e+01 -5.651981830596923828e-01 7.363243103027343750e-01 5.133784189820289612e-02 -1.650646775960922241e-01
5.390000000000000000e+02 1.905110359191894531e+01 -3.195697212219238281e+01 -5.349710583686828613e-01 5.364093184471130371e-01 4.314732796046882868e-04 -2.479354292154312134e-01
5.400000000000000000e+02 2.317937278747558594e+01 -3.029208564758300781e+01 -1.200220346450805664e+00 -8.582935482263565063e-02 -3.858149051666259766e-01 5.025592073798179626e-02
5.410000000000000000e+02 3.580988311767578125e+01 -2.855708694458007812e+01 8.758667111396789551e-02 5.299485206604003906e+00 1.616121530532836914e+00 1.096765518188476562e+00
5.420000000000000000e+02 4.463595962524414062e+01 -2.941971588134765625e+01 3.251155614852905273e-01 7.434084892272949219e+00 2.327759981155395508e+00 -1.236498355865478516e+00
5.430000000000000000e+02 1.260866546630859375e+01 -2.292792892456054688e+01 5.247592180967330933e-02 2.038982868194580078e+00 6.274376511573791504e-01 3.249722123146057129e-01
5.440000000000000000e+02 2.070690345764160156e+01 -3.062512207031250000e+01 -7.104460000991821289e-01 3.446689844131469727e-01 -1.097331121563911438e-01 -2.280703037977218628e-01
5.450000000000000000e+02 1.297939872741699219e+01 -1.951933479309082031e+01 5.528017878532409668e-01 3.183017015457153320e+00 1.120745658874511719e+00 1.095495074987411499e-01
5.460000000000000000e+02 7.931555175781250000e+01 2.934421539306640625e+01 -4.044699016958475113e-03 6.651507854461669922e+00 1.994238972663879395e+00 5.572368204593658447e-02
5.470000000000000000e+02 6.528057861328125000e+01 3.077016639709472656e+01 -2.814491689205169678e-01 5.415874958038330078e+00 1.540327787399291992e+00 -4.480804800987243652e-01
5.480000000000000000e+02 7.316011810302734375e+01 2.808746910095214844e+01 -1.655922532081604004e-01 6.396064281463623047e+00 1.869141697883605957e+00 2.752898335456848145e-01
5.490000000000000000e+02 4.340290832519531250e+01 3.369559097290039062e+01 -1.739285290241241455e-01 3.318438291549682617e+00 9.433529376983642578e-01 7.143684625625610352e-01
5.500000000000000000e+02 3.027716445922851562e+01 3.003065490722656250e+01 -5.046486258506774902e-01 3.418030500411987305e+00 8.740145564079284668e-01 -6.826889514923095703e-01
5.510000000000000000e+02 1.454866981506347656e+01 2.540307426452636719e+01 -1.286352127790451050e-01 9.892693907022476196e-02 -8.912483230233192444e-03 1.281079351902008057e-01
5.520000000000000000e+02 1.191671085357666016e+01 1.608705902099609375e+01 -1.957460120320320129e-02 -3.410590812563896179e-03 -6.895557977259159088e-03 -1.501599326729774475e-02
5.530000000000000000e+02 2.128981018066406250e+01 3.004569053649902344e+01 1.605392247438430786e-01 8.492838740348815918e-01 3.029469251632690430e-01 -4.233473837375640869e-01
5.540000000000000000e+02 1.848515319824218750e+01 3.105985450744628906e+01 1.732762902975082397e-01 5.092751383781433105e-01 2.047654390335083008e-01 -1.780100315809249878e-01
5.550000000000000000e+02 2.368699312210083008e+00 3.174757194519042969e+01 8.505941950716078281e-04 -2.561813294887542725e-01 -7.659921795129776001e-02 7.028067111968994141e-02
5.560000000000000000e+02 1.299249744415283203e+01 1.175997829437255859e+01 -5.062176380306482315e-03 2.215024083852767944e-03 -8.541457355022430420e-04 3.162393579259514809e-03
5.570000000000000000e+02 1.828239321708679199e+00 1.600107192993164062e+01 1.485288841649889946e-03 2.367350738495588303e-03 1.155791920609772205e-03 2.139936434105038643e-03
5.580000000000000000e+02 7.165724182128906250e+01 -1.822530937194824219e+01 1.030298948287963867e+00 1.551630401611328125e+01 4.963980674743652344e+00 -1.047757267951965332e+00
5.590000000000000000e+02 7.032424163818359375e+01 -1.847062492370605469e+01 -6.626589298248291016e-01 1.431160545349121094e+01 4.094684123992919922e+00 3.078510761260986328e+00
5.600000000000000000e+02 6.835415649414062500e+01 -2.465085411071777344e+01 -2.649956047534942627e-01 6.704552650451660156e+00 1.931867003440856934e+00 1.166201114654541016e+00
5.610000000000000000e+02 6.647733306884765625e+01 -2.447083854675292969e+01 7.552435398101806641e-01 2.841624021530151367e+00 1.079060316085815430e+00 1.574452757835388184e+00
5.620000000000000000e+02 6.343642044067382812e+01 -2.747780799865722656e+01 -9.610468149185180664e-01 7.658261805772781372e-02 -2.653392553329467773e-01 -3.850933015346527100e-01
5.630000000000000000e+02 6.304199981689453125e+01 -2.946271514892578125e+01 -1.299422264099121094e+00 7.279878258705139160e-01 -1.714303344488143921e-01 1.573765277862548828e-01
5.640000000000000000e+02 5.837454605102539062e+01 -3.005638122558593750e+01 -2.894372940063476562e+00 -2.956200838088989258e-01 -9.569979310035705566e-01 -7.874209284782409668e-01
5.650000000000000000e+02 5.287469863891601562e+01 -3.094541931152343750e+01 -8.973511457443237305e-01 3.133775591850280762e-01 -1.751920878887176514e-01 -6.131742596626281738e-01
5.660000000000000000e+02 4.717478561401367188e+01 -2.752576255798339844e+01 3.279674530029296875e+00 7.053804874420166016e+00 3.100043773651123047e+00 -4.244304656982421875e+00
5.670000000000000000e+02 4.515735244750976562e+01 -2.094002914428710938e+01 4.124895930290222168e-01 1.167495536804199219e+01 3.626233339309692383e+00 -6.855572015047073364e-02
5.680000000000000000e+02 4.451223754882812500e+01 -1.992594718933105469e+01 1.327468395233154297e+00 1.086263847351074219e+01 3.657032012939453125e+00 3.977611660957336426e-01
5.690000000000000000e+02 5.409570312500000000e+01 -1.465285396575927734e+01 -1.478575468063354492e+00 7.504282146692276001e-02 -4.210598170757293701e-01 1.291543841361999512e-01
5.700000000000000000e+02 5.548709487915039062e+01 -1.449102210998535156e+01 -2.041449069976806641e+00 4.496088624000549316e-02 -5.989464521408081055e-01 2.199897728860378265e-02
5.710000000000000000e+02 5.823307418823242188e+01 -1.413162422180175781e+01 -2.468122720718383789e+00 8.643418550491333008e-02 -7.145065665245056152e-01 -3.095248937606811523e-01
5.720000000000000000e+02 6.262645721435546875e+01 -1.147717952728271484e+01 -4.368001461029052734e+00 -5.191372036933898926e-01 -1.466141581535339355e+00 -5.802616477012634277e-01
5.730000000000000000e+02 6.993484497070312500e+01 -1.469683647155761719e+01 5.005092024803161621e-01 1.146403789520263672e+01 3.589364290237426758e+00 -4.299248695373535156e+00
5.740000000000000000e+02 6.948236083984375000e+01 -1.481547355651855469e+01 1.770598292350769043e+00 8.276775360107421875e+00 3.014212131500244141e+00 -4.873095035552978516e+00
5.750000000000000000e+02 6.969718933105468750e+01 -1.478716182708740234e+01 1.303602576255798340e+00 9.335511207580566406e+00 3.191734075546264648e+00 -4.785607814788818359e+00
5.760000000000000000e+02 6.908860015869140625e+01 -1.491114044189453125e+01 2.072871685028076172e+00 5.044476032257080078e+00 2.135204315185546875e+00 -3.892287015914916992e+00
5.770000000000000000e+02 6.927803802490234375e+01 -1.488300132751464844e+01 1.962881922721862793e+00 6.599214076995849609e+00 2.568628787994384766e+00 -4.303521156311035156e+00
5.780000000000000000e+02 6.864677429199218750e+01 -1.490348148345947266e+01 1.921868801116943359e+00 2.837838411331176758e+00 1.427912116050720215e+00 -2.770573377609252930e+00
5.790000000000000000e+02 6.915374755859375000e+01 -1.881697654724121094e+01 5.262818932533264160e-01 7.404850959777832031e+00 2.379339933395385742e+00 3.080851793289184570e+00
5.800000000000000000e+02 6.904646301269531250e+01 -1.828972625732421875e+01 4.623437821865081787e-01 6.207144260406494141e+00 2.000846385955810547e+00 3.124969244003295898e+00
5.810000000000000000e+02 6.978674316406250000e+01 -1.815102005004882812e+01 2.205360680818557739e-01 1.095498752593994141e+01 3.352657079696655273e+00 4.331188201904296875e+00
5.820000000000000000e+02 6.942092895507812500e+01 -1.822257804870605469e+01 4.743788242340087891e-01 8.217699050903320312e+00 2.607623338699340820e+00 4.242550373077392578e+00
5.830000000000000000e+02 6.246361541748046875e+01 1.505772495269775391e+01 2.646794021129608154e-01 1.105064582824707031e+01 3.394597530364990234e+00 -2.835853993892669678e-01
5.840000000000000000e+02 6.240175628662109375e+01 1.364963340759277344e+01 1.739419400691986084e-01 1.088391590118408203e+01 3.317357301712036133e+00 2.091022729873657227e-01
5.850000000000000000e+02 6.335228729248046875e+01 1.193557453155517578e+01 4.402192234992980957e-01 9.586185455322265625e+00 3.007921457290649414e+00 3.783197104930877686e-01
5.860000000000000000e+02 6.112373352050781250e+01 6.698900222778320312e+00 1.078390359878540039e+00 7.214502334594726562e+00 2.487867832183837891e+00 2.195352315902709961e+00
5.870000000000000000e+02 5.803725433349609375e+01 1.893671154975891113e+00 1.205347776412963867e+00 2.682901144027709961e+00 1.166474699974060059e+00 1.806965351104736328e+00
5.880000000000000000e+02 5.726339721679687500e+01 7.384687066078186035e-01 1.295852661132812500e+00 2.760164737701416016e+00 1.216805219650268555e+00 1.860695838928222656e+00
5.890000000000000000e+02 5.468163299560546875e+01 -2.598285198211669922e+00 1.854958415031433105e+00 2.262796878814697266e+00 1.235326647758483887e+00 2.035008192062377930e+00
5.900000000000000000e+02 5.278749084472656250e+01 -4.562174320220947266e+00 1.449948906898498535e+00 1.858886241912841797e+00 9.926505088806152344e-01 1.701729774475097656e+00
5.910000000000000000e+02 4.409732055664062500e+01 -4.109951019287109375e+00 -3.083101511001586914e+00 2.667807936668395996e-01 -8.448961973190307617e-01 2.811249792575836182e-01
5.920000000000000000e+02 4.147676086425781250e+01 -3.771428823471069336e+00 -6.135103106498718262e-01 5.781202316284179688e+00 1.550307631492614746e+00 -2.531228065490722656e+00
5.930000000000000000e+02 3.977901077270507812e+01 2.057711929082870483e-01 1.823862791061401367e+00 1.438256359100341797e+01 4.861927986145019531e+00 -4.150520324707031250e+00
5.940000000000000000e+02 3.927479934692382812e+01 3.014969825744628906e+00 7.059896588325500488e-01 1.604690551757812500e+01 5.025868892669677734e+00 -1.183429837226867676e+00
5.950000000000000000e+02 3.321799468994140625e+01 1.030439472198486328e+01 4.596928060054779053e-01 1.226173782348632812e+01 3.816429138183593750e+00 -2.183964014053344727e+00
5.960000000000000000e+02 3.943649673461914062e+01 8.504449844360351562e+00 1.757537603378295898e+00 1.601547431945800781e+01 5.331903457641601562e+00 3.631789922714233398e+00
5.970000000000000000e+02 3.908885574340820312e+01 9.799776077270507812e+00 1.975223064422607422e+00 1.330248832702636719e+01 4.583313465118408203e+00 2.894096374511718750e+00
5.980000000000000000e+02 4.093873214721679688e+01 1.163493537902832031e+01 2.476724147796630859e+00 7.700171470642089844e+00 3.053068637847900391e+00 4.071322441101074219e+00
5.990000000000000000e+02 4.179729461669921875e+01 1.271389865875244141e+01 2.492277622222900391e+00 5.710968971252441406e+00 2.460973978042602539e+00 3.460428953170776367e+00
6.000000000000000000e+02 4.369445800781250000e+01 1.478762340545654297e+01 2.051455974578857422e+00 2.985627174377441406e+00 1.511124968528747559e+00 2.331331729888916016e+00
6.010000000000000000e+02 4.795999908447265625e+01 1.860212326049804688e+01 5.206621289253234863e-01 8.905670642852783203e-01 4.233687520027160645e-01 7.710402607917785645e-01
6.020000000000000000e+02 5.045381164550781250e+01 2.021187973022460938e+01 -6.641262173652648926e-01 3.265979588031768799e-01 -1.012584865093231201e-01 1.825707703828811646e-01
6.030000000000000000e+02 5.323687744140625000e+01 2.107487487792968750e+01 -1.645669698715209961e+00 1.119741424918174744e-01 -4.601086974143981934e-01 -2.111183106899261475e-01
6.040000000000000000e+02 5.859572601318359375e+01 2.189748954772949219e+01 -5.946792960166931152e-01 9.218247532844543457e-01 9.814364463090896606e-02 -1.198081970214843750e+00
6.050000000000000000e+02 3.482616806030273438e+01 -1.348917102813720703e+01 1.240806341171264648e+00 1.188495826721191406e+01 3.937729597091674805e+00 -3.332523345947265625e+00
6.060000000000000000e+02 3.566703796386718750e+01 -1.906697845458984375e+01 2.171690911054611206e-01 1.104312419891357422e+01 3.378087997436523438e+00 -4.909733533859252930e-01
6.070000000000000000e+02 3.226970291137695312e+01 -2.709974861145019531e+01 1.062318921089172363e+00 2.123344421386718750e+00 9.556990265846252441e-01 1.429581999778747559e+00
6.080000000000000000e+02 3.122285270690917969e+01 -2.802083587646484375e+01 6.899222135543823242e-01 1.372218489646911621e+00 6.186422109603881836e-01 1.046303272247314453e+00
6.090000000000000000e+02 2.730002593994140625e+01 -2.978277206420898438e+01 -1.415822267532348633e+00 2.152904681861400604e-02 -4.182879626750946045e-01 3.654322028160095215e-02
6.100000000000000000e+02 2.015472602844238281e+01 -2.742275619506835938e+01 -3.066090941429138184e-01 8.275587856769561768e-02 -6.715596467256546021e-02 5.096381530165672302e-02
6.110000000000000000e+02 1.914767646789550781e+01 -2.646421051025390625e+01 -6.908689439296722412e-02 2.466481328010559082e-01 5.326837301254272461e-02 -8.674015104770660400e-02
6.120000000000000000e+02 1.629602813720703125e+01 -2.339802169799804688e+01 3.941220045089721680e-01 1.128253459930419922e+00 4.567126631736755371e-01 -6.650934219360351562e-01
6.130000000000000000e+02 2.067794609069824219e+01 -1.130738449096679688e+01 1.635959744453430176e+00 1.461055427789688110e-01 5.346196293830871582e-01 5.957014560699462891e-01
6.140000000000000000e+02 2.199095153808593750e+01 -1.098060512542724609e+01 1.174502849578857422e+00 1.827105879783630371e-01 4.071640372276306152e-01 5.149697661399841309e-01
6.150000000000000000e+02 2.454093933105468750e+01 -9.899079322814941406e+00 3.200618028640747070e-01 2.877129018306732178e-01 1.823324114084243774e-01 4.066153466701507568e-01
6.160000000000000000e+02 8.143591880798339844e+00 -1.865748405456542969e+00 -8.399860262870788574e-01 9.732359088957309723e-03 -2.490760982036590576e-01 -3.437203764915466309e-01
6.170000000000000000e+02 6.727447986602783203e+00 -1.854977488517761230e+00 -6.456861495971679688e-01 -1.116546802222728729e-02 -1.970554739236831665e-01 -3.473781347274780273e-01
6.180000000000000000e+02 4.620562076568603516e+00 -1.875776410102844238e+00 -3.628236949443817139e-01 -4.576611518859863281e-02 -1.225769370794296265e-01 -2.972399294376373291e-01
6.190000000000000000e+02 2.496870517730712891e+00 -1.957670688629150391e+00 -1.413252800703048706e-01 -8.169794082641601562e-02 -6.690696626901626587e-02 -1.792158186435699463e-01
6.200000000000000000e+02 2.501562833786010742e+00 -2.887402296066284180e+00 -1.258625090122222900e-01 -1.525285989046096802e-01 -8.351733535528182983e-02 -2.438507825136184692e-01
6.210000000000000000e+02 1.787261605262756348e+00 -1.991138935089111328e+00 -8.420894294977188110e-02 -9.982332587242126465e-02 -5.520968139171600342e-02 -1.320010125637054443e-01
6.220000000000000000e+02 1.074959278106689453e+00 -2.067454338073730469e+00 -3.056533262133598328e-02 -9.859305620193481445e-02 -3.874751552939414978e-02 -7.094705104827880859e-02
6.230000000000000000e+02 3.594952821731567383e-01 -2.164909601211547852e+00 -6.189547944813966751e-03 -5.001839250326156616e-02 -1.686238124966621399e-02 -1.985092833638191223e-02
6.240000000000000000e+02 2.017675399780273438e+00 -4.166605758666992188e+01 -2.210692688822746277e-02 4.327543079853057861e-01 1.231942176818847656e-01 6.334363948553800583e-03
6.250000000000000000e+02 1.034806489944458008e+00 -3.875842285156250000e+01 -6.566714495420455933e-03 3.949028849601745605e-01 1.165008470416069031e-01 2.479856461286544800e-02
6.260000000000000000e+02 8.462219834327697754e-01 -3.458261108398437500e+01 -4.886806476861238480e-03 2.261101901531219482e-01 6.636701524257659912e-02 5.088654160499572754e-02
6.270000000000000000e+02 8.106828927993774414e-01 -3.317764663696289062e+01 -9.047970175743103027e-03 1.313889473676681519e-01 3.670229017734527588e-02 6.233380734920501709e-02
6.280000000000000000e+02 7.128316760063171387e-01 -2.894742584228515625e+01 -4.272740334272384644e-03 -3.128803372383117676e-01 -9.514591842889785767e-02 9.729032963514328003e-02
6.290000000000000000e+02 6.901230812072753906e-01 -2.753526115417480469e+01 -4.345471970736980438e-03 -5.168676376342773438e-01 -1.563639342784881592e-01 1.062366887927055359e-01
6.300000000000000000e+02 6.719303727149963379e-01 -2.612036895751953125e+01 -2.584923757240176201e-03 -7.436929941177368164e-01 -2.238833904266357422e-01 1.134668216109275818e-01
6.310000000000000000e+02 6.408727169036865234e-01 -2.186939430236816406e+01 6.673360709100961685e-03 -1.466677427291870117e+00 -4.380012154579162598e-01 1.001482456922531128e-01
6.320000000000000000e+02 6.349397301673889160e-01 -2.045832633972167969e+01 7.421889342367649078e-03 -1.672144651412963867e+00 -4.994168281555175781e-01 8.429767191410064697e-02
6.330000000000000000e+02 1.900457024574279785e+00 -2.020300865173339844e+01 3.835469484329223633e-02 -1.225131869316101074e+00 -3.560331463813781738e-01 2.221674770116806030e-01
6.340000000000000000e+02 6.043558120727539062e-01 -1.622017478942871094e+01 1.368559524416923523e-02 -2.015342950820922852e+00 -6.004971861839294434e-01 1.037487946450710297e-02
6.350000000000000000e+02 5.904103517532348633e-01 -1.480981159210205078e+01 1.218501664698123932e-02 -2.003246545791625977e+00 -5.973184704780578613e-01 -2.082170546054840088e-02
6.360000000000000000e+02 5.760321021080017090e-01 -1.340133476257324219e+01 9.524465538561344147e-03 -1.919169425964355469e+00 -5.728935003280639648e-01 -4.720423743128776550e-02
6.370000000000000000e+02 1.724629759788513184e+00 -1.316397953033447266e+01 5.217831581830978394e-02 -1.443112730979919434e+00 -4.172803163528442383e-01 -1.484282761812210083e-01
6.380000000000000000e+02 5.301945805549621582e-01 -9.185729026794433594e+00 4.717102274298667908e-03 -1.307616591453552246e+00 -3.908698558807373047e-01 -9.971478581428527832e-02
6.390000000000000000e+02 5.131121873855590820e-01 -7.786766529083251953e+00 -1.902743475511670113e-03 -1.025829315185546875e+00 -3.083196282386779785e-01 -1.036586984992027283e-01
6.400000000000000000e+02 1.553741335868835449e+00 -7.629214286804199219e+00 5.365318618714809418e-03 -8.241541385650634766e-01 -2.456366419792175293e-01 -2.954317927360534668e-01
6.410000000000000000e+02 7.474306488037109375e+01 -4.024143981933593750e+01 1.669027507305145264e-01 8.498461723327636719e+00 2.599609136581420898e+00 -4.211236163973808289e-02
6.420000000000000000e+02 5.196900177001953125e+01 -3.884555435180664062e+01 1.545580923557281494e-01 2.042749166488647461e+00 6.591922044754028320e-01 -7.626241445541381836e-01
6.430000000000000000e+02 3.263308715820312500e+01 -4.122693634033203125e+01 -7.479141950607299805e-01 3.108963012695312500e+00 7.083145976066589355e-01 1.966142505407333374e-01
6.440000000000000000e+02 1.271916961669921875e+01 -4.106520080566406250e+01 -1.777855455875396729e-01 5.482027530670166016e-01 1.111251562833786011e-01 -3.287906059995293617e-03
6.450000000000000000e+02 7.859617614746093750e+01 4.025070571899414062e+01 -3.311652317643165588e-02 6.879819869995117188e+00 2.054011106491088867e+00 -5.867912992835044861e-02
6.460000000000000000e+02 7.805195617675781250e+01 4.173933410644531250e+01 8.267712593078613281e-02 6.839441776275634766e+00 2.076635599136352539e+00 -2.311282046139240265e-02
6.470000000000000000e+02 7.877584838867187500e+01 3.879259872436523438e+01 -3.549569100141525269e-02 6.926704406738281250e+00 2.067362546920776367e+00 -2.487530559301376343e-02
6.480000000000000000e+02 7.775913238525390625e+01 3.665191268920898438e+01 -1.212724298238754272e-02 6.736273288726806641e+00 2.017243862152099609e+00 4.227165132761001587e-02
6.490000000000000000e+02 7.917938232421875000e+01 3.494264602661132812e+01 -9.888217784464359283e-03 6.929829120635986328e+00 2.075982332229614258e+00 2.423839084804058075e-02
6.500000000000000000e+02 7.746767425537109375e+01 3.378651428222656250e+01 -2.477724477648735046e-02 6.672835350036621094e+00 1.994417428970336914e+00 7.545366138219833374e-02
6.510000000000000000e+02 7.917709350585937500e+01 3.356553649902343750e+01 -3.334381151944398880e-03 6.882600307464599609e+00 2.063779830932617188e+00 3.453750535845756531e-02
6.520000000000000000e+02 7.926807403564453125e+01 3.075360107421875000e+01 -4.042895976454019547e-03 6.748223781585693359e+00 2.023254156112670898e+00 4.742942750453948975e-02
6.530000000000000000e+02 7.670288848876953125e+01 2.818564605712890625e+01 -5.328574404120445251e-02 6.467292308807373047e+00 1.924201965332031250e+00 2.352856546640396118e-01
6.540000000000000000e+02 7.935649108886718750e+01 2.656660652160644531e+01 -6.103812716901302338e-03 6.397503852844238281e+00 1.917420029640197754e+00 7.207357138395309448e-02
6.550000000000000000e+02 7.672277069091796875e+01 2.421736145019531250e+01 -1.785372570157051086e-02 6.266486644744873047e+00 1.874589800834655762e+00 3.093588650226593018e-01
6.560000000000000000e+02 7.936089324951171875e+01 2.518165969848632812e+01 4.945502150803804398e-04 6.242503643035888672e+00 1.872899532318115234e+00 7.711745053529739380e-02
6.570000000000000000e+02 7.934745788574218750e+01 2.103006172180175781e+01 -1.891971216537058353e-03 5.752798557281494141e+00 1.725271940231323242e+00 7.421177625656127930e-02
6.580000000000000000e+02 7.933991241455078125e+01 1.964283180236816406e+01 1.413566619157791138e-02 5.621069431304931641e+00 1.690561532974243164e+00 5.787092074751853943e-02
6.590000000000000000e+02 7.933447265625000000e+01 1.825414276123046875e+01 4.084984248038381338e-04 5.519018173217773438e+00 1.655827999114990234e+00 4.561274871230125427e-02
6.600000000000000000e+02 7.934011077880859375e+01 1.406335830688476562e+01 2.585698291659355164e-02 5.492455005645751953e+00 1.655493617057800293e+00 -3.434973582625389099e-02
6.610000000000000000e+02 7.934288787841796875e+01 1.266239547729492188e+01 -1.274528913199901581e-03 5.590238094329833984e+00 1.676689147949218750e+00 -5.525414645671844482e-02
6.620000000000000000e+02 7.934572601318359375e+01 1.126373577117919922e+01 2.557800896465778351e-02 5.742723464965820312e+00 1.730490446090698242e+00 -8.591184765100479126e-02
6.630000000000000000e+02 7.935581207275390625e+01 7.072386264801025391e+00 -1.920879352837800980e-03 6.494519710540771484e+00 1.947779536247253418e+00 -1.472833007574081421e-01
6.640000000000000000e+02 7.935768127441406250e+01 5.674519062042236328e+00 1.485312543809413910e-02 6.826076507568359375e+00 2.052278995513916016e+00 -1.635902374982833862e-01
6.650000000000000000e+02 7.935755157470703125e+01 4.277192592620849609e+00 -1.905199838802218437e-03 7.187633991241455078e+00 2.155718564987182617e+00 -1.751476824283599854e-01
6.660000000000000000e+02 7.936217498779296875e+01 8.330082893371582031e-02 -3.240993013605475426e-03 8.329120635986328125e+00 2.497763872146606445e+00 -1.733803749084472656e-01
6.670000000000000000e+02 7.937216949462890625e+01 -1.311342239379882812e+00 -9.756091050803661346e-03 8.685534477233886719e+00 2.602733612060546875e+00 -1.584199965000152588e-01
6.680000000000000000e+02 7.823106384277343750e+01 -3.933306217193603516e+00 -8.263690024614334106e-02 8.806253433227539062e+00 2.617084980010986328e+00 -2.607930898666381836e-01
6.690000000000000000e+02 7.941035461425781250e+01 -4.085256576538085938e+00 -1.959047839045524597e-02 9.252609252929687500e+00 2.769905805587768555e+00 -9.059732407331466675e-02
6.700000000000000000e+02 7.943907165527343750e+01 -8.234464645385742188e+00 -3.690730035305023193e-02 9.163574218750000000e+00 2.738000154495239258e+00 1.329150348901748657e-01
6.710000000000000000e+02 7.835060882568359375e+01 -1.072602081298828125e+01 -1.407608091831207275e-01 8.447690010070800781e+00 2.492078781127929688e+00 7.278630137443542480e-01
6.720000000000000000e+02 7.945233154296875000e+01 -1.099931049346923828e+01 -3.093182295560836792e-02 8.065151214599609375e+00 2.410265684127807617e+00 3.005221188068389893e-01
6.730000000000000000e+02 7.945470428466796875e+01 -1.515549373626708984e+01 6.780632585287094116e-02 5.827931880950927734e+00 1.768721461296081543e+00 1.847276538610458374e-01
6.740000000000000000e+02 7.718630218505859375e+01 -1.578391933441162109e+01 7.591990232467651367e-01 7.876119613647460938e+00 2.590595483779907227e+00 4.324450790882110596e-01
6.750000000000000000e+02 7.942120361328125000e+01 -1.793426895141601562e+01 7.247915118932723999e-02 5.780160427093505859e+00 1.755791902542114258e+00 -1.408765166997909546e-01
6.760000000000000000e+02 7.939109802246093750e+01 -2.347374916076660156e+01 -1.663473062217235565e-02 8.587676048278808594e+00 2.571312427520751953e+00 -3.443735837936401367e-01
6.770000000000000000e+02 7.811015319824218750e+01 -2.439535522460937500e+01 -9.920495003461837769e-02 9.091366767883300781e+00 2.697648763656616211e+00 -7.992889881134033203e-01
6.780000000000000000e+02 7.937271881103515625e+01 -2.485866546630859375e+01 -1.201160624623298645e-02 9.260732650756835938e+00 2.774616241455078125e+00 -3.116149604320526123e-01
6.790000000000000000e+02 7.933665466308593750e+01 -2.905854034423828125e+01 -3.328538313508033752e-02 1.056561660766601562e+01 3.159699440002441406e+00 -1.553600877523422241e-01
6.800000000000000000e+02 7.801263427734375000e+01 -3.145810317993164062e+01 -7.390406727790832520e-02 1.019416236877441406e+01 3.036077737808227539e+00 -1.481025815010070801e-01
6.810000000000000000e+02 7.933524322509765625e+01 -3.185032463073730469e+01 -2.697676792740821838e-02 1.089542007446289062e+01 3.260533094406127930e+00 -5.729551613330841064e-02
6.820000000000000000e+02 7.922589111328125000e+01 -3.597156143188476562e+01 5.160987377166748047e-03 1.080918884277343750e+01 3.244304895401000977e+00 4.172995314002037048e-02
6.830000000000000000e+02 7.912182617187500000e+01 -3.732525253295898438e+01 -6.743493676185607910e-02 1.062829875946044922e+01 3.168259143829345703e+00 1.197226643562316895e-01
6.840000000000000000e+02 7.892914581298828125e+01 -3.867726516723632812e+01 3.150704316794872284e-03 1.041315364837646484e+01 3.124891281127929688e+00 1.436107158660888672e-01
6.850000000000000000e+02 7.857819366455078125e+01 -4.006636047363281250e+01 -5.618116259574890137e-02 1.019697380065917969e+01 3.042237758636474609e+00 1.919382363557815552e-01
6.860000000000000000e+02 2.748933029174804688e+01 4.071405029296875000e+01 -3.378071784973144531e-01 2.395812511444091797e+00 6.174015402793884277e-01 -9.232220053672790527e-02
6.870000000000000000e+02 4.743213272094726562e+01 4.076775360107421875e+01 1.889390796422958374e-01 3.049650907516479492e+00 9.715769886970520020e-01 1.189106404781341553e-01
6.880000000000000000e+02 6.725208282470703125e+01 4.094412994384765625e+01 3.219627588987350464e-02 5.260452747344970703e+00 1.587794661521911621e+00 -3.879598528146743774e-02
6.890000000000000000e+02 3.742960691452026367e-01 2.152599811553955078e+00 -1.042943797074258327e-03 -3.061653696931898594e-04 -4.047327383887022734e-04 1.932374434545636177e-04
6.900000000000000000e+02 3.251528978347778320e+00 3.026773214340209961e+00 1.506465836428105831e-03 1.094299135729670525e-03 7.802294567227363586e-04 -1.033946173265576363e-03
6.910000000000000000e+02 5.547576427459716797e+00 6.433124065399169922e+00 1.107764896005392075e-03 -4.449105763342231512e-04 1.988563017221167684e-04 -1.845590071752667427e-03
6.920000000000000000e+02 1.370406389236450195e+00 4.697343826293945312e+00 2.333830809220671654e-03 1.156472717411816120e-03 1.047090976499021053e-03 -1.227537286467850208e-03
6.930000000000000000e+02 5.767720937728881836e-01 9.159877777099609375e+00 2.174864057451486588e-03 5.463836714625358582e-03 2.291610231623053551e-03 -1.210446469485759735e-03
6.940000000000000000e+02 5.825192928314208984e-01 1.199561214447021484e+01 2.728021237999200821e-03 9.257920086383819580e-03 3.595782211050391197e-03 -1.356374821625649929e-03
6.950000000000000000e+02 6.166450977325439453e-01 1.623162269592285156e+01 -3.965471871197223663e-03 1.006273087114095688e-02 1.829177839681506157e-03 1.567155937664210796e-03
6.960000000000000000e+02 6.371105909347534180e-01 1.765595054626464844e+01 2.545519499108195305e-03 5.540442653000354767e-03 2.425788668915629387e-03 2.294196747243404388e-03
6.970000000000000000e+02 6.353489756584167480e-01 2.189747047424316406e+01 -5.265460349619388580e-03 -3.937256708741188049e-02 -1.339140813797712326e-02 1.138592138886451721e-02
6.980000000000000000e+02 6.410877108573913574e-01 2.330425262451171875e+01 1.628194469958543777e-03 -6.926696747541427612e-02 -2.029163204133510590e-02 1.464090310037136078e-02
6.990000000000000000e+02 6.641579866409301758e-01 2.471443939208984375e+01 -4.639847669750452042e-03 -1.060572415590286255e-01 -3.320912644267082214e-02 1.870751194655895233e-02
7.000000000000000000e+02 7.142810821533203125e-01 2.898416519165039062e+01 1.303687226027250290e-03 -2.436722815036773682e-01 -7.271057367324829102e-02 2.575708553194999695e-02
7.010000000000000000e+02 7.484955787658691406e-01 3.041626167297363281e+01 -1.018445589579641819e-03 -2.933319211006164551e-01 -8.830511569976806641e-02 2.543340809643268585e-02
7.020000000000000000e+02 2.235844612121582031e+00 3.026869010925292969e+01 5.199793260544538498e-03 -2.228827029466629028e-01 -6.530487537384033203e-02 7.229846715927124023e-02
7.030000000000000000e+02 7.773140668869018555e-01 3.184471130371093750e+01 1.420414308086037636e-03 -3.401440978050231934e-01 -1.016171053051948547e-01 2.519025094807147980e-02
7.040000000000000000e+02 6.971930265426635742e-01 3.605930709838867188e+01 -5.238651297986507416e-03 -4.441069960594177246e-01 -1.348036974668502808e-01 1.116606499999761581e-02
7.050000000000000000e+02 3.053601026535034180e+00 3.732992935180664062e+01 2.476045303046703339e-02 -3.378029167652130127e-01 -9.391274303197860718e-02 2.246092259883880615e-02
7.060000000000000000e+02 8.565556406974792480e-01 3.876210784912109375e+01 -9.463798254728317261e-03 -4.475078880786895752e-01 -1.370915025472640991e-01 -2.782491268590092659e-03
7.070000000000000000e+02 1.232358813285827637e+00 4.010585403442382812e+01 1.855440996587276459e-02 -4.308525621891021729e-01 -1.236894428730010986e-01 -1.615829020738601685e-02
7.080000000000000000e+02 9.611419677734375000e+00 1.872451424598693848e+00 8.801185758784413338e-04 -8.401773520745337009e-04 1.198236896016169339e-05 4.996225470677018166e-04
7.090000000000000000e+02 8.840849876403808594e+00 1.875838041305541992e+00 1.851479755714535713e-03 4.389308160170912743e-04 6.871232180856168270e-04 -2.440839307382702827e-04
7.100000000000000000e+02 8.069178581237792969e+00 1.881984353065490723e+00 9.516046266071498394e-04 -8.751445566304028034e-04 2.293802208441775292e-05 2.377972268732264638e-04
7.110000000000000000e+02 7.295956611633300781e+00 1.891986012458801270e+00 1.797830802388489246e-03 4.620568652171641588e-04 6.779662799090147018e-04 -6.101244944147765636e-04
7.120000000000000000e+02 6.520600318908691406e+00 1.908043146133422852e+00 8.440748788416385651e-04 -8.823823300190269947e-04 -1.149223317042924464e-05 -6.001517704135039821e-06
7.130000000000000000e+02 5.740568637847900391e+00 1.932142138481140137e+00 1.530391746200621128e-03 5.788329290226101875e-04 6.327673909254372120e-04 -9.372912463732063770e-04
7.140000000000000000e+02 4.954836368560791016e+00 1.964896440505981445e+00 5.283729406073689461e-04 -7.902877987362444401e-04 -7.857444870751351118e-05 -1.448038237867876887e-04
7.150000000000000000e+02 4.170845031738281250e+00 1.995063185691833496e+00 1.415259786881506443e-03 6.868500495329499245e-04 6.306329742074012756e-04 -1.082862028852105141e-03
7.160000000000000000e+02 3.400824546813964844e+00 1.992879867553710938e+00 -2.078892139252275229e-04 -5.804477259516716003e-04 -2.365010877838358283e-04 -3.718489606399089098e-04
7.170000000000000000e+02 2.640681266784667969e+00 1.969745874404907227e+00 9.614661103114485741e-04 8.814359316602349281e-04 5.528706242330372334e-04 -6.360317929647862911e-04
7.180000000000000000e+02 1.124839186668395996e+00 2.041467428207397461e+00 5.321076605468988419e-05 1.065909396857023239e-03 3.357360546942800283e-04 -3.310772299300879240e-04
7.190000000000000000e+02 1.186233425140380859e+01 1.870554924011230469e+00 1.497132005169987679e-03 7.866101223044097424e-04 6.851226207800209522e-04 5.805364344269037247e-05
7.200000000000000000e+02 1.333357810974121094e+01 1.869899034500122070e+00 1.093685859814286232e-03 1.148261828348040581e-03 6.725842831656336784e-04 7.863861355872359127e-06
7.210000000000000000e+02 1.405812931060791016e+01 1.883162140846252441e+00 2.070855553029105067e-04 -1.170495525002479553e-03 -2.890229807235300541e-04 9.230737923644483089e-04
7.220000000000000000e+02 1.548974132537841797e+01 1.927966952323913574e+00 9.896776464302092791e-05 -1.308082137256860733e-03 -3.627343103289604187e-04 6.284099654294550419e-04
7.230000000000000000e+02 1.619338607788085938e+01 1.987356901168823242e+00 3.347122983541339636e-04 1.573550165630877018e-03 5.724787479266524315e-04 1.331315434072166681e-04
7.240000000000000000e+02 1.758969688415527344e+01 2.171190738677978516e+00 3.360523551236838102e-04 1.275273156352341175e-03 4.833976272493600845e-04 2.527202595956623554e-04
7.250000000000000000e+02 1.899231147766113281e+01 2.368995189666748047e+00 6.648489506915211678e-04 7.017715834081172943e-04 4.099861835129559040e-04 8.604230970377102494e-05
7.260000000000000000e+02 2.107642364501953125e+01 2.701028823852539062e+00 -1.836111623561009765e-04 -5.277101881802082062e-04 -2.133964153472334146e-04 3.716381615959107876e-04
7.270000000000000000e+02 2.024023437500000000e+01 6.058126926422119141e+00 -4.024718946311622858e-04 -1.028681988827884197e-03 -4.293461388442665339e-04 -8.330134442076086998e-04
7.280000000000000000e+02 2.323104286193847656e+01 3.531808376312255859e+00 4.183023993391543627e-04 5.486142472364008427e-04 2.900749968830496073e-04 3.322500269860029221e-04
7.290000000000000000e+02 2.179205131530761719e+01 2.906966924667358398e+00 8.886770956451073289e-06 5.998912383802235126e-04 1.826334046199917793e-04 -2.677241573110222816e-04
7.300000000000000000e+02 1.968630981445312500e+01 2.482934713363647461e+00 -6.306535797193646431e-04 -4.088803834747523069e-04 -3.118601744063198566e-04 1.896276517072692513e-04
7.310000000000000000e+02 1.815796089172363281e+01 7.991699218750000000e+00 -8.494062931276857853e-04 -8.414259646087884903e-04 -5.072496715001761913e-04 -1.339921727776527405e-03
7.320000000000000000e+02 1.438589191436767578e+01 1.539259815216064453e+01 -9.992241859436035156e-03 1.914745941758155823e-02 2.746565267443656921e-03 -3.140164539217948914e-03
7.330000000000000000e+02 1.362176704406738281e+01 1.925341224670410156e+01 -1.107395365834236145e-01 -1.914026588201522827e-02 -3.896393999457359314e-02 -5.145276337862014771e-02
7.340000000000000000e+02 1.965987205505371094e+01 2.253961181640625000e+01 -7.435895800590515137e-01 -1.598158478736877441e-02 -2.278713583946228027e-01 -1.554602980613708496e-01
7.350000000000000000e+02 3.132263565063476562e+01 1.720977020263671875e+01 1.622467637062072754e+00 9.051692962646484375e+00 3.202248334884643555e+00 -3.249206304550170898e+00
7.360000000000000000e+02 3.259348297119140625e+01 1.310128498077392578e+01 8.594132065773010254e-01 1.125161647796630859e+01 3.633308887481689453e+00 -2.810252904891967773e+00
7.370000000000000000e+02 3.786227416992187500e+01 9.237386703491210938e+00 1.570564389228820801e+00 1.357479190826416016e+01 4.543606758117675781e+00 1.034232258796691895e+00
7.380000000000000000e+02 3.466695022583007812e+01 9.248011589050292969e+00 7.771526575088500977e-01 1.306992912292480469e+01 4.154124259948730469e+00 -1.036261439323425293e+00
7.390000000000000000e+02 3.928540039062500000e+01 7.192061901092529297e+00 7.986792922019958496e-01 1.764051246643066406e+01 5.531757354736328125e+00 2.085253000259399414e+00
7.400000000000000000e+02 3.920194625854492188e+01 5.816543579101562500e+00 3.993235826492309570e-01 1.650202369689941406e+01 5.070404052734375000e+00 7.303779721260070801e-01
7.410000000000000000e+02 2.740628242492675781e+01 -3.361217081546783447e-01 2.326936244964599609e+00 1.814909130334854126e-01 7.525281310081481934e-01 2.720728218555450439e-01
7.420000000000000000e+02 2.426113891601562500e+01 -3.156248629093170166e-01 9.017981886863708496e-01 -1.070134341716766357e-01 2.384354323148727417e-01 4.500408172607421875e-01
7.430000000000000000e+02 2.271820259094238281e+01 -7.667393088340759277e-01 3.818656802177429199e-01 1.062557250261306763e-01 1.464364230632781982e-01 5.613116025924682617e-01
7.440000000000000000e+02 2.193866920471191406e+01 -9.569380283355712891e-01 1.529345065355300903e-01 1.297501921653747559e-01 8.480540663003921509e-02 6.014481782913208008e-01
7.450000000000000000e+02 1.879644966125488281e+01 -1.522150397300720215e+00 -6.275863051414489746e-01 1.687522977590560913e-01 -1.376502066850662231e-01 5.069019198417663574e-01
7.460000000000000000e+02 1.958765602111816406e+01 -1.408419132232666016e+00 -4.557582736015319824e-01 1.890199184417724609e-01 -8.002150058746337891e-02 5.548566579818725586e-01
7.470000000000000000e+02 1.644489097595214844e+01 -1.728160619735717773e+00 -1.049423575401306152e+00 1.321834921836853027e-01 -2.751720249652862549e-01 2.663566172122955322e-01
7.480000000000000000e+02 1.567139530181884766e+01 -1.765190005302429199e+00 -1.139491677284240723e+00 1.090471968054771423e-01 -3.091333210468292236e-01 1.859576851129531860e-01
7.490000000000000000e+02 1.259491634368896484e+01 -1.838246226310729980e+00 -1.250577211380004883e+00 5.776559934020042419e-02 -3.578434586524963379e-01 -1.287944912910461426e-01
7.500000000000000000e+02 1.335962295532226562e+01 -1.825117826461791992e+00 -1.266677260398864746e+00 7.958021014928817749e-02 -3.561291098594665527e-01 -6.639564037322998047e-02
7.510000000000000000e+02 1.412827205657958984e+01 -1.805460333824157715e+00 -1.250694751739501953e+00 8.234074711799621582e-02 -3.505062162876129150e-01 1.357204932719469070e-02
7.520000000000000000e+02 1.032142066955566406e+01 -1.859111785888671875e+00 -1.103224754333496094e+00 4.352539777755737305e-02 -3.179098069667816162e-01 -2.761536836624145508e-01
7.530000000000000000e+02 9.581893920898437500e+00 -1.864815354347229004e+00 -1.017643570899963379e+00 2.669701725244522095e-02 -2.972839474678039551e-01 -3.072719275951385498e-01
7.540000000000000000e+02 6.845481872558593750e+01 -1.839083290100097656e+01 -3.466186225414276123e-01 3.679449558258056641e+00 9.998492598533630371e-01 2.674692869186401367e-01
7.550000000000000000e+02 6.988687896728515625e+01 -1.377901935577392578e+01 -7.990298271179199219e-01 1.048451232910156250e+01 2.905644655227661133e+00 -3.134368896484375000e+00
7.560000000000000000e+02 7.043851470947265625e+01 -1.816909790039062500e+01 -7.211894989013671875e-01 1.519868373870849609e+01 4.343248367309570312e+00 3.027777910232543945e+00
7.570000000000000000e+02 6.860552215576171875e+01 -1.433622074127197266e+01 1.141710519790649414e+00 3.848729610443115234e+00 1.497132062911987305e+00 -2.835284948348999023e+00
7.580000000000000000e+02 6.888193511962890625e+01 -1.489832592010498047e+01 2.004358530044555664e+00 3.937017679214477539e+00 1.782412886619567871e+00 -3.273911952972412109e+00
7.590000000000000000e+02 6.922422790527343750e+01 -1.824163055419921875e+01 4.371150434017181396e-01 7.306752204895019531e+00 2.323160171508789062e+00 3.736964464187622070e+00
7.600000000000000000e+02 6.868292999267578125e+01 -1.852649307250976562e+01 4.260678589344024658e-01 5.499579429626464844e+00 1.777694225311279297e+00 2.394134283065795898e+00
7.610000000000000000e+02 6.741181182861328125e+01 -1.392263793945312500e+01 2.305574864149093628e-01 1.394398331642150879e+00 4.874867200851440430e-01 -1.017865896224975586e+00
7.620000000000000000e+02 6.809130096435546875e+01 -1.510609817504882812e+01 1.027531743049621582e+00 7.393266558647155762e-01 5.300574898719787598e-01 -1.279456734657287598e+00
7.630000000000000000e+02 1.914624595642089844e+01 6.982460975646972656e+00 7.347009377554059029e-04 1.237314427271485329e-03 5.916046211495995522e-04 7.942783995531499386e-04
7.640000000000000000e+02 2.038294219970703125e+01 2.589242696762084961e+00 4.624586435966193676e-04 4.469025589060038328e-04 2.728083636611700058e-04 -3.594151930883526802e-04
7.650000000000000000e+02 1.888914299011230469e+01 5.297542095184326172e+00 1.538262120448052883e-03 1.033407286740839481e-03 7.715008105151355267e-04 4.508787242230027914e-04
7.660000000000000000e+02 7.832873344421386719e+00 -3.350486040115356445e+00 -5.426999926567077637e-01 2.587004192173480988e-02 -1.550489962100982666e-01 -5.061888694763183594e-01
7.670000000000000000e+02 6.023586750030517578e+00 -1.852040886878967285e+00 -5.501929521560668945e-01 -1.818695291876792908e-02 -1.705139726400375366e-01 -3.374839723110198975e-01
7.680000000000000000e+02 8.716045379638671875e+00 -2.604147434234619141e+00 -7.575201392173767090e-01 3.713475912809371948e-02 -2.161156088113784790e-01 -4.161027967929840088e-01
7.690000000000000000e+02 3.911101102828979492e+00 -2.712432861328125000e+00 -2.462417036294937134e-01 -1.097563803195953369e-01 -1.067994236946105957e-01 -3.494532406330108643e-01
7.700000000000000000e+02 6.598727703094482422e+00 -2.572079181671142578e+00 -5.426992177963256836e-01 -1.464060135185718536e-02 -1.672019511461257935e-01 -4.351257979869842529e-01
7.710000000000000000e+02 5.321381092071533203e+00 -1.859083175659179688e+00 -4.524186849594116211e-01 -3.451186046004295349e-02 -1.460791677236557007e-01 -3.217704296112060547e-01
7.720000000000000000e+02 7.432678222656250000e+00 -1.861289381980895996e+00 -7.450324296951293945e-01 4.471399355679750443e-03 -2.221682965755462646e-01 -3.484915494918823242e-01
7.730000000000000000e+02 7.992316722869873047e+00 -2.602694034576416016e+00 -6.854288578033447266e-01 2.334113232791423798e-02 -1.986263245344161987e-01 -4.325465261936187744e-01
7.740000000000000000e+02 7.284703254699707031e+00 -2.592360019683837891e+00 -6.118317842483520508e-01 -1.249592285603284836e-03 -1.839244067668914795e-01 -4.396359920501708984e-01
7.750000000000000000e+02 5.256812572479248047e+00 -2.586863517761230469e+00 -3.902022242546081543e-01 -5.763637274503707886e-02 -1.343515813350677490e-01 -4.041869044303894043e-01
7.760000000000000000e+02 2.625154018402099609e+00 -7.455993175506591797e+00 2.461925148963928223e-03 -6.325667500495910645e-01 -1.890314519405364990e-01 -4.397347867488861084e-01
7.770000000000000000e+02 4.982562959194183350e-01 -6.385758876800537109e+00 1.663607195951044559e-03 -7.315963506698608398e-01 -2.189798206090927124e-01 -1.024878695607185364e-01
7.780000000000000000e+02 3.496873855590820312e+00 -4.750783920288085938e+00 -1.186884194612503052e-01 -2.769725322723388672e-01 -1.186982840299606323e-01 -4.689478576183319092e-01
7.790000000000000000e+02 4.288448691368103027e-01 -3.516883850097656250e+00 -1.346062216907739639e-02 -2.186268568038940430e-01 -6.962624192237854004e-02 -6.085434183478355408e-02
7.800000000000000000e+02 4.939004480838775635e-01 -4.943654060363769531e+00 -9.079810231924057007e-03 -4.467172920703887939e-01 -1.367391347885131836e-01 -9.213376790285110474e-02
7.810000000000000000e+02 1.743641471862792969e+01 7.373091697692871094e+00 8.589451899752020836e-04 1.943438430316746235e-03 8.407150744460523129e-04 7.103719399310648441e-04
7.820000000000000000e+02 1.829346656799316406e+01 2.264609575271606445e+00 -4.021960485260933638e-04 -8.212868706323206425e-04 -3.670448786579072475e-04 -7.025089871603995562e-05
7.830000000000000000e+02 1.832046890258789062e+01 6.382730484008789062e+00 -1.498601515777409077e-03 -5.555490497499704361e-04 -6.162451463751494884e-04 -6.397261167876422405e-04
7.840000000000000000e+02 1.603847885131835938e+01 2.639403104782104492e+00 8.316198545799124986e-06 -1.208773814141750336e-03 -3.601372882258147001e-04 5.482617416419088840e-04
7.850000000000000000e+02 1.940818023681640625e+01 3.333020448684692383e+00 9.491599630564451218e-04 4.983865073882043362e-04 4.342639294918626547e-04 -4.550507946987636387e-05
7.860000000000000000e+02 1.406321620941162109e+01 3.195525884628295898e+00 -1.216715245391242206e-04 -7.999423542059957981e-04 -2.764841774478554726e-04 1.039719092659652233e-03
7.870000000000000000e+02 1.477742099761962891e+01 1.900338649749755859e+00 6.449422216974198818e-04 1.469535171054303646e-03 6.343431887216866016e-04 9.880473044177051634e-06
7.880000000000000000e+02 1.539831256866455078e+01 2.558004379272460938e+00 4.194578505121171474e-04 1.544669270515441895e-03 5.892381304875016212e-04 2.799521098495461047e-05
7.890000000000000000e+02 1.194041633605957031e+01 3.322325468063354492e+00 1.762919477187097073e-03 4.888580297119915485e-04 6.755332578904926777e-04 1.239974808413535357e-04
7.900000000000000000e+02 1.262561893463134766e+01 2.574479579925537109e+00 1.340529648587107658e-03 9.025325416587293148e-04 6.729186861775815487e-04 1.680378954915795475e-05
7.910000000000000000e+02 1.260214233398437500e+01 1.866471171379089355e+00 3.983119095209985971e-04 -9.845540625974535942e-04 -1.758726575644686818e-04 9.770245524123311043e-04
7.920000000000000000e+02 1.334302711486816406e+01 2.552469968795776367e+00 9.950991079676896334e-05 -9.880071738734841347e-04 -2.665492065716534853e-04 1.236506621353328228e-03
7.930000000000000000e+02 1.171518993377685547e+01 -2.552615404129028320e+00 -9.851265549659729004e-01 1.028283834457397461e-01 -2.646894454956054688e-01 -2.299555987119674683e-01
7.940000000000000000e+02 1.019979763031005859e+01 -2.586409330368041992e+00 -8.882822394371032715e-01 7.003556191921234131e-02 -2.454739958047866821e-01 -3.470605611801147461e-01
7.950000000000000000e+02 9.451395034790039062e+00 -2.598952770233154297e+00 -8.291423916816711426e-01 6.115258112549781799e-02 -2.303969413042068481e-01 -3.845457136631011963e-01
7.960000000000000000e+02 1.467241764068603516e+01 -3.265901565551757812e+00 -7.610962986946105957e-01 3.171942532062530518e-01 -1.331706196069717407e-01 1.551101058721542358e-01
7.970000000000000000e+02 1.247873497009277344e+01 -2.540885448455810547e+00 -1.015366435050964355e+00 1.339824944734573364e-01 -2.644151747226715088e-01 -1.569330841302871704e-01
7.980000000000000000e+02 1.324637413024902344e+01 -2.532326221466064453e+00 -1.014908194541931152e+00 1.373894959688186646e-01 -2.632555961608886719e-01 -6.778211891651153564e-02
7.990000000000000000e+02 9.620247840881347656e+00 2.610865354537963867e+00 1.871202024631202221e-03 3.460946318227797747e-04 6.651889998465776443e-04 -5.169076030142605305e-05
8.000000000000000000e+02 8.847126960754394531e+00 2.622695684432983398e+00 6.530116079375147820e-04 -1.067347940988838673e-03 -1.243008882738649845e-04 4.409774846863001585e-04
8.010000000000000000e+02 8.072094917297363281e+00 2.642976999282836914e+00 1.907630125060677528e-03 2.929125621449202299e-04 6.601627683266997337e-04 -4.599858366418629885e-04
8.020000000000000000e+02 7.294380664825439453e+00 2.674342393875122070e+00 6.527082296088337898e-04 -1.092437072657048702e-03 -1.319186412729322910e-04 6.273628969211131334e-05
8.030000000000000000e+02 6.512902259826660156e+00 2.723759412765502930e+00 1.760288490913808346e-03 3.745681606233119965e-04 6.404569721780717373e-04 -8.862758404575288296e-04
8.040000000000000000e+02 1.690783143043518066e+00 7.450995445251464844e+00 2.491327933967113495e-03 2.541297348216176033e-03 1.509787631221115589e-03 -2.002927707508206367e-03
8.050000000000000000e+02 5.768755435943603516e+00 3.651205778121948242e+00 1.768644317053258419e-03 2.486480807419866323e-04 6.051877280697226524e-04 -1.204332336783409119e-03
8.060000000000000000e+02 1.818037271499633789e+00 2.852563858032226562e+00 1.307938015088438988e-03 7.069073617458343506e-04 6.044536130502820015e-04 -7.452848367393016815e-04
8.070000000000000000e+02 2.504398345947265625e+00 2.893970012664794922e+00 -4.256322863511741161e-04 -2.861215325538069010e-04 -2.135261456714943051e-04 -1.123705151258036494e-04
8.080000000000000000e+02 1.880903482437133789e+00 1.972534537315368652e+00 -7.939816714497283101e-05 -4.361438914202153683e-04 -1.546626153867691755e-04 -2.370520378462970257e-04
8.090000000000000000e+02 1.114134311676025391e+01 2.602956533432006836e+00 1.764306682161986828e-03 5.102054565213620663e-04 6.823536241427063942e-04 1.143969202530570328e-04
8.100000000000000000e+02 1.038595199584960938e+01 2.606233119964599609e+00 4.009641997981816530e-04 -9.443261660635471344e-04 -1.630085898796096444e-04 8.019437082111835480e-04
8.110000000000000000e+02 1.796736145019531250e+01 -2.419552564620971680e+00 -6.177909374237060547e-01 2.541275918483734131e-01 -1.090990081429481506e-01 5.876064896583557129e-01
8.120000000000000000e+02 2.037349891662597656e+01 -1.262996196746826172e+00 -2.540510892868041992e-01 1.749369800090789795e-01 -2.373423241078853607e-02 5.989760160446166992e-01
8.130000000000000000e+02 1.722255516052246094e+01 -1.670804977416992188e+00 -9.301405549049377441e-01 1.387412697076797485e-01 -2.374197989702224731e-01 3.583111763000488281e-01
8.140000000000000000e+02 1.558030033111572266e+01 -2.530273437500000000e+00 -9.047960638999938965e-01 2.248571366071701050e-01 -2.039816826581954956e-01 2.475091516971588135e-01
8.150000000000000000e+02 1.636163711547851562e+01 -2.521586656570434570e+00 -8.199577331542968750e-01 2.254453748464584351e-01 -1.783537119626998901e-01 3.717817962169647217e-01
8.160000000000000000e+02 7.127916717529296875e+01 -1.378556728363037109e+01 -9.384137392044067383e-01 1.328429889678955078e+01 3.703765392303466797e+00 -5.028284192085266113e-01
8.170000000000000000e+02 7.183644104003906250e+01 -1.753478622436523438e+01 3.594033241271972656e+00 1.521587276458740234e+01 5.642971515655517578e+00 -2.025042295455932617e+00
8.180000000000000000e+02 7.831146240234375000e+01 -1.618356132507324219e+01 3.397424519062042236e-01 6.898095130920410156e+00 2.171351194381713867e+00 1.575056314468383789e-01
8.190000000000000000e+02 7.196328735351562500e+01 -1.572762203216552734e+01 5.524244785308837891e+00 1.410664367675781250e+01 5.889266490936279297e+00 1.811961174011230469e+00
8.200000000000000000e+02 7.275950622558593750e+01 -1.562171077728271484e+01 3.937997341156005859e+00 1.201934051513671875e+01 4.787201404571533203e+00 1.279178857803344727e+00
8.210000000000000000e+02 6.760301971435546875e+01 -1.267749118804931641e+01 -1.533430099487304688e+00 3.659443855285644531e+00 6.378041505813598633e-01 -1.921911120414733887e+00
8.220000000000000000e+02 7.044429779052734375e+01 -1.462232875823974609e+01 -1.834136545658111572e-01 1.447029304504394531e+01 4.286063671112060547e+00 -2.649860858917236328e+00
8.230000000000000000e+02 6.931192016601562500e+01 -2.257609367370605469e+01 7.422971129417419434e-01 8.326374053955078125e+00 2.720601320266723633e+00 1.405328154563903809e+00
8.240000000000000000e+02 7.173828125000000000e+01 -1.905449295043945312e+01 -1.063840687274932861e-01 1.366873264312744141e+01 4.068704605102539062e+00 3.736989200115203857e-02
8.250000000000000000e+02 2.050679016113281250e+01 -2.820043563842773438e+00 -1.106693074107170105e-01 2.924818098545074463e-01 5.454374849796295166e-02 9.433449506759643555e-01
8.260000000000000000e+02 1.961943435668945312e+01 -2.194209575653076172e+00 -3.433366715908050537e-01 2.489172518253326416e-01 -2.832583151757717133e-02 7.432339191436767578e-01
8.270000000000000000e+02 1.879540252685546875e+01 -2.324739456176757812e+00 -4.942057430744171143e-01 2.786496281623840332e-01 -6.466683000326156616e-02 6.736874580383300781e-01
8.280000000000000000e+02 2.524261665344238281e+01 -9.088722467422485352e-01 1.297280073165893555e+00 -1.197420060634613037e-01 3.532614111900329590e-01 6.629189252853393555e-01
8.290000000000000000e+02 2.357144546508789062e+01 -1.302035212516784668e+00 6.562520265579223633e-01 4.819915816187858582e-02 2.113353610038757324e-01 7.520755529403686523e-01
8.300000000000000000e+02 2.198660087585449219e+01 -1.674161911010742188e+00 1.685985922813415527e-01 2.020643204450607300e-01 1.111988723278045654e-01 7.939550876617431641e-01
8.310000000000000000e+02 2.278177070617675781e+01 -1.491543412208557129e+00 3.952725231647491455e-01 6.422985345125198364e-02 1.378507167100906372e-01 7.737709283828735352e-01
8.320000000000000000e+02 2.621534156799316406e+01 -6.812779307365417480e-01 1.547435045242309570e+00 -3.047198057174682617e-01 3.728145658969879150e-01 6.366596221923828125e-01
8.330000000000000000e+02 2.505961608886718750e+01 -8.527385443449020386e-02 1.014833211898803711e+00 -1.746280491352081299e-01 2.520615458488464355e-01 3.806135654449462891e-01
8.340000000000000000e+02 2.252200698852539062e+01 3.212072610855102539e+00 3.580664269975386560e-05 -8.504583965986967087e-04 -2.443955454509705305e-04 -3.634778477135114372e-05
8.350000000000000000e+02 2.234555435180664062e+01 4.434974193572998047e+00 -5.215527489781379700e-04 -9.881259175017476082e-04 -4.529036232270300388e-04 -4.708255582954734564e-04
8.360000000000000000e+02 1.268979454040527344e+01 2.047380447387695312e+01 -1.934174299240112305e-01 4.728922992944717407e-02 -4.383845999836921692e-02 -3.577722981572151184e-02
8.370000000000000000e+02 5.138762664794921875e+01 2.259335136413574219e+01 -4.775452613830566406e-01 7.213525772094726562e-01 7.314219325780868530e-02 6.519371271133422852e-01
8.380000000000000000e+02 1.372810745239257812e+01 1.028599834442138672e+01 -2.925399458035826683e-03 2.366829896345734596e-03 -1.675708481343463063e-04 4.346379544585943222e-03
8.390000000000000000e+02 1.631495285034179688e+01 9.939967155456542969e+00 -8.655443671159446239e-04 6.805552984587848186e-04 -5.549671914195641875e-05 -2.415211172774434090e-03
8.400000000000000000e+02 2.327436828613281250e+01 2.286568832397460938e+01 -3.811060786247253418e-01 5.828311666846275330e-02 -9.684689342975616455e-02 -2.230308502912521362e-01
8.410000000000000000e+02 1.503079128265380859e+01 2.205836105346679688e+01 -3.561344146728515625e-01 3.917859867215156555e-02 -9.508674591779708862e-02 1.250277739018201828e-03
8.420000000000000000e+02 1.706984710693359375e+01 2.164062309265136719e+01 -6.400532722473144531e-01 -8.435638248920440674e-02 -2.173229008913040161e-01 -1.859772205352783203e-01
8.430000000000000000e+02 1.385881710052490234e+01 2.126505088806152344e+01 -2.965145111083984375e-01 5.455486848950386047e-02 -7.258789241313934326e-02 -1.430064905434846878e-02
8.440000000000000000e+02 1.699416351318359375e+01 3.705142498016357422e+00 4.601237596943974495e-04 1.484863576479256153e-03 5.834961775690317154e-04 1.794551644707098603e-04
8.450000000000000000e+02 1.220729637145996094e+01 1.861408996582031250e+01 -8.812937885522842407e-02 1.950123347342014313e-02 -2.058844268321990967e-02 -3.461764752864837646e-02
8.460000000000000000e+02 1.430821704864501953e+01 1.671509361267089844e+01 1.117769256234169006e-02 1.778568327426910400e-02 8.689012378454208374e-03 1.240804325789213181e-03
8.470000000000000000e+02 1.877474212646484375e+01 2.397540092468261719e+01 -3.657517433166503906e-01 4.588032141327857971e-03 -1.083491146564483643e-01 1.889789360575377941e-03
8.480000000000000000e+02 1.990272140502929688e+01 2.463222122192382812e+01 -7.033392041921615601e-02 6.521315127611160278e-02 -1.536229974590241909e-03 -1.037004590034484863e-01
8.490000000000000000e+02 1.801018142700195312e+01 3.094379186630249023e+00 5.542052094824612141e-04 1.244198530912399292e-03 5.395211046561598778e-04 3.821751161012798548e-04
8.500000000000000000e+02 1.583616447448730469e+01 3.240875005722045898e+00 2.339544880669564009e-04 1.679337467066943645e-03 5.739876069128513336e-04 3.808107430813834071e-05
8.510000000000000000e+02 1.208060359954833984e+01 1.402736282348632812e+01 1.227517379447817802e-03 -4.947280976921319962e-04 2.198367728851735592e-04 2.441413933411240578e-03
8.520000000000000000e+02 2.136334419250488281e+01 3.612369298934936523e+00 -7.369490776909515262e-05 -3.491889510769397020e-04 -1.268651540158316493e-04 3.505301428958773613e-04
8.530000000000000000e+02 2.135668754577636719e+01 5.270966529846191406e+00 4.727512714453041553e-04 1.234577619470655918e-03 5.121986614540219307e-04 6.308229640126228333e-04
8.540000000000000000e+02 1.470361804962158203e+01 9.757729530334472656e+00 -1.829556655138731003e-03 4.136090166866779327e-03 6.919600418768823147e-04 3.830211353488266468e-04
8.550000000000000000e+02 1.494892597198486328e+01 8.160529136657714844e+00 -1.737951417453587055e-03 2.307343995198607445e-03 1.708177733235061169e-04 6.363033317029476166e-04
8.560000000000000000e+02 1.273512172698974609e+01 1.753740882873535156e+01 -4.196931794285774231e-02 -8.253354579210281372e-03 -1.506680157035589218e-02 -3.331956267356872559e-02
8.570000000000000000e+02 3.136324691772460938e+01 -8.751628398895263672e-01 4.470530509948730469e+00 4.195384025573730469e+00 2.599774360656738281e+00 2.360567569732666016e+00
8.580000000000000000e+02 2.930191993713378906e+01 -3.256495237350463867e+00 1.654690623283386230e+00 1.310359954833984375e+00 8.895151615142822266e-01 1.592023730278015137e+00
8.590000000000000000e+02 3.185776710510253906e+01 -2.906303405761718750e+01 9.501935541629791260e-02 2.274204969406127930e+00 7.107673287391662598e-01 1.204076409339904785e+00
8.600000000000000000e+02 3.005048942565917969e+01 -2.880527496337890625e+01 -9.807080775499343872e-02 6.592631340026855469e-01 1.683576852083206177e-01 4.992353618144989014e-01
8.610000000000000000e+02 1.885747718811035156e+01 -1.040840339660644531e+01 1.662193298339843750e+00 1.025808811187744141e+00 8.064006567001342773e-01 1.349649548530578613e+00
8.620000000000000000e+02 6.184316635131835938e+01 -1.263541889190673828e+01 -4.356523513793945312e+00 -5.428444147109985352e-01 -1.469810366630554199e+00 -1.238915681838989258e+00
8.630000000000000000e+02 6.386251449584960938e+01 -1.192298126220703125e+01 -6.479334354400634766e+00 -9.085511565208435059e-01 -2.216365575790405273e+00 -8.076199293136596680e-01
8.640000000000000000e+02 2.745923614501953125e+01 -7.967448234558105469e+00 -2.263137102127075195e+00 2.162422537803649902e-01 -6.140684485435485840e-01 5.757120847702026367e-01
8.650000000000000000e+02 3.558068084716796875e+01 -2.189573097229003906e+01 7.410752773284912109e-01 1.009848022460937500e+01 3.251866817474365234e+00 1.321158289909362793e+00
8.660000000000000000e+02 1.433874130249023438e+01 -1.815161705017089844e+01 -3.050497919321060181e-02 4.498201370239257812e+00 1.340308904647827148e+00 2.280008345842361450e-01
8.670000000000000000e+02 2.582585334777832031e+01 -2.989034080505371094e+01 -1.645322680473327637e+00 -6.237105280160903931e-02 -5.123081207275390625e-01 8.785818517208099365e-02
8.680000000000000000e+02 5.013673782348632812e+01 -1.149755859375000000e+01 3.500580042600631714e-02 1.020171880722045898e+00 3.165532946586608887e-01 1.869969248771667480e+00
8.690000000000000000e+02 5.327061462402343750e+01 -6.133191108703613281e+00 -1.484724730253219604e-01 1.935022115707397461e+00 5.359649062156677246e-01 1.737180829048156738e+00
8.700000000000000000e+02 1.381614589691162109e+01 -1.386101531982421875e+01 1.568164706230163574e+00 2.935667276382446289e+00 1.351149559020996094e+00 8.794318437576293945e-01
8.710000000000000000e+02 1.666330528259277344e+01 -1.266819190979003906e+01 3.106318712234497070e+00 2.666615009307861328e+00 1.731880068778991699e+00 2.335719108581542969e+00
8.720000000000000000e+02 2.647610855102539062e+01 -7.938854694366455078e+00 -1.195068717002868652e+00 5.389356017112731934e-01 -1.968399286270141602e-01 1.031856417655944824e+00
8.730000000000000000e+02 2.297734832763671875e+01 -8.457490921020507812e+00 3.293335437774658203e-01 4.479043483734130859e-01 2.331713587045669556e-01 9.798704385757446289e-01
8.740000000000000000e+02 1.976369667053222656e+01 -2.947850990295410156e+01 -7.159521579742431641e-01 4.254263341426849365e-01 -8.715775609016418457e-02 -1.006171628832817078e-01
8.750000000000000000e+02 3.468669509887695312e+01 -1.012798213958740234e+01 -1.554216742515563965e+00 8.143556594848632812e+00 1.976801872253417969e+00 -1.187919616699218750e+00
8.760000000000000000e+02 1.605272293090820312e+01 -1.157826900482177734e+01 1.868280529975891113e+00 2.336727142333984375e+00 1.261502265930175781e+00 1.228232145309448242e+00
8.770000000000000000e+02 1.289217567443847656e+01 -1.459927558898925781e+01 1.412290692329406738e+00 2.599850416183471680e+00 1.203642368316650391e+00 7.386502623558044434e-01
8.780000000000000000e+02 3.407701873779296875e+01 -2.757321166992187500e+01 5.058124661445617676e-01 4.444091796875000000e+00 1.484971284866333008e+00 1.773370146751403809e+00
8.790000000000000000e+02 4.607872390747070312e+01 -1.651787376403808594e+01 1.863732099533081055e+00 5.872036933898925781e+00 2.320730686187744141e+00 2.252280473709106445e+00
8.800000000000000000e+02 4.304619216918945312e+01 -1.768444824218750000e+01 1.539257884025573730e+00 8.379359245300292969e+00 2.975585222244262695e+00 -4.041490852832794189e-01
8.810000000000000000e+02 2.148796272277832031e+01 -9.896951675415039062e+00 9.955541491508483887e-01 3.318691551685333252e-01 3.982269763946533203e-01 8.547092676162719727e-01
8.820000000000000000e+02 3.518654632568359375e+01 -1.487067794799804688e+01 9.773924946784973145e-01 1.270499229431152344e+01 4.104715347290039062e+00 -2.613852977752685547e+00
8.830000000000000000e+02 3.749557113647460938e+01 -1.419060325622558594e+01 1.083461284637451172e+00 9.405759811401367188e+00 3.146766424179077148e+00 -1.633432030677795410e+00
8.840000000000000000e+02 3.366400527954101562e+01 -8.794832229614257812e+00 -2.846212387084960938e+00 6.327028751373291016e+00 1.044245004653930664e+00 -1.109714984893798828e+00
8.850000000000000000e+02 3.545897674560546875e+01 -1.160703659057617188e+01 -3.308576345443725586e-02 9.222743034362792969e+00 2.756897211074829102e+00 -1.506127715110778809e+00
8.860000000000000000e+02 3.558025741577148438e+01 -1.765889167785644531e+01 3.672367930412292480e-01 1.162669849395751953e+01 3.598180532455444336e+00 -1.039655208587646484e+00
8.870000000000000000e+02 3.658629989624023438e+01 -1.594429206848144531e+01 1.136344552040100098e+00 1.070095825195312500e+01 3.551190853118896484e+00 -1.894853234291076660e+00
8.880000000000000000e+02 2.025455665588378906e+01 -1.014191722869873047e+01 1.407211899757385254e+00 4.875522851943969727e-01 5.684292912483215332e-01 1.054437398910522461e+00
8.890000000000000000e+02 3.184200096130371094e+01 -7.241208076477050781e+00 -2.668084144592285156e+00 3.092836141586303711e+00 1.274256259202957153e-01 -6.993899941444396973e-01
8.900000000000000000e+02 5.506711196899414062e+01 2.722326087951660156e+01 4.531745314598083496e-01 1.687823772430419922e+00 6.422994732856750488e-01 -2.003182768821716309e-01
8.910000000000000000e+02 5.663112258911132812e+01 2.269165802001953125e+01 -6.254423856735229492e-01 4.130793362855911255e-02 -1.752403378486633301e-01 -3.604200780391693115e-01
8.920000000000000000e+02 3.297576141357421875e+01 -2.826510238647460938e+01 4.770787954330444336e-01 2.974700212478637695e+00 1.035533666610717773e+00 1.528271913528442383e+00
8.930000000000000000e+02 1.814234733581542969e+01 -2.550076675415039062e+01 9.377396851778030396e-02 4.647497534751892090e-01 1.675571203231811523e-01 -2.715672254562377930e-01
8.940000000000000000e+02 1.719191932678222656e+01 -2.447752952575683594e+01 2.676068246364593506e-01 7.589861154556274414e-01 3.079778850078582764e-01 -4.493187367916107178e-01
8.950000000000000000e+02 3.696830368041992188e+01 -1.880138397216796875e+01 8.873077034950256348e-01 1.028250312805175781e+01 3.350943088531494141e+00 -8.665251731872558594e-01
8.960000000000000000e+02 1.445630455017089844e+01 -2.298894500732421875e+01 3.041424229741096497e-02 2.377771615982055664e+00 7.224557995796203613e-01 -3.232872188091278076e-01
8.970000000000000000e+02 1.529512119293212891e+01 -2.413683509826660156e+01 2.937530912458896637e-02 1.556872844696044922e+00 4.758744537830352783e-01 -4.572031497955322266e-01
8.980000000000000000e+02 7.710387420654296875e+01 -3.787826156616210938e+01 -1.230649575591087341e-01 9.773795127868652344e+00 2.895219087600708008e+00 2.435227930545806885e-01
8.990000000000000000e+02 7.928430938720703125e+01 -3.460934448242187500e+01 -3.866101056337356567e-02 1.090128040313720703e+01 3.258785963058471680e+00 2.411714568734169006e-02
9.000000000000000000e+02 7.934030151367187500e+01 -2.765696907043457031e+01 -1.674576289951801300e-02 1.024721622467041016e+01 3.069140911102294922e+00 -2.138456702232360840e-01
9.010000000000000000e+02 7.752738952636718750e+01 3.234795379638671875e+01 -2.608545683324337006e-02 6.658098697662353516e+00 1.989603996276855469e+00 9.755957126617431641e-02
9.020000000000000000e+02 7.925995635986328125e+01 3.624851989746093750e+01 -1.755172759294509888e-02 6.951176643371582031e+00 2.080087423324584961e+00 1.881827483884990215e-03
9.030000000000000000e+02 7.941114807128906250e+01 -2.070409774780273438e+01 2.599510364234447479e-02 7.011937618255615234e+00 2.111379861831665039e+00 -3.471089303493499756e-01
9.040000000000000000e+02 7.802373504638671875e+01 -2.723580741882324219e+01 -1.239625737071037292e-01 9.738929748535156250e+00 2.884490013122558594e+00 -5.285120010375976562e-01
9.050000000000000000e+02 7.806776428222656250e+01 -2.580354309082031250e+01 -1.115508750081062317e-01 9.456214904785156250e+00 2.803399324417114258e+00 -6.766834855079650879e-01
9.060000000000000000e+02 7.933874511718750000e+01 -3.045649528503417969e+01 -1.675569266080856323e-02 1.077936744689941406e+01 3.228783607482910156e+00 -1.068210676312446594e-01
9.070000000000000000e+02 7.786688232421875000e+01 -3.413737106323242188e+01 -6.386941671371459961e-02 1.018164920806884766e+01 3.035334110260009766e+00 -3.830410307273268700e-03
9.080000000000000000e+02 7.795957946777343750e+01 -3.281305313110351562e+01 -8.215028047561645508e-02 1.019473266601562500e+01 3.033774614334106445e+00 -5.292945727705955505e-02
9.090000000000000000e+02 7.504779052734375000e+01 -3.783569717407226562e+01 -1.265551596879959106e-01 8.813422203063964844e+00 2.606060028076171875e+00 -1.085928231477737427e-01
9.100000000000000000e+02 7.629442596435546875e+01 -3.905068969726562500e+01 3.099960647523403168e-02 9.689110755920410156e+00 2.916033029556274414e+00 9.575837850570678711e-02
9.110000000000000000e+02 7.802531433105468750e+01 2.128219795227050781e+01 2.728505432605743408e-02 5.961271286010742188e+00 1.796566843986511230e+00 1.921915262937545776e-01
9.120000000000000000e+02 7.935454559326171875e+01 2.241593933105468750e+01 6.980969104915857315e-03 5.909158229827880859e+00 1.774841785430908203e+00 7.770366966724395752e-02
9.130000000000000000e+02 7.802256774902343750e+01 1.430230331420898438e+01 4.999095574021339417e-02 5.792815685272216797e+00 1.752841949462890625e+00 -8.012828230857849121e-02
9.140000000000000000e+02 7.933597564697265625e+01 1.546223640441894531e+01 8.624999900348484516e-04 5.448620796203613281e+00 1.634845018386840820e+00 -1.032543717883527279e-03
9.150000000000000000e+02 7.783024597167968750e+01 3.086099052429199219e+01 -2.546689845621585846e-02 6.629888057708740234e+00 1.981326222419738770e+00 1.224984005093574524e-01
9.160000000000000000e+02 7.802904510498046875e+01 2.809493637084960938e+01 -2.516042254865169525e-02 6.496242523193359375e+00 1.941324710845947266e+00 1.659982949495315552e-01
9.170000000000000000e+02 7.934294128417968750e+01 2.795282745361328125e+01 -2.377799712121486664e-03 6.535496234893798828e+00 1.959935545921325684e+00 6.212625652551651001e-02
9.180000000000000000e+02 7.806846618652343750e+01 2.536949729919433594e+01 -1.581479609012603760e-02 6.288286209106445312e+00 1.881741523742675781e+00 2.076703906059265137e-01
9.190000000000000000e+02 7.806130218505859375e+01 2.401377677917480469e+01 1.677819294854998589e-03 6.178819179534912109e+00 1.854148983955383301e+00 2.116031944751739502e-01
9.200000000000000000e+02 7.798825073242187500e+01 1.852769279479980469e+01 5.161764100193977356e-02 5.806726455688476562e+00 1.757503151893615723e+00 1.139900386333465576e-01
9.210000000000000000e+02 7.799353790283203125e+01 1.712462234497070312e+01 4.424388706684112549e-02 5.765069484710693359e+00 1.742794036865234375e+00 6.246318668127059937e-02
9.220000000000000000e+02 7.803036499023437500e+01 1.288648700714111328e+01 6.904962658882141113e-02 5.868211269378662109e+00 1.781178236007690430e+00 -1.580896377563476562e-01
9.230000000000000000e+02 7.672817230224609375e+01 1.024753856658935547e+01 1.182418689131736755e-01 6.301031589508056641e+00 1.925781965255737305e+00 -4.269011318683624268e-01
9.240000000000000000e+02 7.805590820312500000e+01 8.670446395874023438e+00 3.762094303965568542e-02 6.339604377746582031e+00 1.913167595863342285e+00 -3.508943319320678711e-01
9.250000000000000000e+02 7.934855651855468750e+01 9.866243362426757812e+00 -2.356740413233637810e-03 5.947206974029541016e+00 1.783455133438110352e+00 -1.058785468339920044e-01
9.260000000000000000e+02 7.941545104980468750e+01 -1.931758499145507812e+01 4.438153281807899475e-02 6.286281585693359375e+00 1.899198889732360840e+00 -2.706786096096038818e-01
9.270000000000000000e+02 7.584130859375000000e+01 -1.658960342407226562e+01 1.573139190673828125e+00 8.823620796203613281e+00 3.119028091430664062e+00 4.836064204573631287e-02
9.280000000000000000e+02 7.946715545654296875e+01 -1.376694774627685547e+01 1.290114037692546844e-02 6.429491996765136719e+00 1.932717919349670410e+00 3.075411021709442139e-01
9.290000000000000000e+02 7.943879699707031250e+01 -6.848647594451904297e+00 -3.630236908793449402e-02 9.387550354003906250e+00 2.805374622344970703e+00 4.071130976080894470e-02
9.300000000000000000e+02 7.677146148681640625e+01 6.007606983184814453e+00 8.053649216890335083e-02 6.813352108001708984e+00 2.068166494369506836e+00 -6.544685959815979004e-01
9.310000000000000000e+02 7.808113861083984375e+01 2.184937745332717896e-01 -2.323958277702331543e-02 8.013644218444824219e+00 2.397121429443359375e+00 -4.832257330417633057e-01
9.320000000000000000e+02 7.935715484619140625e+01 1.477828025817871094e+00 -4.669329151511192322e-03 7.951009750366210938e+00 2.383902072906494141e+00 -1.823422461748123169e-01
9.330000000000000000e+02 7.796011352539062500e+01 2.945670318603515625e+01 -1.839696615934371948e-02 6.575359344482421875e+00 1.967088818550109863e+00 1.402965188026428223e-01
9.340000000000000000e+02 7.403964996337890625e+01 3.636380386352539062e+01 -6.833127886056900024e-02 6.339938163757324219e+00 1.881482124328613281e+00 5.414877459406852722e-02
9.350000000000000000e+02 7.804479217529296875e+01 1.007425689697265625e+01 6.152379885315895081e-02 6.142255783081054688e+00 1.861133933067321777e+00 -2.903646230697631836e-01
9.360000000000000000e+02 7.683663940429687500e+01 -1.133770704269409180e+00 -9.372185170650482178e-02 7.994447708129882812e+00 2.370217800140380859e+00 -6.746352314949035645e-01
9.370000000000000000e+02 7.806662750244140625e+01 3.035453557968139648e+00 4.864282440394163132e-03 7.406061172485351562e+00 2.223277568817138672e+00 -4.978681206703186035e-01
9.380000000000000000e+02 7.811225891113281250e+01 -1.182891488075256348e+00 -3.681350871920585632e-02 8.307657241821289062e+00 2.481253147125244141e+00 -4.347715079784393311e-01
9.390000000000000000e+02 7.938945770263671875e+01 -2.701552867889404297e+00 -1.418278552591800690e-02 9.002457618713378906e+00 2.696482419967651367e+00 -1.304128170013427734e-01
9.400000000000000000e+02 7.832501220703125000e+01 -7.997150897979736328e+00 -1.793622672557830811e-01 8.983270645141601562e+00 2.641172409057617188e+00 2.874052822589874268e-01
9.410000000000000000e+02 7.829387664794921875e+01 -5.285261631011962891e+00 -1.128689497709274292e-01 8.966084480285644531e+00 2.655964851379394531e+00 -1.219007000327110291e-01
9.420000000000000000e+02 7.944105529785156250e+01 -9.621813774108886719e+00 -3.322723135352134705e-02 8.721257209777832031e+00 2.606408834457397461e+00 2.193665653467178345e-01
9.430000000000000000e+02 7.732069396972656250e+01 -1.446093082427978516e+01 4.505283832550048828e-01 7.992489337921142578e+00 2.532905340194702148e+00 9.141057729721069336e-01
9.440000000000000000e+02 7.841171264648437500e+01 -1.208290672302246094e+01 -5.189635232090950012e-02 7.976126670837402344e+00 2.377269029617309570e+00 8.547297716140747070e-01
9.450000000000000000e+02 7.825564575195312500e+01 -1.755906486511230469e+01 3.027197420597076416e-01 6.989907264709472656e+00 2.187788009643554688e+00 -2.791925370693206787e-01
9.460000000000000000e+02 7.943633270263671875e+01 -1.654573822021484375e+01 6.076603755354881287e-02 5.605693817138671875e+00 1.699938058853149414e+00 2.503682300448417664e-02
9.470000000000000000e+02 7.824228668212890625e+01 -1.892596626281738281e+01 2.576711177825927734e-01 7.259133815765380859e+00 2.255041360855102539e+00 -6.419884562492370605e-01
9.480000000000000000e+02 3.030076599121093750e+01 -3.198671913146972656e+01 -3.649875819683074951e-01 1.662702918052673340e+00 3.893145918846130371e-01 1.108622193336486816e+00
9.490000000000000000e+02 2.419675064086914062e+01 -8.559900283813476562e+00 7.134641520678997040e-03 4.577071368694305420e-01 1.394525319337844849e-01 8.061705231666564941e-01
9.500000000000000000e+02 2.591646766662597656e+01 -3.171478271484375000e+01 -6.024165153503417969e-01 1.231612116098403931e-01 -1.437765955924987793e-01 2.117217630147933960e-01
9.510000000000000000e+02 2.425170326232910156e+01 -3.122761726379394531e+01 -8.172165751457214355e-01 -2.283677645027637482e-02 -2.520160079002380371e-01 -9.483928978443145752e-02
9.520000000000000000e+02 3.701570510864257812e+01 -2.312957000732421875e+01 1.444120407104492188e+00 8.124362945556640625e+00 2.870544910430908203e+00 3.317070305347442627e-01
9.530000000000000000e+02 3.835701751708984375e+01 -2.150215530395507812e+01 1.628475904464721680e+00 8.670142173767089844e+00 3.089585304260253906e+00 -4.752615690231323242e-01
9.540000000000000000e+02 3.517881774902343750e+01 -2.700604438781738281e+01 2.981183826923370361e-01 5.549547195434570312e+00 1.754299640655517578e+00 1.300215482711791992e+00
9.550000000000000000e+02 1.705625724792480469e+01 -2.634247779846191406e+01 -1.693979948759078979e-01 8.546972870826721191e-01 2.055897861719131470e-01 -2.336853593587875366e-01
9.560000000000000000e+02 1.266441154479980469e+01 -1.614980506896972656e+01 1.118045330047607422e+00 2.837399005889892578e+00 1.186633348464965820e+00 6.328603625297546387e-01
9.570000000000000000e+02 1.309199047088623047e+01 -1.712808799743652344e+01 8.060304522514343262e-01 3.318736314773559570e+00 1.237430095672607422e+00 8.322978615760803223e-01
9.580000000000000000e+02 5.210366439819335938e+01 -5.646481990814208984e+00 4.516585543751716614e-02 1.549597382545471191e+00 4.784289598464965820e-01 1.671086668968200684e+00
9.590000000000000000e+02 5.439048385620117188e+01 -6.264407157897949219e+00 -1.709423027932643890e-02 1.798866271972656250e+00 5.345315933227539062e-01 1.582917690277099609e+00
9.600000000000000000e+02 6.201647186279296875e+01 2.226178550720214844e+01 -6.092928051948547363e-01 6.836044788360595703e+00 1.868025660514831543e+00 -1.570111632347106934e+00
9.610000000000000000e+02 6.455033111572265625e+01 1.857265472412109375e+01 1.251311659812927246e+00 8.289667129516601562e+00 2.862293720245361328e+00 -4.273142516613006592e-01
9.620000000000000000e+02 6.246449279785156250e+01 1.779437065124511719e+01 1.280186772346496582e+00 1.142909336090087891e+01 3.812784194946289062e+00 -2.050308227539062500e+00
9.630000000000000000e+02 3.739382934570312500e+01 -1.920477598905563354e-01 1.814815998077392578e+00 1.163488006591796875e+01 4.034908771514892578e+00 -1.229110479354858398e+00
9.640000000000000000e+02 3.916335678100585938e+01 -1.345650792121887207e+00 1.475284576416015625e+00 1.095424747467041016e+01 3.728859663009643555e+00 -2.331447601318359375e+00
9.650000000000000000e+02 5.430401229858398438e+01 2.298027992248535156e+01 -6.245239377021789551e-01 2.233445048332214355e-01 -1.203538179397583008e-01 1.288225799798965454e-01
9.660000000000000000e+02 5.563056182861328125e+01 2.379520225524902344e+01 -2.610063850879669189e-01 4.441574215888977051e-01 5.494531244039535522e-02 -3.840886056423187256e-01
9.670000000000000000e+02 4.101271820068359375e+01 -2.323454141616821289e+00 1.817341446876525879e+00 7.367763042449951172e+00 2.755531311035156250e+00 -3.784764289855957031e+00
9.680000000000000000e+02 5.691448974609375000e+01 2.478050422668457031e+01 1.220387145876884460e-01 1.252556681632995605e+00 4.123786389827728271e-01 -9.154824018478393555e-01
9.690000000000000000e+02 5.783567047119140625e+01 2.349260902404785156e+01 9.708848595619201660e-02 1.194446682929992676e+00 3.874605596065521240e-01 -1.487093925476074219e+00
9.700000000000000000e+02 4.014616394042968750e+01 1.056380271911621094e+01 2.405308008193969727e+00 1.116337203979492188e+01 4.070603847503662109e+00 4.186484813690185547e+00
9.710000000000000000e+02 4.793025588989257812e+01 -6.086690425872802734e+00 -2.517576694488525391e+00 -3.297195434570312500e-01 -8.541889190673828125e-01 1.062691569328308105e+00
9.720000000000000000e+02 6.052775192260742188e+01 5.351648330688476562e+00 1.448573827743530273e+00 5.840722084045410156e+00 2.186788797378540039e+00 2.462698698043823242e+00
9.730000000000000000e+02 5.974272537231445312e+01 4.131818771362304688e+00 1.430103063583374023e+00 4.161912441253662109e+00 1.677604675292968750e+00 2.268749475479125977e+00
9.740000000000000000e+02 6.208467864990234375e+01 1.091259193420410156e+01 2.466392815113067627e-01 9.949354171752929688e+00 3.058798074722290039e+00 1.118435621261596680e+00
9.750000000000000000e+02 5.749740600585937500e+01 -1.054176807403564453e+00 1.563587307929992676e+00 2.440282106399536133e+00 1.201160907745361328e+00 1.688732504844665527e+00
9.760000000000000000e+02 3.809029388427734375e+01 4.407321929931640625e+00 1.125251650810241699e+00 1.543372058868408203e+01 4.967691421508789062e+00 2.456579059362411499e-01
9.770000000000000000e+02 3.395623016357421875e+01 5.970063686370849609e+00 6.122639775276184082e-01 1.546889400482177734e+01 4.824347496032714844e+00 -2.236282527446746826e-01
9.780000000000000000e+02 4.410264587402343750e+01 -5.479946613311767578e+00 -1.736660361289978027e+00 1.771395087242126465e+00 1.042041275650262833e-02 -9.705427289009094238e-01
9.790000000000000000e+02 3.002705192565917969e+01 -3.448564112186431885e-01 5.316028118133544922e+00 1.315785288810729980e+00 1.989544034004211426e+00 1.452108860015869141e+00
9.800000000000000000e+02 5.899161529541015625e+01 1.237397432327270508e+00 1.210765719413757324e+00 3.109099149703979492e+00 1.295959472656250000e+00 1.824092149734497070e+00
9.810000000000000000e+02 6.310208129882812500e+01 1.075777912139892578e+01 6.264462471008300781e-01 9.344788551330566406e+00 2.991370439529418945e+00 7.711932063102722168e-01
9.820000000000000000e+02 4.542891693115234375e+01 -4.404369831085205078e+00 -3.852429866790771484e+00 1.108167786151170731e-02 -1.152404427528381348e+00 9.177926182746887207e-01
9.830000000000000000e+02 4.664049148559570312e+01 -5.843760967254638672e+00 -2.682085752487182617e+00 8.224443346261978149e-02 -7.799524068832397461e-01 6.500135064125061035e-01
9.840000000000000000e+02 3.373071289062500000e+01 1.343108940124511719e+01 9.460359215736389160e-01 1.058028602600097656e+01 3.457896471023559570e+00 -2.052716016769409180e+00
9.850000000000000000e+02 6.170680236816406250e+01 4.681905746459960938e+00 9.479480981826782227e-01 5.758846282958984375e+00 2.012038230895996094e+00 1.285329580307006836e+00
9.860000000000000000e+02 6.228833389282226562e+01 6.229476451873779297e+00 9.566600322723388672e-01 6.728116989135742188e+00 2.305433034896850586e+00 1.360145688056945801e+00
9.870000000000000000e+02 4.303224945068359375e+01 1.777981948852539062e+01 7.267580628395080566e-01 3.920502901077270508e+00 1.394178271293640137e+00 1.910610198974609375e+00
9.880000000000000000e+02 4.288352584838867188e+01 1.577547931671142578e+01 1.349895834922790527e+00 3.977217435836791992e+00 1.598133921623229980e+00 2.267291069030761719e+00
9.890000000000000000e+02 5.579421234130859375e+01 -3.344501256942749023e+00 1.357474446296691895e+00 2.109866857528686523e+00 1.040202379226684570e+00 1.656867265701293945e+00
9.900000000000000000e+02 4.575847244262695312e+01 1.673226737976074219e+01 1.345506310462951660e+00 1.656531929969787598e+00 9.006114602088928223e-01 1.445775389671325684e+00
9.910000000000000000e+02 4.006943893432617188e+01 1.276401805877685547e+01 1.337155222892761230e+00 8.823740959167480469e+00 3.048268795013427734e+00 2.652239561080932617e+00
9.920000000000000000e+02 3.920595169067382812e+01 1.184391784667968750e+01 1.098432421684265137e+00 1.034880924224853516e+01 3.434172391891479492e+00 1.844846725463867188e+00
9.930000000000000000e+02 4.829933166503906250e+01 2.103817749023437500e+01 -1.026940792798995972e-01 1.462694883346557617e+00 4.080002307891845703e-01 1.076273798942565918e+00
9.940000000000000000e+02 3.400734329223632812e+01 4.360596179962158203e+00 8.402172327041625977e-01 1.715390396118164062e+01 5.398236751556396484e+00 9.993799328804016113e-01
9.950000000000000000e+02 3.920045471191406250e+01 4.424219608306884766e+00 1.889060139656066895e-01 1.571677780151367188e+01 4.771705150604248047e+00 -2.841150201857089996e-02
9.960000000000000000e+02 6.942823791503906250e+01 -2.407026863098144531e+01 -1.557747423648834229e-01 7.882388591766357422e+00 2.317984104156494141e+00 7.887189388275146484e-01
9.970000000000000000e+02 7.050944519042968750e+01 -2.002736854553222656e+01 -2.690972983837127686e-01 1.152886676788330078e+01 3.377930879592895508e+00 2.147822856903076172e+00
9.980000000000000000e+02 4.944294357299804688e+01 -1.408676528930664062e+01 8.790223002433776855e-01 1.073659658432006836e+00 5.858045816421508789e-01 1.473625898361206055e+00
9.990000000000000000e+02 6.284453964233398438e+01 7.767249107360839844e+00 7.580005526542663574e-01 7.875296115875244141e+00 2.589988946914672852e+00 1.062068700790405273e+00
1.000000000000000000e+03 6.395436096191406250e+01 1.610627937316894531e+01 1.094303011894226074e+00 9.592713356018066406e+00 3.206104993820190430e+00 -1.032904505729675293e+00
1.001000000000000000e+03 3.861138916015625000e+01 8.182442188262939453e-02 2.174564599990844727e+00 1.269037628173828125e+01 4.459482192993164062e+00 -2.529786109924316406e+00
1.002000000000000000e+03 4.312313079833984375e+01 1.977464294433593750e+01 2.719043195247650146e-01 3.907674789428710938e+00 1.253873705863952637e+00 1.729770421981811523e+00
1.003000000000000000e+03 5.982748413085937500e+01 2.282074928283691406e+00 1.074194192886352539e+00 3.724326133728027344e+00 1.439556121826171875e+00 1.751835823059082031e+00
1.004000000000000000e+03 5.666707611083984375e+01 -2.216242551803588867e+00 1.515349268913269043e+00 2.318571329116821289e+00 1.150176167488098145e+00 1.645622968673706055e+00
1.005000000000000000e+03 4.096132278442382812e+01 1.375308609008789062e+01 1.469123482704162598e+00 6.656293392181396484e+00 2.437624931335449219e+00 2.710202693939208984e+00
1.006000000000000000e+03 5.825834274291992188e+01 1.123877763748168945e-01 1.448080301284790039e+00 2.670997619628906250e+00 1.235723376274108887e+00 1.787372946739196777e+00
1.007000000000000000e+03 6.370072174072265625e+01 1.323511409759521484e+01 6.140915155410766602e-01 9.645009040832519531e+00 3.077730178833007812e+00 -1.680248230695724487e-02
1.008000000000000000e+03 3.614441680908203125e+01 5.125065803527832031e+00 1.450718998908996582e+00 1.509927463531494141e+01 4.964998245239257812e+00 1.062790274620056152e+00
1.009000000000000000e+03 5.989476394653320312e+01 6.259989142417907715e-01 1.158805847167968750e+00 3.245148181915283203e+00 1.321186304092407227e+00 1.523657441139221191e+00
1.010000000000000000e+03 3.377521514892578125e+01 2.735196590423583984e+00 3.033159255981445312e+00 1.665446662902832031e+01 5.906287670135498047e+00 3.418384552001953125e+00
1.011000000000000000e+03 4.731045150756835938e+01 -1.615433502197265625e+01 2.556650876998901367e+00 3.599239349365234375e+00 1.846767067909240723e+00 2.485684394836425781e+00
1.012000000000000000e+03 5.700318527221679688e+01 -3.037856674194335938e+01 -2.784881114959716797e+00 -2.046722173690795898e-01 -8.968659639358520508e-01 -5.851305723190307617e-01
1.013000000000000000e+03 6.175639343261718750e+01 -3.023873901367187500e+01 -1.394653916358947754e+00 2.693917155265808105e-01 -3.375786840915679932e-01 -6.774830073118209839e-02
1.014000000000000000e+03 6.392753219604492188e+01 -3.071709060668945312e+01 -8.453537225723266602e-01 1.721016645431518555e+00 2.626988887786865234e-01 5.979477763175964355e-01
1.015000000000000000e+03 4.601560974121093750e+01 -2.843655395507812500e+01 1.296328425407409668e+00 7.557205677032470703e+00 2.656060218811035156e+00 -2.310024738311767578e+00
1.016000000000000000e+03 4.930494689941406250e+01 -2.947251892089843750e+01 2.059723615646362305e+00 2.541151523590087891e+00 1.380262494087219238e+00 -2.204117774963378906e+00
1.017000000000000000e+03 4.469932174682617188e+01 -2.557339286804199219e+01 2.280511617660522461e+00 1.016102886199951172e+01 3.732462167739868164e+00 -2.055722236633300781e+00
1.018000000000000000e+03 4.702581405639648438e+01 -2.965791511535644531e+01 8.293768763542175293e-01 6.043845653533935547e+00 2.061966657638549805e+00 -2.351010560989379883e+00
1.019000000000000000e+03 4.818834686279296875e+01 -3.065078353881835938e+01 2.202648222446441650e-01 4.517361164093017578e+00 1.421287775039672852e+00 -2.291555643081665039e+00
1.020000000000000000e+03 6.731716156005859375e+01 -2.560291671752929688e+01 -3.075505793094635010e-01 4.864401817321777344e+00 1.367055296897888184e+00 1.355364918708801270e+00
1.021000000000000000e+03 4.488917922973632812e+01 -1.647681617736816406e+01 1.080980777740478516e+00 7.851787090301513672e+00 2.679830312728881836e+00 9.153153896331787109e-01
1.022000000000000000e+03 5.889248657226562500e+01 -3.128342437744140625e+01 -1.586484789848327637e+00 -1.884946376085281372e-01 -5.324938297271728516e-01 -4.007503688335418701e-01
1.023000000000000000e+03 5.819812393188476562e+01 -1.124928855895996094e+01 -2.163540124893188477e+00 7.855378985404968262e-01 -4.134006798267364502e-01 4.814175069332122803e-01
1.024000000000000000e+03 5.426747512817382812e+01 -3.086808204650878906e+01 -1.723403215408325195e+00 1.566589996218681335e-02 -5.123211741447448730e-01 -3.682883679866790771e-01
1.025000000000000000e+03 5.765402984619140625e+01 -1.280055522918701172e+01 -2.247949838638305664e+00 3.971463739871978760e-01 -5.552410483360290527e-01 4.296518862247467041e-02
1.026000000000000000e+03 5.646482849121093750e+01 -3.218447875976562500e+01 -1.075417518615722656e+00 -2.281662225723266602e-01 -3.910751044750213623e-01 -5.743581056594848633e-01
1.027000000000000000e+03 2.995854187011718750e+01 2.469277381896972656e+01 -8.877117186784744263e-02 4.129250049591064453e+00 1.212143659591674805e+00 -1.339600682258605957e+00
1.028000000000000000e+03 2.841306686401367188e+01 2.513034057617187500e+01 1.246076598763465881e-01 3.116494417190551758e+00 9.723306298255920410e-01 -1.600111126899719238e+00
1.029000000000000000e+03 6.417778015136718750e+01 -2.852881240844726562e+01 -1.057499051094055176e+00 1.403633832931518555e+00 1.038404628634452820e-01 2.757428586483001709e-01
1.030000000000000000e+03 6.148394775390625000e+01 -1.054804420471191406e+01 -2.327694654464721680e+00 3.359889388084411621e-01 -5.975117087364196777e-01 2.965350151062011719e-01
1.031000000000000000e+03 6.034438323974609375e+01 -3.093152046203613281e+01 -1.453845858573913574e+00 -4.505831003189086914e-02 -4.496712684631347656e-01 -2.581905424594879150e-01
1.032000000000000000e+03 5.129412841796875000e+01 -1.502335834503173828e+01 -3.563979268074035645e-02 1.418622434139251709e-01 3.186673298478126526e-02 3.438159227371215820e-01
1.033000000000000000e+03 5.502541351318359375e+01 -1.323281002044677734e+01 -1.501942873001098633e+00 2.770253121852874756e-01 -3.674752712249755859e-01 5.710059404373168945e-01
1.034000000000000000e+03 6.971875762939453125e+01 -1.840183067321777344e+01 2.916591800749301910e-02 1.026303100585937500e+01 3.087659120559692383e+00 4.174482822418212891e+00
1.035000000000000000e+03 6.861022949218750000e+01 -2.066160392761230469e+01 7.430750131607055664e-01 9.810951232910156250e+00 3.166207790374755859e+00 2.418103218078613281e+00
1.036000000000000000e+03 5.226793670654296875e+01 -1.361850738525390625e+01 -4.545955955982208252e-01 3.085374236106872559e-01 -4.381745308637619019e-02 9.016276597976684570e-01
1.037000000000000000e+03 5.052021026611328125e+01 -6.595526218414306641e+00 -1.162393093109130859e+00 5.743503570556640625e-01 -1.764128059148788452e-01 2.238943099975585938e+00
1.038000000000000000e+03 5.883525466918945312e+01 -1.246312046051025391e+01 -2.600778102874755859e+00 5.051527023315429688e-01 -6.286876201629638672e-01 -1.681576073169708252e-01
1.039000000000000000e+03 6.547467803955078125e+01 -2.548797416687011719e+01 1.755345314741134644e-01 1.573170661926269531e+00 5.246115326881408691e-01 7.437640428543090820e-01
1.040000000000000000e+03 6.628596496582031250e+01 -2.656882476806640625e+01 -4.157629609107971191e-01 3.212404251098632812e+00 8.389924168586730957e-01 9.928354620933532715e-01
1.041000000000000000e+03 5.357118988037109375e+01 -3.318898773193359375e+01 -1.735426634550094604e-01 5.714315772056579590e-01 1.193666681647300720e-01 -1.153668284416198730e+00
1.042000000000000000e+03 4.328363418579101562e+01 -2.079556655883789062e+01 1.421513319015502930e+00 9.738050460815429688e+00 3.347869157791137695e+00 -6.115097999572753906e-01
1.043000000000000000e+03 4.371812820434570312e+01 -2.173712539672851562e+01 1.327585101127624512e+00 1.042388534545898438e+01 3.525441169738769531e+00 -8.434267044067382812e-01
1.044000000000000000e+03 6.524272155761718750e+01 -2.754466629028320312e+01 -7.100947499275207520e-01 2.230277061462402344e+00 4.560547173023223877e-01 5.726985931396484375e-01
1.045000000000000000e+03 1.322257041931152344e+00 -4.014178085327148438e+01 -1.566635561175644398e-03 4.227708280086517334e-01 1.263612657785415649e-01 2.038288488984107971e-02
1.046000000000000000e+03 7.048025727272033691e-01 3.742837524414062500e+01 1.538635324686765671e-02 -4.524623453617095947e-01 -1.311227977275848389e-01 -1.824827282689511776e-03
1.047000000000000000e+03 7.364289164543151855e-01 3.466690826416015625e+01 9.506937116384506226e-03 -4.191027879714965820e-01 -1.228787600994110107e-01 1.442784629762172699e-02
1.048000000000000000e+03 7.734538316726684570e-01 3.326057052612304688e+01 6.624333036597818136e-05 -3.839798271656036377e-01 -1.151740774512290955e-01 2.366609871387481689e-02
1.049000000000000000e+03 6.928566694259643555e-01 2.755804252624511719e+01 -4.049434326589107513e-03 -1.935302168130874634e-01 -5.927389487624168396e-02 2.335697971284389496e-02
1.050000000000000000e+03 6.805944442749023438e-01 2.613429069519042969e+01 2.021818421781063080e-03 -1.477523893117904663e-01 -4.371917247772216797e-02 2.065952308475971222e-02
1.051000000000000000e+03 8.832648992538452148e-01 -3.598228836059570312e+01 -7.737437728792428970e-03 2.988848388195037842e-01 8.734421432018280029e-02 4.029519855976104736e-02
1.052000000000000000e+03 2.441141366958618164e+00 -3.288729095458984375e+01 -3.589255362749099731e-02 1.739587038755416870e-01 4.141984507441520691e-02 1.773632168769836426e-01
1.053000000000000000e+03 3.326505422592163086e+00 2.418378067016601562e+01 -2.090086415410041809e-02 -6.402029097080230713e-02 -2.547634579241275787e-02 7.196248322725296021e-02
1.054000000000000000e+03 2.026579618453979492e+00 2.591891288757324219e+01 -8.096453733742237091e-03 -1.202880665659904480e-01 -3.851535543799400330e-02 5.769585072994232178e-02
1.055000000000000000e+03 2.234040737152099609e+00 3.462056350708007812e+01 1.409053709357976913e-02 -3.264054358005523682e-01 -9.369447082281112671e-02 5.137882009148597717e-02
1.056000000000000000e+03 2.376195430755615234e+00 3.320369720458984375e+01 1.246022898703813553e-02 -2.862126529216766357e-01 -8.212573081254959106e-02 6.207721307873725891e-02
1.057000000000000000e+03 2.286810159683227539e+00 3.822361373901367188e+01 2.476432546973228455e-02 -3.704946041107177734e-01 -1.037190780043601990e-01 2.502074465155601501e-03
1.058000000000000000e+03 3.181229114532470703e+00 3.921145248413085938e+01 1.470015477389097214e-02 -3.758877813816070557e-01 -1.083562821149826050e-01 2.183898724615573883e-02
1.059000000000000000e+03 2.221609115600585938e+00 -3.008813667297363281e+01 -3.140154108405113220e-02 -4.235534742474555969e-02 -2.212706580758094788e-02 2.408105731010437012e-01
1.060000000000000000e+03 2.060792446136474609e+00 -2.728366851806640625e+01 -2.225907146930694580e-02 -3.414887189865112305e-01 -1.091243401169776917e-01 2.917628586292266846e-01
1.061000000000000000e+03 1.914503931999206543e+00 -2.161117935180664062e+01 3.014830127358436584e-02 -1.072573065757751465e+00 -3.127274513244628906e-01 2.671969532966613770e-01
1.062000000000000000e+03 2.739527940750122070e+00 -3.701794052124023438e+01 -3.215295821428298950e-02 3.515076637268066406e-01 9.580641239881515503e-02 9.169477224349975586e-02
1.063000000000000000e+03 6.493402719497680664e-01 2.048986625671386719e+01 2.534359926357865334e-03 -1.806068234145641327e-02 -4.657896701246500015e-03 7.435694336891174316e-03
1.064000000000000000e+03 6.524764895439147949e-01 1.907793617248535156e+01 -4.878545179963111877e-03 -3.633226267993450165e-03 -2.553531434386968613e-03 5.692024249583482742e-03
1.065000000000000000e+03 6.003891229629516602e-01 1.481614017486572266e+01 2.986346837133169174e-03 1.149955857545137405e-02 4.345771390944719315e-03 -6.671953597106039524e-04
1.066000000000000000e+03 5.898565053939819336e-01 1.340706729888916016e+01 -3.173751523718237877e-03 1.063838507980108261e-02 2.239390043541789055e-03 3.150327393086627126e-05
1.067000000000000000e+03 5.606572628021240234e-01 7.730659961700439453e+00 -1.833981135860085487e-03 3.590975189581513405e-03 5.270981928333640099e-04 -1.584555138833820820e-04
1.068000000000000000e+03 5.096391439437866211e-01 6.310387134552001953e+00 1.825080835260450840e-03 2.376769669353961945e-03 1.260555116459727287e-03 -8.947039605118334293e-04
1.069000000000000000e+03 3.415367364883422852e+00 -3.940154647827148438e+01 -3.724339604377746582e-02 4.055891335010528564e-01 1.105037182569503784e-01 5.936366692185401917e-02
1.070000000000000000e+03 4.478054046630859375e+00 -3.538368225097656250e+01 -9.039539843797683716e-02 3.689049184322357178e-01 8.355285972356796265e-02 1.756784617900848389e-01
1.071000000000000000e+03 2.555613279342651367e+00 -3.428285980224609375e+01 -3.976362198591232300e-02 2.508186101913452148e-01 6.331649422645568848e-02 1.467547416687011719e-01
1.072000000000000000e+03 2.326778650283813477e+00 -3.148923683166503906e+01 -3.936804085969924927e-02 7.777226716279983521e-02 1.152126863598823547e-02 2.088641673326492310e-01
1.073000000000000000e+03 3.414579391479492188e+00 -2.700590515136718750e+01 -5.309926345944404602e-02 -1.356705576181411743e-01 -5.663094669580459595e-02 4.254861176013946533e-01
1.074000000000000000e+03 1.925868630409240723e+00 -2.302552413940429688e+01 1.670209318399429321e-02 -8.977396488189697266e-01 -2.643112838268280029e-01 2.979547381401062012e-01
1.075000000000000000e+03 2.001202106475830078e+00 -2.587339973449707031e+01 -1.414169836789369583e-02 -5.194588303565979004e-01 -1.600801646709442139e-01 3.076913058757781982e-01
1.076000000000000000e+03 3.159670114517211914e+00 -1.995480537414550781e+01 9.706976264715194702e-02 -8.126581907272338867e-01 -2.146765291690826416e-01 3.203819394111633301e-01
1.077000000000000000e+03 6.267098188400268555e-01 -1.904603195190429688e+01 1.123130507767200470e-02 -1.839838862419128418e+00 -5.485822558403015137e-01 6.437890976667404175e-02
1.078000000000000000e+03 1.875089287757873535e+00 -1.879042243957519531e+01 4.894713312387466431e-02 -1.352146148681640625e+00 -3.909597098827362061e-01 1.641744077205657959e-01
1.079000000000000000e+03 1.803108334541320801e+00 -1.596692085266113281e+01 6.219819933176040649e-02 -1.495700001716613770e+00 -4.300505518913269043e-01 7.479512598365545273e-03
1.080000000000000000e+03 2.865134716033935547e+00 -1.292027091979980469e+01 1.208825409412384033e-01 -1.043461322784423828e+00 -2.767736315727233887e-01 -2.266765385866165161e-01
1.081000000000000000e+03 5.610179305076599121e-01 -1.199456882476806641e+01 9.672473184764385223e-03 -1.769159436225891113e+00 -5.278460979461669922e-01 -7.107342779636383057e-02
1.082000000000000000e+03 1.683582901954650879e+00 -1.176979637145996094e+01 3.983861953020095825e-02 -1.341279625892639160e+00 -3.904323279857635498e-01 -2.094892412424087524e-01
1.083000000000000000e+03 4.616933345794677734e+00 -3.438416957855224609e+00 -2.708163857460021973e-01 -1.166103556752204895e-01 -1.162280291318893433e-01 -4.639362692832946777e-01
1.084000000000000000e+03 3.208107233047485352e+00 -2.811389446258544922e+00 -1.749588400125503540e-01 -1.430874168872833252e-01 -9.541387856006622314e-02 -3.019762039184570312e-01
1.085000000000000000e+03 1.682990074157714844e+00 -3.794460535049438477e+00 -5.234372988343238831e-02 -2.678253054618835449e-01 -9.605071693658828735e-02 -2.266952395439147949e-01
1.086000000000000000e+03 4.654993116855621338e-01 4.874775886535644531e+00 -1.454567303881049156e-03 1.228598644956946373e-03 -6.779061368433758616e-05 3.225821419619023800e-04
1.087000000000000000e+03 3.317939281463623047e+00 4.618897914886474609e+00 4.188348248135298491e-04 3.759386017918586731e-04 2.384320250712335110e-04 -8.290389087051153183e-04
1.088000000000000000e+03 1.714044332504272461e+00 1.037706279754638672e+01 2.988587832078337669e-03 4.300264175981283188e-03 2.186655532568693161e-03 -2.640729770064353943e-03
1.089000000000000000e+03 5.781829953193664551e-01 1.058080196380615234e+01 -2.422282239422202110e-03 7.111318875104188919e-03 1.406710944138467312e-03 -2.554478123784065247e-04
1.090000000000000000e+03 1.760262966156005859e+00 1.318882465362548828e+01 2.879881067201495171e-03 5.321983247995376587e-03 2.460559364408254623e-03 -2.072660019621253014e-03
1.091000000000000000e+03 1.958864450454711914e+00 2.032205772399902344e+01 -1.060796622186899185e-02 -2.191739901900291443e-02 -9.757609106600284576e-03 2.188097313046455383e-02
1.092000000000000000e+03 1.969254612922668457e+00 1.889140129089355469e+01 -1.597495866008102894e-03 -1.112078502774238586e-02 -3.815484233200550079e-03 1.416439842432737350e-02
1.093000000000000000e+03 1.986550807952880859e+00 2.447503852844238281e+01 -2.573051489889621735e-03 -8.880295604467391968e-02 -2.741280198097229004e-02 5.007608607411384583e-02
1.094000000000000000e+03 3.020338058471679688e+01 1.979741096496582031e+01 2.426733493804931641e+00 6.253943443298339844e+00 2.604202985763549805e+00 -3.235489845275878906e+00
1.095000000000000000e+03 3.431538772583007812e+01 1.353600472211837769e-01 2.472788810729980469e+00 1.082857322692871094e+01 3.990408420562744141e+00 1.068591952323913574e+00
1.096000000000000000e+03 3.371845245361328125e+01 7.484505653381347656e+00 3.201924860477447510e-01 1.424416542053222656e+01 4.369307518005371094e+00 -1.165083885192871094e+00
1.097000000000000000e+03 3.372065353393554688e+01 1.943596076965332031e+01 7.127224206924438477e-01 7.070796012878417969e+00 2.335055589675903320e+00 -9.679812788963317871e-01
1.098000000000000000e+03 3.536258316040039062e+01 3.877298831939697266e+00 2.618424892425537109e+00 1.482399654388427734e+01 5.232726097106933594e+00 1.522479057312011719e+00
1.099000000000000000e+03 2.717101860046386719e+01 2.163740539550781250e+01 1.436576485633850098e+00 6.798051595687866211e-01 6.349144577980041504e-01 -1.091850757598876953e+00
1.100000000000000000e+03 3.224721145629882812e+01 1.903174018859863281e+01 1.457912206649780273e+00 7.251058101654052734e+00 2.612691164016723633e+00 -1.955999851226806641e+00
1.101000000000000000e+03 3.700623321533203125e+01 6.109972000122070312e+00 1.577238202095031738e+00 1.484143066406250000e+01 4.925600528717041016e+00 9.723485112190246582e-01
1.102000000000000000e+03 2.098113059997558594e+01 2.563094711303710938e+01 4.824398830533027649e-02 2.215841561555862427e-01 8.094844222068786621e-02 -2.928306758403778076e-01
1.103000000000000000e+03 2.207485389709472656e+01 2.400793457031250000e+01 -2.487931996583938599e-01 1.214869618415832520e-01 -3.819187358021736145e-02 -2.668932974338531494e-01
1.104000000000000000e+03 2.752432632446289062e+01 2.303105163574218750e+01 9.744370579719543457e-01 2.307065010070800781e+00 9.844506382942199707e-01 -2.003916740417480469e+00
1.105000000000000000e+03 2.873023605346679688e+01 2.288497352600097656e+01 3.319350779056549072e-01 3.747435331344604492e+00 1.223811149597167969e+00 -1.918316483497619629e+00
1.106000000000000000e+03 2.634817886352539062e+01 2.341966629028320312e+01 6.813838481903076172e-01 1.119775414466857910e+00 5.403477549552917480e-01 -1.246162891387939453e+00
1.107000000000000000e+03 2.523775291442871094e+01 2.396982002258300781e+01 3.283536136150360107e-01 8.840664029121398926e-01 3.637259900569915771e-01 -1.015747666358947754e+00
1.108000000000000000e+03 3.467380142211914062e+01 1.515681457519531250e+01 8.747463226318359375e-01 9.393168449401855469e+00 3.080374240875244141e+00 -1.413499832153320312e+00
1.109000000000000000e+03 3.432840347290039062e+01 1.659146690368652344e+01 8.367063999176025391e-01 8.579800605773925781e+00 2.824952125549316406e+00 -1.381319284439086914e+00
1.110000000000000000e+03 3.494592666625976562e+01 7.855849742889404297e+00 8.510759472846984863e-01 1.411437702178955078e+01 4.489635944366455078e+00 -4.964489936828613281e-01
1.111000000000000000e+03 3.434680938720703125e+01 1.062543678283691406e+01 7.864005565643310547e-01 1.238919734954833984e+01 3.952679157257080078e+00 -1.570590615272521973e+00
1.112000000000000000e+03 3.607815933227539062e+01 1.257635974884033203e+01 8.591139912605285645e-01 1.082291603088378906e+01 3.504609107971191406e+00 -6.374922394752502441e-01
1.113000000000000000e+03 6.672723388671875000e+01 -1.327854442596435547e+01 -1.177955269813537598e+00 8.435930013656616211e-01 -1.003086939454078674e-01 -3.672620356082916260e-01
1.114000000000000000e+03 6.797153472900390625e+01 -1.351267147064208984e+01 -3.729207515716552734e-01 3.332403898239135742e+00 8.878449201583862305e-01 -1.727348566055297852e+00
1.115000000000000000e+03 6.820394897460937500e+01 -1.426221561431884766e+01 1.094755768775939941e+00 2.818769216537475586e+00 1.174057483673095703e+00 -2.229455232620239258e+00
1.116000000000000000e+03 6.998892974853515625e+01 -1.815875434875488281e+01 -3.210749924182891846e-01 1.303795146942138672e+01 3.815062999725341797e+00 4.248252868652343750e+00
1.117000000000000000e+03 6.922869110107421875e+01 -1.849023056030273438e+01 5.878607034683227539e-01 7.799144268035888672e+00 2.516101598739624023e+00 3.653308153152465820e+00
1.118000000000000000e+03 6.824774932861328125e+01 -1.477025985717773438e+01 1.673036098480224609e+00 1.791223526000976562e+00 1.039277911186218262e+00 -2.069700479507446289e+00
1.119000000000000000e+03 6.844256591796875000e+01 -1.498374366760253906e+01 1.614014387130737305e+00 1.836416840553283691e+00 1.035129427909851074e+00 -2.224762916564941406e+00
1.120000000000000000e+03 7.214467620849609375e+01 -1.278523063659667969e+01 -1.239745855331420898e+00 1.179967975616455078e+01 3.167980194091796875e+00 2.021568864583969116e-01
1.121000000000000000e+03 1.870408630371093750e+01 3.228132963180541992e+00 -8.106424938887357712e-04 -5.936294910497963428e-04 -4.212815838400274515e-04 -1.707264455035328865e-04
1.122000000000000000e+03 7.208845520019531250e+01 -1.381549549102783203e+01 -4.562316238880157471e-01 1.307284450531005859e+01 3.784983873367309570e+00 8.718283176422119141e-01
1.123000000000000000e+03 1.472675323486328125e+01 3.189519405364990234e+00 8.701151818968355656e-04 1.036378787830471992e-03 5.719481850974261761e-04 1.609963510418310761e-04
1.124000000000000000e+03 1.667254638671875000e+01 2.784209489822387695e+00 3.030470106750726700e-04 1.604125602170825005e-03 5.721517954953014851e-04 2.455030044075101614e-04
1.125000000000000000e+03 2.012432479858398438e+01 3.390888214111328125e+00 -5.542086437344551086e-04 -3.114190185442566872e-04 -2.596882986836135387e-04 3.656740300357341766e-04
1.126000000000000000e+03 1.995353698730468750e+01 5.191576480865478516e+00 -4.432683635968714952e-04 -1.887898542918264866e-04 -1.896174653666093946e-04 2.089646004606038332e-04
1.127000000000000000e+03 2.437920379638671875e+01 -1.108814835548400879e+00 8.857408761978149414e-01 -1.533350944519042969e-01 2.197217345237731934e-01 7.208931446075439453e-01
1.128000000000000000e+03 2.532736778259277344e+01 -1.740900993347167969e+00 1.211662411689758301e+00 -2.497001290321350098e-01 2.885886728763580322e-01 9.792166352272033691e-01
1.129000000000000000e+03 5.924395084381103516e+00 -2.557809591293334961e+00 -4.645271301269531250e-01 -3.971849009394645691e-02 -1.512736827135086060e-01 -4.243383109569549561e-01
1.130000000000000000e+03 7.115903377532958984e+00 -3.338920831680297852e+00 -4.858486056327819824e-01 -1.421628636308014393e-03 -1.461810767650604248e-01 -5.111451745033264160e-01
1.131000000000000000e+03 4.593327522277832031e+00 -2.639862775802612305e+00 -3.190098404884338379e-01 -8.467155694961547852e-02 -1.211044192314147949e-01 -3.813422620296478271e-01
1.132000000000000000e+03 6.437399864196777344e+00 -3.303717851638793945e+00 -4.332027733325958252e-01 -3.713975474238395691e-02 -1.411027610301971436e-01 -5.022321939468383789e-01
1.133000000000000000e+03 5.237607955932617188e+00 -3.343120574951171875e+00 -3.252701163291931152e-01 -8.817915618419647217e-02 -1.240347847342491150e-01 -4.759270250797271729e-01
1.134000000000000000e+03 8.420448303222656250e+00 -4.106678009033203125e+00 -4.567823410034179688e-01 7.836309820413589478e-02 -1.135257706046104431e-01 -5.405979752540588379e-01
1.135000000000000000e+03 5.547423839569091797e+00 -3.861706495285034180e+00 -3.050670921802520752e-01 -9.307296574115753174e-02 -1.194420158863067627e-01 -5.224750638008117676e-01
1.136000000000000000e+03 3.674564123153686523e+00 -5.946083545684814453e+00 -6.519718468189239502e-02 -3.567770123481750488e-01 -1.265922635793685913e-01 -5.244434475898742676e-01
1.137000000000000000e+03 1.824395298957824707e+00 -2.924005746841430664e+00 -8.221328258514404297e-02 -1.623030751943588257e-01 -7.335490733385086060e-02 -2.011386901140213013e-01
1.138000000000000000e+03 1.497967600822448730e+00 -4.911302089691162109e+00 -2.676858380436897278e-02 -4.181172251701354980e-01 -1.334657371044158936e-01 -2.474944889545440674e-01
1.139000000000000000e+03 1.510635137557983398e+00 -6.274275779724121094e+00 -9.182894602417945862e-03 -6.239683628082275391e-01 -1.899453699588775635e-01 -2.809188067913055420e-01
1.140000000000000000e+03 9.320343971252441406e+00 -3.344136714935302734e+00 -6.540464758872985840e-01 8.744894713163375854e-02 -1.699792593717575073e-01 -4.515690207481384277e-01
1.141000000000000000e+03 1.404797077178955078e+01 2.540623188018798828e+00 8.857093635015189648e-04 1.199733465909957886e-03 6.256328779272735119e-04 6.175457383506000042e-05
1.142000000000000000e+03 1.338498497009277344e+01 3.231039762496948242e+00 8.194905822165310383e-04 1.281939912587404251e-03 6.304291309788823128e-04 7.762528548482805490e-05
1.143000000000000000e+03 1.732896614074707031e+01 2.942515134811401367e+00 -2.355086180614307523e-04 -1.045383629389107227e-03 -3.842676524072885513e-04 7.417650340357795358e-05
1.144000000000000000e+03 1.746178817749023438e+01 5.941444873809814453e+00 5.702701164409518242e-04 1.805153558962047100e-03 7.126271375454962254e-04 1.729396171867847443e-04
1.145000000000000000e+03 1.473596477508544922e+01 2.540133476257324219e+00 -2.306078158653690480e-06 -1.011435058899223804e-03 -3.041223681066185236e-04 1.032964675687253475e-03
1.146000000000000000e+03 1.367019176483154297e+01 5.570853710174560547e+00 -1.314027584157884121e-03 6.464041507570073009e-05 -3.748161543626338243e-04 2.528901211917400360e-03
1.147000000000000000e+03 1.095648288726806641e+01 -2.568945646286010742e+00 -9.491950273513793945e-01 9.787374734878540039e-02 -2.553963661193847656e-01 -2.943844497203826904e-01
1.148000000000000000e+03 1.121880626678466797e+01 4.051440715789794922e+00 2.220697235316038132e-03 1.258440315723419189e-04 7.039624033495783806e-04 3.110477409791201353e-04
1.149000000000000000e+03 1.117935276031494141e+01 3.328898668289184570e+00 -1.391820114804431796e-04 -8.865482523106038570e-04 -3.077190776821225882e-04 1.165628782473504543e-03
1.150000000000000000e+03 1.160563373565673828e+01 -3.261700391769409180e+00 -7.908721566200256348e-01 1.854186803102493286e-01 -1.816360503435134888e-01 -2.652074396610260010e-01
1.151000000000000000e+03 1.401791667938232422e+01 -2.527456760406494141e+00 -1.004894852638244629e+00 1.774864941835403442e-01 -2.482225000858306885e-01 2.396399714052677155e-02
1.152000000000000000e+03 1.008193588256835938e+01 -3.324267864227294922e+00 -7.091879844665527344e-01 1.237362697720527649e-01 -1.756355017423629761e-01 -3.983356654644012451e-01
1.153000000000000000e+03 1.546101093292236328e+01 -3.308278560638427734e+00 -6.934131979942321777e-01 3.260008096694946289e-01 -1.102237179875373840e-01 2.997198104858398438e-01
1.154000000000000000e+03 1.312703132629394531e+01 -3.236510992050170898e+00 -8.132197856903076172e-01 2.425126880407333374e-01 -1.712121218442916870e-01 -7.841560989618301392e-02
1.155000000000000000e+03 1.715327072143554688e+01 -2.485622644424438477e+00 -7.300336956977844238e-01 2.589292228221893311e-01 -1.413313597440719604e-01 4.763333201408386230e-01
1.156000000000000000e+03 8.103614807128906250e+00 3.397155523300170898e+00 4.379908496048301458e-04 -1.329272869043052197e-03 -2.673846029210835695e-04 3.048866346944123507e-04
1.157000000000000000e+03 9.646612167358398438e+00 3.334125995635986328e+00 2.681301266420632601e-04 -1.190266339108347893e-03 -2.766408724710345268e-04 7.206926238723099232e-04
1.158000000000000000e+03 6.553058147430419922e+00 3.534859180450439453e+00 4.028246330562978983e-04 -1.258038566447794437e-03 -2.565641771070659161e-04 -1.999279484152793884e-04
1.159000000000000000e+03 4.143386840820312500e+00 4.082572460174560547e+00 1.518190023489296436e-03 3.648523997981101274e-04 5.649127415381371975e-04 -1.774162519723176956e-03
1.160000000000000000e+03 4.068243026733398438e+00 3.047147274017333984e+00 -3.906432903022505343e-05 -7.416869630105793476e-04 -2.342253865208476782e-04 -4.126437415834516287e-04
1.161000000000000000e+03 4.911038875579833984e+00 2.903221607208251953e+00 1.446280977688729763e-03 6.273499457165598869e-04 6.220892537385225296e-04 -1.241070451214909554e-03
1.162000000000000000e+03 5.720548629760742188e+00 2.795691728591918945e+00 5.223738262429833412e-04 -1.011442393064498901e-03 -1.467205729568377137e-04 -2.776881156023591757e-04
1.163000000000000000e+03 1.571243286132812500e+00 3.655074357986450195e+00 -2.563173417001962662e-03 7.425193325616419315e-04 -5.461961845867335796e-04 -2.061514824163168669e-04
1.164000000000000000e+03 4.104743301868438721e-01 3.474139928817749023e+00 1.330150989815592766e-03 9.521483443677425385e-04 6.846897886134684086e-04 -7.415993022732436657e-04
1.165000000000000000e+03 1.158112168312072754e+00 3.086517095565795898e+00 1.464470260543748736e-04 2.322262007510289550e-04 1.136019709520041943e-04 -3.731218166649341583e-04
1.166000000000000000e+03 1.041549682617187500e+01 3.328242778778076172e+00 2.004678361117839813e-03 2.436301001580432057e-04 6.744925631210207939e-04 1.681355061009526253e-04
1.167000000000000000e+03 1.792993736267089844e+01 -3.250423669815063477e+00 -4.636329412460327148e-01 3.996483385562896729e-01 -1.919538155198097229e-02 7.009270191192626953e-01
1.168000000000000000e+03 1.625103950500488281e+01 -3.345197677612304688e+00 -6.293058991432189941e-01 3.791423141956329346e-01 -7.504907250404357910e-02 4.328587353229522705e-01
1.169000000000000000e+03 2.042074775695800781e+01 -2.032383203506469727e+00 -2.070760279893875122e-01 2.708081603050231934e-01 1.911964081227779388e-02 7.815337777137756348e-01
1.170000000000000000e+03 7.269013214111328125e+01 -1.977038002014160156e+01 4.549448192119598389e-02 1.204370403289794922e+01 3.626759529113769531e+00 -7.480519413948059082e-01
1.171000000000000000e+03 1.236554241180419922e+01 -3.241234540939331055e+00 -8.035287261009216309e-01 1.923678964376449585e-01 -1.833482533693313599e-01 -1.764205396175384521e-01
1.172000000000000000e+03 2.413765335083007812e+01 -7.362186908721923828e+00 -2.096332162618637085e-01 5.640188455581665039e-01 1.063156798481941223e-01 1.250385642051696777e+00
1.173000000000000000e+03 1.967663383483886719e+01 -2.998403549194335938e+00 -2.476794719696044922e-01 3.663193583488464355e-01 3.559196740388870239e-02 8.991372585296630859e-01
1.174000000000000000e+03 2.778690910339355469e+01 -4.301607608795166016e+00 9.260976910591125488e-01 3.223955929279327393e-01 3.745479881763458252e-01 1.838575959205627441e+00
1.175000000000000000e+03 2.283329391479492188e+01 -2.230598211288452148e+00 4.129174351692199707e-01 1.621530950069427490e-01 1.725211590528488159e-01 9.971739649772644043e-01
1.176000000000000000e+03 2.637816047668457031e+01 -6.904814720153808594e+00 -1.025675654411315918e+00 5.265561938285827637e-01 -1.497358381748199463e-01 1.469841718673706055e+00
1.177000000000000000e+03 1.880780792236328125e+01 -3.142635345458984375e+00 -3.575048148632049561e-01 3.596945703029632568e-01 6.569288671016693115e-04 8.155043721199035645e-01
1.178000000000000000e+03 2.286002922058105469e+01 -3.000802278518676758e+00 3.461681902408599854e-01 1.524507999420166016e-01 1.495856940746307373e-01 1.153649330139160156e+00
1.179000000000000000e+03 2.444859695434570312e+01 -1.901337146759033203e+00 9.202762246131896973e-01 2.456737868487834930e-02 2.834530770778656006e-01 1.015392899513244629e+00
1.180000000000000000e+03 7.257706451416015625e+01 -1.801576805114746094e+01 2.200279235839843750e+00 1.263345432281494141e+01 4.450119972229003906e+00 -1.446177959442138672e+00
1.181000000000000000e+03 7.283530426025390625e+01 -1.483176708221435547e+01 2.318661212921142578e+00 1.211549186706542969e+01 4.330245971679687500e+00 1.763440966606140137e+00
1.182000000000000000e+03 7.299052429199218750e+01 -1.673523139953613281e+01 4.649869918823242188e+00 1.151542568206787109e+01 4.849588871002197266e+00 -2.974059283733367920e-01
1.183000000000000000e+03 7.297715759277343750e+01 -1.388307189941406250e+01 5.757467746734619141e-01 1.203447818756103516e+01 3.783067464828491211e+00 1.663175702095031738e+00
1.184000000000000000e+03 3.338459014892578125e+01 -7.913089394569396973e-01 1.998163700103759766e+00 8.983242988586425781e+00 3.294421911239624023e+00 1.837139129638671875e+00
1.185000000000000000e+03 3.834424591064453125e+01 1.570725321769714355e+00 1.852565526962280273e+00 1.390601825714111328e+01 4.727574825286865234e+00 -1.811137914657592773e+00
1.186000000000000000e+03 6.957926940917968750e+01 -2.123955917358398438e+01 9.508567452430725098e-01 9.364941596984863281e+00 3.094739437103271484e+00 2.325216054916381836e+00
1.187000000000000000e+03 3.755329895019531250e+01 -7.907827377319335938e+00 -2.798259496688842773e+00 9.154447555541992188e+00 1.906856417655944824e+00 -1.310714006423950195e+00
1.188000000000000000e+03 5.544507217407226562e+01 -7.549130916595458984e+00 -5.057412385940551758e-01 1.535531640052795410e+00 3.089371025562286377e-01 1.489238142967224121e+00
1.189000000000000000e+03 2.192676544189453125e+01 -8.039908409118652344e+00 4.944424033164978027e-01 5.395362377166748047e-01 3.101935982704162598e-01 1.199913144111633301e+00
1.190000000000000000e+03 2.540686225891113281e+01 -8.259660720825195312e+00 -7.524083256721496582e-01 5.863178968429565430e-01 -4.982711747288703918e-02 7.829214930534362793e-01
1.191000000000000000e+03 3.303607940673828125e+01 1.624231910705566406e+01 1.137506008148193359e+00 9.115539550781250000e+00 3.075913906097412109e+00 -2.313768625259399414e+00
1.192000000000000000e+03 1.215738582611083984e+01 -1.736204528808593750e+01 8.735843300819396973e-01 2.772781610488891602e+00 1.093909740447998047e+00 3.862980306148529053e-01
1.193000000000000000e+03 5.996272277832031250e+01 -1.042222595214843750e+01 -2.113451242446899414e+00 6.085884571075439453e-01 -4.514588415622711182e-01 3.180031478404998779e-01
1.194000000000000000e+03 2.204345321655273438e+01 -2.392874002456665039e+00 1.940956264734268188e-01 1.817302852869033813e-01 1.127477735280990601e-01 9.870671033859252930e-01
1.195000000000000000e+03 2.246943092346191406e+01 -9.426025390625000000e+00 6.429334878921508789e-01 3.630250096321105957e-01 3.017875552177429199e-01 8.119289278984069824e-01
1.196000000000000000e+03 2.150690460205078125e+01 -8.954627990722656250e+00 7.276574373245239258e-01 4.813666641712188721e-01 3.627072274684906006e-01 1.087720274925231934e+00
1.197000000000000000e+03 1.989990997314453125e+01 -9.135487556457519531e+00 9.733815789222717285e-01 7.892358303070068359e-01 5.287852287292480469e-01 1.276220560073852539e+00
1.198000000000000000e+03 1.651970100402832031e+01 8.253658294677734375e+00 -9.757225052453577518e-04 5.287470412440598011e-04 -1.340926392003893852e-04 -9.694148902781307697e-04
1.199000000000000000e+03 6.051961135864257812e+01 -9.772669792175292969e+00 -1.894883155822753906e+00 7.242698073387145996e-01 -3.511839807033538818e-01 3.851623535156250000e-01
1.200000000000000000e+03 2.312974166870117188e+01 -7.412305355072021484e+00 8.444888889789581299e-02 5.578675270080566406e-01 1.926949173212051392e-01 1.232805252075195312e+00
1.201000000000000000e+03 5.073715972900390625e+01 2.459129905700683594e+01 -2.480201423168182373e-02 1.215396165847778320e+00 3.571782410144805908e-01 9.535581469535827637e-01
1.202000000000000000e+03 1.891474533081054688e+01 -2.836125564575195312e+01 -4.623931348323822021e-01 4.895801544189453125e-01 8.156105875968933105e-03 -7.787097990512847900e-02
1.203000000000000000e+03 2.188852882385253906e+01 -3.173228836059570312e+01 -6.108724474906921387e-01 1.476234495639801025e-01 -1.389746963977813721e-01 -2.232211679220199585e-01
1.204000000000000000e+03 4.342315673828125000e+01 -8.127182006835937500e+00 -1.437225818634033203e+00 4.224525928497314453e+00 8.361901044845581055e-01 -1.183656930923461914e+00
1.205000000000000000e+03 1.260772609710693359e+01 1.065076351165771484e+01 3.677222644910216331e-03 7.292996160686016083e-04 1.321956748142838478e-03 2.371100243180990219e-03
1.206000000000000000e+03 1.321857547760009766e+01 1.523189163208007812e+01 4.541975911706686020e-03 4.091810435056686401e-03 2.590135904029011726e-03 2.893234835937619209e-03
1.207000000000000000e+03 1.327150917053222656e+01 1.402774047851562500e+01 -6.483822129666805267e-03 1.922470051795244217e-03 -1.368405646644532681e-03 -2.753573426161892712e-05
1.208000000000000000e+03 5.699544525146484375e+01 -4.054459571838378906e+00 9.362447261810302734e-01 1.957720994949340820e+00 8.681896924972534180e-01 1.306875467300415039e+00
1.209000000000000000e+03 1.491363716125488281e+01 -2.611420822143554688e+01 -3.207835555076599121e-01 1.380818843841552734e+00 3.180105984210968018e-01 -1.239623650908470154e-01
1.210000000000000000e+03 6.060253524780273438e+01 1.446847796440124512e+00 9.516448378562927246e-01 3.939816236495971680e+00 1.467438340187072754e+00 1.443743705749511719e+00
1.211000000000000000e+03 1.154236507415771484e+01 1.703627777099609375e+01 -4.595264792442321777e-02 3.149678464978933334e-03 -1.284089125692844391e-02 -1.718987524509429932e-02
1.212000000000000000e+03 1.997338485717773438e+01 4.251076221466064453e+00 5.940643604844808578e-04 3.489745722617954016e-04 2.829116710927337408e-04 -3.155097656417638063e-04
1.213000000000000000e+03 6.409008026123046875e+01 1.101419925689697266e+01 7.370694875717163086e-01 8.736319541931152344e+00 2.842016696929931641e+00 2.653027772903442383e-01
1.214000000000000000e+03 6.382407379150390625e+01 1.471873664855957031e+01 6.163871288299560547e-01 9.878623962402343750e+00 3.148503303527832031e+00 -4.275553822517395020e-01
1.215000000000000000e+03 1.053458690643310547e+01 1.648200798034667969e+01 -3.281016275286674500e-02 -3.856970695778727531e-03 -1.100014057010412216e-02 -1.046870369464159012e-02
1.216000000000000000e+03 7.484051513671875000e+01 -3.427553176879882812e+01 -1.950207650661468506e-01 8.649044990539550781e+00 2.536207437515258789e+00 4.571181908249855042e-02
1.217000000000000000e+03 7.624631500244140625e+01 -3.488734817504882812e+01 -1.458474546670913696e-01 9.390885353088378906e+00 2.773511409759521484e+00 2.308693341910839081e-02
1.218000000000000000e+03 7.586224365234375000e+01 -2.198750877380371094e+01 -1.173304840922355652e-01 9.360698699951171875e+00 2.773010492324829102e+00 -1.361685514450073242e+00
1.219000000000000000e+03 7.801340484619140625e+01 -2.866363143920898438e+01 -1.062776669859886169e-01 9.952836036682128906e+00 2.953967571258544922e+00 -3.978979289531707764e-01
1.220000000000000000e+03 7.515155029296875000e+01 1.896901321411132812e+01 1.962754279375076294e-01 6.222010135650634766e+00 1.925485610961914062e+00 2.195689082145690918e-01
1.221000000000000000e+03 7.800817108154296875e+01 1.571395397186279297e+01 6.881066411733627319e-02 5.759139537811279297e+00 1.748385071754455566e+00 -1.405349932610988617e-02
1.222000000000000000e+03 7.741486358642578125e+01 3.522779083251953125e+01 -3.283802419900894165e-02 6.686253547668457031e+00 1.996024727821350098e+00 4.722301661968231201e-02
1.223000000000000000e+03 7.653998565673828125e+01 3.079215431213378906e+01 -5.164656043052673340e-02 6.559204578399658203e+00 1.952267289161682129e+00 1.686980128288269043e-01
1.224000000000000000e+03 7.820735168457031250e+01 -2.166962051391601562e+01 7.081080693751573563e-03 8.191999435424804688e+00 2.459724187850952148e+00 -9.222050309181213379e-01
1.225000000000000000e+03 7.683918762207031250e+01 -2.392180442810058594e+01 -2.148649841547012329e-01 9.184483528137207031e+00 2.690885543823242188e+00 -1.114275932312011719e+00
1.226000000000000000e+03 7.669718170166015625e+01 -3.107462501525878906e+01 -2.242165803909301758e-01 9.599510192871093750e+00 2.812587976455688477e+00 -2.101319283246994019e-01
1.227000000000000000e+03 7.674964904785156250e+01 -2.974720764160156250e+01 -2.332331985235214233e-01 9.587740898132324219e+00 2.806352376937866211e+00 -3.635497093200683594e-01
1.228000000000000000e+03 7.670351409912109375e+01 -2.682802772521972656e+01 -2.662144899368286133e-01 9.437025070190429688e+00 2.751243114471435547e+00 -7.352936267852783203e-01
1.229000000000000000e+03 7.681499481201171875e+01 -2.536896896362304688e+01 -2.693267464637756348e-01 9.337715148925781250e+00 2.720516443252563477e+00 -9.184638857841491699e-01
1.230000000000000000e+03 7.660599517822265625e+01 -3.237827682495117188e+01 -1.638102084398269653e-01 9.570657730102539062e+00 2.822054386138916016e+00 -9.217420220375061035e-02
1.231000000000000000e+03 7.645828247070312500e+01 -3.364584350585937500e+01 -1.525395363569259644e-01 9.445737838745117188e+00 2.787959575653076172e+00 7.718679029494524002e-03
1.232000000000000000e+03 7.804705810546875000e+01 2.265320014953613281e+01 2.616885816678404808e-03 6.064693450927734375e+00 1.820193171501159668e+00 2.148650735616683960e-01
1.233000000000000000e+03 7.660921478271484375e+01 2.016807174682617188e+01 8.523922413587570190e-02 6.075871467590332031e+00 1.848333239555358887e+00 2.369909584522247314e-01
1.234000000000000000e+03 7.529801940917968750e+01 2.177186584472656250e+01 8.851863443851470947e-02 6.269031047821044922e+00 1.907264947891235352e+00 3.396045267581939697e-01
1.235000000000000000e+03 7.672082519531250000e+01 1.307610702514648438e+01 1.363197863101959229e-01 6.086201190948486328e+00 1.866756319999694824e+00 -2.253408730030059814e-01
1.236000000000000000e+03 7.547539520263671875e+01 7.550046443939208984e+00 1.766689270734786987e-01 6.650073528289794922e+00 2.048022747039794922e+00 -7.337887287139892578e-01
1.237000000000000000e+03 7.670809173583984375e+01 2.287892723083496094e+01 2.183381281793117523e-02 6.197113513946533203e+00 1.865684270858764648e+00 3.022301495075225830e-01
1.238000000000000000e+03 7.806330108642578125e+01 2.673309898376464844e+01 -1.654435321688652039e-02 6.399664878845214844e+00 1.914936184883117676e+00 1.863296329975128174e-01
1.239000000000000000e+03 7.672050476074218750e+01 1.165968799591064453e+01 1.420928835868835449e-01 6.174949169158935547e+00 1.895112633705139160e+00 -3.317067623138427734e-01
1.240000000000000000e+03 7.692196655273437500e+01 -2.254062652587890625e+01 -1.046143248677253723e-01 8.979206085205078125e+00 2.662377595901489258e+00 -1.220626950263977051e+00
1.241000000000000000e+03 7.676603698730468750e+01 2.686957740783691406e+01 -4.658877104520797729e-02 6.399201393127441406e+00 1.905783772468566895e+00 2.704102694988250732e-01
1.242000000000000000e+03 7.677005767822265625e+01 7.421371936798095703e+00 9.153255075216293335e-02 6.619979858398437500e+00 2.013453722000122070e+00 -5.979734659194946289e-01
1.243000000000000000e+03 7.842111968994140625e+01 -1.345051479339599609e+01 8.681251108646392822e-02 7.461184501647949219e+00 2.264399051666259766e+00 8.048965334892272949e-01
1.244000000000000000e+03 7.417592620849609375e+01 -1.602214050292968750e+01 2.940865993499755859e+00 1.016937065124511719e+01 3.933070898056030273e+00 5.599944591522216797e-01
1.245000000000000000e+03 7.742267608642578125e+01 -1.187487888336181641e+01 -1.443400382995605469e-01 8.545118331909179688e+00 2.520233392715454102e+00 1.127432584762573242e+00
1.246000000000000000e+03 7.569041442871093750e+01 -2.608546257019042969e+00 -2.550564706325531006e-01 7.967371463775634766e+00 2.313694477081298828e+00 -7.602259516716003418e-01
1.247000000000000000e+03 7.725118255615234375e+01 -6.471840858459472656e+00 -3.218326270580291748e-01 8.817672729492187500e+00 2.548752069473266602e+00 -1.469027902930974960e-02
1.248000000000000000e+03 7.806890106201171875e+01 5.857604980468750000e+00 2.406735159456729889e-02 6.827400684356689453e+00 2.055440425872802734e+00 -4.462357759475708008e-01
1.249000000000000000e+03 7.547345733642578125e+01 4.680295944213867188e+00 1.064062193036079407e-01 6.941541671752929688e+00 2.114384412765502930e+00 -8.713034391403198242e-01
1.250000000000000000e+03 7.589638519287109375e+01 3.466600418090820312e+01 -5.136187747120857239e-02 6.565510749816894531e+00 1.954244732856750488e+00 7.605460286140441895e-02
1.251000000000000000e+03 7.660362243652343750e+01 1.878115844726562500e+01 9.656375646591186523e-02 6.028263092041015625e+00 1.837448120117187500e+00 1.813071221113204956e-01
1.252000000000000000e+03 7.806485748291015625e+01 7.263947963714599609e+00 4.794936627149581909e-02 6.566442966461181641e+00 1.984317660331726074e+00 -4.000438153743743896e-01
1.253000000000000000e+03 7.677455902099609375e+01 4.588389396667480469e+00 4.903068020939826965e-02 7.026816368103027344e+00 2.122754096984863281e+00 -7.079744935035705566e-01
1.254000000000000000e+03 7.705490875244140625e+01 -3.877300024032592773e+00 -1.984559744596481323e-01 8.473527908325195312e+00 2.482521772384643555e+00 -4.245959818363189697e-01
1.255000000000000000e+03 7.724440765380859375e+01 -1.054008865356445312e+01 -3.540442585945129395e-01 8.832511901855468750e+00 2.543540477752685547e+00 9.229333996772766113e-01
1.256000000000000000e+03 7.705132293701171875e+01 -1.715058517456054688e+01 8.357387185096740723e-01 7.960489273071289062e+00 2.638868331909179688e+00 -2.450823634862899780e-01
1.257000000000000000e+03 7.545108795166015625e+01 -1.759848785400390625e+01 1.574733614921569824e+00 9.185766220092773438e+00 3.228149890899658203e+00 -6.836922168731689453e-01
1.258000000000000000e+03 7.476539611816406250e+01 3.316999053955078125e+01 -9.329317510128021240e-02 6.439582824707031250e+00 1.903886914253234863e+00 1.299346387386322021e-01
1.259000000000000000e+03 7.273435211181640625e+01 3.418128967285156250e+01 -1.330197155475616455e-01 6.199279785156250000e+00 1.819878101348876953e+00 7.029886543750762939e-02
1.260000000000000000e+03 7.664691162109375000e+01 1.735272598266601562e+01 1.379402130842208862e-01 6.000272750854492188e+00 1.841463923454284668e+00 8.286679536104202271e-02
1.261000000000000000e+03 7.675366973876953125e+01 8.835214614868164062e+00 1.222990527749061584e-01 6.438509464263916016e+00 1.968242526054382324e+00 -5.114658474922180176e-01
1.262000000000000000e+03 7.832870483398437500e+01 -6.634501934051513672e+00 -1.452785730361938477e-01 9.037102699279785156e+00 2.667546987533569336e+00 5.630299076437950134e-02
1.263000000000000000e+03 7.715282440185546875e+01 -9.156002044677734375e+00 -4.373847246170043945e-01 8.932159423828125000e+00 2.548432350158691406e+00 6.118248105049133301e-01
1.264000000000000000e+03 7.806781005859375000e+01 1.621110558509826660e+00 8.140511927194893360e-04 7.710067749023437500e+00 2.313264608383178711e+00 -4.965125024318695068e-01
1.265000000000000000e+03 7.677301025390625000e+01 3.151150226593017578e+00 3.382574394345283508e-02 7.253217220306396484e+00 2.186112880706787109e+00 -7.366105914115905762e-01
1.266000000000000000e+03 7.693239593505859375e+01 -2.529600858688354492e+00 -1.408244669437408447e-01 8.249229431152343750e+00 2.432521343231201172e+00 -5.672080516815185547e-01
1.267000000000000000e+03 7.717710876464843750e+01 -5.184430122375488281e+00 -2.494361400604248047e-01 8.675374031066894531e+00 2.527781486511230469e+00 -2.414233833551406860e-01
1.268000000000000000e+03 7.708071899414062500e+01 -1.990310096740722656e+01 2.944968044757843018e-01 8.425603866577148438e+00 2.616030216217041016e+00 -1.143302559852600098e+00
1.269000000000000000e+03 7.706856536865234375e+01 -1.854272460937500000e+01 6.501176357269287109e-01 8.156249046325683594e+00 2.641910076141357422e+00 -8.067456483840942383e-01
1.270000000000000000e+03 1.179786014556884766e+01 -1.905030822753906250e+01 7.202774882316589355e-01 2.347451210021972656e+00 9.203186035156250000e-01 5.648283958435058594e-01
1.271000000000000000e+03 4.801900863647460938e+01 -1.442720413208007812e+01 1.093304753303527832e+00 2.576051473617553711e+00 1.100806832313537598e+00 1.805416226387023926e+00
1.272000000000000000e+03 3.808117675781250000e+01 5.803947925567626953e+00 9.860082268714904785e-01 1.560186672210693359e+01 4.976362705230712891e+00 1.189361572265625000e+00
1.273000000000000000e+03 3.824316024780273438e+01 7.127841949462890625e+00 1.690265774726867676e+00 1.506182193756103516e+01 5.025626182556152344e+00 1.796564698219299316e+00
1.274000000000000000e+03 5.470948410034179688e+01 2.507918167114257812e+01 2.049172967672348022e-01 9.571525454521179199e-01 3.486209511756896973e-01 -7.456655614078044891e-03
1.275000000000000000e+03 6.405301666259765625e+01 7.223345279693603516e+00 7.962783575057983398e-01 7.200372695922851562e+00 2.398995399475097656e+00 4.340676665306091309e-01
1.276000000000000000e+03 6.517678070068359375e+01 1.438972949981689453e+01 1.009119272232055664e+00 8.726278305053710938e+00 2.920619249343872070e+00 -4.857667684555053711e-01
1.277000000000000000e+03 4.708745956420898438e+01 1.988095855712890625e+01 2.540464997291564941e-01 1.690970301628112793e+00 5.835050344467163086e-01 1.210985422134399414e+00
1.278000000000000000e+03 4.505215835571289062e+01 1.988859558105468750e+01 3.246783912181854248e-01 2.788204193115234375e+00 9.338647723197937012e-01 1.583161234855651855e+00
1.279000000000000000e+03 6.200267028808593750e+01 -9.407142639160156250e+00 -1.762548446655273438e+00 2.899940907955169678e-01 -4.417662918567657471e-01 1.336358785629272461e-01
1.280000000000000000e+03 3.074379730224609375e+01 -6.477056503295898438e+00 -1.631494045257568359e+00 9.812131524085998535e-01 -1.950842589139938354e-01 2.549511194229125977e-02
1.281000000000000000e+03 6.706934356689453125e+01 -2.770118904113769531e+01 -8.299695849418640137e-01 4.433420181274414062e+00 1.081035256385803223e+00 9.588811397552490234e-01
1.282000000000000000e+03 4.491550064086914062e+01 1.779421806335449219e+01 9.144310355186462402e-01 2.491295099258422852e+00 1.021717786788940430e+00 1.669437885284423828e+00
1.283000000000000000e+03 4.105545043945312500e+01 1.580421352386474609e+01 8.877097964286804199e-01 5.902486324310302734e+00 2.037058830261230469e+00 2.042732715606689453e+00
1.284000000000000000e+03 3.391973018646240234e+00 3.612105560302734375e+01 3.572813794016838074e-02 -2.908964455127716064e-01 -7.655049115419387817e-02 5.919532105326652527e-02
1.285000000000000000e+03 2.055529356002807617e+00 2.736543083190917969e+01 -1.962718524737283587e-04 -1.565712988376617432e-01 -4.703027009963989258e-02 6.355839967727661133e-02
1.286000000000000000e+03 3.657231569290161133e+00 3.006041336059570312e+01 -4.823497962206602097e-03 -1.599349081516265869e-01 -4.942752048373222351e-02 1.000541970133781433e-01
1.287000000000000000e+03 3.360782623291015625e+00 2.718563270568847656e+01 -9.841553866863250732e-03 -1.198375672101974487e-01 -3.890373557806015015e-02 9.206964075565338135e-02
1.288000000000000000e+03 6.163986682891845703e+00 3.394674682617187500e+01 4.126363620162010193e-02 -8.847740292549133301e-02 -1.416412927210330963e-02 1.093986481428146362e-01
1.289000000000000000e+03 4.078100681304931641e+00 3.162705421447753906e+01 1.563711278140544891e-02 -1.668032556772232056e-01 -4.534984380006790161e-02 1.032036915421485901e-01
1.290000000000000000e+03 3.456313133239746094e+00 2.860635185241699219e+01 4.218459944240748882e-04 -1.458710432052612305e-01 -4.363476112484931946e-02 9.566672146320343018e-02
1.291000000000000000e+03 3.325671195983886719e+00 2.572519302368164062e+01 -8.548066951334476471e-03 -9.167288243770599365e-02 -3.006628528237342834e-02 8.692120760679244995e-02
1.292000000000000000e+03 3.753638267517089844e+00 3.477906799316406250e+01 3.803096711635589600e-02 -2.292853742837905884e-01 -5.737632513046264648e-02 7.879275828599929810e-02
1.293000000000000000e+03 6.030407905578613281e+00 2.970957374572753906e+01 1.056705508381128311e-02 -6.706748157739639282e-02 -1.695012673735618591e-02 1.381930559873580933e-01
1.294000000000000000e+03 4.300861835479736328e+00 -3.395438003540039062e+01 -9.202320128679275513e-02 3.291594088077545166e-01 7.114086300134658813e-02 2.182608693838119507e-01
1.295000000000000000e+03 3.690346956253051758e+00 -2.977136039733886719e+01 -8.429358154535293579e-02 1.039545536041259766e-01 5.898291710764169693e-03 3.561067879199981689e-01
1.296000000000000000e+03 2.133083581924438477e+00 -2.868672561645507812e+01 -3.049892187118530273e-02 -1.835517883300781250e-01 -6.421521306037902832e-02 2.663533985614776611e-01
1.297000000000000000e+03 1.886189103126525879e+00 2.172138214111328125e+01 -3.391282400116324425e-03 -3.905700519680976868e-02 -1.273448579013347626e-02 3.065434098243713379e-02
1.298000000000000000e+03 3.127185106277465820e+00 2.282954788208007812e+01 -1.170788053423166275e-02 -4.711342230439186096e-02 -1.764639094471931458e-02 5.824365466833114624e-02
1.299000000000000000e+03 2.804630756378173828e+00 -1.153675842285156250e+01 9.823080897331237793e-02 -9.826882481575012207e-01 -2.653372287750244141e-01 -3.205784261226654053e-01
1.300000000000000000e+03 1.598558664321899414e+00 -8.997806549072265625e+00 1.486393529921770096e-02 -1.020325303077697754e+00 -3.016383945941925049e-01 -2.865846753120422363e-01
1.301000000000000000e+03 3.111454010009765625e+00 -1.853231239318847656e+01 1.255600601434707642e-01 -9.244001507759094238e-01 -2.396520227193832397e-01 2.294707596302032471e-01
1.302000000000000000e+03 3.044883728027343750e+00 2.164373970031738281e+01 -2.073161862790584564e-02 -3.222169727087020874e-02 -1.588599383831024170e-02 4.256093129515647888e-02
1.303000000000000000e+03 2.854609727859497070e+00 1.159129428863525391e+01 3.123174421489238739e-03 1.716921920888125896e-03 1.452028867788612843e-03 -3.050524974241852760e-03
1.304000000000000000e+03 4.665885448455810547e+00 1.822583961486816406e+01 -1.867504604160785675e-02 -5.092594306915998459e-03 -7.130292244255542755e-03 2.028408087790012360e-02
1.305000000000000000e+03 3.317216873168945312e+00 2.024809074401855469e+01 -1.278838794678449631e-02 -2.165453881025314331e-02 -1.033287774771451950e-02 3.417073190212249756e-02
1.306000000000000000e+03 1.764230251312255859e+00 -1.456268024444580078e+01 5.660309642553329468e-02 -1.493909835815429688e+00 -4.311920106410980225e-01 -7.150323688983917236e-02
1.307000000000000000e+03 6.923431873321533203e+00 -4.087242603302001953e+00 -3.647300302982330322e-01 -2.301445975899696350e-02 -1.163233444094657898e-01 -5.684472322463989258e-01
1.308000000000000000e+03 2.797436237335205078e+00 7.350900650024414062e+00 -1.894304412417113781e-03 5.407569697126746178e-04 -4.060642386320978403e-04 -1.898751477710902691e-03
1.309000000000000000e+03 1.536255717277526855e+00 6.009003162384033203e+00 -2.130197361111640930e-03 1.842690515331923962e-03 -8.625206100987270474e-05 -3.488463989924639463e-04
1.310000000000000000e+03 1.786338448524475098e+00 1.458627796173095703e+01 -5.045343656092882156e-03 4.592655226588249207e-03 -1.358064619125798345e-04 8.386687259189784527e-04
1.311000000000000000e+03 2.983091592788696289e+00 1.576651477813720703e+01 -9.891602210700511932e-03 -1.440347405150532722e-03 -3.399584908038377762e-03 5.244905594736337662e-03
1.312000000000000000e+03 2.490719079971313477e+00 -3.854030609130859375e+00 -9.437645971775054932e-02 -2.592260539531707764e-01 -1.060807555913925171e-01 -3.216313719749450684e-01
1.313000000000000000e+03 2.501330614089965820e+00 -4.928045272827148438e+00 -6.414386630058288574e-02 -3.696019053459167480e-01 -1.301237344741821289e-01 -3.827480673789978027e-01
1.314000000000000000e+03 2.808791399002075195e+00 8.804295539855957031e+00 3.270324785262346268e-03 1.756709069013595581e-03 1.508110086433589458e-03 -2.722115023061633110e-03
1.315000000000000000e+03 3.539287567138671875e+00 -2.838899040222167969e+01 -6.492623686790466309e-02 -7.284331135451793671e-03 -2.166317030787467957e-02 3.992120623588562012e-01
1.316000000000000000e+03 3.170910120010375977e+00 -2.137137794494628906e+01 7.075154036283493042e-02 -6.968146562576293945e-01 -1.878189444541931152e-01 3.825492560863494873e-01
1.317000000000000000e+03 2.742944002151489258e+00 -1.016022396087646484e+01 6.779228895902633667e-02 -8.864772319793701172e-01 -2.456054836511611938e-01 -3.854044377803802490e-01
1.318000000000000000e+03 2.682574033737182617e+00 -8.798198699951171875e+00 3.929479792714118958e-02 -7.701796293258666992e-01 -2.192654609680175781e-01 -4.291214048862457275e-01
1.319000000000000000e+03 2.983443021774291992e+00 -1.570735931396484375e+01 1.447484642267227173e-01 -1.056051731109619141e+00 -2.733909785747528076e-01 -1.348241348750889301e-03
1.320000000000000000e+03 3.166286468505859375e+00 -2.278640556335449219e+01 4.934755712747573853e-02 -5.703254938125610352e-01 -1.562933921813964844e-01 4.302125573158264160e-01
1.321000000000000000e+03 2.656888246536254883e+00 -3.566780090332031250e+01 -3.354898467659950256e-02 3.092972040176391602e-01 8.272446691989898682e-02 1.168733686208724976e-01
1.322000000000000000e+03 4.537377834320068359e+00 -3.680825042724609375e+01 -7.867180556058883667e-02 3.940060734748840332e-01 9.460028260946273804e-02 1.314410865306854248e-01
1.323000000000000000e+03 4.083533287048339844e+00 -3.254558944702148438e+01 -9.769870340824127197e-02 2.731717228889465332e-01 5.264190584421157837e-02 2.665277421474456787e-01
1.324000000000000000e+03 5.712957859039306641e+00 -3.213990783691406250e+01 -1.637136787176132202e-01 4.061421155929565430e-01 7.272852957248687744e-02 3.207309246063232422e-01
1.325000000000000000e+03 1.953516483306884766e+00 -2.445072937011718750e+01 2.393028000369668007e-03 -7.077879905700683594e-01 -2.116184830665588379e-01 3.108727633953094482e-01
1.326000000000000000e+03 3.302234888076782227e+00 -2.561281967163085938e+01 -2.886940166354179382e-02 -2.663677036762237549e-01 -8.857113122940063477e-02 4.467946887016296387e-01
1.327000000000000000e+03 4.582601547241210938e+00 -2.532296943664550781e+01 -4.778864979743957520e-02 -1.688542775809764862e-02 -1.940222270786762238e-02 5.440828204154968262e-01
1.328000000000000000e+03 2.923881769180297852e+00 -1.431004333496093750e+01 1.394159942865371704e-01 -1.070051908493041992e+00 -2.791907787322998047e-01 -1.211834028363227844e-01
1.329000000000000000e+03 2.817299604415893555e+00 1.020534706115722656e+01 -3.081746166571974754e-03 1.327303354628384113e-03 -5.263328785076737404e-04 -1.580816344358026981e-03
1.330000000000000000e+03 4.097745418548583984e+00 1.277775764465332031e+01 1.743383472785353661e-03 -1.310932333581149578e-03 1.297353301197290421e-04 -2.082971855998039246e-03
1.331000000000000000e+03 2.916473627090454102e+00 1.297933197021484375e+01 -5.167574621737003326e-03 8.911300683394074440e-04 -1.282933400943875313e-03 -3.226069384254515171e-04
1.332000000000000000e+03 3.337629556655883789e+00 1.870467948913574219e+01 -1.927634701132774353e-02 -1.078002527356147766e-02 -9.016912430524826050e-03 2.199325151741504669e-02
1.333000000000000000e+03 4.263209533691406250e+01 -2.213084220886230469e+01 1.816118597984313965e+00 9.685453414916992188e+00 3.450471401214599609e+00 -1.320169210433959961e+00
1.334000000000000000e+03 6.811789703369140625e+01 -2.686263465881347656e+01 -8.440889120101928711e-01 5.700370788574218750e+00 1.456884503364562988e+00 8.541079759597778320e-01
1.335000000000000000e+03 3.752548980712890625e+01 1.214033699035644531e+01 8.747074007987976074e-01 1.090636444091796875e+01 3.534321546554565430e+00 4.776545166969299316e-01
1.336000000000000000e+03 2.627311134338378906e+01 2.754859733581542969e+01 2.359132468700408936e-02 2.070831775665283203e+00 6.283269524574279785e-01 -1.127874493598937988e+00
1.337000000000000000e+03 2.419593620300292969e+01 2.464867782592773438e+01 3.316991329193115234e-01 6.275216341018676758e-01 2.877662181854248047e-01 -8.675478696823120117e-01
1.338000000000000000e+03 3.617087936401367188e+01 8.276254653930664062e+00 1.288706064224243164e+00 1.370210170745849609e+01 4.497242450714111328e+00 2.785913348197937012e-01
1.339000000000000000e+03 6.169583511352539062e+01 2.169889450073242188e+00 7.808705568313598633e-01 4.695031166076660156e+00 1.642770528793334961e+00 1.050442814826965332e+00
1.340000000000000000e+03 4.126922225952148438e+01 -1.655004310607910156e+01 1.340854048728942871e+00 8.081390380859375000e+00 2.826673507690429688e+00 -1.054856181144714355e+00
1.341000000000000000e+03 3.629384994506835938e+01 -1.454842185974121094e+01 1.182338476181030273e+00 1.060531139373779297e+01 3.536294937133789062e+00 -2.095054864883422852e+00
1.342000000000000000e+03 6.601548004150390625e+01 -2.859203720092773438e+01 -8.783240914344787598e-01 3.318414926528930664e+00 7.320272326469421387e-01 8.329316377639770508e-01
1.343000000000000000e+03 1.789283943176269531e+01 2.526020622253417969e+01 -5.929113551974296570e-02 5.871183797717094421e-02 -1.737892453093081713e-04 -6.762042641639709473e-03
1.344000000000000000e+03 4.204713058471679688e+01 1.678023338317871094e+01 8.758497238159179688e-01 4.863602161407470703e+00 1.721835613250732422e+00 2.025247573852539062e+00
1.345000000000000000e+03 1.612663841247558594e+01 -2.527827644348144531e+01 -8.706635981798171997e-02 1.150178670883178711e+00 3.189336955547332764e-01 -3.466615080833435059e-01
1.346000000000000000e+03 3.703051376342773438e+01 -2.025627517700195312e+01 1.067783117294311523e+00 9.737758636474609375e+00 3.241662740707397461e+00 -2.563237547874450684e-01
1.347000000000000000e+03 4.251910400390625000e+01 -2.006578445434570312e+01 1.761089682579040527e+00 9.335000038146972656e+00 3.328826904296875000e+00 -6.498883962631225586e-01
1.348000000000000000e+03 5.860013961791992188e+01 -1.675696492195129395e+00 1.311433672904968262e+00 2.447407007217407227e+00 1.127652287483215332e+00 1.394554853439331055e+00
1.349000000000000000e+03 3.700736618041992188e+01 -2.171913528442382812e+01 1.421288967132568359e+00 8.920409202575683594e+00 3.102509498596191406e+00 2.151423841714859009e-01
1.350000000000000000e+03 3.835373306274414062e+01 -1.846535682678222656e+01 1.348426580429077148e+00 9.373910903930664062e+00 3.216701269149780273e+00 -1.195200920104980469e+00
1.351000000000000000e+03 2.605474472045898438e+01 2.535069274902343750e+01 3.699409067630767822e-01 1.570973277091979980e+00 5.822742581367492676e-01 -1.297479748725891113e+00
1.352000000000000000e+03 1.658837509155273438e+01 4.421103477478027344e+00 -6.659663631580770016e-04 -5.288142710924148560e-04 -3.584341902751475573e-04 8.478055242449045181e-04
1.353000000000000000e+03 1.839074516296386719e+01 4.124737739562988281e+00 8.947474998421967030e-04 1.250810571946203709e-03 6.436674157157540321e-04 5.548805347643792629e-04
1.354000000000000000e+03 3.826282501220703125e+01 1.104084396362304688e+01 1.393772482872009277e+00 1.130093383789062500e+01 3.808411836624145508e+00 1.162650465965270996e+00
1.355000000000000000e+03 3.723307037353515625e+01 -2.457178115844726562e+01 1.151391267776489258e+00 7.602407455444335938e+00 2.626139640808105469e+00 4.409570693969726562e-01
1.356000000000000000e+03 1.593653678894042969e+01 -2.727919006347656250e+01 -4.093371331691741943e-01 1.077289700508117676e+00 2.003857642412185669e-01 -1.591098159551620483e-01
1.357000000000000000e+03 4.523579788208007812e+01 -2.703478622436523438e+01 1.875220060348510742e+00 9.068418502807617188e+00 3.283091783523559570e+00 -2.279209375381469727e+00
1.358000000000000000e+03 3.987538528442382812e+01 -2.395681762695312500e+01 1.723230719566345215e+00 8.032894134521484375e+00 2.926837444305419922e+00 -5.512913465499877930e-01
1.359000000000000000e+03 4.401966094970703125e+01 -2.289111900329589844e+01 1.615040898323059082e+00 1.106293010711669922e+01 3.803391456604003906e+00 -1.653470873832702637e+00
1.360000000000000000e+03 3.837468338012695312e+01 1.296454524993896484e+01 9.929403662681579590e-01 9.726604461669921875e+00 3.215863466262817383e+00 1.078994393348693848e+00
1.361000000000000000e+03 6.651185607910156250e+01 1.412888908386230469e+01 1.035050749778747559e+00 7.918663024902343750e+00 2.686114072799682617e+00 -3.443581759929656982e-01
1.362000000000000000e+03 6.534629821777343750e+01 1.571965217590332031e+01 1.165560722351074219e+00 8.374290466308593750e+00 2.861955165863037109e+00 -4.405033290386199951e-01
1.363000000000000000e+03 5.332522583007812500e+01 -3.516703414916992188e+01 1.127205640077590942e-01 1.115015149116516113e+00 3.683207035064697266e-01 -1.123621702194213867e+00
1.364000000000000000e+03 3.511018753051757812e+01 2.279359340667724609e+00 3.293869733810424805e+00 1.315050411224365234e+01 4.933311939239501953e+00 1.190720200538635254e+00
1.365000000000000000e+03 6.122867965698242188e+01 -3.216392135620117188e+01 -6.874248981475830078e-01 4.552706480026245117e-01 -6.964628398418426514e-02 1.501131057739257812e-01
1.366000000000000000e+03 1.559867858886718750e+01 9.064425468444824219e+00 2.988793130498379469e-04 4.276097752153873444e-03 1.372493105009198189e-03 4.713608941528946161e-04
1.367000000000000000e+03 1.591563606262207031e+01 4.114164352416992188e+00 1.184691558592021465e-03 8.873423794284462929e-04 6.216101464815437794e-04 1.725775655359029770e-04
1.368000000000000000e+03 3.708541488647460938e+01 -1.284215354919433594e+01 5.163395404815673828e-01 9.210851669311523438e+00 2.918157339096069336e+00 -1.376082181930541992e+00
1.369000000000000000e+03 6.304922103881835938e+01 4.254530906677246094e+00 7.364252805709838867e-01 5.850782871246337891e+00 1.976162552833557129e+00 7.309594154357910156e-01
1.370000000000000000e+03 5.776445007324218750e+01 -3.576950073242187500e+01 4.710097908973693848e-01 4.660684764385223389e-01 2.811234891414642334e-01 -2.702094614505767822e-01
1.371000000000000000e+03 5.508797073364257812e+01 -3.289048004150390625e+01 -4.223395586013793945e-01 -8.884031325578689575e-03 -1.293670833110809326e-01 -8.482457399368286133e-01
1.372000000000000000e+03 4.190104293823242188e+01 1.476161956787109375e+01 1.520152091979980469e+00 5.282567501068115234e+00 2.040815830230712891e+00 2.521841049194335938e+00
1.373000000000000000e+03 6.496027374267578125e+01 8.324119567871093750e+00 7.925922870635986328e-01 7.546132564544677734e+00 2.501617431640625000e+00 1.589652299880981445e-01
1.374000000000000000e+03 6.312771224975585938e+01 9.331265449523925781e+00 6.803679466247558594e-01 8.426433563232421875e+00 2.732040643692016602e+00 8.203012347221374512e-01
1.375000000000000000e+03 6.088368988037109375e+01 -3.586871337890625000e+01 5.095041990280151367e-01 1.052603602409362793e+00 4.686323106288909912e-01 1.938630789518356323e-01
1.376000000000000000e+03 7.042034912109375000e+01 -2.393287086486816406e+01 -2.268353849649429321e-01 8.560142517089843750e+00 2.499992132186889648e+00 4.410864710807800293e-01
1.377000000000000000e+03 5.932147216796875000e+01 -4.789951145648956299e-01 1.244860410690307617e+00 2.860376358032226562e+00 1.231570959091186523e+00 1.490647554397583008e+00
1.378000000000000000e+03 4.751244354248046875e+01 2.384988784790039062e+01 -5.785159394145011902e-02 2.087754249572753906e+00 6.089707612991333008e-01 1.387062191963195801e+00
1.379000000000000000e+03 4.717196273803710938e+01 2.223415374755859375e+01 -8.818680793046951294e-02 2.038667678833007812e+00 5.851442813873291016e-01 1.386282920837402344e+00
1.380000000000000000e+03 3.148402595520019531e+01 -3.099606704711914062e+01 -3.280524015426635742e-01 2.280637025833129883e+00 5.857753753662109375e-01 1.237229228019714355e+00
1.381000000000000000e+03 2.934355545043945312e+01 -3.072419929504394531e+01 -4.656721353530883789e-01 9.770958423614501953e-01 1.534271091222763062e-01 8.411023616790771484e-01
1.382000000000000000e+03 5.780576324462890625e+01 -2.876920223236083984e+00 1.192007899284362793e+00 2.132808446884155273e+00 9.974448680877685547e-01 1.349939465522766113e+00
1.383000000000000000e+03 3.806683349609375000e+01 -1.699063682556152344e+01 1.267336606979370117e+00 9.515113830566406250e+00 3.234735250473022461e+00 -1.530439138412475586e+00
1.384000000000000000e+03 3.782517623901367188e+01 -1.556142711639404297e+01 1.175553679466247559e+00 9.485472679138183594e+00 3.198307752609252930e+00 -1.684735894203186035e+00
1.385000000000000000e+03 3.728076934814453125e+01 8.319676399230957031e+00 1.653909087181091309e+00 1.387975311279296875e+01 4.660098552703857422e+00 8.778175711631774902e-01
1.386000000000000000e+03 4.609989166259765625e+01 2.102406883239746094e+01 7.890514284372329712e-02 2.413938283920288086e+00 7.478530406951904297e-01 1.413600206375122070e+00
1.387000000000000000e+03 5.869630813598632812e+01 -3.245406341552734375e+01 -7.816660404205322266e-01 -1.233996003866195679e-01 -2.715196907520294189e-01 -2.757951617240905762e-01
1.388000000000000000e+03 2.737445259094238281e+01 -3.487923049926757812e+01 -1.880371719598770142e-01 9.478232264518737793e-01 2.279358208179473877e-01 4.995801150798797607e-01
1.389000000000000000e+03 6.508963012695312500e+01 1.292556285858154297e+01 7.825869917869567871e-01 8.690094947814941406e+00 2.841804504394531250e+00 -2.021712958812713623e-01
1.390000000000000000e+03 1.191613578796386719e+01 -1.530824756622314453e+01 1.253443241119384766e+00 2.355219364166259766e+00 1.082598805427551270e+00 5.153546929359436035e-01
1.391000000000000000e+03 1.084478187561035156e+01 -1.840530014038085938e+01 7.706198096275329590e-01 1.839278101921081543e+00 7.829693555831909180e-01 4.579525887966156006e-01
1.392000000000000000e+03 3.920106124877929688e+01 1.389782905578613281e+01 8.114429116249084473e-01 8.497927665710449219e+00 2.792811155319213867e+00 1.465073823928833008e+00
1.393000000000000000e+03 4.497475051879882812e+01 -1.433868217468261719e+01 5.387221574783325195e-01 5.744534015655517578e+00 1.884976863861083984e+00 6.216773390769958496e-01
1.394000000000000000e+03 4.414371490478515625e+01 -1.825384712219238281e+01 1.882215619087219238e+00 8.334731101989746094e+00 3.065083980560302734e+00 -4.510479047894477844e-02
1.395000000000000000e+03 4.537903213500976562e+01 -6.797595500946044922e+00 -1.469294190406799316e+00 1.374587655067443848e+00 -2.841196395456790924e-02 -2.533009648323059082e-01
1.396000000000000000e+03 5.394045639038085938e+01 -5.312654018402099609e+00 3.002719581127166748e-01 1.957012295722961426e+00 6.771852374076843262e-01 1.525072216987609863e+00
1.397000000000000000e+03 5.570425415039062500e+01 -6.405633926391601562e+00 -3.632358834147453308e-02 1.730568289756774902e+00 5.082734227180480957e-01 1.440721988677978516e+00
1.398000000000000000e+03 3.005246925354003906e+01 2.305215835571289062e+01 1.346230357885360718e-01 4.528284549713134766e+00 1.398872375488281250e+00 -1.407495856285095215e+00
1.399000000000000000e+03 3.189006233215332031e+01 2.038499259948730469e+01 1.018888592720031738e+00 6.432036399841308594e+00 2.235277414321899414e+00 -1.463348507881164551e+00
1.400000000000000000e+03 6.524133300781250000e+01 1.141568565368652344e+01 8.308593034744262695e-01 8.345220565795898438e+00 2.752823829650878906e+00 -6.452128291130065918e-02
1.401000000000000000e+03 2.452255630493164062e+01 -3.542838811874389648e+00 7.336977720260620117e-01 1.314852833747863770e-01 2.595549225807189941e-01 1.552405834197998047e+00
1.402000000000000000e+03 1.694579124450683594e+01 -2.817875671386718750e+01 -4.361661970615386963e-01 8.794647455215454102e-01 1.329895704984664917e-01 -1.358921974897384644e-01
1.403000000000000000e+03 3.642305374145507812e+01 3.285648822784423828e+00 2.655122756958007812e+00 1.347575092315673828e+01 4.839262008666992188e+00 3.188665807247161865e-01
1.404000000000000000e+03 3.625831985473632812e+01 2.158596992492675781e+00 2.514960765838623047e+00 1.303112888336181641e+01 4.663826942443847656e+00 -5.591400712728500366e-02
1.405000000000000000e+03 2.884905815124511719e+01 -3.317882919311523438e+01 -2.954090535640716553e-01 1.185273766517639160e+00 2.669593989849090576e-01 8.052828907966613770e-01
1.406000000000000000e+03 2.343283653259277344e+01 -3.270362472534179688e+01 -4.845418632030487061e-01 4.565741866827011108e-02 -1.316653341054916382e-01 -8.563406020402908325e-02
1.407000000000000000e+03 3.677144241333007812e+01 -1.139825344085693359e+01 -7.252291440963745117e-01 9.126506805419921875e+00 2.520383358001708984e+00 -1.047257781028747559e+00
1.408000000000000000e+03 4.859984588623046875e+01 -3.266560745239257812e+01 -3.419186472892761230e-01 3.955840826034545898e+00 1.084176659584045410e+00 -1.979945421218872070e+00
1.409000000000000000e+03 3.840413665771484375e+01 -2.290203666687011719e+01 1.599049925804138184e+00 8.211155891418457031e+00 2.943061590194702148e+00 -2.417420893907546997e-01
1.410000000000000000e+03 3.346183013916015625e+01 2.084902381896972656e+01 4.264472424983978271e-01 6.575666427612304688e+00 2.100634098052978516e+00 -7.788193821907043457e-01
1.411000000000000000e+03 4.184906768798828125e+01 -2.200341987609863281e+01 2.015865564346313477e+00 8.897154808044433594e+00 3.273905992507934570e+00 -1.119985342025756836e+00
1.412000000000000000e+03 3.321829223632812500e+01 -6.407005310058593750e+00 -2.360969305038452148e+00 5.590254306793212891e+00 9.687855839729309082e-01 -9.421483874320983887e-01
1.413000000000000000e+03 6.386167144775390625e+01 2.041689109802246094e+01 7.846822738647460938e-01 7.460234165191650391e+00 2.473474979400634766e+00 -4.487964510917663574e-01
1.414000000000000000e+03 3.474818801879882812e+01 -8.078241348266601562e+00 -2.919991493225097656e+00 8.162882804870605469e+00 1.572867512702941895e+00 -1.139007925987243652e+00
1.415000000000000000e+03 1.321980094909667969e+01 1.288142395019531250e+01 5.545542575418949127e-03 5.453241057693958282e-03 3.299635136500000954e-03 4.182626027613878250e-03
1.416000000000000000e+03 1.195468330383300781e+01 1.298430061340332031e+01 -5.912329070270061493e-03 -5.298033356666564941e-03 -3.363108728080987930e-03 9.092357940971851349e-04
1.417000000000000000e+03 6.256568908691406250e+01 -3.148639678955078125e+01 -8.340579867362976074e-01 1.060646176338195801e+00 6.797645241022109985e-02 4.332934617996215820e-01
1.418000000000000000e+03 2.751083755493164062e+01 -6.828164577484130859e+00 -1.748191356658935547e+00 3.134557306766510010e-01 -4.304206669330596924e-01 1.737333655357360840e+00
1.419000000000000000e+03 2.865526771545410156e+01 -6.906957149505615234e+00 -1.994868278503417969e+00 -4.336613714694976807e-01 -7.285588979721069336e-01 1.876666307449340820e+00
1.420000000000000000e+03 6.500084686279296875e+01 -2.959504699707031250e+01 -9.040744304656982422e-01 2.543124675750732422e+00 4.917151033878326416e-01 6.914321780204772949e-01
1.421000000000000000e+03 3.826693725585937500e+01 8.291023254394531250e+00 1.919474601745605469e+00 1.419485664367675781e+01 4.834299564361572266e+00 1.526477098464965820e+00
1.422000000000000000e+03 3.655636215209960938e+01 1.147369670867919922e+01 9.598338007926940918e-01 1.150648784637451172e+01 3.739896535873413086e+00 -3.392843306064605713e-01
1.423000000000000000e+03 3.715238571166992188e+01 1.027322769165039062e+01 1.436684966087341309e+00 1.250440597534179688e+01 4.182327270507812500e+00 4.819841980934143066e-01
1.424000000000000000e+03 4.932032394409179688e+01 -3.143442726135253906e+01 1.358652561902999878e-01 3.414335012435913086e+00 1.065060138702392578e+00 -2.341479778289794922e+00
1.425000000000000000e+03 4.608571243286132812e+01 -3.367051696777343750e+01 -8.910481929779052734e-01 5.367214202880859375e+00 1.342849731445312500e+00 -1.291743159294128418e+00
1.426000000000000000e+03 4.710538864135742188e+01 -3.199701499938964844e+01 -3.891405165195465088e-01 5.288361072540283203e+00 1.469766139984130859e+00 -1.906814336776733398e+00
1.427000000000000000e+03 6.419013977050781250e+01 -1.036239337921142578e+01 -1.476515412330627441e+00 -2.344186455011367798e-01 -5.132802128791809082e-01 -9.725020527839660645e-01
1.428000000000000000e+03 2.100280570983886719e+01 4.682425975799560547e+00 1.385201358061749488e-05 -2.025247813435271382e-04 -5.660182796418666840e-05 1.640754489926621318e-04
1.429000000000000000e+03 7.193669891357421875e+01 -1.985456085205078125e+01 -1.070563793182373047e-01 1.232150554656982422e+01 3.664334535598754883e+00 7.911815494298934937e-02
1.430000000000000000e+03 1.753484153747558594e+01 -8.873375892639160156e+00 7.729634046554565430e-01 1.449587464332580566e+00 6.667652726173400879e-01 1.098132610321044922e+00
1.431000000000000000e+03 1.741916275024414062e+01 -1.087081527709960938e+01 1.772868871688842773e+00 1.827573776245117188e+00 1.080132842063903809e+00 1.382810831069946289e+00
1.432000000000000000e+03 6.462923431396484375e+01 5.409141063690185547e+00 6.921542286872863770e-01 6.454743385314941406e+00 2.144069194793701172e+00 1.193952858448028564e-01
1.433000000000000000e+03 4.162900924682617188e+01 -5.471747398376464844e+00 -2.525506019592285156e+00 6.039724826812744141e+00 1.054265618324279785e+00 -2.063053607940673828e+00
1.434000000000000000e+03 4.306126022338867188e+01 -6.857157707214355469e+00 -1.857368230819702148e+00 4.188315391540527344e+00 6.992840766906738281e-01 -1.388918042182922363e+00
1.435000000000000000e+03 6.278699874877929688e+01 2.448049163818359375e+01 -6.026336550712585449e-01 5.989738464355468750e+00 1.616131424903869629e+00 -1.126200914382934570e+00
1.436000000000000000e+03 6.244356918334960938e+01 2.605316925048828125e+01 -5.197028517723083496e-01 5.266773223876953125e+00 1.424121022224426270e+00 -1.222240090370178223e+00
1.437000000000000000e+03 2.766059112548828125e+01 2.572683525085449219e+01 -1.055835653096437454e-02 2.725129127502441406e+00 8.143712282180786133e-01 -1.347558140754699707e+00
1.438000000000000000e+03 5.174687957763671875e+01 -6.893284797668457031e+00 -9.903680682182312012e-01 1.252755284309387207e+00 7.871615886688232422e-02 2.126801729202270508e+00
1.439000000000000000e+03 2.421888732910156250e+01 2.703672790527343750e+01 2.085744738578796387e-01 1.147183179855346680e+00 4.067272841930389404e-01 -9.241046905517578125e-01
1.440000000000000000e+03 2.211113548278808594e+01 2.712102890014648438e+01 1.734404563903808594e-01 6.142327189445495605e-01 2.363019436597824097e-01 -5.114883780479431152e-01
1.441000000000000000e+03 4.036073684692382812e+01 -5.572508811950683594e+00 -2.376151800155639648e+00 7.825932025909423828e+00 1.634934186935424805e+00 -2.142678499221801758e+00
1.442000000000000000e+03 3.774044036865234375e+01 -2.613751029968261719e+01 9.499083161354064941e-01 6.973021507263183594e+00 2.376878976821899414e+00 4.844917953014373779e-01
1.443000000000000000e+03 6.913239288330078125e+01 -2.609572219848632812e+01 -7.773715853691101074e-01 6.836682319641113281e+00 1.817793250083923340e+00 6.140427589416503906e-01
1.444000000000000000e+03 7.006664276123046875e+01 -2.547265625000000000e+01 -7.774611115455627441e-01 7.693740367889404297e+00 2.074883699417114258e+00 3.777596652507781982e-01
1.445000000000000000e+03 4.537174606323242188e+01 -5.622438430786132812e+00 -2.528890132904052734e+00 5.490732789039611816e-01 -5.939450860023498535e-01 2.009485661983489990e-01
1.446000000000000000e+03 6.714022064208984375e+01 -1.070024871826171875e+01 -2.224527835845947266e+00 3.658490896224975586e+00 4.301889240741729736e-01 -2.307051420211791992e+00
1.447000000000000000e+03 1.542195320129394531e+01 2.402649497985839844e+01 -2.413710504770278931e-01 7.029858231544494629e-02 -5.132174119353294373e-02 8.707781881093978882e-02
1.448000000000000000e+03 5.365742492675781250e+01 -1.341509437561035156e+01 -1.033933639526367188e+00 2.493509650230407715e-01 -2.353748083114624023e-01 7.421095371246337891e-01
1.449000000000000000e+03 3.802493667602539062e+01 -1.569613099098205566e+00 6.897327303886413574e-01 1.107783889770507812e+01 3.530271530151367188e+00 -1.521504998207092285e+00
1.450000000000000000e+03 3.855242538452148438e+01 -2.853888750076293945e+00 -5.559925436973571777e-01 1.025871562957763672e+01 2.910816907882690430e+00 -1.672470569610595703e+00
1.451000000000000000e+03 6.600332641601562500e+01 1.809073066711425781e+01 1.190086603164672852e+00 7.720435142517089844e+00 2.673156499862670898e+00 -3.126300573348999023e-01
1.452000000000000000e+03 4.322405242919921875e+01 -2.474463081359863281e+01 2.112867116928100586e+00 9.340481758117675781e+00 3.436004638671875000e+00 -1.341629624366760254e+00
1.453000000000000000e+03 4.346597671508789062e+01 -2.616505622863769531e+01 1.854762196540832520e+00 8.732896804809570312e+00 3.176297664642333984e+00 -1.228619337081909180e+00
1.454000000000000000e+03 1.550477027893066406e+01 -1.045472145080566406e+01 1.103954911231994629e+00 2.015589952468872070e+00 9.358634352684020996e-01 7.504760026931762695e-01
1.455000000000000000e+03 5.710631179809570312e+01 -1.158608245849609375e+01 -1.820859670639038086e+00 6.951053142547607422e-01 -3.377262949943542480e-01 5.686884522438049316e-01
1.456000000000000000e+03 5.636872863769531250e+01 -1.304274654388427734e+01 -1.844807744026184082e+00 2.990159690380096436e-01 -4.637375175952911377e-01 3.087517321109771729e-01
1.457000000000000000e+03 1.352102184295654297e+01 -2.181076812744140625e+01 3.333114683628082275e-01 2.726825475692749023e+00 9.180411100387573242e-01 1.348810046911239624e-01
1.458000000000000000e+03 3.466801452636718750e+01 -2.890935325622558594e+01 -8.476492762565612793e-02 4.586787700653076172e+00 1.350606799125671387e+00 1.221889257431030273e+00
1.459000000000000000e+03 6.132425689697265625e+01 2.364188766479492188e+01 -4.375168681144714355e-01 5.276870727539062500e+00 1.451806187629699707e+00 -1.927905082702636719e+00
1.460000000000000000e+03 5.597004318237304688e+01 2.598485946655273438e+01 3.934164941310882568e-01 1.387845158576965332e+00 5.343784689903259277e-01 -5.358244776725769043e-01
1.461000000000000000e+03 3.600116348266601562e+01 1.366261577606201172e+01 7.066558599472045898e-01 1.007876300811767578e+01 3.235625505447387695e+00 -7.368412017822265625e-01
1.462000000000000000e+03 3.664852142333984375e+01 1.054389715194702148e+00 2.522536993026733398e+00 1.246492004394531250e+01 4.496237277984619141e+00 -7.110500335693359375e-01
1.463000000000000000e+03 5.457440567016601562e+01 -1.198925781250000000e+01 -1.147680044174194336e+00 5.343664288520812988e-01 -1.839940994977951050e-01 1.040268540382385254e+00
1.464000000000000000e+03 3.323056793212890625e+01 2.228231430053710938e+01 1.316628754138946533e-01 5.985573768615722656e+00 1.835170984268188477e+00 -6.468007564544677734e-01
1.465000000000000000e+03 3.483122634887695312e+01 2.277005958557128906e+01 -1.869645267724990845e-01 5.933032512664794922e+00 1.723820447921752930e+00 -5.232624709606170654e-02
1.466000000000000000e+03 2.966921424865722656e+01 -1.880342721939086914e+00 2.633997917175292969e+00 1.910536170005798340e+00 1.363360285758972168e+00 1.939005017280578613e+00
1.467000000000000000e+03 1.319156169891357422e+01 -1.137232017517089844e+01 1.112515091896057129e+00 1.831742644309997559e+00 8.832772970199584961e-01 2.561592757701873779e-01
1.468000000000000000e+03 6.069762802124023438e+01 2.543290519714355469e+01 -2.685736119747161865e-01 4.207156181335449219e+00 1.181574821472167969e+00 -1.589749813079833984e+00
1.469000000000000000e+03 5.822011184692382812e+01 2.582651901245117188e+01 2.514333128929138184e-01 2.292064428329467773e+00 7.630493044853210449e-01 -1.275126099586486816e+00
1.470000000000000000e+03 1.145136547088623047e+01 1.970585250854492188e+01 -1.238777264952659607e-01 2.918240986764431000e-02 -2.840859442949295044e-02 -6.006837822496891022e-03
1.471000000000000000e+03 4.936738967895507812e+00 -4.054750442504882812e+01 -6.340833753347396851e-02 4.296116232872009277e-01 1.098609864711761475e-01 4.261118546128273010e-02
1.472000000000000000e+03 8.120135307312011719e+00 -4.122751998901367188e+01 -1.315739750862121582e-01 4.902354478836059570e-01 1.075984463095664978e-01 2.345689572393894196e-02
1.473000000000000000e+03 4.463877868652343750e+01 -1.734148597717285156e+01 1.293331503868103027e+00 8.478129386901855469e+00 2.931438207626342773e+00 2.260149270296096802e-01
1.474000000000000000e+03 3.966555404663085938e+01 -1.789441490173339844e+01 1.581355929374694824e+00 8.765315055847167969e+00 3.104001283645629883e+00 -1.266756057739257812e+00
1.475000000000000000e+03 4.790015220642089844e+00 4.042825698852539062e+01 2.366518974304199219e-02 -2.432644963264465332e-01 -6.587979197502136230e-02 4.025911912322044373e-02
1.476000000000000000e+03 6.934275054931640625e+01 -1.380972957611083984e+01 -2.617832124233245850e-01 7.599958896636962891e+00 2.201452732086181641e+00 -3.346144199371337891e+00
1.477000000000000000e+03 6.916772460937500000e+01 -1.457371997833251953e+01 1.554807305335998535e+00 6.199785232543945312e+00 2.326377868652343750e+00 -4.005046367645263672e+00
1.478000000000000000e+03 7.102649688720703125e+01 -1.901536560058593750e+01 -4.167965054512023926e-01 1.375910949707031250e+01 4.002693653106689453e+00 1.260701894760131836e+00
1.479000000000000000e+03 6.997834777832031250e+01 -1.851507377624511719e+01 -2.704647779464721680e-01 1.172721862792968750e+01 3.437026262283325195e+00 3.564247846603393555e+00
1.480000000000000000e+03 7.239830017089843750e+01 -1.849079895019531250e+01 1.501423239707946777e+00 1.306230640411376953e+01 4.369118690490722656e+00 -1.463790893554687500e+00
1.481000000000000000e+03 6.848288726806640625e+01 -1.230828952789306641e+01 -1.432057619094848633e+00 5.805717945098876953e+00 1.312098145484924316e+00 -2.573503971099853516e+00
1.482000000000000000e+03 1.801148414611816406e+01 5.041724205017089844e+00 -7.856921874918043613e-04 -1.123724156059324741e-03 -5.728249088861048222e-04 -3.478898142930120230e-04
1.483000000000000000e+03 1.365952110290527344e+01 4.917807579040527344e+00 2.589104231446981430e-03 2.029742026934400201e-04 8.376235491596162319e-04 -3.213233139831572771e-04
1.484000000000000000e+03 1.532586669921875000e+01 3.154454946517944336e+00 -1.598404560354538262e-05 -8.428798755630850792e-04 -2.576591796241700649e-04 1.222367514856159687e-03
1.485000000000000000e+03 8.570009231567382812e+00 -3.351765871047973633e+00 -6.010736823081970215e-01 6.414909660816192627e-02 -1.610773652791976929e-01 -4.833802878856658936e-01
1.486000000000000000e+03 9.895013809204101562e+00 -4.819947242736816406e+00 -3.942373096942901611e-01 2.397895008325576782e-01 -4.633434116840362549e-02 -4.795113503932952881e-01
1.487000000000000000e+03 1.349533176422119141e+01 3.897917985916137695e+00 9.592378046363592148e-04 -1.379291759803891182e-03 -1.260161952814087272e-04 1.488797366619110107e-03
1.488000000000000000e+03 7.665891647338867188e+00 -4.095991134643554688e+00 -4.125093817710876465e-01 3.905140608549118042e-02 -1.120373904705047607e-01 -5.618129968643188477e-01
1.489000000000000000e+03 5.826911926269531250e+00 -3.240633964538574219e+00 -3.950852155685424805e-01 -5.240398272871971130e-02 -1.342467516660690308e-01 -4.852514863014221191e-01
1.490000000000000000e+03 3.981657981872558594e+00 -3.525563240051269531e+00 -1.992468237876892090e-01 -1.758985668420791626e-01 -1.125436127185821533e-01 -4.169954061508178711e-01
1.491000000000000000e+03 4.321508884429931641e+00 -4.231958389282226562e+00 -1.931800693273544312e-01 -1.882949024438858032e-01 -1.144424900412559509e-01 -4.972268939018249512e-01
1.492000000000000000e+03 9.191654205322265625e+00 -4.103679656982421875e+00 -5.000974535942077637e-01 1.313342452049255371e-01 -1.106289625167846680e-01 -4.997587203979492188e-01
1.493000000000000000e+03 7.503901481628417969e+00 -4.821872234344482422e+00 -2.970553636550903320e-01 2.857761271297931671e-02 -8.054332435131072998e-02 -6.045331954956054688e-01
1.494000000000000000e+03 3.278232812881469727e+00 -3.743848562240600586e+00 -1.572406589984893799e-01 -2.074106037616729736e-01 -1.093953773379325867e-01 -3.772625923156738281e-01
1.495000000000000000e+03 5.930726528167724609e+00 -4.848123073577880859e+00 -2.242550700902938843e-01 -1.023049652576446533e-01 -9.796801209449768066e-02 -6.026965379714965820e-01
1.496000000000000000e+03 2.564129590988159180e+00 -6.148944377899169922e+00 -2.929635159671306610e-02 -4.948330521583557129e-01 -1.572388112545013428e-01 -4.181886613368988037e-01
1.497000000000000000e+03 1.084622955322265625e+01 -3.294652938842773438e+00 -7.455448508262634277e-01 1.398982554674148560e-01 -1.816939711570739746e-01 -3.416521251201629639e-01
1.498000000000000000e+03 1.767536544799804688e+01 3.927607297897338867e+00 -4.447040555533021688e-04 -1.028494676575064659e-03 -4.419596225488930941e-04 -5.601384600595338270e-06
1.499000000000000000e+03 1.727091407775878906e+01 4.737390518188476562e+00 3.224947431590408087e-04 1.950033474713563919e-03 6.817584508098661900e-04 7.277925033122301102e-05
1.500000000000000000e+03 1.280637550354003906e+01 4.041074752807617188e+00 1.449871459044516087e-03 7.780800806358456612e-04 6.683854735456407070e-04 -1.126790957641787827e-04
1.501000000000000000e+03 1.268398571014404297e+01 3.290874481201171875e+00 -1.315929112024605274e-04 -8.862754912115633488e-04 -3.053605323657393456e-04 1.619698363356292248e-03
1.502000000000000000e+03 1.123934650421142578e+01 4.774693012237548828e+00 -1.151192467659711838e-03 -8.084801957011222839e-04 -5.879017990082502365e-04 1.567604835145175457e-03
1.503000000000000000e+03 1.044791698455810547e+01 4.037005901336669922e+00 -3.427051706239581108e-04 -1.133119687438011169e-03 -4.427474632393568754e-04 1.033780048601329327e-03
1.504000000000000000e+03 9.976732254028320312e+00 -4.071645736694335938e+00 -5.382364392280578613e-01 1.690426617860794067e-01 -1.107581406831741333e-01 -4.471046924591064453e-01
1.505000000000000000e+03 1.389253711700439453e+01 -3.242336034774780273e+00 -7.894719839096069336e-01 2.504183650016784668e-01 -1.617160737514495850e-01 3.248929232358932495e-02
1.506000000000000000e+03 1.529785633087158203e+01 -4.085383415222167969e+00 -5.287286043167114258e-01 4.958234131336212158e-01 -9.871569462120532990e-03 3.135778605937957764e-01
1.507000000000000000e+03 7.329849720001220703e+00 3.454476594924926758e+00 2.027293900027871132e-03 7.850336260162293911e-05 6.317391525954008102e-04 -7.295011309906840324e-04
1.508000000000000000e+03 1.075906562805175781e+01 -4.026463031768798828e+00 -5.835086107254028320e-01 2.138831615447998047e-01 -1.108876243233680725e-01 -3.694964945316314697e-01
1.509000000000000000e+03 1.375772762298583984e+01 -3.943382501602172852e+00 -6.244239211082458496e-01 3.890521824359893799e-01 -7.061151415109634399e-02 2.860248088836669922e-02
1.510000000000000000e+03 4.796257495880126953e+00 6.959478378295898438e+00 1.623212709091603756e-03 -2.229844918474555016e-03 -1.819896424422040582e-04 -7.602401310577988625e-04
1.511000000000000000e+03 8.875133514404296875e+00 3.356737375259399414e+00 2.009886316955089569e-03 1.385349896736443043e-04 6.445263861678540707e-04 -2.237158769275993109e-04
1.512000000000000000e+03 7.407801628112792969e+00 4.228188514709472656e+00 1.920951472129672766e-04 -1.549344509840011597e-03 -4.071747825946658850e-04 1.157973310910165310e-04
1.513000000000000000e+03 6.045875072479248047e+00 5.331057071685791016e+00 2.179582603275775909e-03 -4.712562076747417450e-04 5.124979070387780666e-04 -1.429814030416309834e-03
1.514000000000000000e+03 8.924471855163574219e+00 4.072608947753906250e+00 1.963227841770276427e-04 -1.573373680002987385e-03 -4.131152527406811714e-04 6.482562748715281487e-04
1.515000000000000000e+03 6.254775047302246094e+00 6.101787567138671875e+00 -4.332829848863184452e-05 -1.906608580611646175e-03 -5.849810549989342690e-04 -4.311226657591760159e-04
1.516000000000000000e+03 4.972167968750000000e+00 3.826612710952758789e+00 2.635268901940435171e-04 -9.159502224065363407e-04 -1.957269851118326187e-04 -5.042638513259589672e-04
1.517000000000000000e+03 2.486296415328979492e+00 5.425477981567382812e+00 9.193997830152511597e-04 7.430862751789391041e-04 4.987458232790231705e-04 -1.795221352949738503e-03
1.518000000000000000e+03 3.047177314758300781e+00 6.112588882446289062e+00 2.427269704639911652e-03 1.024429686367511749e-03 1.035509747453033924e-03 -7.860893965698778629e-04
1.519000000000000000e+03 2.872380495071411133e+00 3.963473081588745117e+00 -4.809325619135051966e-04 3.861130971927195787e-05 -1.326963683823123574e-04 -1.086326665244996548e-03
1.520000000000000000e+03 1.706867980957031250e+01 -3.324824810028076172e+00 -5.504027605056762695e-01 3.691779673099517822e-01 -5.436743795871734619e-02 5.727398991584777832e-01
1.521000000000000000e+03 2.127765655517578125e+01 -2.599695205688476562e+00 -5.717222113162279129e-03 3.057885468006134033e-01 9.002139419317245483e-02 9.685448408126831055e-01
1.522000000000000000e+03 9.683166503906250000e+00 4.037345409393310547e+00 2.183211501687765121e-03 -2.743125151027925313e-06 6.541404873132705688e-04 1.374960556859150529e-04
1.523000000000000000e+03 1.790726852416992188e+01 -4.086560726165771484e+00 -3.096264898777008057e-01 5.026301741600036621e-01 5.790110304951667786e-02 8.094480633735656738e-01
1.524000000000000000e+03 1.226278305053710938e+01 -3.935537338256835938e+00 -6.327286958694458008e-01 3.034783601760864258e-01 -9.877510368824005127e-02 -1.900628656148910522e-01
1.525000000000000000e+03 1.300604915618896484e+01 -3.939873695373535156e+00 -6.240801215171813965e-01 3.042967021465301514e-01 -9.593503177165985107e-02 -9.363453835248947144e-02
1.526000000000000000e+03 2.211075592041015625e+01 -3.086977958679199219e+00 2.190667092800140381e-01 2.625510394573211670e-01 1.444853246212005615e-01 1.149363279342651367e+00
1.527000000000000000e+03 2.362893104553222656e+01 -2.071018457412719727e+00 6.235552430152893066e-01 -1.657416112720966339e-02 1.820943355560302734e-01 9.642717242240905762e-01
1.528000000000000000e+03 2.067850494384765625e+01 -3.657614946365356445e+00 -4.635469242930412292e-02 4.088952243328094482e-01 1.087621524930000305e-01 1.110502600669860840e+00
1.529000000000000000e+03 1.610386466979980469e+01 -4.223614215850830078e+00 -4.405435323715209961e-01 5.030986070632934570e-01 1.876652054488658905e-02 4.815436005592346191e-01
1.530000000000000000e+03 1.884081268310546875e+01 -3.967550754547119141e+00 -2.358427941799163818e-01 4.924959540367126465e-01 7.699594646692276001e-02 9.147802591323852539e-01
1.531000000000000000e+03 1.976278114318847656e+01 -3.807527780532836914e+00 -1.506904065608978271e-01 4.349119365215301514e-01 8.526645600795745850e-02 1.022881269454956055e+00
1.532000000000000000e+03 7.058872985839843750e+01 -2.164756774902343750e+01 1.745582818984985352e-01 9.835557937622070312e+00 3.003034830093383789e+00 1.041760444641113281e+00
1.533000000000000000e+03 2.298511695861816406e+01 -6.547274589538574219e+00 4.848353192210197449e-02 5.379975438117980957e-01 1.759443134069442749e-01 1.378318428993225098e+00
1.534000000000000000e+03 2.523834419250488281e+01 -7.149565696716308594e+00 -4.196220636367797852e-01 5.506752133369445801e-01 3.931595385074615479e-02 1.401247501373291016e+00
1.535000000000000000e+03 2.465467834472656250e+01 -4.362139225006103516e+00 4.258752465248107910e-01 1.878453046083450317e-01 1.841161698102951050e-01 1.662918210029602051e+00
1.536000000000000000e+03 7.487430572509765625e+01 -1.622432708740234375e+01 2.248942852020263672e+00 9.530653953552246094e+00 3.533879041671752930e+00 3.239963054656982422e-01
1.537000000000000000e+03 7.275947570800781250e+01 -1.624853706359863281e+01 4.896965980529785156e+00 1.185641670227050781e+01 5.026014804840087891e+00 4.432592988014221191e-01
1.538000000000000000e+03 7.505853271484375000e+01 -1.940209579467773438e+01 7.602475881576538086e-01 9.840858459472656250e+00 3.180331707000732422e+00 -1.316100001335144043e+00
1.539000000000000000e+03 7.613997650146484375e+01 -1.946557807922363281e+01 4.511488378047943115e-01 8.991891860961914062e+00 2.832912206649780273e+00 -1.245792746543884277e+00
1.540000000000000000e+03 7.301419830322265625e+01 -1.763607025146484375e+01 2.902069807052612305e+00 1.215662002563476562e+01 4.517606735229492188e+00 -1.504294276237487793e+00
1.541000000000000000e+03 1.024349308013916016e+01 1.518940544128417969e+01 -1.851473003625869751e-02 -1.104385685175657272e-02 -8.867575787007808685e-03 -6.328651215881109238e-03
1.542000000000000000e+03 5.914701461791992188e+01 -1.084025955200195312e+01 -2.073201894760131836e+00 7.350693941116333008e-01 -4.014397561550140381e-01 5.548840165138244629e-01
1.543000000000000000e+03 5.707926559448242188e+01 -6.941954135894775391e+00 -2.928267717361450195e-01 1.544267654418945312e+00 3.754322528839111328e-01 1.198520183563232422e+00
1.544000000000000000e+03 2.718630790710449219e+01 -2.762196063995361328e+00 1.926634311676025391e+00 1.111141592264175415e-01 6.113245487213134766e-01 1.712658047676086426e+00
1.545000000000000000e+03 2.739173126220703125e+01 -1.568426609039306641e+00 2.316593647003173828e+00 -1.265029460191726685e-01 6.570272445678710938e-01 9.922061562538146973e-01
1.546000000000000000e+03 2.753148078918457031e+01 -5.605914115905761719e+00 -2.716955840587615967e-01 1.418756842613220215e-01 -3.894596546888351440e-02 2.094491243362426758e+00
1.547000000000000000e+03 2.981400108337402344e+01 -5.943169593811035156e+00 -6.639935970306396484e-01 8.469707369804382324e-01 5.489313602447509766e-02 1.200443863868713379e+00
1.548000000000000000e+03 2.066914176940917969e+01 -5.543022155761718750e+00 1.212357059121131897e-01 6.110316514968872070e-01 2.196802049875259399e-01 1.288990497589111328e+00
1.549000000000000000e+03 7.256306457519531250e+01 -1.068263244628906250e+01 -1.804599404335021973e+00 9.939690589904785156e+00 2.440527200698852539e+00 -3.020425736904144287e-01
1.550000000000000000e+03 3.725277328491210938e+01 1.850298762321472168e+00 2.269993305206298828e+00 1.315916728973388672e+01 4.628747940063476562e+00 -9.748024344444274902e-01
1.551000000000000000e+03 4.022949981689453125e+01 1.686488723754882812e+01 5.508529543876647949e-01 6.338129043579101562e+00 2.066694736480712891e+00 1.577141761779785156e+00
1.552000000000000000e+03 2.064247894287109375e+01 -8.584563255310058594e+00 7.928044199943542480e-01 6.441130042076110840e-01 4.310752153396606445e-01 1.243630170822143555e+00
1.553000000000000000e+03 1.240894699096679688e+01 -2.083067321777343750e+01 5.324095487594604492e-01 2.425847530364990234e+00 8.874770998954772949e-01 3.345393240451812744e-01
1.554000000000000000e+03 1.183211040496826172e+01 -2.415282440185546875e+01 -1.192905306816101074e-01 1.678263664245605469e+00 4.676919281482696533e-01 4.419435858726501465e-01
1.555000000000000000e+03 1.985900115966796875e+01 -8.275938034057617188e+00 6.414479017257690430e-01 8.784658908843994141e-01 4.559741318225860596e-01 1.287070512771606445e+00
1.556000000000000000e+03 4.597407913208007812e+01 1.882056427001953125e+01 6.037318110466003418e-01 2.089917421340942383e+00 8.080947995185852051e-01 1.364739656448364258e+00
1.557000000000000000e+03 2.229393768310546875e+01 -7.112802982330322266e+00 1.999841630458831787e-01 5.538864135742187500e-01 2.261611819267272949e-01 1.274297237396240234e+00
1.558000000000000000e+03 9.102907180786132812e+00 -8.757491111755371094e+00 2.603605091571807861e-01 4.341903626918792725e-01 2.083652615547180176e-01 -5.338613986968994141e-01
1.559000000000000000e+03 6.525044250488281250e+01 -1.059474849700927734e+01 -2.232703208923339844e+00 8.522586822509765625e-01 -4.141333401203155518e-01 -2.259233474731445312e+00
1.560000000000000000e+03 4.512653732299804688e+01 -1.276479244232177734e+01 9.305877238512039185e-02 4.756141662597656250e+00 1.454760193824768066e+00 5.519872903823852539e-01
1.561000000000000000e+03 1.292943859100341797e+01 -1.297805595397949219e+01 1.367154240608215332e+00 2.099721670150756836e+00 1.040062785148620605e+00 4.492492377758026123e-01
1.562000000000000000e+03 1.216777324676513672e+01 -1.813792610168457031e+01 8.414107561111450195e-01 2.561182737350463867e+00 1.020778059959411621e+00 4.228377640247344971e-01
1.563000000000000000e+03 7.198959350585937500e+01 -3.439339065551757812e+01 -2.693443894386291504e-01 7.218219280242919922e+00 2.084662437438964844e+00 2.466106861829757690e-01
1.564000000000000000e+03 3.374277877807617188e+01 -2.759673118591308594e+00 2.057307958602905273e-01 8.011270523071289062e+00 2.465100526809692383e+00 4.593660533428192139e-01
1.565000000000000000e+03 3.263728713989257812e+01 -1.814618349075317383e+00 1.738738059997558594e+00 6.703208923339843750e+00 2.532584190368652344e+00 1.781573772430419922e+00
1.566000000000000000e+03 3.086234855651855469e+01 -2.317670345306396484e+00 1.955307126045227051e+00 3.340302705764770508e+00 1.588683009147644043e+00 1.586651921272277832e+00
1.567000000000000000e+03 1.209396934509277344e+01 1.507489299774169922e+01 -1.022053230553865433e-02 -1.307896897196769714e-02 -6.989850662648677826e-03 -8.103655651211738586e-03
1.568000000000000000e+03 1.173907184600830078e+01 1.194102954864501953e+01 3.853044705465435982e-03 -1.424103626050055027e-03 7.286823238246142864e-04 3.445108188316226006e-03
1.569000000000000000e+03 2.872365951538085938e+01 -5.741720199584960938e+00 -2.753540873527526855e-01 2.602037787437438965e-01 -4.545095376670360565e-03 1.500893950462341309e+00
1.570000000000000000e+03 2.532717895507812500e+01 -2.591267824172973633e+00 1.159436941146850586e+00 7.631613872945308685e-03 3.501205444335937500e-01 1.360298514366149902e+00
1.571000000000000000e+03 7.671121978759765625e+01 1.450244712829589844e+01 1.512984633445739746e-01 6.021872520446777344e+00 1.851951241493225098e+00 -1.188206896185874939e-01
1.572000000000000000e+03 7.541401672363281250e+01 1.324185466766357422e+01 2.621152400970458984e-01 6.255886077880859375e+00 1.955400466918945312e+00 -2.777909636497497559e-01
1.573000000000000000e+03 7.678572845458984375e+01 2.862101495265960693e-01 -4.148099943995475769e-02 7.745737075805664062e+00 2.311276912689208984e+00 -7.253150939941406250e-01
1.574000000000000000e+03 7.553975677490234375e+01 -1.180371403694152832e+00 -1.559405773878097534e-01 7.725742340087890625e+00 2.270940542221069336e+00 -8.727368116378784180e-01
1.575000000000000000e+03 7.677155303955078125e+01 1.713589429855346680e+00 -1.053264085203409195e-02 7.499943256378173828e+00 2.246823310852050781e+00 -7.545293569564819336e-01
1.576000000000000000e+03 7.547533416748046875e+01 2.927195727825164795e-01 -7.425620406866073608e-02 7.496680736541748047e+00 2.226727485656738281e+00 -9.406745433807373047e-01
1.577000000000000000e+03 7.545458221435546875e+01 6.130954265594482422e+00 1.291060149669647217e-01 6.791520118713378906e+00 2.076187849044799805e+00 -8.152577877044677734e-01
1.578000000000000000e+03 7.545104980468750000e+01 8.955622673034667969e+00 2.092908769845962524e-01 6.525372982025146484e+00 2.020399332046508789e+00 -6.383463144302368164e-01
1.579000000000000000e+03 7.421753692626953125e+01 3.236241579055786133e+00 9.048037230968475342e-02 6.979111194610595703e+00 2.120877504348754883e+00 -1.039246797561645508e+00
1.580000000000000000e+03 7.547682189941406250e+01 1.761811614036560059e+00 2.667844761162996292e-03 7.292426586151123047e+00 2.188528299331665039e+00 -9.396231770515441895e-01
1.581000000000000000e+03 7.207366180419921875e+01 3.209480667114257812e+01 -1.792966574430465698e-01 6.199930191040039062e+00 1.806190013885498047e+00 9.933056682348251343e-02
1.582000000000000000e+03 7.514572143554687500e+01 2.952240371704101562e+01 -9.824947267770767212e-02 6.442317962646484375e+00 1.903220653533935547e+00 2.410767674446105957e-01
1.583000000000000000e+03 7.608766174316406250e+01 3.201964187622070312e+01 -6.549835950136184692e-02 6.555573940277099609e+00 1.947022676467895508e+00 1.408284455537796021e-01
1.584000000000000000e+03 7.537812805175781250e+01 1.038571166992187500e+01 2.277226299047470093e-01 6.414573669433593750e+00 1.992688894271850586e+00 -5.213775634765625000e-01
1.585000000000000000e+03 7.315479278564453125e+01 8.392163276672363281e+00 3.551342785358428955e-01 6.659398078918457031e+00 2.104359865188598633e+00 -8.211944699287414551e-01
1.586000000000000000e+03 7.511841583251953125e+01 2.042122459411621094e+01 1.246466785669326782e-01 6.246410369873046875e+00 1.911317229270935059e+00 2.988375425338745117e-01
1.587000000000000000e+03 7.668529510498046875e+01 1.592531776428222656e+01 1.296308934688568115e-01 5.999202251434326172e+00 1.838649988174438477e+00 -9.790581651031970978e-03
1.588000000000000000e+03 7.541466522216796875e+01 1.467099285125732422e+01 2.460910081863403320e-01 6.211329460144042969e+00 1.937226176261901855e+00 -1.397563964128494263e-01
1.589000000000000000e+03 7.349665069580078125e+01 -1.572499656677246094e+01 3.240038871765136719e+00 1.086568546295166016e+01 4.231717586517333984e+00 9.410416483879089355e-01
1.590000000000000000e+03 7.619486999511718750e+01 -7.552601337432861328e+00 -6.163482069969177246e-01 8.842982292175292969e+00 2.467990398406982422e+00 1.238598451018333435e-01
1.591000000000000000e+03 7.723669433593750000e+01 -7.782488822937011719e+00 -3.872971236705780029e-01 8.903717041015625000e+00 2.554925918579101562e+00 2.625073492527008057e-01
1.592000000000000000e+03 7.588246917724609375e+01 -3.951112747192382812e+00 -3.369086980819702148e-01 8.233444213867187500e+00 2.368960618972778320e+00 -5.875254869461059570e-01
1.593000000000000000e+03 7.531388854980468750e+01 -2.252052879333496094e+01 -2.489575296640396118e-01 9.547595977783203125e+00 2.789591550827026367e+00 -1.280411243438720703e+00
1.594000000000000000e+03 7.701136016845703125e+01 -2.122504997253417969e+01 5.544331669807434082e-02 8.708749771118164062e+00 2.629257678985595703e+00 -1.245174407958984375e+00
1.595000000000000000e+03 7.403578186035156250e+01 1.624677848815917969e+01 3.520417213439941406e-01 6.356110095977783203e+00 2.012445449829101562e+00 -1.038947794586420059e-02
1.596000000000000000e+03 7.537300109863281250e+01 1.609386062622070312e+01 2.422666549682617188e-01 6.179867744445800781e+00 1.926640391349792480e+00 -1.781455054879188538e-02
1.597000000000000000e+03 7.622429656982421875e+01 -6.373411178588867188e+00 -5.055159926414489746e-01 8.667223930358886719e+00 2.448512315750122070e+00 -1.479028910398483276e-01
1.598000000000000000e+03 7.608442687988281250e+01 -5.196146011352539062e+00 -4.266405403614044189e-01 8.459744453430175781e+00 2.409931182861328125e+00 -3.819225132465362549e-01
1.599000000000000000e+03 7.461120605468750000e+01 -1.704456329345703125e+01 2.423525333404541016e+00 9.754221916198730469e+00 3.653324127197265625e+00 -4.209242165088653564e-01
1.600000000000000000e+03 7.342607879638671875e+01 -8.508208274841308594e+00 -1.396818637847900391e+00 8.996225357055664062e+00 2.279822111129760742e+00 -3.772706985473632812e-01
1.601000000000000000e+03 7.741987609863281250e+01 -1.316896438598632812e+01 1.345885992050170898e-01 8.226456642150878906e+00 2.508313655853271484e+00 1.139922261238098145e+00
1.602000000000000000e+03 7.369747161865234375e+01 -1.500615787506103516e+01 2.163456678390502930e+00 1.088596343994140625e+01 3.914825916290283203e+00 1.417893648147583008e+00
1.603000000000000000e+03 7.562548065185546875e+01 -2.497737121582031250e+01 -4.065263271331787109e-01 9.334273338317871094e+00 2.678324222564697266e+00 -1.024640083312988281e+00
1.604000000000000000e+03 7.552290344238281250e+01 -2.947148513793945312e+01 -4.127909839153289795e-01 9.160235404968261719e+00 2.624233484268188477e+00 -3.610312342643737793e-01
1.605000000000000000e+03 7.669591522216796875e+01 -2.832013320922851562e+01 -2.786061763763427734e-01 9.509771347045898438e+00 2.769349575042724609e+00 -5.441029071807861328e-01
1.606000000000000000e+03 7.603594207763671875e+01 -1.529212665557861328e+01 1.164495229721069336e+00 8.754731178283691406e+00 2.975767850875854492e+00 8.096600770950317383e-01
1.607000000000000000e+03 7.598294067382812500e+01 -8.782540321350097656e+00 -7.224763035774230957e-01 9.050010681152343750e+00 2.498260259628295898e+00 4.410521686077117920e-01
1.608000000000000000e+03 7.450765991210937500e+01 -1.187609195709228516e+01 -7.884855866432189941e-01 1.017495918273925781e+01 2.815942049026489258e+00 1.137057542800903320e+00
1.609000000000000000e+03 7.414760589599609375e+01 -1.302213859558105469e+01 -9.041474014520645142e-02 1.062808036804199219e+01 3.161299705505371094e+00 1.475057840347290039e+00
1.610000000000000000e+03 7.533379364013671875e+01 2.440202713012695312e+01 -2.482421696186065674e-02 6.345760345458984375e+00 1.896280884742736816e+00 3.538447618484497070e-01
1.611000000000000000e+03 7.674511718750000000e+01 2.554105949401855469e+01 -2.478932961821556091e-02 6.337842941284179688e+00 1.893916130065917969e+00 2.866712808609008789e-01
1.612000000000000000e+03 7.407000732421875000e+01 2.319487571716308594e+01 2.726623415946960449e-02 6.385027408599853516e+00 1.923688054084777832e+00 3.865864574909210205e-01
1.613000000000000000e+03 7.537751770019531250e+01 2.573245429992675781e+01 -5.534590035676956177e-02 6.372755050659179688e+00 1.895222663879394531e+00 3.440593481063842773e-01
1.614000000000000000e+03 7.660466766357421875e+01 2.949722671508789062e+01 -5.627841874957084656e-02 6.515858650207519531e+00 1.937874078750610352e+00 2.043429613113403320e-01
1.615000000000000000e+03 7.535435485839843750e+01 2.816058540344238281e+01 -1.011289209127426147e-01 6.430271148681640625e+00 1.898742675781250000e+00 2.788138687610626221e-01
1.616000000000000000e+03 7.552059936523437500e+01 2.698346710205078125e+01 -6.644977629184722900e-02 6.414780139923095703e+00 1.904499173164367676e+00 3.112897574901580811e-01
1.617000000000000000e+03 7.362908172607421875e+01 -2.923702621459960938e+01 -6.523265242576599121e-01 8.529504776000976562e+00 2.363153696060180664e+00 -2.520805895328521729e-01
1.618000000000000000e+03 7.412577819824218750e+01 -3.694657135009765625e+01 -5.243863537907600403e-02 7.938742160797119141e+00 2.365890979766845703e+00 1.305674910545349121e-01
1.619000000000000000e+03 7.582749176025390625e+01 -3.704329299926757812e+01 -1.445282995700836182e-01 9.305233955383300781e+00 2.748211622238159180e+00 4.396875202655792236e-02
1.620000000000000000e+03 7.544371032714843750e+01 -2.627792930603027344e+01 -4.521463215351104736e-01 9.281193733215332031e+00 2.648714303970336914e+00 -8.168101310729980469e-01
1.621000000000000000e+03 7.245056152343750000e+01 -2.382634353637695312e+01 -5.454729199409484863e-01 9.458166122436523438e+00 2.673807859420776367e+00 -4.090808033943176270e-01
1.622000000000000000e+03 7.535504913330078125e+01 -3.067279624938964844e+01 -3.564662039279937744e-01 9.046828269958496094e+00 2.607108592987060547e+00 -2.436685711145401001e-01
1.623000000000000000e+03 7.552735900878906250e+01 -2.830404472351074219e+01 -3.946622312068939209e-01 9.244047164916992188e+00 2.654815435409545898e+00 -5.654897093772888184e-01
1.624000000000000000e+03 7.415246582031250000e+01 -3.515253067016601562e+01 -1.830643713474273682e-01 8.212801933288574219e+00 2.408921241760253906e+00 1.466951668262481689e-01
1.625000000000000000e+03 7.500519561767578125e+01 -3.616177749633789062e+01 -1.425496190786361694e-01 8.609094619750976562e+00 2.539963245391845703e+00 -1.220846269279718399e-02
1.626000000000000000e+03 1.099847507476806641e+01 1.796573257446289062e+01 -6.414968520402908325e-02 4.625093191862106323e-03 -1.785737834870815277e-02 -1.089598797261714935e-02
1.627000000000000000e+03 1.481046104431152344e+01 -1.196633625030517578e+01 1.588294506072998047e+00 2.547457218170166016e+00 1.240725517272949219e+00 9.689601063728332520e-01
1.628000000000000000e+03 6.728981781005859375e+01 -1.170384788513183594e+01 -1.858716845512390137e+00 3.620780467987060547e+00 5.286191105842590332e-01 -2.209850311279296875e+00
1.629000000000000000e+03 6.862114715576171875e+01 -1.324570560455322266e+01 -6.712652444839477539e-01 5.657454967498779297e+00 1.495856881141662598e+00 -2.751768827438354492e+00
1.630000000000000000e+03 6.051321792602539062e+01 -9.582236409187316895e-01 1.015708923339843750e+00 3.103391170501708984e+00 1.235730051994323730e+00 1.012464523315429688e+00
1.631000000000000000e+03 6.213195800781250000e+01 7.177076935768127441e-01 7.844333052635192871e-01 4.131547451019287109e+00 1.474794268608093262e+00 6.781163215637207031e-01
1.632000000000000000e+03 3.047604322433471680e+00 -1.711347770690917969e+01 1.461973637342453003e-01 -1.004242539405822754e+00 -2.574135661125183105e-01 1.139599531888961792e-01
1.633000000000000000e+03 4.144480705261230469e+00 -1.544927692413330078e+01 2.565894424915313721e-01 -6.743819713592529297e-01 -1.253377646207809448e-01 -1.508416142314672470e-02
1.634000000000000000e+03 6.171981811523437500e+00 2.298631858825683594e+01 -5.459434911608695984e-02 -6.475953385233879089e-03 -1.832109130918979645e-02 9.154349565505981445e-02
1.635000000000000000e+03 4.234276771545410156e+00 -1.684535789489746094e+01 2.510303258895874023e-01 -6.136673688888549805e-01 -1.087911128997802734e-01 1.296093314886093140e-01
1.636000000000000000e+03 4.418633460998535156e+00 -2.118213272094726562e+01 1.340737938880920410e-01 -3.401074409484863281e-01 -6.181009858846664429e-02 4.760805666446685791e-01
1.637000000000000000e+03 4.046139717102050781e+00 1.555159568786621094e+01 -3.389214165508747101e-03 -3.672275925055146217e-03 -2.118447097018361092e-03 3.870025509968400002e-03
1.638000000000000000e+03 5.415752887725830078e+00 1.937510299682617188e+01 -3.930401429533958435e-02 -4.728242289274930954e-03 -1.320967730134725571e-02 3.639345988631248474e-02
1.639000000000000000e+03 3.115303039550781250e+00 1.720468711853027344e+01 -4.256373271346092224e-03 -5.047946237027645111e-03 -2.791295759379863739e-03 9.701144881546497345e-03
1.640000000000000000e+03 9.243535041809082031e+00 1.806399345397949219e+01 -6.231158971786499023e-02 8.318000473082065582e-03 -1.619807630777359009e-02 8.474973961710929871e-03
1.641000000000000000e+03 7.224297046661376953e+00 2.343804359436035156e+01 -7.145693898200988770e-02 1.460047438740730286e-02 -1.705694012343883514e-02 9.662930667400360107e-02
1.642000000000000000e+03 4.545430183410644531e+00 2.561165428161621094e+01 -2.395394816994667053e-02 -6.421577185392379761e-02 -2.645091712474822998e-02 1.019065603613853455e-01
1.643000000000000000e+03 4.895497322082519531e+00 2.975115394592285156e+01 5.542119033634662628e-03 -1.202779412269592285e-01 -3.442074730992317200e-02 1.164442822337150574e-01
1.644000000000000000e+03 4.927982807159423828e+00 -2.805622291564941406e+01 -1.183080822229385376e-01 1.985412538051605225e-01 2.406995370984077454e-02 4.847941100597381592e-01
1.645000000000000000e+03 3.207373619079589844e+00 -2.420343589782714844e+01 3.920475486665964127e-03 -4.188269078731536865e-01 -1.244719326496124268e-01 4.541719555854797363e-01
1.646000000000000000e+03 4.349652767181396484e+00 -2.259545516967773438e+01 8.203721791505813599e-02 -2.396680563688278198e-01 -4.728925228118896484e-02 5.288608074188232422e-01
1.647000000000000000e+03 2.943973541259765625e+00 1.436392974853515625e+01 1.403527450747787952e-03 2.529759949538856745e-04 4.969510482624173164e-04 -4.774741246365010738e-04
1.648000000000000000e+03 4.256570816040039062e+00 1.687413406372070312e+01 -1.839879527688026428e-02 -5.521422717720270157e-03 -7.176065351814031601e-03 1.260752137750387192e-02
1.649000000000000000e+03 4.337913513183593750e+00 -1.826962852478027344e+01 2.374554872512817383e-01 -5.197769403457641602e-01 -8.469644188880920410e-02 2.657806277275085449e-01
1.650000000000000000e+03 4.088924407958984375e+00 1.418429660797119141e+01 -9.491416625678539276e-03 -2.161691198125481606e-03 -3.495932323858141899e-03 2.129767788574099541e-03
1.651000000000000000e+03 4.620026588439941406e+00 2.409276580810546875e+01 -2.802940830588340759e-02 -4.077554121613502502e-02 -2.064148522913455963e-02 9.210298210382461548e-02
1.652000000000000000e+03 7.059789657592773438e+00 2.661938095092773438e+01 -2.508108131587505341e-02 -9.061953052878379822e-03 -1.024291105568408966e-02 1.426868438720703125e-01
1.653000000000000000e+03 5.865157127380371094e+00 -2.495232009887695312e+01 -4.060802608728408813e-02 2.723498642444610596e-01 6.952255219221115112e-02 6.106387972831726074e-01
1.654000000000000000e+03 4.405244350433349609e+00 -2.395891952514648438e+01 1.629796437919139862e-02 -1.284386515617370605e-01 -3.364220634102821350e-02 5.467435121536254883e-01
1.655000000000000000e+03 3.847917556762695312e+00 -9.937265396118164062e+00 1.172545105218887329e-01 -6.186448335647583008e-01 -1.504170894622802734e-01 -4.831926524639129639e-01
1.656000000000000000e+03 4.067800521850585938e+00 -1.406324768066406250e+01 2.441378086805343628e-01 -7.036576271057128906e-01 -1.378559321165084839e-01 -1.577654480934143066e-01
1.657000000000000000e+03 4.985258102416992188e+00 1.117807197570800781e+01 2.521317219361662865e-03 -2.508964622393250465e-03 3.705739118231576867e-06 -2.779550384730100632e-03
1.658000000000000000e+03 3.874302864074707031e+00 -3.115596580505371094e+01 -8.688454329967498779e-02 1.956743001937866211e-01 3.263692557811737061e-02 3.129081726074218750e-01
1.659000000000000000e+03 5.131186485290527344e+00 -2.940890693664550781e+01 -1.343278586864471436e-01 2.792892456054687500e-01 4.348842054605484009e-02 4.398507475852966309e-01
1.660000000000000000e+03 4.734691143035888672e+00 2.840846252441406250e+01 -5.270937923341989517e-03 -1.035794913768768311e-01 -3.265513107180595398e-02 1.198961958289146423e-01
1.661000000000000000e+03 5.956062316894531250e+00 3.652558135986328125e+01 4.838025569915771484e-02 -1.301901489496231079e-01 -2.454296685755252838e-02 8.096546679735183716e-02
1.662000000000000000e+03 3.944752931594848633e+00 1.140609073638916016e+01 -4.661079030483961105e-03 -1.138606923632323742e-03 -1.739905914291739464e-03 -1.092735328711569309e-03
1.663000000000000000e+03 3.925672531127929688e+00 -1.130188274383544922e+01 1.664643287658691406e-01 -6.672677993774414062e-01 -1.502410322427749634e-01 -3.970073163509368896e-01
1.664000000000000000e+03 3.776122570037841797e+00 -8.596598625183105469e+00 5.843359604477882385e-02 -5.406088829040527344e-01 -1.446525901556015015e-01 -5.286340117454528809e-01
1.665000000000000000e+03 5.393802642822265625e+00 -3.076382827758789062e+01 -1.613839417695999146e-01 3.547276556491851807e-01 5.800311639904975891e-02 3.823586702346801758e-01
1.666000000000000000e+03 5.158723831176757812e+00 3.531756210327148438e+01 5.605004727840423584e-02 -1.548723280429840088e-01 -2.964668348431587219e-02 8.849515020847320557e-02
1.667000000000000000e+03 4.166185855865478516e+00 3.326755142211914062e+01 1.747046038508415222e-02 -1.874455660581588745e-01 -5.099252983927726746e-02 9.581062942743301392e-02
1.668000000000000000e+03 3.938453435897827148e+00 8.707455635070800781e+00 -1.830821041949093342e-03 -1.019562012515962124e-03 -8.551148930564522743e-04 -1.075149048119783401e-03
1.669000000000000000e+03 3.789560556411743164e+00 6.204602718353271484e+00 -3.743853012565523386e-04 -7.039940101094543934e-04 -3.235137846786528826e-04 2.310971613042056561e-04
1.670000000000000000e+03 5.881353378295898438e+00 4.500765800476074219e+00 2.736429159995168447e-04 -1.328763901256024837e-03 -3.165363159496337175e-04 -4.764125624205917120e-04
1.671000000000000000e+03 6.740340232849121094e+00 -4.855131626129150391e+00 -2.653417587280273438e-01 -2.811031229794025421e-02 -8.803562074899673462e-02 -6.073445677757263184e-01
1.672000000000000000e+03 1.671481895446777344e+01 6.769596099853515625e+00 -1.090624369680881500e-03 3.062289324589073658e-04 -2.353186282562091947e-04 -1.522132515674456954e-04
1.673000000000000000e+03 4.357268810272216797e+00 -3.820720291137695312e+01 -6.107484176754951477e-02 4.014404118061065674e-01 1.021096706390380859e-01 9.459035098552703857e-02
1.674000000000000000e+03 6.516871452331542969e+00 -3.675278472900390625e+01 -1.422883868217468262e-01 4.684394896030426025e-01 9.784533083438873291e-02 1.477164477109909058e-01
1.675000000000000000e+03 6.887752532958984375e+01 -2.820619010925292969e+01 -9.664385914802551270e-01 6.072292327880859375e+00 1.531756043434143066e+00 6.076760888099670410e-01
1.676000000000000000e+03 5.621296691894531250e+01 -5.213719367980957031e+00 3.906821012496948242e-01 1.862429022789001465e+00 6.759333610534667969e-01 1.346577286720275879e+00
1.677000000000000000e+03 5.760070037841796875e+01 -5.860678672790527344e+00 1.473260074853897095e-01 1.657396316528320312e+00 5.414167046546936035e-01 1.153247833251953125e+00
1.678000000000000000e+03 4.419568252563476562e+01 -3.233508300781250000e+01 -7.823466062545776367e-01 6.371734142303466797e+00 1.676816225051879883e+00 -8.386396169662475586e-01
1.679000000000000000e+03 1.357111167907714844e+01 -2.380240631103515625e+01 -8.673278987407684326e-02 2.070247650146484375e+00 5.950544476509094238e-01 1.243815794587135315e-01
1.680000000000000000e+03 3.399486541748046875e+01 -7.064976215362548828e+00 -2.907527923583984375e+00 7.218043327331542969e+00 1.293154597282409668e+00 -1.173376679420471191e+00
1.681000000000000000e+03 1.870940208435058594e+01 -9.228280067443847656e+00 9.692915081977844238e-01 1.164208054542541504e+00 6.400498747825622559e-01 1.254804253578186035e+00
1.682000000000000000e+03 1.607371711730957031e+01 6.158533573150634766e+00 1.700434804661199450e-04 1.630142447538673878e-03 5.400558002293109894e-04 4.640552215278148651e-04
1.683000000000000000e+03 4.403127670288085938e+01 1.881094360351562500e+01 5.572198629379272461e-01 3.346394062042236328e+00 1.171084165573120117e+00 1.719410300254821777e+00
1.684000000000000000e+03 4.121615219116210938e+01 1.777286529541015625e+01 4.809985756874084473e-01 5.263009071350097656e+00 1.723202347755432129e+00 1.756666302680969238e+00
1.685000000000000000e+03 4.175989151000976562e+01 -2.084871101379394531e+01 1.798397779464721680e+00 9.019634246826171875e+00 3.245409727096557617e+00 -9.891732335090637207e-01
1.686000000000000000e+03 4.340599060058593750e+01 -1.919352149963378906e+01 1.997393727302551270e+00 8.998443603515625000e+00 3.298751354217529297e+00 -6.096796318888664246e-02
1.687000000000000000e+03 2.448101615905761719e+01 -2.715602397918701172e+00 8.169656395912170410e-01 -5.668815597891807556e-02 2.280832529067993164e-01 1.199319481849670410e+00
1.688000000000000000e+03 3.547116470336914062e+01 1.099018287658691406e+01 9.667254686355590820e-01 1.196342182159423828e+01 3.879044055938720703e+00 -9.509223699569702148e-01
1.689000000000000000e+03 3.591003799438476562e+01 9.658403396606445312e+00 1.154581427574157715e+00 1.296043014526367188e+01 4.234503269195556641e+00 -3.910101354122161865e-01
1.690000000000000000e+03 5.549616622924804688e+01 -1.067724037170410156e+01 -1.235563158988952637e+00 8.634961843490600586e-01 -1.116200834512710571e-01 1.154273509979248047e+00
1.691000000000000000e+03 5.402708435058593750e+01 -9.627073287963867188e+00 -8.854437470436096191e-01 1.106168866157531738e+00 6.621754169464111328e-02 1.690339565277099609e+00
1.692000000000000000e+03 6.667867279052734375e+01 1.535979366302490234e+01 1.087404012680053711e+00 7.901597976684570312e+00 2.696700572967529297e+00 -3.697581291198730469e-01
1.693000000000000000e+03 6.350844955444335938e+01 -8.632677078247070312e+00 -8.060026168823242188e-01 8.344688415527343750e-01 8.539864793419837952e-03 -8.306162357330322266e-01
1.694000000000000000e+03 3.703605651855468750e+01 4.113077640533447266e+00 2.194281816482543945e+00 1.449468612670898438e+01 5.006690025329589844e+00 5.217059850692749023e-01
1.695000000000000000e+03 2.986764907836914062e+01 -6.980860233306884766e+00 -1.916192173957824707e+00 -1.665783822536468506e-01 -6.248311996459960938e-01 7.035202980041503906e-01
1.696000000000000000e+03 5.341355514526367188e+01 2.416119575500488281e+01 -6.235047802329063416e-02 5.979551076889038086e-01 1.606813967227935791e-01 2.958777546882629395e-01
1.697000000000000000e+03 6.346761322021484375e+01 5.784840106964111328e+00 7.730235457420349121e-01 6.683644771575927734e+00 2.237000465393066406e+00 6.159570217132568359e-01
1.698000000000000000e+03 3.844910812377929688e+01 -1.999587821960449219e+01 1.532258868217468262e+00 9.091886520385742188e+00 3.187243700027465820e+00 -8.316044211387634277e-01
1.699000000000000000e+03 4.155643463134765625e+01 -1.945151901245117188e+01 1.906087040901184082e+00 8.684301376342773438e+00 3.177116394042968750e+00 -9.119934439659118652e-01
1.700000000000000000e+03 1.214103317260742188e+01 -1.205688667297363281e+01 1.020964860916137695e+00 1.647007107734680176e+00 8.003915548324584961e-01 8.131100982427597046e-02
1.701000000000000000e+03 6.647970581054687500e+01 1.281972885131835938e+01 9.629327058792114258e-01 7.931880474090576172e+00 2.668443918228149414e+00 -3.755671679973602295e-01
1.702000000000000000e+03 1.122504520416259766e+01 -2.008824348449707031e+01 5.366138219833374023e-01 2.047459840774536133e+00 7.752221226692199707e-01 4.984932839870452881e-01
1.703000000000000000e+03 1.293274116516113281e+01 2.249376106262207031e+01 -2.317808568477630615e-01 8.588415384292602539e-02 -4.376901313662528992e-02 5.800145119428634644e-02
1.704000000000000000e+03 6.994033813476562500e+01 -2.749341392517089844e+01 -9.648005962371826172e-01 7.009230136871337891e+00 1.813328981399536133e+00 3.495036065578460693e-01
1.705000000000000000e+03 1.377628612518310547e+01 -2.711888885498046875e+01 -4.530890285968780518e-01 1.392850637435913086e+00 2.819285094738006592e-01 6.666083633899688721e-02
1.706000000000000000e+03 2.502470207214355469e+01 2.846847534179687500e+01 7.649172842502593994e-02 1.679530858993530273e+00 5.268067717552185059e-01 -9.226958155632019043e-01
1.707000000000000000e+03 2.516992759704589844e+01 2.613718032836914062e+01 2.399598062038421631e-01 1.339475631713867188e+00 4.738306403160095215e-01 -1.078582763671875000e+00
1.708000000000000000e+03 3.636539077758789062e+01 6.991888999938964844e+00 1.424223899841308594e+00 1.444474315643310547e+01 4.760690212249755859e+00 6.740497946739196777e-01
1.709000000000000000e+03 1.821543693542480469e+01 2.697356986999511719e+01 9.076049178838729858e-02 1.995684653520584106e-01 8.709868788719177246e-02 -6.544058769941329956e-02
1.710000000000000000e+03 6.439990997314453125e+01 9.565652847290039062e+00 7.350777983665466309e-01 8.131381988525390625e+00 2.659938097000122070e+00 2.472690641880035400e-01
1.711000000000000000e+03 7.080921173095703125e+01 9.528888702392578125e+00 6.028200984001159668e-01 6.797018527984619141e+00 2.219951629638671875e+00 -7.173342108726501465e-01
1.712000000000000000e+03 2.879044342041015625e+01 2.421222114562988281e+01 1.647754460573196411e-01 3.350471258163452148e+00 1.054574012756347656e+00 -1.485819935798645020e+00
1.713000000000000000e+03 2.784734535217285156e+01 2.423619461059570312e+01 5.835034698247909546e-02 2.844148635864257812e+00 8.707496523857116699e-01 -1.528858780860900879e+00
1.714000000000000000e+03 3.565198516845703125e+01 1.689091682434082031e+01 6.945843696594238281e-01 8.261935234069824219e+00 2.686955928802490234e+00 -6.316509842872619629e-01
1.715000000000000000e+03 3.340958404541015625e+01 1.484027194976806641e+01 8.212969303131103516e-01 9.942252159118652344e+00 3.229064941406250000e+00 -2.170134544372558594e+00
1.716000000000000000e+03 3.684140014648437500e+01 1.308319568634033203e+01 8.421355485916137695e-01 1.021542549133300781e+01 3.317268371582031250e+00 -8.126544952392578125e-02
1.717000000000000000e+03 1.895645713806152344e+01 2.770944023132324219e+01 1.370754539966583252e-01 3.063503205776214600e-01 1.330277323722839355e-01 -1.615484505891799927e-01
1.718000000000000000e+03 1.641201591491699219e+01 -3.090303421020507812e+01 -5.503478050231933594e-01 8.458719253540039062e-01 8.865724503993988037e-02 -1.575683504343032837e-01
1.719000000000000000e+03 4.358388137817382812e+01 -1.687138938903808594e+01 1.450377821922302246e+00 7.654365062713623047e+00 2.731422901153564453e+00 -1.802035570144653320e-01
1.720000000000000000e+03 5.825127792358398438e+01 -4.712128162384033203e+00 5.255112648010253906e-01 1.831844925880432129e+00 7.072068452835083008e-01 1.070018649101257324e+00
1.721000000000000000e+03 5.954034042358398438e+01 -9.404324531555175781e+00 -1.385347485542297363e+00 9.410861134529113770e-01 -1.332784146070480347e-01 7.571424245834350586e-01
1.722000000000000000e+03 3.919584274291992188e+01 -1.513795948028564453e+01 1.049146413803100586e+00 8.581542968750000000e+00 2.889206647872924805e+00 -1.358417630195617676e+00
1.723000000000000000e+03 1.781115913391113281e+01 -4.857132911682128906e+00 -1.950085163116455078e-01 6.498740315437316895e-01 1.364596635103225708e-01 8.482667207717895508e-01
1.724000000000000000e+03 7.577861022949218750e+01 4.034664154052734375e+01 -1.442786864936351776e-02 6.619400024414062500e+00 1.981491565704345703e+00 7.022857666015625000e-02
1.725000000000000000e+03 5.388694381713867188e+01 2.637405776977539062e+01 3.735019862651824951e-01 1.260382175445556641e+00 4.901652634143829346e-01 1.374749988317489624e-01
1.726000000000000000e+03 4.089661407470703125e+01 -2.040204811096191406e+01 1.851412057876586914e+00 8.819039344787597656e+00 3.201135396957397461e+00 -1.019530296325683594e+00
1.727000000000000000e+03 1.585366439819335938e+01 7.505862236022949219e+00 1.476818142691627145e-04 2.435398055240511894e-03 7.749239448457956314e-04 7.161130197346210480e-04
1.728000000000000000e+03 1.393312644958496094e+01 4.352568149566650391e+00 -2.032031770795583725e-03 5.915898364037275314e-04 -4.321325977798551321e-04 1.583673758432269096e-03
1.729000000000000000e+03 5.297750854492187500e+01 -7.197168350219726562e+00 -5.466191172599792480e-01 1.680291295051574707e+00 3.401016592979431152e-01 1.961613059043884277e+00
1.730000000000000000e+03 6.185184478759765625e+01 -3.430449676513671875e+01 1.795389503240585327e-01 1.245124816894531250e+00 4.273991286754608154e-01 4.133437275886535645e-01
1.731000000000000000e+03 1.433189105987548828e+01 7.253939628601074219e+00 9.164078801404684782e-05 7.689509075134992599e-04 2.581775188446044922e-04 2.055631484836339951e-03
1.732000000000000000e+03 1.406889724731445312e+01 8.742897987365722656e+00 7.263342558871954679e-05 1.298051327466964722e-03 4.112054302822798491e-04 2.860699780285358429e-03
1.733000000000000000e+03 3.884215164184570312e+01 -1.372400188446044922e+01 6.058216094970703125e-01 8.489952087402343750e+00 2.728732109069824219e+00 -1.240741968154907227e+00
1.734000000000000000e+03 4.184386062622070312e+01 -7.022805690765380859e+00 -1.967475295066833496e+00 5.835349559783935547e+00 1.160362243652343750e+00 -1.830498218536376953e+00
1.735000000000000000e+03 4.223260498046875000e+01 -8.440608024597167969e+00 -1.744514465332031250e+00 5.656559944152832031e+00 1.173613667488098145e+00 -1.321892261505126953e+00
1.736000000000000000e+03 6.730413818359375000e+01 -5.221816062927246094e+00 -4.792453050613403320e-01 4.675121307373046875e+00 1.258762836456298828e+00 -1.701731204986572266e+00
1.737000000000000000e+03 2.241061782836914062e+01 -3.423186874389648438e+01 -2.523202598094940186e-01 2.539361715316772461e-01 4.847692616749554873e-04 -1.454782932996749878e-01
1.738000000000000000e+03 3.519298171997070312e+01 1.977699851989746094e+01 3.571269214153289795e-01 6.930874824523925781e+00 2.186400413513183594e+00 -2.950975000858306885e-01
1.739000000000000000e+03 5.766790390014648438e+01 -3.346607971191406250e+01 -2.803648412227630615e-01 -5.523681268095970154e-02 -1.006805002689361572e-01 -4.043194353580474854e-01
1.740000000000000000e+03 4.900214767456054688e+01 -1.288466072082519531e+01 4.679837822914123535e-01 1.570126771926879883e+00 6.114332079887390137e-01 1.750126004219055176e+00
1.741000000000000000e+03 4.776883697509765625e+01 -7.143557071685791016e+00 -1.251487135887145996e+00 2.154243439435958862e-01 -3.108188509941101074e-01 1.137773752212524414e+00
1.742000000000000000e+03 6.579981231689453125e+01 7.451430797576904297e+00 7.327954173088073730e-01 7.048963069915771484e+00 2.334527492523193359e+00 -1.690975427627563477e-01
1.743000000000000000e+03 6.605432128906250000e+01 8.979523658752441406e+00 7.875827550888061523e-01 7.465840339660644531e+00 2.476027011871337891e+00 -2.198229581117630005e-01
1.744000000000000000e+03 6.441953277587890625e+01 4.143376827239990234e+00 6.318696737289428711e-01 6.014669418334960938e+00 1.993961811065673828e+00 7.018182426691055298e-02
1.745000000000000000e+03 6.510170745849609375e+01 6.543534755706787109e+00 7.250099182128906250e-01 6.887685775756835938e+00 2.283808708190917969e+00 -1.413061982020735741e-03
1.746000000000000000e+03 5.184017944335937500e+01 -1.242407035827636719e+01 -2.892044484615325928e-01 5.223901271820068359e-01 6.995570659637451172e-02 1.452280521392822266e+00
1.747000000000000000e+03 4.052532958984375000e+01 -7.199603080749511719e+00 -2.547054290771484375e+00 7.535610198974609375e+00 1.496566653251647949e+00 -1.796548485755920410e+00
1.748000000000000000e+03 3.823962020874023438e+01 -1.255494880676269531e+01 -4.442445188760757446e-02 8.650937080383300781e+00 2.581953763961791992e+00 -1.102210640907287598e+00
1.749000000000000000e+03 6.696148681640625000e+01 1.651471710205078125e+01 1.150034546852111816e+00 7.561631679534912109e+00 2.613499879837036133e+00 -2.796157300472259521e-01
1.750000000000000000e+03 6.562145233154296875e+01 1.693270683288574219e+01 1.160346150398254395e+00 8.235602378845214844e+00 2.818784475326538086e+00 -4.173343777656555176e-01
1.751000000000000000e+03 5.640194320678710938e+01 -3.445296478271484375e+01 1.044915765523910522e-01 1.932196468114852905e-01 8.931336551904678345e-02 -7.013270854949951172e-01
1.752000000000000000e+03 5.913321685791015625e+01 -3.464445877075195312e+01 2.604287564754486084e-01 3.857087194919586182e-01 1.938412487506866455e-01 -1.110845431685447693e-01
1.753000000000000000e+03 6.532335662841796875e+01 -3.187397575378417969e+01 -5.469370484352111816e-01 2.917372465133666992e+00 7.111306786537170410e-01 8.421472311019897461e-01
1.754000000000000000e+03 2.985178947448730469e+01 -3.607632064819335938e+01 -3.350544571876525879e-01 1.900431990623474121e+00 4.696132540702819824e-01 7.453545331954956055e-01
1.755000000000000000e+03 3.256887817382812500e+01 -3.199741935729980469e+01 -4.330007433891296387e-01 3.040040493011474609e+00 7.821119427680969238e-01 1.310980796813964844e+00
1.756000000000000000e+03 2.558143043518066406e+01 -3.699939727783203125e+01 -7.753536105155944824e-02 8.109829425811767578e-01 2.200342714786529541e-01 1.661770194768905640e-01
1.757000000000000000e+03 2.532499122619628906e+01 -3.361911010742187500e+01 -2.586773037910461426e-01 3.368286788463592529e-01 2.344541065394878387e-02 1.489743441343307495e-01
1.758000000000000000e+03 1.044109630584716797e+01 5.439832687377929688e+00 -1.608854392543435097e-03 -9.194887243211269379e-04 -7.585029234178364277e-04 1.080524176359176636e-03
1.759000000000000000e+03 4.920515060424804688e+01 2.384875488281250000e+01 -1.155907064676284790e-01 1.571340203285217285e+00 4.367248713970184326e-01 1.187375545501708984e+00
1.760000000000000000e+03 6.340435409545898438e+01 1.276330351829528809e+00 6.179811358451843262e-01 4.763655185699462891e+00 1.614490985870361328e+00 2.652529478073120117e-01
1.761000000000000000e+03 6.444784545898437500e+01 2.848317861557006836e+00 5.598947405815124512e-01 5.639566421508789062e+00 1.859838366508483887e+00 3.760750964283943176e-02
1.762000000000000000e+03 1.194483852386474609e+01 2.378095054626464844e+01 -1.773103326559066772e-01 8.457984030246734619e-02 -2.781915105879306793e-02 1.185551062226295471e-01
1.763000000000000000e+03 1.026741981506347656e+01 1.892500877380371094e+01 -8.394387364387512207e-02 2.582413516938686371e-02 -1.743592135608196259e-02 -5.704502109438180923e-03
1.764000000000000000e+03 3.737331390380859375e+01 -8.938958168029785156e+00 -2.603860139846801758e+00 8.995632171630859375e+00 1.917531490325927734e+00 -1.170074105262756348e+00
1.765000000000000000e+03 3.860737228393554688e+01 -2.426836204528808594e+01 1.482881784439086914e+00 7.726034164428710938e+00 2.762674808502197266e+00 -8.420476317405700684e-02
1.766000000000000000e+03 3.490193939208984375e+01 1.370559120178222656e+01 7.555147409439086914e-01 1.023105716705322266e+01 3.295971632003784180e+00 -1.342276453971862793e+00
1.767000000000000000e+03 3.472843933105468750e+01 -3.670188188552856445e+00 -9.109911322593688965e-01 8.535590171813964844e+00 2.287379741668701172e+00 -4.555003941059112549e-01
1.768000000000000000e+03 3.316079711914062500e+01 -3.737575292587280273e+00 -2.960971295833587646e-01 6.599444866180419922e+00 1.891004323959350586e+00 2.913729846477508545e-01
1.769000000000000000e+03 2.087148284912109375e+01 2.825628852844238281e+01 1.844384968280792236e-01 5.865707993507385254e-01 2.313027828931808472e-01 -3.671561181545257568e-01
1.770000000000000000e+03 1.995243072509765625e+01 2.684950447082519531e+01 1.085941568017005920e-01 3.090863227844238281e-01 1.253041476011276245e-01 -2.249963730573654175e-01
1.771000000000000000e+03 7.449120330810546875e+01 -2.461486625671386719e+01 -5.284043550491333008e-01 9.380431175231933594e+00 2.655608177185058594e+00 -9.460839629173278809e-01
1.772000000000000000e+03 1.097100448608398438e+01 -1.455933761596679688e+01 1.152681350708007812e+00 1.558137297630310059e+00 8.132455945014953613e-01 2.366084158420562744e-01
1.773000000000000000e+03 1.111769390106201172e+01 -1.611940765380859375e+01 1.049268960952758789e+00 1.838147640228271484e+00 8.662250041961669922e-01 4.516750574111938477e-01
1.774000000000000000e+03 3.909064102172851562e+01 -5.581357479095458984e+00 -2.650686740875244141e+00 9.189831733703613281e+00 1.961743474006652832e+00 -1.807020545005798340e+00
1.775000000000000000e+03 3.569888305664062500e+01 -9.224230766296386719e+00 -2.523179054260253906e+00 8.796773910522460938e+00 1.882078409194946289e+00 -1.024730920791625977e+00
1.776000000000000000e+03 6.716218566894531250e+01 -3.222193527221679688e+01 -5.197290182113647461e-01 4.250776767730712891e+00 1.119314312934875488e+00 7.962909936904907227e-01
1.777000000000000000e+03 4.497212219238281250e+01 -3.574582290649414062e+01 -1.160218000411987305e+00 5.264409542083740234e+00 1.231257438659667969e+00 -8.097758293151855469e-01
1.778000000000000000e+03 1.588248538970947266e+01 2.608836174011230469e+01 -4.065727069973945618e-02 1.138516217470169067e-01 2.195830456912517548e-02 7.663245499134063721e-02
1.779000000000000000e+03 5.420651245117187500e+01 -1.078223896026611328e+01 -9.917668700218200684e-01 8.450685143470764160e-01 -4.400950297713279724e-02 1.472177743911743164e+00
1.780000000000000000e+03 5.763593673706054688e+01 -1.014800071716308594e+01 -1.439578771591186523e+00 9.439336061477661133e-01 -1.486935317516326904e-01 8.730231523513793945e-01
1.781000000000000000e+03 5.634511184692382812e+01 2.814962005615234375e+01 5.236058235168457031e-01 2.086735248565673828e+00 7.831023335456848145e-01 -4.773447215557098389e-01
1.782000000000000000e+03 3.253145599365234375e+01 -3.013198661804199219e+01 -2.108127623796463013e-01 2.920073747634887695e+00 8.127782344818115234e-01 1.386384010314941406e+00
1.783000000000000000e+03 3.502460098266601562e+01 -3.016541671752929688e+01 -2.776228785514831543e-01 4.522876739501953125e+00 1.273576259613037109e+00 1.185272812843322754e+00
1.784000000000000000e+03 5.120222473144531250e+01 -3.638098526000976562e+01 -6.208654493093490601e-02 2.148757457733154297e+00 6.260012388229370117e-01 -1.326492786407470703e+00
1.785000000000000000e+03 4.803897857666015625e+01 -3.649972152709960938e+01 -7.192454934120178223e-01 3.915908098220825195e+00 9.589987993240356445e-01 -1.210382819175720215e+00
1.786000000000000000e+03 5.140581512451171875e+01 -1.124652957916259766e+01 -2.967238426208496094e-01 7.715905308723449707e-01 1.424600034952163696e-01 1.910833239555358887e+00
1.787000000000000000e+03 3.903105163574218750e+01 -2.569252777099609375e+01 1.156259655952453613e+00 7.451900959014892578e+00 2.582448244094848633e+00 -4.148653149604797363e-02
1.788000000000000000e+03 4.105655670166015625e+01 -2.387489128112792969e+01 1.973531007766723633e+00 8.304594039916992188e+00 3.083437681198120117e+00 -8.809246420860290527e-01
1.789000000000000000e+03 2.050711250305175781e+01 -3.336478424072265625e+01 -4.337343871593475342e-01 4.021092951297760010e-01 -9.487533010542392731e-03 -2.599029242992401123e-01
1.790000000000000000e+03 4.208795166015625000e+01 -2.653668212890625000e+01 1.366864442825317383e+00 8.025104522705078125e+00 2.817590713500976562e+00 -5.894877314567565918e-01
1.791000000000000000e+03 3.608289718627929688e+01 -2.304788827896118164e+00 -3.135051578283309937e-03 1.004384040832519531e+01 3.012211561203002930e+00 -5.941718220710754395e-01
1.792000000000000000e+03 9.977888107299804688e+00 1.726146316528320312e+01 -4.833693429827690125e-02 1.004108972847461700e-02 -1.148875337094068527e-02 -7.430837489664554596e-03
1.793000000000000000e+03 6.995162963867187500e+01 -2.039742088317871094e+01 3.185967504978179932e-01 1.042023468017578125e+01 3.221649408340454102e+00 2.612652063369750977e+00
1.794000000000000000e+03 7.017317962646484375e+01 -1.944764900207519531e+01 -2.262801080942153931e-01 1.188168048858642578e+01 3.496620178222656250e+00 2.763977050781250000e+00
1.795000000000000000e+03 6.923144531250000000e+01 -1.310803222656250000e+01 -9.467356801033020020e-01 7.413209915161132812e+00 1.939942240715026855e+00 -3.073712825775146484e+00
1.796000000000000000e+03 1.543905353546142578e+01 3.702881336212158203e+00 -2.798695641104131937e-04 8.663951884955167770e-04 1.759576844051480293e-04 3.600002673920243979e-04
1.797000000000000000e+03 1.409580135345458984e+01 3.813937187194824219e+00 9.698379435576498508e-04 1.157600549049675465e-03 6.382315768860280514e-04 8.999488782137632370e-04
1.798000000000000000e+03 9.057004928588867188e+00 -5.664297580718994141e+00 -2.278479188680648804e-01 2.144243419170379639e-01 -4.027072805911302567e-03 -5.649484992027282715e-01
1.799000000000000000e+03 8.261611938476562500e+00 -4.868325710296630859e+00 -3.218867778778076172e-01 1.089743301272392273e-01 -6.387373059988021851e-02 -5.786549448966979980e-01
1.800000000000000000e+03 1.478576087951660156e+01 3.868481397628784180e+00 -1.044134260155260563e-03 -1.544629194540902972e-04 -3.595791640691459179e-04 1.054505002684891224e-03
1.801000000000000000e+03 1.556496429443359375e+01 5.519202709197998047e+00 -2.512290666345506907e-04 1.175644923932850361e-03 2.773247542791068554e-04 4.802899493370205164e-04
1.802000000000000000e+03 6.202408790588378906e+00 -4.036408901214599609e+00 -3.266493380069732666e-01 -6.291345506906509399e-02 -1.168688386678695679e-01 -5.503683686256408691e-01
1.803000000000000000e+03 7.986808300018310547e+00 -5.535096168518066406e+00 -2.191680073738098145e-01 1.015784814953804016e-01 -3.527685627341270447e-02 -6.135711669921875000e-01
1.804000000000000000e+03 4.780475616455078125e+00 -5.841858386993408203e+00 -9.982414543628692627e-02 -2.340289801359176636e-01 -1.001559421420097351e-01 -5.918296575546264648e-01
1.805000000000000000e+03 1.204465579986572266e+01 4.804234981536865234e+00 2.398925833404064178e-03 1.390351826557889581e-04 7.613882771693170071e-04 1.688219635980203748e-04
1.806000000000000000e+03 1.200397205352783203e+01 4.059897899627685547e+00 -6.915076519362628460e-04 -7.190802134573459625e-04 -4.231763596180826426e-04 1.664477400481700897e-03
1.807000000000000000e+03 1.205759525299072266e+01 5.558709144592285156e+00 -1.731102704070508480e-03 -6.034778780303895473e-04 -7.003741920925676823e-04 2.364676911383867264e-03
1.808000000000000000e+03 1.287392807006835938e+01 4.818586826324462891e+00 -1.552829402498900890e-03 -3.697840438690036535e-04 -5.767840193584561348e-04 2.519963309168815613e-03
1.809000000000000000e+03 1.152006244659423828e+01 -3.965265512466430664e+00 -6.044642329216003418e-01 2.418199479579925537e-01 -1.087932810187339783e-01 -2.963817417621612549e-01
1.810000000000000000e+03 4.367866039276123047e+00 5.012025833129882812e+00 2.707562234718352556e-04 -6.598414620384573936e-04 -1.167255686596035957e-04 -8.208476356230676174e-05
1.811000000000000000e+03 5.117402076721191406e+00 4.725500583648681641e+00 1.591142383404076099e-03 1.563438418088480830e-04 5.242458428256213665e-04 -1.812677830457687378e-03
1.812000000000000000e+03 6.645606994628906250e+00 4.342176437377929688e+00 2.179662929847836494e-03 -2.195952401962131262e-04 5.880203098058700562e-04 -1.038601272739470005e-03
1.813000000000000000e+03 5.298831939697265625e+00 5.610270023345947266e+00 6.929985247552394867e-04 -1.657784683629870415e-03 -2.894358476623892784e-04 -5.933693610131740570e-04
1.814000000000000000e+03 3.650937080383300781e+00 5.392061710357666016e+00 8.256525616161525249e-04 2.165735495509579778e-04 3.126678348053246737e-04 -3.032421227544546127e-03
1.815000000000000000e+03 1.452229309082031250e+01 -3.985066175460815430e+00 -5.759502649307250977e-01 3.974848091602325439e-01 -5.353964492678642273e-02 1.643256098031997681e-01
1.816000000000000000e+03 1.216889667510986328e+01 -4.624838829040527344e+00 -4.710650742053985596e-01 3.694062530994415283e-01 -3.049764595925807953e-02 -2.110436707735061646e-01
1.817000000000000000e+03 8.168975830078125000e+00 4.140684127807617188e+00 2.220928436145186424e-03 -1.505371037637814879e-04 6.211174186319112778e-04 -5.138156702741980553e-04
1.818000000000000000e+03 6.788990497589111328e+00 5.138278007507324219e+00 -3.358802860020659864e-05 -1.753398217260837555e-03 -5.360958748497068882e-04 -1.532163441879674792e-04
1.819000000000000000e+03 1.071754837036132812e+01 -4.774567604064941406e+00 -4.208541512489318848e-01 2.797535061836242676e-01 -4.233019053936004639e-02 -3.971637189388275146e-01
1.820000000000000000e+03 1.046644592285156250e+01 4.735985279083251953e+00 2.685512183234095573e-03 -3.001368604600429535e-04 7.156126084737479687e-04 5.467213341034948826e-04
1.821000000000000000e+03 9.719579696655273438e+00 4.715118408203125000e+00 -3.158493491355329752e-04 -1.577797695063054562e-03 -5.680941394530236721e-04 7.857814780436456203e-04
1.822000000000000000e+03 8.997527122497558594e+00 4.769114017486572266e+00 2.165628597140312195e-03 -1.884645316749811172e-04 5.931492196395993233e-04 -1.916442124638706446e-04
1.823000000000000000e+03 1.841903305053710938e+01 -5.120288848876953125e+00 -1.192377358675003052e-01 6.164572834968566895e-01 1.491658687591552734e-01 9.563715457916259766e-01
1.824000000000000000e+03 1.698078536987304688e+01 -4.203588962554931641e+00 -3.900569677352905273e-01 5.643343329429626465e-01 5.228320509195327759e-02 6.304110288619995117e-01
1.825000000000000000e+03 1.363956451416015625e+01 -4.614171504974365234e+00 -4.541398882865905762e-01 4.623371660709381104e-01 2.459183568134903908e-03 1.891612261533737183e-02
1.826000000000000000e+03 7.362485504150390625e+01 -1.826724815368652344e+01 1.865372657775878906e+00 1.117024612426757812e+01 3.910685777664184570e+00 -1.403598666191101074e+00
1.827000000000000000e+03 1.504580593109130859e+01 -4.836287975311279297e+00 -3.785962164402008057e-01 5.730444788932800293e-01 5.833447724580764771e-02 2.899469733238220215e-01
1.828000000000000000e+03 2.144860076904296875e+01 -3.345894336700439453e+00 9.050384163856506348e-02 3.249104619026184082e-01 1.246242970228195190e-01 1.144199609756469727e+00
1.829000000000000000e+03 2.277563285827636719e+01 -4.677770614624023438e+00 1.735773831605911255e-01 3.612882792949676514e-01 1.604596972465515137e-01 1.413717389106750488e+00
1.830000000000000000e+03 2.366299819946289062e+01 -2.872084617614746094e+00 5.988163948059082031e-01 1.445091664791107178e-01 2.229976803064346313e-01 1.258590817451477051e+00
1.831000000000000000e+03 1.288851833343505859e+01 -4.666606903076171875e+00 -4.682081341743469238e-01 4.395464658737182617e-01 -8.598500862717628479e-03 -1.023773327469825745e-01
1.832000000000000000e+03 1.414918899536132812e+01 -5.257858276367187500e+00 -3.195927739143371582e-01 6.155080795288085938e-01 8.877459913492202759e-02 1.320256739854812622e-01
1.833000000000000000e+03 7.129391479492187500e+01 -1.279742240905761719e+01 -1.658126711845397949e+00 1.170432853698730469e+01 3.013860702514648438e+00 -7.468920946121215820e-01
1.834000000000000000e+03 6.931514739990234375e+01 -1.234678363800048828e+01 -1.638843894004821777e+00 7.759166240692138672e+00 1.836096763610839844e+00 -2.630041360855102539e+00
1.835000000000000000e+03 2.142414093017578125e+01 -6.708770751953125000e+00 2.665850222110748291e-01 6.230486631393432617e-01 2.668901085853576660e-01 1.336169242858886719e+00
1.836000000000000000e+03 2.509188652038574219e+01 -6.105440139770507812e+00 -2.620338797569274902e-01 4.783735275268554688e-01 6.490188837051391602e-02 1.594678163528442383e+00
1.837000000000000000e+03 2.198320007324218750e+01 -3.778811931610107422e+00 1.047937646508216858e-01 3.228083848953247070e-01 1.282806396484375000e-01 1.219966888427734375e+00
1.838000000000000000e+03 2.277454948425292969e+01 -5.641310691833496094e+00 1.276791840791702271e-01 4.971202313899993896e-01 1.874398291110992432e-01 1.472799897193908691e+00
1.839000000000000000e+03 1.897995185852050781e+01 -4.700921058654785156e+00 -1.292791813611984253e-01 5.824297070503234863e-01 1.359451562166213989e-01 1.005038857460021973e+00
1.840000000000000000e+03 1.982722282409667969e+01 -4.617986202239990234e+00 -5.911028012633323669e-02 5.482195019721984863e-01 1.467327624559402466e-01 1.114730000495910645e+00
1.841000000000000000e+03 7.156369781494140625e+01 -2.167090415954589844e+01 -2.243836075067520142e-01 1.035610198974609375e+01 3.039515495300292969e+00 3.596967756748199463e-01
1.842000000000000000e+03 7.304048919677734375e+01 -1.857247734069824219e+01 1.447920322418212891e+00 1.196710300445556641e+01 4.024507045745849609e+00 -1.380064964294433594e+00
1.843000000000000000e+03 7.393220520019531250e+01 -1.413212490081787109e+01 1.086384296417236328e+00 1.077239990234375000e+01 3.557635068893432617e+00 1.635390162467956543e+00
1.844000000000000000e+03 2.529223060607910156e+01 -3.384199619293212891e+00 9.136655926704406738e-01 -1.390108559280633926e-02 2.699293494224548340e-01 1.485789299011230469e+00
1.845000000000000000e+03 2.400858688354492188e+01 -6.347733020782470703e+00 -3.248487040400505066e-02 5.062457919120788574e-01 1.421282887458801270e-01 1.515998959541320801e+00
1.846000000000000000e+03 7.487284851074218750e+01 -1.999667930603027344e+01 4.682269394397735596e-01 9.985525131225585938e+00 3.136125802993774414e+00 -1.377767443656921387e+00
1.847000000000000000e+03 2.628207588195800781e+01 -5.758774757385253906e+00 -2.383400499820709229e-01 3.845844864845275879e-01 4.387333616614341736e-02 1.953050494194030762e+00
1.848000000000000000e+03 2.676457023620605469e+01 -3.919756889343261719e+00 8.576420545578002930e-01 1.883042305707931519e-01 3.137838840484619141e-01 1.928359746932983398e+00
1.849000000000000000e+03 5.045493698120117188e+01 -1.265777301788330078e+01 1.982365250587463379e-01 8.472106456756591797e-01 3.136341571807861328e-01 1.655478239059448242e+00
1.850000000000000000e+03 4.498495483398437500e+01 -8.731794357299804688e+00 -8.658626675605773926e-01 2.968780994415283203e+00 6.308755278587341309e-01 -2.733543515205383301e-01
1.851000000000000000e+03 6.831940174102783203e+00 1.676550102233886719e+01 -2.526709251105785370e-02 2.143098507076501846e-03 -6.937198340892791748e-03 7.305424194782972336e-03
1.852000000000000000e+03 1.109433460235595703e+01 1.497889995574951172e+01 -1.201989967375993729e-02 -7.380913011729717255e-04 -3.827397245913743973e-03 -4.557056352496147156e-03
1.853000000000000000e+03 7.119129180908203125e+01 -1.988589477539062500e+01 -3.424235582351684570e-01 1.230030822753906250e+01 3.587365388870239258e+00 1.260102510452270508e+00
1.854000000000000000e+03 2.599668693542480469e+01 -3.479496479034423828e+00 1.149756431579589844e+00 4.777244478464126587e-02 3.592586517333984375e-01 1.742011308670043945e+00
1.855000000000000000e+03 1.667900657653808594e+01 -9.799908638000488281e+00 9.861469864845275879e-01 1.740523338317871094e+00 8.180010914802551270e-01 1.006063461303710938e+00
1.856000000000000000e+03 1.491278648376464844e+01 -9.487157821655273438e+00 6.864092350006103516e-01 1.660307645797729492e+00 7.040150761604309082e-01 4.725027680397033691e-01
1.857000000000000000e+03 1.894362068176269531e+01 -8.144880294799804688e+00 5.585737824440002441e-01 1.017474055290222168e+00 4.728143513202667236e-01 1.217962265014648438e+00
1.858000000000000000e+03 1.473790740966796875e+01 -6.515503883361816406e+00 -3.380698338150978088e-02 9.352832436561584473e-01 2.704428732395172119e-01 2.961425185203552246e-01
1.859000000000000000e+03 2.103092956542968750e+01 -7.676957130432128906e+00 4.410891234874725342e-01 6.402159929275512695e-01 3.243915438652038574e-01 1.264298558235168457e+00
1.860000000000000000e+03 4.442796325683593750e+01 -1.034813022613525391e+01 -6.108157038688659668e-01 4.281258106231689453e+00 1.101132750511169434e+00 -1.149053797125816345e-01
1.861000000000000000e+03 4.325254821777343750e+01 -1.553109169006347656e+01 9.455041289329528809e-01 7.270723342895507812e+00 2.464868068695068359e+00 -2.860230207443237305e-01
1.862000000000000000e+03 4.170375442504882812e+01 -1.566253280639648438e+01 1.043438911437988281e+00 7.608115196228027344e+00 2.595466136932373047e+00 -8.881857991218566895e-01
1.863000000000000000e+03 7.328858947753906250e+01 -2.149747657775878906e+01 -2.747232615947723389e-01 1.056502151489257812e+01 3.087089538574218750e+00 -7.501647472381591797e-01
1.864000000000000000e+03 7.047257995605468750e+01 -2.278894996643066406e+01 -3.856435790657997131e-02 9.128103256225585938e+00 2.726861715316772461e+00 7.237405180931091309e-01
1.865000000000000000e+03 4.442689514160156250e+01 -7.855092525482177734e+00 -1.300132513046264648e+00 3.105183362960815430e+00 5.415152311325073242e-01 -6.289248466491699219e-01
1.866000000000000000e+03 7.219268035888671875e+01 -2.067435836791992188e+01 -2.883259654045104980e-01 1.139715862274169922e+01 3.332649707794189453e+00 -4.032774642109870911e-02
1.867000000000000000e+03 7.097000122070312500e+01 -2.678678512573242188e+01 -8.853713274002075195e-01 7.877942562103271484e+00 2.097771406173706055e+00 6.399834901094436646e-02
1.868000000000000000e+03 7.319201660156250000e+01 -2.528238487243652344e+01 -6.967994570732116699e-01 9.118659019470214844e+00 2.526557683944702148e+00 -6.151799559593200684e-01
1.869000000000000000e+03 6.974295043945312500e+01 -1.157216072082519531e+01 -1.969324588775634766e+00 8.305309295654296875e+00 1.900795459747314453e+00 -2.293986558914184570e+00
1.870000000000000000e+03 2.282740783691406250e+01 -3.808454751968383789e+00 3.006058633327484131e-01 3.082491159439086914e-01 1.826564818620681763e-01 1.391286253929138184e+00
1.871000000000000000e+03 3.044826698303222656e+01 -3.644391536712646484e+00 1.160645484924316406e+00 2.526542425155639648e+00 1.106156349182128906e+00 1.327508330345153809e+00
1.872000000000000000e+03 4.008748626708984375e+01 1.485492134094238281e+01 8.915153741836547852e-01 7.380521774291992188e+00 2.481611251831054688e+00 1.908613681793212891e+00
1.873000000000000000e+03 2.895634269714355469e+01 -4.536642074584960938e+00 5.759809613227844238e-01 9.120057225227355957e-01 4.463959932327270508e-01 1.770974040031433105e+00
1.874000000000000000e+03 2.196441173553466797e+00 4.519389152526855469e+00 -2.041295956587418914e-04 5.746730021201074123e-04 1.111630263039842248e-04 -6.312043115030974150e-05
1.875000000000000000e+03 5.406665325164794922e+00 -1.656749534606933594e+01 3.754057884216308594e-01 -2.559309303760528564e-01 3.584245219826698303e-02 1.362474411725997925e-01
1.876000000000000000e+03 1.347093963623046875e+01 7.819034576416015625e+00 -1.301600830629467964e-03 1.424604561179876328e-03 3.690110315801575780e-05 1.201432663947343826e-03
1.877000000000000000e+03 3.750556945800781250e+01 1.392751884460449219e+01 6.246709227561950684e-01 9.613012313842773438e+00 3.071305036544799805e+00 2.737019360065460205e-01
1.878000000000000000e+03 6.875115203857421875e+01 -9.648924827575683594e+00 -1.955087184906005859e+00 6.115482330322265625e+00 1.248118519783020020e+00 -2.398561477661132812e+00
1.879000000000000000e+03 3.444169235229492188e+01 -1.896481633186340332e+00 6.396816968917846680e-01 9.182492256164550781e+00 2.946651935577392578e+00 2.490887492895126343e-01
1.880000000000000000e+03 1.434943294525146484e+01 -1.091646385192871094e+01 1.144990205764770508e+00 1.999548077583312988e+00 9.433614611625671387e-01 4.559770226478576660e-01
1.881000000000000000e+03 6.194779872894287109e+00 -1.084363937377929688e+01 3.233877420425415039e-01 -1.064225882291793823e-01 6.508954614400863647e-02 -4.848199486732482910e-01
1.882000000000000000e+03 3.009865570068359375e+01 -4.868129253387451172e+00 1.706538647413253784e-01 1.422796010971069336e+00 4.780349433422088623e-01 1.077825069427490234e+00
1.883000000000000000e+03 3.704843902587890625e+01 1.705286216735839844e+01 4.372178018093109131e-01 7.789103984832763672e+00 2.467896461486816406e+00 2.128999531269073486e-01
1.884000000000000000e+03 3.668893432617187500e+01 -5.091038227081298828e+00 -2.308549165725708008e+00 9.542664527893066406e+00 2.170234680175781250e+00 -1.173804402351379395e+00
1.885000000000000000e+03 1.095991420745849609e+01 1.409015083312988281e+01 -9.630654007196426392e-03 -1.243165042251348495e-02 -6.618691608309745789e-03 -3.861125092953443527e-03
1.886000000000000000e+03 6.497234344482421875e+00 1.162706279754638672e+01 -1.686293166130781174e-03 -3.217771416530013084e-03 -1.471219351515173912e-03 -6.503220647573471069e-04
1.887000000000000000e+03 7.535581207275390625e+01 3.096621513366699219e+01 -9.822957962751388550e-02 6.471049308776855469e+00 1.911845922470092773e+00 1.988750249147415161e-01
1.888000000000000000e+03 7.441642761230468750e+01 2.743745231628417969e+01 -1.116193905472755432e-01 6.402237415313720703e+00 1.887185335159301758e+00 3.111528158187866211e-01
1.889000000000000000e+03 7.359680938720703125e+01 -3.264019012451171875e+01 -3.803534507751464844e-01 8.087558746337890625e+00 2.312161684036254883e+00 6.677508354187011719e-02
1.890000000000000000e+03 7.405508422851562500e+01 -3.156376266479492188e+01 -4.312105774879455566e-01 8.459717750549316406e+00 2.408551931381225586e+00 -5.052977055311203003e-02
1.891000000000000000e+03 7.562747955322265625e+01 -2.365204620361328125e+01 -3.296326100826263428e-01 9.397092819213867188e+00 2.720237970352172852e+00 -1.177751660346984863e+00
1.892000000000000000e+03 7.127212524414062500e+01 -2.419020843505859375e+01 -4.642668068408966064e-01 8.900560379028320312e+00 2.530888080596923828e+00 7.115640491247177124e-02
1.893000000000000000e+03 7.626155090332031250e+01 -1.405238151550292969e+01 5.772342681884765625e-01 8.822823524475097656e+00 2.820017337799072266e+00 1.237953543663024902e+00
1.894000000000000000e+03 7.400144195556640625e+01 2.209967803955078125e+01 8.889092504978179932e-02 6.377776145935058594e+00 1.940000176429748535e+00 3.865625560283660889e-01
1.895000000000000000e+03 7.536268615722656250e+01 2.308061218261718750e+01 8.155312389135360718e-03 6.303413867950439453e+00 1.893470764160156250e+00 3.726196587085723877e-01
1.896000000000000000e+03 7.591120910644531250e+01 -2.094663429260253906e+01 1.410817503929138184e-01 9.268720626831054688e+00 2.822940587997436523e+00 -1.363159656524658203e+00
1.897000000000000000e+03 7.501540374755859375e+01 -2.163919448852539062e+01 -8.871109783649444580e-02 9.850578308105468750e+00 2.928560018539428711e+00 -1.326919317245483398e+00
1.898000000000000000e+03 7.461752319335937500e+01 -2.876078224182128906e+01 -5.633972883224487305e-01 8.937230110168457031e+00 2.512150049209594727e+00 -4.334541559219360352e-01
1.899000000000000000e+03 7.643965911865234375e+01 -1.286717700958251953e+01 6.345493346452713013e-02 8.898733139038085938e+00 2.688656568527221680e+00 1.318449974060058594e+00
1.900000000000000000e+03 7.346525573730468750e+01 -3.394189834594726562e+01 -2.746064364910125732e-01 7.960647583007812500e+00 2.305812358856201172e+00 1.473970413208007812e-01
1.901000000000000000e+03 7.070574951171875000e+01 -2.892070960998535156e+01 -9.104711413383483887e-01 7.184236049652099609e+00 1.882129430770874023e+00 2.525611817836761475e-01
1.902000000000000000e+03 7.526481628417968750e+01 -7.281649589538574219e+00 -7.925386428833007812e-01 8.774107933044433594e+00 2.394470930099487305e+00 -7.695727795362472534e-02
1.903000000000000000e+03 7.537773132324218750e+01 1.182094669342041016e+01 2.374940216541290283e-01 6.338450431823730469e+00 1.972783327102661133e+00 -4.083389341831207275e-01
1.904000000000000000e+03 1.641225814819335938e+01 -5.554813385009765625e+00 -1.831901818513870239e-01 7.763454318046569824e-01 1.779465675354003906e-01 6.012506484985351562e-01
1.905000000000000000e+03 7.418463897705078125e+01 8.984471321105957031e+00 3.054342269897460938e-01 6.595351696014404297e+00 2.070235729217529297e+00 -7.139596343040466309e-01
1.906000000000000000e+03 7.548410797119140625e+01 3.217123746871948242e+00 5.264149233698844910e-02 7.116598129272460938e+00 2.150771856307983398e+00 -9.254715442657470703e-01
1.907000000000000000e+03 7.415148925781250000e+01 2.666148841381072998e-01 -8.296117931604385376e-02 7.233688831329345703e+00 2.145218372344970703e+00 -1.088549137115478516e+00
1.908000000000000000e+03 7.421645355224609375e+01 -1.321105837821960449e+00 -2.196832597255706787e-01 7.420436859130859375e+00 2.160226106643676758e+00 -1.069533586502075195e+00
1.909000000000000000e+03 7.030776977539062500e+01 1.549694156646728516e+01 8.013787269592285156e-01 6.899183750152587891e+00 2.310168743133544922e+00 -1.524768024682998657e-01
1.910000000000000000e+03 7.420143127441406250e+01 1.786737442016601562e+00 1.671280711889266968e-02 7.097550392150878906e+00 2.134279012680053711e+00 -1.085368990898132324e+00
1.911000000000000000e+03 7.531638336181640625e+01 1.750460433959960938e+01 2.230774015188217163e-01 6.184101581573486328e+00 1.922153711318969727e+00 1.060102134943008423e-01
1.912000000000000000e+03 7.105902862548828125e+01 1.852457237243652344e+01 5.435917377471923828e-01 6.653036594390869141e+00 2.158988475799560547e+00 1.864082366228103638e-01
1.913000000000000000e+03 7.320704650878906250e+01 -3.198296070098876953e+00 -4.997186660766601562e-01 7.428056716918945312e+00 2.078501462936401367e+00 -1.143695354461669922e+00
1.914000000000000000e+03 7.484868621826171875e+01 -1.826074981689453125e+01 1.626897811889648438e+00 9.861987113952636719e+00 3.446665525436401367e+00 -1.173372387886047363e+00
1.915000000000000000e+03 7.548796081542968750e+01 -1.888828468322753906e+01 1.134318113327026367e+00 9.535605430603027344e+00 3.200977087020874023e+00 -1.222529411315917969e+00
1.916000000000000000e+03 7.456060791015625000e+01 -6.756059169769287109e+00 -9.299947023391723633e-01 8.609079360961914062e+00 2.303725242614746094e+00 -3.768782317638397217e-01
1.917000000000000000e+03 7.493920135498046875e+01 -2.079095077514648438e+01 1.803249716758728027e-01 9.982399940490722656e+00 3.048817396163940430e+00 -1.422603130340576172e+00
1.918000000000000000e+03 7.631874847412109375e+01 -1.072995185852050781e+01 -5.737912654876708984e-01 9.130324363708496094e+00 2.566960096359252930e+00 9.583390355110168457e-01
1.919000000000000000e+03 7.551725769042968750e+01 -9.869088172912597656e+00 -8.156539797782897949e-01 9.284197807312011719e+00 2.540563106536865234e+00 7.181311845779418945e-01
1.920000000000000000e+03 7.547301483154296875e+01 -1.243790721893310547e+01 -1.572665274143218994e-01 9.602350234985351562e+00 2.833524942398071289e+00 1.429313182830810547e+00
1.921000000000000000e+03 7.655288696289062500e+01 -1.176750469207763672e+01 -2.159833759069442749e-01 8.976771354675292969e+00 2.628236532211303711e+00 1.274885296821594238e+00
1.922000000000000000e+03 7.396102142333984375e+01 2.601769828796386719e+01 -9.630883485078811646e-02 6.421423912048339844e+00 1.897534489631652832e+00 3.512800037860870361e-01
1.923000000000000000e+03 7.408554840087890625e+01 6.255496978759765625e+00 2.226359695196151733e-01 6.749336242675781250e+00 2.091591596603393555e+00 -9.080604314804077148e-01
1.924000000000000000e+03 7.419967651367187500e+01 4.714664936065673828e+00 1.516583859920501709e-01 6.862189769744873047e+00 2.104154348373413086e+00 -1.001759290695190430e+00
1.925000000000000000e+03 7.174918365478515625e+01 -2.585892105102539062e+01 -8.234722614288330078e-01 8.508971214294433594e+00 2.305649518966674805e+00 -1.666065603494644165e-01
1.926000000000000000e+03 7.395393371582031250e+01 1.046606826782226562e+01 3.531700074672698975e-01 6.548898696899414062e+00 2.070620536804199219e+00 -6.097320318222045898e-01
1.927000000000000000e+03 7.428199768066406250e+01 -2.570666122436523438e+01 -6.248257756233215332e-01 9.172201156616210938e+00 2.564212799072265625e+00 -8.029985427856445312e-01
1.928000000000000000e+03 7.412686157226562500e+01 1.341432189941406250e+01 3.661822378635406494e-01 6.410229682922363281e+00 2.032923698425292969e+00 -3.031133413314819336e-01
1.929000000000000000e+03 7.398695373535156250e+01 1.200418567657470703e+01 3.906262218952178955e-01 6.458086490631103516e+00 2.054613828659057617e+00 -4.537398517131805420e-01
1.930000000000000000e+03 7.392592620849609375e+01 3.154197120666503906e+01 -1.345685571432113647e-01 6.358025550842285156e+00 1.867037057876586914e+00 1.664289832115173340e-01
1.931000000000000000e+03 7.177243804931640625e+01 3.014581298828125000e+01 -2.260435074567794800e-01 6.259750366210937500e+00 1.810112118721008301e+00 1.413607299327850342e-01
1.932000000000000000e+03 7.505762481689453125e+01 -3.313479614257812500e+01 -2.153353691101074219e-01 8.866334915161132812e+00 2.595299720764160156e+00 -2.469317056238651276e-02
1.933000000000000000e+03 7.360671234130859375e+01 2.094628906250000000e+01 1.808724999427795410e-01 6.405313014984130859e+00 1.975855588912963867e+00 3.371243178844451904e-01
1.934000000000000000e+03 7.403593444824218750e+01 1.757731246948242188e+01 3.408043980598449707e-01 6.335136890411376953e+00 2.002782344818115234e+00 9.519688040018081665e-02
1.935000000000000000e+03 7.444872283935546875e+01 -2.827278375625610352e+00 -3.863076567649841309e-01 7.736809253692626953e+00 2.205150365829467773e+00 -9.493287205696105957e-01
1.936000000000000000e+03 7.469998168945312500e+01 -4.192120075225830078e+00 -5.166015625000000000e-01 8.024201393127441406e+00 2.252279758453369141e+00 -7.583165764808654785e-01
1.937000000000000000e+03 7.298557281494140625e+01 -3.594397354125976562e+01 -1.064069494605064392e-01 7.606393814086914062e+00 2.249995946884155273e+00 2.104197442531585693e-01
1.938000000000000000e+03 7.489920043945312500e+01 -8.213416099548339844e+00 -1.003988623619079590e+00 8.993478775024414062e+00 2.396847009658813477e+00 4.556666687130928040e-02
1.939000000000000000e+03 7.323784637451171875e+01 -1.023694229125976562e+01 -1.584864974021911621e+00 9.878017425537109375e+00 2.487945795059204102e+00 3.104751231148838997e-03
1.940000000000000000e+03 7.352816772460937500e+01 2.977806282043457031e+01 -1.580252349376678467e-01 6.360925197601318359e+00 1.860870003700256348e+00 2.229912430047988892e-01
1.941000000000000000e+03 6.518499851226806641e+00 -2.901145744323730469e+01 -2.090944051742553711e-01 4.853053390979766846e-01 8.286327868700027466e-02 4.813204705715179443e-01
1.942000000000000000e+03 7.409223175048828125e+01 -2.766044044494628906e+01 -6.160318255424499512e-01 8.898691177368164062e+00 2.484797954559326172e+00 -5.194753408432006836e-01
1.943000000000000000e+03 4.609907150268554688e+00 2.703250885009765625e+01 -9.253378026187419891e-03 -8.232159167528152466e-02 -2.747249044477939606e-02 1.165242195129394531e-01
1.944000000000000000e+03 4.759487152099609375e+00 -2.669753646850585938e+01 -7.794324308633804321e-02 1.063865423202514648e-01 8.532989770174026489e-03 5.281090736389160156e-01
1.945000000000000000e+03 5.052692890167236328e+00 -1.106978416442871094e+01 2.440158575773239136e-01 -3.879028558731079102e-01 -4.316609725356101990e-02 -4.604412019252777100e-01
1.946000000000000000e+03 5.855378723144531250e+01 -9.649640083312988281e+00 -1.473581910133361816e+00 9.533156156539916992e-01 -1.560798883438110352e-01 7.041857838630676270e-01
1.947000000000000000e+03 5.420822143554687500e+00 -2.251242828369140625e+01 1.069347113370895386e-01 3.891817107796669006e-02 4.375586658716201782e-02 5.967134237289428711e-01
1.948000000000000000e+03 4.014976024627685547e+00 2.201337623596191406e+01 -2.723363228142261505e-02 -3.108497336506843567e-02 -1.749558188021183014e-02 6.051990762352943420e-02
1.949000000000000000e+03 5.765232086181640625e+00 2.425450515747070312e+01 -4.713440686464309692e-02 -1.887407898902893066e-02 -1.980254612863063812e-02 9.981258213520050049e-02
1.950000000000000000e+03 8.157282829284667969e+00 2.405843162536621094e+01 -8.579593896865844727e-02 2.847551181912422180e-02 -1.719612814486026764e-02 1.208553165197372437e-01
1.951000000000000000e+03 5.288218975067138672e+00 -1.520121479034423828e+01 3.889642655849456787e-01 -3.289218246936798096e-01 1.801273785531520844e-02 -2.232674695551395416e-02
1.952000000000000000e+03 5.554105281829833984e+00 -1.798322296142578125e+01 3.605555295944213867e-01 -1.569337099790573120e-01 6.108655035495758057e-02 2.944959700107574463e-01
1.953000000000000000e+03 4.426716327667236328e+00 -1.972524070739746094e+01 1.810642778873443604e-01 -4.308348596096038818e-01 -7.493116706609725952e-02 3.868048489093780518e-01
1.954000000000000000e+03 8.757518768310546875e+00 1.556324768066406250e+01 -2.003101073205471039e-02 1.511734561063349247e-03 -5.555782932788133621e-03 -4.206631798297166824e-03
1.955000000000000000e+03 5.674348354339599609e+00 2.126706886291503906e+01 -4.687919840216636658e-02 -6.285005714744329453e-03 -1.594926044344902039e-02 5.917720496654510498e-02
1.956000000000000000e+03 9.301967620849609375e+00 -1.856726074218750000e+01 6.575545072555541992e-01 1.123478293418884277e+00 5.343098044395446777e-01 4.730342030525207520e-01
1.957000000000000000e+03 7.228244304656982422e+00 -2.347410202026367188e+01 5.706838890910148621e-02 5.507709980010986328e-01 1.823518127202987671e-01 6.692063212394714355e-01
1.958000000000000000e+03 6.009948253631591797e+00 2.826995468139648438e+01 -6.050630472600460052e-03 -5.208497494459152222e-02 -1.744068041443824768e-02 1.385056674480438232e-01
1.959000000000000000e+03 9.960372924804687500e+00 -2.684908485412597656e+01 -2.944716513156890869e-01 1.097833991050720215e+00 2.410087138414382935e-01 4.988548755645751953e-01
1.960000000000000000e+03 3.998646020889282227e+00 -1.267968463897705078e+01 2.102171927690505981e-01 -6.986245512962341309e-01 -1.465221941471099854e-01 -2.943155169486999512e-01
1.961000000000000000e+03 1.047960186004638672e+01 -1.206702518463134766e+01 8.530290126800537109e-01 1.107226252555847168e+00 5.880765914916992188e-01 -1.465136408805847168e-01
1.962000000000000000e+03 5.825277805328369141e+00 1.748688316345214844e+01 -3.238740190863609314e-02 -3.313351655378937721e-03 -1.071022544056177139e-02 1.771987974643707275e-02
1.963000000000000000e+03 5.684588909149169922e+00 1.496256351470947266e+01 -1.243962720036506653e-02 -1.275849645026028156e-03 -4.114643204957246780e-03 2.543120179325342178e-03
1.964000000000000000e+03 5.480302333831787109e+00 3.098999977111816406e+01 9.487966075539588928e-03 -1.104778051376342773e-01 -3.029695153236389160e-02 1.243972852826118469e-01
1.965000000000000000e+03 6.760888576507568359e+00 2.179317665100097656e+01 -6.992059201002120972e-02 1.284834090620279312e-02 -1.712167449295520782e-02 6.455181539058685303e-02
1.966000000000000000e+03 6.506598949432373047e+00 1.851850128173828125e+01 -3.664707392454147339e-02 3.982984460890293121e-03 -9.799227118492126465e-03 1.966011710464954376e-02
1.967000000000000000e+03 5.744253635406494141e+00 -1.951438713073730469e+01 3.015728890895843506e-01 -6.762594450265169144e-03 8.844308555126190186e-02 4.445492923259735107e-01
1.968000000000000000e+03 7.826285839080810547e+00 -3.304412078857421875e+01 -2.513321042060852051e-01 5.891978144645690918e-01 1.013597100973129272e-01 2.701726555824279785e-01
1.969000000000000000e+03 6.073601245880126953e+00 -3.357558441162109375e+01 -1.718152016401290894e-01 4.471824169158935547e-01 8.261016011238098145e-02 2.618678808212280273e-01
1.970000000000000000e+03 8.428180694580078125e+00 -3.463418579101562500e+01 -2.503806650638580322e-01 5.886960625648498535e-01 1.014946177601814270e-01 1.937285363674163818e-01
1.971000000000000000e+03 6.293594837188720703e+00 -2.770512580871582031e+01 -1.545504480600357056e-01 4.231630861759185791e-01 8.058379590511322021e-02 5.487879514694213867e-01
1.972000000000000000e+03 6.104867935180664062e+00 -2.636911582946777344e+01 -1.195164546370506287e-01 3.528922200202941895e-01 7.001273334026336670e-02 5.840652585029602051e-01
1.973000000000000000e+03 3.898040533065795898e+00 1.008156585693359375e+01 4.004100337624549866e-03 -4.326343478169292212e-04 1.071439706720411777e-03 -3.525412874296307564e-03
1.974000000000000000e+03 7.137855052947998047e+00 7.546149253845214844e+00 4.053658805787563324e-03 -2.336148638278245926e-03 5.152531084604561329e-04 -1.527019077911973000e-03
1.975000000000000000e+03 5.859805107116699219e+00 1.059141349792480469e+01 -1.166379092865099665e-06 -4.610396455973386765e-03 -1.383468857966363430e-03 -1.232377137057483196e-03
1.976000000000000000e+03 5.143287658691406250e+01 -8.094859123229980469e+00 -7.019271254539489746e-01 9.830071926116943359e-01 8.432400971651077271e-02 2.341168880462646484e+00
1.977000000000000000e+03 5.019206237792968750e+01 -7.729762554168701172e+00 -8.574169874191284180e-01 5.659065842628479004e-01 -8.745311200618743896e-02 2.167845249176025391e+00
1.978000000000000000e+03 5.112764835357666016e+00 8.827165603637695312e+00 3.624086268246173859e-03 -1.360053080134093761e-03 6.792099447920918465e-04 -2.677912591025233269e-03
1.979000000000000000e+03 3.863985061645507812e+00 7.333841323852539062e+00 2.165285637602210045e-03 8.664097986184060574e-04 9.095086134038865566e-04 -3.010651329532265663e-03
1.980000000000000000e+03 5.131351470947265625e+00 -1.245127296447753906e+01 3.116149604320526123e-01 -3.891890645027160645e-01 -2.327223494648933411e-02 -3.308513462543487549e-01
1.981000000000000000e+03 4.877718925476074219e+00 -8.395257949829101562e+00 7.283721864223480225e-02 -3.393387198448181152e-01 -7.995044440031051636e-02 -5.957219600677490234e-01
1.982000000000000000e+03 3.715882301330566406e+00 -7.274435520172119141e+00 5.698445602320134640e-04 -4.564697444438934326e-01 -1.367699652910232544e-01 -5.446048378944396973e-01
1.983000000000000000e+03 1.020614433288574219e+01 -1.931717681884765625e+01 6.614801883697509766e-01 1.542978167533874512e+00 6.613374948501586914e-01 5.689163804054260254e-01
1.984000000000000000e+03 1.050324916839599609e+01 -2.117685508728027344e+01 4.136428833007812500e-01 1.596267819404602051e+00 6.029732227325439453e-01 5.999816656112670898e-01
1.985000000000000000e+03 6.557756805419921875e+01 -9.241013526916503906e+00 -1.223547458648681641e+00 1.921851396560668945e+00 2.094911932945251465e-01 -1.696820735931396484e+00
1.986000000000000000e+03 6.242694854736328125e+01 -8.189270973205566406e+00 -7.493665218353271484e-01 8.064474463462829590e-01 1.712428405880928040e-02 -7.694250345230102539e-02
1.987000000000000000e+03 6.456616973876953125e+01 -8.961933135986328125e+00 -1.359007477760314941e+00 1.422425150871276855e+00 1.902532391250133514e-02 -1.404423356056213379e+00
1.988000000000000000e+03 6.089555358886718750e+01 -8.785789489746093750e+00 -1.221152186393737793e+00 8.504257798194885254e-01 -1.112179160118103027e-01 5.049410462379455566e-01
1.989000000000000000e+03 5.629631042480468750e+01 -9.562590599060058594e+00 -1.097584009170532227e+00 1.064987778663635254e+00 -9.778864681720733643e-03 1.172986268997192383e+00
1.990000000000000000e+03 4.235051727294921875e+01 -1.855333518981933594e+01 1.726427078247070312e+00 8.521569252014160156e+00 3.074398756027221680e+00 -8.392957448959350586e-01
1.991000000000000000e+03 4.009835433959960938e+01 -1.281859493255615234e+01 -4.316519945859909058e-02 7.873193264007568359e+00 2.349008560180664062e+00 -1.022335886955261230e+00
1.992000000000000000e+03 9.738257408142089844e+00 2.191969490051269531e+01 -1.337123662233352661e-01 5.180585756897926331e-02 -2.457195147871971130e-02 7.025440782308578491e-02
1.993000000000000000e+03 1.414325046539306641e+01 2.329335784912109375e+01 -2.701455950736999512e-01 7.819307595491409302e-02 -5.758576095104217529e-02 9.075517207384109497e-02
1.994000000000000000e+03 2.594225120544433594e+01 -4.764682769775390625e+00 3.166895210742950439e-01 2.159590870141983032e-01 1.597945839166641235e-01 1.883301019668579102e+00
1.995000000000000000e+03 1.717603683471679688e+01 -3.271685028076171875e+01 -4.954741299152374268e-01 7.140316963195800781e-01 6.556726992130279541e-02 -2.145154327154159546e-01
1.996000000000000000e+03 1.251043128967285156e+01 -2.628644943237304688e+01 -3.704395890235900879e-01 1.463166117668151855e+00 3.278179466724395752e-01 2.791219353675842285e-01
1.997000000000000000e+03 1.421553802490234375e+01 -2.484367752075195312e+01 -2.744672894477844238e-01 1.767652273178100586e+00 4.479555189609527588e-01 -7.773618400096893311e-02
1.998000000000000000e+03 3.891719055175781250e+01 -4.167024612426757812e+00 -1.774039506912231445e+00 9.690610885620117188e+00 2.374971389770507812e+00 -1.661230206489562988e+00
1.999000000000000000e+03 4.215459442138671875e+01 1.875035476684570312e+01 4.065555632114410400e-01 4.616836071014404297e+00 1.507017493247985840e+00 1.766431093215942383e+00
2.000000000000000000e+03 6.649764251708984375e+01 1.924254608154296875e+01 9.025260806083679199e-01 7.358326435089111328e+00 2.478255748748779297e+00 4.652298521250486374e-03
2.001000000000000000e+03 6.736807250976562500e+01 -9.801077842712402344e+00 -2.094807624816894531e+00 4.211647510528564453e+00 6.350519657135009766e-01 -2.588998317718505859e+00
2.002000000000000000e+03 1.177629184722900391e+01 2.164882278442382812e+01 -1.981602907180786133e-01 7.168794423341751099e-02 -3.794170171022415161e-02 4.681218788027763367e-02
2.003000000000000000e+03 5.889827346801757812e+01 -6.507247447967529297e+00 -1.821513175964355469e-01 1.481981635093688965e+00 3.899491131305694580e-01 8.895925283432006836e-01
2.004000000000000000e+03 5.274959564208984375e+01 -1.089456939697265625e+01 -6.125759482383728027e-01 7.766222357749938965e-01 4.921388253569602966e-02 1.742577910423278809e+00
2.005000000000000000e+03 4.745713806152343750e+01 -1.317776107788085938e+01 4.440377056598663330e-01 3.038137912750244141e+00 1.044652700424194336e+00 1.459040880203247070e+00
2.006000000000000000e+03 4.867940139770507812e+01 -1.165796184539794922e+01 1.198284998536109924e-01 1.709881424903869629e+00 5.489130020141601562e-01 1.768395543098449707e+00
2.007000000000000000e+03 1.302109146118164062e+01 -2.488621139526367188e+01 -2.496478408575057983e-01 1.705272197723388672e+00 4.366873204708099365e-01 2.281395196914672852e-01
2.008000000000000000e+03 5.421240997314453125e+01 -7.380275249481201172e+00 -5.002371668815612793e-01 1.661061525344848633e+00 3.482473194599151611e-01 1.697667479515075684e+00
2.009000000000000000e+03 5.948549652099609375e+01 -5.336110591888427734e+00 2.903477251529693604e-01 1.736564278602600098e+00 6.080735921859741211e-01 8.118025064468383789e-01
2.010000000000000000e+03 3.954844665527343750e+01 1.791249656677246094e+01 2.986448705196380615e-01 6.356777191162109375e+00 1.996626615524291992e+00 1.290011763572692871e+00
2.011000000000000000e+03 4.048717117309570312e+01 -1.884608459472656250e+01 1.698129177093505859e+00 8.714171409606933594e+00 3.123690128326416016e+00 -1.158131599426269531e+00
2.012000000000000000e+03 4.012073898315429688e+01 -4.034130096435546875e+00 -1.610866069793701172e+00 9.023309707641601562e+00 2.223732948303222656e+00 -2.480430364608764648e+00
2.013000000000000000e+03 3.652102661132812500e+01 1.463561820983886719e+01 7.583643198013305664e-01 9.327383041381835938e+00 3.025724172592163086e+00 -3.002303540706634521e-01
2.014000000000000000e+03 3.753350067138671875e+01 -3.042388439178466797e+00 -7.740104198455810547e-01 1.028295326232910156e+01 2.852682828903198242e+00 -1.178489446640014648e+00
2.015000000000000000e+03 3.784654617309570312e+01 -5.436602592468261719e+00 -2.478529930114746094e+00 9.567035675048828125e+00 2.126551866531372070e+00 -1.389314293861389160e+00
2.016000000000000000e+03 2.820700836181640625e+01 -2.987585544586181641e+00 1.599102139472961426e+00 7.199659943580627441e-01 6.957204341888427734e-01 1.824553370475769043e+00
2.017000000000000000e+03 2.622925758361816406e+01 -2.599988698959350586e+00 1.429486155509948730e+00 -1.477297544479370117e-01 3.845269381999969482e-01 1.397771000862121582e+00
2.018000000000000000e+03 6.560043334960937500e+01 1.005990505218505859e+01 8.041795492172241211e-01 7.782640933990478516e+00 2.576046228408813477e+00 -1.064564883708953857e-01
2.019000000000000000e+03 7.233570861816406250e+01 9.347447395324707031e+00 4.496379196643829346e-01 6.680976867675781250e+00 2.139184474945068359e+00 -7.541430592536926270e-01
2.020000000000000000e+03 3.616362380981445312e+01 -3.015837097167968750e+01 -3.762483894824981689e-01 5.355291843414306641e+00 1.493713021278381348e+00 1.024085402488708496e+00
2.021000000000000000e+03 3.705224990844726562e+01 -2.821350860595703125e+01 1.323448419570922852e-01 6.115628242492675781e+00 1.874391913414001465e+00 8.832163810729980469e-01
2.022000000000000000e+03 1.079642581939697266e+01 1.311795234680175781e+01 -5.594231188297271729e-04 -2.963431645184755325e-03 -1.056856475770473480e-03 6.719813100062310696e-04
2.023000000000000000e+03 6.792286872863769531e+00 9.776641845703125000e+00 3.562575147952884436e-04 -3.230790141969919205e-03 -8.623597677797079086e-04 -2.022201195359230042e-03
2.024000000000000000e+03 3.930547714233398438e+01 -1.658273887634277344e+01 1.321523547172546387e+00 8.789215087890625000e+00 3.033221721649169922e+00 -1.411272048950195312e+00
2.025000000000000000e+03 1.549836826324462891e+01 4.802944183349609375e+00 -1.295065856538712978e-03 -4.545125411823391914e-04 -5.248735542409121990e-04 1.698373584076762199e-03
2.026000000000000000e+03 1.525545692443847656e+01 6.734037399291992188e+00 -1.125958515331149101e-03 1.394637976773083210e-03 8.060384425334632397e-05 7.084175595082342625e-04
2.027000000000000000e+03 4.123675537109375000e+01 -2.161374855041503906e+01 1.918065547943115234e+00 8.940921783447265625e+00 3.257696151733398438e+00 -1.117473840713500977e+00
2.028000000000000000e+03 4.238928985595703125e+01 -2.139187240600585938e+01 1.686190605163574219e+00 9.654303550720214844e+00 3.402148246765136719e+00 -1.084972858428955078e+00
2.029000000000000000e+03 1.792877006530761719e+01 2.807563018798828125e+01 1.028452664613723755e-01 2.804513275623321533e-01 1.149889826774597168e-01 -9.011333435773849487e-02
2.030000000000000000e+03 1.821047019958496094e+01 -3.038555717468261719e+01 -5.826361179351806641e-01 6.797183752059936523e-01 2.912468090653419495e-02 -2.295416593551635742e-01
2.031000000000000000e+03 6.780120086669921875e+01 1.390839672088623047e+01 9.913293123245239258e-01 7.499128341674804688e+00 2.547137260437011719e+00 -3.792641460895538330e-01
2.032000000000000000e+03 7.280345916748046875e+01 1.618800163269042969e+01 4.921704232692718506e-01 6.470918655395507812e+00 2.088926792144775391e+00 -4.735000804066658020e-02
2.033000000000000000e+03 3.979254531860351562e+01 -2.004142379760742188e+01 1.769681334495544434e+00 8.749354362487792969e+00 3.155710697174072266e+00 -1.010016441345214844e+00
2.034000000000000000e+03 6.725811767578125000e+01 7.561529159545898438e+00 6.784715652465820312e-01 6.910332202911376953e+00 2.276641130447387695e+00 -5.066676139831542969e-01
2.035000000000000000e+03 3.304167556762695312e+01 2.380197334289550781e+01 -2.795246839523315430e-01 5.516705513000488281e+00 1.571154236793518066e+00 -5.093294382095336914e-01
2.036000000000000000e+03 2.932413482666015625e+01 2.600774192810058594e+01 -3.054419159889221191e-01 3.546317577362060547e+00 9.722627401351928711e-01 -1.153418540954589844e+00
2.037000000000000000e+03 6.603672027587890625e+01 6.005877017974853516e+00 6.530591845512390137e-01 6.633534431457519531e+00 2.185977935791015625e+00 -3.117243945598602295e-01
2.038000000000000000e+03 6.284749221801757812e+01 -6.989813327789306641e+00 -3.125649690628051758e-01 1.483118057250976562e+00 3.511659204959869385e-01 -4.375666975975036621e-01
2.039000000000000000e+03 6.788951110839843750e+01 1.015318965911865234e+01 8.152735829353332520e-01 7.218086242675781250e+00 2.410007953643798828e+00 -5.169158577919006348e-01
2.040000000000000000e+03 3.592527008056640625e+01 -3.557827758789062500e+01 -1.032131671905517578e+00 4.497042179107666016e+00 1.039473176002502441e+00 7.413903474807739258e-01
2.041000000000000000e+03 3.732608032226562500e+01 3.021772861480712891e+00 1.841859221458435059e+00 1.421316242218017578e+01 4.816506862640380859e+00 -5.686679482460021973e-01
2.042000000000000000e+03 1.386534976959228516e+01 -9.920040130615234375e+00 7.602167725563049316e-01 1.667966723442077637e+00 7.284550666809082031e-01 2.468425035476684570e-01
2.043000000000000000e+03 5.715740966796875000e+01 2.694738197326660156e+01 3.147981762886047363e-01 2.128448724746704102e+00 7.329741120338439941e-01 -8.861346244812011719e-01
2.044000000000000000e+03 3.662182235717773438e+01 2.003059387207031250e+01 1.369260549545288086e-01 6.602082729339599609e+00 2.021702527999877930e+00 2.724431455135345459e-01
2.045000000000000000e+03 3.540730285644531250e+01 1.831533432006835938e+01 5.107512474060058594e-01 7.523179054260253906e+00 2.410179138183593750e+00 -4.352772533893585205e-01
2.046000000000000000e+03 4.389414596557617188e+01 -2.776695632934570312e+01 1.131216764450073242e+00 8.181769371032714844e+00 2.793895721435546875e+00 -1.037098169326782227e+00
2.047000000000000000e+03 3.019215583801269531e+01 2.732881927490234375e+01 -3.902760446071624756e-01 3.749799966812133789e+00 1.007857203483581543e+00 -9.848939776420593262e-01
2.048000000000000000e+03 6.463843536376953125e+01 1.612465023994445801e+00 5.150634646415710449e-01 5.221971511840820312e+00 1.721110582351684570e+00 -1.124513298273086548e-01
2.049000000000000000e+03 6.379569625854492188e+01 1.063106283545494080e-01 5.720133185386657715e-01 4.475665569305419922e+00 1.514303684234619141e+00 8.687299676239490509e-03
2.050000000000000000e+03 2.302528190612792969e+01 3.055092048645019531e+01 1.057186201214790344e-01 1.251655817031860352e+00 4.072123169898986816e-01 -5.949433445930480957e-01
2.051000000000000000e+03 2.065632629394531250e+01 3.172372055053710938e+01 1.597372591495513916e-01 8.969011902809143066e-01 3.169915378093719482e-01 -3.324829041957855225e-01
2.052000000000000000e+03 4.065712356567382812e+01 -2.227405548095703125e+01 1.934738874435424805e+00 8.549710273742675781e+00 3.145334959030151367e+00 -9.900727272033691406e-01
2.053000000000000000e+03 4.090736389160156250e+01 -8.876300811767578125e+00 -1.801887869834899902e+00 7.068285465240478516e+00 1.579919219017028809e+00 -1.375190973281860352e+00
2.054000000000000000e+03 7.400621032714843750e+01 -2.668748474121093750e+01 -6.348503828048706055e-01 8.991401672363281250e+00 2.506965398788452148e+00 -6.509495973587036133e-01
2.055000000000000000e+03 5.726437759399414062e+01 -4.118521881103515625e+01 9.753962755203247070e-01 1.037053465843200684e+00 6.037349104881286621e-01 -1.063329279422760010e-01
2.056000000000000000e+03 5.936640930175781250e+01 -3.753464126586914062e+01 7.959504723548889160e-01 8.419961333274841309e-01 4.913839697837829590e-01 -6.312837451696395874e-02
2.057000000000000000e+03 6.440331268310546875e+01 -3.341506576538085938e+01 -2.062147408723831177e-01 2.460314273834228516e+00 6.762298345565795898e-01 7.323195934295654297e-01
2.058000000000000000e+03 6.577410888671875000e+01 2.951473236083984375e+00 5.033273100852966309e-01 5.834242343902587891e+00 1.901270866394042969e+00 -4.048374891281127930e-01
2.059000000000000000e+03 6.571573638916015625e+01 5.163594722747802734e+00 6.136463284492492676e-01 6.411769866943359375e+00 2.107624769210815430e+00 -2.877733707427978516e-01
2.060000000000000000e+03 8.408531188964843750e+00 1.709403228759765625e+01 -3.839092701673507690e-02 7.719892542809247971e-03 -9.201310575008392334e-03 1.491975155659019947e-03
2.061000000000000000e+03 8.075723648071289062e+00 -1.717251777648925781e+01 6.742756366729736328e-01 6.461949348449707031e-01 3.961411714553833008e-01 3.353049457073211670e-01
2.062000000000000000e+03 1.146624088287353516e+01 -1.773196601867675781e+01 8.296571969985961914e-01 2.121644735336303711e+00 8.853905797004699707e-01 5.790299177169799805e-01
2.063000000000000000e+03 3.962815475463867188e+01 -9.289897918701171875e+00 -1.919099807739257812e+00 8.118570327758789062e+00 1.859841108322143555e+00 -1.247678637504577637e+00
2.064000000000000000e+03 3.804510879516601562e+01 -1.149059581756591797e+01 -7.911925911903381348e-01 8.730357170104980469e+00 2.381749153137207031e+00 -1.071908235549926758e+00
2.065000000000000000e+03 5.593917846679687500e+01 2.981213951110839844e+01 5.039035677909851074e-01 2.352019309997558594e+00 8.567768335342407227e-01 -3.328798711299896240e-01
2.066000000000000000e+03 1.674256706237792969e+01 2.963673210144042969e+01 1.124711260199546814e-01 3.112353086471557617e-01 1.271119266748428345e-01 -4.221468791365623474e-02
2.067000000000000000e+03 5.004079437255859375e+01 -3.251703643798828125e+01 3.870856389403343201e-02 2.710321903228759766e+00 8.247091174125671387e-01 -2.077572345733642578e+00
2.068000000000000000e+03 7.200187683105468750e+01 4.076563262939453125e+01 -1.981004141271114349e-02 6.027246475219726562e+00 1.802230954170227051e+00 3.700962697621434927e-04
2.069000000000000000e+03 1.058903312683105469e+01 2.080287742614746094e+01 -1.411426812410354614e-01 5.533882603049278259e-02 -2.574115805327892303e-02 1.975774019956588745e-02
2.070000000000000000e+03 7.342740058898925781e+00 2.063964843750000000e+01 -6.568262726068496704e-02 1.171686127781867981e-02 -1.618972979485988617e-02 5.048308148980140686e-02
2.071000000000000000e+03 9.068213462829589844e+00 -4.888456821441650391e+00 -3.465618193149566650e-01 1.568326503038406372e-01 -5.691874772310256958e-02 -5.456743836402893066e-01
2.072000000000000000e+03 8.416404724121093750e+00 -6.503200054168701172e+00 -9.243080019950866699e-02 1.836178004741668701e-01 2.735609933733940125e-02 -6.054331660270690918e-01
2.073000000000000000e+03 8.372712135314941406e+00 -5.916362762451171875e+00 -1.708351075649261475e-01 1.468945145606994629e-01 -7.182177156209945679e-03 -6.029432415962219238e-01
2.074000000000000000e+03 1.289381599426269531e+01 5.597186088562011719e+00 2.513402141630649567e-03 2.763838856481015682e-04 8.369358256459236145e-04 1.347497309325262904e-04
2.075000000000000000e+03 5.057892322540283203e+00 -4.678514957427978516e+00 -2.013137638568878174e-01 -1.604002863168716431e-01 -1.085142120718955994e-01 -5.532385110855102539e-01
2.076000000000000000e+03 5.787659168243408203e+00 -5.821582794189453125e+00 -1.354395598173141479e-01 -1.265517175197601318e-01 -7.859738171100616455e-02 -6.245002746582031250e-01
2.077000000000000000e+03 6.664994716644287109e+00 -5.671759128570556641e+00 -1.590910106897354126e-01 -4.610267281532287598e-02 -6.155810505151748657e-02 -6.415444016456604004e-01
2.078000000000000000e+03 4.801741600036621094e+00 -7.112838268280029297e+00 -4.734866321086883545e-03 -2.955903112888336182e-01 -9.009755402803421021e-02 -6.060315966606140137e-01
2.079000000000000000e+03 1.470186519622802734e+01 4.611973762512207031e+00 1.759341103024780750e-03 1.089178724214434624e-03 8.545559830963611603e-04 -6.148648390080779791e-05
2.080000000000000000e+03 1.477828693389892578e+01 5.931071758270263672e+00 4.999666707590222359e-04 1.782520994311198592e-04 2.034656354226171970e-04 9.889941429719328880e-04
2.081000000000000000e+03 9.843643188476562500e+00 -5.560525417327880859e+00 -2.582773864269256592e-01 2.789281606674194336e-01 6.195240188390016556e-03 -5.064752101898193359e-01
2.082000000000000000e+03 4.547597408294677734e+00 5.944550037384033203e+00 1.019830117002129555e-03 7.794835255481302738e-04 5.397940985858440399e-04 -2.928147325292229652e-03
2.083000000000000000e+03 1.204528808593750000e+01 7.002219200134277344e+00 -1.999037107452750206e-03 -1.255497802048921585e-03 -9.763604612089693546e-04 4.018461797386407852e-03
2.084000000000000000e+03 1.279541206359863281e+01 7.177369594573974609e+00 2.643280662596225739e-03 3.160534251946955919e-04 8.878001826815307140e-04 1.714600366540253162e-03
2.085000000000000000e+03 1.122570610046386719e+01 5.513693332672119141e+00 3.173571079969406128e-03 -5.590346409007906914e-04 7.843609200790524483e-04 3.225545224267989397e-04
2.086000000000000000e+03 5.903472423553466797e+00 7.068056106567382812e+00 2.786798635497689247e-03 -2.600420266389846802e-03 5.591350054601207376e-05 -7.507484988309442997e-04
2.087000000000000000e+03 7.530094146728515625e+00 4.994758605957031250e+00 2.562218578532338142e-03 -6.495298002846539021e-04 5.738066392950713634e-04 -8.128804620355367661e-04
2.088000000000000000e+03 1.178940773010253906e+01 -5.177928447723388672e+00 -3.411634564399719238e-01 4.182882606983184814e-01 2.313744276762008667e-02 -2.607213854789733887e-01
2.089000000000000000e+03 8.273924827575683594e+00 4.877713680267333984e+00 1.251182857231469825e-05 -1.853056368418037891e-03 -5.521633429452776909e-04 6.447101477533578873e-04
2.090000000000000000e+03 7.683521747589111328e+00 5.756160259246826172e+00 -7.974739855853840709e-05 -2.335423603653907776e-03 -7.245512679219245911e-04 3.900942101608961821e-04
2.091000000000000000e+03 1.474245071411132812e+01 -7.531067848205566406e+00 1.906037628650665283e-01 1.187190532684326172e+00 4.133383035659790039e-01 3.417242765426635742e-01
2.092000000000000000e+03 1.434841346740722656e+01 -4.662931442260742188e+00 -4.413931369781494141e-01 5.512101650238037109e-01 3.294511139392852783e-02 1.632004827260971069e-01
2.093000000000000000e+03 1.225499916076660156e+01 -5.705484390258789062e+00 -2.563285529613494873e-01 5.566934347152709961e-01 9.010946005582809448e-02 -1.983838677406311035e-01
2.094000000000000000e+03 1.148799133300781250e+01 -4.651186943054199219e+00 -4.686661064624786377e-01 3.379028737545013428e-01 -3.922897577285766602e-02 -3.067936003208160400e-01
2.095000000000000000e+03 1.707355880737304688e+01 -4.981042385101318359e+00 -2.261146456003189087e-01 6.716469526290893555e-01 1.336596757173538208e-01 7.298298478126525879e-01
2.096000000000000000e+03 1.576644897460937500e+01 -5.099941730499267578e+00 -2.872304916381835938e-01 7.071971297264099121e-01 1.259899884462356567e-01 4.758485257625579834e-01
2.097000000000000000e+03 1.062561511993408203e+01 -5.520121097564697266e+00 -2.802882790565490723e-01 3.769526183605194092e-01 2.899929694831371307e-02 -4.126543700695037842e-01
2.098000000000000000e+03 6.968341350555419922e+00 5.912629604339599609e+00 2.959321951493620872e-03 -1.071161241270601749e-03 5.664482014253735542e-04 -1.255499199032783508e-03
2.099000000000000000e+03 1.360147666931152344e+01 -5.214148998260498047e+00 -3.558182120323181152e-01 5.935022830963134766e-01 7.130523025989532471e-02 2.580857090651988983e-02
2.100000000000000000e+03 1.925326919555664062e+01 -7.188814163208007812e+00 3.161099851131439209e-01 8.630467057228088379e-01 3.537470102310180664e-01 1.180070519447326660e+00
2.101000000000000000e+03 1.468257904052734375e+01 -5.520628452301025391e+00 -2.394868582487106323e-01 7.226575016975402832e-01 1.449511945247650146e-01 2.601328492164611816e-01
2.102000000000000000e+03 7.047988128662109375e+01 -1.280396080017089844e+01 -1.724527597427368164e+00 1.071964836120605469e+01 2.698536157608032227e+00 -1.953055262565612793e+00
2.103000000000000000e+03 7.206987762451171875e+01 -1.178729438781738281e+01 -1.789155721664428711e+00 1.084885215759277344e+01 2.717908859252929688e+00 -2.433515042066574097e-01
2.104000000000000000e+03 7.063647460937500000e+01 -2.073868179321289062e+01 2.398892045021057129e-01 1.069921970367431641e+01 3.281732559204101562e+00 1.668592095375061035e+00
2.105000000000000000e+03 1.525886058807373047e+01 -5.866835117340087891e+00 -1.659430116415023804e-01 8.227958679199218750e-01 1.970558613538742065e-01 3.699890673160552979e-01
2.106000000000000000e+03 1.767409324645996094e+01 -6.576537132263183594e+00 1.013550311326980591e-01 9.404818415641784668e-01 3.125510513782501221e-01 9.456503987312316895e-01
2.107000000000000000e+03 2.177533721923828125e+01 -4.634823799133300781e+00 1.344127207994461060e-01 4.532329142093658447e-01 1.762936860322952271e-01 1.347818732261657715e+00
2.108000000000000000e+03 2.076913833618164062e+01 -4.579770088195800781e+00 1.622188650071620941e-02 4.686589539051055908e-01 1.454642415046691895e-01 1.201491117477416992e+00
2.109000000000000000e+03 2.546795082092285156e+01 -4.058089256286621094e+00 7.162758708000183105e-01 1.826477497816085815e-01 2.696770727634429932e-01 1.840155839920043945e+00
2.110000000000000000e+03 2.368795394897460938e+01 -3.705759048461914062e+00 4.484596550464630127e-01 1.502158492803573608e-01 1.796026527881622314e-01 1.395576000213623047e+00
2.111000000000000000e+03 1.875808143615722656e+01 -6.112131118774414062e+00 7.909858226776123047e-02 7.633004188537597656e-01 2.527197003364562988e-01 1.072734355926513672e+00
2.112000000000000000e+03 2.373950195312500000e+01 -4.564157009124755859e+00 2.940559983253479004e-01 3.333030343055725098e-01 1.882077157497406006e-01 1.610107541084289551e+00
2.113000000000000000e+03 1.900244331359863281e+01 -5.370480060577392578e+00 -7.395626045763492584e-03 7.013155817985534668e-01 2.081759870052337646e-01 1.090193390846252441e+00
2.114000000000000000e+03 1.976847076416015625e+01 -5.453508377075195312e+00 3.845300525426864624e-02 6.234579682350158691e-01 1.985732913017272949e-01 1.152637243270874023e+00
2.115000000000000000e+03 7.309943389892578125e+01 -1.277495479583740234e+01 -8.304110169410705566e-01 1.136853027343750000e+01 3.161435604095458984e+00 1.022091388702392578e+00
2.116000000000000000e+03 2.168312454223632812e+01 -5.667516231536865234e+00 1.010201275348663330e-01 5.340448617935180664e-01 1.905195116996765137e-01 1.344512701034545898e+00
2.117000000000000000e+03 1.181034564971923828e+01 8.728457450866699219e+00 2.861362183466553688e-03 -4.481746291276067495e-04 7.239562692120671272e-04 5.887278821319341660e-04
2.118000000000000000e+03 7.151481628417968750e+01 -2.324298286437988281e+01 -3.772708773612976074e-01 9.502189636230468750e+00 2.737475633621215820e+00 5.872142314910888672e-02
2.119000000000000000e+03 7.305393218994140625e+01 -2.057714462280273438e+01 -5.904972180724143982e-02 1.121487331390380859e+01 3.346747159957885742e+00 -8.704636693000793457e-01
2.120000000000000000e+03 2.384650421142578125e+01 -5.440111160278320312e+00 5.169438570737838745e-02 4.187292754650115967e-01 1.411270946264266968e-01 1.548182487487792969e+00
2.121000000000000000e+03 4.708314132690429688e+01 -1.075742149353027344e+01 -1.307390034198760986e-01 2.392216205596923828e+00 6.784431934356689453e-01 1.108681321144104004e+00
2.122000000000000000e+03 5.045043945312500000e+01 -1.043517780303955078e+01 -2.074606567621231079e-01 9.627355337142944336e-01 2.265824675559997559e-01 2.072740077972412109e+00
2.123000000000000000e+03 1.586121177673339844e+01 -8.917682647705078125e+00 5.804435610771179199e-01 1.558785796165466309e+00 6.417688131332397461e-01 6.779627799987792969e-01
2.124000000000000000e+03 1.440769481658935547e+01 -8.619852066040039062e+00 4.154755473136901855e-01 1.401079297065734863e+00 5.449664592742919922e-01 2.999620735645294189e-01
2.125000000000000000e+03 6.827542114257812500e+01 -1.129509353637695312e+01 -1.897932410240173340e+00 5.579961299896240234e+00 1.104608774185180664e+00 -2.453258752822875977e+00
2.126000000000000000e+03 7.217511749267578125e+01 -2.477586555480957031e+01 -6.270805597305297852e-01 9.114714622497558594e+00 2.546290159225463867e+00 -3.645366728305816650e-01
2.127000000000000000e+03 3.118528556823730469e+01 -5.360740661621093750e+00 -5.784839391708374023e-01 2.841893672943115234e+00 6.790229082107543945e-01 1.658052653074264526e-01
2.128000000000000000e+03 3.368743133544921875e+01 -5.470736026763916016e+00 -1.784403443336486816e+00 6.692193031311035156e+00 1.472336888313293457e+00 -7.105929851531982422e-01
2.129000000000000000e+03 3.821565246582031250e+01 1.499287986755371094e+01 6.638301610946655273e-01 8.458590507507324219e+00 2.736726284027099609e+00 7.887868881225585938e-01
2.130000000000000000e+03 4.321764373779296875e+01 -1.409635829925537109e+01 4.879496395587921143e-01 6.648550987243652344e+00 2.140950202941894531e+00 -2.606180906295776367e-01
2.131000000000000000e+03 4.401436614990234375e+01 -9.257712364196777344e+00 -1.004979848861694336e+00 4.086983203887939453e+00 9.246009588241577148e-01 -4.620594084262847900e-01
2.132000000000000000e+03 5.707093429565429688e+01 -9.250360488891601562e+00 -1.166991591453552246e+00 1.123685956001281738e+00 -1.299166958779096603e-02 1.027079701423645020e+00
2.133000000000000000e+03 1.390113925933837891e+01 6.350957870483398438e+00 2.463122364133596420e-04 1.885924953967332840e-03 6.396711687557399273e-04 4.806371871381998062e-04
2.134000000000000000e+03 1.675161743164062500e+01 5.496711730957031250e+00 -6.380681879818439484e-04 -3.986477095168083906e-04 -3.110147663392126560e-04 3.582266799639910460e-04
2.135000000000000000e+03 1.615657997131347656e+01 5.066958904266357422e+00 6.134414434200152755e-05 1.943545765243470669e-03 6.014669779688119888e-04 -3.128422831650823355e-04
2.136000000000000000e+03 8.271153450012207031e+00 -1.845000457763671875e+01 5.904515981674194336e-01 8.037222027778625488e-01 4.182521402835845947e-01 4.538854062557220459e-01
2.137000000000000000e+03 7.922600269317626953e+00 -2.236022186279296875e+01 1.773138642311096191e-01 7.567667365074157715e-01 2.802241742610931396e-01 6.764330863952636719e-01
2.138000000000000000e+03 1.156681823730468750e+01 -2.204026985168457031e+01 2.412284165620803833e-01 1.923374533653259277e+00 6.493808627128601074e-01 5.187612175941467285e-01
2.139000000000000000e+03 7.088988780975341797e+00 -2.469010353088378906e+01 -5.311035737395286560e-02 5.401462912559509277e-01 1.461107879877090454e-01 6.642765402793884277e-01
2.140000000000000000e+03 7.332710266113281250e+01 -1.631830787658691406e+01 4.029644966125488281e+00 1.100722503662109375e+01 4.511061191558837891e+00 3.259392678737640381e-01
2.141000000000000000e+03 6.652958679199218750e+01 -9.514455795288085938e+00 -1.432072520256042480e+00 2.962030887603759766e+00 4.589875042438507080e-01 -2.464628458023071289e+00
2.142000000000000000e+03 4.234090805053710938e+01 -1.479236984252929688e+01 6.817107200622558594e-01 7.316899776458740234e+00 2.399583101272583008e+00 -6.638943552970886230e-01
2.143000000000000000e+03 5.629842758178710938e+01 -8.757266998291015625e+00 -9.288470745086669922e-01 1.288797140121459961e+00 1.079850420355796814e-01 1.318995594978332520e+00
2.144000000000000000e+03 7.369135284423828125e+01 -1.115701007843017578e+01 -1.275758504867553711e+00 1.031288433074951172e+01 2.711137533187866211e+00 6.274866461753845215e-01
2.145000000000000000e+03 4.140177536010742188e+01 -1.793096733093261719e+01 1.678020477294921875e+00 8.391405105590820312e+00 3.020827770233154297e+00 -1.007600307464599609e+00
2.146000000000000000e+03 8.613819122314453125e+00 -1.096120452880859375e+01 5.141343474388122559e-01 4.428172409534454346e-01 2.870854735374450684e-01 -4.282252490520477295e-01
2.147000000000000000e+03 1.119086265563964844e+01 -1.287018680572509766e+01 1.078572511672973633e+00 1.409157395362854004e+00 7.463189959526062012e-01 4.063950479030609131e-02
2.148000000000000000e+03 7.180999755859375000e+01 1.410957622528076172e+01 6.072176694869995117e-01 6.650041103363037109e+00 2.177177667617797852e+00 -2.845598161220550537e-01
2.149000000000000000e+03 7.317465972900390625e+01 -3.087071228027343750e+01 -5.734473466873168945e-01 8.116708755493164062e+00 2.262978315353393555e+00 -4.398504272103309631e-02
2.150000000000000000e+03 7.453060913085937500e+01 -1.545316123962402344e+01 2.070772409439086914e+00 9.876479148864746094e+00 3.584175586700439453e+00 9.572740793228149414e-01
2.151000000000000000e+03 7.493753814697265625e+01 -1.467018413543701172e+01 1.363859534263610840e+00 9.707722663879394531e+00 3.321474552154541016e+00 1.266080498695373535e+00
2.152000000000000000e+03 7.453159332275390625e+01 -2.351268577575683594e+01 -4.255558550357818604e-01 9.603283882141113281e+00 2.753318309783935547e+00 -1.064036726951599121e+00
2.153000000000000000e+03 6.885170745849609375e+01 -3.178774452209472656e+01 -6.274183988571166992e-01 5.566992759704589844e+00 1.481872200965881348e+00 5.872964262962341309e-01
2.154000000000000000e+03 7.267666625976562500e+01 -2.304941368103027344e+01 -4.576124846935272217e-01 9.751435279846191406e+00 2.788146972656250000e+00 -4.911979436874389648e-01
2.155000000000000000e+03 3.913462448120117188e+01 1.601637077331542969e+01 5.002087354660034180e-01 7.373718738555908203e+00 2.362178325653076172e+00 1.171265840530395508e+00
2.156000000000000000e+03 4.048725509643554688e+01 2.071236419677734375e+01 -1.960115320980548859e-02 5.310156345367431641e+00 1.587166666984558105e+00 1.419287443161010742e+00
2.157000000000000000e+03 7.352843284606933594e+00 2.812775039672851562e+01 -1.474695280194282532e-02 -1.520477514714002609e-02 -8.985518477857112885e-03 1.426455825567245483e-01
2.158000000000000000e+03 9.082331657409667969e+00 3.218830108642578125e+01 5.579906329512596130e-02 3.505788370966911316e-02 2.725708484649658203e-02 1.250685453414916992e-01
2.159000000000000000e+03 7.385535430908203125e+01 2.451682662963867188e+01 -5.651742964982986450e-02 6.403108119964599609e+00 1.903977274894714355e+00 3.934548199176788330e-01
2.160000000000000000e+03 7.300310516357421875e+01 1.489647865295410156e+01 4.690803587436676025e-01 6.497735500335693359e+00 2.090044736862182617e+00 -1.763633489608764648e-01
2.161000000000000000e+03 7.296592712402343750e+01 1.814014244079589844e+01 4.160736501216888428e-01 6.444531917572021484e+00 2.058181762695312500e+00 1.613318920135498047e-01
2.162000000000000000e+03 1.095982265472412109e+01 1.574305057525634766e+01 -2.654566057026386261e-02 -3.298623254522681236e-03 -8.953285403549671173e-03 -7.580366916954517365e-03
2.163000000000000000e+03 6.724772453308105469e+00 1.349104595184326172e+01 -8.451365865767002106e-03 -6.476751528680324554e-03 -4.478435497730970383e-03 1.508148503489792347e-03
2.164000000000000000e+03 4.125005722045898438e+01 -1.389552783966064453e+01 4.077156484127044678e-01 7.441396713256835938e+00 2.354733705520629883e+00 -9.150846600532531738e-01
2.165000000000000000e+03 7.520617675781250000e+01 -1.354921531677246094e+01 4.301590323448181152e-01 9.635009765625000000e+00 3.019550561904907227e+00 1.469918131828308105e+00
2.166000000000000000e+03 7.498078918457031250e+01 -1.083870029449462891e+01 -9.003109335899353027e-01 9.618285179138183594e+00 2.615392446517944336e+00 8.683496117591857910e-01
2.167000000000000000e+03 7.500701904296875000e+01 -5.384302139282226562e+00 -6.200363039970397949e-01 8.314627647399902344e+00 2.308377504348754883e+00 -5.414601564407348633e-01
2.168000000000000000e+03 6.750242614746093750e+01 8.475722312927246094e+00 7.564789652824401855e-01 7.108293056488037109e+00 2.359431505203247070e+00 -5.228142738342285156e-01
2.169000000000000000e+03 7.418497467041015625e+01 7.682617187500000000e+00 2.534242570400238037e-01 6.678282737731933594e+00 2.079512119293212891e+00 -8.260143399238586426e-01
2.170000000000000000e+03 7.291216278076171875e+01 1.800549864768981934e+00 4.937724769115447998e-02 6.897428989410400391e+00 2.084041833877563477e+00 -1.165533661842346191e+00
2.171000000000000000e+03 7.276789855957031250e+01 6.119921207427978516e+00 2.858795821666717529e-01 6.727313041687011719e+00 2.103957653045654297e+00 -9.900318384170532227e-01
2.172000000000000000e+03 7.438383483886718750e+01 -2.249876594543457031e+01 -3.490847349166870117e-01 9.863647460937500000e+00 2.854368925094604492e+00 -1.080971121788024902e+00
2.173000000000000000e+03 7.125811767578125000e+01 4.195590496063232422e+00 2.644382715225219727e-01 6.641570091247558594e+00 2.071802616119384766e+00 -1.090128183364868164e+00
2.174000000000000000e+03 7.091992950439453125e+01 1.354264259338378906e+01 7.168574333190917969e-01 6.811346054077148438e+00 2.258460998535156250e+00 -3.879398405551910400e-01
2.175000000000000000e+03 7.199051666259765625e+01 -3.630740165710449219e+00 -5.762407183647155762e-01 7.110227108001708984e+00 1.960195899009704590e+00 -1.309395313262939453e+00
2.176000000000000000e+03 7.399073028564453125e+01 -1.966943168640136719e+01 5.793232321739196777e-01 1.085532474517822266e+01 3.430394411087036133e+00 -1.355524063110351562e+00
2.177000000000000000e+03 7.442393493652343750e+01 -9.219367980957031250e+00 -1.209471821784973145e+00 9.331945419311523438e+00 2.436742067337036133e+00 1.800085604190826416e-01
2.178000000000000000e+03 7.386103820800781250e+01 1.880389404296875000e+01 2.725608944892883301e-01 6.363182067871093750e+00 1.990723013877868652e+00 2.255633622407913208e-01
2.179000000000000000e+03 7.068964385986328125e+01 2.220683670043945312e+01 1.402840316295623779e-01 6.660721302032470703e+00 2.040301561355590820e+00 3.634558022022247314e-01
2.180000000000000000e+03 7.289904785156250000e+01 -1.749011993408203125e+00 -2.883244454860687256e-01 7.171078681945800781e+00 2.064826250076293945e+00 -1.202785253524780273e+00
2.181000000000000000e+03 7.198408508300781250e+01 3.441639542579650879e-01 -5.939570441842079163e-02 6.745902538299560547e+00 2.005952119827270508e+00 -1.260249972343444824e+00
2.182000000000000000e+03 7.293379211425781250e+01 2.282230377197265625e+01 4.951928928494453430e-02 6.489585876464843750e+00 1.961731433868408203e+00 3.999964296817779541e-01
2.183000000000000000e+03 6.732243537902832031e+00 2.446484184265136719e+01 -5.385442823171615601e-02 -4.538622219115495682e-03 -1.751791499555110931e-02 1.185634210705757141e-01
2.184000000000000000e+03 7.182736968994140625e+01 -2.823464775085449219e+01 -8.694314360618591309e-01 7.942115306854248047e+00 2.121805191040039062e+00 -7.150404900312423706e-02
2.185000000000000000e+03 5.405390548706054688e+01 -8.496420860290527344e+00 -7.348510026931762695e-01 1.427755713462829590e+00 2.078714072704315186e-01 1.781835913658142090e+00
2.186000000000000000e+03 7.039997100830078125e+01 -1.107421875000000000e+01 -2.076596736907958984e+00 8.872947692871093750e+00 2.038905143737792969e+00 -1.767335057258605957e+00
2.187000000000000000e+03 7.408343505859375000e+01 -1.025894355773925781e+01 -1.282800316810607910e+00 9.740296363830566406e+00 2.537248849868774414e+00 4.542908966541290283e-01
2.188000000000000000e+03 5.833151340484619141e+00 2.688541793823242188e+01 -2.171027101576328278e-02 -4.951826483011245728e-02 -2.136855944991111755e-02 1.268000453710556030e-01
2.189000000000000000e+03 5.677343368530273438e+00 2.556380462646484375e+01 -2.876303158700466156e-02 -3.439673036336898804e-02 -1.894792914390563965e-02 1.225054338574409485e-01
2.190000000000000000e+03 5.274565887451171875e+01 -8.363072395324707031e+00 -8.013452887535095215e-01 1.326423168182373047e+00 1.575233787298202515e-01 2.125421524047851562e+00
2.191000000000000000e+03 4.869426345825195312e+01 -8.345499992370605469e+00 -6.539397835731506348e-01 6.312402486801147461e-01 -6.809846032410860062e-03 1.726645827293395996e+00
2.192000000000000000e+03 6.009705543518066406e+00 -8.173460960388183594e+00 8.453414589166641235e-02 -1.357381492853164673e-01 -1.536120288074016571e-02 -6.256490945816040039e-01
2.193000000000000000e+03 4.957337856292724609e+00 -9.713532447814941406e+00 1.654934436082839966e-01 -3.629075884819030762e-01 -5.922424420714378357e-02 -5.443378090858459473e-01
2.194000000000000000e+03 6.780864715576171875e+00 -1.761219024658203125e+01 4.821330308914184570e-01 2.037759870290756226e-01 2.057726979255676270e-01 3.015836179256439209e-01
2.195000000000000000e+03 8.844038009643554688e+00 -2.789591407775878906e+01 -2.989435493946075439e-01 8.415661454200744629e-01 1.627867817878723145e-01 5.044329762458801270e-01
2.196000000000000000e+03 7.052427291870117188e+00 -1.905044174194335938e+01 4.458098113536834717e-01 3.514118194580078125e-01 2.391664832830429077e-01 4.685590267181396484e-01
2.197000000000000000e+03 5.524232864379882812e+00 -2.367308425903320312e+01 2.574501186609268188e-02 1.425948143005371094e-01 5.050195008516311646e-02 6.104170680046081543e-01
2.198000000000000000e+03 3.465663146972656250e+01 -6.264934062957763672e+00 -2.692635774612426758e+00 8.042961120605468750e+00 1.605097651481628418e+00 -1.089740991592407227e+00
2.199000000000000000e+03 3.419414520263671875e+01 -4.547133922576904297e+00 -1.357945919036865234e+00 7.746229648590087891e+00 1.916485190391540527e+00 -4.706777632236480713e-01
2.200000000000000000e+03 5.304752349853515625e+00 1.641470336914062500e+01 -1.371329464018344879e-02 -2.847275463864207268e-03 -4.968171007931232452e-03 8.739329874515533447e-03
2.201000000000000000e+03 8.732626914978027344e+00 1.443954658508300781e+01 -1.760281249880790710e-02 -8.575892075896263123e-03 -7.853611372411251068e-03 2.184686018154025078e-03
2.202000000000000000e+03 6.313578128814697266e+00 1.431484317779541016e+01 -8.998535573482513428e-03 -8.249894715845584869e-03 -5.174529273062944412e-03 4.117763601243495941e-03
2.203000000000000000e+03 5.347483158111572266e+00 1.237535381317138672e+01 -4.994396585971117020e-03 -5.482641980051994324e-03 -3.143111476674675941e-03 2.276520390296354890e-04
2.204000000000000000e+03 6.336167335510253906e+00 2.019476509094238281e+01 -4.987727478146553040e-02 4.908886272460222244e-03 -1.349051669239997864e-02 4.335048422217369080e-02
2.205000000000000000e+03 6.233382701873779297e+00 1.581127452850341797e+01 -2.088909596204757690e-02 -6.179782561957836151e-03 -8.120663464069366455e-03 8.031275123357772827e-03
2.206000000000000000e+03 7.072689056396484375e+00 1.505428600311279297e+01 -1.680213399231433868e-02 -5.218723090365529060e-04 -5.197201855480670929e-03 1.886070705950260162e-03
2.207000000000000000e+03 6.087951278686523438e+01 -2.866833448410034180e+00 8.037894964218139648e-01 2.566425800323486328e+00 1.011064529418945312e+00 6.290826797485351562e-01
2.208000000000000000e+03 6.268501281738281250e+01 -2.322491645812988281e+00 6.206607222557067871e-01 3.261230230331420898e+00 1.164567232131958008e+00 6.957250833511352539e-02
2.209000000000000000e+03 6.394830226898193359e+00 -3.510137176513671875e+01 -1.581382006406784058e-01 4.669081866741180420e-01 9.263098984956741333e-02 1.987850815057754517e-01
2.210000000000000000e+03 1.007658576965332031e+01 -3.081514549255371094e+01 -3.849471211433410645e-01 8.553563356399536133e-01 1.411227732896804810e-01 2.910845875740051270e-01
2.211000000000000000e+03 5.693146228790283203e+00 -2.110704612731933594e+01 2.036464214324951172e-01 4.726234078407287598e-02 7.527262717485427856e-02 5.430217981338500977e-01
2.212000000000000000e+03 9.505665779113769531e+00 -2.031582832336425781e+01 4.555276334285736084e-01 1.236212015151977539e+00 5.075219273567199707e-01 5.972574949264526367e-01
2.213000000000000000e+03 6.431298732757568359e+00 -1.494859218597412109e+01 5.155252218246459961e-01 4.295310936868190765e-03 1.559461504220962524e-01 -3.519073128700256348e-02
2.214000000000000000e+03 2.488022613525390625e+01 -5.189392566680908203e+00 9.883519262075424194e-02 3.778966665267944336e-01 1.430195569992065430e-01 1.800498366355895996e+00
2.215000000000000000e+03 1.032097053527832031e+01 6.155977725982666016e+00 4.490506369620561600e-03 -1.901223207823932171e-03 7.767849601805210114e-04 9.219654020853340626e-04
2.216000000000000000e+03 6.157586097717285156e+00 8.848831176757812500e+00 -1.881333082565106452e-05 -4.628456197679042816e-03 -1.394180813804268837e-03 6.480028387159109116e-04
2.217000000000000000e+03 5.762559890747070312e+00 1.350746154785156250e+01 -5.303061567246913910e-03 -1.461843028664588928e-03 -2.029471332207322121e-03 -1.855622511357069016e-03
2.218000000000000000e+03 7.712973594665527344e+00 3.578605270385742188e+01 7.402238249778747559e-02 1.314255874603986740e-03 2.260099165141582489e-02 9.062536060810089111e-02
2.219000000000000000e+03 1.219014167785644531e+01 9.632447242736816406e+00 -3.360217669978737831e-03 -3.324772696942090988e-04 -1.107808435335755348e-03 4.101410042494535446e-03
2.220000000000000000e+03 1.144567203521728516e+01 1.090157985687255859e+01 -4.111558664590120316e-03 -2.310454146936535835e-03 -1.926603843457996845e-03 3.084576688706874847e-03
2.221000000000000000e+03 9.780166625976562500e+00 8.221533775329589844e+00 -2.275919076055288315e-03 -2.840801374986767769e-03 -1.535016112029552460e-03 1.976683270186185837e-03
2.222000000000000000e+03 5.196990489959716797e+00 -1.383429908752441406e+01 3.604236245155334473e-01 -3.684787154197692871e-01 -2.416522474959492683e-03 -1.887762397527694702e-01
2.223000000000000000e+03 9.550461769104003906e+00 -1.270599937438964844e+01 8.367937803268432617e-01 8.112108707427978516e-01 4.944013953208923340e-01 -1.788994669914245605e-01
2.224000000000000000e+03 3.698772048950195312e+01 -1.879507660865783691e+00 2.978354394435882568e-01 1.054142475128173828e+01 3.251778125762939453e+00 -9.412532448768615723e-01
2.225000000000000000e+03 3.566443252563476562e+01 -7.199196815490722656e+00 -2.952980518341064453e+00 8.863158226013183594e+00 1.773053407669067383e+00 -1.102752804756164551e+00
2.226000000000000000e+03 6.920100402832031250e+01 -1.072006988525390625e+01 -1.980881214141845703e+00 7.118269920349121094e+00 1.541216611862182617e+00 -2.429813385009765625e+00
2.227000000000000000e+03 6.800260162353515625e+01 -8.853285789489746094e+00 -1.540753960609436035e+00 5.010207176208496094e+00 1.040835976600646973e+00 -2.482696294784545898e+00
2.228000000000000000e+03 6.306556224822998047e+00 -1.363805294036865234e+01 4.893689155578613281e-01 -6.393413245677947998e-02 1.276304274797439575e-01 -1.859593838453292847e-01
2.229000000000000000e+03 3.956370925903320312e+01 -2.138538742065429688e+01 1.775430679321289062e+00 8.669589996337890625e+00 3.133506059646606445e+00 -8.211425542831420898e-01
2.230000000000000000e+03 3.966710281372070312e+01 -2.266660118103027344e+01 1.821915149688720703e+00 8.310435295104980469e+00 3.039705276489257812e+00 -6.716105937957763672e-01
2.231000000000000000e+03 5.890002250671386719e+00 -6.929530143737792969e+00 -2.076052688062191010e-02 -1.389449089765548706e-01 -4.791162908077239990e-02 -6.439735293388366699e-01
2.232000000000000000e+03 2.014419555664062500e+01 -7.399749755859375000e+00 4.194732606410980225e-01 7.987884879112243652e-01 3.654785156250000000e-01 1.290124177932739258e+00
2.233000000000000000e+03 6.859757232666015625e+01 1.718321037292480469e+01 9.351246953010559082e-01 7.116090774536132812e+00 2.415364742279052734e+00 -8.061970770359039307e-02
2.234000000000000000e+03 6.734922790527343750e+01 1.763903617858886719e+01 1.008268713951110840e+00 7.388957023620605469e+00 2.519167661666870117e+00 -6.948076933622360229e-02
2.235000000000000000e+03 4.082160186767578125e+01 -2.623169326782226562e+01 1.265869259834289551e+00 7.685987949371337891e+00 2.685557126998901367e+00 -3.880882859230041504e-01
2.236000000000000000e+03 3.826309204101562500e+01 -1.038825893402099609e+01 -1.462544441223144531e+00 8.787717819213867188e+00 2.197551965713500977e+00 -1.010059475898742676e+00
2.237000000000000000e+03 4.312438964843750000e+01 2.176633834838867188e+01 -2.994883060455322266e-02 3.886718750000000000e+00 1.157030940055847168e+00 1.648821234703063965e+00
2.238000000000000000e+03 1.267871665954589844e+01 8.360289573669433594e+00 -1.313066459260880947e-03 -8.072626951616257429e-05 -4.181378171779215336e-04 4.082306288182735443e-03
2.239000000000000000e+03 4.751953887939453125e+01 2.585180473327636719e+01 3.727269172668457031e-02 2.313472986221313477e+00 7.052236795425415039e-01 1.355825781822204590e+00
2.240000000000000000e+03 9.909435272216796875e+00 2.385538291931152344e+01 -1.299749463796615601e-01 6.150597333908081055e-02 -2.054069377481937408e-02 1.187997683882713318e-01
2.241000000000000000e+03 8.779161453247070312e+00 1.031680679321289062e+01 3.527301363646984100e-03 -4.162826575338840485e-03 -1.906575926113873720e-04 6.591599085368216038e-04
2.242000000000000000e+03 3.588264083862304688e+01 1.554912471771240234e+01 6.154685616493225098e-01 8.922966003417968750e+00 2.861530303955078125e+00 -6.627168655395507812e-01
2.243000000000000000e+03 6.013451766967773438e+01 -7.106948852539062500e+00 -3.686340153217315674e-01 1.310045957565307617e+00 2.824235856533050537e-01 6.483361721038818359e-01
2.244000000000000000e+03 5.838173675537109375e+01 -7.647926807403564453e+00 -5.653387904167175293e-01 1.298106551170349121e+00 2.198303490877151489e-01 9.661567211151123047e-01
2.245000000000000000e+03 9.885960578918457031e+00 -2.440150260925292969e+01 -8.437732607126235962e-02 1.231408715248107910e+00 3.441094160079956055e-01 6.115596890449523926e-01
2.246000000000000000e+03 1.003462600708007812e+01 -1.755542755126953125e+01 8.177447319030761719e-01 1.407958984375000000e+00 6.677111387252807617e-01 4.544896781444549561e-01
2.247000000000000000e+03 6.779338073730468750e+01 1.271900653839111328e+01 9.242303371429443359e-01 7.423022747039794922e+00 2.504175901412963867e+00 -4.124676585197448730e-01
2.248000000000000000e+03 6.674490356445312500e+01 1.034066009521484375e+01 8.434336781501770020e-01 7.623870372772216797e+00 2.540191173553466797e+00 -3.446335792541503906e-01
2.249000000000000000e+03 5.257872390747070312e+01 -9.601678848266601562e+00 -6.325837969779968262e-01 1.024541497230529785e+00 1.175873205065727234e-01 2.068651199340820312e+00
2.250000000000000000e+03 1.625191879272460938e+01 -2.930942726135253906e+01 -5.503954291343688965e-01 9.517617821693420410e-01 1.204099133610725403e-01 -1.451595574617385864e-01
2.251000000000000000e+03 1.255193519592285156e+01 2.599387550354003906e+01 -8.941657841205596924e-02 9.367466717958450317e-02 1.277426374144852161e-03 1.567636430263519287e-01
2.252000000000000000e+03 4.067051696777343750e+01 -1.723827934265136719e+01 1.482117891311645508e+00 8.403595924377441406e+00 2.965714216232299805e+00 -1.228893876075744629e+00
2.253000000000000000e+03 3.158407783508300781e+01 -4.173853397369384766e+00 8.354036509990692139e-02 3.957270860671997070e+00 1.212243318557739258e+00 6.868391633033752441e-01
2.254000000000000000e+03 1.449124240875244141e+01 -3.154834747314453125e+01 -5.065446496009826660e-01 9.318199157714843750e-01 1.275825798511505127e-01 -5.183628946542739868e-02
2.255000000000000000e+03 1.698690605163574219e+01 -3.463856887817382812e+01 -3.615467548370361328e-01 6.423864960670471191e-01 8.425193279981613159e-02 -2.043813467025756836e-01
2.256000000000000000e+03 6.129564666748046875e+01 -4.712312698364257812e+00 4.055327773094177246e-01 2.077422618865966797e+00 7.448865771293640137e-01 3.223204612731933594e-01
2.257000000000000000e+03 6.671475982666015625e+01 5.322858810424804688e+00 5.725325345993041992e-01 6.500712394714355469e+00 2.121973514556884766e+00 -5.002409219741821289e-01
2.258000000000000000e+03 6.666350555419921875e+01 6.763964653015136719e+00 6.731523871421813965e-01 6.832611083984375000e+00 2.251729011535644531e+00 -3.893366456031799316e-01
2.259000000000000000e+03 6.264898681640625000e+01 -5.128488540649414062e-01 7.208663821220397949e-01 3.861331224441528320e+00 1.374659299850463867e+00 3.404532074928283691e-01
2.260000000000000000e+03 6.902162170410156250e+01 1.368035316467285156e+01 9.057359099388122559e-01 7.116022586822509766e+00 2.406527519226074219e+00 -3.752657771110534668e-01
2.261000000000000000e+03 1.802010917663574219e+01 -7.847826004028320312e+00 4.138409793376922607e-01 1.101646900177001953e+00 4.546463787555694580e-01 1.084697127342224121e+00
2.262000000000000000e+03 6.714190673828125000e+01 9.406673431396484375e+00 7.515533566474914551e-01 7.302930355072021484e+00 2.416345119476318359e+00 -4.193694591522216797e-01
2.263000000000000000e+03 3.648858261108398438e+01 2.332011604309082031e+01 -3.381061255931854248e-01 5.622410774230957031e+00 1.585291504859924316e+00 4.138709604740142822e-01
2.264000000000000000e+03 4.466476821899414062e+01 -1.567058181762695312e+01 8.960075974464416504e-01 6.902189731597900391e+00 2.339459180831909180e+00 7.298746705055236816e-01
2.265000000000000000e+03 3.062545967102050781e+01 -3.429545211791992188e+01 -3.843834400177001953e-01 2.092794895172119141e+00 5.125234723091125488e-01 9.732910394668579102e-01
2.266000000000000000e+03 3.472381591796875000e+01 -3.353607559204101562e+01 -7.288003563880920410e-01 4.145699024200439453e+00 1.025069594383239746e+00 1.078414916992187500e+00
2.267000000000000000e+03 5.962163925170898438e+01 2.722919654846191406e+01 2.464154362678527832e-02 3.366083860397338867e+00 1.017217636108398438e+00 -1.297440648078918457e+00
2.268000000000000000e+03 3.152906417846679688e+01 2.341475486755371094e+01 6.626900285482406616e-02 5.310942649841308594e+00 1.613163590431213379e+00 -1.073437809944152832e+00
2.269000000000000000e+03 3.149803733825683594e+01 2.696545219421386719e+01 -5.020632743835449219e-01 4.245785236358642578e+00 1.123116612434387207e+00 -7.235565185546875000e-01
2.270000000000000000e+03 7.250833129882812500e+01 -2.968881034851074219e+01 -7.249252796173095703e-01 8.015507698059082031e+00 2.187174558639526367e+00 -5.758559331297874451e-02
2.271000000000000000e+03 7.300647735595703125e+01 -2.783394050598144531e+01 -7.728477120399475098e-01 8.532466888427734375e+00 2.327885866165161133e+00 -3.210313618183135986e-01
2.272000000000000000e+03 2.195499992370605469e+01 -3.599159622192382812e+01 -1.368827968835830688e-01 4.294082522392272949e-01 8.775763958692550659e-02 -9.929194301366806030e-02
2.273000000000000000e+03 5.231517791748046875e+01 2.564822387695312500e+01 2.556671798229217529e-01 1.167322158813476562e+00 4.268968105316162109e-01 6.086353063583374023e-01
2.274000000000000000e+03 4.966253280639648438e+01 2.794871711730957031e+01 3.119940757751464844e-01 2.072596311569213867e+00 7.153770923614501953e-01 9.376545548439025879e-01
2.275000000000000000e+03 7.813042163848876953e+00 -1.588553619384765625e+01 6.925927400588989258e-01 4.693263471126556396e-01 3.485757112503051758e-01 1.409029662609100342e-01
2.276000000000000000e+03 6.589766502380371094e+00 -1.625480270385742188e+01 5.398960709571838379e-01 9.323365986347198486e-02 1.899389177560806274e-01 1.470227241516113281e-01
2.277000000000000000e+03 7.415738677978515625e+01 1.480890750885009766e+01 3.806729316711425781e-01 6.358777046203613281e+00 2.021835088729858398e+00 -1.662393957376480103e-01
2.278000000000000000e+03 4.577026367187500000e+01 -1.048472595214843750e+01 -2.935642898082733154e-01 3.183326721191406250e+00 8.669286966323852539e-01 5.232567191123962402e-01
2.279000000000000000e+03 6.165782928466796875e+01 -1.572651624679565430e+00 7.975263595581054688e-01 3.210095405578613281e+00 1.202286481857299805e+00 5.585254430770874023e-01
2.280000000000000000e+03 6.015491104125976562e+01 -4.118428230285644531e+00 5.936300754547119141e-01 2.072393894195556641e+00 7.998071908950805664e-01 7.045283913612365723e-01
2.281000000000000000e+03 3.652191162109375000e+01 -8.223134994506835938e+00 -2.833075284957885742e+00 9.165117263793945312e+00 1.899612784385681152e+00 -1.146063327789306641e+00
2.282000000000000000e+03 8.267215728759765625e+00 -2.979258155822753906e+01 -2.873826026916503906e-01 6.775827407836914062e-01 1.170600354671478271e-01 4.231216609477996826e-01
2.283000000000000000e+03 6.857119083404541016e+00 -3.031171417236328125e+01 -2.224117219448089600e-01 5.165459513664245605e-01 8.824026584625244141e-02 4.137018620967864990e-01
2.284000000000000000e+03 6.586746978759765625e+01 1.796241998672485352e+00 4.328756332397460938e-01 5.551548957824707031e+00 1.795327425003051758e+00 -4.730479419231414795e-01
2.285000000000000000e+03 6.597180938720703125e+01 -3.047463798522949219e+01 -7.908933758735656738e-01 3.380106687545776367e+00 7.767640352249145508e-01 8.693923950195312500e-01
2.286000000000000000e+03 6.949925994873046875e+01 -3.347573089599609375e+01 -3.642653226852416992e-01 5.772391796112060547e+00 1.622437953948974609e+00 5.267208814620971680e-01
2.287000000000000000e+03 9.168326377868652344e+00 1.649541854858398438e+01 -3.813559189438819885e-02 -2.034390810877084732e-03 -1.205099560320377350e-02 2.411618828773498535e-03
2.288000000000000000e+03 9.877986907958984375e+00 1.429590415954589844e+01 -1.220601610839366913e-02 5.538685945793986320e-04 -3.495644312351942062e-03 -4.193124361336231232e-03
2.289000000000000000e+03 1.542825984954833984e+01 2.996761131286621094e+01 1.104485094547271729e-01 2.706696093082427979e-01 1.143354400992393494e-01 5.784685723483562469e-03
2.290000000000000000e+03 5.588681793212890625e+01 -1.182088756561279297e+01 -1.546071648597717285e+00 6.168307662010192871e-01 -2.787722647190093994e-01 7.993708848953247070e-01
2.291000000000000000e+03 5.663878631591796875e+01 -1.049402999877929688e+01 -1.477388501167297363e+00 9.274328947067260742e-01 -1.649866700172424316e-01 9.765146970748901367e-01
2.292000000000000000e+03 1.430063056945800781e+01 5.266100883483886719e+00 -1.954636070877313614e-03 1.240890240296721458e-03 -2.141237346222624183e-04 1.362590235657989979e-03
2.293000000000000000e+03 7.392942905426025391e+00 -5.491024971008300781e+00 -2.102457433938980103e-01 4.985011368989944458e-02 -4.811869189143180847e-02 -6.285579800605773926e-01
2.294000000000000000e+03 7.517899990081787109e+00 -6.019753932952880859e+00 -1.203777492046356201e-01 7.365651428699493408e-02 -1.401637028902769089e-02 -6.360958218574523926e-01
2.295000000000000000e+03 8.247714042663574219e+00 -7.229468345642089844e+00 3.231510892510414124e-02 1.835358738899230957e-01 6.475529074668884277e-02 -6.188256740570068359e-01
2.296000000000000000e+03 8.189986228942871094e+00 -9.061658859252929688e+00 2.681943774223327637e-01 2.587745487689971924e-01 1.580906808376312256e-01 -5.644198656082153320e-01
2.297000000000000000e+03 6.427256584167480469e+00 7.380025863647460938e+00 -2.101274440065026283e-03 -1.590981846675276756e-03 -1.107676886022090912e-03 5.908386083319783211e-04
2.298000000000000000e+03 1.205561733245849609e+01 6.306365013122558594e+00 2.583372406661510468e-03 5.087845493108034134e-04 9.276471100747585297e-04 1.115592240239493549e-04
2.299000000000000000e+03 9.739645957946777344e+00 5.348867416381835938e+00 2.872861223295331001e-03 -7.249717018567025661e-04 6.443668971769511700e-04 8.816005429252982140e-04
2.300000000000000000e+03 1.052358627319335938e+01 -6.239810943603515625e+00 -1.331939101219177246e-01 4.503213167190551758e-01 9.513822197914123535e-02 -4.427884221076965332e-01
2.301000000000000000e+03 1.128906822204589844e+01 -5.659838676452636719e+00 -2.643380761146545410e-01 4.478444457054138184e-01 5.505191534757614136e-02 -3.454875946044921875e-01
2.302000000000000000e+03 6.461781978607177734e+00 6.775027751922607422e+00 2.832724945619702339e-03 -1.345416298136115074e-03 4.461925709620118141e-04 -1.601221389137208462e-03
2.303000000000000000e+03 1.522666072845458984e+01 -8.160193443298339844e+00 3.279822468757629395e-01 1.348072171211242676e+00 5.028163194656372070e-01 4.695054888725280762e-01
2.304000000000000000e+03 7.160419464111328125e+00 6.711085796356201172e+00 -1.053551677614450455e-03 -2.496651140972971916e-03 -1.065060845576226711e-03 2.496240485925227404e-04
2.305000000000000000e+03 1.114528751373291016e+01 -6.223344802856445312e+00 -1.461726129055023193e-01 5.194559693336486816e-01 1.119850054383277893e-01 -3.605796694755554199e-01
2.306000000000000000e+03 1.117375946044921875e+01 6.281979084014892578e+00 -2.346816239878535271e-03 -1.052735489793121815e-03 -1.019865507259964943e-03 3.054969012737274170e-03
2.307000000000000000e+03 1.002485466003417969e+01 6.798076152801513672e+00 -2.777222776785492897e-03 -1.137298531830310822e-04 -8.672858239151537418e-04 -4.169361091044265777e-06
2.308000000000000000e+03 1.168043899536132812e+01 -6.072010040283203125e+00 -1.705470830202102661e-01 5.437273383140563965e-01 1.119540855288505554e-01 -2.741720676422119141e-01
2.309000000000000000e+03 7.852921485900878906e+00 6.519670009613037109e+00 1.878196024335920811e-03 -8.813035674393177032e-04 2.990677312482148409e-04 -9.563653147779405117e-04
2.310000000000000000e+03 8.438779830932617188e+00 5.630849361419677734e+00 2.887645736336708069e-03 -1.045012497343122959e-03 5.527900066226720810e-04 -3.314704226795583963e-04
2.311000000000000000e+03 1.294169616699218750e+01 -5.385317325592041016e+00 -2.962151467800140381e-01 5.306863784790039062e-01 7.034137845039367676e-02 -9.390833973884582520e-02
2.312000000000000000e+03 1.322717285156250000e+01 -6.048892021179199219e+00 -1.749638170003890991e-01 7.198481559753417969e-01 1.634652912616729736e-01 -4.041289165616035461e-02
2.313000000000000000e+03 1.421187019348144531e+01 -6.110871791839599609e+00 -1.465370655059814453e-01 8.014072775840759277e-01 1.964610666036605835e-01 1.600629687309265137e-01
2.314000000000000000e+03 1.807515525817871094e+01 -5.831383705139160156e+00 1.461178623139858246e-02 8.107798695564270020e-01 2.476174980401992798e-01 9.635868072509765625e-01
2.315000000000000000e+03 1.258048820495605469e+01 -6.398541927337646484e+00 -9.159611910581588745e-02 6.747758984565734863e-01 1.749539375305175781e-01 -1.385406553745269775e-01
2.316000000000000000e+03 1.363893127441406250e+01 -6.678255558013916016e+00 -1.044521294534206390e-02 8.749097585678100586e-01 2.593393623828887939e-01 6.915372610092163086e-02
2.317000000000000000e+03 1.748612976074218750e+01 -5.485677719116210938e+00 -1.156214401125907898e-01 7.736351490020751953e-01 1.974041014909744263e-01 8.382739424705505371e-01
2.318000000000000000e+03 1.700266075134277344e+01 -6.113639354705810547e+00 -1.031787693500518799e-02 9.428299069404602051e-01 2.797536253929138184e-01 8.096433281898498535e-01
2.319000000000000000e+03 1.648469161987304688e+01 -6.837773799896240234e+00 8.675701171159744263e-02 1.069152832031250000e+00 3.467729389667510986e-01 6.950021982192993164e-01
2.320000000000000000e+03 1.585250091552734375e+01 -6.308444499969482422e+00 -3.611400723457336426e-02 9.659408330917358398e-01 2.789480388164520264e-01 5.432271957397460938e-01
2.321000000000000000e+03 2.044836044311523438e+01 -6.485875606536865234e+00 2.052823901176452637e-01 6.750802993774414062e-01 2.641088068485260010e-01 1.262447834014892578e+00
2.322000000000000000e+03 7.139260864257812500e+01 -2.073995399475097656e+01 -8.693142980337142944e-02 1.103792381286621094e+01 3.285297870635986328e+00 7.854123711585998535e-01
2.323000000000000000e+03 1.955358505249023438e+01 -6.309046745300292969e+00 1.839389353990554810e-01 7.741540074348449707e-01 2.874278724193572998e-01 1.215732216835021973e+00
2.324000000000000000e+03 7.125742340087890625e+01 -1.184757900238037109e+01 -1.964077830314636230e+00 1.053919506072998047e+01 2.572535276412963867e+00 -1.105423808097839355e+00
2.325000000000000000e+03 7.432285308837890625e+01 -1.890032386779785156e+01 1.297192215919494629e+00 1.052577114105224609e+01 3.546889066696166992e+00 -1.410994768142700195e+00
2.326000000000000000e+03 7.293447113037109375e+01 -1.163950538635253906e+01 -1.400127768516540527e+00 1.067475795745849609e+01 2.782389163970947266e+00 4.182381927967071533e-01
2.327000000000000000e+03 7.242960357666015625e+01 -2.152433204650878906e+01 -2.897977232933044434e-01 1.068295860290527344e+01 3.117948055267333984e+00 -3.080122768878936768e-01
2.328000000000000000e+03 9.737713813781738281e+00 1.329246139526367188e+01 -9.881770238280296326e-03 -9.675733745098114014e-03 -5.867251195013523102e-03 7.437182357534766197e-04
2.329000000000000000e+03 3.533676147460937500e+01 -2.901309013366699219e+00 -4.180284440517425537e-01 9.273187637329101562e+00 2.656547784805297852e+00 -4.133707582950592041e-01
2.330000000000000000e+03 7.959424018859863281e+00 7.858735561370849609e+00 -1.268040272407233715e-03 -3.416718216612935066e-03 -1.405427581630647182e-03 -4.707257030531764030e-04
2.331000000000000000e+03 7.762288570404052734e+00 1.602456665039062500e+01 -2.630280330777168274e-02 -6.796583067625761032e-03 -9.929815307259559631e-03 6.210556253790855408e-03
2.332000000000000000e+03 7.650194644927978516e+00 1.410659790039062500e+01 -1.069882884621620178e-02 -4.747878294438123703e-03 -4.634012002497911453e-03 -1.491942792199552059e-03
2.333000000000000000e+03 3.782712936401367188e+01 -4.209936141967773438e+00 -1.844621300697326660e+00 9.878326416015625000e+00 2.410111665725708008e+00 -1.411586523056030273e+00
2.334000000000000000e+03 7.610794067382812500e+00 -1.465759944915771484e+01 6.688057184219360352e-01 3.398426771163940430e-01 3.025945127010345459e-01 -1.211550366133451462e-02
2.335000000000000000e+03 7.196697998046875000e+01 -2.253353500366210938e+01 -3.233322203159332275e-01 9.935341835021972656e+00 2.883603096008300781e+00 -2.412023022770881653e-02
2.336000000000000000e+03 5.776089096069335938e+01 -8.597391128540039062e+00 -9.715403914451599121e-01 1.212291836738586426e+00 7.222544401884078979e-02 1.038782000541687012e+00
2.337000000000000000e+03 4.056000900268554688e+01 -1.514062881469726562e+01 9.097027182579040527e-01 8.026791572570800781e+00 2.680948257446289062e+00 -1.159721016883850098e+00
2.338000000000000000e+03 4.039121627807617188e+01 -1.633761787414550781e+01 1.369148135185241699e+00 8.293785095214843750e+00 2.898880004882812500e+00 -1.237894535064697266e+00
2.339000000000000000e+03 1.662320137023925781e+01 -8.191445350646972656e+00 4.196731448173522949e-01 1.394998550415039062e+00 5.444015264511108398e-01 8.079793453216552734e-01
2.340000000000000000e+03 4.107816696166992188e+01 -2.505744552612304688e+01 1.738190770149230957e+00 8.114431381225585938e+00 2.955786705017089844e+00 -6.613628864288330078e-01
2.341000000000000000e+03 7.398520660400390625e+01 -2.059960556030273438e+01 1.417830288410186768e-01 1.065735435485839844e+01 3.239741086959838867e+00 -1.214736461639404297e+00
2.342000000000000000e+03 6.417941284179687500e+01 -8.613150715827941895e-01 5.027828812599182129e-01 4.243227958679199219e+00 1.423803329467773438e+00 -2.145648747682571411e-01
2.343000000000000000e+03 1.842348861694335938e+01 -6.935354232788085938e+00 2.636929154396057129e-01 9.426514506340026855e-01 3.619033098220825195e-01 1.099726438522338867e+00
2.344000000000000000e+03 1.274584484100341797e+01 -1.030353832244873047e+01 7.652284502983093262e-01 1.500095844268798828e+00 6.795972585678100586e-01 6.341635249555110931e-03
2.345000000000000000e+03 3.632784652709960938e+01 -6.170993328094482422e+00 -2.737425565719604492e+00 9.284280776977539062e+00 1.964056491851806641e+00 -1.169049143791198730e+00
2.346000000000000000e+03 1.124265384674072266e+01 7.084712028503417969e+00 2.920836675912141800e-03 -5.019361851736903191e-04 7.256701355800032616e-04 -6.466068443842232227e-04
2.347000000000000000e+03 6.701283264160156250e+01 -8.405650138854980469e+00 -1.267137408256530762e+00 3.882661342620849609e+00 7.846571207046508789e-01 -2.148540973663330078e+00
2.348000000000000000e+03 7.710695743560791016e+00 -2.031750488281250000e+01 3.692452609539031982e-01 6.357055306434631348e-01 3.014852404594421387e-01 5.760608315467834473e-01
2.349000000000000000e+03 5.525799942016601562e+01 -8.590059280395507812e+00 -7.654238343238830566e-01 1.324913978576660156e+00 1.678470373153686523e-01 1.482787489891052246e+00
2.350000000000000000e+03 6.783850860595703125e+01 1.876399993896484375e+01 8.598998785018920898e-01 7.193508625030517578e+00 2.416022539138793945e+00 4.524898156523704529e-02
2.351000000000000000e+03 7.217796325683593750e+01 2.173076629638671875e+01 1.561083048582077026e-01 6.521897315979003906e+00 2.003401756286621094e+00 3.929982483386993408e-01
2.352000000000000000e+03 4.506423568725585938e+01 2.207939720153808594e+01 -2.350793220102787018e-02 3.022456645965576172e+00 8.996846079826354980e-01 1.593927979469299316e+00
2.353000000000000000e+03 4.134091567993164062e+01 2.156961441040039062e+01 -7.734146714210510254e-02 4.653350353240966797e+00 1.372802734375000000e+00 1.525818705558776855e+00
2.354000000000000000e+03 1.058082675933837891e+01 1.211784934997558594e+01 -5.743619520217180252e-03 -6.305214948952198029e-03 -3.614650340750813484e-03 1.438517938368022442e-03
2.355000000000000000e+03 6.754771423339843750e+01 6.070531368255615234e+00 5.824531912803649902e-01 6.603760242462158203e+00 2.155864000320434570e+00 -6.387386918067932129e-01
2.356000000000000000e+03 7.139935302734375000e+01 8.648365020751953125e+00 4.995363950729370117e-01 6.736558914184570312e+00 2.170828580856323242e+00 -8.230127096176147461e-01
2.357000000000000000e+03 4.089920806884765625e+01 -1.141855812072753906e+01 -7.297405004501342773e-01 7.229615211486816406e+00 1.949962377548217773e+00 -9.562867283821105957e-01
2.358000000000000000e+03 4.280407333374023438e+01 -9.622054100036621094e+00 -1.138672590255737305e+00 5.457480430603027344e+00 1.295642256736755371e+00 -9.346920251846313477e-01
2.359000000000000000e+03 4.324124908447265625e+01 -1.202621364593505859e+01 -2.454562336206436157e-01 5.769936561584472656e+00 1.657344102859497070e+00 -3.186054229736328125e-01
2.360000000000000000e+03 7.160795593261718750e+01 1.487071990966796875e+00 7.199256122112274170e-02 6.635249137878417969e+00 2.012172460556030273e+00 -1.227219223976135254e+00
2.361000000000000000e+03 4.209983825683593750e+01 -1.709752082824707031e+01 1.469151854515075684e+00 7.950641632080078125e+00 2.825937986373901367e+00 -8.799684643745422363e-01
2.362000000000000000e+03 4.265723419189453125e+01 -1.628025054931640625e+01 1.138877391815185547e+00 7.825942993164062500e+00 2.689446210861206055e+00 -6.140120625495910645e-01
2.363000000000000000e+03 7.342903900146484375e+01 -2.425529670715332031e+01 -5.490216016769409180e-01 9.414310455322265625e+00 2.659586668014526367e+00 -7.360901236534118652e-01
2.364000000000000000e+03 7.119383335113525391e+00 -8.094608306884765625e+00 1.083072274923324585e-01 3.584294021129608154e-02 4.324505105614662170e-02 -6.357377171516418457e-01
2.365000000000000000e+03 6.271718502044677734e+00 -1.225595951080322266e+01 4.226668179035186768e-01 -8.832677453756332397e-02 1.003020107746124268e-01 -3.650541305541992188e-01
2.366000000000000000e+03 6.297323989868164062e+01 2.806117248535156250e+01 -3.757396340370178223e-01 5.049727439880371094e+00 1.402196288108825684e+00 -9.694795608520507812e-01
2.367000000000000000e+03 5.798894882202148438e+01 2.826492309570312500e+01 3.125979900360107422e-01 2.848805904388427734e+00 9.484211802482604980e-01 -8.637866377830505371e-01
2.368000000000000000e+03 5.664417266845703125e+01 -7.919179916381835938e+00 -5.763734579086303711e-01 1.405761599540710449e+00 2.488164454698562622e-01 1.252726793289184570e+00
2.369000000000000000e+03 7.014126586914062500e+01 -1.205395102500915527e+00 -1.583926528692245483e-01 6.306825637817382812e+00 1.844529867172241211e+00 -1.353662729263305664e+00
2.370000000000000000e+03 6.677612781524658203e+00 2.546531867980957031e+01 -4.875347390770912170e-02 -1.227400172501802444e-02 -1.830824278295040131e-02 1.230201125144958496e-01
2.371000000000000000e+03 7.458288192749023438e+00 2.497289657592773438e+01 -5.395031347870826721e-02 1.024808455258607864e-02 -1.311066839843988419e-02 1.258773952722549438e-01
2.372000000000000000e+03 6.852799987792968750e+01 5.490995407104492188e+00 4.964725375175476074e-01 6.589359760284423828e+00 2.125749588012695312e+00 -8.014461398124694824e-01
2.373000000000000000e+03 7.028621673583984375e+01 1.761094093322753906e+01 7.066556811332702637e-01 6.832635402679443359e+00 2.261787414550781250e+00 5.469492822885513306e-02
2.374000000000000000e+03 7.148936462402343750e+01 1.248924160003662109e+01 6.405097246170043945e-01 6.709023475646972656e+00 2.204859972000122070e+00 -4.556683301925659180e-01
2.375000000000000000e+03 6.927407836914062500e+01 1.154811573028564453e+01 7.949284315109252930e-01 7.061177253723144531e+00 2.356831789016723633e+00 -5.252804756164550781e-01
2.376000000000000000e+03 7.302467346191406250e+01 4.665932178497314453e+00 2.065826207399368286e-01 6.784108161926269531e+00 2.097207069396972656e+00 -1.042882561683654785e+00
2.377000000000000000e+03 7.204274749755859375e+01 4.561099052429199219e+00 2.430069595575332642e-01 6.725515365600585938e+00 2.090556621551513672e+00 -1.095431089401245117e+00
2.378000000000000000e+03 6.981112670898437500e+01 -9.056495666503906250e+00 -1.886462092399597168e+00 7.222209453582763672e+00 1.600724220275878906e+00 -2.099926710128784180e+00
2.379000000000000000e+03 7.314130401611328125e+01 -6.772258758544921875e+00 -1.183719277381896973e+00 8.318889617919921875e+00 2.140551090240478516e+00 -8.287740945816040039e-01
2.380000000000000000e+03 7.160880279541015625e+01 -2.342403411865234375e+00 -3.726618885993957520e-01 6.803666114807128906e+00 1.929301261901855469e+00 -1.344764351844787598e+00
2.381000000000000000e+03 1.013735771179199219e+01 -1.367673778533935547e+01 9.888811707496643066e-01 1.172330617904663086e+00 6.483635306358337402e-01 2.666598372161388397e-02
2.382000000000000000e+03 1.129249095916748047e+01 -1.130658340454101562e+01 8.653284311294555664e-01 1.236627936363220215e+00 6.305869221687316895e-01 -1.041052192449569702e-01
2.383000000000000000e+03 9.368587493896484375e+00 1.993809127807617188e+01 -9.715313464403152466e-02 2.725760079920291901e-02 -2.096866071224212646e-02 2.866092696785926819e-02
2.384000000000000000e+03 7.516691684722900391e+00 1.779720878601074219e+01 -4.541708528995513916e-02 1.923370407894253731e-03 -1.304811425507068634e-02 1.637299358844757080e-02
2.385000000000000000e+03 7.285622406005859375e+01 1.365469455718994141e+01 5.149089097976684570e-01 6.532018184661865234e+00 2.114078044891357422e+00 -3.247216939926147461e-01
2.386000000000000000e+03 9.712042808532714844e+00 -2.226445579528808594e+01 2.030492275953292847e-01 1.280139684677124023e+00 4.449566900730133057e-01 6.602248549461364746e-01
2.387000000000000000e+03 7.523019790649414062e+00 -2.606943321228027344e+01 -1.483531147241592407e-01 6.577202081680297852e-01 1.528101414442062378e-01 6.150622367858886719e-01
2.388000000000000000e+03 5.967954254150390625e+01 -8.263861656188964844e+00 -9.933593273162841797e-01 1.072975158691406250e+00 2.388473413884639740e-02 6.586579680442810059e-01
2.389000000000000000e+03 7.354347229003906250e+01 -2.330260276794433594e+01 -4.963417053222656250e-01 9.728294372558593750e+00 2.769585847854614258e+00 -7.751141190528869629e-01
2.390000000000000000e+03 7.348188781738281250e+01 -2.238990020751953125e+01 -3.629797697067260742e-01 1.009175682067871094e+01 2.918633222579956055e+00 -8.286072015762329102e-01
2.391000000000000000e+03 3.520595169067382812e+01 -5.370625019073486328e+00 -2.228055000305175781e+00 8.570432662963867188e+00 1.902713179588317871e+00 -9.881390929222106934e-01
2.392000000000000000e+03 3.668425369262695312e+01 -3.261825799942016602e+00 -9.587829709053039551e-01 9.917098999023437500e+00 2.687494754791259766e+00 -9.541900753974914551e-01
2.393000000000000000e+03 3.609705352783203125e+01 -3.717787027359008789e+00 -1.273055076599121094e+00 9.568040847778320312e+00 2.488495826721191406e+00 -8.508424162864685059e-01
2.394000000000000000e+03 9.079447746276855469e+00 -1.548322296142578125e+01 8.878632783889770508e-01 8.752725124359130859e-01 5.289407372474670410e-01 1.769377142190933228e-01
2.395000000000000000e+03 6.880753040313720703e+00 -2.151879501342773438e+01 2.399867326021194458e-01 4.146528244018554688e-01 1.963918656110763550e-01 6.191129684448242188e-01
2.396000000000000000e+03 8.668607711791992188e+00 -1.948394584655761719e+01 5.286740660667419434e-01 9.154231548309326172e-01 4.332291781902313232e-01 5.399508476257324219e-01
2.397000000000000000e+03 8.324896812438964844e+00 1.891139793395996094e+01 -6.097106263041496277e-02 1.707341521978378296e-02 -1.316929515451192856e-02 1.501387078315019608e-02
2.398000000000000000e+03 7.098649597167968750e+01 -8.794068336486816406e+00 -1.834724903106689453e+00 8.189512252807617188e+00 1.906436085700988770e+00 -1.442054033279418945e+00
2.399000000000000000e+03 6.895656585693359375e+01 1.270715427398681641e+01 8.914856910705566406e-01 7.185914039611816406e+00 2.423219919204711914e+00 -4.653913974761962891e-01
2.400000000000000000e+03 6.388507843017578125e+01 -7.394584178924560547e+00 -5.449532270431518555e-01 1.748323559761047363e+00 3.610111176967620850e-01 -8.421027064323425293e-01
2.401000000000000000e+03 8.194366455078125000e+00 -1.219778919219970703e+01 6.370304226875305176e-01 4.207780659198760986e-01 3.173425495624542236e-01 -3.172641694545745850e-01
2.402000000000000000e+03 3.908096694946289062e+01 -1.189138984680175781e+01 -5.123022198677062988e-01 8.254404067993164062e+00 2.322630405426025391e+00 -1.064975023269653320e+00
2.403000000000000000e+03 7.352589607238769531e+00 2.994309806823730469e+01 1.836208440363407135e-02 -1.692989096045494080e-02 4.296580736991018057e-04 1.433359384536743164e-01
2.404000000000000000e+03 1.031531238555908203e+01 2.962358283996582031e+01 2.738564833998680115e-02 6.546388566493988037e-02 2.785485982894897461e-02 1.494068354368209839e-01
2.405000000000000000e+03 6.057485103607177734e+00 -9.489652633666992188e+00 2.027910351753234863e-01 -1.440420597791671753e-01 1.762469485402107239e-02 -5.836355090141296387e-01
2.406000000000000000e+03 1.029590415954589844e+01 1.111221694946289062e+01 3.735646372660994530e-03 -4.143687430769205093e-03 -1.224123989231884480e-04 2.002242021262645721e-03
2.407000000000000000e+03 7.300746154785156250e+01 1.988122749328613281e+01 2.619597613811492920e-01 6.410832881927490234e+00 2.001837730407714844e+00 3.027470409870147705e-01
2.408000000000000000e+03 7.175749969482421875e+01 2.039778137207031250e+01 3.222230970859527588e-01 6.604213237762451172e+00 2.077930927276611328e+00 3.220610320568084717e-01
2.409000000000000000e+03 6.327544784545898438e+01 2.322090911865234375e+01 -4.179840385913848877e-01 6.356393814086914062e+00 1.781522870063781738e+00 -9.259769320487976074e-01
2.410000000000000000e+03 3.840243911743164062e+01 1.736255836486816406e+01 4.089548885822296143e-01 7.162438392639160156e+00 2.271418094635009766e+00 8.376286029815673828e-01
2.411000000000000000e+03 3.910821151733398438e+01 -7.070499897003173828e+00 -2.700568199157714844e+00 8.683736801147460938e+00 1.794950604438781738e+00 -1.664965033531188965e+00
2.412000000000000000e+03 6.603110504150390625e+01 -7.950956344604492188e+00 -9.678772091865539551e-01 3.045786380767822266e+00 6.233727335929870605e-01 -1.960030913352966309e+00
2.413000000000000000e+03 6.476935577392578125e+01 -5.550777435302734375e+00 -1.026261523365974426e-01 3.006338596343994141e+00 8.711137175559997559e-01 -1.064661383628845215e+00
2.414000000000000000e+03 9.178618431091308594e+00 1.136919689178466797e+01 -5.022510886192321777e-03 -5.969140678644180298e-03 -3.297495422884821892e-03 9.013051167130470276e-04
2.415000000000000000e+03 7.232153415679931641e+00 1.254052925109863281e+01 -4.821855109184980392e-03 -6.102390587329864502e-03 -3.277273848652839661e-03 -1.052990439347922802e-03
2.416000000000000000e+03 1.190776157379150391e+01 -6.679619312286376953e+00 -5.793336033821105957e-02 6.658335328102111816e-01 1.823700517416000366e-01 -2.322251051664352417e-01
2.417000000000000000e+03 6.179034423828125000e+01 -6.483268737792968750e+00 -9.379462152719497681e-02 1.485457062721252441e+00 4.174987375736236572e-01 1.040784493088722229e-01
2.418000000000000000e+03 6.956902313232421875e+01 -2.962304878234863281e+01 -9.300550818443298340e-01 6.326212882995605469e+00 1.618847370147705078e+00 4.722532629966735840e-01
2.419000000000000000e+03 7.231354522705078125e+01 -3.175040245056152344e+01 -5.401482582092285156e-01 7.624739646911621094e+00 2.125377416610717773e+00 1.352819055318832397e-01
2.420000000000000000e+03 3.260873794555664062e+01 -3.439257431030273438e+01 -6.064712405204772949e-01 3.102263689041137695e+00 7.487376928329467773e-01 1.061485528945922852e+00
2.421000000000000000e+03 7.672779560089111328e+00 -2.742283439636230469e+01 -2.229632735252380371e-01 6.866408586502075195e-01 1.391032785177230835e-01 5.605632066726684570e-01
2.422000000000000000e+03 7.269046783447265625e+01 2.657018852233886719e+01 -1.465139538049697876e-01 6.416309356689453125e+00 1.880938529968261719e+00 3.240771889686584473e-01
2.423000000000000000e+03 1.113200473785400391e+01 9.908160209655761719e+00 3.905205987393856049e-03 -1.862829783931374550e-03 6.127128726802766323e-04 2.062771003693342209e-03
2.424000000000000000e+03 4.607299804687500000e+01 -1.369501781463623047e+01 4.735967516899108887e-01 4.376605510711669922e+00 1.455060601234436035e+00 1.052958846092224121e+00
2.425000000000000000e+03 4.713476943969726562e+01 -1.190487957000732422e+01 1.696126461029052734e-01 2.846235513687133789e+00 9.047544598579406738e-01 1.216808795928955078e+00
2.426000000000000000e+03 9.683300018310546875e+00 1.583096122741699219e+01 -2.783333323895931244e-02 -2.875973877962678671e-04 -8.436279371380805969e-03 -4.080260114278644323e-04
2.427000000000000000e+03 3.794950485229492188e+01 2.017682838439941406e+01 4.921139031648635864e-02 6.278035640716552734e+00 1.898174166679382324e+00 7.174828648567199707e-01
2.428000000000000000e+03 3.678461456298828125e+01 1.855568695068359375e+01 3.237541615962982178e-01 7.150824546813964844e+00 2.242373466491699219e+00 1.955343186855316162e-01
2.429000000000000000e+03 4.824252319335937500e+01 -1.056973075866699219e+01 -6.124029308557510376e-02 1.652588367462158203e+00 4.774044454097747803e-01 1.644529938697814941e+00
2.430000000000000000e+03 4.916844940185546875e+01 -9.815708160400390625e+00 -2.541039586067199707e-01 1.151965856552124023e+00 2.693585753440856934e-01 1.887018442153930664e+00
2.431000000000000000e+03 4.612646484375000000e+01 -9.311219215393066406e+00 -5.887531042098999023e-01 2.356457471847534180e+00 5.303113460540771484e-01 5.463566184043884277e-01
2.432000000000000000e+03 1.319959068298339844e+01 2.463700675964355469e+01 -1.562342196702957153e-01 9.646161645650863647e-02 -1.793177984654903412e-02 1.248034983873367310e-01
2.433000000000000000e+03 1.002389335632324219e+01 2.658575439453125000e+01 -4.597894102334976196e-02 5.507702380418777466e-02 2.729425206780433655e-03 1.537685990333557129e-01
2.434000000000000000e+03 7.289725494384765625e+01 -2.646088218688964844e+01 -7.690002322196960449e-01 8.746590614318847656e+00 2.393277168273925781e+00 -4.557811915874481201e-01
2.435000000000000000e+03 5.108409500122070312e+01 -9.321935653686523438e+00 -5.318502187728881836e-01 9.053903818130493164e-01 1.120620593428611755e-01 2.209436178207397461e+00
2.436000000000000000e+03 4.978239822387695312e+01 -8.810695648193359375e+00 -4.814887046813964844e-01 7.231418490409851074e-01 7.249593734741210938e-02 2.153156280517578125e+00
2.437000000000000000e+03 3.566736602783203125e+01 -4.479825973510742188e+00 -1.697007536888122559e+00 9.118621826171875000e+00 2.226484298706054688e+00 -8.315602540969848633e-01
2.438000000000000000e+03 8.544143676757812500e+00 2.110921859741210938e+01 -9.782825410366058350e-02 3.583594411611557007e-02 -1.859769225120544434e-02 4.747694358229637146e-02
2.439000000000000000e+03 7.028002929687500000e+01 -1.389909833669662476e-01 -2.960833720862865448e-02 6.329473018646240234e+00 1.889959335327148438e+00 -1.282846331596374512e+00
2.440000000000000000e+03 6.935717773437500000e+01 1.573715591430664062e+01 9.166691899299621582e-01 6.996305942535400391e+00 2.373892545700073242e+00 -1.939416080713272095e-01
2.441000000000000000e+03 3.932899475097656250e+01 1.904104614257812500e+01 1.718379408121109009e-01 6.121216297149658203e+00 1.887916207313537598e+00 1.195750355720520020e+00
2.442000000000000000e+03 4.122706985473632812e+01 1.969912719726562500e+01 1.372550278902053833e-01 5.009086608886718750e+00 1.543902516365051270e+00 1.576326966285705566e+00
2.443000000000000000e+03 6.836650848388671875e+01 -3.026687049865722656e+01 -8.618550300598144531e-01 5.324086189270019531e+00 1.338669300079345703e+00 6.850427389144897461e-01
2.444000000000000000e+03 4.609904479980468750e+01 2.335368919372558594e+01 -5.412418022751808167e-02 2.709304571151733398e+00 7.965540885925292969e-01 1.484993577003479004e+00
2.445000000000000000e+03 4.489835739135742188e+01 2.457099342346191406e+01 -1.301575601100921631e-01 3.149211168289184570e+00 9.057160615921020508e-01 1.530505895614624023e+00
2.446000000000000000e+03 4.283871459960937500e+01 2.364717674255371094e+01 -1.953753530979156494e-01 3.875194072723388672e+00 1.103945612907409668e+00 1.544970512390136719e+00
2.447000000000000000e+03 3.815935516357421875e+01 2.409007453918457031e+01 -4.093149900436401367e-01 5.219700813293457031e+00 1.443115711212158203e+00 8.451225161552429199e-01
2.448000000000000000e+03 1.049714088439941406e+01 -3.370876312255859375e+01 -3.443822264671325684e-01 7.351158857345581055e-01 1.172201037406921387e-01 1.597135812044143677e-01
2.449000000000000000e+03 1.349884605407714844e+01 -2.964448356628417969e+01 -5.321253538131713867e-01 1.095711231231689453e+00 1.690757423639297485e-01 7.285637408494949341e-02
2.450000000000000000e+03 6.705905151367187500e+01 2.038087081909179688e+01 6.299912333488464355e-01 7.215463161468505859e+00 2.353636264801025391e+00 1.612964868545532227e-01
2.451000000000000000e+03 8.736734390258789062e+00 2.806462860107421875e+01 -1.103811338543891907e-02 2.347634173929691315e-02 3.731468459591269493e-03 1.532036215066909790e-01
2.452000000000000000e+03 6.821309661865234375e+01 1.610948753356933594e+01 9.872786402702331543e-01 7.304770946502685547e+00 2.487614870071411133e+00 -1.696648597717285156e-01
2.453000000000000000e+03 6.923024749755859375e+01 1.468143844604492188e+01 8.970896601676940918e-01 7.115944862365722656e+00 2.403910160064697266e+00 -2.772202491760253906e-01
2.454000000000000000e+03 1.256466197967529297e+01 2.723090171813964844e+01 -2.829520218074321747e-02 1.137939020991325378e-01 2.564960904419422150e-02 1.382079720497131348e-01
2.455000000000000000e+03 1.169539260864257812e+01 2.908946609497070312e+01 2.565650455653667450e-02 1.120179444551467896e-01 4.130233451724052429e-02 1.380908638238906860e-01
2.456000000000000000e+03 9.526900291442871094e+00 1.233347988128662109e+01 1.156887388788163662e-03 -5.307438783347606659e-03 -1.245165360160171986e-03 2.341151048312895000e-05
2.457000000000000000e+03 1.297061347961425781e+01 2.844695091247558594e+01 2.455211058259010315e-02 1.368887126445770264e-01 4.843224957585334778e-02 1.361802667379379272e-01
2.458000000000000000e+03 1.671878242492675781e+01 2.800313758850097656e+01 9.839040040969848633e-02 2.093640565872192383e-01 9.232633560895919800e-02 -9.240236133337020874e-03
2.459000000000000000e+03 7.042615509033203125e+01 -3.531234359741210938e+01 -1.385235041379928589e-01 6.082065582275390625e+00 1.783062696456909180e+00 3.735710084438323975e-01
2.460000000000000000e+03 6.131128692626953125e+01 -7.661608695983886719e+00 -6.844437718391418457e-01 1.014477491378784180e+00 9.901011735200881958e-02 2.908408343791961670e-01
2.461000000000000000e+03 6.334930801391601562e+01 -5.846149444580078125e+00 -9.768739342689514160e-03 2.164844751358032227e+00 6.465228199958801270e-01 -5.082418322563171387e-01
2.462000000000000000e+03 8.859653472900390625e+00 -3.654743957519531250e+01 -2.121894955635070801e-01 5.625813603401184082e-01 1.051175594329833984e-01 1.238411441445350647e-01
2.463000000000000000e+03 9.349510192871093750e+00 -1.658753967285156250e+01 8.244942426681518555e-01 1.110963106155395508e+00 5.806372165679931641e-01 3.314160406589508057e-01
2.464000000000000000e+03 8.893020629882812500e+00 -1.429306125640869141e+01 8.375188112258911133e-01 7.451950907707214355e-01 4.748141765594482422e-01 -7.982417941093444824e-03
2.465000000000000000e+03 1.988410377502441406e+01 3.039085769653320312e+01 1.838275641202926636e-01 5.786828994750976562e-01 2.287531346082687378e-01 -2.498771697282791138e-01
2.466000000000000000e+03 1.915640068054199219e+01 3.300971984863281250e+01 1.616637110710144043e-01 7.033524513244628906e-01 2.595048546791076660e-01 -2.154723703861236572e-01
2.467000000000000000e+03 7.010431671142578125e+01 5.900815486907958984e+00 4.444633126258850098e-01 6.666808128356933594e+00 2.133381366729736328e+00 -9.426734447479248047e-01
2.468000000000000000e+03 6.862769317626953125e+01 8.242215156555175781e+00 6.823745369911193848e-01 6.927274227142333984e+00 2.282894611358642578e+00 -6.613103151321411133e-01
2.469000000000000000e+03 8.899089813232421875e+00 -2.330850982666015625e+01 6.201103702187538147e-02 1.005616664886474609e+00 3.202883005142211914e-01 6.625483036041259766e-01
2.470000000000000000e+03 7.142922973632812500e+01 -3.036966896057128906e+01 -7.653289437294006348e-01 7.308499336242675781e+00 1.962951183319091797e+00 1.594606041908264160e-01
2.471000000000000000e+03 5.801550292968750000e+01 3.039660072326660156e+01 3.792380988597869873e-01 3.007363557815551758e+00 1.015980482101440430e+00 -6.740269660949707031e-01
2.472000000000000000e+03 5.503922653198242188e+01 3.144610404968261719e+01 5.691254138946533203e-01 2.510067939758300781e+00 9.237580299377441406e-01 -9.694716334342956543e-02
2.473000000000000000e+03 8.961697578430175781e+00 2.657697296142578125e+01 -4.032650217413902283e-02 3.098528645932674408e-02 -2.802364993840456009e-03 1.478314399719238281e-01
2.474000000000000000e+03 1.124553203582763672e+01 2.613759040832519531e+01 -8.426262438297271729e-02 8.146472275257110596e-02 -8.393720490857958794e-04 1.509643793106079102e-01
2.475000000000000000e+03 6.489892578125000000e+01 4.714082181453704834e-01 4.608422815799713135e-01 4.953083038330078125e+00 1.624177575111389160e+00 -2.875417470932006836e-01
2.476000000000000000e+03 6.817803192138671875e+01 7.110064029693603516e+00 6.207499504089355469e-01 6.823686122894287109e+00 2.233330965042114258e+00 -6.749268770217895508e-01
2.477000000000000000e+03 6.711402130126953125e+01 1.804407119750976562e+00 3.521071672439575195e-01 5.795787334442138672e+00 1.844368457794189453e+00 -8.033084273338317871e-01
2.478000000000000000e+03 3.293254852294921875e+01 2.543779182434082031e+01 -5.000274777412414551e-01 5.069591522216796875e+00 1.370869159698486328e+00 -4.615271985530853271e-01
2.479000000000000000e+03 3.141601753234863281e+01 2.516741752624511719e+01 -4.325073659420013428e-01 4.651931762695312500e+00 1.265827298164367676e+00 -8.798019886016845703e-01
2.480000000000000000e+03 6.522969055175781250e+01 -6.398969292640686035e-01 3.827378749847412109e-01 4.651686668395996094e+00 1.510327339172363281e+00 -5.318631529808044434e-01
2.481000000000000000e+03 6.336032867431640625e+01 -1.368270993232727051e+00 5.855400562286376953e-01 3.763713836669921875e+00 1.304776191711425781e+00 -3.843476995825767517e-02
2.482000000000000000e+03 6.840231895446777344e+00 -6.519225120544433594e+00 -6.786295771598815918e-02 -1.076728384941816330e-02 -2.358907274901866913e-02 -6.501687765121459961e-01
2.483000000000000000e+03 1.296271991729736328e+01 6.417453765869140625e+00 -2.285582013428211212e-03 -6.147795938886702061e-04 -8.701084880158305168e-04 2.319838851690292358e-03
2.484000000000000000e+03 7.425117015838623047e+00 -7.087242603302001953e+00 -2.621165243908762932e-03 6.207568943500518799e-02 1.783635653555393219e-02 -6.360661387443542480e-01
2.485000000000000000e+03 7.890795230865478516e+00 -6.386277675628662109e+00 -1.014710515737533569e-01 1.021025925874710083e-01 1.894621382234618068e-04 -6.349001526832580566e-01
2.486000000000000000e+03 9.816205978393554688e+00 -6.309215068817138672e+00 -1.193106472492218018e-01 3.570823669433593750e-01 7.133151590824127197e-02 -5.097514390945434570e-01
2.487000000000000000e+03 9.088648796081542969e+00 -6.414900779724121094e+00 -9.474936127662658691e-02 2.655876874923706055e-01 5.125150084495544434e-02 -5.771970748901367188e-01
2.488000000000000000e+03 1.054489421844482422e+01 -6.948335647583007812e+00 -1.148598175495862961e-02 5.393073558807373047e-01 1.583464145660400391e-01 -4.434199333190917969e-01
2.489000000000000000e+03 1.149043846130371094e+01 7.899944782257080078e+00 -1.946269883774220943e-03 -1.488624722696840763e-03 -1.030468381941318512e-03 4.362553823739290237e-03
2.490000000000000000e+03 1.086604976654052734e+01 8.980317115783691406e+00 -2.775034168735146523e-03 -2.451601903885602951e-03 -1.567990751937031746e-03 3.299187170341610909e-03
2.491000000000000000e+03 8.523445129394531250e+00 6.370844841003417969e+00 -1.527567277662456036e-03 -1.919681206345558167e-03 -1.034174580127000809e-03 7.897191244410350919e-05
2.492000000000000000e+03 9.823163986206054688e+00 -7.072483062744140625e+00 1.925470307469367981e-02 4.254328012466430664e-01 1.334062516689300537e-01 -5.147722363471984863e-01
2.493000000000000000e+03 9.799423217773437500e+00 7.432972908020019531e+00 4.238833673298358917e-03 -2.365293912589550018e-03 5.620619631372392178e-04 1.290976419113576412e-03
2.494000000000000000e+03 1.066752910614013672e+01 8.112326622009277344e+00 3.177583916112780571e-03 -1.115983235649764538e-03 6.184802041389048100e-04 1.166834117611870170e-04
2.495000000000000000e+03 1.406315040588378906e+01 -7.817302703857421875e+00 2.056799978017807007e-01 1.168947577476501465e+00 4.123882949352264404e-01 1.750648170709609985e-01
2.496000000000000000e+03 1.530636596679687500e+01 -6.975944995880126953e+00 6.291849166154861450e-02 1.084499835968017578e+00 3.442254960536956787e-01 4.239057600498199463e-01
2.497000000000000000e+03 8.852891921997070312e+00 8.152583122253417969e+00 4.548917524516582489e-03 -2.975163515657186508e-03 4.721262666862457991e-04 1.032542437314987183e-03
2.498000000000000000e+03 1.122691822052001953e+01 -6.837923526763916016e+00 -2.212491258978843689e-02 6.176750063896179199e-01 1.786650270223617554e-01 -3.465501368045806885e-01
2.499000000000000000e+03 1.720013046264648438e+01 -7.379012107849121094e+00 2.841476500034332275e-01 1.202686071395874023e+00 4.460501074790954590e-01 9.295281171798706055e-01
2.500000000000000000e+03 7.047571563720703125e+01 -1.188518333435058594e+01 -2.018680095672607422e+00 9.744031906127929688e+00 2.317605495452880859e+00 -1.804156899452209473e+00
2.501000000000000000e+03 7.191741180419921875e+01 -1.087928390502929688e+01 -1.965599536895751953e+00 9.920978546142578125e+00 2.386613845825195312e+00 -7.477885484695434570e-01
2.502000000000000000e+03 7.128062438964843750e+01 -1.134912729263305664e+00 -1.929617971181869507e-01 6.666856288909912109e+00 1.942168354988098145e+00 -1.306401848793029785e+00
2.503000000000000000e+03 6.154293537139892578e+00 8.033939361572265625e+00 4.803939256817102432e-03 -3.056312212720513344e-03 5.242881015874445438e-04 -3.796741133555769920e-03
2.504000000000000000e+03 5.382192611694335938e+00 7.731500625610351562e+00 -2.217174740508198738e-03 -4.141528625041246414e-04 -7.893982692621648312e-04 -1.518942764960229397e-03
2.505000000000000000e+03 1.048895454406738281e+01 7.310771942138671875e+00 -3.056624846067279577e-04 -2.758169546723365784e-03 -9.191496064886450768e-04 3.527623135596513748e-03
2.506000000000000000e+03 3.687938308715820312e+01 -4.138462543487548828e+00 -1.649366021156311035e+00 9.783597946166992188e+00 2.440269470214843750e+00 -1.066307425498962402e+00
2.507000000000000000e+03 1.079028034210205078e+01 -8.924184799194335938e+00 3.591324687004089355e-01 8.199374079704284668e-01 3.537209630012512207e-01 -3.667062520980834961e-01
2.508000000000000000e+03 1.346616077423095703e+01 -8.956071853637695312e+00 4.434831440448760986e-01 1.359365820884704590e+00 5.408546924591064453e-01 7.953527569770812988e-02
2.509000000000000000e+03 6.377040863037109375e+01 -2.871012687683105469e+00 4.178365767002105713e-01 3.454904079437255859e+00 1.161822199821472168e+00 -3.912070393562316895e-01
2.510000000000000000e+03 6.199138641357421875e+01 -3.490031480789184570e+00 5.472624301910400391e-01 2.676675558090209961e+00 9.671813845634460449e-01 1.874570250511169434e-01
2.511000000000000000e+03 7.586693763732910156e+00 8.876104354858398438e+00 2.455789595842361450e-03 -3.026721766218543053e-03 -1.712796802166849375e-04 1.967306307051330805e-04
2.512000000000000000e+03 7.103178405761718750e+01 -5.204261302947998047e+00 -9.359039664268493652e-01 6.959430217742919922e+00 1.807057857513427734e+00 -1.517364263534545898e+00
2.513000000000000000e+03 6.814628601074218750e+00 8.334998130798339844e+00 -1.174681936390697956e-03 -2.623956650495529175e-03 -1.139591564424335957e-03 6.108717934694141150e-05
2.514000000000000000e+03 9.051626205444335938e+00 7.293551921844482422e+00 -2.639805898070335388e-03 -1.631814520806074142e-03 -1.281486125662922859e-03 -3.761201151064597070e-05
2.515000000000000000e+03 7.264363098144531250e+01 -7.800580501556396484e+00 -1.479399442672729492e+00 8.554449081420898438e+00 2.122514963150024414e+00 -8.685755729675292969e-01
2.516000000000000000e+03 1.591117286682128906e+01 -7.545869350433349609e+00 2.484073340892791748e-01 1.245919942855834961e+00 4.482981860637664795e-01 6.138439774513244629e-01
2.517000000000000000e+03 7.566955566406250000e+00 1.080248260498046875e+01 -2.143516903743147850e-03 -6.395364645868539810e-03 -2.561664441600441933e-03 -1.610120089026167989e-04
2.518000000000000000e+03 7.044751739501953125e+01 -2.996935129165649414e+00 -4.095655679702758789e-01 6.463496685028076172e+00 1.816179394721984863e+00 -1.430161476135253906e+00
2.519000000000000000e+03 4.240773010253906250e+01 -1.313848876953125000e+01 4.461306706070899963e-02 6.702009677886962891e+00 2.023986816406250000e+00 -5.865727663040161133e-01
2.520000000000000000e+03 7.101644897460937500e+01 1.102759075164794922e+01 6.364466547966003418e-01 6.797842979431152344e+00 2.230286836624145508e+00 -6.094076633453369141e-01
2.521000000000000000e+03 7.038896942138671875e+01 2.530254364013671875e+01 -1.787395179271697998e-01 6.530251026153564453e+00 1.905453443527221680e+00 2.508088946342468262e-01
2.522000000000000000e+03 7.072507476806640625e+01 2.378533554077148438e+01 -8.279424905776977539e-02 6.598127841949462891e+00 1.954600095748901367e+00 3.572745919227600098e-01
2.523000000000000000e+03 6.999578094482421875e+01 -5.370653152465820312e+00 -9.023274779319763184e-01 6.389389038085937500e+00 1.646118521690368652e+00 -1.694000363349914551e+00
2.524000000000000000e+03 7.132073879241943359e+00 -9.274986267089843750e+00 2.302830666303634644e-01 5.982563272118568420e-02 8.703260868787765503e-02 -5.785346627235412598e-01
2.525000000000000000e+03 9.906941413879394531e+00 -8.620393753051757812e+00 2.730296552181243896e-01 5.656231641769409180e-01 2.515958249568939209e-01 -4.842619001865386963e-01
2.526000000000000000e+03 7.221849822998046875e+01 -5.005530357360839844e+00 -9.000286459922790527e-01 7.477826118469238281e+00 1.973339200019836426e+00 -1.254403352737426758e+00
2.527000000000000000e+03 4.536194992065429688e+01 -7.863572120666503906e+00 -1.234290122985839844e+00 2.165258884429931641e+00 2.792906463146209717e-01 -1.177520826458930969e-01
2.528000000000000000e+03 1.150084972381591797e+01 -9.561119079589843750e+00 5.182809829711914062e-01 1.066122651100158691e+00 4.753210842609405518e-01 -2.468377053737640381e-01
2.529000000000000000e+03 1.028539562225341797e+01 -9.617431640625000000e+00 4.802283346652984619e-01 7.762905955314636230e-01 3.769556879997253418e-01 -4.043965637683868408e-01
2.530000000000000000e+03 8.102520942687988281e+00 2.587385368347167969e+01 -5.478400364518165588e-02 1.647162437438964844e-02 -1.149371359497308731e-02 1.399917006492614746e-01
2.531000000000000000e+03 8.018389701843261719e+00 1.317406654357910156e+01 -7.462231442332267761e-03 -6.973424926400184631e-03 -4.330697003751993179e-03 7.770388619974255562e-04
2.532000000000000000e+03 8.503356933593750000e+00 -1.318594264984130859e+01 7.536661624908447266e-01 5.676848888397216797e-01 3.964053094387054443e-01 -1.721217483282089233e-01
2.533000000000000000e+03 7.207469177246093750e+01 7.504486560821533203e+00 4.041589200496673584e-01 6.711596965789794922e+00 2.134726762771606445e+00 -8.918510675430297852e-01
2.534000000000000000e+03 6.917880249023437500e+01 6.561854839324951172e+00 5.354099273681640625e-01 6.705914497375488281e+00 2.172397375106811523e+00 -8.259359598159790039e-01
2.535000000000000000e+03 7.751015186309814453e+00 -1.141138458251953125e+01 4.864434003829956055e-01 2.600101232528686523e-01 2.239360660314559937e-01 -4.064315855503082275e-01
2.536000000000000000e+03 4.412611389160156250e+01 -1.220741081237792969e+01 -1.521601080894470215e-01 5.191291332244873047e+00 1.511739373207092285e+00 -1.409815740771591663e-03
2.537000000000000000e+03 3.983742523193359375e+01 2.488484191894531250e+01 -4.307738840579986572e-01 4.678376197814941406e+00 1.274280667304992676e+00 1.088962793350219727e+00
2.538000000000000000e+03 7.307308197021484375e+00 -1.047552967071533203e+01 3.790604174137115479e-01 1.137502938508987427e-01 1.478432118892669678e-01 -5.057014226913452148e-01
2.539000000000000000e+03 7.085729980468750000e+01 -4.059201717376708984e+00 -6.513616442680358887e-01 6.695912361145019531e+00 1.813365221023559570e+00 -1.474323153495788574e+00
2.540000000000000000e+03 4.168857192993164062e+01 -1.023893547058105469e+01 -1.148362517356872559e+00 6.557178020477294922e+00 1.622644543647766113e+00 -1.014614462852478027e+00
2.541000000000000000e+03 7.163344573974609375e+01 1.011259460449218750e+01 6.044640541076660156e-01 6.735429763793945312e+00 2.201968193054199219e+00 -6.929987668991088867e-01
2.542000000000000000e+03 7.264933776855468750e+01 1.240587997436523438e+01 5.114149451255798340e-01 6.610991954803466797e+00 2.136722087860107422e+00 -4.533533751964569092e-01
2.543000000000000000e+03 4.215666961669921875e+01 -1.199288654327392578e+01 -4.029524624347686768e-01 6.490167617797851562e+00 1.826164603233337402e+00 -7.499641776084899902e-01
2.544000000000000000e+03 3.765682601928710938e+01 -6.710094928741455078e+00 -2.926494836807250977e+00 9.389427185058593750e+00 1.938879728317260742e+00 -1.340356945991516113e+00
2.545000000000000000e+03 7.240312194824218750e+01 -6.073698997497558594e-01 -1.597632914781570435e-01 6.932124137878417969e+00 2.031708240509033203e+00 -1.249313235282897949e+00
2.546000000000000000e+03 6.772125244140625000e+01 6.869332492351531982e-02 1.884371787309646606e-01 5.667096614837646484e+00 1.756660103797912598e+00 -1.003414750099182129e+00
2.547000000000000000e+03 7.112014770507812500e+01 -9.911424636840820312e+00 -1.995714426040649414e+00 8.794173240661621094e+00 2.039537668228149414e+00 -1.376700162887573242e+00
2.548000000000000000e+03 7.266285705566406250e+01 -9.329019546508789062e+00 -1.744963526725769043e+00 9.235095977783203125e+00 2.247039794921875000e+00 -6.113491654396057129e-01
2.549000000000000000e+03 7.403285980224609375e+00 -1.346395874023437500e+01 6.133794784545898438e-01 2.314957827329635620e-01 2.534625828266143799e-01 -1.889423280954360962e-01
2.550000000000000000e+03 4.765872955322265625e+01 -8.214523315429687500e+00 -8.042944669723510742e-01 9.277083277702331543e-01 3.702415153384208679e-02 1.216588735580444336e+00
2.551000000000000000e+03 4.812278747558593750e+01 -9.086094856262207031e+00 -3.535456657409667969e-01 1.167031288146972656e+00 2.440456748008728027e-01 1.498423695564270020e+00
2.552000000000000000e+03 7.211414337158203125e+01 1.741399383544921875e+01 5.207288861274719238e-01 6.578296661376953125e+00 2.129707574844360352e+00 8.022675663232803345e-02
2.553000000000000000e+03 8.928960800170898438e+00 2.302225875854492188e+01 -1.050676777958869934e-01 4.734730720520019531e-02 -1.731611043214797974e-02 9.128928929567337036e-02
2.554000000000000000e+03 1.713355445861816406e+01 3.365665435791015625e+01 1.539495587348937988e-01 5.623927712440490723e-01 2.149027138948440552e-01 -1.289667040109634399e-01
2.555000000000000000e+03 1.552305030822753906e+01 3.144719505310058594e+01 1.257986128330230713e-01 3.510754406452178955e-01 1.430622190237045288e-01 -2.556751109659671783e-02
2.556000000000000000e+03 8.844560623168945312e+00 2.994560241699218750e+01 1.918140053749084473e-02 1.385930180549621582e-02 9.912210516631603241e-03 1.432335674762725830e-01
2.557000000000000000e+03 8.624776840209960938e+00 1.261644077301025391e+01 -7.868320681154727936e-03 -7.128065917640924454e-03 -4.498916212469339371e-03 5.171768716536462307e-04
2.558000000000000000e+03 7.094102478027343750e+01 6.756098270416259766e+00 4.494850635528564453e-01 6.689543247222900391e+00 2.141708374023437500e+00 -9.470573067665100098e-01
2.559000000000000000e+03 6.989992523193359375e+01 1.304913711547851562e+01 8.207899332046508789e-01 6.941032886505126953e+00 2.328547000885009766e+00 -4.012601673603057861e-01
2.560000000000000000e+03 8.077548980712890625e+00 -2.423000335693359375e+01 -1.730754785239696503e-02 8.143118619918823242e-01 2.391012907028198242e-01 6.759204864501953125e-01
2.561000000000000000e+03 6.319995403289794922e+00 -2.287695121765136719e+01 8.032625168561935425e-02 3.033807277679443359e-01 1.151120960712432861e-01 6.419461965560913086e-01
2.562000000000000000e+03 6.497479248046875000e+01 -7.628719329833984375e+00 -5.285434722900390625e-01 2.215489387512207031e+00 5.060837864875793457e-01 -1.397226452827453613e+00
2.563000000000000000e+03 6.512983703613281250e+01 -6.435247898101806641e+00 -3.989979326725006104e-01 2.825146913528442383e+00 7.278447151184082031e-01 -1.413443207740783691e+00
2.564000000000000000e+03 8.800840377807617188e+00 1.341569232940673828e+01 -4.090313334017992020e-03 -4.109390079975128174e-03 -2.459910931065678596e-03 -2.202719217166304588e-03
2.565000000000000000e+03 9.453056335449218750e+00 -3.219845962524414062e+01 -3.533708751201629639e-01 7.504801750183105469e-01 1.191328018903732300e-01 2.611228227615356445e-01
2.566000000000000000e+03 1.171729373931884766e+01 -3.048846244812011719e+01 -4.533658325672149658e-01 9.793210029602050781e-01 1.577865481376647949e-01 1.954550594091415405e-01
2.567000000000000000e+03 6.380163955688476562e+01 2.224472999572753906e+01 -1.408271044492721558e-01 7.044210433959960938e+00 2.071014881134033203e+00 -8.033942580223083496e-01
2.568000000000000000e+03 6.514627838134765625e+01 1.977093696594238281e+01 1.058656573295593262e+00 7.806148052215576172e+00 2.659441232681274414e+00 -2.483046203851699829e-01
2.569000000000000000e+03 6.912842559814453125e+01 1.825151252746582031e+01 7.626313567161560059e-01 6.939560413360595703e+00 2.310657501220703125e+00 1.060091778635978699e-01
2.570000000000000000e+03 7.122823333740234375e+01 1.681614112854003906e+01 6.549693942070007324e-01 6.656921386718750000e+00 2.193567276000976562e+00 7.984331808984279633e-03
2.571000000000000000e+03 3.808516693115234375e+01 1.879719352722167969e+01 1.746417284011840820e-01 6.652702331542968750e+00 2.048203229904174805e+00 6.873436570167541504e-01
2.572000000000000000e+03 4.212220764160156250e+01 -2.505966377258300781e+01 2.007770299911499023e+00 8.444721221923828125e+00 3.135747432708740234e+00 -9.375166893005371094e-01
2.573000000000000000e+03 4.207124710083007812e+01 -2.393286895751953125e+01 2.036163806915283203e+00 8.879772186279296875e+00 3.274780750274658203e+00 -1.134205698966979980e+00
2.574000000000000000e+03 6.594362640380859375e+01 7.395139336585998535e-01 3.942402005195617676e-01 5.248849868774414062e+00 1.692927002906799316e+00 -5.637034177780151367e-01
2.575000000000000000e+03 6.698176574707031250e+01 4.258409500122070312e+00 5.064761042594909668e-01 6.282037258148193359e+00 2.036554098129272461e+00 -6.387132406234741211e-01
2.576000000000000000e+03 6.946530151367187500e+01 5.093449115753173828e+00 4.305625259876251221e-01 6.544777393341064453e+00 2.092602014541625977e+00 -9.373492002487182617e-01
2.577000000000000000e+03 1.074511146545410156e+01 -2.323084449768066406e+01 3.360009193420410156e-02 1.516461372375488281e+00 4.650184214115142822e-01 5.778446197509765625e-01
2.578000000000000000e+03 6.979273223876953125e+01 1.937239074707031250e+01 5.838652253150939941e-01 6.841815948486328125e+00 2.227704286575317383e+00 2.191473692655563354e-01
2.579000000000000000e+03 3.429982376098632812e+01 2.567906570434570312e+01 -5.888252854347229004e-01 5.133283615112304688e+00 1.363337516784667969e+00 -1.069207265973091125e-01
2.580000000000000000e+03 3.549375915527343750e+01 2.632705307006835938e+01 -6.144392490386962891e-01 4.929883480072021484e+00 1.294633388519287109e+00 1.674816608428955078e-01
2.581000000000000000e+03 4.037612915039062500e+01 1.870479774475097656e+01 2.498497217893600464e-01 5.708379268646240234e+00 1.787468671798706055e+00 1.467407822608947754e+00
2.582000000000000000e+03 3.797416687011718750e+01 2.161401748657226562e+01 -1.736159026622772217e-01 5.822540760040283203e+00 1.694677472114562988e+00 7.562602758407592773e-01
2.583000000000000000e+03 4.155569458007812500e+01 2.531963157653808594e+01 -3.358869552612304688e-01 4.204382896423339844e+00 1.160548806190490723e+00 1.337110519409179688e+00
2.584000000000000000e+03 4.418946075439453125e+01 -1.350251293182373047e+01 2.263263761997222900e-01 5.813622474670410156e+00 1.811984539031982422e+00 1.769717633724212646e-01
2.585000000000000000e+03 4.565615844726562500e+01 -1.171709156036376953e+01 -8.434621989727020264e-02 3.941653966903686523e+00 1.157192349433898926e+00 6.622126698493957520e-01
2.586000000000000000e+03 6.985332489013671875e+01 7.624755859375000000e+00 5.594332218170166016e-01 6.801487445831298828e+00 2.208276271820068359e+00 -8.262119293212890625e-01
2.587000000000000000e+03 6.993682861328125000e+01 1.040611743927001953e+01 7.258406281471252441e-01 6.929270744323730469e+00 2.296533346176147461e+00 -6.482383608818054199e-01
2.588000000000000000e+03 8.138774871826171875e+00 1.180677318572998047e+01 8.553858060622587800e-05 -5.532452836632728577e-03 -1.634074258618056774e-03 -4.561124660540372133e-04
2.589000000000000000e+03 6.709033203125000000e+01 2.295186614990234375e+01 -9.698327630758285522e-02 6.852708816528320312e+00 2.026717662811279297e+00 8.246520161628723145e-02
2.590000000000000000e+03 7.182852935791015625e+01 1.590075588226318359e+01 6.015056967735290527e-01 6.648260116577148438e+00 2.174929857254028320e+00 -8.231109380722045898e-02
2.591000000000000000e+03 1.542433929443359375e+01 2.763990211486816406e+01 1.297539100050926208e-02 1.733330190181732178e-01 5.589252337813377380e-02 5.945332720875740051e-02
2.592000000000000000e+03 1.137156581878662109e+01 2.760030174255371094e+01 -1.335523091256618500e-02 8.560261130332946777e-02 2.167421393096446991e-02 1.599841117858886719e-01
2.593000000000000000e+03 7.205438232421875000e+01 1.495408058166503906e+01 5.818944573402404785e-01 6.578377246856689453e+00 2.148081541061401367e+00 -2.016571462154388428e-01
2.594000000000000000e+03 7.106078338623046875e+01 1.558922290802001953e+01 7.310969233512878418e-01 6.693277359008789062e+00 2.227312326431274414e+00 -1.469306498765945435e-01
2.595000000000000000e+03 7.306180000305175781e+00 -1.227444171905517578e+01 5.385916829109191895e-01 1.707834750413894653e-01 2.128125578165054321e-01 -3.338857591152191162e-01
2.596000000000000000e+03 4.327515792846679688e+01 2.525408172607421875e+01 -2.332711070775985718e-01 3.686406850814819336e+00 1.035940766334533691e+00 1.450509548187255859e+00
2.597000000000000000e+03 1.946472358703613281e+01 2.892063522338867188e+01 1.519241183996200562e-01 4.681719243526458740e-01 1.860288083553314209e-01 -2.196556478738784790e-01
2.598000000000000000e+03 7.030458831787109375e+01 8.697463035583496094e+00 5.840919017791748047e-01 6.778597831726074219e+00 2.208806991577148438e+00 -7.819115519523620605e-01
2.599000000000000000e+03 7.160641479492187500e+01 2.840843391418457031e+01 -2.322844266891479492e-01 6.331813335418701172e+00 1.829858660697937012e+00 1.986098438501358032e-01
2.600000000000000000e+03 6.995885467529296875e+01 2.838837814331054688e+01 -2.998688220977783203e-01 6.292855262756347656e+00 1.797895908355712891e+00 7.910366356372833252e-02
2.601000000000000000e+03 1.371431827545166016e+01 -3.467416000366210938e+01 -3.793858587741851807e-01 7.407578229904174805e-01 1.084115952253341675e-01 -3.151660785079002380e-02
2.602000000000000000e+03 6.481209564208984375e+01 2.755503654479980469e+01 -4.566625356674194336e-01 5.830053806304931641e+00 1.612017393112182617e+00 -5.856413841247558594e-01
2.603000000000000000e+03 4.936225891113281250e+01 2.572275352478027344e+01 1.230294480919837952e-01 1.787012100219726562e+00 5.730124711990356445e-01 1.173860669136047363e+00
2.604000000000000000e+03 4.579195022583007812e+01 2.659729766845703125e+01 -6.114224717020988464e-02 2.884688854217529297e+00 8.470639586448669434e-01 1.353879570960998535e+00
2.605000000000000000e+03 6.849547576904296875e+01 -3.621579742431640625e+01 4.608948901295661926e-02 4.944131851196289062e+00 1.497066378593444824e+00 5.039533972740173340e-01
2.606000000000000000e+03 1.503773212432861328e+01 3.329284286499023438e+01 1.421508789062500000e-01 4.349570870399475098e-01 1.731323897838592529e-01 -1.608169078826904297e-02
2.607000000000000000e+03 1.811755561828613281e+01 2.941568756103515625e+01 1.500393450260162354e-01 3.583098948001861572e-01 1.525047719478607178e-01 -1.206836923956871033e-01
2.608000000000000000e+03 9.692983627319335938e+00 2.561359405517578125e+01 -8.364073187112808228e-02 5.314915627241134644e-02 -9.147471748292446136e-03 1.443157792091369629e-01
2.609000000000000000e+03 1.418987941741943359e+01 2.773167037963867188e+01 -5.615342408418655396e-03 1.499489098787307739e-01 4.330006986856460571e-02 1.094489693641662598e-01
2.610000000000000000e+03 3.130406379699707031e+01 2.860463905334472656e+01 -5.833495855331420898e-01 3.813925504684448242e+00 9.691727757453918457e-01 -6.126981377601623535e-01
2.611000000000000000e+03 2.820301628112792969e+01 2.678227996826171875e+01 -1.074611023068428040e-01 2.895884990692138672e+00 8.365271687507629395e-01 -1.252547264099121094e+00
2.612000000000000000e+03 6.892686462402343750e+01 2.503655815124511719e+01 -2.851889133453369141e-01 6.569602012634277344e+00 1.885324001312255859e+00 1.743800938129425049e-01
2.613000000000000000e+03 1.535910415649414062e+01 -3.676461791992187500e+01 -2.633022964000701904e-01 5.976499319076538086e-01 1.003042981028556824e-01 -1.141256764531135559e-01
2.614000000000000000e+03 6.909368896484375000e+01 9.453069686889648438e+00 7.068248391151428223e-01 7.024135589599609375e+00 2.319288253784179688e+00 -6.490442156791687012e-01
2.615000000000000000e+03 9.033297538757324219e+00 -7.975526809692382812e+00 1.530404090881347656e-01 3.582662642002105713e-01 1.533920019865036011e-01 -5.646830797195434570e-01
2.616000000000000000e+03 9.048291206359863281e+00 -7.181606292724609375e+00 2.487631887197494507e-02 3.244238197803497314e-01 1.047900393605232239e-01 -5.697278380393981934e-01
2.617000000000000000e+03 9.913930892944335938e+00 -7.861979961395263672e+00 1.473897248506546021e-01 5.292557477951049805e-01 2.029936462640762329e-01 -4.877714514732360840e-01
2.618000000000000000e+03 9.828660011291503906e+00 9.139330863952636719e+00 3.806723514571785927e-03 -2.419357420876622200e-03 4.162097757216542959e-04 1.036412781104445457e-03
2.619000000000000000e+03 1.420566749572753906e+01 -7.120617866516113281e+00 4.899640753865242004e-02 1.022424340248107910e+00 3.214262127876281738e-01 1.658102720975875854e-01
2.620000000000000000e+03 1.067841625213623047e+01 -7.662796020507812500e+00 1.399038285017013550e-01 6.453455686569213867e-01 2.355748265981674194e-01 -4.237257242202758789e-01
2.621000000000000000e+03 1.133948135375976562e+01 -7.495341777801513672e+00 1.071201860904693604e-01 7.257922291755676270e-01 2.498737275600433350e-01 -3.120779693126678467e-01
2.622000000000000000e+03 1.319339179992675781e+01 -8.014271736145019531e+00 2.410903871059417725e-01 1.086207032203674316e+00 3.981892466545104980e-01 4.405076615512371063e-03
2.623000000000000000e+03 1.291861724853515625e+01 -7.147562980651855469e+00 3.381842002272605896e-02 8.965392708778381348e-01 2.791073024272918701e-01 -6.564617902040481567e-02
2.624000000000000000e+03 7.312648010253906250e+01 -1.930715942382812500e+01 8.723091483116149902e-01 1.168144130706787109e+01 3.766125202178955078e+00 -1.323702216148376465e+00
2.625000000000000000e+03 6.884072113037109375e+01 -2.061947584152221680e+00 -1.601035296916961670e-01 5.766645908355712891e+00 1.681962728500366211e+00 -1.389151096343994141e+00
2.626000000000000000e+03 6.985020446777343750e+01 -6.452639102935791016e+00 -1.155990958213806152e+00 6.487154006958007812e+00 1.599348902702331543e+00 -1.802692651748657227e+00
2.627000000000000000e+03 7.117192077636718750e+01 -1.091601181030273438e+01 -2.155722856521606445e+00 9.611517906188964844e+00 2.236738443374633789e+00 -1.247808933258056641e+00
2.628000000000000000e+03 1.000769424438476562e+01 1.011585235595703125e+01 -3.242057748138904572e-03 -4.305502865463495255e-03 -2.264268230646848679e-03 1.852981396950781345e-03
2.629000000000000000e+03 4.338940811157226562e+01 -1.126828956604003906e+01 -4.470480084419250488e-01 5.436208724975585938e+00 1.496748208999633789e+00 -4.314625859260559082e-01
2.630000000000000000e+03 6.672653961181640625e+01 -4.125197410583496094e+00 -1.644591689109802246e-01 4.478247642517089844e+00 1.294136524200439453e+00 -1.366003274917602539e+00
2.631000000000000000e+03 6.527332305908203125e+01 -1.832239151000976562e+00 3.229232728481292725e-01 4.288666725158691406e+00 1.383476972579956055e+00 -6.673309803009033203e-01
2.632000000000000000e+03 7.042539215087890625e+01 1.202129268646240234e+01 7.110286951065063477e-01 6.884602546691894531e+00 2.278689384460449219e+00 -5.375621318817138672e-01
2.633000000000000000e+03 7.207804870605468750e+01 1.153733158111572266e+01 5.380965471267700195e-01 6.673438549041748047e+00 2.163460493087768555e+00 -5.591808557510375977e-01
2.634000000000000000e+03 7.012462615966796875e+01 -1.017531585693359375e+01 -2.111319541931152344e+00 8.153130531311035156e+00 1.812543153762817383e+00 -1.893978357315063477e+00
2.635000000000000000e+03 6.970350646972656250e+01 1.670441436767578125e+01 8.221666812896728516e-01 6.920112133026123047e+00 2.322683572769165039e+00 -3.600952029228210449e-02
2.636000000000000000e+03 7.201522827148437500e+01 -1.005206489562988281e+01 -1.941007494926452637e+00 9.402593612670898438e+00 2.238475799560546875e+00 -8.163238167762756348e-01
2.637000000000000000e+03 7.212481689453125000e+01 -6.360507965087890625e+00 -1.197750806808471680e+00 7.824788570404052734e+00 1.988111376762390137e+00 -1.206284046173095703e+00
2.638000000000000000e+03 1.219723796844482422e+01 -8.264206886291503906e+00 2.603302597999572754e-01 9.875559806823730469e-01 3.743658661842346191e-01 -1.747462749481201172e-01
2.639000000000000000e+03 6.751130676269531250e+01 -7.361758708953857422e+00 -1.049960374832153320e+00 4.473685741424560547e+00 1.027117609977722168e+00 -2.196421861648559570e+00
2.640000000000000000e+03 6.970123291015625000e+01 -7.747327804565429688e+00 -1.497820973396301270e+00 6.629053592681884766e+00 1.539369821548461914e+00 -1.975938796997070312e+00
2.641000000000000000e+03 1.048796749114990234e+01 -1.074068832397460938e+01 6.214249134063720703e-01 9.107916951179504395e-01 4.596649706363677979e-01 -3.156578540802001953e-01
2.642000000000000000e+03 7.398407745361328125e+01 -7.544290065765380859e+00 -1.118512511253356934e+00 8.740981101989746094e+00 2.286740541458129883e+00 -3.650426268577575684e-01
2.643000000000000000e+03 6.840500640869140625e+01 -4.472381591796875000e+00 -5.319912433624267578e-01 5.427884101867675781e+00 1.468767881393432617e+00 -1.655028939247131348e+00
2.644000000000000000e+03 8.303530693054199219e+00 7.051646709442138672e+00 4.292689263820648193e-03 -3.036730457097291946e-03 3.767876187339425087e-04 1.508564921095967293e-03
2.645000000000000000e+03 9.544139862060546875e+00 -9.266263008117675781e+00 3.851814270019531250e-01 5.486176013946533203e-01 2.801397144794464111e-01 -4.687053859233856201e-01
2.646000000000000000e+03 1.241554069519042969e+01 -9.231814384460449219e+00 4.875817894935607910e-01 1.160429954528808594e+00 4.944035112857818604e-01 -1.177254468202590942e-01
2.647000000000000000e+03 6.820302581787109375e+01 4.324021339416503906e+00 4.460963010787963867e-01 6.392858505249023438e+00 2.051686525344848633e+00 -8.066085577011108398e-01
2.648000000000000000e+03 6.823755645751953125e+01 2.805156707763671875e+01 -3.892417550086975098e-01 6.215681076049804688e+00 1.747931838035583496e+00 -6.413503736257553101e-02
2.649000000000000000e+03 6.921634674072265625e+01 2.236805152893066406e+01 5.402683839201927185e-02 6.785802841186523438e+00 2.051949024200439453e+00 3.229477703571319580e-01
2.650000000000000000e+03 4.254915618896484375e+01 -1.101193332672119141e+01 -6.495497226715087891e-01 6.053213596343994141e+00 1.621099114418029785e+00 -7.065071463584899902e-01
2.651000000000000000e+03 6.938327026367187500e+01 9.873080253601074219e-02 4.967806860804557800e-02 6.073865413665771484e+00 1.837062954902648926e+00 -1.238821148872375488e+00
2.652000000000000000e+03 6.571044921875000000e+01 4.114980220794677734e+00 5.593940019607543945e-01 6.158238887786865234e+00 2.015289783477783203e+00 -2.859691381454467773e-01
2.653000000000000000e+03 7.040020751953125000e+01 1.457831382751464844e+01 8.165386319160461426e-01 6.822698593139648438e+00 2.291771173477172852e+00 -2.670716047286987305e-01
2.654000000000000000e+03 6.311450195312500000e+01 -4.084042072296142578e+00 3.526123166084289551e-01 2.824699163436889648e+00 9.531934261322021484e-01 -2.991040349006652832e-01
2.655000000000000000e+03 6.853259277343750000e+01 -7.652229309082031250e+00 -1.375473141670227051e+00 5.552600860595703125e+00 1.253138303756713867e+00 -2.171154737472534180e+00
2.656000000000000000e+03 3.608375167846679688e+01 2.491906929016113281e+01 -5.103839635848999023e-01 5.256529808044433594e+00 1.423843741416931152e+00 3.671204745769500732e-01
2.657000000000000000e+03 7.166880035400390625e+01 5.659307479858398438e+00 3.311004042625427246e-01 6.699828147888183594e+00 2.109278678894042969e+00 -1.016818046569824219e+00
2.658000000000000000e+03 8.977951049804687500e+00 2.483102416992187500e+01 -7.535519450902938843e-02 4.454129189252853394e-02 -9.244169108569622040e-03 1.329796910285949707e-01
2.659000000000000000e+03 8.671568870544433594e+00 9.188873291015625000e+00 -2.504981122910976410e-03 -4.582942929118871689e-03 -2.126377308741211891e-03 7.097131456248462200e-04
2.660000000000000000e+03 6.281369781494140625e+01 2.123133277893066406e+01 -1.639307290315628052e-01 7.320686340332031250e+00 2.147026777267456055e+00 -6.221446990966796875e-01
2.661000000000000000e+03 6.922710418701171875e+01 2.368649864196777344e+01 -7.860157638788223267e-02 6.698085784912109375e+00 1.985845327377319336e+00 2.472787499427795410e-01
2.662000000000000000e+03 1.079926586151123047e+01 2.485309982299804688e+01 -1.015807911753654480e-01 7.288625836372375488e-02 -8.608358912169933319e-03 1.360237002372741699e-01
2.663000000000000000e+03 7.057932281494140625e+01 1.621046447753906250e+01 7.496688961982727051e-01 6.824611186981201172e+00 2.272284030914306641e+00 -9.509191662073135376e-02
2.664000000000000000e+03 7.807049751281738281e+00 -2.860717010498046875e+01 -2.591416239738464355e-01 6.577123403549194336e-01 1.195712238550186157e-01 4.753212034702301025e-01
2.665000000000000000e+03 9.050557136535644531e+00 -1.180594825744628906e+01 6.735690236091613770e-01 6.240606904029846191e-01 3.892889022827148438e-01 -2.889586687088012695e-01
2.666000000000000000e+03 9.846714973449707031e+00 -1.132685947418212891e+01 7.010282278060913086e-01 7.779600620269775391e-01 4.436964988708496094e-01 -3.037189245223999023e-01
2.667000000000000000e+03 6.421956634521484375e+01 -6.323967456817626953e+00 -1.732039153575897217e-01 2.298060417175292969e+00 6.374568939208984375e-01 -9.943805932998657227e-01
2.668000000000000000e+03 6.616478729248046875e+01 -5.947492599487304688e+00 -4.506680369377136230e-01 3.641887903213500977e+00 9.573659896850585938e-01 -1.543376564979553223e+00
2.669000000000000000e+03 3.926433181762695312e+01 2.032049369812011719e+01 -2.818532846868038177e-02 5.739830017089843750e+00 1.713493466377258301e+00 1.126942992210388184e+00
2.670000000000000000e+03 3.911503982543945312e+01 2.160013580322265625e+01 -1.563611626625061035e-01 5.492784976959228516e+00 1.600927114486694336e+00 1.092722058296203613e+00
2.671000000000000000e+03 1.103385925292968750e+01 -2.849072074890136719e+01 -4.316170215606689453e-01 1.106176376342773438e+00 2.023677825927734375e-01 3.345611095428466797e-01
2.672000000000000000e+03 1.106564426422119141e+01 -2.555638122558593750e+01 -2.654230594635009766e-01 1.374154567718505859e+00 3.326194286346435547e-01 4.708624184131622314e-01
2.673000000000000000e+03 1.008301448822021484e+01 2.795269203186035156e+01 -1.544934138655662537e-02 5.367424339056015015e-02 1.146747078746557236e-02 1.561340391635894775e-01
2.674000000000000000e+03 7.008219146728515625e+01 3.478049087524414062e+01 -1.409336626529693604e-01 5.882135391235351562e+00 1.722360491752624512e+00 -2.958469465374946594e-02
2.675000000000000000e+03 6.739233398437500000e+01 3.195783615112304688e+01 -2.692372500896453857e-01 5.675397396087646484e+00 1.621848106384277344e+00 -2.417567968368530273e-01
2.676000000000000000e+03 4.377117919921875000e+01 2.748237991333007812e+01 -2.060757726430892944e-01 3.450775861740112305e+00 9.734100103378295898e-01 1.319962143898010254e+00
2.677000000000000000e+03 3.456673812866210938e+01 2.425723648071289062e+01 -4.046211838722229004e-01 5.495728969573974609e+00 1.527332425117492676e+00 -1.005329862236976624e-01
2.678000000000000000e+03 4.018529510498046875e+01 2.326936340332031250e+01 -2.800474166870117188e-01 4.866849422454833984e+00 1.376040577888488770e+00 1.258560061454772949e+00
2.679000000000000000e+03 3.940634918212890625e+01 2.675124359130859375e+01 -5.100182890892028809e-01 4.529287338256835938e+00 1.205780744552612305e+00 9.656218290328979492e-01
2.680000000000000000e+03 4.160087966918945312e+01 2.366474914550781250e+01 -2.740783393383026123e-01 4.376076221466064453e+00 1.230599403381347656e+00 1.409011602401733398e+00
2.681000000000000000e+03 7.186211395263671875e+01 -7.518865585327148438e+00 -1.511363029479980469e+00 8.096522331237792969e+00 1.975547909736633301e+00 -1.223166108131408691e+00
2.682000000000000000e+03 7.199423980712890625e+01 -8.476338386535644531e+00 -1.639981269836425781e+00 8.544025421142578125e+00 2.071213006973266602e+00 -1.073123335838317871e+00
2.683000000000000000e+03 7.009896087646484375e+01 2.677929687500000000e+01 -2.864245176315307617e-01 6.404119014739990234e+00 1.835308313369750977e+00 1.788928657770156860e-01
2.684000000000000000e+03 6.529265594482421875e+01 2.475435638427734375e+01 -4.437554776668548584e-01 6.467408180236816406e+00 1.807095885276794434e+00 -4.362057447433471680e-01
2.685000000000000000e+03 9.975400924682617188e+00 3.476305770874023438e+01 8.482751995325088501e-02 9.142944216728210449e-02 5.287708714604377747e-02 8.147107064723968506e-02
2.686000000000000000e+03 1.253203487396240234e+01 -3.257897186279296875e+01 -4.395829737186431885e-01 8.619892597198486328e-01 1.267218887805938721e-01 8.277186006307601929e-02
2.687000000000000000e+03 6.749404907226562500e+01 2.458662796020507812e+01 -2.785503864288330078e-01 6.656543731689453125e+00 1.913398027420043945e+00 1.167952315881848335e-03
2.688000000000000000e+03 5.184986495971679688e+01 2.785630798339843750e+01 4.168816804885864258e-01 1.684948086738586426e+00 6.305489540100097656e-01 6.011320948600769043e-01
2.689000000000000000e+03 6.987464904785156250e+01 3.020875740051269531e+01 -2.910257875919342041e-01 6.118943691253662109e+00 1.748375296592712402e+00 1.087685488164424896e-02
2.690000000000000000e+03 6.790805816650390625e+01 2.985236740112304688e+01 -3.485023677349090576e-01 5.984162330627441406e+00 1.690697908401489258e+00 -1.750104874372482300e-01
2.691000000000000000e+03 6.402777099609375000e+01 2.568655776977539062e+01 -5.361725687980651855e-01 5.964553833007812500e+00 1.628514409065246582e+00 -6.800645589828491211e-01
2.692000000000000000e+03 6.630004119873046875e+01 2.377130889892578125e+01 -3.357633948326110840e-01 6.822694301605224609e+00 1.946079373359680176e+00 -6.416370719671249390e-02
2.693000000000000000e+03 2.492430877685546875e+01 3.155990791320800781e+01 -3.777031227946281433e-02 1.813708543777465820e+00 5.327814817428588867e-01 -6.788554191589355469e-01
2.694000000000000000e+03 6.758718109130859375e+01 -3.413048171997070312e+01 -1.878483891487121582e-01 4.449880123138427734e+00 1.278609514236450195e+00 6.656172871589660645e-01
2.695000000000000000e+03 7.024357604980468750e+01 -3.111975097656250000e+01 -7.168571949005126953e-01 6.524325370788574219e+00 1.742240428924560547e+00 4.308255612850189209e-01
2.696000000000000000e+03 4.734136962890625000e+01 2.793778991699218750e+01 1.005984693765640259e-01 2.555710792541503906e+00 7.968928217887878418e-01 1.197403073310852051e+00
2.697000000000000000e+03 2.704437065124511719e+01 2.652871322631835938e+01 -2.871005609631538391e-02 2.451913595199584961e+00 7.269610166549682617e-01 -1.282942533493041992e+00
2.698000000000000000e+03 3.303570556640625000e+01 2.723355102539062500e+01 -6.725817322731018066e-01 4.613356590270996094e+00 1.182232499122619629e+00 -3.530365824699401855e-01
2.699000000000000000e+03 8.873881340026855469e+00 -3.877202987670898438e+01 -1.733368486166000366e-01 5.299612879753112793e-01 1.069873273372650146e-01 7.867208123207092285e-02
2.700000000000000000e+03 1.122706127166748047e+01 -8.190442085266113281e+00 2.356364578008651733e-01 7.854882478713989258e-01 3.063374161720275879e-01 -3.385135829448699951e-01
2.701000000000000000e+03 1.209893417358398438e+01 -7.408465385437011719e+00 9.502740949392318726e-02 7.846659421920776367e-01 2.639079988002777100e-01 -2.167515009641647339e-01
2.702000000000000000e+03 9.867464065551757812e+00 -1.021888732910156250e+01 5.322131514549255371e-01 7.237805128097534180e-01 3.767980933189392090e-01 -3.736820816993713379e-01
2.703000000000000000e+03 9.358711242675781250e+00 -1.064185047149658203e+01 5.215010046958923340e-01 6.188206076622009277e-01 3.420964777469635010e-01 -3.906061947345733643e-01
2.704000000000000000e+03 1.094878768920898438e+01 -1.009530544281005859e+01 5.936491489410400391e-01 9.718988537788391113e-01 4.696643948554992676e-01 -2.903282344341278076e-01
2.705000000000000000e+03 1.170942592620849609e+01 -1.042352199554443359e+01 7.365637421607971191e-01 1.219029903411865234e+00 5.866780877113342285e-01 -1.489853411912918091e-01
2.706000000000000000e+03 6.973896789550781250e+01 1.078910827636718750e+00 1.228484585881233215e-01 6.313787460327148438e+00 1.930990815162658691e+00 -1.167478561401367188e+00
2.707000000000000000e+03 6.940750122070312500e+01 3.266190052032470703e+00 3.085597455501556396e-01 6.410154342651367188e+00 2.015614271163940430e+00 -1.021486043930053711e+00
2.708000000000000000e+03 6.825494384765625000e+01 3.115820884704589844e+00 3.719574511051177979e-01 6.201573371887207031e+00 1.972059249877929688e+00 -9.061908721923828125e-01
2.709000000000000000e+03 6.418130493164062500e+01 -1.782843470573425293e+00 4.496478736400604248e-01 3.956476449966430664e+00 1.321837306022644043e+00 -3.447800874710083008e-01
2.710000000000000000e+03 6.696888732910156250e+01 -8.211947083473205566e-01 1.966320723295211792e-01 5.160901546478271484e+00 1.607260107994079590e+00 -9.477432370185852051e-01
2.711000000000000000e+03 6.941731262207031250e+01 -3.723211526870727539e+00 -4.786799252033233643e-01 5.992947578430175781e+00 1.654280304908752441e+00 -1.526025295257568359e+00
2.712000000000000000e+03 6.691540527343750000e+01 6.863080263137817383e-01 2.779916226863861084e-01 5.570774555206298828e+00 1.754629850387573242e+00 -8.455756902694702148e-01
2.713000000000000000e+03 6.837534332275390625e+01 1.907603621482849121e+00 2.693502008914947510e-01 6.056351184844970703e+00 1.897710442543029785e+00 -9.793491363525390625e-01
2.714000000000000000e+03 6.624695587158203125e+01 -1.692447662353515625e-01 2.938918173313140869e-01 5.109367847442626953e+00 1.620977878570556641e+00 -7.613872289657592773e-01
2.715000000000000000e+03 6.704716491699218750e+01 3.032259702682495117e+00 4.218384027481079102e-01 6.055617332458496094e+00 1.943236708641052246e+00 -6.906328797340393066e-01
2.716000000000000000e+03 6.923908233642578125e+01 4.250873565673828125e+00 3.821745812892913818e-01 6.478111267089843750e+00 2.058085918426513672e+00 -9.720711708068847656e-01
2.717000000000000000e+03 7.078880310058593750e+01 5.081869125366210938e+00 3.560279905796051025e-01 6.616285324096679688e+00 2.091694116592407227e+00 -1.048046946525573730e+00
2.718000000000000000e+03 7.867185592651367188e+00 2.232891082763671875e+01 -8.841708302497863770e-02 2.430766262114048004e-02 -1.923282630741596222e-02 8.655908703804016113e-02
2.719000000000000000e+03 6.407068634033203125e+01 -4.782904624938964844e+00 1.203543618321418762e-01 2.915641784667968750e+00 9.107988476753234863e-01 -7.582178711891174316e-01
2.720000000000000000e+03 7.087176513671875000e+01 -7.605396270751953125e+00 -1.528050422668457031e+00 7.596355915069580078e+00 1.820491671562194824e+00 -1.582870602607727051e+00
2.721000000000000000e+03 7.097499847412109375e+01 -6.395377635955810547e+00 -1.228563427925109863e+00 7.178221225738525391e+00 1.784897327423095703e+00 -1.578542590141296387e+00
2.722000000000000000e+03 6.799709320068359375e+01 2.252073097229003906e+01 4.337474703788757324e-02 6.911872386932373047e+00 2.086574316024780273e+00 2.102902233600616455e-01
2.723000000000000000e+03 6.854255676269531250e+01 2.645811653137207031e+01 -3.266528248786926270e-01 6.433992385864257812e+00 1.832201957702636719e+00 3.016522526741027832e-02
2.724000000000000000e+03 3.841307449340820312e+01 -2.777273559570312500e+01 3.516753911972045898e-01 6.623834133148193359e+00 2.092652797698974609e+00 4.490586519241333008e-01
2.725000000000000000e+03 6.545906066894531250e+01 2.268667030334472656e+01 -1.388980001211166382e-01 6.849798202514648438e+00 2.013270139694213867e+00 -1.920942068099975586e-01
2.726000000000000000e+03 6.646105194091796875e+01 2.746755981445312500e+01 -4.469992816448211670e-01 6.174914836883544922e+00 1.718374729156494141e+00 -2.837962210178375244e-01
2.727000000000000000e+03 7.033318328857421875e+01 2.069243812561035156e+01 3.360640108585357666e-01 6.706991672515869141e+00 2.112916707992553711e+00 3.292723298072814941e-01
2.728000000000000000e+03 1.356850147247314453e+01 2.969148063659667969e+01 6.750193238258361816e-02 1.970403939485549927e-01 7.936269789934158325e-02 9.611537307500839233e-02
2.729000000000000000e+03 1.143526554107666016e+01 -3.586275863647460938e+01 -3.096407353878021240e-01 6.720879673957824707e-01 1.087341606616973877e-01 5.174959823489189148e-02
2.730000000000000000e+03 6.237620544433593750e+01 -5.288318157196044922e+00 1.582070291042327881e-01 2.084671020507812500e+00 6.728634238243103027e-01 -1.368336081504821777e-01
2.731000000000000000e+03 6.787370300292968750e+01 -3.414987325668334961e+00 -2.324802279472351074e-01 5.178802013397216797e+00 1.483896613121032715e+00 -1.444228768348693848e+00
2.732000000000000000e+03 6.766063690185546875e+01 -6.311616420745849609e+00 -7.952559590339660645e-01 4.833392143249511719e+00 1.211440920829772949e+00 -1.903434276580810547e+00
2.733000000000000000e+03 6.650102996826171875e+01 -2.055825471878051758e+00 1.230223327875137329e-01 4.760757923126220703e+00 1.465134143829345703e+00 -1.039286613464355469e+00
2.734000000000000000e+03 6.492676544189453125e+01 -3.040270805358886719e+00 2.375462800264358521e-01 3.838150501251220703e+00 1.222709059715270996e+00 -7.510377764701843262e-01
2.735000000000000000e+03 6.902768707275390625e+01 -9.646912813186645508e-01 -3.513529151678085327e-02 5.865695476531982422e+00 1.749168038368225098e+00 -1.293652892112731934e+00
2.736000000000000000e+03 6.910465240478515625e+01 -5.198674678802490234e+00 -7.480256557464599609e-01 5.782864570617675781e+00 1.510451674461364746e+00 -1.721105456352233887e+00
2.737000000000000000e+03 6.896119689941406250e+01 -2.941787958145141602e+00 -3.120505809783935547e-01 5.840838432312011719e+00 1.658636331558227539e+00 -1.470566272735595703e+00
2.738000000000000000e+03 7.043689727783203125e+01 3.628171443939208984e+00 2.808407843112945557e-01 6.530827045440673828e+00 2.043500423431396484e+00 -1.101197004318237305e+00
2.739000000000000000e+03 7.004100036621093750e+01 4.501294136047363281e+00 3.519380390644073486e-01 6.564890861511230469e+00 2.075048685073852539e+00 -1.007846474647521973e+00
2.740000000000000000e+03 6.874623870849609375e+01 -6.321772575378417969e+00 -9.369540810585021973e-01 5.633725643157958984e+00 1.409031510353088379e+00 -1.927308797836303711e+00
2.741000000000000000e+03 6.968274688720703125e+01 2.165911912918090820e+00 2.065802514553070068e-01 6.343959331512451172e+00 1.965161919593811035e+00 -1.133840680122375488e+00
2.742000000000000000e+03 6.759066009521484375e+01 2.148600769042968750e+01 2.018322646617889404e-01 6.990412712097167969e+00 2.157673597335815430e+00 2.496114224195480347e-01
2.743000000000000000e+03 6.839369201660156250e+01 1.990584373474121094e+01 5.737958550453186035e-01 6.964753627777099609e+00 2.261564970016479492e+00 2.172833383083343506e-01
2.744000000000000000e+03 6.683123779296875000e+01 2.588388252258300781e+01 -4.432821869850158691e-01 6.384637355804443359e+00 1.782406449317932129e+00 -1.483971774578094482e-01
2.745000000000000000e+03 6.794346618652343750e+01 -9.580573439598083496e-01 5.765103176236152649e-02 5.536880970001220703e+00 1.678359508514404297e+00 -1.165437817573547363e+00
2.746000000000000000e+03 6.445381927490234375e+01 2.333975219726562500e+01 -5.043829679489135742e-01 6.733273983001708984e+00 1.868667244911193848e+00 -4.456973969936370850e-01
2.747000000000000000e+03 1.087164306640625000e+01 3.152827835083007812e+01 6.685301661491394043e-02 1.047698706388473511e-01 5.148686468601226807e-02 1.166844889521598816e-01
2.748000000000000000e+03 6.866750335693359375e+01 7.590781450271606445e-01 1.780056953430175781e-01 5.952857971191406250e+00 1.839259147644042969e+00 -1.100803852081298828e+00
2.749000000000000000e+03 6.772941589355468750e+01 -2.198123216629028320e+00 -4.602073878049850464e-02 5.271223545074462891e+00 1.567560791969299316e+00 -1.267347455024719238e+00
2.750000000000000000e+03 6.670308685302734375e+01 -6.874367237091064453e+00 -6.559982895851135254e-01 3.723270893096923828e+00 9.201817512512207031e-01 -1.842531919479370117e+00
2.751000000000000000e+03 6.597061157226562500e+01 -3.284046649932861328e+00 6.024556607007980347e-02 4.269944190979003906e+00 1.299057006835937500e+00 -1.080437541007995605e+00
2.752000000000000000e+03 6.505258178710937500e+01 -4.037147521972656250e+00 1.137917563319206238e-01 3.612195730209350586e+00 1.117796182632446289e+00 -9.203985929489135742e-01
2.753000000000000000e+03 6.889190673828125000e+01 2.109911155700683594e+01 3.663098514080047607e-01 6.901235580444335938e+00 2.180263757705688477e+00 2.987696826457977295e-01
2.754000000000000000e+03 7.099085235595703125e+01 2.618255615234375000e+00 1.741310060024261475e-01 6.601849555969238281e+00 2.032794237136840820e+00 -1.153289914131164551e+00
2.755000000000000000e+03 6.103421783447265625e+01 2.878186988830566406e+01 -7.894430309534072876e-02 4.139411449432373047e+00 1.218140125274658203e+00 -1.024853706359863281e+00
2.756000000000000000e+03 7.066248321533203125e+01 7.542363405227661133e-01 4.763478040695190430e-02 6.459628105163574219e+00 1.952178955078125000e+00 -1.240177631378173828e+00
2.757000000000000000e+03 5.046165847778320312e+01 -3.423960876464843750e+01 -2.407647073268890381e-01 2.409960508346557617e+00 6.507587432861328125e-01 -1.728934168815612793e+00
2.758000000000000000e+03 6.981446838378906250e+01 -3.845466995239257812e+01 2.356903403997421265e-01 5.734384536743164062e+00 1.791022419929504395e+00 2.858874797821044922e-01
2.759000000000000000e+03 7.186102294921875000e+01 -3.721660995483398438e+01 3.916952386498451233e-02 6.852024078369140625e+00 2.067358016967773438e+00 2.340865731239318848e-01
2.760000000000000000e+03 6.984607696533203125e+01 3.232047653198242188e+01 -2.275929600000381470e-01 5.957396984100341797e+00 1.718941211700439453e+00 -3.914270550012588501e-02
2.761000000000000000e+03 4.232195281982421875e+01 -2.835574150085449219e+01 6.665124297142028809e-01 7.599533081054687500e+00 2.479813575744628906e+00 -4.274995326995849609e-01
2.762000000000000000e+03 6.602157592773437500e+01 -3.682199096679687500e+01 3.366007804870605469e-01 3.547464847564697266e+00 1.165219664573669434e+00 5.252667665481567383e-01
2.763000000000000000e+03 3.317124938964843750e+01 2.945399665832519531e+01 -6.717410087585449219e-01 4.090257644653320312e+00 1.025554895401000977e+00 -2.486181110143661499e-01
2.764000000000000000e+03 2.681466865539550781e+01 3.188439750671386719e+01 -2.171960473060607910e-01 2.373011589050292969e+00 6.467447280883789062e-01 -7.013481855392456055e-01
2.765000000000000000e+03 4.042101669311523438e+01 -3.653696823120117188e+01 -1.369743704795837402e+00 5.371150016784667969e+00 1.200421929359436035e+00 8.686934411525726318e-02
2.766000000000000000e+03 6.079433822631835938e+01 3.253801727294921875e+01 1.175021752715110779e-01 4.000220298767089844e+00 1.235316634178161621e+00 -6.758868098258972168e-01
2.767000000000000000e+03 6.189247894287109375e+01 3.035356903076171875e+01 -9.851589053869247437e-02 4.649451255798339844e+00 1.365280628204345703e+00 -7.979179024696350098e-01
2.768000000000000000e+03 6.682012939453125000e+01 3.465668869018554688e+01 -1.078844889998435974e-01 5.379777431488037109e+00 1.581567883491516113e+00 -2.238042950630187988e-01
2.769000000000000000e+03 3.959375381469726562e+01 -3.134461402893066406e+01 -5.902203321456909180e-01 6.192534446716308594e+00 1.680694222450256348e+00 3.783630728721618652e-01
2.770000000000000000e+03 1.544996452331542969e+01 -3.339520263671875000e+01 -4.360342919826507568e-01 7.598513960838317871e-01 9.714513272047042847e-02 -1.225121319293975830e-01
2.771000000000000000e+03 3.764330673217773438e+01 2.581988906860351562e+01 -5.551175475120544434e-01 4.920180320739746094e+00 1.309518933296203613e+00 6.522235274314880371e-01
2.772000000000000000e+03 3.859051513671875000e+01 2.893127059936523438e+01 -6.010998487472534180e-01 4.315351009368896484e+00 1.114275455474853516e+00 6.919423937797546387e-01
2.773000000000000000e+03 2.747713279724121094e+01 2.918921661376953125e+01 -1.900050491094589233e-01 2.580044746398925781e+00 7.170119285583496094e-01 -9.988324046134948730e-01
2.774000000000000000e+03 2.215767097473144531e+01 3.292961120605468750e+01 5.036962777376174927e-02 1.301643729209899902e+00 4.056040048599243164e-01 -4.035483598709106445e-01
2.775000000000000000e+03 4.065189361572265625e+01 -2.890936851501464844e+01 2.156229317188262939e-01 7.043745994567871094e+00 2.177810668945312500e+00 1.976965554058551788e-02
2.776000000000000000e+03 1.158914661407470703e+01 3.757079315185546875e+01 1.116187646985054016e-01 2.449878454208374023e-01 1.069819778203964233e-01 4.261915013194084167e-02
2.777000000000000000e+03 5.412510299682617188e+01 2.971354484558105469e+01 5.604937076568603516e-01 2.011478185653686523e+00 7.715915441513061523e-01 4.706275090575218201e-02
2.778000000000000000e+03 8.326183319091796875e+00 3.834231948852539062e+01 8.125628530979156494e-02 1.962770149111747742e-02 3.026519715785980225e-02 5.750755220651626587e-02
2.779000000000000000e+03 5.853704929351806641e+00 3.834929656982421875e+01 5.420507863163948059e-02 -1.274953931570053101e-01 -2.198709547519683838e-02 6.258624047040939331e-02
2.780000000000000000e+03 4.066146850585937500e+01 -3.280630111694335938e+01 -9.415900111198425293e-01 6.216023921966552734e+00 1.582330107688903809e+00 1.123915314674377441e-01
2.781000000000000000e+03 3.905196762084960938e+01 -2.952428627014160156e+01 -1.388140767812728882e-01 6.394040107727050781e+00 1.876567840576171875e+00 4.651736319065093994e-01
2.782000000000000000e+03 2.398710632324218750e+01 -3.527238464355468750e+01 -1.105045154690742493e-01 3.601968884468078613e-01 7.490771263837814331e-02 5.859753116965293884e-02
2.783000000000000000e+03 1.834151458740234375e+01 -3.813262557983398438e+01 -1.435802280902862549e-01 5.459395647048950195e-01 1.207078024744987488e-01 -1.311270594596862793e-01
2.784000000000000000e+03 6.601896667480468750e+01 2.905584907531738281e+01 -4.175077676773071289e-01 5.757184982299804688e+00 1.601903080940246582e+00 -3.998818695545196533e-01
2.785000000000000000e+03 6.228906250000000000e+01 -4.123219299316406250e+01 1.006779551506042480e+00 1.811018466949462891e+00 8.453394174575805664e-01 7.181651890277862549e-02
2.786000000000000000e+03 3.603089523315429688e+01 -3.199135398864746094e+01 -6.867792606353759766e-01 4.848045349121093750e+00 1.248379826545715332e+00 9.513419270515441895e-01
2.787000000000000000e+03 5.624707031250000000e+01 -3.853246307373046875e+01 7.713332772254943848e-01 8.899677395820617676e-01 4.983902871608734131e-01 -4.031727612018585205e-01
2.788000000000000000e+03 2.869512939453125000e+01 3.118957710266113281e+01 -3.879037201404571533e-01 2.886929750442504883e+00 7.497077584266662598e-01 -6.845073699951171875e-01
2.789000000000000000e+03 3.703029632568359375e+01 3.134763145446777344e+01 -6.569805145263671875e-01 4.068055629730224609e+00 1.023322582244873047e+00 3.577405810356140137e-01
2.790000000000000000e+03 4.385326004028320312e+01 3.039565277099609375e+01 -1.749529093503952026e-01 3.326213121414184570e+00 9.453780651092529297e-01 1.040683627128601074e+00
2.791000000000000000e+03 6.014422607421875000e+01 3.059914779663085938e+01 1.537507176399230957e-01 3.755942344665527344e+00 1.172907948493957520e+00 -8.494917154312133789e-01
2.792000000000000000e+03 5.697032546997070312e+01 3.290336990356445312e+01 4.534544646739959717e-01 3.092134475708007812e+00 1.063676595687866211e+00 -3.409029841423034668e-01
2.793000000000000000e+03 4.145676422119140625e+01 2.739612007141113281e+01 -3.944895863533020020e-01 4.018994331359863281e+00 1.087351441383361816e+00 1.133771061897277832e+00
2.794000000000000000e+03 6.171622276306152344e+00 -3.858586883544921875e+01 -1.143886819481849670e-01 4.561189115047454834e-01 1.025190651416778564e-01 9.014039486646652222e-02
2.795000000000000000e+03 7.157112121582031250e+01 -4.106677627563476562e+01 2.527666985988616943e-01 6.712355136871337891e+00 2.089536666870117188e+00 5.433471873402595520e-02
2.796000000000000000e+03 6.246472167968750000e+01 3.773546600341796875e+01 1.669283062219619751e-01 4.439943790435791016e+00 1.382061600685119629e+00 -2.296115010976791382e-01
2.797000000000000000e+03 3.485527801513671875e+01 3.425702667236328125e+01 -6.319988369941711426e-01 3.631874799728393555e+00 8.999628424644470215e-01 4.352268949151039124e-02
2.798000000000000000e+03 3.157292366027832031e+01 3.655977249145507812e+01 -5.340153574943542480e-01 3.120748519897460938e+00 7.760199308395385742e-01 -1.557795405387878418e-01
2.799000000000000000e+03 3.848493576049804688e+01 3.634131622314453125e+01 -4.867700338363647461e-01 3.527700901031494141e+00 9.122793078422546387e-01 2.852046489715576172e-01
2.800000000000000000e+03 4.288796234130859375e+01 3.712707138061523438e+01 -1.743049472570419312e-01 3.283865451812744141e+00 9.328681826591491699e-01 4.047635793685913086e-01
2.801000000000000000e+03 5.494329833984375000e+01 3.532497787475585938e+01 5.157464146614074707e-01 3.006258249282836914e+00 1.056601405143737793e+00 -2.484498545527458191e-02
2.802000000000000000e+03 5.819679260253906250e+01 3.720161437988281250e+01 3.981619477272033691e-01 3.540879964828491211e+00 1.181712627410888672e+00 -1.915339529514312744e-01
2.803000000000000000e+03 5.156270217895507812e+01 3.691521453857421875e+01 4.263363480567932129e-01 2.921021223068237305e+00 1.004207253456115723e+00 1.775934696197509766e-01
2.804000000000000000e+03 2.264397811889648438e+01 -4.102970123291015625e+01 1.024081464856863022e-02 6.868370175361633301e-01 2.091233581304550171e-01 8.560628630220890045e-03
2.805000000000000000e+03 3.283362197875976562e+01 -3.871044540405273438e+01 -7.611140012741088867e-01 3.180231809616088867e+00 7.257353067398071289e-01 5.016552209854125977e-01
2.806000000000000000e+03 4.249537277221679688e+01 -3.426087951660156250e+01 -1.158082604408264160e+00 5.972308158874511719e+00 1.444267630577087402e+00 -2.738874554634094238e-01
2.807000000000000000e+03 3.705626296997070312e+01 -3.815806198120117188e+01 -1.237865209579467773e+00 4.611328601837158203e+00 1.012038946151733398e+00 3.963035941123962402e-01
2.808000000000000000e+03 4.755543136596679688e+01 -4.130660247802734375e+01 -8.060188293457031250e-01 3.862697124481201172e+00 9.170035123825073242e-01 -2.568650543689727783e-01
2.809000000000000000e+03 2.332580184936523438e+01 3.697914505004882812e+01 -7.076895982027053833e-02 1.601876139640808105e+00 4.593321382999420166e-01 -2.733003199100494385e-01
2.810000000000000000e+03 1.402962875366210938e+01 3.566712188720703125e+01 1.230635344982147217e-01 4.005762636661529541e-01 1.570919454097747803e-01 2.361343987286090851e-02
2.811000000000000000e+03 1.241824913024902344e+01 -3.832053375244140625e+01 -2.187201380729675293e-01 5.798137784004211426e-01 1.083281040191650391e-01 -4.089628346264362335e-03
2.812000000000000000e+03 8.702198028564453125e+00 -2.130861473083496094e+01 3.368929922580718994e-01 9.521549344062805176e-01 3.867143690586090088e-01 6.405574083328247070e-01
2.813000000000000000e+03 4.122121810913085938e+01 -3.093964767456054688e+01 -4.736907184123992920e-01 6.682052612304687500e+00 1.862508535385131836e+00 -3.374800086021423340e-02
2.814000000000000000e+03 3.982351303100585938e+01 -2.717134094238281250e+01 8.517433404922485352e-01 7.211009979248046875e+00 2.418826103210449219e+00 1.714748330414295197e-02
2.815000000000000000e+03 4.298786544799804688e+01 -3.044169425964355469e+01 -3.233745396137237549e-01 7.035583496093750000e+00 2.013662815093994141e+00 -4.523387551307678223e-01
2.816000000000000000e+03 6.326839447021484375e+01 -3.673855972290039062e+01 5.677329897880554199e-01 1.993003368377685547e+00 7.682209014892578125e-01 4.320214092731475830e-01
2.817000000000000000e+03 1.201173305511474609e+01 3.357347488403320312e+01 1.109726056456565857e-01 1.710703223943710327e-01 8.461287617683410645e-02 8.597960323095321655e-02
2.818000000000000000e+03 6.416871643066406250e+01 3.393482589721679688e+01 -5.155291408300399780e-02 4.832753658294677734e+00 1.434360146522521973e+00 -3.713309764862060547e-01
2.819000000000000000e+03 5.037456130981445312e+01 3.364436721801757812e+01 4.213752150535583496e-01 2.655796527862548828e+00 9.231515526771545410e-01 4.505994319915771484e-01
2.820000000000000000e+03 4.698754501342773438e+01 3.393542480468750000e+01 1.480940878391265869e-01 2.943271398544311523e+00 9.274096488952636719e-01 6.480666995048522949e-01
2.821000000000000000e+03 3.226746749877929688e+01 3.182793807983398438e+01 -6.419367194175720215e-01 3.617804050445556641e+00 8.927601575851440430e-01 -2.806578874588012695e-01
2.822000000000000000e+03 3.285752105712890625e+01 -3.635375976562500000e+01 -6.929926276206970215e-01 3.167915821075439453e+00 7.424769997596740723e-01 8.153043389320373535e-01
2.823000000000000000e+03 4.692675018310546875e+01 3.064092063903808594e+01 1.206826716661453247e-01 2.788498878479003906e+00 8.727545142173767090e-01 9.748533368110656738e-01
2.824000000000000000e+03 3.000961303710937500e+01 3.355001068115234375e+01 -4.915504753589630127e-01 3.063673734664916992e+00 7.716370224952697754e-01 -3.996421992778778076e-01
2.825000000000000000e+03 2.715873146057128906e+01 3.428649139404296875e+01 -2.821026146411895752e-01 2.392309188842773438e+00 6.330619454383850098e-01 -4.755064249038696289e-01
2.826000000000000000e+03 2.595684814453125000e+01 3.008539390563964844e+01 -7.836332917213439941e-02 2.047245502471923828e+00 5.906646847724914551e-01 -8.506020903587341309e-01
2.827000000000000000e+03 6.231398773193359375e+01 3.510593032836914062e+01 1.090759709477424622e-01 4.471358776092529297e+00 1.374130368232727051e+00 -3.653978705406188965e-01
2.828000000000000000e+03 2.046800804138183594e+01 3.531108093261718750e+01 7.117682695388793945e-02 1.084996581077575684e+00 3.468520343303680420e-01 -2.163414955139160156e-01
2.829000000000000000e+03 5.235990905761718750e+01 -4.132635116577148438e+01 2.853848934173583984e-01 1.908956170082092285e+00 6.583023667335510254e-01 -2.404977828264236450e-01
2.830000000000000000e+03 3.782507705688476562e+01 -3.207338714599609375e+01 -7.397154569625854492e-01 5.590514659881591797e+00 1.455239772796630859e+00 7.450710535049438477e-01
2.831000000000000000e+03 3.864498138427734375e+01 -3.428895187377929688e+01 -1.077131271362304688e+00 5.410882472991943359e+00 1.300125479698181152e+00 5.152265429496765137e-01
2.832000000000000000e+03 5.312152099609375000e+01 3.273740005493164062e+01 5.236818790435791016e-01 2.526984930038452148e+00 9.151999950408935547e-01 1.636706739664077759e-01
2.833000000000000000e+03 6.407791900634765625e+01 3.182407760620117188e+01 -1.262854039669036865e-01 5.025126934051513672e+00 1.469652533531188965e+00 -4.355215728282928467e-01
2.834000000000000000e+03 3.995703887939453125e+01 3.291321182250976562e+01 -4.756825864315032959e-01 3.713501214981079102e+00 9.713455438613891602e-01 5.890761017799377441e-01
2.835000000000000000e+03 6.889353179931640625e+01 -1.862367630004882812e+01 9.558470249176025391e-01 6.380324363708496094e+00 2.200851440429687500e+00 3.248444318771362305e+00
2.836000000000000000e+03 6.789084625244140625e+01 -1.509934425354003906e+01 6.209195256233215332e-01 4.660098254680633545e-01 3.260788023471832275e-01 -8.510888814926147461e-01
2.837000000000000000e+03 6.800868988037109375e+01 -1.483399868011474609e+01 1.331073641777038574e+00 1.257408976554870605e+00 7.765448093414306641e-01 -1.651448845863342285e+00
2.838000000000000000e+03 6.892154693603515625e+01 -1.443563938140869141e+01 1.345326185226440430e+00 5.402217864990234375e+00 2.024263381958007812e+00 -3.671797275543212891e+00
2.839000000000000000e+03 6.861279296875000000e+01 -1.871623420715332031e+01 1.026832818984985352e+00 6.636726856231689453e+00 2.299067974090576172e+00 2.233218908309936523e+00
2.840000000000000000e+03 7.020304870605468750e+01 -1.813412857055664062e+01 -5.702162384986877441e-01 1.386985206604003906e+01 3.989890575408935547e+00 3.664292335510253906e+00
2.841000000000000000e+03 6.960778045654296875e+01 -1.817263793945312500e+01 3.977376222610473633e-01 9.454936027526855469e+00 2.955801963806152344e+00 4.405545711517333984e+00
2.842000000000000000e+03 6.884467315673828125e+01 -1.956819725036621094e+01 2.781228721141815186e-01 8.275814056396484375e+00 2.566181182861328125e+00 2.303852558135986328e+00
2.843000000000000000e+03 4.673845291137695312e+01 -1.488293457031250000e+01 1.000746965408325195e+00 4.337556362152099609e+00 1.601490974426269531e+00 1.532984733581542969e+00
2.844000000000000000e+03 1.629004096984863281e+01 2.277625274658203125e+01 -4.138093292713165283e-01 -1.892247051000595093e-02 -1.298195421695709229e-01 1.512373518198728561e-02
2.845000000000000000e+03 4.924557495117187500e+01 -6.337208747863769531e+00 -1.618543148040771484e+00 -1.875591427087783813e-01 -5.418306589126586914e-01 1.665803313255310059e+00
2.846000000000000000e+03 6.865199279785156250e+01 -1.832425117492675781e+01 3.771556541323661804e-03 4.445465564727783203e+00 1.334771037101745605e+00 1.893113732337951660e+00
2.847000000000000000e+03 6.852669525146484375e+01 -1.834768295288085938e+01 -1.855212301015853882e-01 3.864425897598266602e+00 1.103671431541442871e+00 1.243703246116638184e+00
2.848000000000000000e+03 1.178884744644165039e+00 -3.172941446304321289e+00 -3.436274081468582153e-02 -2.098950594663619995e-01 -7.327733933925628662e-02 -1.471553295850753784e-01
2.849000000000000000e+03 2.076709175109863281e+01 4.063678741455078125e+00 -2.258761742268688977e-05 -2.559207496233284473e-04 -8.355251338798552752e-05 1.023426448227837682e-04
2.850000000000000000e+03 6.747943878173828125e+01 -1.463185882568359375e+01 7.792801260948181152e-01 8.567625284194946289e-01 4.908127784729003906e-01 -7.049362659454345703e-01
2.851000000000000000e+03 6.780930328369140625e+01 -1.441634559631347656e+01 1.020056724548339844e+00 1.814496397972106934e+00 8.503659367561340332e-01 -1.327139019966125488e+00
2.852000000000000000e+03 7.415117645263671875e+01 -1.769575500488281250e+01 2.232046127319335938e+00 1.042757511138916016e+01 3.797886371612548828e+00 -1.126840233802795410e+00
2.853000000000000000e+03 2.852318572998046875e+01 -1.645390748977661133e+00 3.224114656448364258e+00 4.970182776451110840e-01 1.116339921951293945e+00 1.596923112869262695e+00
2.854000000000000000e+03 6.842899322509765625e+01 -1.888713264465332031e+01 4.999084174633026123e-01 5.959740161895751953e+00 1.937894582748413086e+00 1.090029001235961914e+00
2.855000000000000000e+03 4.402155303955078125e+01 -1.489964866638183594e+01 6.515715122222900391e-01 6.681449890136718750e+00 2.199906587600708008e+00 6.244893744587898254e-02
2.856000000000000000e+03 4.296287155151367188e+01 -2.358184051513671875e+01 2.144893884658813477e+00 9.347012519836425781e+00 3.447571754455566406e+00 -1.272215723991394043e+00
2.857000000000000000e+03 4.656367874145507812e+01 -6.970371723175048828e+00 -1.566508293151855469e+00 5.198856592178344727e-01 -3.139867782592773438e-01 5.220644474029541016e-01
2.858000000000000000e+03 6.885084533691406250e+01 -1.394039630889892578e+01 2.532637417316436768e-01 5.390376567840576172e+00 1.693092107772827148e+00 -3.014245986938476562e+00
2.859000000000000000e+03 6.943058776855468750e+01 -1.437440395355224609e+01 7.421583533287048340e-01 7.966450214385986328e+00 2.612582683563232422e+00 -3.827396869659423828e+00
2.860000000000000000e+03 6.979554748535156250e+01 -1.438387107849121094e+01 1.893499493598937988e-01 1.051335716247558594e+01 3.210812091827392578e+00 -4.038942337036132812e+00
2.861000000000000000e+03 6.950397491455078125e+01 -1.853384780883789062e+01 2.605277299880981445e-01 9.333319664001464844e+00 2.878154039382934570e+00 3.951407432556152344e+00
2.862000000000000000e+03 6.952976226806640625e+01 -1.898233985900878906e+01 -8.524996042251586914e-02 9.676882743835449219e+00 2.877489805221557617e+00 3.259526729583740234e+00
2.863000000000000000e+03 6.471403503417968750e+01 2.156626319885253906e+01 -7.097158581018447876e-02 7.378691673278808594e+00 2.192316055297851562e+00 -2.673607468605041504e-01
2.864000000000000000e+03 6.581472015380859375e+01 2.092624855041503906e+01 3.616372942924499512e-01 7.225497245788574219e+00 2.276140213012695312e+00 8.330652117729187012e-02
2.865000000000000000e+03 6.979566192626953125e+01 -1.295171356201171875e+01 -1.459738254547119141e+00 9.444518089294433594e+00 2.395433902740478516e+00 -2.586582899093627930e+00
2.866000000000000000e+03 1.232314395904541016e+01 3.063324928283691406e+01 7.575628906488418579e-02 1.512333750724792480e-01 6.809689849615097046e-02 1.170894801616668701e-01
2.867000000000000000e+03 1.669199180603027344e+01 2.467765235900878906e+01 -2.103597819805145264e-01 4.367866739630699158e-02 -5.000433325767517090e-02 8.160441368818283081e-02
2.868000000000000000e+03 6.957141876220703125e+01 -1.967505073547363281e+01 1.594114452600479126e-01 1.014955234527587891e+01 3.092689275741577148e+00 3.034952640533447266e+00
2.869000000000000000e+03 1.984090328216552734e+00 3.720072555541992188e+01 1.818714081309735775e-03 -3.807021379470825195e-01 -1.136650294065475464e-01 1.944730430841445923e-02
2.870000000000000000e+03 7.772682189941406250e+01 -3.542836761474609375e+01 -9.946560859680175781e-02 1.008795261383056641e+01 2.996546030044555664e+00 1.015538200736045837e-01
2.871000000000000000e+03 7.043674468994140625e+01 -1.897087097167968750e+01 -6.045900583267211914e-01 1.334532260894775391e+01 3.822219848632812500e+00 2.516397476196289062e+00
2.872000000000000000e+03 6.997862243652343750e+01 -1.895618629455566406e+01 -4.227785468101501465e-01 1.160478782653808594e+01 3.354602575302124023e+00 3.555576324462890625e+00
2.873000000000000000e+03 1.914978027343750000e+01 4.260517120361328125e+00 -1.228516455739736557e-03 -2.480800612829625607e-04 -4.429789551068097353e-04 -9.087487705983221531e-05
2.874000000000000000e+03 4.403499984741210938e+01 -1.615751457214355469e+01 1.071277379989624023e+00 7.565567493438720703e+00 2.591053485870361328e+00 -1.443498134613037109e-01
2.875000000000000000e+03 4.233481597900390625e+01 -2.301961326599121094e+01 2.067202329635620117e+00 9.126949310302734375e+00 3.358245611190795898e+00 -1.291900992393493652e+00
2.876000000000000000e+03 4.829312133789062500e+01 -3.436268997192382812e+01 -5.869390368461608887e-01 4.037563800811767578e+00 1.035187482833862305e+00 -1.717689394950866699e+00
2.877000000000000000e+03 7.351188659667968750e+01 -1.718636894226074219e+01 3.625820875167846680e+00 1.101168537139892578e+01 4.391251564025878906e+00 -9.176962971687316895e-01
2.878000000000000000e+03 6.066933441162109375e+01 -5.926219463348388672e+00 2.296699024736881256e-02 1.592529058456420898e+00 4.846488237380981445e-01 4.802656173706054688e-01
2.879000000000000000e+03 3.308177566528320312e+01 -7.507681369781494141e+00 -2.995833873748779297e+00 5.313914299011230469e+00 6.954240798950195312e-01 -1.081420540809631348e+00
2.880000000000000000e+03 7.242499542236328125e+01 -1.911486434936523438e+01 6.276807188987731934e-01 1.316414165496826172e+01 4.137546539306640625e+00 -1.106245756149291992e+00
2.881000000000000000e+03 3.223263168334960938e+01 -5.929364204406738281e+00 -1.534697532653808594e+00 4.475579261779785156e+00 8.822644948959350586e-01 -3.314061760902404785e-01
2.882000000000000000e+03 2.694348526000976562e+01 2.469300842285156250e+01 3.177184164524078369e-01 2.259627342224121094e+00 7.732037305831909180e-01 -1.655516505241394043e+00
2.883000000000000000e+03 2.436057090759277344e+01 3.399081039428710938e+01 -5.827087908983230591e-02 1.719435453414916992e+00 4.983493983745574951e-01 -4.951066672801971436e-01
2.884000000000000000e+03 1.085616302490234375e+01 2.279907608032226562e+01 -1.541643142700195312e-01 7.412026822566986084e-02 -2.401321381330490112e-02 8.014374971389770508e-02
2.885000000000000000e+03 7.391513824462890625e+01 -1.664566421508789062e+01 3.263769149780273438e+00 1.039104557037353516e+01 4.096444129943847656e+00 4.187754541635513306e-02
2.886000000000000000e+03 4.635447025299072266e+00 3.649835205078125000e+01 3.402895107865333557e-02 -1.941654682159423828e-01 -4.804095253348350525e-02 7.283993065357208252e-02
2.887000000000000000e+03 1.179230499267578125e+01 -1.663860321044921875e+01 9.647244215011596680e-01 2.500674247741699219e+00 1.039619684219360352e+00 5.935201048851013184e-01
2.888000000000000000e+03 1.715933036804199219e+01 2.654792213439941406e+01 -2.074750326573848724e-02 1.418416649103164673e-01 3.632824867963790894e-02 1.014651264995336533e-02
2.889000000000000000e+03 7.083757019042968750e+01 -2.492624282836914062e+01 -6.300123929977416992e-01 8.393767356872558594e+00 2.329126596450805664e+00 1.207311302423477173e-01
2.890000000000000000e+03 4.053462219238281250e+01 -2.137897491455078125e+01 1.887422919273376465e+00 8.630875587463378906e+00 3.155489444732666016e+00 -9.929783940315246582e-01
2.891000000000000000e+03 4.137238311767578125e+01 -2.282548904418945312e+01 1.950368881225585938e+00 8.780129432678222656e+00 3.219149351119995117e+00 -1.028811216354370117e+00
2.892000000000000000e+03 6.019649505615234375e+01 -3.334403228759765625e+01 -2.719653844833374023e-01 3.734032213687896729e-01 3.043134696781635284e-02 5.268586054444313049e-02
2.893000000000000000e+03 3.358562469482421875e+01 -2.942044258117675781e+01 -1.012319922447204590e-01 3.779404878616333008e+00 1.103451848030090332e+00 1.510421156883239746e+00
2.894000000000000000e+03 3.627082824707031250e+01 -6.407059431076049805e-01 1.447030663490295410e+00 1.094319725036621094e+01 3.717068433761596680e+00 -5.642570853233337402e-01
2.895000000000000000e+03 1.934383392333984375e+01 -3.550286483764648438e+01 -2.622997760772705078e-01 5.063512921333312988e-01 7.321545481681823730e-02 -2.062919288873672485e-01
2.896000000000000000e+03 4.011170578002929688e+01 -2.521955108642578125e+01 1.479764342308044434e+00 7.657172203063964844e+00 2.741080999374389648e+00 -3.418006896972656250e-01
2.897000000000000000e+03 3.510066604614257812e+01 1.231264972686767578e+01 8.271610140800476074e-01 1.119598579406738281e+01 3.606943845748901367e+00 -1.272318124771118164e+00
2.898000000000000000e+03 6.090906906127929688e+01 3.549956977367401123e-01 9.225490689277648926e-01 3.690286636352539062e+00 1.383850693702697754e+00 1.102298617362976074e+00
2.899000000000000000e+03 3.847291183471679688e+01 -9.285503387451171875e+00 -2.049369573593139648e+00 8.820794105529785156e+00 2.031427383422851562e+00 -1.054324269294738770e+00
2.900000000000000000e+03 3.480628967285156250e+01 -3.128761482238769531e+01 -5.387086868286132812e-01 4.304915904998779297e+00 1.129862189292907715e+00 1.223208785057067871e+00
2.901000000000000000e+03 1.339546108245849609e+01 3.213601303100585938e+01 1.060438007116317749e-01 2.550393342971801758e-01 1.083249449729919434e-01 8.163268119096755981e-02
2.902000000000000000e+03 6.235492706298828125e+01 3.195271492004394531e+01 -2.700116485357284546e-02 4.472252368927001953e+00 1.333575248718261719e+00 -6.814950108528137207e-01
2.903000000000000000e+03 7.578343200683593750e+01 -1.144341945648193359e+01 -5.814491510391235352e-01 9.437681198120117188e+00 2.656869649887084961e+00 1.167599916458129883e+00
2.904000000000000000e+03 6.658000946044921875e+01 8.132612228393554688e+00 7.625786066055297852e-01 7.184740066528320312e+00 2.384195566177368164e+00 -2.957578301429748535e-01
2.905000000000000000e+03 1.019536685943603516e+01 -1.561908054351806641e+01 9.990448355674743652e-01 1.435203909873962402e+00 7.302746176719665527e-01 2.853865027427673340e-01
2.906000000000000000e+03 1.438809680938720703e+01 3.082786750793457031e+01 9.683334082365036011e-02 2.905945479869842529e-01 1.162283644080162048e-01 4.743415489792823792e-02
2.907000000000000000e+03 6.645655822753906250e+01 2.200956344604492188e+01 1.200767047703266144e-02 7.129766464233398438e+00 2.142532348632812500e+00 5.220269784331321716e-02
2.908000000000000000e+03 5.526617050170898438e+01 -9.615777015686035156e+00 -1.051046609878540039e+00 1.144148826599121094e+00 2.793066389858722687e-02 1.408879876136779785e+00
2.909000000000000000e+03 6.792424011230468750e+01 -1.036933708190917969e+01 -1.986527323722839355e+00 5.039947986602783203e+00 9.160261750221252441e-01 -2.541750669479370117e+00
2.910000000000000000e+03 3.447928619384765625e+01 2.715521812438964844e+01 -6.676601767539978027e-01 4.777998924255371094e+00 1.233101606369018555e+00 -6.996002048254013062e-02
2.911000000000000000e+03 3.679304122924804688e+01 2.758013534545898438e+01 -6.461329460144042969e-01 4.674281597137451172e+00 1.208444595336914062e+00 4.804355800151824951e-01
2.912000000000000000e+03 3.881091308593750000e+01 -8.284733772277832031e+00 -2.681150197982788086e+00 8.620894432067871094e+00 1.781923413276672363e+00 -1.414418339729309082e+00
2.913000000000000000e+03 4.648733901977539062e+01 -8.149804115295410156e+00 -7.519094944000244141e-01 1.263123989105224609e+00 1.533643305301666260e-01 4.840442240238189697e-01
2.914000000000000000e+03 4.738125610351562500e+01 -9.809162139892578125e+00 -2.887243032455444336e-01 1.742433428764343262e+00 4.361127614974975586e-01 1.165714502334594727e+00
2.915000000000000000e+03 1.099745178222656250e+01 -1.699278450012207031e+01 9.301888942718505859e-01 1.856206893920898438e+00 8.359187245368957520e-01 4.008874297142028809e-01
2.916000000000000000e+03 7.266265106201171875e+01 -2.232701492309570312e+01 -3.932126462459564209e-01 1.021626472473144531e+01 2.946915864944458008e+00 -3.844877183437347412e-01
2.917000000000000000e+03 7.416461181640625000e+01 -2.155192184448242188e+01 -1.733539253473281860e-01 1.023569488525390625e+01 3.018702268600463867e+00 -1.154016375541687012e+00
2.918000000000000000e+03 6.263303375244140625e+01 -3.284153366088867188e+01 -3.064253330230712891e-01 1.373831868171691895e+00 3.202219605445861816e-01 5.614107251167297363e-01
2.919000000000000000e+03 6.369202041625976562e+01 -3.494414520263671875e+01 1.982320547103881836e-01 2.117238044738769531e+00 6.946410536766052246e-01 5.396139621734619141e-01
2.920000000000000000e+03 7.613267517089843750e+01 -3.607907104492187500e+01 -2.027400135993957520e-01 9.297262191772460938e+00 2.728356599807739258e+00 1.340318024158477783e-01
2.921000000000000000e+03 3.411977767944335938e+01 -3.047743225097656250e+01 -3.639907538890838623e-01 3.895355939865112305e+00 1.059409618377685547e+00 1.275478720664978027e+00
2.922000000000000000e+03 6.674818420410156250e+01 -2.958115959167480469e+01 -8.820881247520446777e-01 4.076614856719970703e+00 9.583580493927001953e-01 8.857561945915222168e-01
2.923000000000000000e+03 3.959130096435546875e+01 -1.072111892700195312e+01 -1.172014474868774414e+00 8.017333030700683594e+00 2.053595542907714844e+00 -1.139685273170471191e+00
2.924000000000000000e+03 6.237028121948242188e+01 3.338982391357421875e+01 2.509826235473155975e-02 4.390504360198974609e+00 1.324680805206298828e+00 -5.494619011878967285e-01
2.925000000000000000e+03 7.609921264648437500e+01 -1.848625755310058594e+01 1.039540410041809082e+00 8.841728210449218750e+00 2.964380502700805664e+00 -9.347567558288574219e-01
2.926000000000000000e+03 1.475089454650878906e+01 2.883176803588867188e+01 7.946585118770599365e-02 2.135016322135925293e-01 8.789024502038955688e-02 6.575381010770797729e-02
2.927000000000000000e+03 4.440573120117187500e+01 -1.137269687652587891e+01 -2.688555717468261719e-01 4.760969638824462891e+00 1.347634196281433105e+00 6.129921600222587585e-02
2.928000000000000000e+03 6.567298126220703125e+01 -4.921292304992675781e+00 -1.193396374583244324e-01 3.562239646911621094e+00 1.032869935035705566e+00 -1.249809384346008301e+00
2.929000000000000000e+03 8.850742340087890625e+00 -2.545746612548828125e+01 -1.598258614540100098e-01 9.469717144966125488e-01 2.361437529325485229e-01 6.152039170265197754e-01
2.930000000000000000e+03 7.250979423522949219e+00 1.953848075866699219e+01 -6.741815060377120972e-02 1.197803951799869537e-02 -1.663203351199626923e-02 3.472189605236053467e-02
2.931000000000000000e+03 5.375424957275390625e+01 2.790222167968750000e+01 5.301312804222106934e-01 1.665317058563232422e+00 6.586344838142395020e-01 1.486834585666656494e-01
2.932000000000000000e+03 3.325879669189453125e+01 -3.110394287109375000e+01 -4.014720320701599121e-01 3.494907379150390625e+00 9.280306100845336914e-01 1.440305352210998535e+00
2.933000000000000000e+03 3.383808517456054688e+01 -3.213245010375976562e+01 -5.989857912063598633e-01 3.731993913650512695e+00 9.399024248123168945e-01 1.216811537742614746e+00
2.934000000000000000e+03 3.164436912536621094e+01 -3.306071472167968750e+01 -4.568830430507659912e-01 2.602573633193969727e+00 6.437072157859802246e-01 1.201921105384826660e+00
2.935000000000000000e+03 1.224189662933349609e+01 7.644199371337890625e+00 1.272095600143074989e-03 1.283132587559521198e-04 4.201226402074098587e-04 -3.726412251126021147e-04
2.936000000000000000e+03 3.705928421020507812e+01 1.566207313537597656e+01 5.652066469192504883e-01 8.431441307067871094e+00 2.698994398117065430e+00 7.505976408720016479e-02
2.937000000000000000e+03 6.712449645996093750e+01 -3.069706153869628906e+01 -8.200300335884094238e-01 4.329363822937011719e+00 1.052800178527832031e+00 8.293595910072326660e-01
2.938000000000000000e+03 4.329989624023437500e+01 -1.051617717742919922e+01 -7.447653412818908691e-01 5.337376117706298828e+00 1.377783298492431641e+00 -5.553276538848876953e-01
2.939000000000000000e+03 6.797591400146484375e+01 2.350340652465820312e+01 -1.889056712388992310e-01 6.795030593872070312e+00 1.981837391853332520e+00 1.698172986507415771e-01
2.940000000000000000e+03 3.873638534545898438e+01 2.272353935241699219e+01 -2.982120513916015625e-01 5.374656200408935547e+00 1.522933244705200195e+00 9.403327107429504395e-01
2.941000000000000000e+03 7.563452911376953125e+01 -2.001869773864746094e+01 4.074342846870422363e-01 9.372458457946777344e+00 2.933967828750610352e+00 -1.368201732635498047e+00
2.942000000000000000e+03 9.623591423034667969e+00 -2.921447753906250000e+01 -3.620305657386779785e-01 9.116888642311096191e-01 1.648974865674972534e-01 4.008724987506866455e-01
2.943000000000000000e+03 5.031996250152587891e+00 2.258913993835449219e+01 -4.038055241107940674e-02 -1.877533271908760071e-02 -1.774676516652107239e-02 7.008352875709533691e-02
2.944000000000000000e+03 1.487338352203369141e+01 -2.849022865295410156e+01 -5.014230012893676758e-01 1.145131468772888184e+00 1.931125372648239136e-01 -5.714443698525428772e-02
2.945000000000000000e+03 6.558992767333984375e+01 -3.480333709716796875e+01 1.000362820923328400e-02 3.216107130050659180e+00 9.678332209587097168e-01 7.571972012519836426e-01
2.946000000000000000e+03 1.362417507171630859e+01 2.659652328491210938e+01 -4.555059969425201416e-02 1.215474456548690796e-01 2.279905416071414948e-02 1.309483498334884644e-01
2.947000000000000000e+03 7.149010467529296875e+01 2.691614913940429688e+01 -2.144540548324584961e-01 6.429773807525634766e+00 1.864596009254455566e+00 2.464594542980194092e-01
2.948000000000000000e+03 9.269679069519042969e+00 6.531945705413818359e+00 4.584410227835178375e-03 -2.422844059765338898e-03 6.484698387794196606e-04 1.344281481578946114e-03
2.949000000000000000e+03 7.109526062011718750e+01 -3.269417572021484375e+01 -4.802682101726531982e-01 6.826980590820312500e+00 1.904013752937316895e+00 3.021788001060485840e-01
2.950000000000000000e+03 4.580270767211914062e+00 2.060809707641601562e+01 -3.070342168211936951e-02 -1.257559657096862793e-02 -1.298370584845542908e-02 4.427017271518707275e-02
2.951000000000000000e+03 7.526834869384765625e+01 -3.195164489746093750e+01 -3.350215256214141846e-01 8.925227165222167969e+00 2.577061653137207031e+00 -9.140550345182418823e-02
2.952000000000000000e+03 7.411920928955078125e+01 -3.049333000183105469e+01 -5.069474577903747559e-01 8.596131324768066406e+00 2.426754951477050781e+00 -1.687066256999969482e-01
2.953000000000000000e+03 9.210483551025390625e+00 -9.937402725219726562e+00 4.397687911987304688e-01 5.088750123977661133e-01 2.845931351184844971e-01 -4.713769257068634033e-01
2.954000000000000000e+03 7.493522644042968750e+01 -2.723523330688476562e+01 -5.025285482406616211e-01 9.176156044006347656e+00 2.602088212966918945e+00 -6.772035360336303711e-01
2.955000000000000000e+03 4.222080993652343750e+01 2.068700408935546875e+01 6.091001629829406738e-02 4.395914077758789062e+00 1.337047219276428223e+00 1.613661885261535645e+00
2.956000000000000000e+03 4.398544692993164062e+01 2.301248359680175781e+01 -8.727654069662094116e-02 3.531804561614990234e+00 1.033358335494995117e+00 1.590341448783874512e+00
2.957000000000000000e+03 4.975897789001464844e+00 1.006954765319824219e+01 -3.544261213392019272e-03 -1.839679782278835773e-03 -1.615182380191981792e-03 -1.141424058005213737e-03
2.958000000000000000e+03 5.045554637908935547e+00 1.433925247192382812e+01 -3.370629623532295227e-03 -5.941479466855525970e-03 -2.793632680550217628e-03 2.090159105136990547e-03
2.959000000000000000e+03 4.961083889007568359e+00 1.537141704559326172e+01 -1.529961731284856796e-02 -4.544149152934551239e-03 -5.953129846602678299e-03 5.447103641927242279e-03
2.960000000000000000e+03 8.340822219848632812e+00 -1.005701065063476562e+01 4.057356715202331543e-01 3.526350855827331543e-01 2.275112271308898926e-01 -4.881580471992492676e-01
2.961000000000000000e+03 8.129115104675292969e+00 -8.097340583801269531e+00 1.327977031469345093e-01 2.147625833749771118e-01 1.042680889368057251e-01 -5.995350480079650879e-01
2.962000000000000000e+03 7.529656219482421875e+01 -6.386497497558593750e+00 -7.180456519126892090e-01 8.560615539550781250e+00 2.352771043777465820e+00 -2.962977588176727295e-01
2.963000000000000000e+03 6.986023712158203125e+01 -4.504512310028076172e+00 -6.636205315589904785e-01 6.229660511016845703e+00 1.669811964035034180e+00 -1.591824412345886230e+00
2.964000000000000000e+03 4.029782485961914062e+01 2.188368606567382812e+01 -1.983615756034851074e-01 5.118605613708496094e+00 1.476073145866394043e+00 1.282749891281127930e+00
2.965000000000000000e+03 9.124518394470214844e+00 5.447535991668701172e+00 5.536666139960289001e-04 -2.141011646017432213e-03 -4.762035096064209938e-04 1.184343476779758930e-03
2.966000000000000000e+03 6.976595306396484375e+01 -2.256690740585327148e+00 -2.752297818660736084e-01 6.182219028472900391e+00 1.772096872329711914e+00 -1.398519992828369141e+00
2.967000000000000000e+03 1.379159355163574219e+01 -5.697663307189941406e+00 -2.118308842182159424e-01 6.902430057525634766e-01 1.435236334800720215e-01 8.335971832275390625e-02
2.968000000000000000e+03 9.560747146606445312e+00 5.906672000885009766e+00 -1.935369684360921383e-03 -6.995546282269060612e-04 -7.904772646725177765e-04 -1.507701235823333263e-04
2.969000000000000000e+03 7.263933563232421875e+01 1.044090175628662109e+01 4.874812364578247070e-01 6.631628036499023438e+00 2.135732650756835938e+00 -6.409580111503601074e-01
2.970000000000000000e+03 7.128807067871093750e+01 1.481687831878662109e+01 6.771288514137268066e-01 6.759875774383544922e+00 2.231101512908935547e+00 -2.218808233737945557e-01
2.971000000000000000e+03 7.179355621337890625e+01 2.563420295715332031e+01 -1.717330515384674072e-01 6.477093696594238281e+00 1.891608119010925293e+00 3.290824592113494873e-01
2.972000000000000000e+03 7.110234832763671875e+01 -5.756723135709762573e-02 -6.117548421025276184e-02 6.575721740722656250e+00 1.954363942146301270e+00 -1.284366011619567871e+00
2.973000000000000000e+03 7.188429260253906250e+01 3.496145963668823242e+00 1.946478188037872314e-01 6.685022830963134766e+00 2.063901185989379883e+00 -1.137133002281188965e+00
2.974000000000000000e+03 1.639982223510742188e+01 -2.317397296428680420e-01 -1.687195062637329102e+00 -1.671108230948448181e-02 -5.111718773841857910e-01 -4.547630622982978821e-02
2.975000000000000000e+03 1.798723983764648438e+01 -8.314419388771057129e-01 -9.978275895118713379e-01 8.742862194776535034e-02 -2.731196880340576172e-01 2.345485389232635498e-01
2.976000000000000000e+03 1.645354080200195312e+01 -9.699125885963439941e-01 -1.314806461334228516e+00 5.106227472424507141e-02 -3.791232705116271973e-01 1.453868001699447632e-01
2.977000000000000000e+03 1.875374794006347656e+01 -7.599936723709106445e-01 -7.819436788558959961e-01 7.337484508752822876e-02 -2.125706523656845093e-01 2.904128432273864746e-01
2.978000000000000000e+03 1.790756225585937500e+01 -9.563824534416198730e-02 -1.240478634834289551e+00 -2.047792309895157814e-03 -3.727579414844512939e-01 1.013738568872213364e-03
2.979000000000000000e+03 1.866109085083007812e+01 -2.537456899881362915e-02 -1.000741839408874512e+00 3.329697996377944946e-02 -2.902334630489349365e-01 2.559913508594036102e-02
2.980000000000000000e+03 1.715376663208007812e+01 -1.644264459609985352e-01 -1.464239835739135742e+00 2.781490236520767212e-02 -4.309274852275848389e-01 -3.086912631988525391e-02
2.981000000000000000e+03 1.722046470642089844e+01 -9.014146924018859863e-01 -1.183357954025268555e+00 5.702535808086395264e-02 -3.378997743129730225e-01 1.880786567926406860e-01
2.982000000000000000e+03 1.941230964660644531e+01 7.625918835401535034e-02 -7.015698552131652832e-01 -6.576360319741070271e-04 -2.106682509183883667e-01 5.166808515787124634e-02
2.983000000000000000e+03 2.090952491760253906e+01 3.449267148971557617e-01 -8.314570784568786621e-02 1.236407458782196045e-02 -2.123449184000492096e-02 1.317355334758758545e-01
2.984000000000000000e+03 1.952174568176269531e+01 -6.559218764305114746e-01 -5.606503486633300781e-01 1.184425652027130127e-01 -1.326623409986495972e-01 3.456602990627288818e-01
2.985000000000000000e+03 2.106011390686035156e+01 -3.798714280128479004e-01 -8.002244681119918823e-02 1.444065868854522705e-01 1.931524090468883514e-02 3.923861682415008545e-01
2.986000000000000000e+03 2.183077621459960938e+01 -2.417316585779190063e-01 1.460988819599151611e-01 1.132945492863655090e-01 7.781802862882614136e-02 3.957817554473876953e-01
2.987000000000000000e+03 2.165959548950195312e+01 4.794237911701202393e-01 1.966817378997802734e-01 1.031351909041404724e-01 8.994507789611816406e-02 1.716351360082626343e-01
2.988000000000000000e+03 2.016033744812011719e+01 2.105962187051773071e-01 -3.733792304992675781e-01 6.592340767383575439e-02 -9.223674237728118896e-02 8.140552043914794922e-02
2.989000000000000000e+03 2.029035186767578125e+01 -5.178933739662170410e-01 -3.367364108562469482e-01 1.066801324486732483e-01 -6.901688128709793091e-02 3.631329238414764404e-01
2.990000000000000000e+03 2.487032127380371094e+01 1.181118011474609375e+00 3.395442664623260498e-01 -1.330418288707733154e-01 6.195073202252388000e-02 -2.945875003933906555e-02
2.991000000000000000e+03 2.407070922851562500e+01 1.205850601196289062e+00 4.973280429840087891e-01 7.208547554910182953e-03 1.513609737157821655e-01 1.519945263862609863e-01
2.992000000000000000e+03 2.608052253723144531e+01 1.172411799430847168e+00 4.147040843963623047e-01 2.569871023297309875e-02 1.321208328008651733e-01 -2.203048169612884521e-01
2.993000000000000000e+03 2.532574653625488281e+01 1.649281024932861328e+00 3.392377793788909912e-01 3.914221655577421188e-03 1.029456034302711487e-01 -3.483190014958381653e-02
2.994000000000000000e+03 2.337576103210449219e+01 2.122173905372619629e-01 5.613362193107604980e-01 2.993607427924871445e-03 1.692989468574523926e-01 3.024221360683441162e-01
2.995000000000000000e+03 2.244518852233886719e+01 6.874994635581970215e-01 4.115104675292968750e-01 3.054582886397838593e-02 1.326168924570083618e-01 2.146742939949035645e-01
2.996000000000000000e+03 2.260292434692382812e+01 -4.084869846701622009e-02 3.601546585559844971e-01 9.535726904869079590e-02 1.366535723209381104e-01 3.577822446823120117e-01
2.997000000000000000e+03 2.485904884338378906e+01 6.037077903747558594e-01 1.036190629005432129e+00 -2.824596166610717773e-01 2.261193245649337769e-01 1.881722360849380493e-01
2.998000000000000000e+03 2.413345909118652344e+01 4.415436685085296631e-01 6.791458129882812500e-01 -7.205134630203247070e-02 1.821283400058746338e-01 1.482323855161666870e-01
2.999000000000000000e+03 2.326551818847656250e+01 9.585449695587158203e-01 5.132163763046264648e-01 7.564147561788558960e-02 1.766573637723922729e-01 1.760512441396713257e-01
3.000000000000000000e+03 2.548499107360839844e+01 8.103089928627014160e-01 9.843354821205139160e-01 -7.457897812128067017e-02 2.729269564151763916e-01 -7.030320912599563599e-02
3.001000000000000000e+03 2.289602470397949219e+01 2.428752899169921875e+00 1.396722800564020872e-04 6.613315199501812458e-04 2.403011458227410913e-04 2.927689638454467058e-04
3.002000000000000000e+03 2.207656478881835938e+01 2.160299539566040039e+00 2.681486694200430065e-05 -7.665215525776147842e-04 -2.219120069639757276e-04 -6.060379291739081964e-06
3.003000000000000000e+03 2.309196090698242188e+01 1.710520744323730469e+00 -1.378414017381146550e-04 -3.505166387185454369e-04 -1.465074019506573677e-04 1.250120567419799045e-05
3.004000000000000000e+03 2.226285171508789062e+01 1.441366434097290039e+00 2.586509617685806006e-05 5.097200046293437481e-04 1.606755395187065005e-04 -3.711126191774383187e-05
3.005000000000000000e+03 2.365754890441894531e+01 2.680384397506713867e+00 -4.157850053161382675e-04 -1.980504021048545837e-04 -1.841506309574469924e-04 -3.424594178795814514e-04
3.006000000000000000e+03 2.446170997619628906e+01 2.351509332656860352e+00 -3.224023748771287501e-05 -1.285415492020547390e-04 -4.823453491553664207e-05 3.822449070867151022e-05
3.007000000000000000e+03 2.386312484741210938e+01 1.962898492813110352e+00 1.343539479421451688e-04 2.295453159604221582e-04 1.091697777155786753e-04 -9.847345791058614850e-05
3.008000000000000000e+03 2.075237083435058594e+01 1.106616377830505371e+00 7.157965592341497540e-05 7.087381673045456409e-04 2.340953506063669920e-04 -2.040686958935111761e-04
3.009000000000000000e+03 2.060178184509277344e+01 1.831414580345153809e+00 -2.384844847256317735e-04 -6.081940955482423306e-04 -2.540035929996520281e-04 2.416690695099532604e-04
3.010000000000000000e+03 2.130817413330078125e+01 1.960395336151123047e+00 6.448941712733358145e-05 7.374065462499856949e-04 2.405687991995364428e-04 -2.197015855927020311e-04
3.011000000000000000e+03 1.918785858154296875e+01 1.579434752464294434e+00 -3.875166585203260183e-04 -7.191490149125456810e-04 -3.319997049402445555e-04 3.944969648728147149e-06
3.012000000000000000e+03 1.989505195617675781e+01 1.704050064086914062e+00 3.759217506740242243e-04 6.196989561431109905e-04 2.986862091347575188e-04 -1.725190668366849422e-04
3.013000000000000000e+03 1.929729461669921875e+01 8.472537398338317871e-01 8.075521327555179596e-05 6.693570176139473915e-04 2.250336547149345279e-04 -7.906458631623536348e-05
3.014000000000000000e+03 2.147934150695800781e+01 1.239288687705993652e+00 -6.100165410316549242e-05 -7.263784063979983330e-04 -2.362140221521258354e-04 1.301989686908200383e-04
3.015000000000000000e+03 2.002506446838378906e+01 9.755603671073913574e-01 -1.765021152095869184e-04 -6.494961562566459179e-04 -2.477994712535291910e-04 1.427807583240792155e-04
3.016000000000000000e+03 1.701650238037109375e+01 1.350294589996337891e+00 2.233058039564639330e-04 1.328191487118601799e-03 4.654491785913705826e-04 2.524839073885232210e-04
3.017000000000000000e+03 1.708320045471191406e+01 6.133062839508056641e-01 1.101740963349584490e-05 -1.220709877088665962e-03 -3.629077400546520948e-04 5.257387238088995218e-05
3.018000000000000000e+03 1.634315681457519531e+01 5.465459823608398438e-01 2.035896177403628826e-04 1.431074459105730057e-03 4.903992521576583385e-04 1.742964923323597759e-05
3.019000000000000000e+03 1.782329559326171875e+01 6.808430552482604980e-01 7.502383232349529862e-05 1.009887317195534706e-03 3.254733164794743061e-04 3.006434053531847894e-05
3.020000000000000000e+03 1.847070503234863281e+01 1.483781576156616211e+00 3.248424909543246031e-04 9.553236304782330990e-04 3.840498393401503563e-04 1.784415217116475105e-04
3.021000000000000000e+03 1.856336212158203125e+01 7.491624951362609863e-01 -1.256901450688019395e-04 -7.773784454911947250e-04 -2.709205728024244308e-04 2.634134943946264684e-05
3.022000000000000000e+03 1.628943824768066406e+01 1.284718871116638184e+00 8.599930151831358671e-05 -1.280602533370256424e-03 -3.583809884730726480e-04 1.460857893107458949e-04
3.023000000000000000e+03 1.774361801147460938e+01 1.416646718978881836e+00 -1.316435809712857008e-04 -1.077734516002237797e-03 -3.628134436439722776e-04 -1.131122699007391930e-04
3.024000000000000000e+03 1.408120155334472656e+01 1.187072157859802246e+00 7.923851371742784977e-04 1.273208297789096832e-03 6.196780013851821423e-04 3.742873377632349730e-05
3.025000000000000000e+03 1.410851097106933594e+01 4.475762248039245605e-01 5.711524281650781631e-04 -1.375284744426608086e-03 -2.412396715953946114e-04 2.679369936231523752e-04
3.026000000000000000e+03 1.336430931091308594e+01 4.183164834976196289e-01 9.417173569090664387e-04 1.247576787136495113e-03 6.567882373929023743e-04 -1.754086724758963101e-06
3.027000000000000000e+03 1.485382461547851562e+01 4.748390913009643555e-01 5.107498727738857269e-04 1.489317743107676506e-03 6.000202847644686699e-04 -1.377154876536224037e-05
3.028000000000000000e+03 1.555697250366210938e+01 1.239178419113159180e+00 4.176041111350059509e-04 1.401342567987740040e-03 5.456840153783559799e-04 1.284510799450799823e-04
3.029000000000000000e+03 1.560021686553955078e+01 5.002670884132385254e-01 2.235521387774497271e-04 -1.476027653552591801e-03 -3.757426748052239418e-04 1.748860959196463227e-04
3.030000000000000000e+03 1.334496879577636719e+01 1.158104777336120605e+00 5.319421761669218540e-04 -1.122970017604529858e-03 -1.773083349689841270e-04 6.393323419615626335e-04
3.031000000000000000e+03 1.481854820251464844e+01 1.214042663574218750e+00 2.934783697128295898e-04 -1.251071342267096043e-03 -2.872778859455138445e-04 4.816806176677346230e-04
3.032000000000000000e+03 1.111325168609619141e+01 1.138490676879882812e+00 1.618242939002811909e-03 7.663466385565698147e-04 7.153768674470484257e-04 3.556060619303025305e-05
3.033000000000000000e+03 1.186833381652832031e+01 4.020517766475677490e-01 1.408330630511045456e-03 9.371060878038406372e-04 7.036310271359980106e-04 5.224475899012759328e-06
3.034000000000000000e+03 1.037295722961425781e+01 3.924405574798583984e-01 1.798122888430953026e-03 7.284295861609280109e-04 7.579657249152660370e-04 1.576077920617535710e-05
3.035000000000000000e+03 1.260390949249267578e+01 1.143149375915527344e+00 1.218329882249236107e-03 1.011608284898102283e-03 6.689814617857336998e-04 2.299177867826074362e-05
3.036000000000000000e+03 1.261756992340087891e+01 4.032067656517028809e-01 9.961974574252963066e-04 -1.092406921088695526e-03 -2.886283436964731663e-05 2.512903301976621151e-04
3.037000000000000000e+03 1.036947441101074219e+01 1.132432341575622559e+00 1.147016882896423340e-03 -7.742550806142389774e-04 1.118285508709959686e-04 4.171263717580586672e-04
3.038000000000000000e+03 1.185806560516357422e+01 1.142010807991027832e+00 8.533351938240230083e-04 -9.312829351983964443e-04 -2.338433296245057136e-05 6.043299799785017967e-04
3.039000000000000000e+03 1.112012767791748047e+01 3.985152244567871094e-01 1.428115065209567547e-03 -8.329386473633348942e-04 1.785529020708054304e-04 1.936923945322632790e-04
3.040000000000000000e+03 8.771651268005371094e+00 3.881228864192962646e-01 1.995515776798129082e-03 5.426543066278100014e-04 7.614510250277817249e-04 -3.126258889096789062e-05
3.041000000000000000e+03 8.818146705627441406e+00 1.128122925758361816e+00 1.322864321991801262e-03 -6.085537024773657322e-04 2.142931771231815219e-04 2.162940800189971924e-04
3.042000000000000000e+03 7.953170776367187500e+00 3.921383917331695557e-01 1.785571454092860222e-03 -4.925424000248312950e-04 3.879087162204086781e-04 9.736058018461335450e-06
3.043000000000000000e+03 6.319846630096435547e+00 3.892590403556823730e-01 1.488695968873798847e-03 -2.541335998103022575e-04 3.703687107190489769e-04 -3.636350811575539410e-05
3.044000000000000000e+03 5.502897262573242188e+00 3.910058438777923584e-01 1.348066376522183418e-03 7.557605567853897810e-05 4.270927165634930134e-04 -2.429057058179751039e-04
3.045000000000000000e+03 4.685476779937744141e+00 3.909447193145751953e-01 9.441765141673386097e-04 9.006967593450099230e-05 3.102738410234451294e-04 1.894366323540452868e-05
3.046000000000000000e+03 3.050973415374755859e+00 3.907458484172821045e-01 2.753477310761809349e-04 2.708315732888877392e-04 1.638537942199036479e-04 -2.346249402762623504e-06
3.047000000000000000e+03 2.234469175338745117e+00 3.876248300075531006e-01 2.147076302208006382e-04 -2.162162709282711148e-04 -4.525941506017261418e-07 -2.102824510075151920e-04
3.048000000000000000e+03 2.538473606109619141e+00 1.127624869346618652e+00 -3.033987923117820174e-05 1.546615094412118196e-04 3.729648960870690644e-05 -2.446684520691633224e-04
3.049000000000000000e+03 1.768125653266906738e+00 1.127171397209167480e+00 3.022734599653631449e-04 1.746554626151919365e-04 1.430786796845495701e-04 -2.959335106424987316e-04
3.050000000000000000e+03 1.067988038063049316e+00 1.148616075515747070e+00 3.854660026263445616e-04 -3.867898485623300076e-04 -3.971493640619883081e-07 1.792543480405583978e-04
3.051000000000000000e+03 6.996063590049743652e-01 4.086160361766815186e-01 -7.082601659931242466e-04 -5.711435806006193161e-04 -3.838211414404213428e-04 -6.991794798523187637e-04
3.052000000000000000e+03 3.732481598854064941e-01 9.636608362197875977e-01 9.284077095799148083e-04 5.374902393668889999e-04 4.397693846840411425e-04 2.866053255274891853e-04
3.053000000000000000e+03 3.322789192199707031e+00 1.130745887756347656e+00 1.026543090119957924e-03 -7.660756818950176239e-05 2.849806623999029398e-04 -5.438839434646070004e-04
3.054000000000000000e+03 3.868146419525146484e+00 3.889868557453155518e-01 7.648026803508400917e-04 -2.227621007477864623e-04 1.626121666049584746e-04 -3.047444915864616632e-04
3.055000000000000000e+03 5.678146839141845703e+00 1.131005883216857910e+00 1.052066800184547901e-03 -2.677011943887919188e-04 2.353096788283437490e-04 -5.551942740567028522e-05
3.056000000000000000e+03 7.247090816497802734e+00 1.132560849189758301e+00 1.269336906261742115e-03 -4.635692748706787825e-04 2.417303039692342281e-04 3.568026295397430658e-05
3.057000000000000000e+03 7.136218547821044922e+00 3.925608992576599121e-01 1.849553897045552731e-03 3.511132381390780210e-04 6.602001376450061798e-04 -1.146731810877099633e-04
3.058000000000000000e+03 8.031854629516601562e+00 1.132138371467590332e+00 1.845442922785878181e-03 3.678472712635993958e-04 6.639870698563754559e-04 -2.625102060846984386e-04
3.059000000000000000e+03 9.590107917785644531e+00 3.879971206188201904e-01 1.737993792630732059e-03 -6.403257139027118683e-04 3.293004410807043314e-04 9.707720164442434907e-05
3.060000000000000000e+03 9.604414939880371094e+00 1.127997159957885742e+00 1.826660474762320518e-03 5.203624023124575615e-04 7.041068747639656067e-04 -4.012390127172693610e-05
3.061000000000000000e+03 6.462907791137695312e+00 1.129258990287780762e+00 1.615176443010568619e-03 2.261296758661046624e-04 5.523918080143630505e-04 -5.168567295186221600e-04
3.062000000000000000e+03 4.892915248870849609e+00 1.130944728851318359e+00 1.219985890202224255e-03 1.051821527653373778e-04 3.975504077970981598e-04 -7.115701446309685707e-04
3.063000000000000000e+03 4.107773303985595703e+00 1.128986835479736328e+00 4.407969827298074961e-04 1.248656985808338504e-06 1.326136843999847770e-04 -9.240847430191934109e-05
3.064000000000000000e+03 1.431932568550109863e+00 3.871713578701019287e-01 7.847287633921951056e-05 2.886936126742511988e-04 1.101499510696157813e-04 1.813487033359706402e-04
3.065000000000000000e+03 1.338494110107421875e+01 -3.624081611633300781e-01 -1.959822773933410645e+00 -9.089642204344272614e-03 -5.906737446784973145e-01 -6.826568394899368286e-02
3.066000000000000000e+03 1.492772197723388672e+01 -1.047161340713500977e+00 -1.522766351699829102e+00 3.926904872059822083e-02 -4.450491964817047119e-01 2.440977096557617188e-02
3.067000000000000000e+03 1.340428161621093750e+01 -1.102196455001831055e+00 -1.563509106636047363e+00 1.978483237326145172e-02 -4.631172716617584229e-01 -5.826192349195480347e-02
3.068000000000000000e+03 1.489244556427001953e+01 -3.079577088356018066e-01 -1.893574833869934082e+00 -2.573497360572218895e-03 -5.688444972038269043e-01 -4.803963005542755127e-02
3.069000000000000000e+03 1.568929195404052734e+01 -1.018365263938903809e+00 -1.427735805511474609e+00 2.582206577062606812e-02 -4.205741286277770996e-01 7.377760112285614014e-02
3.070000000000000000e+03 1.564604759216308594e+01 -2.794539332389831543e-01 -1.833982229232788086e+00 5.618657451122999191e-03 -5.485090613365173340e-01 -4.177881032228469849e-02
3.071000000000000000e+03 1.413872909545898438e+01 -3.356079757213592529e-01 -1.935050845146179199e+00 1.116251479834318161e-02 -5.771664977073669434e-01 -6.160786002874374390e-02
3.072000000000000000e+03 1.416603755950927734e+01 -1.075103878974914551e+00 -1.566995978355407715e+00 2.960204333066940308e-02 -4.612181782722473145e-01 -1.968538202345371246e-02
3.073000000000000000e+03 1.037684440612792969e+01 -3.884835243225097656e-01 -1.597539305686950684e+00 7.875101291574537754e-04 -4.790255427360534668e-01 -7.487490773200988770e-02
3.074000000000000000e+03 1.189073276519775391e+01 -1.121461629867553711e+00 -1.503618240356445312e+00 1.723258383572101593e-02 -4.459156990051269531e-01 -1.395770311355590820e-01
3.075000000000000000e+03 1.038032817840576172e+01 -1.128475308418273926e+00 -1.333599805831909180e+00 1.141617074608802795e-02 -3.966550827026367188e-01 -1.872470080852508545e-01
3.076000000000000000e+03 1.264584636688232422e+01 -1.117530822753906250e+00 -1.543775081634521484e+00 1.282061729580163956e-02 -4.592863321304321289e-01 -1.101606488227844238e-01
3.077000000000000000e+03 1.188046455383300781e+01 -3.815026283264160156e-01 -1.825779438018798828e+00 1.940110581927001476e-03 -5.471518039703369141e-01 -6.241865456104278564e-02
3.078000000000000000e+03 1.263218593597412109e+01 -3.775882422924041748e-01 -1.921720027923583984e+00 -1.453203498385846615e-03 -5.769519805908203125e-01 -6.082528084516525269e-02
3.079000000000000000e+03 1.112868118286132812e+01 -3.851337432861328125e-01 -1.718476533889770508e+00 3.809786168858408928e-03 -5.144000053405761719e-01 -6.908354908227920532e-02
3.080000000000000000e+03 1.113555717468261719e+01 -1.125109195709228516e+00 -1.430116534233093262e+00 1.907680742442607880e-02 -4.233119189739227295e-01 -1.656910777091979980e-01
3.081000000000000000e+03 9.622406005859375000e+00 -3.850494623184204102e-01 -1.457574725151062012e+00 -4.203676071483641863e-04 -4.373985230922698975e-01 -7.580465078353881836e-02
3.082000000000000000e+03 8.866015434265136719e+00 -3.791061341762542725e-01 -1.300614714622497559e+00 1.700995722785592079e-03 -3.896741271018981934e-01 -7.773176580667495728e-02
3.083000000000000000e+03 8.110340118408203125e+00 -3.782755434513092041e-01 -1.135994553565979004e+00 5.835402989760041237e-04 -3.406233191490173340e-01 -8.032558113336563110e-02
3.084000000000000000e+03 7.354346275329589844e+00 -3.774763345718383789e-01 -9.677681922912597656e-01 -1.227510510943830013e-04 -2.903672754764556885e-01 -8.121958374977111816e-02
3.085000000000000000e+03 6.598577022552490234e+00 -3.773281872272491455e-01 -7.972878813743591309e-01 -8.599144639447331429e-04 -2.394443303346633911e-01 -8.027826994657516479e-02
3.086000000000000000e+03 5.843272686004638672e+00 -3.783421814441680908e-01 -6.315953731536865234e-01 -1.774263451807200909e-03 -1.900108903646469116e-01 -7.774110883474349976e-02
3.087000000000000000e+03 5.087837696075439453e+00 -3.782689273357391357e-01 -4.738469421863555908e-01 -3.145169699564576149e-03 -1.430976390838623047e-01 -7.235581427812576294e-02
3.088000000000000000e+03 4.332343578338623047e+00 -3.772869408130645752e-01 -3.312424123287200928e-01 -4.406107123941183090e-03 -1.006945520639419556e-01 -6.432218849658966064e-02
3.089000000000000000e+03 3.576737403869628906e+00 -3.757566809654235840e-01 -2.066445052623748779e-01 -4.623141605406999588e-03 -6.338029354810714722e-02 -5.465233698487281799e-02
3.090000000000000000e+03 2.821185827255249023e+00 -3.741005063056945801e-01 -1.061758548021316528e-01 -6.147104315459728241e-03 -3.369688615202903748e-02 -4.279266297817230225e-02
3.091000000000000000e+03 2.067172050476074219e+00 -3.734666705131530762e-01 -3.778330609202384949e-02 -8.528234437108039856e-03 -1.389346178621053696e-02 -2.590548805892467499e-02
3.092000000000000000e+03 1.326888561248779297e+00 -3.787174820899963379e-01 -7.017051801085472107e-03 -7.313883863389492035e-03 -4.299280699342489243e-03 -9.387468919157981873e-03
3.093000000000000000e+03 6.511554718017578125e-01 -4.016090035438537598e-01 -5.794222233816981316e-04 -2.969448454678058624e-03 -1.064661191776394844e-03 -7.044634548947215080e-04
3.094000000000000000e+03 9.947552680969238281e-01 -1.141608953475952148e+00 -2.090886607766151428e-02 -3.293424472212791443e-02 -1.615293323993682861e-02 -2.429366670548915863e-02
3.095000000000000000e+03 9.637866020202636719e+00 -1.125049471855163574e+00 -1.231912970542907715e+00 1.177832111716270447e-02 -3.660403788089752197e-01 -2.071083784103393555e-01
3.096000000000000000e+03 8.908821105957031250e+00 -1.119106173515319824e+00 -1.119477272033691406e+00 6.702233571559190750e-03 -3.338325321674346924e-01 -2.181335091590881348e-01
3.097000000000000000e+03 8.180490493774414062e+00 -1.118275523185729980e+00 -9.960788488388061523e-01 6.074506323784589767e-03 -2.970013022422790527e-01 -2.260144352912902832e-01
3.098000000000000000e+03 6.723416805267333984e+00 -1.117328166961669922e+00 -7.374351024627685547e-01 -2.804410643875598907e-03 -2.220718562602996826e-01 -2.294074743986129761e-01
3.099000000000000000e+03 5.995457649230957031e+00 -1.118342161178588867e+00 -6.079537272453308105e-01 -9.024804458022117615e-03 -1.850935518741607666e-01 -2.226459532976150513e-01
3.100000000000000000e+03 5.267367839813232422e+00 -1.118268966674804688e+00 -4.861438572406768799e-01 -1.353964954614639282e-02 -1.499050557613372803e-01 -2.099906206130981445e-01
3.101000000000000000e+03 4.539218425750732422e+00 -1.117286920547485352e+00 -3.708463907241821289e-01 -2.015419863164424896e-02 -1.173001825809478760e-01 -1.897149831056594849e-01
3.102000000000000000e+03 3.810957431793212891e+00 -1.115756630897521973e+00 -2.701295912265777588e-01 -2.331418730318546295e-02 -8.803313225507736206e-02 -1.641375422477722168e-01
3.103000000000000000e+03 3.082750558853149414e+00 -1.114100456237792969e+00 -1.836059689521789551e-01 -2.842262014746665955e-02 -6.360857933759689331e-02 -1.327206343412399292e-01
3.104000000000000000e+03 2.356081962585449219e+00 -1.113466620445251465e+00 -1.110861450433731079e-01 -3.578799590468406677e-02 -4.406224191188812256e-02 -9.755431115627288818e-02
3.105000000000000000e+03 1.643143415451049805e+00 -1.118717432022094727e+00 -5.231030657887458801e-02 -4.092736169695854187e-02 -2.797129936516284943e-02 -5.656449124217033386e-02
3.106000000000000000e+03 7.451840877532958984e+00 -1.117476344108581543e+00 -8.662742376327514648e-01 2.780820941552519798e-04 -2.597988545894622803e-01 -2.298730462789535522e-01
3.107000000000000000e+03 3.483387529850006104e-01 -9.597249627113342285e-01 -2.245985670015215874e-03 -3.828767221421003342e-03 -1.822425983846187592e-03 -3.232658375054597855e-03
3.108000000000000000e+03 7.013360595703125000e+01 -1.644951629638671875e+01 2.783791351318359375e+01 9.054125785827636719e+00 1.106761169433593750e+01 1.382569217681884766e+01
3.109000000000000000e+03 7.014064025878906250e+01 -1.646764755249023438e+01 2.260599517822265625e+01 2.130826187133789062e+01 1.317427730560302734e+01 2.069628524780273438e+01
3.110000000000000000e+03 7.015106964111328125e+01 -1.648406410217285156e+01 1.936612892150878906e+01 3.185239028930664062e+01 1.536555576324462891e+01 2.205524253845214844e+01
3.111000000000000000e+03 7.016448974609375000e+01 -1.649813842773437500e+01 1.549332523345947266e+01 4.160614395141601562e+01 1.712984085083007812e+01 2.098847579956054688e+01
3.112000000000000000e+03 7.018038940429687500e+01 -1.650933647155761719e+01 1.280295848846435547e+01 4.976664733886718750e+01 1.877088165283203125e+01 1.770050811767578125e+01
3.113000000000000000e+03 7.019815826416015625e+01 -1.651722717285156250e+01 1.098315811157226562e+01 5.583904647827148438e+01 2.004666137695312500e+01 1.278650856018066406e+01
3.114000000000000000e+03 7.021713256835937500e+01 -1.652151107788085938e+01 1.084568977355957031e+01 5.944410705566406250e+01 2.108693885803222656e+01 6.967859745025634766e+00
3.115000000000000000e+03 7.023657226562500000e+01 -1.652202415466308594e+01 1.216409397125244141e+01 6.032279586791992188e+01 2.174606704711914062e+01 1.134193301200866699e+00
3.116000000000000000e+03 7.025574493408203125e+01 -1.651874542236328125e+01 1.512871742248535156e+01 5.892280197143554688e+01 2.221545600891113281e+01 -3.934375047683715820e+00
3.117000000000000000e+03 7.027391052246093750e+01 -1.651180267333984375e+01 1.929363059997558594e+01 5.574699020385742188e+01 2.251218605041503906e+01 -7.677886009216308594e+00
3.118000000000000000e+03 7.029037475585937500e+01 -1.650145912170410156e+01 2.358851623535156250e+01 5.138122940063476562e+01 2.249092292785644531e+01 -9.755867958068847656e+00
3.119000000000000000e+03 7.030451965332031250e+01 -1.648810958862304688e+01 2.787249374389648438e+01 4.692598724365234375e+01 2.243954467773437500e+01 -1.003155612945556641e+01
3.120000000000000000e+03 7.031579589843750000e+01 -1.647226524353027344e+01 3.153891372680664062e+01 4.310974502563476562e+01 2.239459800720214844e+01 -8.761655807495117188e+00
3.121000000000000000e+03 7.032377624511718750e+01 -1.645452880859375000e+01 3.433378982543945312e+01 3.993454360961914062e+01 2.228050041198730469e+01 -6.216201305389404297e+00
3.122000000000000000e+03 7.032815551757812500e+01 -1.643558120727539062e+01 3.544633483886718750e+01 3.777274703979492188e+01 2.196572494506835938e+01 -3.340782403945922852e+00
3.123000000000000000e+03 7.032876586914062500e+01 -1.641614341735839844e+01 3.586413574218750000e+01 3.804729080200195312e+01 2.217342758178710938e+01 1.250773388892412186e-02
3.124000000000000000e+03 7.032558441162109375e+01 -1.639695739746093750e+01 3.458056259155273438e+01 3.886912918090820312e+01 2.203490829467773438e+01 3.381811380386352539e+00
3.125000000000000000e+03 7.031872558593750000e+01 -1.637875556945800781e+01 3.232257843017578125e+01 4.085411453247070312e+01 2.195300865173339844e+01 5.881099224090576172e+00
3.126000000000000000e+03 7.030846405029296875e+01 -1.636223602294921875e+01 2.939029884338378906e+01 4.476449584960937500e+01 2.224643898010253906e+01 7.354619503021240234e+00
3.127000000000000000e+03 7.029518890380859375e+01 -1.634802627563476562e+01 2.508601570129394531e+01 4.852021026611328125e+01 2.208186721801757812e+01 7.741626739501953125e+00
3.128000000000000000e+03 7.027940368652343750e+01 -1.633667182922363281e+01 2.118143844604492188e+01 5.261624145507812500e+01 2.213930320739746094e+01 6.370084762573242188e+00
3.129000000000000000e+03 7.026170349121093750e+01 -1.632860374450683594e+01 1.718625068664550781e+01 5.607170104980468750e+01 2.197738647460937500e+01 3.307618856430053711e+00
3.130000000000000000e+03 7.024278259277343750e+01 -1.632412910461425781e+01 1.414164161682128906e+01 5.797505950927734375e+01 2.163500976562500000e+01 -1.039122223854064941e+00
3.131000000000000000e+03 7.022334289550781250e+01 -1.632342338562011719e+01 1.231071567535400391e+01 5.784910583496093750e+01 2.104794692993164062e+01 -6.507390022277832031e+00
3.132000000000000000e+03 7.020414733886718750e+01 -1.632650947570800781e+01 1.198642349243164062e+01 5.534068298339843750e+01 2.019813156127929688e+01 -1.188738632202148438e+01
3.133000000000000000e+03 7.018591308593750000e+01 -1.633327102661132812e+01 1.328460979461669922e+01 5.026865768432617188e+01 1.906598091125488281e+01 -1.692360877990722656e+01
3.134000000000000000e+03 7.016934204101562500e+01 -1.634345054626464844e+01 1.507122802734375000e+01 4.325243759155273438e+01 1.749710083007812500e+01 -2.047285461425781250e+01
3.135000000000000000e+03 7.015505981445312500e+01 -1.635665702819824219e+01 1.786166572570800781e+01 3.482245254516601562e+01 1.580523490905761719e+01 -2.219879913330078125e+01
3.136000000000000000e+03 7.014363098144531250e+01 -1.637238693237304688e+01 1.985078811645507812e+01 2.578661537170410156e+01 1.369122123718261719e+01 -2.206445312500000000e+01
3.137000000000000000e+03 7.013547515869140625e+01 -1.639004135131835938e+01 2.158103942871093750e+01 1.672258377075195312e+01 1.149108695983886719e+01 -1.965099525451660156e+01
3.138000000000000000e+03 7.013090515136718750e+01 -1.640894508361816406e+01 2.176059532165527344e+01 8.829897880554199219e+00 9.177147865295410156e+00 -1.560146617889404297e+01
3.139000000000000000e+03 7.013009643554687500e+01 -1.642837715148925781e+01 2.054842376708984375e+01 2.072705030441284180e+00 6.786338806152343750e+00 -5.997027873992919922e+00
