# el_label, x, y, sXX, sYY, sZZ, sXY
1.000000000000000000e+00 1.639982223510742188e+01 -2.317397296428680420e-01 -1.726468443870544434e+00 -4.743076860904693604e-03 -5.193634629249572754e-01 -4.811457172036170959e-02
2.000000000000000000e+00 1.798723983764648438e+01 -8.314419388771057129e-01 -1.020997166633605957e+00 7.640923559665679932e-02 -2.833763957023620605e-01 2.315019816160202026e-01
3.000000000000000000e+00 1.645354080200195312e+01 -9.699125885963439941e-01 -1.341208100318908691e+00 4.257429763674736023e-02 -3.895901143550872803e-01 1.406463682651519775e-01
4.000000000000000000e+00 1.875374794006347656e+01 -7.599936723709106445e-01 -8.034796118736267090e-01 8.587496727705001831e-02 -2.152813822031021118e-01 2.929498851299285889e-01
5.000000000000000000e+00 1.790756225585937500e+01 -9.563824534416198730e-02 -1.278161525726318359e+00 1.595612801611423492e-02 -3.786616325378417969e-01 -2.519097877666354179e-03
6.000000000000000000e+00 1.866109085083007812e+01 -2.537456899881362915e-02 -1.037699222564697266e+00 1.151519641280174255e-02 -3.078552186489105225e-01 2.358938194811344147e-02
7.000000000000000000e+00 1.715376663208007812e+01 -1.644264459609985352e-01 -1.502617120742797852e+00 1.235530432313680649e-02 -4.470785558223724365e-01 -3.422376513481140137e-02
8.000000000000000000e+00 1.722046470642089844e+01 -9.014146924018859863e-01 -1.209203243255615234e+00 6.735059618949890137e-02 -3.425557911396026611e-01 1.903304606676101685e-01
9.000000000000000000e+00 1.941230964660644531e+01 7.625918835401535034e-02 -7.357633709907531738e-01 2.197741344571113586e-02 -2.141357958316802979e-01 4.539649561047554016e-02
1.000000000000000000e+01 2.090952491760253906e+01 3.449267148971557617e-01 -1.122701466083526611e-01 4.474220052361488342e-02 -2.025838382542133331e-02 1.233564317226409912e-01
1.100000000000000000e+01 1.952174568176269531e+01 -6.559218764305114746e-01 -5.793964862823486328e-01 1.029879674315452576e-01 -1.429225504398345947e-01 3.447445333003997803e-01
1.200000000000000000e+01 2.106011390686035156e+01 -3.798714280128479004e-01 -9.552402049303054810e-02 1.244444400072097778e-01 8.676125667989253998e-03 3.868148624897003174e-01
1.300000000000000000e+01 2.183077621459960938e+01 -2.417316585779190063e-01 1.297170221805572510e-01 1.237967833876609802e-01 7.605414092540740967e-02 3.948732018470764160e-01
1.400000000000000000e+01 2.165959548950195312e+01 4.794237911701202393e-01 1.660859435796737671e-01 5.890319123864173889e-02 6.749673932790756226e-02 1.705339998006820679e-01
1.500000000000000000e+01 2.016033744812011719e+01 2.105962187051773071e-01 -4.054366350173950195e-01 3.718160465359687805e-02 -1.104765161871910095e-01 7.922961562871932983e-02
1.600000000000000000e+01 2.029035186767578125e+01 -5.178933739662170410e-01 -3.525707423686981201e-01 1.224643513560295105e-01 -6.903191655874252319e-02 3.659692108631134033e-01
1.700000000000000000e+01 2.486502075195312500e+01 1.181535840034484863e+00 4.683989882469177246e-01 -6.250775605440139771e-02 1.217673644423484802e-01 8.963222615420818329e-03
1.800000000000000000e+01 2.407039642333984375e+01 1.203782439231872559e+00 4.447225332260131836e-01 -1.738371327519416809e-02 1.282016485929489136e-01 9.929830580949783325e-02
1.900000000000000000e+01 2.607850456237792969e+01 1.173345804214477539e+00 6.012077927589416504e-01 1.889382489025592804e-02 1.860304772853851318e-01 -1.583018898963928223e-01
2.000000000000000000e+01 2.532372856140136719e+01 1.650214910507202148e+00 2.361411452293395996e-01 2.829872304573655128e-03 7.169130444526672363e-02 -2.514678798615932465e-02
2.100000000000000000e+01 2.326537322998046875e+01 9.581053853034973145e-01 4.805071353912353516e-01 3.676128387451171875e-02 1.551805287599563599e-01 1.750611960887908936e-01
2.200000000000000000e+01 2.244518280029296875e+01 6.874685883522033691e-01 3.819448053836822510e-01 6.580657511949539185e-02 1.343254148960113525e-01 1.964766383171081543e-01
2.300000000000000000e+01 2.260291671752929688e+01 -4.087954387068748474e-02 3.512707054615020752e-01 7.971262186765670776e-02 1.292950063943862915e-01 3.556630313396453857e-01
2.400000000000000000e+01 2.485576438903808594e+01 6.031916737556457520e-01 8.849534988403320312e-01 -1.558292508125305176e-01 2.187372744083404541e-01 1.415585577487945557e-01
2.500000000000000000e+01 2.337561607360839844e+01 2.117778509855270386e-01 5.431696772575378418e-01 2.313923789188265800e-03 1.636450737714767456e-01 2.807965278625488281e-01
2.600000000000000000e+01 2.413314819335937500e+01 4.394754171371459961e-01 7.314918041229248047e-01 -8.859701454639434814e-02 1.928684264421463013e-01 2.092556804418563843e-01
2.700000000000000000e+01 2.547986221313476562e+01 8.123863935470581055e-01 8.454759716987609863e-01 -1.048654913902282715e-01 2.221831381320953369e-01 -3.102881833910942078e-02
2.800000000000000000e+01 2.384457206726074219e+01 1.920147299766540527e+00 4.938820893585216254e-06 1.012894699670141563e-05 4.520330548984929919e-06 1.396977751255690237e-07
2.900000000000000000e+01 2.269768333435058594e+01 2.332504749298095703e+00 8.959905244410037994e-06 2.491450868546962738e-05 1.016232363326707855e-05 -3.218772008040104993e-06
3.000000000000000000e+01 2.200780105590820312e+01 2.124691486358642578e+00 -8.821770279610063881e-06 -4.582952169585041702e-05 -1.639538641029503196e-05 -1.087987129722023383e-05
3.100000000000000000e+01 2.224600791931152344e+01 1.422776222229003906e+00 -4.565281415125355124e-06 2.904475513787474483e-05 7.343842298723757267e-06 -1.249172510142670944e-05
3.200000000000000000e+01 2.304938125610351562e+01 1.665326476097106934e+00 -6.586264589714119211e-06 -2.573777055658865720e-05 -9.697210771264508367e-06 -1.163387878477806225e-06
3.300000000000000000e+01 2.404323768615722656e+01 2.781441688537597656e+00 1.316510861215647310e-05 8.342027285834774375e-06 6.452140951296314597e-06 7.250094313349109143e-06
3.400000000000000000e+01 2.462189483642578125e+01 2.183827638626098633e+00 -4.477902166399871930e-06 -3.143460389765095897e-06 -2.286408744112122804e-06 -1.333275008619239088e-06
3.500000000000000000e+01 2.337939453125000000e+01 2.552543401718139648e+00 -8.514346518495585769e-06 -2.942110950243659317e-05 -1.138063635153230280e-05 -7.762514542264398187e-06
3.600000000000000000e+01 2.075237083435058594e+01 1.106616377830505371e+00 -2.697369018278550357e-05 4.612766861100681126e-05 5.746192982769571245e-06 -1.938588866323698312e-05
3.700000000000000000e+01 2.060178184509277344e+01 1.831414580345153809e+00 -1.632506064197514206e-05 -5.128237535245716572e-05 -2.028223025263287127e-05 -1.401650206389604136e-05
3.800000000000000000e+01 2.130817413330078125e+01 1.960395336151123047e+00 1.536139825475402176e-05 3.638128328020684421e-05 1.552280446048825979e-05 -1.436037655366817489e-05
3.900000000000000000e+01 1.918785858154296875e+01 1.579434752464294434e+00 -1.234251158166443929e-05 -4.278507549315690994e-05 -1.653827712289057672e-05 1.199893631564918905e-05
4.000000000000000000e+01 1.989505195617675781e+01 1.704050064086914062e+00 1.226028871315065771e-05 6.872721860418096185e-05 2.429625237709842622e-05 -6.273604412854183465e-06
4.100000000000000000e+01 1.929729461669921875e+01 8.472537398338317871e-01 -3.984172872151248157e-05 6.263962859520688653e-05 6.839371053501963615e-06 -1.176371006295084953e-05
4.200000000000000000e+01 2.147934150695800781e+01 1.239288687705993652e+00 -2.727082210185471922e-05 -4.694560630014166236e-05 -2.226492870249785483e-05 -2.991343990288442001e-06
4.300000000000000000e+01 2.002506446838378906e+01 9.755603671073913574e-01 -5.015088390791788697e-05 -5.432439138530753553e-05 -3.134258076897822320e-05 -4.837196229345863685e-06
4.400000000000000000e+01 1.701650238037109375e+01 1.350294589996337891e+00 1.233516522916033864e-04 1.296996488235890865e-04 7.591539178974926472e-05 1.157240840257145464e-04
4.500000000000000000e+01 1.708320045471191406e+01 6.133062839508056641e-01 5.114191299071535468e-05 -5.098043766338378191e-05 4.844275736104464158e-08 4.812035695067606866e-05
4.600000000000000000e+01 1.634315681457519531e+01 5.465459823608398438e-01 1.498560013715177774e-04 8.158692071447148919e-05 6.943287735339254141e-05 5.845263149240054190e-05
4.700000000000000000e+01 1.782329559326171875e+01 6.808430552482604980e-01 2.501260951248696074e-06 7.514550088671967387e-05 2.329402923351153731e-05 1.704703026916831732e-05
4.800000000000000000e+01 1.847070503234863281e+01 1.483781576156616211e+00 3.385915260878391564e-05 1.049150596372783184e-04 4.163226549280807376e-05 3.360463597346097231e-05
4.900000000000000000e+01 1.856336212158203125e+01 7.491624951362609863e-01 -4.060543142259120941e-05 -5.370859435060992837e-05 -2.829420736816246063e-05 1.271539076697081327e-05
5.000000000000000000e+01 1.628943824768066406e+01 1.284718871116638184e+00 1.738912542350590229e-04 -1.453282857255544513e-05 4.780753079103305936e-05 1.744490436976775527e-04
5.100000000000000000e+01 1.774361801147460938e+01 1.416646718978881836e+00 3.910058148903772235e-05 -2.398259130131918937e-05 4.535396328719798476e-06 8.017821528483182192e-05
5.200000000000000000e+01 1.408120155334472656e+01 1.187072157859802246e+00 6.021542358212172985e-04 1.091593221644870937e-04 2.133940579369664192e-04 3.022312012035399675e-04
5.300000000000000000e+01 1.410851097106933594e+01 4.475762248039245605e-01 6.258161738514900208e-04 -4.977705975761637092e-05 1.728117349557578564e-04 1.302657765336334705e-04
5.400000000000000000e+01 1.336430931091308594e+01 4.183164834976196289e-01 8.429903537034988403e-04 6.178559124236926436e-05 2.714328002184629440e-04 1.282495795749127865e-04
5.500000000000000000e+01 1.485382461547851562e+01 4.748390913009643555e-01 4.418780154082924128e-04 7.878086762502789497e-05 1.561976678203791380e-04 1.027625330607406795e-04
5.600000000000000000e+01 1.555697250366210938e+01 1.239178419113159180e+00 3.120978944934904575e-04 1.313527027377858758e-04 1.330351806245744228e-04 2.152934466721490026e-04
5.700000000000000000e+01 1.560021686553955078e+01 5.002670884132385254e-01 2.643913612700998783e-04 -5.101926217321306467e-05 6.401162681868299842e-05 8.931497723096981645e-05
5.800000000000000000e+01 1.334496879577636719e+01 1.158104777336120605e+00 7.538257050327956676e-04 -4.689282650360837579e-05 2.120798744726926088e-04 3.413854574318975210e-04
5.900000000000000000e+01 1.481854820251464844e+01 1.214042663574218750e+00 4.161059914622455835e-04 -1.733722274366300553e-05 1.196306257043033838e-04 2.807998098433017731e-04
6.000000000000000000e+01 1.111325168609619141e+01 1.138490676879882812e+00 1.319285714998841286e-03 7.274283234437461942e-06 3.979679895564913750e-04 2.730657288338989019e-04
6.100000000000000000e+01 1.186833381652832031e+01 4.020517766475677490e-01 1.314825145527720451e-03 4.329085277277044952e-05 4.074347962159663439e-04 1.174826829810626805e-04
6.200000000000000000e+01 1.037295722961425781e+01 3.924405574798583984e-01 1.715835533104836941e-03 1.759953738655894995e-05 5.200305604375898838e-04 8.019115193746984005e-05
6.300000000000000000e+01 1.260390949249267578e+01 1.143149375915527344e+00 9.692917228676378727e-04 5.732336649089120328e-05 3.079845337197184563e-04 3.301722172182053328e-04
6.400000000000000000e+01 1.261756992340087891e+01 4.032067656517028809e-01 1.062367227859795094e-03 -5.490772673510946333e-05 3.022378368768841028e-04 1.334505941485986114e-04
6.500000000000000000e+01 1.036947441101074219e+01 1.132432341575622559e+00 1.435369951650500298e-03 -1.037963520502671599e-04 3.994720755144953728e-04 2.409114676993340254e-04
6.600000000000000000e+01 1.185806560516357422e+01 1.142010807991027832e+00 1.121663604862987995e-03 -7.790658128215000033e-05 3.131270932499319315e-04 3.409650817047804594e-04
6.700000000000000000e+01 1.112012767791748047e+01 3.985152244567871094e-01 1.524405204690992832e-03 -4.838475069846026599e-05 4.428061365615576506e-04 1.143970075645484030e-04
6.800000000000000000e+01 8.749180793762207031e+00 3.899427950382232666e-01 1.925989752635359764e-03 -4.077680387126747519e-06 5.765735986642539501e-04 6.840942205599276349e-06
6.900000000000000000e+01 7.082522392272949219e+00 3.898618221282958984e-01 1.796223456040024757e-03 -1.293858167628059164e-05 5.349854473024606705e-04 -7.249574264278635383e-05
7.000000000000000000e+01 6.247702121734619141e+00 1.129743337631225586e+00 1.397021347656846046e-03 -5.080475602881051600e-05 4.038649785798043013e-04 -2.881837717723101377e-04
7.100000000000000000e+01 4.581694126129150391e+00 3.896949291229248047e-01 1.025926088914275169e-03 -5.653290372720221058e-06 3.060818416997790337e-04 -1.422296045348048210e-04
7.200000000000000000e+01 3.748422384262084961e+00 3.898865282535552979e-01 7.142810500226914883e-04 7.351134627242572606e-06 2.164896577596664429e-04 -1.424393849447369576e-04
7.300000000000000000e+01 3.747751951217651367e+00 1.129886507987976074e+00 7.005505030974745750e-04 1.103463546314742416e-05 2.134755341103300452e-04 -3.872576053254306316e-04
7.400000000000000000e+01 2.915430068969726562e+00 3.901152908802032471e-01 4.109021392650902271e-04 1.098757184081478044e-05 1.265669125132262707e-04 -1.199045436806045473e-04
7.500000000000000000e+01 2.914908647537231445e+00 1.130115270614624023e+00 4.871474520768970251e-04 6.521549948956817389e-05 1.657088869251310825e-04 -3.492147661745548248e-04
7.600000000000000000e+01 2.082287311553955078e+00 3.901598453521728516e-01 1.873665460152551532e-04 2.099065932270605117e-05 6.250716251088306308e-05 -8.596059342380613089e-05
7.700000000000000000e+01 2.081915140151977539e+00 1.130159854888916016e+00 2.604411856736987829e-04 8.812325540930032730e-05 1.045693279593251646e-04 -2.424118138151243329e-04
7.800000000000000000e+01 1.249198555946350098e+00 1.130092263221740723e+00 1.309379003942012787e-04 1.043345400830730796e-04 7.058172923279926181e-05 -1.329510996583849192e-04
7.900000000000000000e+01 4.164851903915405273e-01 1.130014061927795410e+00 1.156484449893468991e-05 3.627911064540967345e-05 1.435318699805065989e-05 -2.994996430061291903e-05
8.000000000000000000e+01 4.165596663951873779e-01 3.900140523910522461e-01 9.190281161863822490e-06 3.445700258453143761e-06 3.790794380620354787e-06 -4.843811893806559965e-06
8.100000000000000000e+01 4.580874919891357422e+00 1.129694938659667969e+00 9.674574830569326878e-04 -5.222165782470256090e-06 2.886705915443599224e-04 -3.959125315304845572e-04
8.200000000000000000e+01 5.414232254028320312e+00 1.129676342010498047e+00 1.170932082459330559e-03 -5.515679004020057619e-05 3.347326128277927637e-04 -3.508815716486424208e-04
8.300000000000000000e+01 5.415200710296630859e+00 3.896763324737548828e-01 1.340216957032680511e-03 -7.272468792507424951e-06 3.998833417426794767e-04 -1.295329275308176875e-04
8.400000000000000000e+01 6.248819828033447266e+00 3.897433280944824219e-01 1.591296051628887653e-03 -1.512171093054348603e-05 4.728522908408194780e-04 -1.022082724375650287e-04
8.500000000000000000e+01 7.081255912780761719e+00 1.129861831665039062e+00 1.504498883150517941e-03 -9.583395876688882709e-05 4.225994634907692671e-04 -1.801162143237888813e-04
8.600000000000000000e+01 7.915904998779296875e+00 3.899158239364624023e-01 1.896340283565223217e-03 -2.667366425157524645e-05 5.608999636024236679e-04 -2.584524918347597122e-05
8.700000000000000000e+01 9.582430839538574219e+00 3.899797797203063965e-01 1.843802980147302151e-03 -3.827509863185696304e-05 5.416583735495805740e-04 5.649638114846311510e-05
8.800000000000000000e+01 9.580718994140625000e+00 1.129979729652404785e+00 1.572002540342509747e-03 -4.612488919519819319e-05 4.577632935252040625e-04 1.283859892282634974e-04
8.900000000000000000e+01 1.249422073364257812e+00 3.900922536849975586e-01 4.491255822358652949e-05 2.380499427090398967e-05 2.061526538454927504e-05 -3.358612593729048967e-05
9.000000000000000000e+01 7.914489746093750000e+00 1.129915833473205566e+00 1.619415357708930969e-03 -6.663615204161033034e-05 4.658337566070258617e-04 -9.253322787117213011e-05
9.100000000000000000e+01 8.747616767883300781e+00 1.129942774772644043e+00 1.598710310645401478e-03 -1.148207447840832174e-04 4.451668646652251482e-04 4.856539089814759791e-05
9.200000000000000000e+01 1.338494110107421875e+01 -3.624081611633300781e-01 -1.999966621398925781e+00 -6.300750654190778732e-03 -6.018801927566528320e-01 -6.798438727855682373e-02
9.300000000000000000e+01 1.492772197723388672e+01 -1.047161340713500977e+00 -1.551347374916076660e+00 3.447159752249717712e-02 -4.550627470016479492e-01 2.009945735335350037e-02
9.400000000000000000e+01 1.340428161621093750e+01 -1.102196455001831055e+00 -1.593836069107055664e+00 1.856950484216213226e-02 -4.725799858570098877e-01 -6.082740053534507751e-02
9.500000000000000000e+01 1.489244556427001953e+01 -3.079577088356018066e-01 -1.932273030281066895e+00 4.739257972687482834e-03 -5.782601237297058105e-01 -4.842477664351463318e-02
9.600000000000000000e+01 1.568929195404052734e+01 -1.018365263938903809e+00 -1.455318331718444824e+00 3.019438125193119049e-02 -4.275372028350830078e-01 7.588415592908859253e-02
9.700000000000000000e+01 1.564604759216308594e+01 -2.794539332389831543e-01 -1.873176693916320801e+00 -5.094976164400577545e-03 -5.634815096855163574e-01 -4.463542625308036804e-02
9.800000000000000000e+01 1.413872909545898438e+01 -3.356079757213592529e-01 -1.974303126335144043e+00 5.856672767549753189e-03 -5.905339121818542480e-01 -6.373997032642364502e-02
9.900000000000000000e+01 1.416603755950927734e+01 -1.075103878974914551e+00 -1.595721125602722168e+00 3.130504861474037170e-02 -4.693247973918914795e-01 -1.619603484869003296e-02
1.000000000000000000e+02 3.439880847930908203e+00 -1.870874524116516113e+00 -2.321864366531372070e-01 -6.772315502166748047e-02 -8.997287601232528687e-02 -2.392704784870147705e-01
1.010000000000000000e+02 4.980462074279785156e+00 -1.866330862045288086e+00 -4.163865149021148682e-01 -3.913534060120582581e-02 -1.366565674543380737e-01 -3.142269253730773926e-01
1.020000000000000000e+02 1.035743522644042969e+01 -2.548164844512939453e+00 -9.220655560493469238e-01 8.067768812179565430e-02 -2.524163722991943359e-01 -3.399561345577239990e-01
1.030000000000000000e+02 1.495352840423583984e+01 -1.762277007102966309e+00 -1.231567025184631348e+00 9.549401700496673584e-02 -3.408219218254089355e-01 9.875063598155975342e-02
1.040000000000000000e+02 1.188923454284667969e+01 -1.840004086494445801e+00 -1.244484305381774902e+00 5.640770494937896729e-02 -3.564229905605316162e-01 -1.871432662010192871e-01
1.050000000000000000e+02 3.652132451534271240e-01 -9.128813743591308594e+00 1.503598061390221119e-03 -1.344537138938903809e+00 -4.029100537300109863e-01 -7.223936915397644043e-02
1.060000000000000000e+02 1.302191352844238281e+01 -1.817494583129882812e+01 5.258030891418457031e-01 3.480428218841552734e+00 1.201869368553161621e+00 5.706652998924255371e-01
1.070000000000000000e+02 1.456354904174804688e+01 -1.891950416564941406e+01 7.593621313571929932e-02 4.349922657012939453e+00 1.327757596969604492e+00 4.322971403598785400e-02
1.080000000000000000e+02 1.456584167480468750e+01 -1.810104370117187500e+01 6.302180886268615723e-02 4.604218959808349609e+00 1.400172233581542969e+00 1.845260858535766602e-01
1.090000000000000000e+02 1.456754875183105469e+01 -1.727189254760742188e+01 2.199725955724716187e-01 5.158730030059814453e+00 1.613610744476318359e+00 4.641812145709991455e-01
1.100000000000000000e+02 1.471459197998046875e+01 -1.439898395538330078e+01 1.693007946014404297e+00 4.216247558593750000e+00 1.772776603698730469e+00 1.777551531791687012e+00
1.110000000000000000e+02 1.795445823669433594e+01 -1.150423049926757812e+01 2.762024402618408203e+00 1.617556571960449219e+00 1.313874244689941406e+00 1.614818692207336426e+00
1.120000000000000000e+02 1.825390243530273438e+01 -1.205848312377929688e+01 4.183307170867919922e+00 1.017083406448364258e+00 1.560117244720458984e+00 1.634486675262451172e+00
1.130000000000000000e+02 2.289991760253906250e+01 -1.098436737060546875e+01 1.061738371849060059e+00 1.800766587257385254e-01 3.725445270538330078e-01 4.468732774257659912e-01
1.140000000000000000e+02 2.463527870178222656e+01 -9.431146621704101562e+00 2.808927297592163086e-01 3.480587303638458252e-01 1.886854469776153564e-01 5.102608799934387207e-01
1.150000000000000000e+02 2.505912017822265625e+01 -1.005548381805419922e+01 3.947865068912506104e-01 2.189663499593734741e-01 1.841258555650711060e-01 3.814022839069366455e-01
1.160000000000000000e+02 2.672318840026855469e+01 -8.296648025512695312e+00 -1.462656378746032715e+00 4.796644449234008789e-01 -2.948975861072540283e-01 5.624055862426757812e-01
1.170000000000000000e+02 3.129185867309570312e+01 -8.903567314147949219e+00 -3.191239833831787109e+00 -2.254606038331985474e-01 -1.025010108947753906e+00 1.407578825950622559e+00
1.180000000000000000e+02 3.064745903015136719e+01 -8.393272399902343750e+00 -5.618777275085449219e+00 -9.253380298614501953e-01 -1.963234663009643555e+00 1.574341773986816406e+00
1.190000000000000000e+02 3.250381851196289062e+01 -1.002035617828369141e+01 -3.730720877647399902e-01 2.034647941589355469e+00 4.984727799892425537e-01 -7.640078663825988770e-01
1.200000000000000000e+02 3.356559371948242188e+01 -1.129373836517333984e+01 1.650273442268371582e+00 6.681910037994384766e+00 2.499655008316040039e+00 -3.136493682861328125e+00
1.210000000000000000e+02 3.432891845703125000e+01 -1.276254749298095703e+01 1.698890328407287598e+00 1.088570976257324219e+01 3.775380134582519531e+00 -3.849250316619873047e+00
1.220000000000000000e+02 4.607907104492187500e+01 -1.819234848022460938e+01 2.631944894790649414e+00 9.579455375671386719e+00 3.663420200347900391e+00 4.018130779266357422e+00
1.230000000000000000e+02 4.554300308227539062e+01 -1.800010871887207031e+01 1.843486785888671875e+00 9.176190376281738281e+00 3.305902957916259766e+00 1.700746297836303711e+00
1.240000000000000000e+02 4.744454574584960938e+01 -1.627668762207031250e+01 2.643111944198608398e+00 3.005075693130493164e+00 1.694456219673156738e+00 2.470205783843994141e+00
1.250000000000000000e+02 4.774979400634765625e+01 -1.554351615905761719e+01 2.193185567855834961e+00 2.572867870330810547e+00 1.429816007614135742e+00 1.846547722816467285e+00
1.260000000000000000e+02 4.858658981323242188e+01 -1.563672924041748047e+01 2.469974279403686523e+00 1.254260301589965820e+00 1.117270350456237793e+00 1.469005346298217773e+00
1.270000000000000000e+02 5.798411941528320312e+01 -1.451744747161865234e+01 -2.334647178649902344e+00 1.262647006660699844e-02 -6.966062188148498535e-01 -2.396341115236282349e-01
1.280000000000000000e+02 6.068840026855468750e+01 -1.299473190307617188e+01 -2.907332897186279297e+00 1.170101463794708252e-01 -8.370968103408813477e-01 -7.646629214286804199e-01
1.290000000000000000e+02 6.306456756591796875e+01 -1.260941028594970703e+01 -5.607383728027343750e+00 -9.623197913169860840e-01 -1.970911145210266113e+00 -2.167925834655761719e+00
1.300000000000000000e+02 6.239907073974609375e+01 -1.150810718536376953e+01 -2.943467855453491211e+00 -9.098715335130691528e-02 -9.103364944458007812e-01 -2.614289224147796631e-01
1.310000000000000000e+02 6.495607757568359375e+01 -1.237819862365722656e+01 -4.564958572387695312e+00 7.770065218210220337e-02 -1.346177339553833008e+00 -1.728070676326751709e-01
1.320000000000000000e+02 6.806652832031250000e+01 -1.402222251892089844e+01 1.183306336402893066e+00 9.993053436279296875e+00 3.352907896041870117e+00 -3.010565757751464844e+00
1.330000000000000000e+02 6.698180389404296875e+01 -1.377082443237304688e+01 2.445799827575683594e+00 5.340901374816894531e+00 2.336010217666625977e+00 -3.412480115890502930e+00
1.340000000000000000e+02 6.798905944824218750e+01 -1.510931396484375000e+01 3.094462871551513672e+00 1.272085380554199219e+01 4.744595050811767578e+00 -5.440594196319580078e+00
1.350000000000000000e+02 6.836964416503906250e+01 -1.586761569976806641e+01 2.561113119125366211e+00 1.736995506286621094e+01 5.979320526123046875e+00 -4.946425914764404297e+00
1.360000000000000000e+02 6.861744689941406250e+01 -1.920513725280761719e+01 6.227532625198364258e-01 1.872392082214355469e+01 5.804002285003662109e+00 1.434947371482849121e+00
1.370000000000000000e+02 6.934056091308593750e+01 -1.754595565795898438e+01 1.665179133415222168e+00 1.687915611267089844e+01 5.563300609588623047e+00 -1.125731468200683594e+00
1.380000000000000000e+02 6.851049804687500000e+01 -2.002301406860351562e+01 7.360204458236694336e-01 1.751654243469238281e+01 5.475768566131591797e+00 2.437369585037231445e+00
1.390000000000000000e+02 6.773198699951171875e+01 -2.235200500488281250e+01 2.937141895294189453e+00 1.122693920135498047e+01 4.249224185943603516e+00 5.061769008636474609e+00
1.400000000000000000e+02 6.249096679687500000e+01 -2.891615867614746094e+01 -1.434825420379638672e+00 4.946544468402862549e-01 -2.820512950420379639e-01 -2.737067639827728271e-02
1.410000000000000000e+02 5.990010452270507812e+01 -2.938969039916992188e+01 -2.813781023025512695e+00 -4.147469103336334229e-01 -9.685583710670471191e-01 -9.477719068527221680e-01
1.420000000000000000e+02 5.507390213012695312e+01 -3.037022209167480469e+01 -2.695440292358398438e+00 -6.295803189277648926e-02 -8.275194764137268066e-01 -1.925623118877410889e-01
1.430000000000000000e+02 5.260225296020507812e+01 -3.019577980041503906e+01 -1.407226800918579102e+00 6.991378217935562134e-02 -4.011938869953155518e-01 -1.802314072847366333e-01
1.440000000000000000e+02 5.099660873413085938e+01 -2.985616111755371094e+01 2.798116207122802734e-01 5.251044631004333496e-01 2.414748221635818481e-01 -6.893116235733032227e-01
1.450000000000000000e+02 5.238668823242187500e+01 -3.104502677917480469e+01 -7.166286706924438477e-01 4.067922830581665039e-01 -9.295091778039932251e-02 -8.454961776733398438e-01
1.460000000000000000e+02 4.875201416015625000e+01 -2.874901962280273438e+01 2.865391731262207031e+00 3.141927480697631836e+00 1.802195787429809570e+00 -2.841511249542236328e+00
1.470000000000000000e+02 3.701719284057617188e+01 -2.839804458618164062e+01 6.773657631129026413e-03 5.900906562805175781e+00 1.772304058074951172e+00 8.159266710281372070e-01
1.480000000000000000e+02 3.246981430053710938e+01 -2.651362037658691406e+01 1.312695145606994629e+00 2.190818071365356445e+00 1.051054000854492188e+00 1.693241119384765625e+00
1.490000000000000000e+02 3.057964324951171875e+01 -2.960374450683593750e+01 -2.550342679023742676e-01 1.465867400169372559e+00 3.632499277591705322e-01 1.000372648239135742e+00
1.500000000000000000e+02 2.922151947021484375e+01 -2.902542304992675781e+01 -6.713078022003173828e-01 2.223446071147918701e-01 -1.346889585256576538e-01 1.646292656660079956e-01
1.510000000000000000e+02 2.970054435729980469e+01 -2.995503807067871094e+01 -4.478675127029418945e-01 9.189127087593078613e-01 1.413135528564453125e-01 7.903648614883422852e-01
1.520000000000000000e+02 2.514074707031250000e+01 -2.961319923400878906e+01 -1.902023315429687500e+00 -4.340228438377380371e-02 -5.836276412010192871e-01 1.038308441638946533e-01
1.530000000000000000e+02 2.278455543518066406e+01 -3.100837326049804688e+01 -8.268159627914428711e-01 -4.238130897283554077e-02 -2.607591748237609863e-01 -6.839865446090698242e-02
1.540000000000000000e+02 2.171005821228027344e+01 -2.839656829833984375e+01 -8.914920091629028320e-01 -2.096828669309616089e-01 -3.303524553775787354e-01 3.789881467819213867e-01
1.550000000000000000e+02 1.758810997009277344e+01 -2.565838050842285156e+01 -8.825895190238952637e-02 5.706169009208679199e-01 1.447073817253112793e-01 -2.117050290107727051e-01
1.560000000000000000e+02 1.548657512664794922e+01 -2.210230445861816406e+01 5.889993309974670410e-01 1.657218575477600098e+00 6.738653779029846191e-01 -1.016925454139709473e+00
1.570000000000000000e+02 1.459047031402587891e+01 -2.062814521789550781e+01 5.925739407539367676e-01 4.394096851348876953e+00 1.496001243591308594e+00 -6.129807829856872559e-01
1.580000000000000000e+02 1.985630869865417480e+00 -4.088661956787109375e+01 -4.778807982802391052e-03 5.481584668159484863e-01 1.630138903856277466e-01 1.191210653632879257e-02
1.590000000000000000e+02 3.605556190013885498e-01 -3.643063735961914062e+01 -5.627852864563465118e-03 4.870475828647613525e-01 1.444259285926818848e-01 1.610241271555423737e-02
1.600000000000000000e+02 4.195840358734130859e-01 -3.006040763854980469e+01 -3.904225537553429604e-03 -4.746742919087409973e-02 -1.541149709373712540e-02 5.360326543450355530e-02
1.610000000000000000e+02 3.756019771099090576e-01 -2.279970932006835938e+01 1.620934694074094296e-03 -1.281229257583618164e+00 -3.838824927806854248e-01 7.022094726562500000e-02
1.620000000000000000e+02 3.650957643985748291e-01 -1.636687088012695312e+01 5.915405228734016418e-03 -2.081315279006958008e+00 -6.226199269294738770e-01 1.236796379089355469e-02
1.630000000000000000e+02 1.082646489143371582e+00 -1.072441482543945312e+01 1.752421259880065918e-02 -1.407624721527099609e+00 -4.170301556587219238e-01 -1.704162061214447021e-01
1.640000000000000000e+02 1.202923893928527832e+00 -2.683736419677734375e+01 -7.510269526392221451e-03 -4.160847663879394531e-01 -1.270785033702850342e-01 1.964670121669769287e-01
1.650000000000000000e+02 1.242336750030517578e+00 -3.488471221923828125e+01 -8.602568879723548889e-03 3.957226276397705078e-01 1.161360219120979309e-01 7.249724119901657104e-02
1.660000000000000000e+02 6.027700424194335938e+00 -3.983575820922851562e+01 -9.788893163204193115e-02 5.325531363487243652e-01 1.303992569446563721e-01 6.389315426349639893e-02
1.670000000000000000e+02 9.040585517883300781e+00 -3.668998718261718750e+01 -2.197600156068801880e-01 6.105356812477111816e-01 1.172327026724815369e-01 1.205779761075973511e-01
1.680000000000000000e+02 6.642532825469970703e+00 -3.067543601989746094e+01 -2.217632234096527100e-01 5.568264722824096680e-01 1.005189716815948486e-01 4.102564156055450439e-01
1.690000000000000000e+02 1.347964572906494141e+01 -2.166539955139160156e+01 3.679412901401519775e-01 2.655794620513916016e+00 9.071208238601684570e-01 1.757908314466476440e-01
1.700000000000000000e+02 1.378708934783935547e+01 -1.813093757629394531e+01 2.948399782180786133e-01 4.144460678100585938e+00 1.331790208816528320e+00 4.294784367084503174e-01
1.710000000000000000e+02 1.706105041503906250e+01 -3.805881500244140625e+01 -1.784553080797195435e-01 5.067602396011352539e-01 9.849146753549575806e-02 -1.053162217140197754e-01
1.720000000000000000e+02 1.754224395751953125e+01 -4.100668334960937500e+01 -9.822010993957519531e-02 4.914980232715606689e-01 1.179833710193634033e-01 -3.179833292961120605e-02
1.730000000000000000e+02 2.055820846557617188e+01 -3.051891517639160156e+01 -7.727106213569641113e-01 2.944219410419464111e-01 -1.434865891933441162e-01 -1.805800497531890869e-01
1.740000000000000000e+02 1.872375106811523438e+01 -2.569345855712890625e+01 -2.026398479938507080e-02 1.898608952760696411e-01 5.087907612323760986e-02 -9.959347546100616455e-02
1.750000000000000000e+02 2.544857025146484375e+01 -3.851675033569335938e+01 -8.945954591035842896e-02 8.843336105346679688e-01 2.384622097015380859e-01 2.053924500942230225e-01
1.760000000000000000e+02 2.240970802307128906e+01 -3.827312850952148438e+01 -5.166842043399810791e-02 5.617039203643798828e-01 1.530106365680694580e-01 -8.541365154087543488e-03
1.770000000000000000e+02 2.354659271240234375e+01 -3.006584167480468750e+01 -1.441257834434509277e+00 -1.884274184703826904e-01 -4.889055788516998291e-01 1.681030988693237305e-01
1.780000000000000000e+02 3.065188980102539062e+01 -3.718164062500000000e+01 -5.267419815063476562e-01 2.365136146545410156e+00 5.515182614326477051e-01 6.088462471961975098e-01
1.790000000000000000e+02 4.245765304565429688e+01 -4.112057495117187500e+01 -1.458454251289367676e+00 4.881325244903564453e+00 1.026861310005187988e+00 -9.099654108285903931e-02
1.800000000000000000e+02 4.720722198486328125e+01 -4.120824432373046875e+01 -8.823918700218200684e-01 3.880216598510742188e+00 8.993474245071411133e-01 -2.282762825489044189e-01
1.810000000000000000e+02 6.078256225585937500e+01 -3.723991775512695312e+01 6.003208160400390625e-01 1.441490888595581055e+00 6.125435233116149902e-01 1.894818991422653198e-01
1.820000000000000000e+02 6.256873321533203125e+01 -4.109975051879882812e+01 8.180251717567443848e-01 2.229772329330444336e+00 9.143392443656921387e-01 9.936733543872833252e-02
1.830000000000000000e+02 6.995763397216796875e+01 -4.010704421997070312e+01 1.414591073989868164e-01 6.113213062286376953e+00 1.876401662826538086e+00 7.368913292884826660e-02
1.840000000000000000e+02 7.844320678710937500e+01 -3.782434082031250000e+01 -4.235154017806053162e-02 1.047983074188232422e+01 3.131243705749511719e+00 -2.860637381672859192e-02
1.850000000000000000e+02 7.958044433593750000e+01 -3.398432922363281250e+01 -1.676183566451072693e-02 1.090118026733398438e+01 3.265325546264648438e+00 -4.796305298805236816e-02
1.860000000000000000e+02 7.879316711425781250e+01 -3.057950782775878906e+01 -3.565203770995140076e-02 1.008931159973144531e+01 3.016098022460937500e+00 -2.786226272583007812e-01
1.870000000000000000e+02 7.962201690673828125e+01 -2.676686286926269531e+01 -8.506605401635169983e-03 9.147749900817871094e+00 2.741772890090942383e+00 -1.845998466014862061e-01
1.880000000000000000e+02 6.824740600585937500e+01 -2.266307640075683594e+01 1.638367652893066406e+00 1.122592639923095703e+01 3.859288215637207031e+00 2.753238677978515625e+00
1.890000000000000000e+02 7.888546752929687500e+01 -2.336104583740234375e+01 3.015631996095180511e-02 7.843700885772705078e+00 2.362157106399536133e+00 -4.999354779720306396e-01
1.900000000000000000e+02 7.963480377197265625e+01 -2.034917259216308594e+01 1.155206933617591858e-02 6.389047145843505859e+00 1.920179843902587891e+00 -1.000020503997802734e-01
1.910000000000000000e+02 7.893333435058593750e+01 -1.617055511474609375e+01 6.080912426114082336e-02 6.874077796936035156e+00 2.080466032028198242e+00 2.351833432912826538e-01
1.920000000000000000e+02 7.892113494873046875e+01 -8.981353759765625000e+00 -4.862286895513534546e-02 8.709462165832519531e+00 2.598251819610595703e+00 2.165810167789459229e-01
1.930000000000000000e+02 7.891656494140625000e+01 -2.577313899993896484e+00 -2.390371635556221008e-02 8.604262351989746094e+00 2.574107646942138672e+00 -1.872534751892089844e-01
1.940000000000000000e+02 7.891689300537109375e+01 4.639649868011474609e+00 6.629229523241519928e-03 7.079867362976074219e+00 2.125948905944824219e+00 -2.698283493518829346e-01
1.950000000000000000e+02 7.890808105468750000e+01 1.185855579376220703e+01 1.762873493134975433e-02 5.833427429199218750e+00 1.755316853523254395e+00 -1.191321611404418945e-01
1.960000000000000000e+02 7.887445831298828125e+01 1.909649467468261719e+01 1.688199676573276520e-02 5.793429851531982422e+00 1.743093609809875488e+00 1.045762151479721069e-01
1.970000000000000000e+02 7.878223419189453125e+01 2.635373497009277344e+01 -7.090556435286998749e-03 6.582005023956298828e+00 1.972474336624145508e+00 1.522201001644134521e-01
1.980000000000000000e+02 7.878993988037109375e+01 3.280347061157226562e+01 -4.628491587936878204e-03 7.078579902648925781e+00 2.122185468673706055e+00 6.313621997833251953e-02
1.990000000000000000e+02 7.909564971923828125e+01 3.869744491577148438e+01 1.650256221182644367e-03 7.275588989257812500e+00 2.183171749114990234e+00 1.424752268940210342e-02
2.000000000000000000e+02 7.959954833984375000e+01 3.659933853149414062e+01 -8.096426026895642281e-04 7.304516792297363281e+00 2.191112041473388672e+00 6.746803876012563705e-03
2.010000000000000000e+02 7.454010009765625000e+01 3.659118652343750000e+01 -7.321941107511520386e-02 6.657469749450683594e+00 1.975275158882141113e+00 7.953181117773056030e-02
2.020000000000000000e+02 7.159726715087890625e+01 3.162856483459472656e+01 -2.285354286432266235e-01 6.435943126678466797e+00 1.862222313880920410e+00 1.029857844114303589e-01
2.030000000000000000e+02 7.389160156250000000e+01 2.251134490966796875e+01 6.176870688796043396e-02 6.626224517822265625e+00 2.006397962570190430e+00 4.486942589282989502e-01
2.040000000000000000e+02 7.403494262695312500e+01 1.612477493286132812e+01 3.962220251560211182e-01 6.559295654296875000e+00 2.086655378341674805e+00 9.634427726268768311e-03
2.050000000000000000e+02 7.393992614746093750e+01 1.123185539245605469e+01 3.719564974308013916e-01 6.699975967407226562e+00 2.121579647064208984e+00 -5.087336897850036621e-01
2.060000000000000000e+02 7.413458251953125000e+01 1.584729075431823730e+00 -5.656408518552780151e-02 7.290638446807861328e+00 2.170222282409667969e+00 -9.808732867240905762e-01
2.070000000000000000e+02 6.050038528442382812e+01 -1.418598651885986328e+00 8.099423646926879883e-01 3.176409244537353516e+00 1.195905447006225586e+00 8.530574440956115723e-01
2.080000000000000000e+02 6.374588775634765625e+01 -1.231038284301757812e+01 -7.140693664550781250e+00 -9.435924291610717773e-01 -2.425285816192626953e+00 -1.345976233482360840e+00
2.090000000000000000e+02 6.234876251220703125e+01 4.083078002929687500e+01 1.981839835643768311e-01 4.581799030303955078e+00 1.433995008468627930e+00 -8.125124871730804443e-02
2.100000000000000000e+02 6.009700775146484375e+01 2.193089294433593750e+01 -8.792749047279357910e-02 3.835825443267822266e+00 1.124369382858276367e+00 -2.364004373550415039e+00
2.110000000000000000e+02 6.023625183105468750e+01 2.072717094421386719e+01 2.393875837326049805e+00 3.880328893661499023e+00 1.882261395454406738e+00 -2.917701482772827148e+00
2.120000000000000000e+02 6.129546356201171875e+01 1.952326202392578125e+01 2.727670192718505859e+00 8.541075706481933594e+00 3.380623817443847656e+00 -4.375407218933105469e+00
2.130000000000000000e+02 6.243640518188476562e+01 1.846903800964355469e+01 2.112354516983032227e+00 1.150195598602294922e+01 4.084293365478515625e+00 -2.342485904693603516e+00
2.140000000000000000e+02 6.337845611572265625e+01 1.819014549255371094e+01 1.766909003257751465e+00 9.784317016601562500e+00 3.465367794036865234e+00 -1.088643431663513184e+00
2.150000000000000000e+02 6.202934646606445312e+01 1.217488670349121094e+01 1.857238411903381348e-01 1.132868099212646484e+01 3.454321384429931641e+00 9.769492149353027344e-01
2.160000000000000000e+02 6.194245529174804688e+01 1.138461589813232422e+01 1.136718243360519409e-01 1.070367622375488281e+01 3.245204448699951172e+00 1.079441308975219727e+00
2.170000000000000000e+02 6.132630920410156250e+01 8.249258995056152344e+00 8.568972945213317871e-01 8.965971946716308594e+00 2.946860790252685547e+00 2.381212711334228516e+00
2.180000000000000000e+02 6.050985717773437500e+01 5.989419937133789062e+00 1.553983092308044434e+00 7.257678985595703125e+00 2.643498659133911133e+00 2.882939338684082031e+00
2.190000000000000000e+02 6.156927108764648438e+01 5.300187110900878906e+00 1.015230059623718262e+00 6.483291625976562500e+00 2.249556541442871094e+00 1.584331393241882324e+00
2.200000000000000000e+02 5.922760391235351562e+01 3.940969705581665039e+00 1.487537026405334473e+00 3.573281049728393555e+00 1.518245458602905273e+00 2.254713773727416992e+00
2.210000000000000000e+02 5.651359176635742188e+01 4.793211445212364197e-02 1.378562927246093750e+00 2.734314680099487305e+00 1.233863234519958496e+00 1.845534205436706543e+00
2.220000000000000000e+02 5.604278564453125000e+01 -5.974138975143432617e-01 1.607601523399353027e+00 2.574170589447021484e+00 1.254531621932983398e+00 1.949596524238586426e+00
2.230000000000000000e+02 5.379861068725585938e+01 -3.962649345397949219e+00 1.379116177558898926e+00 1.742367625236511230e+00 9.364451169967651367e-01 1.594226717948913574e+00
2.240000000000000000e+02 5.335682678222656250e+01 -3.497206211090087891e+00 1.599523663520812988e+00 1.857139468193054199e+00 1.036998987197875977e+00 1.736986041069030762e+00
2.250000000000000000e+02 5.271840667724609375e+01 -5.029492378234863281e+00 4.904823601245880127e-01 1.700946569442749023e+00 6.574286818504333496e-01 1.226038932800292969e+00
2.260000000000000000e+02 4.888406753540039062e+01 -5.100340843200683594e+00 -3.960332155227661133e+00 -2.038175910711288452e-01 -1.249244928359985352e+00 8.352852463722229004e-01
2.270000000000000000e+02 4.431618118286132812e+01 -3.806967258453369141e+00 -3.097852706909179688e+00 2.639083564281463623e-02 -9.214385747909545898e-01 5.191954970359802246e-01
2.280000000000000000e+02 4.636788177490234375e+01 -5.154128074645996094e+00 -3.210239410400390625e+00 1.309052295982837677e-02 -9.591447114944458008e-01 7.283113002777099609e-01
2.290000000000000000e+02 4.206877136230468750e+01 -2.860568046569824219e+00 1.794712543487548828e+00 3.301482200622558594e+00 1.528858423233032227e+00 -2.590916156768798828e+00
2.300000000000000000e+02 3.984240341186523438e+01 -1.267954111099243164e+00 2.421048164367675781e+00 1.163386154174804688e+01 4.216473102569580078e+00 -3.636707782745361328e+00
2.310000000000000000e+02 2.959636878967285156e+01 -1.589553117752075195e+00 3.069810152053833008e+00 1.521413683891296387e+00 1.377367138862609863e+00 1.733575701713562012e+00
2.320000000000000000e+02 2.697271919250488281e+01 -1.226025819778442383e+00 2.185857295989990234e+00 -1.000993028283119202e-01 6.257273554801940918e-01 9.890556931495666504e-01
2.330000000000000000e+02 2.847156906127929688e+01 8.391516655683517456e-02 3.427475929260253906e+00 1.651260554790496826e-01 1.077780604362487793e+00 4.276337102055549622e-02
2.340000000000000000e+02 2.676870918273925781e+01 6.935457587242126465e-01 1.448571205139160156e+00 7.443273812532424927e-02 4.569011926651000977e-01 -2.038058489561080933e-01
2.350000000000000000e+02 2.594110107421875000e+01 2.326918393373489380e-01 1.406409025192260742e+00 -1.962806433439254761e-01 3.630385100841522217e-01 1.708639413118362427e-01
2.360000000000000000e+02 2.132431030273437500e+01 -1.750609636306762695e+00 1.887857168912887573e-02 2.074344307184219360e-01 6.789389997720718384e-02 7.956585288047790527e-01
2.370000000000000000e+02 2.353040313720703125e+01 -4.986320137977600098e-01 6.430351138114929199e-01 -1.523287966847419739e-02 1.883406639099121094e-01 5.032927989959716797e-01
2.380000000000000000e+02 2.932945060729980469e+01 -1.326810568571090698e-02 4.325652599334716797e+00 2.586803957819938660e-02 1.305456280708312988e+00 1.669736802577972412e-01
2.390000000000000000e+02 2.932695770263671875e+01 -8.794558048248291016e-01 4.151576042175292969e+00 8.177406787872314453e-01 1.490795016288757324e+00 1.462702035903930664e+00
2.400000000000000000e+02 5.753832244873046875e+01 4.103195571899414062e+01 4.134989380836486816e-01 3.672314167022705078e+00 1.225743889808654785e+00 -4.634933546185493469e-02
2.410000000000000000e+02 6.150562286376953125e+01 3.756565093994140625e+01 1.956668198108673096e-01 4.414953231811523438e+00 1.383186101913452148e+00 -2.520927488803863525e-01
2.420000000000000000e+02 5.488996887207031250e+01 2.878304290771484375e+01 5.523035526275634766e-01 1.970822811126708984e+00 7.569378614425659180e-01 -2.445335984230041504e-01
2.430000000000000000e+02 5.626619338989257812e+01 2.132131004333496094e+01 -2.387774467468261719e+00 4.304234683513641357e-02 -7.034196257591247559e-01 -4.354299306869506836e-01
2.440000000000000000e+02 5.389947891235351562e+01 2.083824729919433594e+01 -2.208981990814208984e+00 -1.222129613161087036e-01 -6.993584632873535156e-01 -4.714739024639129639e-01
2.450000000000000000e+02 5.872616195678710938e+01 2.152171325683593750e+01 -8.777657151222229004e-01 6.497344374656677246e-01 -6.840938329696655273e-02 -9.056699872016906738e-01
2.460000000000000000e+02 5.955567550659179688e+01 2.124489974975585938e+01 7.906706333160400391e-01 1.840294837951660156e+00 7.892895936965942383e-01 -1.726566314697265625e+00
2.470000000000000000e+02 5.277457809448242188e+01 4.090998077392578125e+01 4.367708563804626465e-01 3.159300804138183594e+00 1.078821539878845215e+00 2.801745384931564331e-02
2.480000000000000000e+02 4.820677947998046875e+01 4.090039062500000000e+01 2.318991869688034058e-01 3.078186750411987305e+00 9.930257797241210938e-01 1.030089259147644043e-01
2.490000000000000000e+02 4.962089920043945312e+01 2.991619300842285156e+01 3.542702794075012207e-01 2.320702075958251953e+00 8.024917244911193848e-01 8.107002377510070801e-01
2.500000000000000000e+02 5.037220001220703125e+01 2.086863517761230469e+01 -6.667097210884094238e-01 5.664360523223876953e-01 -3.008209913969039917e-02 5.075585246086120605e-01
2.510000000000000000e+02 5.001692962646484375e+01 1.956390953063964844e+01 -5.040642023086547852e-01 1.863963901996612549e-01 -9.530034661293029785e-02 5.180163308978080750e-02
2.520000000000000000e+02 5.155292129516601562e+01 2.018851852416992188e+01 -1.388470768928527832e+00 2.385669853538274765e-03 -4.158255457878112793e-01 -1.972557902336120605e-01
2.530000000000000000e+02 5.076351928710937500e+01 1.993003273010253906e+01 -9.767813086509704590e-01 5.860287323594093323e-02 -2.754535377025604248e-01 -8.686585724353790283e-02
2.540000000000000000e+02 4.519953536987304688e+01 3.947288131713867188e+01 2.978521771728992462e-02 3.164525032043457031e+00 9.582930803298950195e-01 2.228604704141616821e-01
2.550000000000000000e+02 4.173794555664062500e+01 4.062268447875976562e+01 -2.159377783536911011e-01 3.309000730514526367e+00 9.279189109802246094e-01 1.183198913931846619e-01
2.560000000000000000e+02 4.757690429687500000e+01 3.045247459411621094e+01 1.779543161392211914e-01 2.687740564346313477e+00 8.597084879875183105e-01 9.461960196495056152e-01
2.570000000000000000e+02 4.628254318237304688e+01 2.266612625122070312e+01 -8.751645684242248535e-02 2.517401456832885742e+00 7.289654612541198730e-01 1.478381633758544922e+00
2.580000000000000000e+02 4.435984420776367188e+01 1.504983806610107422e+01 1.925862193107604980e+00 2.167604684829711914e+00 1.228040099143981934e+00 2.011306047439575195e+00
2.590000000000000000e+02 4.038068771362304688e+01 1.004368877410888672e+01 2.657694816589355469e+00 1.114343929290771484e+01 4.140340328216552734e+00 5.070875167846679688e+00
2.600000000000000000e+02 4.167168807983398438e+01 1.208748817443847656e+01 2.805696964263916016e+00 6.189731597900390625e+00 2.698628425598144531e+00 3.928097963333129883e+00
2.610000000000000000e+02 3.718019485473632812e+01 4.084539413452148438e+01 -4.766962528228759766e-01 3.375546455383300781e+00 8.696550726890563965e-01 5.307015404105186462e-02
2.620000000000000000e+02 4.054695129394531250e+01 3.699747085571289062e+01 -3.542532920837402344e-01 3.453846931457519531e+00 9.298781156539916992e-01 3.711143434047698975e-01
2.630000000000000000e+02 3.818444824218750000e+01 2.902513694763183594e+01 -6.209627389907836914e-01 4.305660724639892578e+00 1.105409383773803711e+00 6.527464985847473145e-01
2.640000000000000000e+02 3.210015487670898438e+01 2.392242050170898438e+01 -2.543940246105194092e-01 5.260192871093750000e+00 1.501739621162414551e+00 -8.253331780433654785e-01
2.650000000000000000e+02 3.397409820556640625e+01 1.523103618621826172e+01 8.721656203269958496e-01 9.627651214599609375e+00 3.149945020675659180e+00 -1.787314534187316895e+00
2.660000000000000000e+02 3.285337448120117188e+01 1.084396362304687500e+01 5.574041008949279785e-01 1.205394458770751953e+01 3.783404588699340820e+00 -2.417314291000366211e+00
2.670000000000000000e+02 3.945826721191406250e+01 6.955070495605468750e+00 5.844987630844116211e-01 1.803779411315917969e+01 5.586688041687011719e+00 1.711906909942626953e+00
2.680000000000000000e+02 4.013537597656250000e+01 -2.103019356727600098e-01 2.012239456176757812e+00 1.421463871002197266e+01 4.868063449859619141e+00 -4.798934459686279297e+00
2.690000000000000000e+02 3.968582916259765625e+01 1.352509021759033203e+00 1.222037553787231445e+00 1.606684303283691406e+01 5.186664104461669922e+00 -3.457548141479492188e+00
2.700000000000000000e+02 3.238890838623046875e+01 4.097159194946289062e+01 -5.108994841575622559e-01 3.057550907135009766e+00 7.639954686164855957e-01 -3.828749060630798340e-02
2.710000000000000000e+02 2.747109222412109375e+01 4.102987670898437500e+01 -3.318332135677337646e-01 2.385050773620605469e+00 6.159652471542358398e-01 -7.003076374530792236e-02
2.720000000000000000e+02 2.729032325744628906e+01 2.119742965698242188e+01 1.747855782508850098e+00 5.860052108764648438e-01 7.001582980155944824e-01 -1.012051939964294434e+00
2.730000000000000000e+02 2.748305130004882812e+01 2.190226173400878906e+01 1.482708811759948730e+00 1.532566547393798828e+00 9.045826196670532227e-01 -1.689193248748779297e+00
2.740000000000000000e+02 2.877474975585937500e+01 2.065334701538085938e+01 3.575907707214355469e+00 3.382324457168579102e+00 2.087469577789306641e+00 -3.054177284240722656e+00
2.750000000000000000e+02 2.939208412170410156e+01 2.021692848205566406e+01 3.340746641159057617e+00 5.508065700531005859e+00 2.654643774032592773e+00 -3.588727951049804688e+00
2.760000000000000000e+02 3.018299102783203125e+01 1.914833259582519531e+01 2.445359230041503906e+00 7.054626941680908203e+00 2.849995851516723633e+00 -3.757668018341064453e+00
2.770000000000000000e+02 3.107711410522460938e+01 1.697886085510253906e+01 1.504248380661010742e+00 9.604440689086914062e+00 3.332606554031372070e+00 -3.506249904632568359e+00
2.780000000000000000e+02 3.185334587097167969e+01 1.471312046051025391e+01 1.098819851875305176e+00 1.023754405975341797e+01 3.400908946990966797e+00 -3.217577695846557617e+00
2.790000000000000000e+02 3.877135086059570312e+01 3.695136308670043945e+00 8.426982164382934570e-01 1.564752864837646484e+01 4.947068214416503906e+00 -6.911492347717285156e-01
2.800000000000000000e+02 3.370449829101562500e+01 2.109737634658813477e+00 3.965656042098999023e+00 1.489179229736328125e+01 5.657234668731689453e+00 4.033954620361328125e+00
2.810000000000000000e+02 3.246186828613281250e+01 1.220073223114013672e+00 5.553251266479492188e+00 8.161100387573242188e+00 4.114305496215820312e+00 6.121262073516845703e+00
2.820000000000000000e+02 3.078487777709960938e+01 -2.841653823852539062e-01 6.179738521575927734e+00 2.571639537811279297e+00 2.625413417816162109e+00 2.285981416702270508e+00
2.830000000000000000e+02 2.255277252197265625e+01 4.114560699462890625e+01 -9.018488228321075439e-02 1.596501827239990234e+00 4.518950879573822021e-01 -6.904892623424530029e-02
2.840000000000000000e+02 2.724249458312988281e+01 3.504914093017578125e+01 -3.007478117942810059e-01 2.403471708297729492e+00 6.308171749114990234e-01 -4.447715282440185547e-01
2.850000000000000000e+02 2.197416687011718750e+01 2.988048744201660156e+01 1.811222285032272339e-01 9.204814434051513672e-01 3.304810822010040283e-01 -5.147957205772399902e-01
2.860000000000000000e+02 2.015702819824218750e+01 2.216314125061035156e+01 -8.938149213790893555e-01 -1.931675523519515991e-02 -2.739394903182983398e-01 -1.425064504146575928e-01
2.870000000000000000e+02 2.260350799560546875e+01 2.228772163391113281e+01 -7.328619956970214844e-01 -9.945558849722146988e-04 -2.201569527387619019e-01 -8.159265853464603424e-03
2.880000000000000000e+02 2.278802680969238281e+01 2.305056762695312500e+01 -3.156096041202545166e-01 7.942984998226165771e-02 -7.085392624139785767e-02 -2.524836361408233643e-01
2.890000000000000000e+02 1.778748321533203125e+01 4.121310424804687500e+01 9.310521185398101807e-02 8.576094508171081543e-01 2.852143943309783936e-01 -2.625597640872001648e-02
2.900000000000000000e+02 1.833153533935546875e+01 3.627248382568359375e+01 1.068500205874443054e-01 8.411414623260498047e-01 2.843974232673645020e-01 -1.193230599164962769e-01
2.910000000000000000e+02 1.940889167785644531e+01 2.721658134460449219e+01 1.189557164907455444e-01 2.871772944927215576e-01 1.218399032950401306e-01 -1.900676637887954712e-01
2.920000000000000000e+02 1.776236915588378906e+01 2.173063087463378906e+01 -7.516314387321472168e-01 -5.702062696218490601e-02 -2.425956130027770996e-01 -1.766599565744400024e-01
2.930000000000000000e+02 1.597720527648925781e+01 2.080217933654785156e+01 -4.486350417137145996e-01 -1.619894355535507202e-01 -1.831873506307601929e-01 -2.095399349927902222e-01
2.940000000000000000e+02 1.546566390991210938e+01 2.026844978332519531e+01 -2.316111624240875244e-01 -1.483354568481445312e-01 -1.139839813113212585e-01 -1.861466765403747559e-01
2.950000000000000000e+02 1.187764739990234375e+01 3.732831573486328125e+01 1.217422783374786377e-01 2.534073591232299805e-01 1.125448867678642273e-01 5.026272311806678772e-02
2.960000000000000000e+02 1.021643161773681641e+01 3.994410324096679688e+01 9.568147361278533936e-02 1.385147124528884888e-01 7.025885581970214844e-02 2.831960842013359070e-02
2.970000000000000000e+02 6.323143959045410156e+00 3.139153480529785156e+01 2.958890609443187714e-02 -7.754047214984893799e-02 -1.438546832650899887e-02 1.315649151802062988e-01
2.980000000000000000e+02 1.222418022155761719e+01 2.237626457214355469e+01 -2.105570882558822632e-01 8.189970254898071289e-02 -3.859721869230270386e-02 6.299411505460739136e-02
2.990000000000000000e+02 1.385053348541259766e+01 1.682299423217773438e+01 -5.999039392918348312e-03 -9.820915292948484421e-04 -2.094339346513152122e-03 -8.215327747166156769e-03
3.000000000000000000e+02 1.452902793884277344e+01 1.077395439147949219e+01 -7.665973971597850323e-04 5.130851641297340393e-03 1.309276209212839603e-03 1.155467238277196884e-03
3.010000000000000000e+02 1.114568710327148438e+00 5.801939964294433594e+00 1.683732116362079978e-04 1.789193600416183472e-03 5.872700130566954613e-04 -8.103988948278129101e-04
3.020000000000000000e+02 1.036339378356933594e+01 1.848110079765319824e+00 1.291276537813246250e-03 -8.678030280862003565e-05 3.613488806877285242e-04 3.140990738756954670e-04
3.030000000000000000e+02 1.111284065246582031e+01 1.848239302635192871e+00 1.119454973377287388e-03 -1.667811156949028373e-04 2.858021762222051620e-04 4.536531050689518452e-04
3.040000000000000000e+02 1.187166118621826172e+01 2.522409915924072266e+00 8.506551967002451420e-04 -1.776804419932886958e-04 2.018924278672784567e-04 6.513168918900191784e-04
3.050000000000000000e+02 1.767263031005859375e+01 7.761108398437500000e+00 -2.014358033193275332e-04 6.602545036002993584e-04 1.376456057187169790e-04 -3.842380247078835964e-04
3.060000000000000000e+02 2.069528961181640625e+01 3.723698616027832031e+00 -3.092586848651990294e-05 -9.111905092140659690e-05 -3.661347727756947279e-05 -8.617906860308721662e-05
3.070000000000000000e+02 2.295262336730957031e+01 3.143715381622314453e+00 1.527254971733782440e-05 4.982026439392939210e-05 1.952784441527910531e-05 1.439158586435951293e-05
3.080000000000000000e+02 1.436043858528137207e+00 3.735119628906250000e+01 4.576454812195152044e-04 -4.252161085605621338e-01 -1.274275481700897217e-01 2.972281165421009064e-02
3.090000000000000000e+02 9.695575237274169922e-01 3.944531250000000000e+01 6.833819672465324402e-03 -4.989627003669738770e-01 -1.476386636495590210e-01 4.078246187418699265e-03
3.100000000000000000e+02 2.488471031188964844e+00 3.641856765747070312e+01 7.502904161810874939e-03 -3.254851102828979492e-01 -9.539465606212615967e-02 5.038587749004364014e-02
3.110000000000000000e+02 1.104807615280151367e+00 2.911409187316894531e+01 -7.201260887086391449e-04 -2.318050712347030640e-01 -6.975755840539932251e-02 3.808211535215377808e-02
3.120000000000000000e+02 3.554973602294921875e-01 2.035595703125000000e+01 -9.227295522578060627e-04 -1.585740409791469574e-02 -5.034040194004774094e-03 4.569037351757287979e-03
3.130000000000000000e+02 1.058956980705261230e+00 1.546396732330322266e+01 -4.670493362937122583e-04 7.156264036893844604e-03 2.006764290854334831e-03 8.399245562031865120e-04
3.140000000000000000e+02 1.101812958717346191e+00 8.207178115844726562e+00 1.885300298454239964e-05 3.556885290890932083e-03 1.072721439413726330e-03 -1.172373536974191666e-03
3.150000000000000000e+02 1.094025611877441406e+00 9.016401290893554688e+00 1.805634528864175081e-04 4.287457093596458435e-03 1.340406248345971107e-03 -1.308256294578313828e-03
3.160000000000000000e+02 1.695162773132324219e+01 2.039110898971557617e+00 8.916148362914100289e-05 2.193217551393900067e-05 3.332809865241870284e-05 1.923579402500763535e-04
3.170000000000000000e+02 1.683650016784667969e+01 3.328210830688476562e+00 2.900605977629311383e-06 1.633140054764226079e-04 4.986438216292299330e-05 2.807060955092310905e-04
3.180000000000000000e+02 1.608325386047363281e+01 1.069149684906005859e+01 1.267342246137559414e-03 4.277428146451711655e-03 1.663431175984442234e-03 -1.605759491212666035e-03
3.190000000000000000e+02 1.532625579833984375e+01 1.216061210632324219e+01 1.378229935653507710e-03 1.067441329360008240e-02 3.615793073549866676e-03 -2.270705997943878174e-03
3.200000000000000000e+02 1.565707492828369141e+01 1.140135955810546875e+01 7.426822558045387268e-04 7.281249389052391052e-03 2.407179446890950203e-03 -2.612699288874864578e-03
3.210000000000000000e+02 1.486572551727294922e+01 1.374335098266601562e+01 1.153498422354459763e-03 1.770448870956897736e-02 5.657395813614130020e-03 -2.462129341438412666e-03
3.220000000000000000e+02 1.455385017395019531e+01 1.777594184875488281e+01 -2.673854120075702667e-03 4.684731829911470413e-03 6.032633245922625065e-04 -7.952964864671230316e-03
3.230000000000000000e+02 1.451314735412597656e+01 1.855964660644531250e+01 -2.747331932187080383e-02 -4.238042235374450684e-02 -2.095612324774265289e-02 -3.868541866540908813e-02
3.240000000000000000e+02 1.859316635131835938e+01 2.277145957946777344e+01 -5.898559093475341797e-01 -4.046507552266120911e-02 -1.890962868928909302e-01 -7.741571217775344849e-02
3.250000000000000000e+02 1.855148506164550781e+01 2.188703918457031250e+01 -8.193171024322509766e-01 -4.723085090517997742e-02 -2.599643766880035400e-01 -1.666782647371292114e-01
3.260000000000000000e+02 2.119882583618164062e+01 -1.078270196914672852e+00 -5.632541701197624207e-02 1.804892569780349731e-01 3.724915534257888794e-02 6.048480272293090820e-01
3.270000000000000000e+02 1.962726402282714844e+01 -1.356656193733215332e+00 -4.575459361076354980e-01 1.815512627363204956e-01 -8.279840648174285889e-02 5.551617741584777832e-01
3.280000000000000000e+02 1.497541427612304688e+01 -2.451171875000000000e+00 -9.821583032608032227e-01 1.832491457462310791e-01 -2.396727502346038818e-01 1.569330841302871704e-01
3.290000000000000000e+02 3.515290451049804688e+01 -1.593381214141845703e+01 6.043282747268676758e-01 1.311145114898681641e+01 4.114734172821044922e+00 -1.964094996452331543e+00
3.300000000000000000e+02 3.534974288940429688e+01 -1.837050437927246094e+01 1.717512309551239014e-01 1.138102531433105469e+01 3.465832948684692383e+00 -7.161657810211181641e-01
3.310000000000000000e+02 3.482551574707031250e+01 -2.321805572509765625e+01 1.442313313484191895e+00 9.136864662170410156e+00 3.173753499984741211e+00 2.870761871337890625e+00
3.320000000000000000e+02 3.448239135742187500e+01 -2.396911430358886719e+01 2.060114622116088867e+00 7.217438697814941406e+00 2.783266067504882812e+00 3.335707187652587891e+00
3.330000000000000000e+02 3.415045166015625000e+01 -2.570736122131347656e+01 1.186092615127563477e+00 4.729863166809082031e+00 1.774786829948425293e+00 2.178925752639770508e+00
3.340000000000000000e+02 6.728185272216796875e+01 -2.407304191589355469e+01 9.996744990348815918e-01 6.650728225708007812e+00 2.295120716094970703e+00 2.701799154281616211e+00
3.350000000000000000e+02 6.564646911621093750e+01 -2.597112846374511719e+01 2.144756615161895752e-01 2.927462339401245117e+00 9.425814151763916016e-01 1.337562203407287598e+00
3.360000000000000000e+02 5.021627044677734375e+01 -2.956736946105957031e+01 1.293615460395812988e+00 1.090066671371459961e+00 7.151046395301818848e-01 -1.257619261741638184e+00
3.370000000000000000e+02 4.656992721557617188e+01 -2.624767684936523438e+01 3.260852098464965820e+00 1.022647380828857422e+01 4.046197891235351562e+00 -4.962904930114746094e+00
3.380000000000000000e+02 4.569824981689453125e+01 -2.389515113830566406e+01 1.385884046554565430e+00 1.477007675170898438e+01 4.846788406372070312e+00 -2.586279869079589844e+00
3.390000000000000000e+02 4.592053604125976562e+01 -2.470269012451171875e+01 1.873162627220153809e+00 1.346833515167236328e+01 4.602449417114257812e+00 -4.082520008087158203e+00
3.400000000000000000e+02 4.621892166137695312e+01 -2.548452186584472656e+01 2.275714635848999023e+00 1.155920982360839844e+01 4.150477409362792969e+00 -4.621928691864013672e+00
3.410000000000000000e+02 4.557976531982421875e+01 -2.306327247619628906e+01 4.660990536212921143e-01 1.337303066253662109e+01 4.151739120483398438e+00 -1.139681935310363770e+00
3.420000000000000000e+02 4.405878829956054688e+01 -2.023799514770507812e+01 1.311444878578186035e+00 1.005004215240478516e+01 3.408446073532104492e+00 2.854797430336475372e-02
3.430000000000000000e+02 3.598604965209960938e+01 -1.755446434020996094e+01 4.279214441776275635e-01 1.129732608795166016e+01 3.517574071884155273e+00 -1.259716868400573730e+00
3.440000000000000000e+02 3.940232467651367188e+01 6.150099277496337891e+00 3.497759103775024414e-01 1.718937683105468750e+01 5.261745452880859375e+00 7.405655980110168457e-01
3.450000000000000000e+02 4.553586959838867188e+01 1.611717987060546875e+01 1.460570573806762695e+00 1.533040404319763184e+00 8.980832695960998535e-01 1.488971114158630371e+00
3.460000000000000000e+02 4.444654846191406250e+01 1.712177658081054688e+01 1.052031755447387695e+00 2.711589813232421875e+00 1.129086494445800781e+00 1.769736051559448242e+00
3.470000000000000000e+02 5.504996490478515625e+01 -3.555614089965820312e+01 2.756793797016143799e-01 6.237813830375671387e-01 2.698382139205932617e-01 -7.972164154052734375e-01
3.480000000000000000e+02 5.754103851318359375e+01 -3.008029174804687500e+01 -3.045984983444213867e+00 -2.629910707473754883e-01 -9.926928281784057617e-01 -7.140373587608337402e-01
3.490000000000000000e+02 5.085642242431640625e+01 -6.439539432525634766e+00 -1.057286381721496582e+00 6.249595880508422852e-01 -1.296980530023574829e-01 1.897444367408752441e+00
3.500000000000000000e+02 5.017873764038085938e+01 -1.407026863098144531e+01 7.463619112968444824e-01 6.332395672798156738e-01 4.138804376125335693e-01 1.214419245719909668e+00
3.510000000000000000e+02 5.640853881835937500e+01 -1.468856048583984375e+01 -2.202853441238403320e+00 -6.601505447179079056e-03 -6.628364920616149902e-01 -1.174276247620582581e-01
3.520000000000000000e+02 5.561720275878906250e+01 -1.477830123901367188e+01 -1.929972290992736816e+00 9.316488169133663177e-03 -5.761967301368713379e-01 -9.178809821605682373e-02
3.530000000000000000e+02 1.355147171020507812e+01 -1.346945190429687500e+01 1.562183260917663574e+00 2.636506795883178711e+00 1.259607076644897461e+00 7.737096548080444336e-01
3.540000000000000000e+02 1.302238082885742188e+01 -1.291889858245849609e+01 1.421375989913940430e+00 2.232212781906127930e+00 1.096076726913452148e+00 5.007073879241943359e-01
3.550000000000000000e+02 1.680878448486328125e+01 -1.288294410705566406e+01 3.437173366546630859e+00 2.827228546142578125e+00 1.879320502281188965e+00 2.813154697418212891e+00
3.560000000000000000e+02 4.091343688964843750e+01 -2.837679147720336914e+00 5.666158795356750488e-01 8.264506340026855469e+00 2.649336814880371094e+00 -3.186980724334716797e+00
3.570000000000000000e+02 4.469222259521484375e+01 -7.364600658416748047e+00 -1.237645983695983887e+00 2.450156450271606445e+00 3.637531101703643799e-01 -6.664114594459533691e-01
3.580000000000000000e+02 4.938863754272460938e+01 -1.478732872009277344e+01 1.339162468910217285e+00 8.210102319717407227e-01 6.480517983436584473e-01 1.291302561759948730e+00
3.590000000000000000e+02 5.013429641723632812e+01 -1.545958328247070312e+01 7.764765024185180664e-01 1.302009373903274536e-01 2.720032334327697754e-01 3.381750583648681641e-01
3.600000000000000000e+02 7.963877105712890625e+01 -5.933215141296386719e+00 -7.295574992895126343e-03 9.142590522766113281e+00 2.740588426589965820e+00 -4.410025663673877716e-03
3.610000000000000000e+02 7.365744781494140625e+01 -1.853284120559692383e+00 -3.156131505966186523e-01 7.554991245269775391e+00 2.171813488006591797e+00 -9.321935176849365234e-01
3.620000000000000000e+02 7.356864166259765625e+01 -7.520126104354858398e-01 -2.340298742055892944e-01 7.427712440490722656e+00 2.158104658126831055e+00 -9.842609763145446777e-01
3.630000000000000000e+02 2.997829246520996094e+01 -7.544357180595397949e-01 4.158862113952636719e+00 1.585709810256958008e+00 1.723371624946594238e+00 1.846619009971618652e+00
3.640000000000000000e+02 1.037064743041992188e+01 -1.849341630935668945e+00 -1.125981330871582031e+00 4.184687137603759766e-02 -3.252403140068054199e-01 -2.772707939147949219e-01
3.650000000000000000e+02 7.963916778564453125e+01 -1.314666557312011719e+01 1.345670199953019619e-03 7.404472351074218750e+00 2.221745491027832031e+00 1.475153118371963501e-01
3.660000000000000000e+02 1.342303657531738281e+01 -2.428685760498046875e+01 -2.494792491197586060e-01 1.812991619110107422e+00 4.690537154674530029e-01 1.795183718204498291e-01
3.670000000000000000e+02 6.081308841705322266e+00 -2.993452835083007812e+01 -1.980615258216857910e-01 5.051294565200805664e-01 9.212037175893783569e-02 4.479294121265411377e-01
3.680000000000000000e+02 1.835826110839843750e+01 -3.199803543090820312e+01 -5.633730292320251465e-01 5.778335332870483398e-01 4.338157363235950470e-03 -1.976244002580642700e-01
3.690000000000000000e+02 3.338916397094726562e+01 -3.756792831420898438e+01 -8.682126998901367188e-01 3.382112264633178711e+00 7.541698813438415527e-01 6.818910241127014160e-01
3.700000000000000000e+02 3.625185012817382812e+01 -3.028284835815429688e+01 -4.228775799274444580e-01 5.214520454406738281e+00 1.437492966651916504e+00 9.875134229660034180e-01
3.710000000000000000e+02 4.160705947875976562e+01 -3.598347854614257812e+01 -1.361192584037780762e+00 5.456454753875732422e+00 1.228578567504882812e+00 -1.336690336465835571e-01
3.720000000000000000e+02 4.450975036621093750e+01 -2.824115180969238281e+01 8.049058318138122559e-01 7.828037738800048828e+00 2.589883089065551758e+00 -1.280851364135742188e+00
3.730000000000000000e+02 5.151930999755859375e+01 -3.631663513183593750e+01 -1.074605733156204224e-01 2.077117443084716797e+00 5.908970236778259277e-01 -1.230072379112243652e+00
3.740000000000000000e+02 6.312845230102539062e+01 -3.840941619873046875e+01 6.117084026336669922e-01 2.454746961593627930e+00 9.199365973472595215e-01 3.512917160987854004e-01
3.750000000000000000e+02 6.096742248535156250e+01 -2.988483238220214844e+01 -1.823386907577514648e+00 1.037324033677577972e-02 -5.439041256904602051e-01 -3.359996080398559570e-01
3.760000000000000000e+02 6.809828186035156250e+01 -2.835525512695312500e+01 -1.018080115318298340e+00 6.428164005279541016e+00 1.623025178909301758e+00 8.326380848884582520e-01
3.770000000000000000e+02 6.759654998779296875e+01 -3.050201988220214844e+01 -9.435104727745056152e-01 5.542057037353515625e+00 1.379564046859741211e+00 8.246413469314575195e-01
3.780000000000000000e+02 2.096023941040039062e+01 -2.916125488281250000e+01 -8.687749505043029785e-01 1.288933157920837402e-01 -2.219644784927368164e-01 8.934419602155685425e-02
3.790000000000000000e+02 7.345702362060546875e+01 1.506734251976013184e+00 -6.316898018121719360e-02 7.224613666534423828e+00 2.148433446884155273e+00 -1.033313155174255371e+00
3.800000000000000000e+02 7.963786315917968750e+01 1.283479690551757812e+00 -1.857139519415795803e-03 7.938684940338134766e+00 2.381048202514648438e+00 -9.795305877923965454e-02
3.810000000000000000e+02 5.968566131591796875e+01 4.599544048309326172e+00 1.611689448356628418e+00 4.287679195404052734e+00 1.769810676574707031e+00 2.564516305923461914e+00
3.820000000000000000e+02 6.198431777954101562e+01 1.781051635742187500e+00 5.480147004127502441e-01 4.925170898437500000e+00 1.641955733299255371e+00 8.215656876564025879e-01
3.830000000000000000e+02 6.620021057128906250e+01 1.205843544006347656e+01 9.407007098197937012e-01 8.446556091308593750e+00 2.816177129745483398e+00 -2.849340438842773438e-01
3.840000000000000000e+02 7.963645935058593750e+01 8.500982284545898438e+00 4.818859975785017014e-03 6.168060302734375000e+00 1.851863741874694824e+00 -7.546332478523254395e-02
3.850000000000000000e+02 6.637267303466796875e+01 1.562431812286376953e+01 1.198693037033081055e+00 8.321631431579589844e+00 2.856097221374511719e+00 -3.780052363872528076e-01
3.860000000000000000e+02 7.962982940673828125e+01 1.571948623657226562e+01 2.227443503215909004e-03 5.432380199432373047e+00 1.630382299423217773e+00 5.083261989057064056e-03
3.870000000000000000e+02 7.961869812011718750e+01 2.213895416259765625e+01 -3.306463477201759815e-04 5.995726108551025391e+00 1.798618674278259277e+00 5.789186805486679077e-02
3.880000000000000000e+02 3.300401687622070312e+01 1.582412147521972656e+01 1.004516482353210449e+00 9.450970649719238281e+00 3.136646032333374023e+00 -2.371803283691406250e+00
3.890000000000000000e+02 3.269301223754882812e+01 1.162481880187988281e+01 5.519099831581115723e-01 1.188728427886962891e+01 3.731758117675781250e+00 -2.505851030349731445e+00
3.900000000000000000e+02 7.203553009033203125e+01 3.016182136535644531e+01 -2.329136580228805542e-01 6.550334930419921875e+00 1.895226478576660156e+00 1.808690279722213745e-01
3.910000000000000000e+02 7.959854888916015625e+01 2.937111282348632812e+01 -4.556104075163602829e-03 6.929144382476806641e+00 2.077376604080200195e+00 4.252254962921142578e-02
3.920000000000000000e+02 6.079147338867187500e+01 2.250859832763671875e+01 -3.912960290908813477e-01 5.179944515228271484e+00 1.436594605445861816e+00 -2.184487581253051758e+00
3.930000000000000000e+02 5.785918807983398438e+01 2.155043792724609375e+01 -2.276799678802490234e+00 -2.012342587113380432e-02 -6.890769600868225098e-01 -5.352516770362854004e-01
3.940000000000000000e+02 3.460388183593750000e+01 2.334521675109863281e+01 -2.850729823112487793e-01 5.803705692291259766e+00 1.655589818954467773e+00 -1.014191359281539917e-01
3.950000000000000000e+02 1.189799499511718750e+01 2.327048492431640625e+01 -1.792834997177124023e-01 8.813062310218811035e-02 -2.734586223959922791e-02 9.524983167648315430e-02
3.960000000000000000e+02 1.225190258026123047e+01 1.717891120910644531e+01 -3.703991696238517761e-02 -5.673088133335113525e-03 -1.281390152871608734e-02 -2.318845689296722412e-02
3.970000000000000000e+02 1.077483177185058594e+00 2.350220298767089844e+01 -1.843181322328746319e-03 -7.480906695127487183e-02 -2.299567498266696930e-02 2.579992823302745819e-02
3.980000000000000000e+02 6.382875061035156250e+01 3.068319129943847656e+01 -2.570397853851318359e-01 5.215602397918701172e+00 1.487568736076354980e+00 -6.240511536598205566e-01
3.990000000000000000e+02 5.744015121459960938e+01 2.866200256347656250e+01 3.830277919769287109e-01 2.685302972793579102e+00 9.204992651939392090e-01 -8.039528727531433105e-01
4.000000000000000000e+02 4.815097427368164062e+01 3.244703674316406250e+01 2.654314339160919189e-01 2.725358486175537109e+00 8.972369432449340820e-01 7.297000288963317871e-01
4.010000000000000000e+02 4.591082000732421875e+01 3.318693542480468750e+01 4.998203366994857788e-02 3.038655996322631836e+00 9.265914559364318848e-01 7.594978809356689453e-01
4.020000000000000000e+02 3.799099349975585938e+01 3.262897109985351562e+01 -5.964375138282775879e-01 3.865798234939575195e+00 9.808081984519958496e-01 4.285328090190887451e-01
4.030000000000000000e+02 2.965187072753906250e+01 2.926010322570800781e+01 -4.266526103019714355e-01 3.307619571685791016e+00 8.642900586128234863e-01 -8.057259321212768555e-01
4.040000000000000000e+02 2.430409431457519531e+01 2.968425559997558594e+01 5.696687102317810059e-02 1.553840637207031250e+00 4.832422733306884766e-01 -7.558931112289428711e-01
4.050000000000000000e+02 1.949256324768066406e+01 2.969676971435546875e+01 1.836881786584854126e-01 5.259034633636474609e-01 2.128774821758270264e-01 -2.639490664005279541e-01
4.060000000000000000e+02 1.112008452415466309e+00 3.070230102539062500e+01 1.459839495510095730e-06 -2.807350754737854004e-01 -8.422008156776428223e-02 3.696369752287864685e-02
4.070000000000000000e+02 1.393948268890380859e+01 1.039805889129638672e+01 -5.561357247643172741e-04 3.469306975603103638e-03 8.739513577893376350e-04 2.274566097185015678e-03
4.080000000000000000e+02 1.059467077255249023e+00 1.626855468750000000e+01 -1.305120997130870819e-03 5.701407790184020996e-03 1.318886061199009418e-03 2.144999569281935692e-03
4.090000000000000000e+02 3.346424865722656250e+01 6.881604194641113281e+00 1.622663289308547974e-01 1.473705005645751953e+01 4.469794750213623047e+00 -8.844073414802551270e-01
4.100000000000000000e+02 3.843553543090820312e+01 1.126379966735839844e+00 1.974214792251586914e+00 1.382373809814453125e+01 4.739386081695556641e+00 -2.127043962478637695e+00
4.110000000000000000e+02 1.096953749656677246e+00 -1.796142005920410156e+01 2.039213851094245911e-02 -1.664491176605224609e+00 -4.932297170162200928e-01 9.055743366479873657e-02
4.120000000000000000e+02 9.605879783630371094e+00 -1.852664113044738770e+00 -1.041659235954284668e+00 3.259421885013580322e-02 -3.027195036411285400e-01 -3.105422258377075195e-01
4.130000000000000000e+02 7.292853832244873047e+00 -1.860318183898925781e+00 -7.357727289199829102e-01 -1.816733391024172306e-03 -2.212768346071243286e-01 -3.541227281093597412e-01
4.140000000000000000e+02 6.522006511688232422e+00 -1.862406969070434570e+00 -6.266556978225708008e-01 -1.295603625476360321e-02 -1.918835341930389404e-01 -3.502549231052398682e-01
4.150000000000000000e+02 4.209167003631591797e+00 -1.868068099021911621e+00 -3.196678757667541504e-01 -5.413344874978065491e-02 -1.121403947472572327e-01 -2.822867929935455322e-01
4.160000000000000000e+02 2.672532558441162109e+00 -1.875138163566589355e+00 -1.552858054637908936e-01 -8.106312900781631470e-02 -7.090467959642410278e-02 -1.893256753683090210e-01
4.170000000000000000e+02 2.637209653854370117e+00 -2.629275560379028320e+00 -1.385834813117980957e-01 -1.403720676898956299e-01 -8.368666470050811768e-02 -2.520230412483215332e-01
4.180000000000000000e+02 1.906453132629394531e+00 -1.880691766738891602e+00 -8.983379602432250977e-02 -8.805332332849502563e-02 -5.336613580584526062e-02 -1.319687664508819580e-01
4.190000000000000000e+02 3.801154494285583496e-01 -1.896783828735351562e+00 -8.062821812927722931e-03 -3.856090083718299866e-02 -1.398711651563644409e-02 -2.299224771559238434e-02
4.200000000000000000e+02 4.684067964553833008e-01 -4.203018188476562500e+01 -1.579994801431894302e-03 6.007869243621826172e-01 1.797620654106140137e-01 1.531185815110802650e-03
4.210000000000000000e+02 6.127088069915771484e-01 -4.114603042602539062e+01 -5.813252646476030350e-03 5.967497229576110840e-01 1.772809475660324097e-01 5.877538584172725677e-03
4.220000000000000000e+02 6.317493319511413574e-01 -4.032424545288085938e+01 6.451057735830545425e-03 5.883540511131286621e-01 1.784415245056152344e-01 8.346021175384521484e-03
4.230000000000000000e+02 5.201917886734008789e-01 -3.873235321044921875e+01 3.348673926666378975e-03 5.676455497741699219e-01 1.712982803583145142e-01 1.239213626831769943e-02
4.240000000000000000e+02 5.919867753982543945e-01 -3.951943969726562500e+01 -8.276660926640033722e-03 5.787382125854492188e-01 1.711384803056716919e-01 5.646998994052410126e-03
4.250000000000000000e+02 3.765673041343688965e-01 -3.719748306274414062e+01 3.408843884244561195e-03 5.221035480499267578e-01 1.576537191867828369e-01 1.483125425875186920e-02
4.260000000000000000e+02 3.853610754013061523e-01 -3.565150070190429688e+01 1.296194968745112419e-03 4.469924569129943848e-01 1.344865858554840088e-01 2.111608348786830902e-02
4.270000000000000000e+02 4.060992896556854248e-01 -3.486040496826171875e+01 -4.358077887445688248e-03 4.016269147396087646e-01 1.191806495189666748e-01 2.422819100320339203e-02
4.280000000000000000e+02 4.140090942382812500e-01 -3.406156539916992188e+01 -6.220574723556637764e-04 3.497383892536163330e-01 1.047348976135253906e-01 2.896986715495586395e-02
4.290000000000000000e+02 4.153907001018524170e-01 -3.326088714599609375e+01 -4.631599877029657364e-03 2.887245714664459229e-01 8.522789180278778076e-02 3.419855609536170959e-02
4.300000000000000000e+02 4.162918627262115479e-01 -3.246174621582031250e+01 -2.001157117774710059e-04 2.180405855178833008e-01 6.535214185714721680e-02 3.870898112654685974e-02
4.310000000000000000e+02 1.256916522979736328e+00 -3.328724670410156250e+01 -9.340235963463783264e-03 2.917658686637878418e-01 8.472768962383270264e-02 9.843162447214126587e-02
4.320000000000000000e+02 4.184721112251281738e-01 -3.166423034667968750e+01 -4.559176042675971985e-03 1.387733221054077148e-01 4.026424512267112732e-02 4.352865740656852722e-02
4.330000000000000000e+02 4.157092571258544922e-01 -2.925253486633300781e+01 -1.096553402021527290e-03 -1.554517000913619995e-01 -4.696447402238845825e-02 5.824002623558044434e-02
4.340000000000000000e+02 4.114563763141632080e-01 -2.844496154785156250e+01 -2.908885246142745018e-03 -2.725701332092285156e-01 -8.264370262622833252e-02 6.226685643196105957e-02
4.350000000000000000e+02 4.059408605098724365e-01 -2.763720893859863281e+01 -1.290892367251217365e-03 -3.991271853446960449e-01 -1.201254278421401978e-01 6.630183011293411255e-02
4.360000000000000000e+02 3.997747600078582764e-01 -2.682970237731933594e+01 -1.596514601260423660e-03 -5.343630313873291016e-01 -1.607878655195236206e-01 6.924854218959808350e-02
4.370000000000000000e+02 3.938021659851074219e-01 -2.602268409729003906e+01 -6.220779614523053169e-04 -6.769667267799377441e-01 -2.032766342163085938e-01 7.143340259790420532e-02
4.380000000000000000e+02 3.881432712078094482e-01 -2.521599197387695312e+01 -6.079854792915284634e-04 -8.250534534454345703e-01 -2.476984411478042603e-01 7.274665683507919312e-02
4.390000000000000000e+02 3.830966353416442871e-01 -2.440968894958496094e+01 3.543830534908920527e-04 -9.768594503402709961e-01 -2.929515242576599121e-01 7.294874638319015503e-02
4.400000000000000000e+02 3.732746243476867676e-01 -2.199575233459472656e+01 1.194134587422013283e-03 -1.427866458892822266e+00 -4.280017018318176270e-01 6.720451265573501587e-02
4.410000000000000000e+02 3.715071380138397217e-01 -2.119162368774414062e+01 2.761892275884747505e-03 -1.567158102989196777e+00 -4.693188667297363281e-01 6.285468488931655884e-02
4.420000000000000000e+02 3.701277971267700195e-01 -2.038765525817871094e+01 2.309552393853664398e-03 -1.695757746696472168e+00 -5.080344676971435547e-01 5.734273046255111694e-02
4.430000000000000000e+02 3.688855171203613281e-01 -1.958362197875976562e+01 4.042669199407100677e-03 -1.810863375663757324e+00 -5.420461893081665039e-01 5.034933984279632568e-02
4.440000000000000000e+02 3.677093088626861572e-01 -1.877951431274414062e+01 3.227795939892530441e-03 -1.909334421157836914e+00 -5.718320012092590332e-01 4.238523542881011963e-02
4.450000000000000000e+02 1.839712858200073242e+00 -2.035462951660156250e+01 3.363141790032386780e-02 -1.153094530105590820e+00 -3.358389437198638916e-01 2.463932931423187256e-01
4.460000000000000000e+02 3.666219711303710938e-01 -1.797525787353515625e+01 5.190094932913780212e-03 -1.988801479339599609e+00 -5.950834155082702637e-01 3.310028091073036194e-02
4.470000000000000000e+02 3.647149801254272461e-01 -1.556310462951660156e+01 4.139595199376344681e-03 -2.091206789016723633e+00 -6.261201500892639160e-01 1.293915673159062862e-03
4.480000000000000000e+02 3.641484677791595459e-01 -1.475918769836425781e+01 5.991795100271701813e-03 -2.076230049133300781e+00 -6.210714578628540039e-01 -9.853146970272064209e-03
4.490000000000000000e+02 3.635657727718353271e-01 -1.395511817932128906e+01 3.998260945081710815e-03 -2.036174297332763672e+00 -6.096528172492980957e-01 -2.083410136401653290e-02
4.500000000000000000e+02 3.630499541759490967e-01 -1.315109539031982422e+01 5.635915324091911316e-03 -1.972034454345703125e+00 -5.899195671081542969e-01 -3.138538077473640442e-02
4.510000000000000000e+02 3.625585138797760010e-01 -1.234704971313476562e+01 3.433878533542156219e-03 -1.884770631790161133e+00 -5.644010305404663086e-01 -4.130526632070541382e-02
4.520000000000000000e+02 3.621931970119476318e-01 -1.154303359985351562e+01 5.016217939555644989e-03 -1.776258945465087891e+00 -5.313728451728820801e-01 -5.047556385397911072e-02
4.530000000000000000e+02 1.801662206649780273e+00 -1.311487293243408203e+01 5.607978254556655884e-02 -1.395620107650756836e+00 -4.018621146678924561e-01 -1.437541842460632324e-01
4.540000000000000000e+02 3.622154593467712402e-01 -1.073888778686523438e+01 2.589683281257748604e-03 -1.648308753967285156e+00 -4.937157332897186279e-01 -5.871253088116645813e-02
4.550000000000000000e+02 3.684475719928741455e-01 -8.322383880615234375e+00 3.057369496673345566e-03 -1.175754308700561523e+00 -3.518090844154357910e-01 -7.684758305549621582e-02
4.560000000000000000e+02 3.719227313995361328e-01 -7.515266418457031250e+00 -1.503898092778399587e-04 -1.000821352005004883e+00 -3.002915382385253906e-01 -7.975364476442337036e-02
4.570000000000000000e+02 3.747684061527252197e-01 -6.709022998809814453e+00 4.887197865173220634e-04 -8.252080082893371582e-01 -2.474157810211181641e-01 -7.970402389764785767e-02
4.580000000000000000e+02 1.114715337753295898e+00 -7.491654396057128906e+00 3.494894597679376602e-03 -8.770109415054321289e-01 -2.620548009872436523e-01 -2.259577959775924683e-01
4.590000000000000000e+02 4.917639255523681641e+00 -3.331850290298461914e+00 -3.007760941982269287e-01 -1.028412431478500366e-01 -1.210852041840553284e-01 -4.682171940803527832e-01
4.600000000000000000e+02 1.141981840133666992e+00 -1.887693643569946289e+00 -3.895449265837669373e-02 -8.123268932104110718e-02 -3.605615347623825073e-02 -7.531211525201797485e-02
4.610000000000000000e+02 7.954626464843750000e+01 -4.203059005737304688e+01 -1.175195258110761642e-02 1.102977561950683594e+01 3.305407285690307617e+00 -1.451325602829456329e-02
4.620000000000000000e+02 7.946360015869140625e+01 -4.117612457275390625e+01 5.186092481017112732e-02 1.101651573181152344e+01 3.320512771606445312e+00 -4.466327955015003681e-04
4.630000000000000000e+02 7.560977935791015625e+01 -3.887252044677734375e+01 -2.182057313621044159e-02 8.908936500549316406e+00 2.666134834289550781e+00 4.299875348806381226e-02
4.640000000000000000e+02 2.951446533203125000e+01 -3.961145019531250000e+01 -3.852517008781433105e-01 1.969583630561828613e+00 4.752995669841766357e-01 2.986749708652496338e-01
4.650000000000000000e+02 1.304930877685546875e+01 -4.102869796752929688e+01 -1.768093705177307129e-01 5.468723773956298828e-01 1.110189110040664673e-01 -1.270157843828201294e-02
4.660000000000000000e+02 1.982686281204223633e+00 -3.995839691162109375e+01 -1.819396764039993286e-02 5.445277690887451172e-01 1.579001396894454956e-01 2.273823507130146027e-02
4.670000000000000000e+02 1.608176112174987793e+00 -4.193319702148437500e+01 -8.743073791265487671e-03 5.667511224746704102e-01 1.674024164676666260e-01 8.870602585375308990e-03
4.680000000000000000e+02 7.958309936523437500e+01 4.204273986816406250e+01 6.059339269995689392e-03 7.369656562805175781e+00 2.212714672088623047e+00 -6.972615607082843781e-03
4.690000000000000000e+02 7.953818511962890625e+01 4.118272781372070312e+01 -8.833593688905239105e-03 7.382450580596923828e+00 2.212085008621215820e+00 -8.104553446173667908e-03
4.700000000000000000e+02 7.828656768798828125e+01 3.846619033813476562e+01 2.091530943289399147e-03 7.141593933105468750e+00 2.143105745315551758e+00 2.692525833845138550e-02
4.710000000000000000e+02 7.616951751708984375e+01 3.880023956298828125e+01 -1.463228929787874222e-02 6.869725704193115234e+00 2.056528091430664062e+00 1.341072842478752136e-02
4.720000000000000000e+02 7.964975738525390625e+01 3.963120651245117188e+01 -5.367661826312541962e-03 7.379215717315673828e+00 2.212154388427734375e+00 1.015788037329912186e-02
4.730000000000000000e+02 7.962240600585937500e+01 3.819217681884765625e+01 -5.965298973023891449e-03 7.328804969787597656e+00 2.196851968765258789e+00 1.154717989265918732e-02
4.740000000000000000e+02 7.955604553222656250e+01 3.742957305908203125e+01 4.555719438940286636e-03 7.315522193908691406e+00 2.196023464202880859e+00 9.001854807138442993e-03
4.750000000000000000e+02 7.957606506347656250e+01 3.501689529418945312e+01 3.798307152464985847e-04 7.273156166076660156e+00 2.182060718536376953e+00 1.188778225332498550e-02
4.760000000000000000e+02 7.957528686523437500e+01 3.421022415161132812e+01 -6.544403731822967529e-03 7.246073722839355469e+00 2.171858787536621094e+00 1.995295844972133636e-02
4.770000000000000000e+02 7.958386230468750000e+01 3.339830398559570312e+01 3.460986772552132607e-03 7.213727951049804688e+00 2.165156841278076172e+00 1.989637501537799835e-02
4.780000000000000000e+02 7.960132598876953125e+01 3.178354644775390625e+01 1.924585667438805103e-03 7.125547885894775391e+00 2.138241767883300781e+00 2.832409925758838654e-02
4.790000000000000000e+02 7.960141754150390625e+01 3.097962570190429688e+01 -5.981217604130506516e-03 7.067969322204589844e+00 2.118596315383911133e+00 3.461840003728866577e-02
4.800000000000000000e+02 7.879962158203125000e+01 3.038994026184082031e+01 -1.175894960761070251e-02 6.942838191986083984e+00 2.079323768615722656e+00 9.787728637456893921e-02
4.810000000000000000e+02 7.959600067138671875e+01 2.776591300964355469e+01 -2.760596573352813721e-03 6.758816719055175781e+00 2.026816844940185547e+00 5.009586736559867859e-02
4.820000000000000000e+02 7.959474182128906250e+01 2.696569824218750000e+01 -1.280335476621985435e-03 6.663146018981933594e+00 1.998559594154357910e+00 5.385180190205574036e-02
4.830000000000000000e+02 7.959676361083984375e+01 2.616205406188964844e+01 -1.451819785870611668e-03 6.561555385589599609e+00 1.968031048774719238e+00 5.661389976739883423e-02
4.840000000000000000e+02 7.960117340087890625e+01 2.535587882995605469e+01 -9.900062577798962593e-04 6.453411579132080078e+00 1.935726404190063477e+00 5.908922106027603149e-02
4.850000000000000000e+02 7.960615539550781250e+01 2.454971504211425781e+01 1.058926864061504602e-04 6.341312408447265625e+00 1.902425527572631836e+00 5.972584709525108337e-02
4.860000000000000000e+02 7.881777954101562500e+01 2.471880149841308594e+01 -3.193830605596303940e-03 6.399032115936279297e+00 1.918751358985900879e+00 1.612367630004882812e-01
4.870000000000000000e+02 7.961493682861328125e+01 2.294142532348632812e+01 1.708074240013957024e-03 6.110465049743652344e+00 1.833652019500732422e+00 5.872243270277976990e-02
4.880000000000000000e+02 7.962293243408203125e+01 2.053729057312011719e+01 -1.008972903946414590e-04 5.782010555267333984e+00 1.734572887420654297e+00 5.073374882340431213e-02
4.890000000000000000e+02 7.962391662597656250e+01 1.973504638671875000e+01 5.246295593678951263e-03 5.688201904296875000e+00 1.708034515380859375e+00 4.393176361918449402e-02
4.900000000000000000e+02 7.962445068359375000e+01 1.893219947814941406e+01 6.289112498052418232e-04 5.605772495269775391e+00 1.681920409202575684e+00 3.883951529860496521e-02
4.910000000000000000e+02 7.962522888183593750e+01 1.812891578674316406e+01 5.944774486124515533e-03 5.537466526031494141e+00 1.663023352622985840e+00 3.051517717540264130e-02
4.920000000000000000e+02 7.887621307373046875e+01 1.828862762451171875e+01 1.409555040299892426e-02 5.736570835113525391e+00 1.725199937820434570e+00 8.587772399187088013e-02
4.930000000000000000e+02 7.962799835205078125e+01 1.652317619323730469e+01 6.451235152781009674e-03 5.449182510375976562e+00 1.636690139770507812e+00 1.348387170583009720e-02
4.940000000000000000e+02 7.963320922851562500e+01 1.411651420593261719e+01 2.193246269598603249e-03 5.460160255432128906e+00 1.638706088066101074e+00 -1.475865207612514496e-02
4.950000000000000000e+02 7.963378143310546875e+01 1.331463241577148438e+01 6.803163327276706696e-03 5.505380153656005859e+00 1.653654932975769043e+00 -2.570879086852073669e-02
4.960000000000000000e+02 7.963404846191406250e+01 1.251193332672119141e+01 1.728295348584651947e-03 5.570132732391357422e+00 1.671558380126953125e+00 -3.389150276780128479e-02
4.970000000000000000e+02 7.963468170166015625e+01 1.170994091033935547e+01 6.593152880668640137e-03 5.654450893402099609e+00 1.698313236236572266e+00 -4.411737620830535889e-02
4.980000000000000000e+02 7.963515472412109375e+01 1.090825653076171875e+01 1.529628178104758263e-03 5.757411003112792969e+00 1.727682232856750488e+00 -5.187868326902389526e-02
4.990000000000000000e+02 7.963556671142578125e+01 1.010598945617675781e+01 5.903002806007862091e-03 5.878140449523925781e+00 1.765213012695312500e+00 -6.100086122751235962e-02
5.000000000000000000e+02 7.891119384765625000e+01 1.025427532196044922e+01 1.555332541465759277e-02 6.024476051330566406e+00 1.812008738517761230e+00 -1.662723869085311890e-01
5.010000000000000000e+02 7.963742065429687500e+01 6.898324966430664062e+00 3.933293279260396957e-03 6.512401103973388672e+00 1.954900383949279785e+00 -8.709079027175903320e-02
5.020000000000000000e+02 7.963743591308593750e+01 6.096767425537109375e+00 6.253128522075712681e-04 6.701382637023925781e+00 2.010602474212646484e+00 -9.131998568773269653e-02
5.030000000000000000e+02 7.963719940185546875e+01 5.294226169586181641e+00 2.802052767947316170e-03 6.898396492004394531e+00 2.070359468460083008e+00 -9.542021900415420532e-02
5.040000000000000000e+02 7.963743591308593750e+01 4.492272853851318359e+00 9.047751518664881587e-05 7.102101802825927734e+00 2.130657672882080078e+00 -9.793596714735031128e-02
5.050000000000000000e+02 7.963761901855468750e+01 3.690560817718505859e+00 1.488185836933553219e-03 7.310132503509521484e+00 2.193486213684082031e+00 -9.978869557380676270e-02
5.060000000000000000e+02 7.891765594482421875e+01 3.838518857955932617e+00 2.083521336317062378e-03 7.260666847229003906e+00 2.178825139999389648e+00 -2.750752568244934082e-01
5.070000000000000000e+02 7.963794708251953125e+01 2.086280345916748047e+00 3.975223226007074118e-04 7.731028079986572266e+00 2.319427728652954102e+00 -1.001455485820770264e-01
5.080000000000000000e+02 7.963788604736328125e+01 -3.184071183204650879e-01 -3.242600709199905396e-03 8.335643768310546875e+00 2.499720335006713867e+00 -9.051682800054550171e-02
5.090000000000000000e+02 7.963760375976562500e+01 -1.120175719261169434e+00 -2.132191322743892670e-03 8.518592834472656250e+00 2.554938316345214844e+00 -8.460173010826110840e-02
5.100000000000000000e+02 7.963732147216796875e+01 -1.922764062881469727e+00 -4.804031923413276672e-03 8.686135292053222656e+00 2.604399442672729492e+00 -7.631377875804901123e-02
5.110000000000000000e+02 7.963732910156250000e+01 -2.724786520004272461e+00 -3.996897488832473755e-03 8.834575653076171875e+00 2.649173736572265625e+00 -6.656026095151901245e-02
5.120000000000000000e+02 7.963738250732421875e+01 -3.526767253875732422e+00 -7.052126806229352951e-03 8.958782196044921875e+00 2.685518980026245117e+00 -5.366848036646842957e-02
5.130000000000000000e+02 7.891686248779296875e+01 -3.379729032516479492e+00 -2.596685849130153656e-02 8.719430923461914062e+00 2.608039379119873047e+00 -1.552926301956176758e-01
5.140000000000000000e+02 7.963838958740234375e+01 -5.130869388580322266e+00 -9.258964098989963531e-03 9.117531776428222656e+00 2.732481718063354492e+00 -2.253496274352073669e-02
5.150000000000000000e+02 7.963889312744140625e+01 -7.533930301666259766e+00 -9.187695570290088654e-03 9.062581062316894531e+00 2.716017961502075195e+00 3.844532370567321777e-02
5.160000000000000000e+02 7.963870239257812500e+01 -8.335469245910644531e+00 -1.124557014554738998e-02 8.950423240661621094e+00 2.681753158569335938e+00 6.160449609160423279e-02
5.170000000000000000e+02 7.963824462890625000e+01 -9.137291908264160156e+00 -9.474252350628376007e-03 8.788568496704101562e+00 2.633728265762329102e+00 8.447217196226119995e-02
5.180000000000000000e+02 7.963778686523437500e+01 -9.939650535583496094e+00 -9.765476919710636139e-03 8.579089164733886719e+00 2.570797204971313477e+00 1.058736592531204224e-01
5.190000000000000000e+02 7.963760375976562500e+01 -1.074209690093994141e+01 -7.022500503808259964e-03 8.327022552490234375e+00 2.496000051498413086e+00 1.241517663002014160e-01
5.200000000000000000e+02 7.891806793212890625e+01 -1.058758449554443359e+01 -3.752952069044113159e-02 8.382553100585937500e+00 2.503507137298583984e+00 3.274261057376861572e-01
5.210000000000000000e+02 7.963831329345703125e+01 -1.234536838531494141e+01 -2.397016389295458794e-03 7.727070808410644531e+00 2.317402124404907227e+00 1.472669839859008789e-01
5.220000000000000000e+02 7.964001464843750000e+01 -1.474643516540527344e+01 8.852407336235046387e-03 6.784605026245117188e+00 2.038037300109863281e+00 1.296626925468444824e-01
5.230000000000000000e+02 7.964116668701171875e+01 -1.554662609100341797e+01 8.880038745701313019e-03 6.520923614501953125e+00 1.958941102027893066e+00 1.099615842103958130e-01
5.240000000000000000e+02 7.964217376708984375e+01 -1.634616470336914062e+01 1.528745424002408981e-02 6.310461044311523438e+00 1.897724628448486328e+00 8.101354539394378662e-02
5.250000000000000000e+02 7.964233398437500000e+01 -1.714617919921875000e+01 1.423567160964012146e-02 6.167475700378417969e+00 1.854513406753540039e+00 4.815718904137611389e-02
5.260000000000000000e+02 7.964173889160156250e+01 -1.794656753540039062e+01 1.842645741999149323e-02 6.102411746978759766e+00 1.836251497268676758e+00 1.017792336642742157e-02
5.270000000000000000e+02 7.893408966064453125e+01 -1.696482849121093750e+01 7.224579900503158569e-02 6.760193347930908203e+00 2.049731731414794922e+00 1.474620103836059570e-01
5.280000000000000000e+02 7.963793945312500000e+01 -1.954697036743164062e+01 2.082069404423236847e-02 6.215186595916748047e+00 1.870802164077758789e+00 -6.706487387418746948e-02
5.290000000000000000e+02 7.962978363037109375e+01 -2.195382881164550781e+01 7.249578833580017090e-03 6.924727439880371094e+00 2.079593181610107422e+00 -1.569425761699676514e-01
5.300000000000000000e+02 7.962880706787109375e+01 -2.275486564636230469e+01 1.189023442566394806e-02 7.262947082519531250e+00 2.182451248168945312e+00 -1.782915592193603516e-01
5.310000000000000000e+02 7.962790679931640625e+01 -2.355601310729980469e+01 2.730853389948606491e-03 7.631305217742919922e+00 2.290210962295532227e+00 -1.908889263868331909e-01
5.320000000000000000e+02 7.962680816650390625e+01 -2.435882377624511719e+01 6.410047877579927444e-03 8.018974304199218750e+00 2.407615423202514648e+00 -2.008762061595916748e-01
5.330000000000000000e+02 7.888413238525390625e+01 -2.416741943359375000e+01 8.784790523350238800e-03 8.143063545227050781e+00 2.445554494857788086e+00 -5.180852413177490234e-01
5.340000000000000000e+02 7.962457275390625000e+01 -2.596471595764160156e+01 1.012769876979291439e-03 8.788666725158691406e+00 2.636903762817382812e+00 -1.958184540271759033e-01
5.350000000000000000e+02 7.961463928222656250e+01 -2.836933708190917969e+01 -8.779349736869335175e-03 9.773462295532226562e+00 2.929404735565185547e+00 -1.569226384162902832e-01
5.360000000000000000e+02 7.960968780517578125e+01 -2.917089653015136719e+01 -7.684019394218921661e-03 1.003259563446044922e+01 3.007473468780517578e+00 -1.393968313932418823e-01
5.370000000000000000e+02 7.960379028320312500e+01 -2.997295951843261719e+01 -6.378378253430128098e-03 1.025652408599853516e+01 3.075043678283691406e+00 -1.249720230698585510e-01
5.380000000000000000e+02 7.959757995605468750e+01 -3.077512359619140625e+01 -9.508144110441207886e-03 1.044625568389892578e+01 3.131024122238159180e+00 -1.076662838459014893e-01
5.390000000000000000e+02 7.959141540527343750e+01 -3.157811355590820312e+01 -6.264923140406608582e-03 1.060266971588134766e+01 3.178921461105346680e+00 -9.261404722929000854e-02
5.400000000000000000e+02 7.877378845214843750e+01 -3.138505935668945312e+01 -4.501563683152198792e-02 1.021712493896484375e+01 3.051632642745971680e+00 -2.313863784074783325e-01
5.410000000000000000e+02 7.958258819580078125e+01 -3.318366622924804688e+01 2.036937279626727104e-03 1.082509326934814453e+01 3.248139142990112305e+00 -6.665926426649093628e-02
5.420000000000000000e+02 7.957049560546875000e+01 -3.559009552001953125e+01 -1.875555515289306641e-02 1.100794506072998047e+01 3.296756982803344727e+00 -3.042652271687984467e-02
5.430000000000000000e+02 7.954901885986328125e+01 -3.639641189575195312e+01 1.138103008270263672e-02 1.104118633270263672e+01 3.315770149230957031e+00 -2.992289513349533081e-02
5.440000000000000000e+02 7.951973724365234375e+01 -3.720141220092773438e+01 -1.810788363218307495e-02 1.106466197967529297e+01 3.313966035842895508e+00 -1.858558505773544312e-02
5.450000000000000000e+02 7.949798583984375000e+01 -3.800211334228515625e+01 6.772897671908140182e-03 1.107551860809326172e+01 3.324687480926513672e+00 -1.356654614210128784e-02
5.460000000000000000e+02 7.951097106933593750e+01 -3.880810165405273438e+01 -3.077761828899383545e-02 1.106235218048095703e+01 3.309472322463989258e+00 1.195003371685743332e-02
5.470000000000000000e+02 7.951567077636718750e+01 -4.040327072143554688e+01 -5.400367453694343567e-02 1.103248882293701172e+01 3.293545484542846680e+00 1.893572323024272919e-02
5.480000000000000000e+02 5.251229405403137207e-01 4.196398162841796875e+01 -2.608181675896048546e-04 -5.310314893722534180e-01 -1.593876928091049194e-01 -8.492952474625781178e-05
5.490000000000000000e+02 5.843011736869812012e-01 4.107166671752929688e+01 -3.942754585295915604e-03 -5.312799215316772461e-01 -1.605667918920516968e-01 -1.178859034553170204e-03
5.500000000000000000e+02 5.750726699829101562e+00 3.823814392089843750e+01 3.953423351049423218e-02 -1.348560154438018799e-01 -2.859653346240520477e-02 4.849557206034660339e-02
5.510000000000000000e+02 3.215913772583007812e+01 3.788764190673828125e+01 -5.386875867843627930e-01 3.145004272460937500e+00 7.818949818611145020e-01 -1.234166026115417480e-01
5.520000000000000000e+02 6.740011596679687500e+01 3.769310760498046875e+01 -3.558619320392608643e-02 5.548347949981689453e+00 1.653828501701354980e+00 -1.339265108108520508e-01
5.530000000000000000e+02 7.895548248291015625e+01 3.946680831909179688e+01 6.415015552192926407e-03 7.251794815063476562e+00 2.177462816238403320e+00 2.351442910730838776e-02
5.540000000000000000e+02 7.856691741943359375e+01 4.190767669677734375e+01 7.429650868289172649e-04 7.247684478759765625e+00 2.174528360366821289e+00 1.347085274755954742e-02
5.550000000000000000e+02 4.073680937290191650e-01 1.893736600875854492e+00 4.961377635481767356e-05 1.396601583110168576e-04 5.678217712556943297e-05 -8.164807513821870089e-05
5.560000000000000000e+02 2.874761819839477539e+00 1.873723864555358887e+00 4.491135769058018923e-04 1.434366276953369379e-04 1.777650613803416491e-04 -5.164718022570014000e-04
5.570000000000000000e+02 3.808690309524536133e-01 3.480857372283935547e+00 6.437960837502032518e-05 6.547728553414344788e-04 2.157457347493618727e-04 -1.713063102215528488e-04
5.580000000000000000e+02 3.737096190452575684e-01 4.279557228088378906e+00 -3.003743222507182509e-05 1.066402532160282135e-03 3.109095268882811069e-04 -2.076961827697232366e-04
5.590000000000000000e+02 1.867863535881042480e+00 4.933622360229492188e+00 3.154918667860329151e-04 1.002269564196467400e-03 3.953284176532179117e-04 -1.003618352115154266e-03
5.600000000000000000e+02 3.684246242046356201e-01 5.881498813629150391e+00 -2.902093547163531184e-05 2.171383006498217583e-03 6.427086773328483105e-04 -2.942038991022855043e-04
5.610000000000000000e+02 3.654584884643554688e-01 8.288634300231933594e+00 8.006301504792645574e-05 4.584528040140867233e-03 1.399377244524657726e-03 -4.420295881573110819e-04
5.620000000000000000e+02 3.636837303638458252e-01 9.094119071960449219e+00 -5.067153688287362456e-05 5.599817726761102676e-03 1.664743875153362751e-03 -4.677318502217531204e-04
5.630000000000000000e+02 3.614453077316284180e-01 9.899685859680175781e+00 9.970056271413341165e-05 6.710344925522804260e-03 2.043013693764805794e-03 -5.308747058734297752e-04
5.640000000000000000e+02 3.590383529663085938e-01 1.070493793487548828e+01 -1.013803048408590257e-04 7.889444939792156219e-03 2.336419420316815376e-03 -5.158392596058547497e-04
5.650000000000000000e+02 3.569974601268768311e-01 1.150975036621093750e+01 1.237015239894390106e-04 9.094051085412502289e-03 2.765325829386711121e-03 -5.565028404816985130e-04
5.660000000000000000e+02 1.070948839187622070e+00 1.144021224975585938e+01 -1.825743383960798383e-04 6.627130322158336639e-03 1.933366758748888969e-03 -1.351750455796718597e-03
5.670000000000000000e+02 3.544363677501678467e-01 1.311969661712646484e+01 1.388882228638976812e-04 1.130647864192724228e-02 3.433609846979379654e-03 -4.534787149168550968e-04
5.680000000000000000e+02 3.532895743846893311e-01 1.553122711181640625e+01 -4.273088707122951746e-04 1.228169444948434830e-02 3.556315787136554718e-03 2.778212365228682756e-04
5.690000000000000000e+02 3.535297513008117676e-01 1.633550262451171875e+01 9.823024447541683912e-05 1.122520677745342255e-02 3.397030988708138466e-03 6.100896280258893967e-04
5.700000000000000000e+02 3.535777330398559570e-01 1.713969802856445312e+01 -5.944042350165545940e-04 9.092662483453750610e-03 2.549477620050311089e-03 1.232916023582220078e-03
5.710000000000000000e+02 3.537668287754058838e-01 1.794341659545898438e+01 5.448589217849075794e-05 5.572581198066473007e-03 1.688120188191533089e-03 1.795506337657570839e-03
5.720000000000000000e+02 3.543235659599304199e-01 1.874725723266601562e+01 -7.736718398518860340e-04 4.183356650173664093e-04 -1.066008480847813189e-04 2.684865612536668777e-03
5.730000000000000000e+02 3.566046655178070068e-01 2.196290969848632812e+01 -9.967096848413348198e-04 -4.139914736151695251e-02 -1.271875761449337006e-02 6.745217368006706238e-03
5.740000000000000000e+02 3.576989769935607910e-01 2.276652145385742188e+01 -3.033308166777715087e-05 -5.799239873886108398e-02 -1.740681938827037811e-02 7.828469388186931610e-03
5.750000000000000000e+02 3.590877652168273926e-01 2.357089233398437500e+01 -9.628167026676237583e-04 -7.702357321977615356e-02 -2.339591830968856812e-02 9.021199308335781097e-03
5.760000000000000000e+02 3.605338931083679199e-01 2.437524986267089844e+01 2.232415863545611501e-05 -9.848044067621231079e-02 -2.953743562102317810e-02 1.000447385013103485e-02
5.770000000000000000e+02 3.621682524681091309e-01 2.517901611328125000e+01 -8.677749428898096085e-04 -1.220023706555366516e-01 -3.686104342341423035e-02 1.101534627377986908e-02
5.780000000000000000e+02 1.082539319992065430e+00 2.430801963806152344e+01 -2.639023354277014732e-03 -9.341777116060256958e-02 -2.881703898310661316e-02 2.884387969970703125e-02
5.790000000000000000e+02 3.660750985145568848e-01 2.678672409057617188e+01 -7.556974887847900391e-04 -1.741217970848083496e-01 -5.246325209736824036e-02 1.244826614856719971e-02
5.800000000000000000e+02 3.695766031742095947e-01 2.919315338134765625e+01 7.268698536790907383e-04 -2.591819167137145996e-01 -7.753651589155197144e-02 1.310101523995399475e-02
5.810000000000000000e+02 3.708041906356811523e-01 2.999424171447753906e+01 -6.245071999728679657e-04 -2.877677977085113525e-01 -8.651769161224365234e-02 1.312106102705001831e-02
5.820000000000000000e+02 3.734970390796661377e-01 3.079541778564453125e+01 8.051837212406098843e-04 -3.160096406936645508e-01 -9.456133842468261719e-02 1.279451884329319000e-02
5.830000000000000000e+02 3.792948424816131592e-01 3.159574699401855469e+01 -4.142108082305639982e-04 -3.431659936904907227e-01 -1.030740663409233093e-01 1.250293012708425522e-02
5.840000000000000000e+02 1.129956960678100586e+00 3.149160575866699219e+01 1.885506906546652317e-03 -3.039369285106658936e-01 -9.061542898416519165e-02 3.642076253890991211e-02
5.850000000000000000e+02 4.066109061241149902e-01 3.319666671752929688e+01 -4.507325938902795315e-04 -3.942267894744873047e-01 -1.184032559394836426e-01 1.221635472029447556e-02
5.860000000000000000e+02 4.788660407066345215e-01 3.563594818115234375e+01 1.038619433529675007e-03 -4.630558788776397705e-01 -1.386051774024963379e-01 1.249881833791732788e-02
5.870000000000000000e+02 4.887631237506866455e-01 3.646178054809570312e+01 -2.190997474826872349e-04 -4.830602407455444336e-01 -1.449837982654571533e-01 1.184191834181547165e-02
5.880000000000000000e+02 4.676795303821563721e-01 3.728261566162109375e+01 1.398257212713360786e-03 -5.020323991775512695e-01 -1.501902490854263306e-01 1.092361658811569214e-02
5.890000000000000000e+02 4.086480438709259033e-01 3.808449172973632812e+01 -1.387058291584253311e-03 -5.215521454811096191e-01 -1.568817645311355591e-01 1.078719180077314377e-02
5.900000000000000000e+02 3.454550206661224365e-01 3.885778045654296875e+01 7.374803535640239716e-03 -5.382589697837829590e-01 -1.592652499675750732e-01 4.331660922616720200e-03
5.910000000000000000e+02 4.146821796894073486e-01 4.034992218017578125e+01 3.554883180186152458e-03 -5.349344611167907715e-01 -1.594138741493225098e-01 -4.248998593538999557e-03
5.920000000000000000e+02 9.576063156127929688e+00 1.850688934326171875e+00 1.338263042271137238e-03 -2.309440751560032368e-04 3.321956901345402002e-04 2.384083200013265014e-04
5.930000000000000000e+02 8.749269485473632812e+00 1.860025048255920410e+00 1.441796775907278061e-03 -1.710006617940962315e-04 3.812388458754867315e-04 3.388283948879688978e-05
5.940000000000000000e+02 7.914369106292724609e+00 1.876286745071411133e+00 1.383329275995492935e-03 -2.507808094378560781e-04 3.397645486984401941e-04 -9.297857468482106924e-05
5.950000000000000000e+02 5.382134437561035156e+00 1.906408786773681641e+00 1.101868809200823307e-03 -9.773205965757369995e-05 3.012410015799105167e-04 -5.463867564685642719e-04
5.960000000000000000e+02 4.451190471649169922e+00 2.678973436355590820e+00 8.575682295486330986e-04 -5.497020902112126350e-05 2.407793945167213678e-04 -8.104987791739404202e-04
5.970000000000000000e+02 3.705191135406494141e+00 1.880265593528747559e+00 6.980842445045709610e-04 5.490882176673039794e-05 2.258979220641776919e-04 -6.091780960559844971e-04
5.980000000000000000e+02 1.225487709045410156e+00 1.880807161331176758e+00 9.686707198852673173e-05 2.370036818319931626e-04 1.001612254185602069e-04 -2.377170167164877057e-04
5.990000000000000000e+02 1.185763740539550781e+01 1.848525643348693848e+00 1.018170616589486599e-03 1.912062180053908378e-05 3.111873520538210869e-04 4.650279297493398190e-04
6.000000000000000000e+02 1.333370018005371094e+01 1.861613273620605469e+00 7.021194323897361755e-04 1.263356534764170647e-04 2.485365257598459721e-04 4.815649008378386497e-04
6.010000000000000000e+02 1.406298542022705078e+01 1.882598400115966797e+00 5.007644649595022202e-04 -6.259407200559508055e-06 1.483515225118026137e-04 4.725756298284977674e-04
6.020000000000000000e+02 1.551803493499755859e+01 1.934839367866516113e+00 2.481078554410487413e-04 3.102443952229805291e-05 8.373968739761039615e-05 3.413326630834490061e-04
6.030000000000000000e+02 1.623779296875000000e+01 1.979292750358581543e+00 2.123166923411190510e-04 2.219037414761260152e-04 1.302661257795989513e-04 2.493856300134211779e-04
6.040000000000000000e+02 1.766417121887207031e+01 2.101484537124633789e+00 9.874493116512894630e-05 1.971551537280902267e-04 8.877002983354032040e-05 1.147433504229411483e-04
6.050000000000000000e+02 1.828332710266113281e+01 2.792604684829711914e+00 7.349921361310407519e-05 2.435316710034385324e-04 9.510926611255854368e-05 8.955812518252059817e-05
6.060000000000000000e+02 2.205982017517089844e+01 3.934412002563476562e+00 -3.999155524070374668e-05 1.657629945839289576e-05 -7.024576461844844744e-06 6.641610070801107213e-06
6.070000000000000000e+02 2.176175117492675781e+01 2.761764049530029297e+00 4.349630762590095401e-05 3.695689156302250922e-05 2.413595939287915826e-05 -6.197640686878003180e-06
6.080000000000000000e+02 2.236964607238769531e+01 2.939988136291503906e+00 -8.875292223819997162e-06 -6.670815491816028953e-05 -2.267503441544249654e-05 -2.348589760003960691e-06
6.090000000000000000e+02 2.258272361755371094e+01 3.614197731018066406e+00 7.264899068104568869e-06 -1.025540259433910251e-04 -2.858673906303010881e-05 4.944871761836111546e-06
6.100000000000000000e+02 2.350859451293945312e+01 3.374565362930297852e+00 -2.939578916993923485e-05 -3.869570355163887143e-05 -2.042744745267555118e-05 -2.131412475137040019e-05
6.110000000000000000e+02 2.212239646911621094e+01 3.432885646820068359e+00 4.973696923116222024e-05 2.145879261661320925e-05 2.135872819053474814e-05 -1.633852298255078495e-05
6.120000000000000000e+02 2.111827850341796875e+01 2.604650259017944336e+00 -1.782115941750817001e-05 -6.188536644913256168e-05 -2.391195812379010022e-05 -2.032556039921473712e-05
6.130000000000000000e+02 2.044134330749511719e+01 2.471874713897705078e+00 4.673250441555865109e-05 7.988652214407920837e-05 3.798570833168923855e-05 5.497917072716518305e-07
6.140000000000000000e+02 1.975862312316894531e+01 2.354898929595947266e+00 -5.979389698040904477e-06 -5.782643711427226663e-05 -1.914174754347186536e-05 -2.661923190316883847e-06
6.150000000000000000e+02 1.907315826416015625e+01 2.250353097915649414e+00 5.138657070347107947e-05 1.479409111198037863e-04 5.979824709356762469e-05 2.696174851735122502e-05
6.160000000000000000e+02 1.933901405334472656e+01 7.081951141357421875e+00 2.108924236381426454e-04 2.518686524126678705e-04 1.388283271808177233e-04 1.707347837509587407e-04
6.170000000000000000e+02 1.759250068664550781e+01 8.752777099609375000e+00 -1.122377307183342054e-05 6.366207962855696678e-04 1.876190945040434599e-04 -7.199620595201849937e-04
6.180000000000000000e+02 1.705042076110839844e+01 9.364476203918457031e+00 7.774155819788575172e-04 1.717105158604681492e-03 7.483562221750617027e-04 -5.573975504375994205e-04
6.190000000000000000e+02 1.507601642608642578e+01 1.294707679748535156e+01 1.358553417958319187e-04 1.341214962303638458e-02 4.064401611685752869e-03 -2.628310816362500191e-03
6.200000000000000000e+02 1.471181583404541016e+01 1.455229568481445312e+01 3.840920398943126202e-04 2.264302782714366913e-02 6.908135954290628433e-03 -1.752748270519077778e-03
6.210000000000000000e+02 1.463954448699951172e+01 1.536625289916992188e+01 8.123083971440792084e-04 2.412575110793113708e-02 7.481418084353208542e-03 -4.366844659671187401e-04
6.220000000000000000e+02 1.461408138275146484e+01 1.617398643493652344e+01 -7.689883932471275330e-04 2.248175255954265594e-02 6.513828877359628677e-03 -6.066706264391541481e-04
6.230000000000000000e+02 1.624281120300292969e+01 2.164745521545410156e+01 -5.095139741897583008e-01 -1.019693613052368164e-01 -1.834449917078018188e-01 -1.258429586887359619e-01
6.240000000000000000e+02 1.700758552551269531e+01 2.156693267822265625e+01 -6.618803739547729492e-01 -9.851323813199996948e-02 -2.281180769205093384e-01 -1.923601925373077393e-01
6.250000000000000000e+02 2.096201133728027344e+01 2.228230094909667969e+01 -9.673947095870971680e-01 -4.764943569898605347e-02 -3.045132458209991455e-01 -1.283007860183715820e-01
6.260000000000000000e+02 2.178052711486816406e+01 2.234227180480957031e+01 -9.633711576461791992e-01 -3.618014603853225708e-02 -2.998653948307037354e-01 -5.909604206681251526e-02
6.270000000000000000e+02 2.420560646057128906e+01 2.201648712158203125e+01 -2.269003838300704956e-01 5.675303563475608826e-02 -5.104420706629753113e-02 -1.027458459138870239e-01
6.280000000000000000e+02 2.498895263671875000e+01 2.184238433837890625e+01 8.606170862913131714e-02 1.170230358839035034e-01 6.092542409896850586e-02 -2.000360339879989624e-01
6.290000000000000000e+02 2.576107025146484375e+01 2.163785362243652344e+01 4.878553748130798340e-01 1.804166287183761597e-01 2.004815936088562012e-01 -3.565603494644165039e-01
6.300000000000000000e+02 3.048100471496582031e+01 1.844465637207031250e+01 2.058284759521484375e+00 7.946743011474609375e+00 3.001508235931396484e+00 -3.838108062744140625e+00
6.310000000000000000e+02 3.079040718078613281e+01 1.772209739685058594e+01 1.980248332023620605e+00 9.014092445373535156e+00 3.298302173614501953e+00 -3.805442333221435547e+00
6.320000000000000000e+02 3.133951187133789062e+01 1.622487831115722656e+01 1.167378783226013184e+00 9.603159904479980469e+00 3.231161594390869141e+00 -3.231786489486694336e+00
6.330000000000000000e+02 3.209813690185546875e+01 1.395133495330810547e+01 1.045802116394042969e+00 1.081717491149902344e+01 3.558893203735351562e+00 -3.188631772994995117e+00
6.340000000000000000e+02 3.232610321044921875e+01 1.318261146545410156e+01 9.911186695098876953e-01 1.155442714691162109e+01 3.763663768768310547e+00 -3.080663681030273438e+00
6.350000000000000000e+02 3.252504348754882812e+01 1.240635681152343750e+01 8.474577069282531738e-01 1.201300334930419922e+01 3.858138322830200195e+00 -2.760617971420288086e+00
6.360000000000000000e+02 3.976874160766601562e+01 1.029531478881835938e+01 1.829458951950073242e+00 1.196343708038330078e+01 4.137868881225585938e+00 3.507982969284057617e+00
6.370000000000000000e+02 3.328844070434570312e+01 8.479630470275878906e+00 3.809251487255096436e-01 1.384791088104248047e+01 4.268651008605957031e+00 -1.902729630470275879e+00
6.380000000000000000e+02 4.003013992309570312e+01 9.315029144287109375e+00 2.528799772262573242e+00 1.426700019836425781e+01 5.038740158081054688e+00 5.175671100616455078e+00
6.390000000000000000e+02 3.351435089111328125e+01 6.083058834075927734e+00 7.402006536722183228e-02 1.481408023834228516e+01 4.466430187225341797e+00 -7.177042365074157715e-01
6.400000000000000000e+02 3.339611816406250000e+01 7.681864261627197266e+00 4.675351977348327637e-01 1.473157215118408203e+01 4.559732437133789062e+00 -1.391069650650024414e+00
6.410000000000000000e+02 3.939353561401367188e+01 4.546322345733642578e+00 1.072383001446723938e-01 1.565710258483886719e+01 4.729302406311035156e+00 2.076600492000579834e-02
6.420000000000000000e+02 3.355278778076171875e+01 2.916067838668823242e+00 2.943478584289550781e+00 1.850664329528808594e+01 6.435036659240722656e+00 4.476600646972656250e+00
6.430000000000000000e+02 3.940631103515625000e+01 3.746151924133300781e+00 2.553435266017913818e-01 1.619736671447753906e+01 4.935812950134277344e+00 -4.096173048019409180e-01
6.440000000000000000e+02 3.873254394531250000e+01 4.515709400177001953e+00 4.523002207279205322e-01 1.586421680450439453e+01 4.894955158233642578e+00 -2.200064249336719513e-03
6.450000000000000000e+02 3.188373947143554688e+01 7.103033065795898438e-01 6.777099609375000000e+00 5.781735897064208984e+00 3.767650604248046875e+00 5.351809024810791016e+00
6.460000000000000000e+02 2.757648849487304688e+01 3.160848319530487061e-01 2.379371404647827148e+00 8.514281362295150757e-02 7.393542528152465820e-01 -1.817395091056823730e-01
6.470000000000000000e+02 2.508052635192871094e+01 -2.167708054184913635e-02 1.094141364097595215e+00 -1.802764981985092163e-01 2.741594612598419189e-01 3.455480337142944336e-01
6.480000000000000000e+02 2.212401390075683594e+01 -1.581951618194580078e+00 2.169966846704483032e-01 1.681024879217147827e-01 1.155297532677650452e-01 7.910937070846557617e-01
6.490000000000000000e+02 2.276384353637695312e+01 -7.322691082954406738e-01 4.014962911605834961e-01 7.843294739723205566e-02 1.439787745475769043e-01 5.579695105552673340e-01
6.500000000000000000e+02 2.198519134521484375e+01 -9.261276125907897949e-01 1.753224432468414307e-01 1.378114670515060425e-01 9.394016861915588379e-02 5.967975258827209473e-01
6.510000000000000000e+02 1.884224891662597656e+01 -1.464297413825988770e+00 -6.354220509529113770e-01 1.661876887083053589e-01 -1.407703012228012085e-01 4.995211660861968994e-01
6.520000000000000000e+02 2.041372680664062500e+01 -1.221354842185974121e+00 -2.536441683769226074e-01 1.789243370294570923e-01 -2.241595089435577393e-02 5.923826694488525391e-01
6.530000000000000000e+02 1.806138801574707031e+01 -1.543484449386596680e+00 -8.060055971145629883e-01 1.554842442274093628e-01 -1.951563954353332520e-01 4.317528903484344482e-01
6.540000000000000000e+02 1.650336265563964844e+01 -1.681199669837951660e+00 -1.067929506301879883e+00 1.241098791360855103e-01 -2.831458747386932373e-01 2.717849612236022949e-01
6.550000000000000000e+02 1.572616481781005859e+01 -1.730581521987915039e+00 -1.160331010818481445e+00 1.073035672307014465e-01 -3.159082233905792236e-01 1.835154891014099121e-01
6.560000000000000000e+02 1.265110397338867188e+01 -1.832433104515075684e+00 -1.276055693626403809e+00 6.498080492019653320e-02 -3.633224666118621826e-01 -1.267465800046920776e-01
6.570000000000000000e+02 1.341673088073730469e+01 -1.815302848815917969e+00 -1.287674188613891602e+00 7.564470916986465454e-02 -3.636088371276855469e-01 -5.653862655162811279e-02
6.580000000000000000e+02 1.418453216552734375e+01 -1.789743304252624512e+00 -1.274678707122802734e+00 8.489804714918136597e-02 -3.569342195987701416e-01 1.609800010919570923e-02
6.590000000000000000e+02 1.112961387634277344e+01 -1.845159769058227539e+00 -1.196272730827331543e+00 5.130364745855331421e-02 -3.434907197952270508e-01 -2.385599911212921143e-01
6.600000000000000000e+02 3.306683731079101562e+01 -1.062924480438232422e+01 8.440189957618713379e-01 4.160885334014892578e+00 1.501471400260925293e+00 -2.090112209320068359e+00
6.610000000000000000e+02 3.460701751708984375e+01 -1.353970050811767578e+01 1.350213050842285156e+00 1.216953945159912109e+01 4.055925846099853516e+00 -3.545449256896972656e+00
6.620000000000000000e+02 3.501021575927734375e+01 -1.512865734100341797e+01 7.304848432540893555e-01 1.293682956695556641e+01 4.100194454193115234e+00 -2.580256223678588867e+00
6.630000000000000000e+02 3.530235671997070312e+01 -1.755813217163085938e+01 1.069966703653335571e-01 1.157139110565185547e+01 3.503516435623168945e+00 -9.199358820915222168e-01
6.640000000000000000e+02 3.524584579467773438e+01 -1.674542427062988281e+01 3.340730667114257812e-01 1.251792812347412109e+01 3.855600357055664062e+00 -1.282564759254455566e+00
6.650000000000000000e+02 3.537180709838867188e+01 -1.999773979187011719e+01 1.297863870859146118e-01 1.108226776123046875e+01 3.363616228103637695e+00 3.798164799809455872e-02
6.660000000000000000e+02 3.533683776855468750e+01 -2.081322097778320312e+01 4.341272711753845215e-01 1.136042308807373047e+01 3.538365125656127930e+00 6.805148720741271973e-01
6.670000000000000000e+02 3.506142044067382812e+01 -2.242867660522460938e+01 7.307032346725463867e-01 9.807558059692382812e+00 3.161478281021118164e+00 2.133527994155883789e+00
6.680000000000000000e+02 3.403556823730468750e+01 -2.465896034240722656e+01 2.159862518310546875e+00 4.975494861602783203e+00 2.140607118606567383e+00 3.024333000183105469e+00
6.690000000000000000e+02 3.300328445434570312e+01 -2.590657234191894531e+01 1.563119053840637207e+00 2.695362567901611328e+00 1.277544498443603516e+00 2.015269517898559570e+00
6.700000000000000000e+02 3.192574119567871094e+01 -2.713035774230957031e+01 1.038408398628234863e+00 1.784861803054809570e+00 8.469810485839843750e-01 1.381487846374511719e+00
6.710000000000000000e+02 3.074948692321777344e+01 -2.832675552368164062e+01 5.128005146980285645e-01 1.119462132453918457e+00 4.896788001060485840e-01 8.392118215560913086e-01
6.720000000000000000e+02 3.001956939697265625e+01 -2.874325370788574219e+01 -9.297288954257965088e-02 5.719844698905944824e-01 1.437034755945205688e-01 4.830653071403503418e-01
6.730000000000000000e+02 2.759173011779785156e+01 -2.945139122009277344e+01 -1.524829030036926270e+00 -7.836169563233852386e-03 -4.597995579242706299e-01 -4.431268572807312012e-02
6.740000000000000000e+02 2.841063308715820312e+01 -2.926379966735839844e+01 -1.123844861984252930e+00 9.565757215023040771e-02 -3.084561824798583984e-01 -4.980554804205894470e-03
6.750000000000000000e+02 2.594789886474609375e+01 -2.960116004943847656e+01 -1.850285053253173828e+00 -4.661655053496360779e-02 -5.690704584121704102e-01 4.316208884119987488e-02
6.760000000000000000e+02 2.437123489379882812e+01 -2.960835647583007812e+01 -1.877279043197631836e+00 -1.707651913166046143e-01 -6.144132614135742188e-01 2.380523532629013062e-01
6.770000000000000000e+02 2.300248718261718750e+01 -2.933521461486816406e+01 -1.562226653099060059e+00 -2.314714342355728149e-01 -5.381094217300415039e-01 3.491110503673553467e-01
6.780000000000000000e+02 2.234852981567382812e+01 -2.889836120605468750e+01 -1.188338160514831543e+00 -2.110588103532791138e-01 -4.198191165924072266e-01 4.210945665836334229e-01
6.790000000000000000e+02 2.050656127929687500e+01 -2.730767631530761719e+01 -3.730154037475585938e-01 -7.353427261114120483e-02 -1.339648962020874023e-01 1.981963515281677246e-01
6.800000000000000000e+02 2.109559249877929688e+01 -2.786101341247558594e+01 -5.913642048835754395e-01 -1.602497249841690063e-01 -2.254841774702072144e-01 3.018242120742797852e-01
6.810000000000000000e+02 1.931583404541015625e+01 -2.623519706726074219e+01 -1.298346817493438721e-01 8.878418058156967163e-02 -1.231515128165483475e-02 1.469799038022756577e-02
6.820000000000000000e+02 1.760464096069335938e+01 -2.453619384765625000e+01 1.921467334032058716e-01 4.773125946521759033e-01 2.008378058671951294e-01 -3.288928270339965820e-01
6.830000000000000000e+02 1.706957817077636719e+01 -2.393829917907714844e+01 3.039334118366241455e-01 6.858402490615844727e-01 2.969321012496948242e-01 -4.371256232261657715e-01
6.840000000000000000e+02 1.654362678527832031e+01 -2.333337211608886719e+01 3.800791501998901367e-01 8.873908519744873047e-01 3.802410066127777100e-01 -6.006943583488464355e-01
6.850000000000000000e+02 1.491885662078857422e+01 -2.144252204895019531e+01 8.008735775947570801e-01 3.263776063919067383e+00 1.219394922256469727e+00 -1.027493476867675781e+00
6.860000000000000000e+02 1.460600757598876953e+01 -1.640338134765625000e+01 7.064920663833618164e-01 5.630633354187011719e+00 1.901137709617614746e+00 1.131650805473327637e+00
6.870000000000000000e+02 1.485111331939697266e+01 -1.555953121185302734e+01 1.091674208641052246e+00 5.503256797790527344e+00 1.978479266166687012e+00 1.822104811668395996e+00
6.880000000000000000e+02 1.526492214202880859e+01 -1.480587005615234375e+01 1.553645968437194824e+00 5.068103313446044922e+00 1.986524820327758789e+00 2.506763219833374023e+00
6.890000000000000000e+02 1.622566795349121094e+01 -1.347347831726074219e+01 2.788388490676879883e+00 3.524577617645263672e+00 1.893889904022216797e+00 2.913913011550903320e+00
6.900000000000000000e+02 1.748608398437500000e+01 -1.239063358306884766e+01 4.161052227020263672e+00 2.020726919174194336e+00 1.854533672332763672e+00 2.491963863372802734e+00
6.910000000000000000e+02 1.983574485778808594e+01 -1.174220371246337891e+01 2.314592123031616211e+00 1.422143131494522095e-01 7.370419502258300781e-01 6.023244857788085938e-01
6.920000000000000000e+02 1.904892539978027344e+01 -1.187383842468261719e+01 3.189717769622802734e+00 3.188085854053497314e-01 1.052557945251464844e+00 8.770763278007507324e-01
6.930000000000000000e+02 2.214753723144531250e+01 -1.122334575653076172e+01 1.245285153388977051e+00 1.180442720651626587e-01 4.089988172054290771e-01 4.783505797386169434e-01
6.940000000000000000e+02 2.180052566528320312e+01 -1.054022407531738281e+01 1.252595424652099609e+00 2.418719828128814697e-01 4.483402371406555176e-01 6.977426409721374512e-01
6.950000000000000000e+02 2.395217704772949219e+01 -9.758366584777832031e+00 5.040696263313293457e-01 2.786323726177215576e-01 2.348106056451797485e-01 6.019860506057739258e-01
6.960000000000000000e+02 2.436870193481445312e+01 -1.042302894592285156e+01 6.055842041969299316e-01 2.036870121955871582e-01 2.427813708782196045e-01 3.780397772789001465e-01
6.970000000000000000e+02 2.572789955139160156e+01 -9.634990692138671875e+00 2.059439420700073242e-01 2.887964546680450439e-01 1.484221220016479492e-01 2.735691964626312256e-01
6.980000000000000000e+02 2.711548423767089844e+01 -8.820261955261230469e+00 -1.173802733421325684e+00 1.025849431753158569e-01 -3.213653266429901123e-01 -1.608133167028427124e-01
6.990000000000000000e+02 2.859854316711425781e+01 -8.219442367553710938e+00 -4.781587600708007812e+00 -1.137684360146522522e-01 -1.468606710433959961e+00 -1.232490837574005127e-01
7.000000000000000000e+02 2.932868957519531250e+01 -8.058265686035156250e+00 -6.248047351837158203e+00 -7.287275195121765137e-01 -2.093032598495483398e+00 9.493886828422546387e-01
7.010000000000000000e+02 6.635297393798828125e+01 -1.322467803955078125e+01 8.597644567489624023e-01 2.781308412551879883e+00 1.092321872711181641e+00 -2.043225526809692383e+00
7.020000000000000000e+02 6.859625244140625000e+01 -1.668927383422851562e+01 1.655274629592895508e+00 1.993375396728515625e+01 6.476708412170410156e+00 -3.080937385559082031e+00
7.030000000000000000e+02 6.866563415527343750e+01 -1.837654876708984375e+01 4.547151923179626465e-01 1.913698959350585938e+01 5.877511501312255859e+00 2.646394670009613037e-01
7.040000000000000000e+02 6.834314727783203125e+01 -2.082708549499511719e+01 1.211158871650695801e+00 1.661903572082519531e+01 5.349058628082275391e+00 3.375535964965820312e+00
7.050000000000000000e+02 6.809405517578125000e+01 -2.161081314086914062e+01 2.274631023406982422e+00 1.512785053253173828e+01 5.220744132995605469e+00 4.587611198425292969e+00
7.060000000000000000e+02 6.727381134033203125e+01 -2.303418350219726562e+01 2.841089248657226562e+00 7.300398826599121094e+00 3.042446374893188477e+00 4.253330230712890625e+00
7.070000000000000000e+02 6.675868225097656250e+01 -2.366698074340820312e+01 2.229674577713012695e+00 4.723420143127441406e+00 2.085928440093994141e+00 3.180443763732910156e+00
7.080000000000000000e+02 6.510740661621093750e+01 -2.545463371276855469e+01 6.642281413078308105e-01 1.629237294197082520e+00 6.880396008491516113e-01 1.088846445083618164e+00
7.090000000000000000e+02 6.454484558105468750e+01 -2.604374122619628906e+01 2.923537492752075195e-01 1.105238080024719238e+00 4.192775487899780273e-01 6.695431470870971680e-01
7.100000000000000000e+02 6.339469528198242188e+01 -2.720674705505371094e+01 -4.689747095108032227e-01 2.865716218948364258e-01 -5.472093075513839722e-02 -6.251589208841323853e-02
7.110000000000000000e+02 6.278091812133789062e+01 -2.775670433044433594e+01 -1.036638975143432617e+00 -6.756822019815444946e-02 -3.312621712684631348e-01 -4.363195002079010010e-01
7.120000000000000000e+02 6.211503219604492188e+01 -2.825318336486816406e+01 -1.716628789901733398e+00 -3.305340111255645752e-01 -6.141487956047058105e-01 -7.309373617172241211e-01
7.130000000000000000e+02 5.912905120849609375e+01 -2.965614318847656250e+01 -3.044085741043090820e+00 -3.513165116310119629e-01 -1.018620729446411133e+00 -8.513466715812683105e-01
7.140000000000000000e+02 5.673067855834960938e+01 -3.025487518310546875e+01 -3.161145925521850586e+00 -2.257288247346878052e-01 -1.016062498092651367e+00 -5.515871047973632812e-01
7.150000000000000000e+02 5.591587448120117188e+01 -3.131805992126464844e+01 -1.813263535499572754e+00 -2.326879352331161499e-01 -6.137854456901550293e-01 -4.931238889694213867e-01
7.160000000000000000e+02 5.590407180786132812e+01 -3.034788703918457031e+01 -2.988369941711425781e+00 -1.322934180498123169e-01 -9.361990094184875488e-01 -3.420730531215667725e-01
7.170000000000000000e+02 5.179392623901367188e+01 -3.006327629089355469e+01 -6.797984242439270020e-01 2.127786725759506226e-01 -1.401059180498123169e-01 -3.387801051139831543e-01
7.180000000000000000e+02 4.945895767211914062e+01 -2.920120239257812500e+01 2.199003219604492188e+00 2.016844511032104492e+00 1.264754414558410645e+00 -2.022324800491333008e+00
7.190000000000000000e+02 4.813296127319335938e+01 -2.819563484191894531e+01 3.160422563552856445e+00 4.380239486694335938e+00 2.262198686599731445e+00 -3.431554317474365234e+00
7.200000000000000000e+02 4.701808929443359375e+01 -2.696135902404785156e+01 3.561050176620483398e+00 7.784280776977539062e+00 3.403599262237548828e+00 -4.797017097473144531e+00
7.210000000000000000e+02 4.554294586181640625e+01 -2.222104644775390625e+01 2.142751067876815796e-01 1.197602176666259766e+01 3.657088994979858398e+00 -5.336356163024902344e-01
7.220000000000000000e+02 4.560062408447265625e+01 -2.056493377685546875e+01 1.658152639865875244e-01 1.119244384765625000e+01 3.407477855682373047e+00 9.757781773805618286e-02
7.230000000000000000e+02 4.566094970703125000e+01 -1.975524520874023438e+01 2.971073091030120850e-01 1.200708580017089844e+01 3.691257953643798828e+00 6.224877834320068359e-01
7.240000000000000000e+02 4.578656768798828125e+01 -1.894847297668457031e+01 1.513106346130371094e+00 1.302511501312255859e+01 4.361466407775878906e+00 2.421345710754394531e+00
7.250000000000000000e+02 4.697078704833984375e+01 -1.687308692932128906e+01 2.453820705413818359e+00 4.137277603149414062e+00 1.977329492568969727e+00 2.951963424682617188e+00
7.260000000000000000e+02 4.864464569091796875e+01 -1.478018283843994141e+01 1.276960968971252441e+00 1.720495104789733887e+00 8.992367982864379883e-01 1.578919291496276855e+00
7.270000000000000000e+02 5.014207077026367188e+01 -1.476724720001220703e+01 8.715065717697143555e-01 3.255773484706878662e-01 3.591251671314239502e-01 8.149366378784179688e-01
7.280000000000000000e+02 5.168951034545898438e+01 -1.526350784301757812e+01 -1.297499686479568481e-01 6.360322237014770508e-02 -1.984402164816856384e-02 1.439965367317199707e-01
7.290000000000000000e+02 5.246847915649414062e+01 -1.514683723449707031e+01 -5.532590746879577637e-01 1.934558711946010590e-02 -1.601740419864654541e-01 9.154219180345535278e-02
7.300000000000000000e+02 5.325244140625000000e+01 -1.504652690887451172e+01 -9.550886750221252441e-01 2.489206567406654358e-02 -2.790589630603790283e-01 5.647876486182212830e-02
7.310000000000000000e+02 5.403939819335937500e+01 -1.495893859863281250e+01 -1.295886397361755371e+00 1.503157243132591248e-02 -3.842564523220062256e-01 1.841692067682743073e-02
7.320000000000000000e+02 5.482761383056640625e+01 -1.487310218811035156e+01 -1.595764875411987305e+00 2.682042121887207031e-02 -4.706833362579345703e-01 -3.575592115521430969e-02
7.330000000000000000e+02 5.719871902465820312e+01 -1.460717868804931641e+01 -2.318109512329101562e+00 1.898892037570476532e-02 -6.897361874580383301e-01 -1.652406156063079834e-01
7.340000000000000000e+02 5.952095413208007812e+01 -1.421954441070556641e+01 -2.310000658035278320e+00 -5.499602481722831726e-02 -7.094990015029907227e-01 -5.867424011230468750e-01
7.350000000000000000e+02 6.026203155517578125e+01 -1.397611236572265625e+01 -2.471860647201538086e+00 -1.604706197977066040e-01 -7.896993756294250488e-01 -8.348070979118347168e-01
7.360000000000000000e+02 6.098413848876953125e+01 -1.368393516540527344e+01 -2.704459428787231445e+00 -3.559233248233795166e-01 -9.181148409843444824e-01 -1.086231827735900879e+00
7.370000000000000000e+02 6.237322235107421875e+01 -1.297242259979248047e+01 -4.162009716033935547e+00 -9.002510905265808105e-01 -1.518678307533264160e+00 -1.825246334075927734e+00
7.380000000000000000e+02 6.173181533813476562e+01 1.890842628479003906e+01 2.360833644866943359e+00 1.168057155609130859e+01 4.212421894073486328e+00 -3.863183021545410156e+00
7.390000000000000000e+02 6.214616012573242188e+01 1.611769104003906250e+01 2.949202358722686768e-01 1.250820064544677734e+01 3.840936422348022461e+00 -7.043041586875915527e-01
7.400000000000000000e+02 6.213790893554687500e+01 1.532983779907226562e+01 9.370157867670059204e-02 1.212368202209472656e+01 3.665215253829956055e+00 -2.581606209278106689e-01
7.410000000000000000e+02 6.211327743530273438e+01 1.375728225708007812e+01 6.538707762956619263e-02 1.168713092803955078e+01 3.525755405426025391e+00 1.218679845333099365e-01
7.420000000000000000e+02 6.258519744873046875e+01 1.118042659759521484e+01 3.789205551147460938e-01 1.056692409515380859e+01 3.283753395080566406e+00 9.957353472709655762e-01
7.430000000000000000e+02 6.171917724609375000e+01 9.806758880615234375e+00 5.533567667007446289e-01 1.054505348205566406e+01 3.329523324966430664e+00 1.873453736305236816e+00
7.440000000000000000e+02 6.153957366943359375e+01 9.023645401000976562e+00 6.263655424118041992e-01 9.673176765441894531e+00 3.089862585067749023e+00 2.167742013931274414e+00
7.450000000000000000e+02 6.080812072753906250e+01 6.735489368438720703e+00 9.767872095108032227e-01 7.624125480651855469e+00 2.580273866653442383e+00 2.485038042068481445e+00
7.460000000000000000e+02 6.062887573242187500e+01 4.900677204132080078e+00 1.169349431991577148e+00 5.868601322174072266e+00 2.111385345458984375e+00 2.086760282516479492e+00
7.470000000000000000e+02 5.876086807250976562e+01 3.293636322021484375e+00 1.392860770225524902e+00 3.075846672058105469e+00 1.340612173080444336e+00 2.034466266632080078e+00
7.480000000000000000e+02 5.828585433959960938e+01 2.655452489852905273e+00 1.270173430442810059e+00 2.674630641937255859e+00 1.183441162109375000e+00 1.831612110137939453e+00
7.490000000000000000e+02 5.781542205810546875e+01 2.020218849182128906e+00 1.087769627571105957e+00 2.418748140335083008e+00 1.051955342292785645e+00 1.666880488395690918e+00
7.500000000000000000e+02 5.694855117797851562e+01 7.111947536468505859e-01 1.123153924942016602e+00 2.646882295608520508e+00 1.131010890007019043e+00 1.693726301193237305e+00
7.510000000000000000e+02 5.697793579101562500e+01 -4.062931835651397705e-01 1.435836434364318848e+00 2.483394622802734375e+00 1.175769329071044922e+00 1.686866283416748047e+00
7.520000000000000000e+02 5.500503540039062500e+01 -1.806068301200866699e+00 1.734805583953857422e+00 2.118737459182739258e+00 1.156062960624694824e+00 1.891706943511962891e+00
7.530000000000000000e+02 5.446088409423828125e+01 -2.377928733825683594e+00 1.751578569412231445e+00 1.993149280548095703e+00 1.123418331146240234e+00 1.837523102760314941e+00
7.540000000000000000e+02 5.281379699707031250e+01 -4.063695907592773438e+00 1.714794754981994629e+00 1.904743790626525879e+00 1.085861563682556152e+00 1.764294266700744629e+00
7.550000000000000000e+02 5.224063491821289062e+01 -4.586042404174804688e+00 1.751748681068420410e+00 1.530971050262451172e+00 9.848158955574035645e-01 1.512463092803955078e+00
7.560000000000000000e+02 5.118552017211914062e+01 -5.627009868621826172e+00 -7.034975290298461914e-01 5.808495283126831055e-01 -3.679439797997474670e-02 1.353394508361816406e+00
7.570000000000000000e+02 4.810630035400390625e+01 -4.953761577606201172e+00 -4.616343498229980469e+00 -4.066923856735229492e-01 -1.506910800933837891e+00 1.130813360214233398e+00
7.580000000000000000e+02 4.734077072143554688e+01 -4.744929790496826172e+00 -4.480576038360595703e+00 -4.644515216350555420e-01 -1.483508229255676270e+00 1.328115582466125488e+00
7.590000000000000000e+02 4.658736419677734375e+01 -4.498820781707763672e+00 -4.057567119598388672e+00 -3.068355619907379150e-01 -1.309320807456970215e+00 1.242077708244323730e+00
7.600000000000000000e+02 4.485448455810546875e+01 -4.664903163909912109e+00 -2.694180727005004883e+00 4.364714920520782471e-01 -6.773127913475036621e-01 1.486225575208663940e-01
7.610000000000000000e+02 4.279402160644531250e+01 -3.267038822174072266e+00 -2.623894512653350830e-01 1.298503756523132324e+00 3.108342885971069336e-01 -9.780794382095336914e-01
7.620000000000000000e+02 4.141431045532226562e+01 -2.331895112991333008e+00 3.289330720901489258e+00 6.274456977844238281e+00 2.869136333465576172e+00 -4.313590049743652344e+00
7.630000000000000000e+02 4.086759948730468750e+01 -1.689539432525634766e+00 3.790405988693237305e+00 1.018898105621337891e+01 4.193816184997558594e+00 -5.509087085723876953e+00
7.640000000000000000e+02 3.988744735717773438e+01 5.665334463119506836e-01 1.532700538635253906e+00 1.498338413238525391e+01 4.954825401306152344e+00 -4.205252170562744141e+00
7.650000000000000000e+02 3.944809341430664062e+01 2.945821285247802734e+00 5.519090890884399414e-01 1.676612854003906250e+01 5.195411205291748047e+00 -1.302185654640197754e+00
7.660000000000000000e+02 3.953946304321289062e+01 2.147050619125366211e+00 7.862713336944580078e-01 1.668204307556152344e+01 5.240494251251220703e+00 -2.432691335678100586e+00
7.670000000000000000e+02 3.421804809570312500e+01 5.405082225799560547e+00 6.233155131340026855e-01 1.584043312072753906e+01 4.939124584197998047e+00 4.760089218616485596e-01
7.680000000000000000e+02 3.315631103515625000e+01 9.272359848022460938e+00 5.004271864891052246e-01 1.310761070251464844e+01 4.082411289215087891e+00 -2.123478651046752930e+00
7.690000000000000000e+02 3.957226181030273438e+01 7.757198333740234375e+00 1.043101906776428223e+00 1.811770820617675781e+01 5.748242855072021484e+00 2.974099636077880859e+00
7.700000000000000000e+02 3.378349685668945312e+01 9.424383163452148438e+00 5.751568675041198730e-01 1.310870170593261719e+01 4.105157852172851562e+00 -1.742732644081115723e+00
7.710000000000000000e+02 3.975712203979492188e+01 8.549426078796386719e+00 1.852455854415893555e+00 1.708269691467285156e+01 5.680545806884765625e+00 4.377655029296875000e+00
7.720000000000000000e+02 4.120740890502929688e+01 1.142735576629638672e+01 2.697146177291870117e+00 7.549899101257324219e+00 3.074113607406616211e+00 4.283771514892578125e+00
7.730000000000000000e+02 4.322574234008789062e+01 1.392507839202880859e+01 2.310024499893188477e+00 3.366823911666870117e+00 1.703054547309875488e+00 2.692459106445312500e+00
7.740000000000000000e+02 4.378216934204101562e+01 1.450003051757812500e+01 2.181330680847167969e+00 2.735325098037719727e+00 1.474996685981750488e+00 2.362062931060791016e+00
7.750000000000000000e+02 4.494601440429687500e+01 1.558581352233886719e+01 1.664869785308837891e+00 1.788967490196228027e+00 1.036151170730590820e+00 1.716152787208557129e+00
7.760000000000000000e+02 4.674316024780273438e+01 1.715676689147949219e+01 1.112800478935241699e+00 1.060695052146911621e+00 6.520486474037170410e-01 1.076589703559875488e+00
7.770000000000000000e+02 4.736650085449218750e+01 1.765387344360351562e+01 8.626995682716369629e-01 8.261713385581970215e-01 5.066612958908081055e-01 8.560370802879333496e-01
7.780000000000000000e+02 4.799680328369140625e+01 1.815048599243164062e+01 6.089708209037780762e-01 6.507799029350280762e-01 3.779252171516418457e-01 6.570270061492919922e-01
7.790000000000000000e+02 4.864135742187500000e+01 1.864459037780761719e+01 3.028774559497833252e-01 4.812228381633758545e-01 2.352300882339477539e-01 4.549617469310760498e-01
7.800000000000000000e+02 5.312772750854492188e+01 2.060595703125000000e+01 -1.866494178771972656e+00 -2.637407928705215454e-02 -5.678604841232299805e-01 -3.870106041431427002e-01
7.810000000000000000e+02 5.467957305908203125e+01 2.105984115600585938e+01 -2.604980230331420898e+00 -1.531948894262313843e-01 -8.274525403976440430e-01 -4.634830951690673828e-01
7.820000000000000000e+02 5.705034637451171875e+01 2.145982551574707031e+01 -2.514142036437988281e+00 -1.433458775281906128e-01 -7.972463965415954590e-01 -5.258078575134277344e-01
7.830000000000000000e+02 5.454120635986328125e+01 2.195847702026367188e+01 -1.484710454940795898e+00 -2.506584487855434418e-02 -4.529328942298889160e-01 -9.445238113403320312e-02
7.840000000000000000e+02 2.236829757690429688e+01 4.406822204589843750e+00 -6.348779425024986267e-05 -9.212421718984842300e-05 -4.668360270443372428e-05 -5.981390859233215451e-05
7.850000000000000000e+02 2.299022102355957031e+01 3.912264347076416016e+00 4.020598498755134642e-05 5.712235360988415778e-05 2.919850157923065126e-05 5.028191299061290920e-05
7.860000000000000000e+02 2.172461128234863281e+01 4.928934097290039062e+00 7.894803275121375918e-05 6.006459443597123027e-05 4.170378815615549684e-05 1.107304778997786343e-04
7.870000000000000000e+02 2.091343307495117188e+01 3.168431758880615234e+00 6.976746954023838043e-05 6.353300705086439848e-05 3.999014370492659509e-05 4.038776023662649095e-05
7.880000000000000000e+02 1.992559242248535156e+01 6.535023212432861328e+00 -2.288086398039013147e-04 -1.421797642251476645e-04 -1.112965182983316481e-04 -1.519719662610441446e-04
7.890000000000000000e+02 2.136940574645996094e+01 3.932119607925415039e+00 1.204794243676587939e-04 1.624780998099595308e-05 4.101817103219218552e-05 6.447960186051204801e-05
7.900000000000000000e+02 2.052609062194824219e+01 6.007225036621093750e+00 1.316900452366098762e-04 1.117179490393027663e-04 7.302239828277379274e-05 1.735084078973159194e-04
7.910000000000000000e+02 1.817076683044433594e+01 8.183418273925781250e+00 3.934271808248013258e-04 6.048534414730966091e-04 2.994842070620507002e-04 5.216107297201233450e-07
7.920000000000000000e+02 1.837451744079589844e+01 2.165882587432861328e+00 1.437599439668701962e-05 -1.533048452984075993e-05 -2.863472161607205635e-07 7.265026943059638143e-05
7.930000000000000000e+02 1.896914672851562500e+01 2.857731342315673828e+00 -8.001036917448800523e-07 -1.843753125285729766e-05 -5.771290489064995199e-06 3.623108204919844866e-05
7.940000000000000000e+02 1.619152069091796875e+01 2.626826047897338867e+00 1.128977455664426088e-04 9.942628093995153904e-05 6.369721086230129004e-05 3.345817385707050562e-04
7.950000000000000000e+02 1.942548179626464844e+01 6.155575275421142578e+00 8.587821503169834614e-05 2.816869819071143866e-04 1.102695605368353426e-04 1.024338416755199432e-04
7.960000000000000000e+02 1.405548667907714844e+01 3.192317962646484375e+00 3.081040631514042616e-04 8.921237895265221596e-05 1.191949268104508519e-04 7.159147062338888645e-04
7.970000000000000000e+02 1.479157733917236328e+01 1.906509518623352051e+00 4.149460874032229185e-04 2.008193114306777716e-04 1.847296225605532527e-04 3.905154590029269457e-04
7.980000000000000000e+02 1.548476696014404297e+01 2.585035085678100586e+00 2.609252987895160913e-04 3.115059807896614075e-04 1.717293780529871583e-04 4.069764981977641582e-04
7.990000000000000000e+02 1.189919281005859375e+01 3.185728549957275391e+00 8.083559223450720310e-04 -2.392305941611994058e-05 2.353298623347654939e-04 7.289417553693056107e-04
8.000000000000000000e+02 1.260939502716064453e+01 2.520877838134765625e+00 7.591670728288590908e-04 8.878407243173569441e-05 2.543853479437530041e-04 6.260968511924147606e-04
8.010000000000000000e+02 1.259912204742431641e+01 1.850306034088134766e+00 8.137019467540085316e-04 -8.090327173704281449e-05 2.198396105086430907e-04 5.238834419287741184e-04
8.020000000000000000e+02 1.333667850494384766e+01 2.525719642639160156e+00 5.505661829374730587e-04 -2.490221231710165739e-05 1.576991926413029432e-04 6.506904610432684422e-04
8.030000000000000000e+02 1.188480854034423828e+01 -2.533101081848144531e+00 -1.010421872138977051e+00 1.157694086432456970e-01 -2.683957517147064209e-01 -2.172240465879440308e-01
8.040000000000000000e+02 9.589890480041503906e+00 -2.555600643157958984e+00 -8.572431206703186035e-01 6.158266216516494751e-02 -2.386981397867202759e-01 -3.824496269226074219e-01
8.050000000000000000e+02 8.835124015808105469e+00 -1.855198979377746582e+00 -9.462317824363708496e-01 2.068036235868930817e-02 -2.776654362678527832e-01 -3.341329097747802734e-01
8.060000000000000000e+02 1.111991882324218750e+01 -2.541676282882690430e+00 -9.723453521728515625e-01 9.844586253166198730e-02 -2.621698677539825439e-01 -2.834935188293457031e-01
8.070000000000000000e+02 1.500695800781250000e+01 -3.130141735076904297e+00 -7.751699090003967285e-01 2.910304665565490723e-01 -1.452418267726898193e-01 2.117471694946289062e-01
8.080000000000000000e+02 1.265518283843994141e+01 -2.519465684890747070e+00 -1.032351493835449219e+00 1.328458935022354126e-01 -2.698516845703125000e-01 -1.356563717126846313e-01
8.090000000000000000e+02 1.342737197875976562e+01 -2.500698804855346680e+00 -1.036815881729125977e+00 1.494063138961791992e-01 -2.662228643894195557e-01 -4.700216278433799744e-02
8.100000000000000000e+02 8.063783645629882812e+00 -1.857813596725463867e+00 -8.431393504142761230e-01 1.088560186326503754e-02 -2.496761232614517212e-01 -3.489663004875183105e-01
8.110000000000000000e+02 1.112978363037109375e+01 -3.228674650192260742e+00 -7.805548906326293945e-01 1.591394245624542236e-01 -1.864246428012847900e-01 -3.162527382373809814e-01
8.120000000000000000e+02 5.751534461975097656e+00 -1.864448070526123047e+00 -5.193655490875244141e-01 -2.672296576201915741e-02 -1.638265550136566162e-01 -3.372485339641571045e-01
8.130000000000000000e+02 3.370984315872192383e+00 -3.362528800964355469e+00 -1.714369505643844604e-01 -1.774061620235443115e-01 -1.046529337763786316e-01 -3.713666796684265137e-01
8.140000000000000000e+02 6.491175174713134766e+00 -2.588900327682495117e+00 -5.302186608314514160e-01 -2.326235175132751465e-02 -1.660442948341369629e-01 -4.410544037818908691e-01
8.150000000000000000e+02 7.264897823333740234e+00 -2.581769704818725586e+00 -6.161913871765136719e-01 -8.606818737462162971e-04 -1.851156055927276611e-01 -4.445610642433166504e-01
8.160000000000000000e+02 4.943390846252441406e+00 -2.599232673645019531e+00 -3.604463934898376465e-01 -6.992173194885253906e-02 -1.291104406118392944e-01 -3.997620344161987305e-01
8.170000000000000000e+02 3.752680420875549316e-01 -5.903737545013427734e+00 -2.079058671370148659e-03 -6.532639265060424805e-01 -1.966028958559036255e-01 -7.775841653347015381e-02
8.180000000000000000e+02 3.734235167503356934e-01 -5.098581790924072266e+00 -2.546170493587851524e-03 -4.892477095127105713e-01 -1.475381553173065186e-01 -7.244919240474700928e-02
8.190000000000000000e+02 1.127624511718750000e+00 -6.679414749145507812e+00 -2.972711110487580299e-03 -7.334572672843933105e-01 -2.209289968013763428e-01 -2.279435098171234131e-01
8.200000000000000000e+02 3.735811114311218262e-01 -2.692861318588256836e+00 -7.465795148164033890e-03 -1.065885052084922791e-01 -3.421628847718238831e-02 -3.976268693804740906e-02
8.210000000000000000e+02 3.713510334491729736e-01 -4.294502258300781250e+00 -4.592772573232650757e-03 -3.388918340206146240e-01 -1.030453816056251526e-01 -6.452783942222595215e-02
8.220000000000000000e+02 1.813369941711425781e+01 -2.232332229614257812e+00 -6.260306835174560547e-01 2.395287156105041504e-01 -1.159505993127822876e-01 5.795442461967468262e-01
8.230000000000000000e+02 1.728255653381347656e+01 -1.614795207977294922e+00 -9.470899105072021484e-01 1.357622593641281128e-01 -2.433983087539672852e-01 3.522490561008453369e-01
8.240000000000000000e+02 1.576053428649902344e+01 -2.414673566818237305e+00 -9.259898066520690918e-01 2.016636133193969727e-01 -2.172978520393371582e-01 2.693520486354827881e-01
8.250000000000000000e+02 1.655110931396484375e+01 -2.365911245346069336e+00 -8.439202308654785156e-01 2.148513048887252808e-01 -1.887206882238388062e-01 3.776762485504150391e-01
8.260000000000000000e+02 5.704238510131835938e+01 2.335936164855957031e+01 -2.944958209991455078e-01 5.359548330307006836e-01 7.243770360946655273e-02 -8.954565525054931641e-01
8.270000000000000000e+02 5.163170242309570312e+01 -5.003098011016845703e+00 3.510479629039764404e-01 7.591102719306945801e-01 3.330474793910980225e-01 1.050120592117309570e+00
8.280000000000000000e+02 5.042410659790039062e+01 -5.317422389984130859e+00 -1.735632777214050293e+00 9.802784025669097900e-02 -4.912814795970916748e-01 7.883281111717224121e-01
8.290000000000000000e+02 5.325889205932617188e+01 -4.511014938354492188e+00 1.241470456123352051e+00 1.672336697578430176e+00 8.741421103477478027e-01 1.386162877082824707e+00
8.300000000000000000e+02 5.547430801391601562e+01 2.120865821838378906e+01 -2.574425697326660156e+00 -8.723264932632446289e-02 -7.984974980354309082e-01 -3.819681107997894287e-01
8.310000000000000000e+02 6.012617874145507812e+01 5.276728630065917969e+00 1.753972411155700684e+00 5.630341053009033203e+00 2.215294122695922852e+00 2.921551227569580078e+00
8.320000000000000000e+02 4.966135406494140625e+01 -5.217745304107666016e+00 -3.033010721206665039e+00 -9.197828918695449829e-02 -9.374967217445373535e-01 6.994631886482238770e-01
8.330000000000000000e+02 5.014402389526367188e+01 -6.157979488372802734e+00 -1.309427380561828613e+00 1.177024319767951965e-01 -3.575174808502197266e-01 1.689524531364440918e+00
8.340000000000000000e+02 6.215864562988281250e+01 1.766908645629882812e+01 1.258466243743896484e+00 1.330891895294189453e+01 4.370215415954589844e+00 -2.267238140106201172e+00
8.350000000000000000e+02 6.228128051757812500e+01 1.960739326477050781e+01 1.436254262924194336e+00 9.279020309448242188e+00 3.214582443237304688e+00 -1.602796196937561035e+00
8.360000000000000000e+02 6.215431976318359375e+01 1.690279960632324219e+01 2.849013507366180420e-01 1.291329956054687500e+01 3.959460258483886719e+00 -1.157580137252807617e+00
8.370000000000000000e+02 6.312720870971679688e+01 1.740806198120117188e+01 1.613550543785095215e+00 1.035826206207275391e+01 3.591543912887573242e+00 -1.522905349731445312e+00
8.380000000000000000e+02 4.030875015258789062e+01 -2.066531658172607422e+00 1.829060435295104980e+00 1.034406852722167969e+01 3.651938676834106445e+00 -3.351446866989135742e+00
8.390000000000000000e+02 4.044572067260742188e+01 -9.720799922943115234e-01 3.052288770675659180e+00 1.318672561645507812e+01 4.871704101562500000e+00 -5.486262321472167969e+00
8.400000000000000000e+02 3.861407470703125000e+01 2.582007050514221191e-01 1.994889855384826660e+00 1.309520816802978516e+01 4.527029037475585938e+00 -2.580716609954833984e+00
8.410000000000000000e+02 5.372727966308593750e+01 2.171197891235351562e+01 -1.570012211799621582e+00 1.029248386621475220e-01 -4.401262104511260986e-01 -7.942478172481060028e-03
8.420000000000000000e+02 4.354986190795898438e+01 -3.573316335678100586e+00 -2.146338939666748047e+00 2.989950180053710938e-01 -5.542032122611999512e-01 2.741028741002082825e-02
8.430000000000000000e+02 4.409556961059570312e+01 -4.419249534606933594e+00 -2.229081869125366211e+00 7.729490995407104492e-01 -4.368398189544677734e-01 -3.389342129230499268e-01
8.440000000000000000e+02 4.878184127807617188e+01 2.122449302673339844e+01 -2.840940952301025391e-01 1.240161299705505371e+00 2.868201732635498047e-01 9.794186353683471680e-01
8.450000000000000000e+02 4.931396102905273438e+01 1.911885452270507812e+01 -8.170012384653091431e-02 3.116818964481353760e-01 6.899452954530715942e-02 2.492194473743438721e-01
8.460000000000000000e+02 6.180386734008789062e+01 2.011570549011230469e+01 1.305581688880920410e+00 8.784231185913085938e+00 3.026943922042846680e+00 -2.438949584960937500e+00
8.470000000000000000e+02 6.080026626586914062e+01 2.013775825500488281e+01 2.803716182708740234e+00 6.099050998687744141e+00 2.670830249786376953e+00 -3.787716865539550781e+00
8.480000000000000000e+02 4.942249298095703125e+01 -5.961458206176757812e+00 -1.916004896163940430e+00 -1.915950626134872437e-01 -6.322799921035766602e-01 1.329580903053283691e+00
8.490000000000000000e+02 4.252115249633789062e+01 -3.843350887298583984e+00 -9.501840472221374512e-01 3.137778043746948242e+00 6.562781929969787598e-01 -2.072557210922241211e+00
8.500000000000000000e+02 4.167884826660156250e+01 -3.448144674301147461e+00 -2.883231341838836670e-01 5.729379177093505859e+00 1.632316708564758301e+00 -2.858600854873657227e+00
8.510000000000000000e+02 6.185274887084960938e+01 1.059492015838623047e+01 4.275285899639129639e-01 1.102991390228271484e+01 3.437232732772827148e+00 1.357193112373352051e+00
8.520000000000000000e+02 6.332930374145507812e+01 1.178785991668701172e+01 5.605695247650146484e-01 1.012562561035156250e+01 3.205858469009399414e+00 4.876392483711242676e-01
8.530000000000000000e+02 6.107214355468750000e+01 7.489390373229980469e+00 7.622940540313720703e-01 7.882461071014404297e+00 2.593426465988159180e+00 2.432925462722778320e+00
8.540000000000000000e+02 4.077893447875976562e+01 1.074412727355957031e+01 2.610133171081542969e+00 8.973343849182128906e+00 3.475043058395385742e+00 4.619629859924316406e+00
8.550000000000000000e+02 3.401126861572265625e+01 1.191171932220458984e+01 8.093087673187255859e-01 1.157300472259521484e+01 3.714694023132324219e+00 -2.004098176956176758e+00
8.560000000000000000e+02 6.209196472167968750e+01 1.296722030639648438e+01 3.051134347915649414e-01 1.199164772033691406e+01 3.689028263092041016e+00 4.987711608409881592e-01
8.570000000000000000e+02 5.537508392333984375e+01 2.216190147399902344e+01 -1.446439266204833984e+00 3.863926604390144348e-02 -4.223400056362152100e-01 -3.113292753696441650e-01
8.580000000000000000e+02 4.217261505126953125e+01 1.271634483337402344e+01 2.612163066864013672e+00 4.824811935424804688e+00 2.231092453002929688e+00 3.442563295364379883e+00
8.590000000000000000e+02 5.435001373291015625e+01 -3.421724081039428711e+00 1.432884335517883301e+00 1.846428632736206055e+00 9.837939143180847168e-01 1.636492967605590820e+00
8.600000000000000000e+02 4.746566390991210938e+01 1.871254920959472656e+01 4.565318822860717773e-01 1.154627680778503418e+00 4.833478629589080811e-01 9.085426926612854004e-01
8.610000000000000000e+02 4.583294296264648438e+01 -4.261034488677978516e+00 -3.880563259124755859e+00 -2.356328666210174561e-01 -1.234858870506286621e+00 1.054720997810363770e+00
8.620000000000000000e+02 4.712971115112304688e+01 -5.391919612884521484e+00 -3.188403606414794922e+00 -2.171094119548797607e-01 -1.021653890609741211e+00 8.026958703994750977e-01
8.630000000000000000e+02 4.789801025390625000e+01 -5.602768898010253906e+00 -2.938988208770751953e+00 -4.200142920017242432e-01 -1.007700681686401367e+00 9.830020070075988770e-01
8.640000000000000000e+02 3.907308197021484375e+01 1.228155612945556641e+00 1.644520282745361328e+00 1.473010444641113281e+01 4.912387371063232422e+00 -2.717771768569946289e+00
8.650000000000000000e+02 6.019206237792968750e+01 4.181847572326660156e+00 1.144586086273193359e+00 4.922197341918945312e+00 1.820034980773925781e+00 2.154033184051513672e+00
8.660000000000000000e+02 5.234779739379882812e+01 2.039512252807617188e+01 -1.647654056549072266e+00 -2.652628161013126373e-02 -5.022541284561157227e-01 -2.770855724811553955e-01
8.670000000000000000e+02 5.129078674316406250e+01 2.105424499511718750e+01 -9.452812075614929199e-01 2.995326220989227295e-01 -1.937245726585388184e-01 2.783069610595703125e-01
8.680000000000000000e+02 3.883315658569335938e+01 2.877285957336425781e+00 1.192710399627685547e+00 1.552810192108154297e+01 5.016243934631347656e+00 -1.330898523330688477e+00
8.690000000000000000e+02 5.553518676757812500e+01 -1.214261770248413086e+00 1.711234569549560547e+00 2.313892602920532227e+00 1.207538127899169922e+00 1.931867957115173340e+00
8.700000000000000000e+02 5.599204254150390625e+01 -1.706090688705444336e+00 1.519924402236938477e+00 2.237833023071289062e+00 1.127327203750610352e+00 1.708952665328979492e+00
8.710000000000000000e+02 5.703031539916992188e+01 2.237875938415527344e+01 -1.105585336685180664e+00 1.296403855085372925e-01 -2.927834987640380859e-01 -5.398437976837158203e-01
8.720000000000000000e+02 3.360237503051757812e+01 4.487339973449707031e+00 5.235359668731689453e-01 1.786203384399414062e+01 5.515671253204345703e+00 4.183508157730102539e-01
8.730000000000000000e+02 3.926488876342773438e+01 3.968283236026763916e-01 1.806803703308105469e+00 1.404449844360351562e+01 4.755390644073486328e+00 -3.311958074569702148e+00
8.740000000000000000e+02 5.787753677368164062e+01 8.950996398925781250e-01 1.161721229553222656e+00 2.659506559371948242e+00 1.146368384361267090e+00 1.755884289741516113e+00
8.750000000000000000e+02 6.267018890380859375e+01 1.198029041290283203e+01 3.397476673126220703e-01 1.071966743469238281e+01 3.317824602127075195e+00 5.074375271797180176e-01
8.760000000000000000e+02 6.273190689086914062e+01 1.278046035766601562e+01 4.926614761352539062e-01 1.081790256500244141e+01 3.393169403076171875e+00 3.972948193550109863e-01
8.770000000000000000e+02 5.737181472778320312e+01 1.373387932777404785e+00 1.016211271286010742e+00 2.457675933837890625e+00 1.042166113853454590e+00 1.603222489356994629e+00
8.780000000000000000e+02 5.879144668579101562e+01 2.175061941146850586e+00 1.057917714118957520e+00 3.145081281661987305e+00 1.260899662971496582e+00 1.810006380081176758e+00
8.790000000000000000e+02 5.390643310546875000e+01 -2.936280250549316406e+00 1.670178055763244629e+00 1.860260128974914551e+00 1.059131383895874023e+00 1.778155326843261719e+00
8.800000000000000000e+02 3.938960647583007812e+01 5.346956729888916016e+00 7.716345041990280151e-02 1.604248237609863281e+01 4.835893630981445312e+00 2.393876016139984131e-01
8.810000000000000000e+02 3.318432617187500000e+01 1.256045436859130859e+01 9.351176023483276367e-01 1.134896659851074219e+01 3.685225248336791992e+00 -2.480831623077392578e+00
8.820000000000000000e+02 5.960046768188476562e+01 2.268500900268554688e+01 -2.776184678077697754e-01 3.020087003707885742e+00 8.227405548095703125e-01 -2.233018398284912109e+00
8.830000000000000000e+02 6.191614913940429688e+01 7.965159416198730469e+00 7.108071446418762207e-01 8.494170188903808594e+00 2.761493206024169922e+00 1.721155762672424316e+00
8.840000000000000000e+02 4.110005569458007812e+01 1.244401931762695312e+01 2.039097785949707031e+00 7.086178302764892578e+00 2.737582921981811523e+00 3.309555292129516602e+00
8.850000000000000000e+02 4.061844253540039062e+01 1.175454235076904297e+01 2.058932781219482422e+00 8.404183387756347656e+00 3.138934850692749023e+00 3.551079988479614258e+00
8.860000000000000000e+02 4.384782409667968750e+01 1.657052993774414062e+01 1.175732851028442383e+00 3.138024806976318359e+00 1.294127225875854492e+00 1.953292608261108398e+00
8.870000000000000000e+02 3.951273727416992188e+01 -4.359150230884552002e-01 2.191498756408691406e+00 1.294999027252197266e+01 4.542447090148925781e+00 -3.798709392547607422e+00
8.880000000000000000e+02 4.507683181762695312e+01 -4.028882026672363281e+00 -3.553489208221435547e+00 -1.032305434346199036e-01 -1.097015857696533203e+00 8.340191841125488281e-01
8.890000000000000000e+02 4.950498199462890625e+01 2.044938659667968750e+01 -4.330122768878936768e-01 7.570049166679382324e-01 9.719779342412948608e-02 6.211724877357482910e-01
8.900000000000000000e+02 4.877418518066406250e+01 1.983872413635253906e+01 -1.191239953041076660e-01 8.924253582954406738e-01 2.319904118776321411e-01 6.754269599914550781e-01
8.910000000000000000e+02 4.866664123535156250e+01 -5.784788131713867188e+00 -2.596636533737182617e+00 -3.669179677963256836e-01 -8.890663981437683105e-01 1.170427680015563965e+00
8.920000000000000000e+02 3.808634567260742188e+01 4.474195957183837891e+00 1.040006399154663086e+00 1.542645835876464844e+01 4.939939498901367188e+00 1.578618288040161133e-01
8.930000000000000000e+02 6.212461090087890625e+01 1.454360008239746094e+01 7.754540443420410156e-02 1.166944599151611328e+01 3.524097442626953125e+00 -5.368093401193618774e-02
8.940000000000000000e+02 6.283507537841796875e+01 1.511963653564453125e+01 4.023423194885253906e-01 1.137007045745849609e+01 3.531723737716674805e+00 -5.186871290206909180e-01
8.950000000000000000e+02 4.561023330688476562e+01 -4.909170150756835938e+00 -2.950088262557983398e+00 2.109878212213516235e-01 -8.217301368713378906e-01 5.086267590522766113e-01
8.960000000000000000e+02 6.289422607421875000e+01 1.589457416534423828e+01 5.148532390594482422e-01 1.145376014709472656e+01 3.590584039688110352e+00 -7.691943645477294922e-01
8.970000000000000000e+02 6.136068344116210938e+01 6.415246963500976562e+00 1.152995705604553223e+00 7.266024589538574219e+00 2.525706052780151367e+00 2.187161684036254883e+00
8.980000000000000000e+02 4.440103912353515625e+01 1.607281684875488281e+01 1.439592719078063965e+00 2.493048191070556641e+00 1.179792284965515137e+00 1.898723721504211426e+00
8.990000000000000000e+02 4.613270950317382812e+01 1.664429855346679688e+01 1.304416894912719727e+00 1.312031984329223633e+00 7.849346399307250977e-01 1.288594603538513184e+00
9.000000000000000000e+02 5.649736022949218750e+01 -1.064025282859802246e+00 1.501757979393005371e+00 2.389634370803833008e+00 1.167417764663696289e+00 1.680366992950439453e+00
9.010000000000000000e+02 5.491209411621093750e+01 -2.882440090179443359e+00 1.485301375389099121e+00 1.934782028198242188e+00 1.026025056838989258e+00 1.658263325691223145e+00
9.020000000000000000e+02 4.683655166625976562e+01 1.818682098388671875e+01 6.970850825309753418e-01 1.353432655334472656e+00 6.151553392410278320e-01 1.085496306419372559e+00
9.030000000000000000e+02 6.298707962036132812e+01 1.666296195983886719e+01 9.875435829162597656e-01 1.148494815826416016e+01 3.741747379302978516e+00 -1.423174142837524414e+00
9.040000000000000000e+02 5.743460083007812500e+01 2.499321699142456055e-01 1.314248681068420410e+00 2.552589893341064453e+00 1.160051584243774414e+00 1.711634278297424316e+00
9.050000000000000000e+02 4.269250869750976562e+01 1.332670688629150391e+01 2.385041236877441406e+00 3.953637599945068359e+00 1.901603579521179199e+00 3.008247852325439453e+00
9.060000000000000000e+02 4.160515594482421875e+01 1.310286903381347656e+01 1.975447893142700195e+00 5.988511562347412109e+00 2.389187812805175781e+00 3.147495508193969727e+00
9.070000000000000000e+02 5.926548385620117188e+01 2.828003883361816406e+00 1.125852942466735840e+00 3.554848670959472656e+00 1.404210567474365234e+00 1.901614785194396973e+00
9.080000000000000000e+02 6.214187622070312500e+01 8.764633178710937500e+00 7.433724999427795410e-01 9.217161178588867188e+00 2.988160133361816406e+00 1.604470252990722656e+00
9.090000000000000000e+02 5.546298599243164062e+01 -2.315581798553466797e+00 1.535196781158447266e+00 2.076634168624877930e+00 1.083549261093139648e+00 1.687184929847717285e+00
9.100000000000000000e+02 5.832566833496093750e+01 1.532916188240051270e+00 1.068695306777954102e+00 2.864456176757812500e+00 1.179945468902587891e+00 1.773819684982299805e+00
9.110000000000000000e+02 5.213449478149414062e+01 2.124308013916015625e+01 -1.210525155067443848e+00 2.046639919281005859e-01 -3.017583489418029785e-01 8.064048737287521362e-02
9.120000000000000000e+02 3.477640914916992188e+01 7.149810791015625000e+00 7.832806110382080078e-01 1.451819705963134766e+01 4.590443134307861328e+00 -3.310156166553497314e-01
9.130000000000000000e+02 3.356890869140625000e+01 5.285778999328613281e+00 1.834455430507659912e-01 1.633005142211914062e+01 4.954049110412597656e+00 -4.918003976345062256e-01
9.140000000000000000e+02 4.381523132324218750e+01 1.552178668975830078e+01 1.587182283401489258e+00 2.975183486938476562e+00 1.368709683418273926e+00 2.125263214111328125e+00
9.150000000000000000e+02 4.621463012695312500e+01 1.766994476318359375e+01 9.043895006179809570e-01 1.583425045013427734e+00 7.463443875312805176e-01 1.251070618629455566e+00
9.160000000000000000e+02 4.017047119140625000e+01 1.103911209106445312e+01 1.918436169624328613e+00 1.006410217285156250e+01 3.594761610031127930e+00 3.697216749191284180e+00
9.170000000000000000e+02 5.973407745361328125e+01 3.494133472442626953e+00 1.150765419006347656e+00 4.114332675933837891e+00 1.579529404640197754e+00 2.044694423675537109e+00
9.180000000000000000e+02 6.277038192749023438e+01 1.356999874114990234e+01 4.048860967159271240e-01 1.118337631225585938e+01 3.476478815078735352e+00 2.147612720727920532e-01
9.190000000000000000e+02 4.323905181884765625e+01 1.495057487487792969e+01 1.740934371948242188e+00 3.521885871887207031e+00 1.578846096992492676e+00 2.342549324035644531e+00
9.200000000000000000e+02 4.213069915771484375e+01 1.373835563659667969e+01 1.967146158218383789e+00 4.935943603515625000e+00 2.070926904678344727e+00 2.926362752914428711e+00
9.210000000000000000e+02 4.560097885131835938e+01 1.714510726928710938e+01 1.108634114265441895e+00 1.824303269386291504e+00 8.798812031745910645e-01 1.442952871322631836e+00
9.220000000000000000e+02 2.052671241760253906e+01 -1.899157285690307617e+00 -1.799692809581756592e-01 2.461888492107391357e-01 1.986586861312389374e-02 7.735083699226379395e-01
9.230000000000000000e+02 2.144853210449218750e+01 -2.418465375900268555e+00 6.350714713335037231e-02 2.643132209777832031e-01 9.834610670804977417e-02 9.665603041648864746e-01
9.240000000000000000e+02 1.892876052856445312e+01 -2.141295194625854492e+00 -4.988971650600433350e-01 2.525442838668823242e-01 -7.390586286783218384e-02 6.634980440139770508e-01
9.250000000000000000e+02 2.619778251647949219e+01 -5.007603764533996582e-01 1.727720618247985840e+00 -2.251382470130920410e-01 4.507746994495391846e-01 5.148357748985290527e-01
9.260000000000000000e+02 2.429678344726562500e+01 -2.609445750713348389e-01 8.686646223068237305e-01 -9.807191789150238037e-02 2.311778217554092407e-01 4.282079339027404785e-01
9.270000000000000000e+02 2.529563713073730469e+01 -7.163166999816894531e-01 1.303810238838195801e+00 -1.821343451738357544e-01 3.365027606487274170e-01 5.989127159118652344e-01
9.280000000000000000e+02 2.543498802185058594e+01 -1.399332165718078613e+00 1.420544981956481934e+00 -1.852706819772720337e-01 3.705822825431823730e-01 9.123974442481994629e-01
9.290000000000000000e+02 2.370931243896484375e+01 -1.171582341194152832e+00 7.179139852523803711e-01 -7.031090091913938522e-03 2.132648676633834839e-01 7.285675406455993652e-01
9.300000000000000000e+02 3.011950683593750000e+01 -1.604350656270980835e-02 6.365182876586914062e+00 8.590432405471801758e-01 2.167267799377441406e+00 1.206289410591125488e+00
9.310000000000000000e+02 3.299382781982421875e+01 1.748313069343566895e+00 4.729802608489990234e+00 1.263716411590576172e+01 5.210089683532714844e+00 6.199590206146240234e+00
9.320000000000000000e+02 3.229458618164062500e+01 1.633546203374862671e-01 5.013189315795898438e+00 6.570540904998779297e+00 3.475119113922119141e+00 3.747540235519409180e+00
9.330000000000000000e+02 3.127092361450195312e+01 2.718244493007659912e-01 7.532511234283447266e+00 3.096922874450683594e+00 3.188830137252807617e+00 3.805114030838012695e+00
9.340000000000000000e+02 2.735185623168945312e+01 2.322968673706054688e+01 6.921789050102233887e-01 2.066751718521118164e+00 8.276792168617248535e-01 -1.696043372154235840e+00
9.350000000000000000e+02 2.825958824157714844e+01 2.177792930603027344e+01 1.528688311576843262e+00 2.754371404647827148e+00 1.284917831420898438e+00 -2.212661027908325195e+00
9.360000000000000000e+02 1.455491828918457031e+01 -1.974753379821777344e+01 9.713560342788696289e-02 4.421788692474365234e+00 1.355677247047424316e+00 -1.293310970067977905e-01
9.370000000000000000e+02 1.369816493988037109e+01 -2.072297096252441406e+01 6.642142534255981445e-01 3.094186544418334961e+00 1.127520203590393066e+00 -8.213048428297042847e-02
9.380000000000000000e+02 4.934875869750976562e+01 -1.552513027191162109e+01 1.575454831123352051e+00 2.631276845932006836e-01 5.515747666358947754e-01 6.499280929565429688e-01
9.390000000000000000e+02 4.625704956054687500e+01 -1.657801246643066406e+01 1.767478823661804199e+00 5.474184989929199219e+00 2.172499179840087891e+00 2.332023382186889648e+00
9.400000000000000000e+02 3.038869285583496094e+01 2.099381256103515625e+01 1.529342055320739746e+00 5.619850635528564453e+00 2.144757747650146484e+00 -1.932837247848510742e+00
9.410000000000000000e+02 2.652447891235351562e+01 2.141256713867187500e+01 9.851766228675842285e-01 3.308049440383911133e-01 3.947944641113281250e-01 -5.770798921585083008e-01
9.420000000000000000e+02 2.805573654174804688e+01 2.097223281860351562e+01 2.860760450363159180e+00 1.592715501785278320e+00 1.336042761802673340e+00 -1.909989833831787109e+00
9.430000000000000000e+02 4.502302932739257812e+01 -2.411654472351074219e+01 2.128338813781738281e+00 1.157212734222412109e+01 4.110139846801757812e+00 -2.216267108917236328e+00
9.440000000000000000e+02 4.659006881713867188e+01 -1.591592025756835938e+01 1.588585615158081055e+00 4.582921981811523438e+00 1.851452231407165527e+00 1.904839754104614258e+00
9.450000000000000000e+02 3.792447662353515625e+01 1.651336401700973511e-01 2.036734104156494141e+00 1.244675827026367188e+01 4.345047473907470703e+00 -1.861341238021850586e+00
9.460000000000000000e+02 3.143697166442871094e+01 -2.913561058044433594e+01 2.536951564252376556e-03 2.004017829895019531e+00 6.019664406776428223e-01 1.124314546585083008e+00
9.470000000000000000e+02 3.360646057128906250e+01 3.687242269515991211e+00 8.936890363693237305e-01 1.935104942321777344e+01 6.073421478271484375e+00 2.025204658508300781e+00
9.480000000000000000e+02 2.341141891479492188e+01 2.216229629516601562e+01 -4.687108993530273438e-01 4.190735146403312683e-02 -1.280410587787628174e-01 -3.094158880412578583e-02
9.490000000000000000e+02 2.106913757324218750e+01 2.305546760559082031e+01 -5.641902685165405273e-01 -3.944309800863265991e-02 -1.810900121927261353e-01 -9.858588874340057373e-02
9.500000000000000000e+02 3.287083435058593750e+01 5.683171153068542480e-01 4.282226085662841797e+00 9.323335647583007812e+00 4.081668376922607422e+00 4.254063606262207031e+00
9.510000000000000000e+02 3.344958877563476562e+01 9.539273977279663086e-01 3.300519704818725586e+00 1.122961997985839844e+01 4.359042167663574219e+00 3.081201791763305664e+00
9.520000000000000000e+02 6.537574768066406250e+01 -1.176512908935546875e+01 -2.768775701522827148e+00 1.823329329490661621e+00 -2.836339175701141357e-01 -2.330058813095092773e+00
9.530000000000000000e+02 4.557578277587890625e+01 -2.582126998901367188e+01 2.319845438003540039e+00 1.061128139495849609e+01 3.879338264465332031e+00 -3.327398777008056641e+00
9.540000000000000000e+02 4.590639877319335938e+01 -2.667278671264648438e+01 2.433906793594360352e+00 9.086122512817382812e+00 3.456008672714233398e+00 -3.120321512222290039e+00
9.550000000000000000e+02 2.694323348999023438e+01 -2.273018598556518555e+00 1.807461023330688477e+00 5.777442827820777893e-02 5.595706105232238770e-01 1.481671214103698730e+00
9.560000000000000000e+02 2.878225708007812500e+01 -7.207489490509033203e+00 -2.081626176834106445e+00 -4.314967989921569824e-01 -7.539368867874145508e-01 1.764109015464782715e+00
9.570000000000000000e+02 3.871834564208984375e+01 5.343045234680175781e+00 5.003439188003540039e-01 1.605383300781250000e+01 4.966252803802490234e+00 7.112181782722473145e-01
9.580000000000000000e+02 3.391640090942382812e+01 8.625024795532226562e+00 6.553572416305541992e-01 1.371295070648193359e+01 4.310492515563964844e+00 -1.330621719360351562e+00
9.590000000000000000e+02 6.752123260498046875e+01 -1.441057109832763672e+01 3.007181167602539062e+00 8.576102256774902344e+00 3.474984884262084961e+00 -4.732988357543945312e+00
9.600000000000000000e+02 3.468047332763671875e+01 7.973034858703613281e+00 8.806132674217224121e-01 1.397965812683105469e+01 4.458081722259521484e+00 -6.998506784439086914e-01
9.610000000000000000e+02 3.203630065917968750e+01 1.640339469909667969e+01 1.235335469245910645e+00 9.284090995788574219e+00 3.155827999114990234e+00 -2.970741748809814453e+00
9.620000000000000000e+02 3.499209213256835938e+01 4.005797863006591797e+00 2.385362863540649414e+00 1.491613197326660156e+01 5.190448284149169922e+00 1.300809502601623535e+00
9.630000000000000000e+02 3.491689682006835938e+01 4.757814884185791016e+00 1.607739925384521484e+00 1.548224639892578125e+01 5.126996040344238281e+00 1.340724349021911621e+00
9.640000000000000000e+02 3.116618537902832031e+01 1.935407638549804688e+01 1.805246949195861816e+00 7.054068565368652344e+00 2.657794713973999023e+00 -2.548636913299560547e+00
9.650000000000000000e+02 3.411206054687500000e+01 7.008388996124267578e+00 5.583414435386657715e-01 1.466359615325927734e+01 4.566581249237060547e+00 -8.052199482917785645e-01
9.660000000000000000e+02 2.364046859741210938e+01 2.294783020019531250e+01 -1.249850764870643616e-01 1.787141114473342896e-01 1.611871086061000824e-02 -3.404369950294494629e-01
9.670000000000000000e+02 2.446052932739257812e+01 2.279043388366699219e+01 1.209353655576705933e-01 2.868957221508026123e-01 1.223493292927742004e-01 -4.671411514282226562e-01
9.680000000000000000e+02 2.674265098571777344e+01 2.208138465881347656e+01 1.080318331718444824e+00 8.189674019813537598e-01 5.697857141494750977e-01 -1.141134977340698242e+00
9.690000000000000000e+02 3.113078308105468750e+01 2.014829063415527344e+01 1.507637977600097656e+00 6.555000305175781250e+00 2.418791532516479492e+00 -2.165165901184082031e+00
9.700000000000000000e+02 3.017260360717773438e+01 2.002941131591796875e+01 2.495733737945556641e+00 6.276349544525146484e+00 2.631624937057495117e+00 -3.052887201309204102e+00
9.710000000000000000e+02 2.600985145568847656e+01 2.232791900634765625e+01 6.768940687179565430e-01 5.914934873580932617e-01 3.805162608623504639e-01 -8.369176387786865234e-01
9.720000000000000000e+02 3.334845352172851562e+01 1.177714920043945312e+01 7.565105557441711426e-01 1.181740856170654297e+01 3.772175788879394531e+00 -2.392207384109497070e+00
9.730000000000000000e+02 3.301055526733398438e+01 1.006075191497802734e+01 5.137038230895996094e-01 1.256485080718994141e+01 3.923566579818725586e+00 -2.332859277725219727e+00
9.740000000000000000e+02 3.364078140258789062e+01 1.021560096740722656e+01 6.279063224792480469e-01 1.256449604034423828e+01 3.957720518112182617e+00 -1.937962293624877930e+00
9.750000000000000000e+02 3.402836608886718750e+01 7.817839622497558594e+00 6.696149706840515137e-01 1.408537006378173828e+01 4.426495552062988281e+00 -1.038093686103820801e+00
9.760000000000000000e+02 3.159621429443359375e+01 1.546933650970458984e+01 1.063248753547668457e+00 9.724187850952148438e+00 3.236231088638305664e+00 -3.182208776473999023e+00
9.770000000000000000e+02 3.254304122924804688e+01 1.489151859283447266e+01 9.592401385307312012e-01 1.011835002899169922e+01 3.323277235031127930e+00 -2.717252492904663086e+00
9.780000000000000000e+02 2.784962463378906250e+01 -8.484727859497070312e+00 -2.792235851287841797e+00 -1.018330827355384827e-01 -8.682206869125366211e-01 -2.631694972515106201e-01
9.790000000000000000e+02 3.730912017822265625e+01 8.963843345642089844e+00 1.693779706954956055e+00 1.342380428314208984e+01 4.535274982452392578e+00 7.364268302917480469e-01
9.800000000000000000e+02 3.349664306640625000e+01 1.099835491180419922e+01 5.721654891967773438e-01 1.216996288299560547e+01 3.822638511657714844e+00 -2.168738603591918945e+00
9.810000000000000000e+02 3.278001785278320312e+01 1.412463474273681641e+01 9.601479172706604004e-01 1.062851810455322266e+01 3.476599931716918945e+00 -2.644431829452514648e+00
9.820000000000000000e+02 5.833810043334960938e+01 -2.986808204650878906e+01 -2.954858779907226562e+00 -1.868648976087570190e-01 -9.425171017646789551e-01 -7.755997776985168457e-01
9.830000000000000000e+02 6.139924240112304688e+01 -2.868299102783203125e+01 -2.218020439147949219e+00 -3.889933824539184570e-01 -7.821041345596313477e-01 -8.806349635124206543e-01
9.840000000000000000e+02 6.866876983642578125e+01 -1.753735733032226562e+01 6.586729884147644043e-01 1.979960823059082031e+01 6.137484073638916016e+00 -1.063277959823608398e+00
9.850000000000000000e+02 6.932769775390625000e+01 -1.656898498535156250e+01 2.378626108169555664e+00 1.556460285186767578e+01 5.382968902587890625e+00 -1.604226112365722656e+00
9.860000000000000000e+02 6.916484832763671875e+01 -1.436331653594970703e+01 8.031955957412719727e-01 1.197196006774902344e+01 3.832546710968017578e+00 -1.308150172233581543e+00
9.870000000000000000e+02 6.819560241699218750e+01 -1.287760639190673828e+01 -8.418608903884887695e-01 8.903819084167480469e+00 2.418587446212768555e+00 -2.067089080810546875e+00
9.880000000000000000e+02 1.520142555236816406e+01 -1.372648525238037109e+01 2.022877693176269531e+00 3.760514974594116211e+00 1.735017776489257812e+00 2.007281541824340820e+00
9.890000000000000000e+02 6.783856964111328125e+01 -2.447703552246093750e+01 1.870669275522232056e-01 7.759517192840576172e+00 2.383975267410278320e+00 2.000917196273803711e+00
9.900000000000000000e+02 5.091382980346679688e+01 -1.537766265869140625e+01 2.768820524215698242e-01 4.707453772425651550e-02 9.718697518110275269e-02 2.090996652841567993e-01
9.910000000000000000e+02 4.917115402221679688e+01 -6.682522296905517578e+00 -1.319336056709289551e+00 -6.645976752042770386e-02 -4.157387614250183105e-01 1.619173526763916016e+00
9.920000000000000000e+02 4.900767135620117188e+01 -3.000059890747070312e+01 9.239540696144104004e-01 3.277034759521484375e+00 1.260296702384948730e+00 -2.223422765731811523e+00
9.930000000000000000e+02 1.708021545410156250e+01 -1.183933353424072266e+01 2.804615497589111328e+00 2.210133790969848633e+00 1.504424691200256348e+00 1.694458723068237305e+00
9.940000000000000000e+02 6.174206161499023438e+01 -2.941419601440429688e+01 -1.609933972358703613e+00 1.778515726327896118e-01 -4.296247065067291260e-01 -2.231146246194839478e-01
9.950000000000000000e+02 4.476917648315429688e+01 -2.321221351623535156e+01 1.523543238639831543e+00 1.152943229675292969e+01 3.915892601013183594e+00 -1.920838117599487305e+00
9.960000000000000000e+02 4.528615188598632812e+01 -2.497682189941406250e+01 2.048126459121704102e+00 1.159529876708984375e+01 4.093027591705322266e+00 -2.624522686004638672e+00
9.970000000000000000e+02 5.778428649902343750e+01 -1.377171421051025391e+01 -2.107311248779296875e+00 1.623718589544296265e-01 -5.834817886352539062e-01 -1.498685628175735474e-01
9.980000000000000000e+02 5.876082229614257812e+01 -1.439937210083007812e+01 -2.265339612960815430e+00 4.004413634538650513e-02 -6.675886511802673340e-01 -3.910202980041503906e-01
9.990000000000000000e+02 4.756048965454101562e+01 -2.759567832946777344e+01 3.262639760971069336e+00 5.692965507507324219e+00 2.686681747436523438e+00 -4.116335868835449219e+00
1.000000000000000000e+03 1.363365936279296875e+01 1.835708236694335938e+01 -5.896541476249694824e-02 -2.058756351470947266e-02 -2.386589348316192627e-02 -5.685760825872421265e-02
1.001000000000000000e+03 1.495371437072753906e+01 1.974158096313476562e+01 -1.488547027111053467e-01 -1.115712374448776245e-01 -7.812778651714324951e-02 -1.179616898298263550e-01
1.002000000000000000e+03 6.857130432128906250e+01 -1.477441787719726562e+01 1.497607111930847168e+00 1.262377166748046875e+01 4.236413955688476562e+00 -2.830307006835937500e+00
1.003000000000000000e+03 6.906240844726562500e+01 -1.560714912414550781e+01 2.190164566040039062e+00 1.443470001220703125e+01 4.987459182739257812e+00 -1.903159618377685547e+00
1.004000000000000000e+03 5.216269302368164062e+01 -3.196770858764648438e+01 -4.037033021450042725e-01 8.455466032028198242e-01 1.325529962778091431e-01 -1.309572577476501465e+00
1.005000000000000000e+03 6.683463287353515625e+01 -1.265849304199218750e+01 -7.177129387855529785e-01 5.393259525299072266e+00 1.402664065361022949e+00 -2.314204692840576172e+00
1.006000000000000000e+03 6.566100311279296875e+01 -1.277084922790527344e+01 -9.207633137702941895e-01 1.255496144294738770e+00 1.004198417067527771e-01 -5.015007257461547852e-01
1.007000000000000000e+03 5.341933441162109375e+01 -3.027903556823730469e+01 -1.899358034133911133e+00 3.402434661984443665e-02 -5.596001148223876953e-01 -1.128100156784057617e-01
1.008000000000000000e+03 6.168393707275390625e+01 -1.334134769439697266e+01 -3.192117929458618164e+00 -5.747244358062744141e-01 -1.130052685737609863e+00 -1.475649118423461914e+00
1.009000000000000000e+03 5.926924896240234375e+01 -1.346001052856445312e+01 -2.406968355178833008e+00 2.330108284950256348e-01 -6.521872878074645996e-01 -4.223679006099700928e-01
1.010000000000000000e+03 5.853169631958007812e+01 -3.076743888854980469e+01 -2.087224721908569336e+00 -2.338262945413589478e-01 -6.963152885437011719e-01 -5.258945822715759277e-01
1.011000000000000000e+03 4.986240768432617188e+01 -3.035929679870605469e+01 5.678698420524597168e-01 2.222845315933227539e+00 8.372145295143127441e-01 -1.872953176498413086e+00
1.012000000000000000e+03 6.065497589111328125e+01 -2.905690002441406250e+01 -2.478005647659301758e+00 -3.775993585586547852e-01 -8.566814661026000977e-01 -9.405349493026733398e-01
1.013000000000000000e+03 6.046233749389648438e+01 -3.129164886474609375e+01 -1.162542104721069336e+00 2.057494223117828369e-01 -2.870377898216247559e-01 -1.408822182565927505e-02
1.014000000000000000e+03 4.651015853881835938e+01 -1.751436233520507812e+01 2.453653573989868164e+00 5.566010475158691406e+00 2.405899286270141602e+00 3.519598245620727539e+00
1.015000000000000000e+03 6.621723175048828125e+01 -2.427166748046875000e+01 1.613905787467956543e+00 3.236989498138427734e+00 1.455268621444702148e+00 2.275308370590209961e+00
1.016000000000000000e+03 6.675128936767578125e+01 -2.472031784057617188e+01 7.407619953155517578e-01 4.977986335754394531e+00 1.715624451637268066e+00 2.267864227294921875e+00
1.017000000000000000e+03 4.664644241333007812e+01 -2.910771179199218750e+01 9.230235219001770020e-01 6.511889934539794922e+00 2.230473995208740234e+00 -2.336484193801879883e+00
1.018000000000000000e+03 4.813973617553710938e+01 -2.954454612731933594e+01 1.204207301139831543e+00 4.530784606933593750e+00 1.720497608184814453e+00 -2.499121904373168945e+00
1.019000000000000000e+03 4.692553710937500000e+01 -2.824441909790039062e+01 1.977530956268310547e+00 6.701568603515625000e+00 2.603729963302612305e+00 -3.128280639648437500e+00
1.020000000000000000e+03 6.606976318359375000e+01 -1.219882297515869141e+01 -2.318084001541137695e+00 3.321094274520874023e+00 3.009030222892761230e-01 -2.005381345748901367e+00
1.021000000000000000e+03 6.931234741210937500e+01 -1.845148468017578125e+01 1.223253846168518066e+00 1.700428009033203125e+01 5.468259811401367188e+00 1.202854700386524200e-02
1.022000000000000000e+03 5.162694549560546875e+01 -1.463415813446044922e+01 -2.112815529108047485e-02 1.402126997709274292e-01 3.572536259889602661e-02 4.862446784973144531e-01
1.023000000000000000e+03 5.424441146850585938e+01 -3.033846282958984375e+01 -2.315081119537353516e+00 -1.476205978542566299e-02 -6.989529728889465332e-01 -1.153370887041091919e-01
1.024000000000000000e+03 5.412249755859375000e+01 -3.124490737915039062e+01 -1.449195265769958496e+00 5.109770223498344421e-02 -4.194292724132537842e-01 -5.229798555374145508e-01
1.025000000000000000e+03 6.896133422851562500e+01 -2.106614494323730469e+01 1.722594499588012695e+00 1.455199909210205078e+01 4.882378101348876953e+00 2.224732398986816406e+00
1.026000000000000000e+03 5.935248947143554688e+01 -3.054696464538574219e+01 -1.949034094810485840e+00 -2.103100717067718506e-01 -6.478032469749450684e-01 -4.932481646537780762e-01
1.027000000000000000e+03 5.501369857788085938e+01 -3.131848335266113281e+01 -1.647531747817993164e+00 -1.174662783741950989e-01 -5.294994115829467773e-01 -4.970457851886749268e-01
1.028000000000000000e+03 5.681873321533203125e+01 -3.121268844604492188e+01 -1.926819324493408203e+00 -2.993190288543701172e-01 -6.678414940834045410e-01 -4.469011127948760986e-01
1.029000000000000000e+03 3.628169250488281250e+01 -2.281781959533691406e+01 1.372554302215576172e+00 8.625334739685058594e+00 2.999366521835327148e+00 9.257928133010864258e-01
1.030000000000000000e+03 3.523215484619140625e+01 -2.162503814697265625e+01 5.266170501708984375e-01 1.066559696197509766e+01 3.357664346694946289e+00 1.520445942878723145e+00
1.031000000000000000e+03 5.324504470825195312e+01 -3.115302848815917969e+01 -1.130734205245971680e+00 2.023072391748428345e-01 -2.785280942916870117e-01 -6.351559162139892578e-01
1.032000000000000000e+03 6.270857620239257812e+01 -1.207293128967285156e+01 -4.525288105010986328e+00 -3.550212085247039795e-01 -1.464092731475830078e+00 -6.486287117004394531e-01
1.033000000000000000e+03 6.137472534179687500e+01 -1.270966529846191406e+01 -3.390303850173950195e+00 -1.578507199883460999e-02 -1.021826624870300293e+00 -8.301138877868652344e-01
1.034000000000000000e+03 5.467589187622070312e+01 -1.418038654327392578e+01 -1.355862498283386230e+00 1.110999137163162231e-01 -3.734287917613983154e-01 2.681925296783447266e-01
1.035000000000000000e+03 5.397678756713867188e+01 -3.216391372680664062e+01 -7.916142344474792480e-01 2.105329334735870361e-01 -1.743243932723999023e-01 -8.202620148658752441e-01
1.036000000000000000e+03 6.109838104248046875e+01 -1.206626033782958984e+01 -3.006646633148193359e+00 3.108567893505096436e-01 -8.087369203567504883e-01 -3.737457394599914551e-01
1.037000000000000000e+03 6.205019760131835938e+01 -1.239799880981445312e+01 -3.887418985366821289e+00 -1.116786450147628784e-01 -1.199729323387145996e+00 -9.444063901901245117e-01
1.038000000000000000e+03 5.237356567382812500e+01 -1.451824092864990234e+01 -3.942350149154663086e-01 1.289250403642654419e-01 -7.959299534559249878e-02 4.422995746135711670e-01
1.039000000000000000e+03 6.916157531738281250e+01 -2.021264457702636719e+01 1.281791329383850098e+00 1.566072940826416016e+01 5.082756042480468750e+00 1.522883057594299316e+00
1.040000000000000000e+03 5.904164123535156250e+01 -1.273135471343994141e+01 -2.310561180114746094e+00 3.920475840568542480e-01 -5.755540728569030762e-01 -1.568783223628997803e-01
1.041000000000000000e+03 5.624224472045898438e+01 -1.398385334014892578e+01 -1.813766837120056152e+00 9.235257655382156372e-02 -5.164242982864379883e-01 1.085063070058822632e-01
1.042000000000000000e+03 6.675480651855468750e+01 -2.580907630920410156e+01 -6.806820631027221680e-02 5.028627872467041016e+00 1.488167881965637207e+00 1.684991002082824707e+00
1.043000000000000000e+03 6.397631072998046875e+01 -2.662994575500488281e+01 -5.472235009074211121e-02 6.796909570693969727e-01 1.874905675649642944e-01 2.914809584617614746e-01
1.044000000000000000e+03 4.467171859741210938e+01 -2.224954795837402344e+01 7.953415513038635254e-01 1.132296752929687500e+01 3.635492563247680664e+00 -1.173523426055908203e+00
1.045000000000000000e+03 5.545863723754882812e+01 -1.408090686798095703e+01 -1.609072327613830566e+00 1.012864783406257629e-01 -4.523357450962066650e-01 2.175176739692687988e-01
1.046000000000000000e+03 6.016593551635742188e+01 -3.027969169616699219e+01 -1.936664819717407227e+00 -1.503153294324874878e-01 -6.260940432548522949e-01 -3.549661934375762939e-01
1.047000000000000000e+03 6.925990295410156250e+01 -1.933516883850097656e+01 1.228131890296936035e+00 1.627515029907226562e+01 5.250985145568847656e+00 7.697688341140747070e-01
1.048000000000000000e+03 4.501998138427734375e+01 -1.961642646789550781e+01 1.279651522636413574e+00 1.078536605834960938e+01 3.619505167007446289e+00 1.049476623535156250e+00
1.049000000000000000e+03 5.154333114624023438e+01 -3.088378715515136719e+01 -2.975891530513763428e-01 7.791528701782226562e-01 1.444691121578216553e-01 -1.145655512809753418e+00
1.050000000000000000e+03 4.632783889770507812e+01 -2.755403709411621094e+01 1.932007074356079102e+00 7.964623928070068359e+00 2.968989372253417969e+00 -3.001360177993774414e+00
1.051000000000000000e+03 6.566502380371093750e+01 -2.486474990844726562e+01 1.085317969322204590e+00 2.285669326782226562e+00 1.011296153068542480e+00 1.616335868835449219e+00
1.052000000000000000e+03 6.620482635498046875e+01 -2.534859466552734375e+01 4.821847081184387207e-01 3.808869838714599609e+00 1.287316322326660156e+00 1.771976709365844727e+00
1.053000000000000000e+03 5.313132858276367188e+01 -1.439688873291015625e+01 -7.341805100440979004e-01 9.592998027801513672e-02 -1.914751678705215454e-01 3.848048746585845947e-01
1.054000000000000000e+03 5.853501129150390625e+01 -1.363455867767333984e+01 -2.264834403991699219e+00 1.924830675125122070e-01 -6.217054128646850586e-01 -2.815245687961578369e-01
1.055000000000000000e+03 4.485033798217773438e+01 -2.044575119018554688e+01 6.048719286918640137e-01 1.097584438323974609e+01 3.474215030670166016e+00 1.936554759740829468e-01
1.056000000000000000e+03 4.555912780761718750e+01 -2.138387107849121094e+01 1.350492835044860840e-01 1.132369041442871094e+01 3.437622070312500000e+00 -2.045477926731109619e-01
1.057000000000000000e+03 6.448978424072265625e+01 -2.721576881408691406e+01 -3.742621839046478271e-01 1.725037336349487305e+00 4.052325487136840820e-01 6.149934530258178711e-01
1.058000000000000000e+03 6.507624053955078125e+01 -2.659459114074707031e+01 -5.894570052623748779e-02 2.267543315887451172e+00 6.625792980194091797e-01 9.434925913810729980e-01
1.059000000000000000e+03 2.390407371520996094e+01 -3.099687194824218750e+01 -9.759326577186584473e-01 -1.042330563068389893e-01 -3.240497112274169922e-01 -1.231214031577110291e-02
1.060000000000000000e+03 3.462775039672851562e+01 -2.501081275939941406e+01 1.298622965812683105e+00 5.925317287445068359e+00 2.167182207107543945e+00 2.186932086944580078e+00
1.061000000000000000e+03 2.676804351806640625e+01 -2.955666732788085938e+01 -1.751680254936218262e+00 -2.822564356029033661e-02 -5.339717864990234375e-01 -1.695237681269645691e-02
1.062000000000000000e+03 2.061300086975097656e+01 -1.158988189697265625e+01 1.883532524108886719e+00 1.235547065734863281e-01 6.021261811256408691e-01 5.436322689056396484e-01
1.063000000000000000e+03 1.955373382568359375e+01 -1.109991264343261719e+01 2.252400398254394531e+00 4.485395252704620361e-01 8.102819919586181641e-01 1.102330923080444336e+00
1.064000000000000000e+03 2.355365371704101562e+01 -9.122225761413574219e+00 4.390581548213958740e-01 4.096379578113555908e-01 2.546088397502899170e-01 7.771258950233459473e-01
1.065000000000000000e+03 2.148856353759765625e+01 -2.986271858215332031e+01 -1.011518120765686035e+00 1.216794028878211975e-01 -2.669516205787658691e-01 -2.030043676495552063e-02
1.066000000000000000e+03 3.398422622680664062e+01 -1.200892066955566406e+01 1.795005083084106445e+00 8.968763351440429688e+00 3.229130506515502930e+00 -3.738857269287109375e+00
1.067000000000000000e+03 3.563500595092773438e+01 -1.238035297393798828e+01 6.707171201705932617e-01 9.618058204650878906e+00 3.086632728576660156e+00 -1.770714044570922852e+00
1.068000000000000000e+03 1.631572341918945312e+01 -1.238643836975097656e+01 2.683240413665771484e+00 2.628860473632812500e+00 1.593630313873291016e+00 1.941092848777770996e+00
1.069000000000000000e+03 2.640747642517089844e+01 -9.209295272827148438e+00 -3.097139298915863037e-01 1.742127388715744019e-01 -4.065035656094551086e-02 1.547255963087081909e-01
1.070000000000000000e+03 2.531708717346191406e+01 -9.067105293273925781e+00 -1.347496658563613892e-01 3.964018523693084717e-01 7.849565893411636353e-02 4.929382801055908203e-01
1.071000000000000000e+03 3.352910614013671875e+01 -2.529508590698242188e+01 1.846351623535156250e+00 3.478718519210815430e+00 1.597521066665649414e+00 2.468402862548828125e+00
1.072000000000000000e+03 2.813352203369140625e+01 -7.563595771789550781e+00 -3.048222064971923828e+00 9.033320099115371704e-02 -8.873666524887084961e-01 1.505511641502380371e+00
1.073000000000000000e+03 3.190525627136230469e+01 -9.454796791076660156e+00 -1.770276665687561035e+00 6.337153911590576172e-01 -3.409684002399444580e-01 3.342215120792388916e-01
1.074000000000000000e+03 2.039816665649414062e+01 -2.855110740661621094e+01 -7.295024991035461426e-01 1.607535481452941895e-01 -1.706246733665466309e-01 1.026218682527542114e-01
1.075000000000000000e+03 1.877462577819824219e+01 -1.127726078033447266e+01 2.586007595062255859e+00 9.463937282562255859e-01 1.059720396995544434e+00 1.413080930709838867e+00
1.076000000000000000e+03 3.523657989501953125e+01 -1.338053989410400391e+01 1.301444530487060547e+00 1.082915401458740234e+01 3.639179706573486328e+00 -2.612829446792602539e+00
1.077000000000000000e+03 1.572725105285644531e+01 -1.306198406219482422e+01 2.369667291641235352e+00 3.315912485122680664e+00 1.705673933029174805e+00 2.100819587707519531e+00
1.078000000000000000e+03 1.570997333526611328e+01 -1.411404228210449219e+01 2.275450468063354492e+00 4.477541446685791016e+00 2.025897502899169922e+00 2.833670616149902344e+00
1.079000000000000000e+03 3.461933898925781250e+01 -1.173211383819580078e+01 7.278270721435546875e-01 8.967642784118652344e+00 2.908640861511230469e+00 -2.252452135086059570e+00
1.080000000000000000e+03 2.703009986877441406e+01 -3.064746475219726562e+01 -9.714890718460083008e-01 5.296669527888298035e-02 -2.755567133426666260e-01 2.644107639789581299e-01
1.081000000000000000e+03 2.880959129333496094e+01 -3.025170707702636719e+01 -6.731437444686889648e-01 5.208310484886169434e-01 -4.569380730390548706e-02 5.564219355583190918e-01
1.082000000000000000e+03 3.546610260009765625e+01 -1.420655155181884766e+01 1.135362148284912109e+00 1.140934658050537109e+01 3.763412714004516602e+00 -2.531235933303833008e+00
1.083000000000000000e+03 3.495925140380859375e+01 -1.255239295959472656e+01 1.117334365844726562e+00 1.005521202087402344e+01 3.351763725280761719e+00 -2.502864837646484375e+00
1.084000000000000000e+03 3.583840560913085938e+01 -2.177139854431152344e+01 9.139407277107238770e-01 9.891788482666015625e+00 3.241718769073486328e+00 9.204928874969482422e-01
1.085000000000000000e+03 2.533053207397460938e+01 -3.073369979858398438e+01 -1.128969907760620117e+00 -1.186362057924270630e-01 -3.742818534374237061e-01 1.730239838361740112e-01
1.086000000000000000e+03 3.125394439697265625e+01 -7.680070400238037109e+00 -3.135832071304321289e+00 1.417698144912719727e+00 -5.154401659965515137e-01 -4.914061725139617920e-01
1.087000000000000000e+03 2.364433670043945312e+01 -1.072412586212158203e+01 8.155238032341003418e-01 1.518998146057128906e-01 2.902270853519439697e-01 4.300248026847839355e-01
1.088000000000000000e+03 3.591472625732421875e+01 -1.671508407592773438e+01 7.270087599754333496e-01 1.139249134063720703e+01 3.635849952697753906e+00 -1.678669452667236328e+00
1.089000000000000000e+03 3.537575912475585938e+01 -1.918374824523925781e+01 1.901010870933532715e-01 1.126264190673828125e+01 3.435822963714599609e+00 -3.511819541454315186e-01
1.090000000000000000e+03 1.220119476318359375e+01 -1.747557067871093750e+01 8.520680665969848633e-01 2.756556987762451172e+00 1.082587480545043945e+00 6.553851366043090820e-01
1.091000000000000000e+03 2.106147956848144531e+01 -1.074523639678955078e+01 1.501409411430358887e+00 2.460744827985763550e-01 5.242451429367065430e-01 7.881987094879150391e-01
1.092000000000000000e+03 2.138503265380859375e+01 -1.142233371734619141e+01 1.534453034400939941e+00 1.354023516178131104e-01 5.009565949440002441e-01 4.796777367591857910e-01
1.093000000000000000e+03 2.615844917297363281e+01 -3.070875930786132812e+01 -1.082697510719299316e+00 -1.925243064761161804e-02 -3.305849730968475342e-01 1.759744286537170410e-01
1.094000000000000000e+03 2.791647529602050781e+01 -3.049600601196289062e+01 -8.274170756340026855e-01 2.278892695903778076e-01 -1.798583269119262695e-01 3.886316120624542236e-01
1.095000000000000000e+03 2.210417556762695312e+01 -3.047169494628906250e+01 -8.818722367286682129e-01 6.682454794645309448e-02 -2.445143163204193115e-01 -1.238534972071647644e-01
1.096000000000000000e+03 1.983263969421386719e+01 -2.796716880798339844e+01 -5.386946797370910645e-01 1.818083375692367554e-01 -1.070659086108207703e-01 8.315081894397735596e-02
1.097000000000000000e+03 1.815233039855957031e+01 -2.512581443786621094e+01 1.051284074783325195e-01 3.430893123149871826e-01 1.344653218984603882e-01 -1.998477280139923096e-01
1.098000000000000000e+03 1.547577571868896484e+01 -2.325828170776367188e+01 1.871838122606277466e-01 1.516446113586425781e+00 5.110889673233032227e-01 -6.238261461257934570e-01
1.099000000000000000e+03 1.602537918090820312e+01 -2.271842956542968750e+01 4.904432296752929688e-01 1.215017676353454590e+00 5.116382837295532227e-01 -7.137351036071777344e-01
1.100000000000000000e+03 1.600400352478027344e+01 -2.385585784912109375e+01 1.388692855834960938e-01 1.227913141250610352e+00 4.100347161293029785e-01 -4.820495545864105225e-01
1.101000000000000000e+03 3.602886581420898438e+01 -1.839535713195800781e+01 4.355428814888000488e-01 1.093430328369140625e+01 3.410953998565673828e+00 -7.886089086532592773e-01
1.102000000000000000e+03 1.991508865356445312e+01 -2.676550102233886719e+01 -2.439788281917572021e-01 -5.845704581588506699e-03 -7.494735717773437500e-02 9.732406586408615112e-02
1.103000000000000000e+03 3.565667343139648438e+01 -1.503676509857177734e+01 1.028385877609252930e+00 1.167468738555908203e+01 3.810921907424926758e+00 -2.198040962219238281e+00
1.104000000000000000e+03 3.482835006713867188e+01 -1.433030223846435547e+01 9.685050845146179199e-01 1.264813709259033203e+01 4.084992408752441406e+00 -3.049868583679199219e+00
1.105000000000000000e+03 3.604246902465820312e+01 -1.923704147338867188e+01 4.694984555244445801e-01 1.072786331176757812e+01 3.359208583831787109e+00 -4.888348281383514404e-01
1.106000000000000000e+03 3.565422058105468750e+01 -2.261321449279785156e+01 1.144800186157226562e+00 9.239213943481445312e+00 3.115204095840454102e+00 1.606016993522644043e+00
1.107000000000000000e+03 3.539596557617187500e+01 -2.344578170776367188e+01 1.526039481163024902e+00 8.178362846374511719e+00 2.911320686340332031e+00 1.902363061904907227e+00
1.108000000000000000e+03 3.602169036865234375e+01 -2.007818794250488281e+01 5.993222594261169434e-01 1.066800212860107422e+01 3.380197525024414062e+00 4.837534576654434204e-02
1.109000000000000000e+03 3.136834526062011719e+01 -2.775667762756347656e+01 8.154211640357971191e-01 1.474956989288330078e+00 6.871134638786315918e-01 1.113861083984375000e+00
1.110000000000000000e+03 2.601363182067871094e+01 -8.681458473205566406e+00 -6.079530119895935059e-01 4.969266057014465332e-01 -3.330792486667633057e-02 4.292277693748474121e-01
1.111000000000000000e+03 1.869995498657226562e+01 -2.683092308044433594e+01 -2.782829701900482178e-01 3.305749297142028809e-01 1.568758673965930939e-02 -5.706756934523582458e-02
1.112000000000000000e+03 1.926467132568359375e+01 -2.739630126953125000e+01 -3.921166658401489258e-01 2.532216012477874756e-01 -4.166851937770843506e-02 2.762299031019210815e-02
1.113000000000000000e+03 3.250199890136718750e+01 -8.904046058654785156e+00 -2.556467056274414062e+00 3.332289695739746094e+00 2.327467799186706543e-01 -4.864174723625183105e-01
1.114000000000000000e+03 3.308323669433593750e+01 -9.552903175354003906e+00 -1.839423060417175293e+00 4.671525478363037109e+00 8.496307730674743652e-01 -1.059385895729064941e+00
1.115000000000000000e+03 3.210954666137695312e+01 -2.843927955627441406e+01 3.775998651981353760e-01 2.343734025955200195e+00 8.164001703262329102e-01 1.288004040718078613e+00
1.116000000000000000e+03 1.705202102661132812e+01 -2.505512619018554688e+01 8.017799817025661469e-03 7.561221718788146973e-01 2.292419821023941040e-01 -2.946337163448333740e-01
1.117000000000000000e+03 1.374345397949218750e+01 -1.980777740478515625e+01 4.425147473812103271e-01 3.739411592483520508e+00 1.254577875137329102e+00 -1.602104008197784424e-01
1.118000000000000000e+03 3.364581680297851562e+01 -2.635392189025878906e+01 1.084375023841857910e+00 3.774663209915161133e+00 1.457711458206176758e+00 1.994274854660034180e+00
1.119000000000000000e+03 3.261624145507812500e+01 -2.765568351745605469e+01 7.321234941482543945e-01 2.670273065567016602e+00 1.020718932151794434e+00 1.538117766380310059e+00
1.120000000000000000e+03 3.313048553466796875e+01 -2.698202133178710938e+01 9.183096885681152344e-01 3.113627433776855469e+00 1.209581136703491211e+00 1.741782784461975098e+00
1.121000000000000000e+03 1.377899265289306641e+01 -1.896264648437500000e+01 2.060678452253341675e-01 3.968949079513549805e+00 1.252505064010620117e+00 1.753603518009185791e-01
1.122000000000000000e+03 1.376453781127929688e+01 -1.728217506408691406e+01 5.802093148231506348e-01 4.264175415039062500e+00 1.453315377235412598e+00 8.231072425842285156e-01
1.123000000000000000e+03 7.969635009765625000e+01 3.888496780395507812e+01 6.365988869220018387e-03 7.357645034790039062e+00 2.209203243255615234e+00 1.059784460812807083e-02
1.124000000000000000e+03 7.874605560302734375e+01 3.752478027343750000e+01 -6.986442022025585175e-04 7.196273803710937500e+00 2.158672571182250977e+00 1.831559278070926666e-02
1.125000000000000000e+03 7.959004974365234375e+01 3.580823135375976562e+01 -2.612763550132513046e-03 7.290418624877929688e+00 2.186341762542724609e+00 1.075638085603713989e-02
1.126000000000000000e+03 7.872777557373046875e+01 3.446130752563476562e+01 -7.894493639469146729e-03 7.137648582458496094e+00 2.138926267623901367e+00 4.381767287850379944e-02
1.127000000000000000e+03 7.799636077880859375e+01 3.060511970520019531e+01 -2.220098674297332764e-02 6.884334564208984375e+00 2.058640003204345703e+00 1.450217217206954956e-01
1.128000000000000000e+03 7.959459686279296875e+01 3.258939743041992188e+01 -6.659450475126504898e-03 7.173842906951904297e+00 2.150155067443847656e+00 2.593905851244926453e-02
1.129000000000000000e+03 7.879811096191406250e+01 2.957618331909179688e+01 -8.264355361461639404e-03 6.879973411560058594e+00 2.061512708663940430e+00 1.107947602868080139e-01
1.130000000000000000e+03 7.890354919433593750e+01 1.426537609100341797e+01 2.363921515643596649e-02 5.669075489044189453e+00 1.707814455032348633e+00 -4.194673150777816772e-02
1.131000000000000000e+03 7.963180541992187500e+01 1.491755104064941406e+01 6.885929498821496964e-03 5.436055183410644531e+00 1.632882356643676758e+00 -5.920773837715387344e-03
1.132000000000000000e+03 7.887339019775390625e+01 1.990224075317382812e+01 1.033866498619318008e-02 5.861820697784423828e+00 1.761647820472717285e+00 1.229554563760757446e-01
1.133000000000000000e+03 7.962133026123046875e+01 2.133817481994628906e+01 3.625851823017001152e-03 5.885879039764404297e+00 1.766851425170898438e+00 5.346855521202087402e-02
1.134000000000000000e+03 7.877695465087890625e+01 2.796861457824707031e+01 -8.114949800074100494e-03 6.741671085357666016e+00 2.020066976547241211e+00 1.338409185409545898e-01
1.135000000000000000e+03 7.959785461425781250e+01 2.856674766540527344e+01 -3.025488404091447592e-04 6.847325801849365234e+00 2.054106950759887695e+00 4.641608148813247681e-02
1.136000000000000000e+03 7.959928131103515625e+01 3.017628097534179688e+01 1.161289401352405548e-03 7.002262592315673828e+00 2.101027250289916992e+00 3.760442882776260376e-02
1.137000000000000000e+03 7.880922698974609375e+01 3.119479179382324219e+01 -7.652970496565103531e-03 6.994393825531005859e+00 2.096022129058837891e+00 8.628901094198226929e-02
1.138000000000000000e+03 7.879022216796875000e+01 2.876776123046875000e+01 -1.081801485270261765e-02 6.814352512359619141e+00 2.041060209274291992e+00 1.210741698741912842e-01
1.139000000000000000e+03 7.877230072021484375e+01 2.716709136962890625e+01 -8.977954275906085968e-03 6.666127204895019531e+00 1.997144818305969238e+00 1.430331468582153320e-01
1.140000000000000000e+03 7.733542633056640625e+01 2.253771018981933594e+01 1.583190634846687317e-02 6.308292388916015625e+00 1.897237181663513184e+00 2.968289852142333984e-01
1.141000000000000000e+03 7.884719085693359375e+01 2.310171890258789062e+01 7.330830558203160763e-04 6.208449363708496094e+00 1.862754702568054199e+00 1.598449945449829102e-01
1.142000000000000000e+03 7.883365631103515625e+01 2.390783691406250000e+01 1.701489381957799196e-04 6.304834842681884766e+00 1.891501426696777344e+00 1.603284031152725220e-01
1.143000000000000000e+03 7.961077117919921875e+01 2.374495506286621094e+01 -5.324138328433036804e-04 6.225806236267089844e+00 1.867582082748413086e+00 6.046500429511070251e-02
1.144000000000000000e+03 7.885804748535156250e+01 2.230048942565917969e+01 5.318982992321252823e-03 6.115506649017333984e+00 1.836247682571411133e+00 1.533866524696350098e-01
1.145000000000000000e+03 7.737606048583984375e+01 2.096734046936035156e+01 3.920618444681167603e-02 6.192017078399658203e+00 1.869367003440856934e+00 2.662410140037536621e-01
1.146000000000000000e+03 7.887091064453125000e+01 2.070436477661132812e+01 1.159195322543382645e-02 5.939825057983398438e+00 1.785425186157226562e+00 1.353737860918045044e-01
1.147000000000000000e+03 7.812810516357421875e+01 1.841904830932617188e+01 4.211554303765296936e-02 5.906629562377929688e+00 1.784623622894287109e+00 1.313427686691284180e-01
1.148000000000000000e+03 7.888554382324218750e+01 1.667654037475585938e+01 1.752912625670433044e-02 5.661940574645996094e+00 1.703840851783752441e+00 3.936741128563880920e-02
1.149000000000000000e+03 7.888016510009765625e+01 1.748270988464355469e+01 2.088374085724353790e-02 5.692091941833496094e+00 1.713892817497253418e+00 6.286976486444473267e-02
1.150000000000000000e+03 7.962652587890625000e+01 1.732612419128417969e+01 1.668877084739506245e-03 5.484432220458984375e+00 1.645830273628234863e+00 2.338804490864276886e-02
1.151000000000000000e+03 7.889888763427734375e+01 1.506513023376464844e+01 1.931946724653244019e-02 5.649533271789550781e+00 1.700655817985534668e+00 -1.385441701859235764e-02
1.152000000000000000e+03 7.890533447265625000e+01 1.346540069580078125e+01 1.854519732296466827e-02 5.706824302673339844e+00 1.717610836029052734e+00 -6.763350963592529297e-02
1.153000000000000000e+03 7.819132995605468750e+01 1.196912670135498047e+01 4.981936514377593994e-02 5.990859031677246094e+00 1.812203407287597656e+00 -1.819553822278976440e-01
1.154000000000000000e+03 7.890957641601562500e+01 1.105764961242675781e+01 2.049251645803451538e-02 5.920597076416015625e+00 1.782326817512512207e+00 -1.437494158744812012e-01
1.155000000000000000e+03 7.891239929199218750e+01 9.452101707458496094e+00 1.787410490214824677e-02 6.141391277313232422e+00 1.847779631614685059e+00 -1.874188631772994995e-01
1.156000000000000000e+03 7.783074951171875000e+01 -3.597555160522460938e+01 -2.543086186051368713e-02 1.011164379119873047e+01 3.025863885879516602e+00 -8.819279819726943970e-02
1.157000000000000000e+03 7.957884979248046875e+01 -3.478613281250000000e+01 8.875050581991672516e-03 1.096248912811279297e+01 3.291409254074096680e+00 -4.625396803021430969e-02
1.158000000000000000e+03 7.884529113769531250e+01 -2.817690277099609375e+01 -3.592491894960403442e-02 9.542357444763183594e+00 2.851929664611816406e+00 -4.057877063751220703e-01
1.159000000000000000e+03 7.961858367919921875e+01 -2.756851005554199219e+01 -3.761399537324905396e-03 9.477303504943847656e+00 2.842062711715698242e+00 -1.719285845756530762e-01
1.160000000000000000e+03 7.814299011230468750e+01 -2.237549209594726562e+01 1.037879958748817444e-01 7.854025840759277344e+00 2.387344121932983398e+00 -6.659479141235351562e-01
1.161000000000000000e+03 7.963179016113281250e+01 -2.115198707580566406e+01 1.757968217134475708e-02 6.629990577697753906e+00 1.994271039962768555e+00 -1.332329511642456055e-01
1.162000000000000000e+03 7.877118682861328125e+01 3.608308029174804688e+01 -7.221163250505924225e-03 7.193998813629150391e+00 2.156033277511596680e+00 2.215642109513282776e-02
1.163000000000000000e+03 7.892233276367187500e+01 -8.180335044860839844e+00 -4.741717875003814697e-02 8.817985534667968750e+00 2.631170272827148438e+00 1.544975787401199341e-01
1.164000000000000000e+03 7.963899230957031250e+01 -6.734223842620849609e+00 -1.077670231461524963e-02 9.125790596008300781e+00 2.734503984451293945e+00 1.640048623085021973e-02
1.165000000000000000e+03 7.822855377197265625e+01 -1.523576927185058594e+01 1.028818935155868530e-01 7.468231678009033203e+00 2.271334171295166016e+00 4.657443165779113770e-01
1.166000000000000000e+03 7.963961029052734375e+01 -1.394700050354003906e+01 2.144359517842531204e-03 7.084370136260986328e+00 2.125954389572143555e+00 1.436778306961059570e-01
1.167000000000000000e+03 7.891802215576171875e+01 -1.703287661075592041e-01 -9.359373711049556732e-03 8.157704353332519531e+00 2.444503545761108398e+00 -2.520988285541534424e-01
1.168000000000000000e+03 7.963788604736328125e+01 4.817724227905273438e-01 -5.406245472840964794e-04 8.141203880310058594e+00 2.442198991775512695e+00 -9.536159038543701172e-02
1.169000000000000000e+03 7.891668701171875000e+01 7.045387268066406250e+00 9.950761683285236359e-03 6.569610595703125000e+00 1.973868489265441895e+00 -2.390706241130828857e-01
1.170000000000000000e+03 7.963691711425781250e+01 7.699019908905029297e+00 1.055165310390293598e-03 6.334167003631591797e+00 1.900566697120666504e+00 -8.107069134712219238e-02
1.171000000000000000e+03 7.959840393066406250e+01 4.039857482910156250e+01 -1.555293099954724312e-03 7.390613555908203125e+00 2.216717481613159180e+00 3.276427276432514191e-03
1.172000000000000000e+03 7.820431518554687500e+01 3.947963714599609375e+01 -7.391996216028928757e-03 7.123202323913574219e+00 2.134742975234985352e+00 1.896888203918933868e-02
1.173000000000000000e+03 7.885591888427734375e+01 3.679475784301757812e+01 4.350994713604450226e-03 7.212175369262695312e+00 2.164957761764526367e+00 2.161044813692569733e-02
1.174000000000000000e+03 7.794802093505859375e+01 3.644121932983398438e+01 -1.041777525097131729e-02 7.084155559539794922e+00 2.122121334075927734e+00 4.276125133037567139e-02
1.175000000000000000e+03 7.695419311523437500e+01 3.133785057067871094e+01 -4.838402569293975830e-02 6.840862751007080078e+00 2.037743568420410156e+00 1.704555153846740723e-01
1.176000000000000000e+03 7.963601684570312500e+01 9.303846359252929688e+00 1.368157449178397655e-03 6.015567302703857422e+00 1.805080533027648926e+00 -6.795758754014968872e-02
1.177000000000000000e+03 7.891355895996093750e+01 8.648127555847167969e+00 1.287156064063310623e-02 6.273230075836181641e+00 1.885830521583557129e+00 -2.067805081605911255e-01
1.178000000000000000e+03 7.891654968261718750e+01 6.246330261230468750e+00 1.066978089511394501e-02 6.731866836547851562e+00 2.022761106491088867e+00 -2.518286705017089844e-01
1.179000000000000000e+03 7.820728302001953125e+01 4.749475002288818359e+00 1.213673595339059830e-02 7.068218231201171875e+00 2.124106407165527344e+00 -4.172362089157104492e-01
1.180000000000000000e+03 7.891870880126953125e+01 3.034485578536987305e+00 1.939446898177266121e-03 7.444568157196044922e+00 2.233952283859252930e+00 -2.768465578556060791e-01
1.181000000000000000e+03 7.963785552978515625e+01 2.888129234313964844e+00 -5.343732773326337337e-04 7.520439147949218750e+00 2.255971431732177734e+00 -1.003125309944152832e-01
1.182000000000000000e+03 7.891790008544921875e+01 1.429927945137023926e+00 -3.352748695760965347e-03 7.809837818145751953e+00 2.341945409774780273e+00 -2.718503475189208984e-01
1.183000000000000000e+03 7.891825866699218750e+01 6.266064047813415527e-01 -8.041995577514171600e-03 7.988011837005615234e+00 2.393990993499755859e+00 -2.637220919132232666e-01
1.184000000000000000e+03 7.820767974853515625e+01 -8.581704497337341309e-01 -3.195523098111152649e-02 8.155845642089843750e+00 2.437167167663574219e+00 -3.701699376106262207e-01
1.185000000000000000e+03 7.891736602783203125e+01 -9.706441760063171387e-01 -1.521580107510089874e-02 8.319746971130371094e+00 2.491359472274780273e+00 -2.358738780021667480e-01
1.186000000000000000e+03 7.751111602783203125e+01 -2.394208192825317383e+00 -9.555546939373016357e-02 8.262647628784179688e+00 2.450127601623535156e+00 -4.035651087760925293e-01
1.187000000000000000e+03 7.891885375976562500e+01 -4.184171676635742188e+00 -3.327305614948272705e-02 8.813086509704589844e+00 2.633944034576416016e+00 -1.157963350415229797e-01
1.188000000000000000e+03 7.963787841796875000e+01 -4.329236984252929688e+00 -5.606750026345252991e-03 9.054759025573730469e+00 2.714745521545410156e+00 -3.979511559009552002e-02
1.189000000000000000e+03 7.892110443115234375e+01 -5.785717010498046875e+00 -4.156191274523735046e-02 8.916069984436035156e+00 2.662352561950683594e+00 -2.185154706239700317e-02
1.190000000000000000e+03 7.892254638671875000e+01 -6.585825920104980469e+00 -4.276861995458602905e-02 8.919424057006835938e+00 2.662996530532836914e+00 3.318241983652114868e-02
1.191000000000000000e+03 7.892239379882812500e+01 -7.380670547485351562e+00 -4.864862561225891113e-02 8.887958526611328125e+00 2.651793003082275391e+00 9.182404726743698120e-02
1.192000000000000000e+03 7.820397186279296875e+01 -1.205585384368896484e+01 -4.154079407453536987e-02 8.145472526550292969e+00 2.431179523468017578e+00 5.726394653320312500e-01
1.193000000000000000e+03 7.891949462890625000e+01 -9.784337043762207031e+00 -4.261155053973197937e-02 8.563006401062011719e+00 2.556118488311767578e+00 2.759056985378265381e-01
1.194000000000000000e+03 7.891838073730468750e+01 -1.218891525268554688e+01 -1.569418422877788544e-02 7.947296142578125000e+00 2.379480600357055664e+00 3.943107426166534424e-01
1.195000000000000000e+03 7.891734313964843750e+01 -1.138930416107177734e+01 -2.700238674879074097e-02 8.174322128295898438e+00 2.444195985794067383e+00 3.687306940555572510e-01
1.196000000000000000e+03 7.963777160644531250e+01 -1.154406929016113281e+01 -6.054459605365991592e-03 8.039709091186523438e+00 2.410096168518066406e+00 1.384248882532119751e-01
1.197000000000000000e+03 7.892088317871093750e+01 -1.298809146881103516e+01 1.150428899563848972e-03 7.704866409301757812e+00 2.311805009841918945e+00 4.040974974632263184e-01
1.198000000000000000e+03 7.892520904541015625e+01 -1.458171749114990234e+01 2.917851880192756653e-02 7.243126392364501953e+00 2.181691408157348633e+00 3.610298335552215576e-01
1.199000000000000000e+03 7.893136596679687500e+01 -1.776016044616699219e+01 7.635359466075897217e-02 6.700694561004638672e+00 2.033114433288574219e+00 5.189291387796401978e-02
1.200000000000000000e+03 7.892605590820312500e+01 -1.855396842956542969e+01 8.013331145048141479e-02 6.708267211914062500e+00 2.036520242691040039e+00 -5.130723863840103149e-02
1.201000000000000000e+03 7.964038085937500000e+01 -1.874646759033203125e+01 1.468745060265064240e-02 6.116754531860351562e+00 1.839432597160339355e+00 -2.579727955162525177e-02
1.202000000000000000e+03 7.890853118896484375e+01 -2.015312194824218750e+01 7.589434832334518433e-02 6.901626110076904297e+00 2.093255996704101562e+00 -2.500405311584472656e-01
1.203000000000000000e+03 7.889807128906250000e+01 -2.095888900756835938e+01 5.940566211938858032e-02 7.084572792053222656e+00 2.143193483352661133e+00 -3.337110280990600586e-01
1.204000000000000000e+03 7.888986968994140625e+01 -2.176108551025390625e+01 5.482906103134155273e-02 7.306056022644042969e+00 2.208265542984008789e+00 -4.051797688007354736e-01
1.205000000000000000e+03 7.742887878417968750e+01 -2.302843475341796875e+01 1.415113359689712524e-01 8.301026344299316406e+00 2.532761096954345703e+00 -9.031668901443481445e-01
1.206000000000000000e+03 7.887729644775390625e+01 -2.577723884582519531e+01 -2.001164294779300690e-02 8.752165794372558594e+00 2.619646310806274414e+00 -5.067148208618164062e-01
1.207000000000000000e+03 7.962587738037109375e+01 -2.516240692138671875e+01 -4.567116964608430862e-03 8.408257484436035156e+00 2.521106958389282227e+00 -1.991423815488815308e-01
1.208000000000000000e+03 7.886880493164062500e+01 -2.657808494567871094e+01 -2.108654379844665527e-02 9.035813331604003906e+00 2.704417943954467773e+00 -4.815483093261718750e-01
1.209000000000000000e+03 7.805130004882812500e+01 -2.878193283081054688e+01 -9.884852916002273560e-02 9.548708915710449219e+00 2.834958076477050781e+00 -5.496864914894104004e-01
1.210000000000000000e+03 7.883049011230468750e+01 -2.897552108764648438e+01 -4.075245931744575500e-02 9.755758285522460938e+00 2.914501667022705078e+00 -3.648795187473297119e-01
1.211000000000000000e+03 7.717786407470703125e+01 -3.018932533264160156e+01 -1.754303127527236938e-01 9.579297065734863281e+00 2.821160078048706055e+00 -5.400476455688476562e-01
1.212000000000000000e+03 7.873905181884765625e+01 -3.299813842773437500e+01 -3.699158132076263428e-02 1.040472412109375000e+01 3.110319614410400391e+00 -1.462520807981491089e-01
1.213000000000000000e+03 7.958621978759765625e+01 -3.238193893432617188e+01 -1.192398928105831146e-02 1.072489643096923828e+01 3.213891744613647461e+00 -7.313697785139083862e-02
1.214000000000000000e+03 7.873490905761718750e+01 -3.379830169677734375e+01 -1.502933353185653687e-02 1.047094535827636719e+01 3.136774778366088867e+00 -1.309493333101272583e-01
1.215000000000000000e+03 7.872682189941406250e+01 -3.540074539184570312e+01 -8.864212781190872192e-03 1.055212879180908203e+01 3.162979364395141602e+00 -8.048958331346511841e-02
1.216000000000000000e+03 7.849630737304687500e+01 -3.868549728393554688e+01 -7.916491478681564331e-03 1.054561424255371094e+01 3.161309242248535156e+00 -2.906396798789501190e-02
1.217000000000000000e+03 7.855930328369140625e+01 -3.700468063354492188e+01 -4.784590099006891251e-03 1.050400066375732422e+01 3.149765014648437500e+00 -5.316630005836486816e-02
1.218000000000000000e+03 7.681719970703125000e+01 -3.903395080566406250e+01 -3.815279155969619751e-02 9.505461692810058594e+00 2.840192556381225586e+00 -1.317923814058303833e-01
1.219000000000000000e+03 7.866805267333984375e+01 -3.949077987670898438e+01 -1.588113233447074890e-02 1.064132213592529297e+01 3.187632083892822266e+00 1.204485632479190826e-02
1.220000000000000000e+03 7.953933715820312500e+01 -3.961526489257812500e+01 4.124720022082328796e-02 1.105196666717529297e+01 3.327964067459106445e+00 -8.693443611264228821e-03
1.221000000000000000e+03 7.858963775634765625e+01 -4.015746307373046875e+01 -5.728872492909431458e-03 1.058854007720947266e+01 3.174843311309814453e+00 6.923095323145389557e-03
1.222000000000000000e+03 7.837881469726562500e+01 -4.185359573364257812e+01 9.342309087514877319e-03 1.051573657989501953e+01 3.157523870468139648e+00 5.221727862954139709e-02
1.223000000000000000e+03 4.553646743297576904e-01 3.481617736816406250e+01 -7.800432504154741764e-04 -4.411184191703796387e-01 -1.325695365667343140e-01 1.283660344779491425e-02
1.224000000000000000e+03 4.295113086700439453e-01 3.400326538085937500e+01 2.981766301672905684e-04 -4.181386232376098633e-01 -1.253521442413330078e-01 1.230380404740571976e-02
1.225000000000000000e+03 3.683858811855316162e-01 2.839236450195312500e+01 -7.632403867319226265e-04 -2.303523272275924683e-01 -6.933467090129852295e-02 1.318179257214069366e-02
1.226000000000000000e+03 3.672821521759033203e-01 2.759021949768066406e+01 4.324679030105471611e-04 -2.019047290086746216e-01 -6.044168025255203247e-02 1.272244006395339966e-02
1.227000000000000000e+03 4.415473937988281250e-01 -3.796040344238281250e+01 -4.902604036033153534e-03 5.475979447364807129e-01 1.628086119890213013e-01 1.146830897778272629e-02
1.228000000000000000e+03 1.103663921356201172e+00 -3.700654220581054688e+01 -9.288958273828029633e-03 4.950672090053558350e-01 1.457334756851196289e-01 4.246436059474945068e-02
1.229000000000000000e+03 3.559584319591522217e-01 2.115985679626464844e+01 3.463758048383169807e-06 -2.742332406342029572e-02 -8.225957863032817841e-03 5.538386758416891098e-03
1.230000000000000000e+03 1.070123791694641113e+00 2.189332962036132812e+01 -1.940679503604769707e-03 -4.350235313177108765e-02 -1.363290939480066299e-02 1.930037699639797211e-02
1.231000000000000000e+03 1.087947964668273926e+00 2.511130142211914062e+01 -1.322070951573550701e-03 -1.139168813824653625e-01 -3.457168489694595337e-02 3.152093291282653809e-02
1.232000000000000000e+03 1.093924283981323242e+00 2.591448974609375000e+01 -2.031543990597128868e-03 -1.357365101575851440e-01 -4.133041575551033020e-02 3.388602659106254578e-02
1.233000000000000000e+03 3.641844391822814941e-01 2.598280143737792969e+01 1.640157570363953710e-04 -1.473896056413650513e-01 -4.416767880320549011e-02 1.172614283859729767e-02
1.234000000000000000e+03 1.102119565010070801e+00 2.752049446105957031e+01 -1.278205658309161663e-03 -1.829233318567276001e-01 -5.526046082377433777e-02 3.698259592056274414e-02
1.235000000000000000e+03 1.103649377822875977e+00 2.831958961486816406e+01 2.550957142375409603e-04 -2.074184119701385498e-01 -6.214899569749832153e-02 3.750423341989517212e-02
1.236000000000000000e+03 1.105511784553527832e+00 2.990853691101074219e+01 1.364358933642506599e-03 -2.568368017673492432e-01 -7.664173841476440430e-02 3.766738995909690857e-02
1.237000000000000000e+03 2.510036706924438477e+00 3.054543876647949219e+01 1.979927765205502510e-03 -2.178626954555511475e-01 -6.476482748985290527e-02 7.532335817813873291e-02
1.238000000000000000e+03 1.160525798797607422e+00 3.227692031860351562e+01 2.487993333488702774e-04 -3.250477015972137451e-01 -9.743966907262802124e-02 3.597710654139518738e-02
1.239000000000000000e+03 3.897988498210906982e-01 3.239533996582031250e+01 5.837036296725273132e-04 -3.693398833274841309e-01 -1.106268540024757385e-01 1.223414018750190735e-02
1.240000000000000000e+03 1.271121144294738770e+00 3.387370300292968750e+01 2.777548215817660093e-04 -3.607996702194213867e-01 -1.081565693020820618e-01 3.601510450243949890e-02
1.241000000000000000e+03 1.206933021545410156e+00 3.306646347045898438e+01 2.048439811915159225e-03 -3.442934751510620117e-01 -1.026735082268714905e-01 3.573981299996376038e-02
1.242000000000000000e+03 1.428503274917602539e+00 3.555876159667968750e+01 1.495617558248341084e-03 -3.878768980503082275e-01 -1.159143894910812378e-01 3.602027520537376404e-02
1.243000000000000000e+03 2.598304271697998047e+00 3.938313293457031250e+01 1.975924335420131683e-02 -3.559217453002929688e-01 -1.008487567305564880e-01 3.445965424180030823e-02
1.244000000000000000e+03 1.243071556091308594e+00 3.818312072753906250e+01 6.742986850440502167e-03 -4.514050781726837158e-01 -1.333986222743988037e-01 2.205217070877552032e-02
1.245000000000000000e+03 3.400920331478118896e-01 3.961029815673828125e+01 -2.038190374150872231e-03 -5.414752364158630371e-01 -1.630540341138839722e-01 -1.033517182804644108e-03
1.246000000000000000e+03 1.474706888198852539e+00 4.045070648193359375e+01 2.835219027474522591e-03 -4.728522896766662598e-01 -1.410051137208938599e-01 7.688264828175306320e-03
1.247000000000000000e+03 1.090290188789367676e+00 -9.113485336303710938e+00 1.176497340202331543e-02 -1.160142660140991211e+00 -3.445133268833160400e-01 -2.063781172037124634e-01
1.248000000000000000e+03 1.071511745452880859e+00 -3.638279342651367188e+01 -3.311471547931432724e-03 4.655561745166778564e-01 1.386734098196029663e-01 4.967968910932540894e-02
1.249000000000000000e+03 1.256124019622802734e+00 -2.929127311706542969e+01 -1.352061796933412552e-02 -8.581217378377914429e-02 -2.979983761906623840e-02 1.658043712377548218e-01
1.250000000000000000e+03 1.117668032646179199e+00 -2.198296546936035156e+01 8.259705267846584320e-03 -1.186315298080444336e+00 -3.534166812896728516e-01 1.887836605310440063e-01
1.251000000000000000e+03 1.091537117958068848e+00 -1.554901981353759766e+01 2.546601183712482452e-02 -1.757164716720581055e+00 -5.195096135139465332e-01 -7.724268361926078796e-04
1.252000000000000000e+03 3.549680709838867188e-01 1.955150413513183594e+01 2.439831951051019132e-05 -6.669771391898393631e-03 -1.993611920624971390e-03 3.470696508884429932e-03
1.253000000000000000e+03 3.531676530838012695e-01 1.472807884216308594e+01 1.314172259299084544e-04 1.249306742101907730e-02 3.787345485761761665e-03 -1.060669092112220824e-04
1.254000000000000000e+03 3.535520434379577637e-01 1.392441082000732422e+01 -2.868812880478799343e-04 1.210797857493162155e-02 3.546328982338309288e-03 -2.521328278817236423e-04
1.255000000000000000e+03 3.674724996089935303e-01 7.484660625457763672e+00 -3.156744060106575489e-05 3.674546955153346062e-03 1.092893769964575768e-03 -3.833447990473359823e-04
1.256000000000000000e+03 3.684841692447662354e-01 6.682459831237792969e+00 7.131241000024601817e-05 2.870291238650679588e-03 8.824811084195971489e-04 -3.436968545429408550e-04
1.257000000000000000e+03 1.799439668655395508e+00 -3.911227416992187500e+01 -1.038747467100620270e-02 5.355145931243896484e-01 1.575381308794021606e-01 3.695536777377128601e-02
1.258000000000000000e+03 2.478892564773559570e+00 -3.780731201171875000e+01 -2.839679457247257233e-02 5.021656751632690430e-01 1.421306580305099487e-01 7.520607113838195801e-02
1.259000000000000000e+03 1.545814037322998047e+00 -3.835315704345703125e+01 -1.281263493001461029e-02 5.215028524398803711e-01 1.526070684194564819e-01 3.798448294401168823e-02
1.260000000000000000e+03 1.185288429260253906e+00 -3.566721725463867188e+01 -9.176006540656089783e-03 4.336313903331756592e-01 1.273366063833236694e-01 5.848557874560356140e-02
1.261000000000000000e+03 2.157895326614379883e+00 -3.099925422668457031e+01 -3.187531977891921997e-02 1.529578417539596558e-01 3.632475808262825012e-02 2.162640392780303955e-01
1.262000000000000000e+03 1.262210011482238770e+00 -3.249735641479492188e+01 -1.397876907140016556e-02 2.323287874460220337e-01 6.550500541925430298e-02 1.118656024336814880e-01
1.263000000000000000e+03 4.207609593868255615e-01 -3.086524391174316406e+01 -1.038518501445651054e-03 5.018968507647514343e-02 1.474534906446933746e-02 4.865310341119766235e-02
1.264000000000000000e+03 1.270773768424987793e+00 -3.171235275268554688e+01 -1.072643417865037918e-02 1.651983112096786499e-01 4.634156078100204468e-02 1.260889321565628052e-01
1.265000000000000000e+03 2.114176988601684570e+00 -2.933743858337402344e+01 -2.982780337333679199e-02 -3.874913672916591167e-04 -9.064588695764541626e-03 2.584353387355804443e-01
1.266000000000000000e+03 1.242921829223632812e+00 -2.847204971313476562e+01 -1.044917758554220200e-02 -1.884886026382446289e-01 -5.968133360147476196e-02 1.786084920167922974e-01
1.267000000000000000e+03 2.060035943984985352e+00 -2.765986061096191406e+01 -2.463233843445777893e-02 -1.842038631439208984e-01 -6.265085935592651367e-02 2.935747504234313965e-01
1.268000000000000000e+03 1.162989735603332520e+00 -2.521034812927246094e+01 -2.998887095600366592e-03 -6.685103178024291992e-01 -2.014527618885040283e-01 2.052081823348999023e-01
1.269000000000000000e+03 1.182570099830627441e+00 -2.602310180664062500e+01 -6.176566705107688904e-03 -5.396622419357299805e-01 -1.637516468763351440e-01 2.021769881248474121e-01
1.270000000000000000e+03 3.788527548313140869e-01 -2.360413932800292969e+01 2.782356750685721636e-04 -1.129740476608276367e+00 -3.388386666774749756e-01 7.231220602989196777e-02
1.271000000000000000e+03 1.146508693695068359e+00 -2.439932060241699219e+01 -1.326201017946004868e-03 -8.001605272293090820e-01 -2.404460310935974121e-01 2.059332430362701416e-01
1.272000000000000000e+03 1.133721947669982910e+00 -2.359105682373046875e+01 2.389215398579835892e-03 -9.322122931480407715e-01 -2.789469361305236816e-01 2.031069099903106689e-01
1.273000000000000000e+03 1.112361788749694824e+00 -2.117900657653808594e+01 1.007838733494281769e-02 -1.304351329803466797e+00 -3.882818818092346191e-01 1.764912754297256470e-01
1.274000000000000000e+03 1.100355029106140137e+00 -1.876636695861816406e+01 1.980450935661792755e-02 -1.596297621726989746e+00 -4.729479253292083740e-01 1.166277453303337097e-01
1.275000000000000000e+03 1.104107618331909180e+00 -1.957094764709472656e+01 1.583151146769523621e-02 -1.511530995368957520e+00 -4.487098157405853271e-01 1.404497176408767700e-01
1.276000000000000000e+03 3.656291365623474121e-01 -1.717084312438964844e+01 3.850100329145789146e-03 -2.046612977981567383e+00 -6.128288507461547852e-01 2.314512059092521667e-02
1.277000000000000000e+03 1.092754364013671875e+00 -1.635256004333496094e+01 2.322249114513397217e-02 -1.746162652969360352e+00 -5.168820619583129883e-01 3.093935735523700714e-02
1.278000000000000000e+03 1.089734196662902832e+00 -1.474502182006835938e+01 2.366604097187519073e-02 -1.747354507446289062e+00 -5.171065330505371094e-01 -3.271725401282310486e-02
1.279000000000000000e+03 1.083120703697204590e+00 -1.152833938598632812e+01 1.820565573871135712e-02 -1.510506987571716309e+00 -4.476903975009918213e-01 -1.475360691547393799e-01
1.280000000000000000e+03 1.084514498710632324e+00 -1.233230209350585938e+01 2.168824151158332825e-02 -1.597705960273742676e+00 -4.728053212165832520e-01 -1.220701113343238831e-01
1.281000000000000000e+03 3.629725873470306396e-01 -9.934142112731933594e+00 4.314763005822896957e-03 -1.503505229949951172e+00 -4.497571289539337158e-01 -6.606711447238922119e-02
1.282000000000000000e+03 1.822251558303833008e+00 -8.296530723571777344e+00 1.710857450962066650e-02 -8.798326849937438965e-01 -2.588172554969787598e-01 -3.313689231872558594e-01
1.283000000000000000e+03 3.399387121200561523e+00 -2.614575862884521484e+00 -2.058671116828918457e-01 -1.191254705190658569e-01 -9.749777615070343018e-02 -3.117434680461883545e-01
1.284000000000000000e+03 1.116998314857482910e+00 -4.255428314208984375e+00 -1.997952535748481750e-02 -3.412164151668548584e-01 -1.083587855100631714e-01 -1.830505281686782837e-01
1.285000000000000000e+03 1.130597829818725586e+00 -5.868945121765136719e+00 -7.739242166280746460e-03 -5.950751304626464844e-01 -1.808443218469619751e-01 -2.202528119087219238e-01
1.286000000000000000e+03 1.116262912750244141e+00 -3.458627223968505859e+00 -2.785993739962577820e-02 -2.347383201122283936e-01 -7.877947390079498291e-02 -1.529782563447952271e-01
1.287000000000000000e+03 3.711435496807098389e-01 -3.492590427398681641e+00 -5.230387207120656967e-03 -2.089038789272308350e-01 -6.424028426408767700e-02 -5.360735952854156494e-02
1.288000000000000000e+03 3.917687535285949707e-01 2.684791803359985352e+00 -1.460777093598153442e-05 3.488211077637970448e-04 1.002639983198605478e-04 -1.213150680996477604e-04
1.289000000000000000e+03 4.541706085205078125e+00 1.893274545669555664e+00 8.725209627300500870e-04 -4.435596929397433996e-05 2.484494762029498816e-04 -5.900655523873865604e-04
1.290000000000000000e+03 6.193197250366210938e+00 2.738554716110229492e+00 1.190060283988714218e-03 -2.860920212697237730e-04 2.711904817260801792e-04 -5.847411230206489563e-04
1.291000000000000000e+03 3.697899580001831055e-01 5.080403327941894531e+00 6.930723611731082201e-05 1.566029968671500683e-03 4.906011745333671570e-04 -2.521465066820383072e-04
1.292000000000000000e+03 1.115633368492126465e+00 6.597580432891845703e+00 3.136136729153804481e-05 2.310065785422921181e-03 7.024281658232212067e-04 -9.408701444044709206e-04
1.293000000000000000e+03 2.523091793060302734e+00 1.056013870239257812e+01 1.586996950209140778e-04 2.160755218937993050e-03 6.958364974707365036e-04 -2.262398600578308105e-03
1.294000000000000000e+03 1.785006880760192871e+00 1.139205169677734375e+01 5.117006003274582326e-05 4.360632505267858505e-03 1.323540811426937580e-03 -1.926138415001332760e-03
1.295000000000000000e+03 1.065753340721130371e+00 1.224727725982666016e+01 6.057777136447839439e-05 7.300009950995445251e-03 2.208176301792263985e-03 -1.318242866545915604e-03
1.296000000000000000e+03 3.555509746074676514e-01 1.231471443176269531e+01 -1.770859962562099099e-04 1.026443112641572952e-02 3.026203485205769539e-03 -4.735945549327880144e-04
1.297000000000000000e+03 1.059291839599609375e+00 1.385922622680664062e+01 -1.361972681479528546e-04 8.056035265326499939e-03 2.375951502472162247e-03 -6.699767545796930790e-04
1.298000000000000000e+03 1.762343883514404297e+00 1.381235790252685547e+01 -1.174527802504599094e-03 4.775759298354387283e-03 1.080369460396468639e-03 -5.010897875763475895e-04
1.299000000000000000e+03 2.462615966796875000e+00 1.618567276000976562e+01 -4.899616818875074387e-03 -1.063640345819294453e-03 -1.788977184332907200e-03 5.345691926777362823e-03
1.300000000000000000e+03 1.059680104255676270e+00 1.707307243347167969e+01 -9.073734981939196587e-04 3.212455194443464279e-03 6.915244739502668381e-04 3.551342058926820755e-03
1.301000000000000000e+03 1.060598492622375488e+00 1.787561988830566406e+01 -1.896190224215388298e-03 -3.781726118177175522e-04 -6.823088624514639378e-04 5.556333810091018677e-03
1.302000000000000000e+03 1.062586903572082520e+00 1.867868995666503906e+01 -1.361002097837626934e-03 -5.483516957610845566e-03 -2.053355565294623375e-03 7.642016746103763580e-03
1.303000000000000000e+03 1.064885139465332031e+00 1.948312377929687500e+01 -2.437001559883356094e-03 -1.207976322621107101e-02 -4.355029668658971786e-03 1.031766179949045181e-02
1.304000000000000000e+03 1.073175787925720215e+00 2.269671440124511719e+01 -2.923221560195088387e-03 -5.796453729271888733e-02 -1.826632767915725708e-02 2.257050760090351105e-02
1.305000000000000000e+03 1.626796340942382812e+01 2.273766708374023438e+01 -4.195570349693298340e-01 -1.545141130918636918e-04 -1.259134560823440552e-01 1.668004877865314484e-02
1.306000000000000000e+03 1.299751091003417969e+01 1.739788627624511719e+01 -3.376203775405883789e-02 -1.006618980318307877e-02 -1.314846891909837723e-02 -3.147538378834724426e-02
1.307000000000000000e+03 1.376130676269531250e+01 1.760313796997070312e+01 -1.549088489264249802e-02 -2.205316536128520966e-02 -1.126321498304605484e-02 -2.662298642098903656e-02
1.308000000000000000e+03 1.473918819427490234e+01 1.190062999725341797e+01 -2.173199172830209136e-04 8.216522634029388428e-03 2.399760764092206955e-03 1.024388802761677653e-05
1.309000000000000000e+03 1.655304718017578125e+01 1.001602745056152344e+01 2.755203749984502792e-04 2.350099384784698486e-03 7.876859162934124470e-04 -1.455214922316372395e-03
1.310000000000000000e+03 2.023800277709960938e+01 2.297052192687988281e+01 -6.262381672859191895e-01 -2.886515855789184570e-02 -1.965309977531433105e-01 -9.193775802850723267e-02
1.311000000000000000e+03 1.535634803771972656e+01 2.119354248046875000e+01 -4.070733785629272461e-01 -1.403063070029020309e-02 -1.263312101364135742e-01 -8.092188090085983276e-02
1.312000000000000000e+03 1.479637527465820312e+01 2.127928352355957031e+01 -3.321020305156707764e-01 2.058210596442222595e-02 -9.345597773790359497e-02 -2.923863939940929413e-02
1.313000000000000000e+03 1.654170227050781250e+01 8.974771499633789062e+00 -2.870734024327248335e-04 1.955663319677114487e-03 5.005769780836999416e-04 -5.925031146034598351e-04
1.314000000000000000e+03 1.935177993774414062e+01 2.203501892089843750e+01 -8.718606233596801758e-01 -4.069434851408004761e-02 -2.737664878368377686e-01 -1.513499617576599121e-01
1.315000000000000000e+03 1.747908020019531250e+01 4.054789543151855469e+00 -7.570192246930673718e-05 1.997808431042358279e-04 3.722367910086177289e-05 2.098460827255621552e-04
1.316000000000000000e+03 1.955980682373046875e+01 3.481210470199584961e+00 1.508562581875594333e-05 -5.351363870431669056e-05 -1.152840377471875399e-05 -3.842212390736676753e-05
1.317000000000000000e+03 1.445474624633789062e+01 1.271973419189453125e+01 2.975173993036150932e-04 1.017291378229856491e-02 3.141129156574606895e-03 5.001182435080409050e-04
1.318000000000000000e+03 1.875786399841308594e+01 7.634047031402587891e+00 -2.120474673574790359e-04 -1.467097627028124407e-05 -6.801553536206483841e-05 -3.119760658591985703e-04
1.319000000000000000e+03 1.779515075683593750e+01 2.269934844970703125e+01 -5.393139123916625977e-01 -4.571993276476860046e-02 -1.755101680755615234e-01 -7.273975759744644165e-02
1.320000000000000000e+03 1.703125572204589844e+01 2.267745780944824219e+01 -4.494842588901519775e-01 -4.420029744505882263e-02 -1.481053680181503296e-01 -2.184416912496089935e-02
1.321000000000000000e+03 1.311890029907226562e+01 1.663766860961914062e+01 -1.166038122028112411e-02 -1.072843559086322784e-02 -6.716644857078790665e-03 -1.543476060032844543e-02
1.322000000000000000e+03 1.458936023712158203e+01 1.697641372680664062e+01 -1.512773800641298294e-03 1.738839969038963318e-02 4.762687720358371735e-03 -3.354680724442005157e-03
1.323000000000000000e+03 1.392095375061035156e+01 1.603124237060546875e+01 -1.680515939369797707e-03 6.568099837750196457e-03 1.466275192797183990e-03 -3.367516212165355682e-03
1.324000000000000000e+03 1.510943508148193359e+01 1.110583877563476562e+01 2.115362440235912800e-04 6.468633655458688736e-03 2.004051115363836288e-03 4.860483022639527917e-05
1.325000000000000000e+03 1.602598381042480469e+01 9.645438194274902344e+00 1.185515138786286116e-04 3.198146820068359375e-03 9.950095554813742638e-04 -3.950268437620252371e-04
1.326000000000000000e+03 1.884226989746093750e+01 6.681240081787109375e+00 -1.398589083692058921e-04 7.405434007523581386e-05 -1.974137194338254631e-05 -1.977905194507911801e-04
1.327000000000000000e+03 1.752333641052246094e+01 3.379000663757324219e+00 8.041027467697858810e-05 3.762570559047162533e-04 1.370001991745084524e-04 1.668143086135387421e-04
1.328000000000000000e+03 2.112814140319824219e+01 5.483689308166503906e+00 -1.590684114489704370e-04 -1.304292527493089437e-04 -8.684930071467533708e-05 -8.870809688232839108e-05
1.329000000000000000e+03 1.890917015075683594e+01 3.481555223464965820e+00 5.035543290432542562e-05 2.781957155093550682e-04 9.856533870333805680e-05 6.829249468864873052e-05
1.330000000000000000e+03 1.980839157104492188e+01 3.932416915893554688e+00 2.784250318654812872e-05 -4.539792644209228456e-05 -5.266626885713776574e-06 -2.273538848385214806e-05
1.331000000000000000e+03 6.226243972778320312e+00 1.908988833427429199e+00 1.203794265165925026e-03 -1.798054145183414221e-04 3.071966639254242182e-04 -4.191451007500290871e-04
1.332000000000000000e+03 1.115790128707885742e+00 5.007166862487792969e+00 3.277471842011436820e-05 1.353371539153158665e-03 4.158438823651522398e-04 -6.973939016461372375e-04
1.333000000000000000e+03 2.791149854660034180e+00 2.622039079666137695e+00 4.714534443337470293e-04 2.454181085340678692e-04 2.150614600395783782e-04 -7.121252128854393959e-04
1.334000000000000000e+03 1.983324408531188965e+00 2.627930879592895508e+00 2.203743497375398874e-04 3.724565031006932259e-04 1.778492587618529797e-04 -5.386562552303075790e-04
1.335000000000000000e+03 2.048612117767333984e+00 1.874253511428833008e+00 3.028471837751567364e-04 2.081292623188346624e-04 1.532929309178143740e-04 -4.123993858229368925e-04
1.336000000000000000e+03 9.587524414062500000e+00 2.549485445022583008e+00 1.270029344595968723e-03 -2.580982400104403496e-04 3.035793197341263294e-04 2.530498313717544079e-04
1.337000000000000000e+03 7.937829494476318359e+00 2.625277996063232422e+00 1.336863148026168346e-03 -3.505673084873706102e-04 2.958887780550867319e-04 -1.553210749989375472e-04
1.338000000000000000e+03 7.072456359863281250e+00 1.896128058433532715e+00 1.379377092234790325e-03 -1.799411547835916281e-04 3.598307666834443808e-04 -3.033239918295294046e-04
1.339000000000000000e+03 5.312178611755371094e+00 2.731002330780029297e+00 9.791279444471001625e-04 -2.220641472376883030e-04 2.271191478939726949e-04 -6.947765359655022621e-04
1.340000000000000000e+03 1.112609004974365234e+01 2.527288913726806641e+00 1.049368875101208687e-03 -9.314734052168205380e-05 2.868664741981774569e-04 5.245776847004890442e-04
1.341000000000000000e+03 1.037021350860595703e+01 2.534995317459106445e+00 1.109233940951526165e-03 -3.282754041720181704e-04 2.342875668546184897e-04 4.741674929391592741e-04
1.342000000000000000e+03 6.127883911132812500e+01 2.185197639465332031e+01 -1.824531108140945435e-01 6.072811126708984375e+00 1.767107486724853516e+00 -2.103819131851196289e+00
1.343000000000000000e+03 3.663509368896484375e+00 -4.184273529052734375e+01 -3.037146292626857758e-02 5.330335497856140137e-01 1.507986336946487427e-01 3.400115296244621277e-03
1.344000000000000000e+03 2.153846931457519531e+01 3.324659347534179688e+00 -4.465581150725483894e-05 -4.094212272320874035e-05 -2.567937917774543166e-05 -2.492584280844312161e-05
1.345000000000000000e+03 1.963131904602050781e+01 2.919239044189453125e+00 4.968509165337309241e-05 1.699567364994436502e-04 6.589254917344078422e-05 2.204321026511024684e-05
1.346000000000000000e+03 1.689221954345703125e+01 2.679142475128173828e+00 1.345153577858582139e-04 3.045735065825283527e-04 1.317266578553244472e-04 2.274948783451691270e-04
1.347000000000000000e+03 1.475403594970703125e+01 3.205441236495971680e+00 2.905545406974852085e-04 3.838212578557431698e-04 2.023127453867346048e-04 5.839461227878928185e-04
1.348000000000000000e+03 5.952462387084960938e+01 -1.183929061889648438e+01 -2.292761087417602539e+00 5.623264312744140625e-01 -5.191303491592407227e-01 6.280359625816345215e-02
1.349000000000000000e+03 2.559505653381347656e+01 -8.122465133666992188e+00 -7.123293876647949219e-01 5.999608635902404785e-01 -3.371056541800498962e-02 8.722021579742431641e-01
1.350000000000000000e+03 2.216902923583984375e+01 -9.654344558715820312e+00 9.147111177444458008e-01 3.623832464218139648e-01 3.831283152103424072e-01 8.624037504196166992e-01
1.351000000000000000e+03 5.620507049560546875e+01 2.230096244812011719e+01 -1.442011952400207520e+00 7.945294678211212158e-02 -4.087677001953125000e-01 -3.880514204502105713e-01
1.352000000000000000e+03 5.523117828369140625e+01 2.316637802124023438e+01 -6.763423085212707520e-01 2.612285017967224121e-01 -1.245341449975967407e-01 -1.726094633340835571e-01
1.353000000000000000e+03 2.027558898925781250e+01 3.014624118804931641e+00 5.032868102716747671e-06 -8.691976836416870356e-05 -2.456607035128399730e-05 -4.217505193082615733e-05
1.354000000000000000e+03 2.105898094177246094e+01 4.545925140380859375e+00 -9.246960689779371023e-05 -9.276712808059528470e-05 -5.557101758313365281e-05 -6.949252565391361713e-05
1.355000000000000000e+03 1.405592918395996094e+01 2.537429809570312500e+00 4.811594262719154358e-04 2.359984355280175805e-04 2.151473599951714277e-04 5.656706634908914566e-04
1.356000000000000000e+03 1.334997844696044922e+01 3.185435771942138672e+00 5.220869788900017738e-04 2.251682599307969213e-04 2.241765614598989487e-04 7.386654033325612545e-04
1.357000000000000000e+03 1.758907699584960938e+01 2.735125064849853516e+00 2.463864620949607342e-05 5.486027657752856612e-05 2.384967592661269009e-05 1.619282120373100042e-04
1.358000000000000000e+03 1.835255432128906250e+01 6.261683940887451172e+00 -2.376677366555668414e-05 5.486975423991680145e-04 1.574792258907109499e-04 5.289438195177353919e-05
1.359000000000000000e+03 2.054677200317382812e+01 5.107134342193603516e+00 1.025786914397031069e-04 1.244407903868705034e-04 6.810584454797208309e-05 1.082240924006327987e-04
1.360000000000000000e+03 2.253147697448730469e+01 -1.030800819396972656e+01 9.665387272834777832e-01 2.324889153242111206e-01 3.597082793712615967e-01 6.600329279899597168e-01
1.361000000000000000e+03 2.000603485107421875e+01 -1.028020191192626953e+01 1.627396464347839355e+00 5.449572205543518066e-01 6.517060995101928711e-01 1.169526696205139160e+00
1.362000000000000000e+03 2.325081253051757812e+01 -1.004848480224609375e+01 7.546195387840270996e-01 2.870725989341735840e-01 3.125076591968536377e-01 6.143950223922729492e-01
1.363000000000000000e+03 1.477215576171875000e+01 2.556042909622192383e+00 2.907294838223606348e-04 7.568954606540501118e-05 1.099257060559466481e-04 5.238922312855720520e-04
1.364000000000000000e+03 1.614704895019531250e+01 3.273472785949707031e+00 1.353561819996684790e-04 4.346104105934500694e-04 1.709899661364033818e-04 3.704642294906079769e-04
1.365000000000000000e+03 5.883390426635742188e+01 1.060685276985168457e+00 1.051747441291809082e+00 3.079439878463745117e+00 1.239356160163879395e+00 1.699860692024230957e+00
1.366000000000000000e+03 5.974343490600585938e+01 -1.253520584106445312e+01 -2.520080327987670898e+00 4.333272278308868408e-01 -6.260259151458740234e-01 -2.760221064090728760e-01
1.367000000000000000e+03 1.193698120117187500e+01 3.840158224105834961e+00 6.499059963971376419e-04 -2.927282766904681921e-04 1.071533115464262664e-04 9.416982065886259079e-04
1.368000000000000000e+03 6.042897415161132812e+01 -1.231207180023193359e+01 -2.803803920745849609e+00 3.676944673061370850e-01 -7.308328747749328613e-01 -2.973210811614990234e-01
1.369000000000000000e+03 5.998715972900390625e+01 -1.324565982818603516e+01 -2.602247238159179688e+00 1.567535251379013062e-01 -7.336480617523193359e-01 -5.589683651924133301e-01
1.370000000000000000e+03 1.115797424316406250e+01 3.195611238479614258e+00 8.857442880980670452e-04 -3.602834185585379601e-04 1.576382637722417712e-04 7.193027413450181484e-04
1.371000000000000000e+03 6.165346908569335938e+01 7.181807041168212891e+00 7.634807825088500977e-01 8.047676086425781250e+00 2.643347024917602539e+00 1.975388169288635254e+00
1.372000000000000000e+03 4.515176773071289062e+01 -6.167025566101074219e+00 -1.784148931503295898e+00 1.283513069152832031e+00 -1.501907855272293091e-01 -3.257681429386138916e-01
1.373000000000000000e+03 4.538450622558593750e+01 -5.545616149902343750e+00 -2.301541566848754883e+00 7.172637581825256348e-01 -4.752833843231201172e-01 1.967640593647956848e-02
1.374000000000000000e+03 2.449111557006835938e+01 -9.440239667892456055e-01 1.004050970077514648e+00 -1.235526055097579956e-01 2.641495168209075928e-01 6.774798631668090820e-01
1.375000000000000000e+03 2.685881233215332031e+01 -1.811265468597412109e+00 1.992081046104431152e+00 -1.155684608966112137e-02 5.941572189331054688e-01 1.282163023948669434e+00
1.376000000000000000e+03 5.088603210449218750e+01 -1.471999549865722656e+01 4.074134826660156250e-01 2.270420789718627930e-01 1.903366595506668091e-01 6.088963150978088379e-01
1.377000000000000000e+03 4.946733856201171875e+01 -1.405164146423339844e+01 8.414967656135559082e-01 1.098364114761352539e+00 5.819582343101501465e-01 1.405107498168945312e+00
1.378000000000000000e+03 1.189842319488525391e+01 -3.216153860092163086e+00 -8.075186610221862793e-01 1.884332597255706787e-01 -1.857256144285202026e-01 -2.332240939140319824e-01
1.379000000000000000e+03 1.419923019409179688e+01 -2.478399515151977539e+00 -1.020328879356384277e+00 1.677317619323730469e-01 -2.557791471481323242e-01 5.348201468586921692e-02
1.380000000000000000e+03 8.815653800964355469e+00 -2.564046382904052734e+00 -7.826523184776306152e-01 4.155157878994941711e-02 -2.223302125930786133e-01 -4.154675304889678955e-01
1.381000000000000000e+03 9.595052719116210938e+00 -3.252658605575561523e+00 -6.924205422401428223e-01 9.919036924839019775e-02 -1.779690384864807129e-01 -4.363603889942169189e-01
1.382000000000000000e+03 5.832432937622070312e+01 -1.289844894409179688e+01 -2.103862762451171875e+00 3.765197992324829102e-01 -5.182029008865356445e-01 -5.862421914935112000e-02
1.383000000000000000e+03 5.701894378662109375e+01 -1.388405799865722656e+01 -1.991830348968505859e+00 1.030394062399864197e-01 -5.666372776031494141e-01 -5.571058136411011219e-04
1.384000000000000000e+03 5.769261932373046875e+01 -3.101246833801269531e+01 -2.070186853408813477e+00 -2.392561137676239014e-01 -6.928328871726989746e-01 -4.222730100154876709e-01
1.385000000000000000e+03 6.247620010375976562e+01 1.037909412384033203e+01 6.660961508750915527e-01 9.992780685424804688e+00 3.197663068771362305e+00 1.194325566291809082e+00
1.386000000000000000e+03 6.279937362670898438e+01 1.434692764282226562e+01 2.217444926500320435e-01 1.130118656158447266e+01 3.456879377365112305e+00 -1.284157037734985352e-01
1.387000000000000000e+03 1.441640281677246094e+01 -2.328507614135742188e+01 -9.310864657163619995e-02 2.141028404235839844e+00 6.143759489059448242e-01 -1.506452262401580811e-01
1.388000000000000000e+03 5.425254058837890625e+01 -4.425495624542236328e+00 1.033447980880737305e+00 1.723855137825012207e+00 8.271909356117248535e-01 1.403011202812194824e+00
1.389000000000000000e+03 5.479131698608398438e+01 -3.922485828399658203e+00 1.165779590606689453e+00 1.779235005378723145e+00 8.835043907165527344e-01 1.492196083068847656e+00
1.390000000000000000e+03 2.031306076049804688e+01 -1.092847537994384766e+01 1.826687812805175781e+00 3.066084086894989014e-01 6.399888396263122559e-01 8.642852306365966797e-01
1.391000000000000000e+03 1.925955390930175781e+01 -1.046361827850341797e+01 1.814337491989135742e+00 8.591157793998718262e-01 8.020359873771667480e-01 1.326588749885559082e+00
1.392000000000000000e+03 4.690525436401367188e+01 -6.076707839965820312e+00 -2.199020624160766602e+00 8.060899376869201660e-02 -6.355234980583190918e-01 6.179982423782348633e-01
1.393000000000000000e+03 2.112483406066894531e+01 -9.246543884277343750e+00 9.957221150398254395e-01 5.146586298942565918e-01 4.531142413616180420e-01 1.101480245590209961e+00
1.394000000000000000e+03 1.580115222930908203e+01 -3.092648506164550781e+00 -7.231890559196472168e-01 3.074399530887603760e-01 -1.247247308492660522e-01 3.387340605258941650e-01
1.395000000000000000e+03 1.344879627227783203e+01 -3.179642915725708008e+00 -8.232567310333251953e-01 2.428797334432601929e-01 -1.741130948066711426e-01 -2.945639751851558685e-02
1.396000000000000000e+03 1.734220886230468750e+01 -2.305459260940551758e+00 -7.476443648338317871e-01 2.332044988870620728e-01 -1.543319523334503174e-01 4.864887893199920654e-01
1.397000000000000000e+03 8.039779663085937500e+00 -2.573195219039916992e+00 -7.014499902725219727e-01 2.031589485704898834e-02 -2.043402194976806641e-01 -4.358556270599365234e-01
1.398000000000000000e+03 1.039348411560058594e+01 -3.922163724899291992e+00 -5.808755159378051758e-01 1.876192986965179443e-01 -1.179768741130828857e-01 -4.115021526813507080e-01
1.399000000000000000e+03 5.718732833862304688e+00 -2.594787836074829102e+00 -4.447060525417327881e-01 -4.539015144109725952e-02 -1.470288634300231934e-01 -4.262193739414215088e-01
1.400000000000000000e+03 4.167987346649169922e+00 -2.604625463485717773e+00 -2.805555164813995361e-01 -9.412468969821929932e-02 -1.124040633440017700e-01 -3.603121936321258545e-01
1.401000000000000000e+03 5.699517250061035156e+00 -3.329890251159667969e+00 -3.675355315208435059e-01 -6.744345277547836304e-02 -1.304937005043029785e-01 -4.972764849662780762e-01
1.402000000000000000e+03 8.035470008850097656e+00 -3.288189411163330078e+00 -5.697332620620727539e-01 3.487848863005638123e-02 -1.604564338922500610e-01 -5.027129054069519043e-01
1.403000000000000000e+03 6.476682186126708984e+00 -3.323413133621215820e+00 -4.347195327281951904e-01 -3.289448842406272888e-02 -1.402842104434967041e-01 -5.129637718200683594e-01
1.404000000000000000e+03 7.254566192626953125e+00 -3.307694435119628906e+00 -5.028852224349975586e-01 1.069485093466937542e-03 -1.505447179079055786e-01 -5.146142840385437012e-01
1.405000000000000000e+03 1.878617882728576660e+00 -2.647421121597290039e+00 -8.051893860101699829e-02 -1.533174812793731689e-01 -7.015092670917510986e-02 -1.870972365140914917e-01
1.406000000000000000e+03 4.117942810058593750e+00 -4.071788787841796875e+00 -1.851300448179244995e-01 -1.912012845277786255e-01 -1.128994002938270569e-01 -4.766456484794616699e-01
1.407000000000000000e+03 1.123634576797485352e+00 -2.668555259704589844e+00 -3.350364044308662415e-02 -1.478248536586761475e-01 -5.439854785799980164e-02 -1.159774139523506165e-01
1.408000000000000000e+03 1.123725652694702148e+00 -5.059657573699951172e+00 -1.406930852681398392e-02 -4.634779989719390869e-01 -1.432641893625259399e-01 -2.056111395359039307e-01
1.409000000000000000e+03 2.422940063476562500e+01 -8.816916465759277344e+00 1.116683930158615112e-01 4.449262917041778564e-01 1.669784039258956909e-01 7.848054766654968262e-01
1.410000000000000000e+03 3.417155838012695312e+01 6.203007698059082031e+00 2.796736359596252441e-01 1.540950584411621094e+01 4.706753730773925781e+00 -2.629592716693878174e-01
1.411000000000000000e+03 3.883545684814453125e+01 7.017195701599121094e+00 1.275786161422729492e+00 1.636961555480957031e+01 5.293620586395263672e+00 1.754862785339355469e+00
1.412000000000000000e+03 1.820999336242675781e+01 -2.913635730743408203e+00 -4.808592498302459717e-01 3.423765003681182861e-01 -4.154482483863830566e-02 7.072139978408813477e-01
1.413000000000000000e+03 1.660253143310546875e+01 -3.044685125350952148e+00 -6.596314311027526855e-01 3.274619877338409424e-01 -9.965083003044128418e-02 4.722631573677062988e-01
1.414000000000000000e+03 3.670804977416992188e+01 -1.843793106079101562e+01 7.164267897605895996e-01 1.044918060302734375e+01 3.349682092666625977e+00 -9.887381196022033691e-01
1.415000000000000000e+03 3.667019271850585938e+01 -1.756432533264160156e+01 8.085120916366577148e-01 1.055290126800537109e+01 3.408423900604248047e+00 -1.339986324310302734e+00
1.416000000000000000e+03 2.968943023681640625e+01 -3.229777145385742188e+01 -4.406268298625946045e-01 1.456841111183166504e+00 3.048642873764038086e-01 9.772130250930786133e-01
1.417000000000000000e+03 3.020549201965332031e+01 -3.096465492248535156e+01 -4.227658212184906006e-01 1.506935358047485352e+00 3.252508342266082764e-01 1.056413412094116211e+00
1.418000000000000000e+03 6.353166580200195312e+01 1.489905357360839844e+01 5.757555365562438965e-01 1.065852928161621094e+01 3.370285272598266602e+00 -4.444092810153961182e-01
1.419000000000000000e+03 1.267325973510742188e+01 -3.199260234832763672e+00 -8.230082988739013672e-01 2.151759862899780273e-01 -1.823496967554092407e-01 -1.394548267126083374e-01
1.420000000000000000e+03 5.450892257690429688e+01 -1.347340488433837891e+01 -1.114220499992370605e+00 2.146485745906829834e-01 -2.698715925216674805e-01 5.745668411254882812e-01
1.421000000000000000e+03 5.389957809448242188e+01 -1.428412151336669922e+01 -1.052297592163085938e+00 1.084018051624298096e-01 -2.831687331199645996e-01 3.299477696418762207e-01
1.422000000000000000e+03 3.325173950195312500e+01 1.506186771392822266e+01 9.154264330863952637e-01 9.925444602966308594e+00 3.252261161804199219e+00 -2.288204908370971680e+00
1.423000000000000000e+03 3.178430747985839844e+01 1.715256118774414062e+01 1.571983695030212402e+00 8.797403335571289062e+00 3.110816240310668945e+00 -2.980334281921386719e+00
1.424000000000000000e+03 4.832381820678710938e+01 -1.258760452270507812e+01 5.130042433738708496e-01 2.010717630386352539e+00 7.571165561676025391e-01 1.527588129043579102e+00
1.425000000000000000e+03 2.207159805297851562e+01 2.392431831359863281e+01 -1.513643264770507812e-01 9.819650650024414062e-02 -1.595034450292587280e-02 -2.933768928050994873e-01
1.426000000000000000e+03 1.825745964050292969e+01 7.212558269500732422e+00 1.003286888590082526e-04 6.232480518519878387e-04 2.170730294892564416e-04 1.951342164829839021e-05
1.427000000000000000e+03 8.773362159729003906e+00 2.577912330627441406e+00 1.254721893928945065e-03 -4.267845069989562035e-04 2.483812277205288410e-04 1.257709227502346039e-04
1.428000000000000000e+03 4.002683639526367188e+01 1.210722351074218750e+01 1.496161103248596191e+00 9.055176734924316406e+00 3.165401458740234375e+00 2.783672332763671875e+00
1.429000000000000000e+03 2.286808586120605469e+01 -9.400795936584472656e+00 6.489010453224182129e-01 3.554669022560119629e-01 3.013103902339935303e-01 8.330928683280944824e-01
1.430000000000000000e+03 4.499628067016601562e+01 1.661179542541503906e+01 1.288571953773498535e+00 2.117552518844604492e+00 1.021837353706359863e+00 1.664449572563171387e+00
1.431000000000000000e+03 4.326083755493164062e+01 1.600221443176269531e+01 1.288890004158020020e+00 3.631306171417236328e+00 1.476058840751647949e+00 2.122229337692260742e+00
1.432000000000000000e+03 5.375144195556640625e+01 -4.974737644195556641e+00 6.431723833084106445e-01 1.731109619140625000e+00 7.122846245765686035e-01 1.313131213188171387e+00
1.433000000000000000e+03 4.104069900512695312e+01 1.350018692016601562e+01 1.543243765830993652e+00 6.678141593933105469e+00 2.466415643692016602e+00 2.729186058044433594e+00
1.434000000000000000e+03 3.332062530517578125e+01 -2.806174850463867188e+01 3.994262516498565674e-01 3.369093656539916992e+00 1.130555987358093262e+00 1.499942064285278320e+00
1.435000000000000000e+03 2.940140533447265625e+01 -6.784050464630126953e+00 -1.602018952369689941e+00 -2.706284523010253906e-01 -5.617942214012145996e-01 1.220167517662048340e+00
1.436000000000000000e+03 1.972762298583984375e+01 -2.029750108718872070e+00 -3.366223275661468506e-01 2.450689226388931274e-01 -2.746601775288581848e-02 7.274721860885620117e-01
1.437000000000000000e+03 2.382636070251464844e+01 -8.206996917724609375e+00 1.279180347919464111e-01 5.283699631690979004e-01 1.968864053487777710e-01 9.984903931617736816e-01
1.438000000000000000e+03 2.292206573486328125e+01 -1.388133525848388672e+00 4.710659086704254150e-01 7.418885082006454468e-02 1.635764241218566895e-01 7.717705965042114258e-01
1.439000000000000000e+03 1.982689094543457031e+01 -2.704629898071289062e+00 -2.461095005273818970e-01 3.286852240562438965e-01 2.477271109819412231e-02 8.767990469932556152e-01
1.440000000000000000e+03 2.465996742248535156e+01 -1.619028568267822266e+00 1.064327597618103027e+00 -8.264356851577758789e-02 2.945052087306976318e-01 9.450032114982604980e-01
1.441000000000000000e+03 2.621508789062500000e+01 -1.234616518020629883e+00 1.828570604324340820e+00 -1.471484750509262085e-01 5.044266581535339355e-01 9.192154407501220703e-01
1.442000000000000000e+03 6.324027252197265625e+01 1.097814369201660156e+01 6.601146459579467773e-01 9.806194305419921875e+00 3.139892578125000000e+00 6.345980167388916016e-01
1.443000000000000000e+03 6.135165405273437500e+01 -3.071536064147949219e+01 -1.253760814666748047e+00 4.697462916374206543e-01 -2.352043688297271729e-01 1.251544803380966187e-01
1.444000000000000000e+03 1.677227020263671875e+01 3.990987777709960938e+00 5.190311640035361052e-05 5.492923082783818245e-04 1.803586346795782447e-04 2.852409379556775093e-04
1.445000000000000000e+03 3.456170272827148438e+01 2.302521944046020508e+00 3.303304672241210938e+00 1.407497978210449219e+01 5.213485240936279297e+00 1.515590667724609375e+00
1.446000000000000000e+03 6.296048736572265625e+01 9.332961082458496094e+00 7.879190444946289062e-01 9.124921798706054688e+00 2.973852157592773438e+00 9.954962730407714844e-01
1.447000000000000000e+03 6.232931518554687500e+01 9.571432113647460938e+00 6.778644323348999023e-01 9.705776214599609375e+00 3.115092277526855469e+00 1.301558136940002441e+00
1.448000000000000000e+03 4.524341964721679688e+01 -1.879277229309082031e+01 2.125888109207153320e+00 1.006194019317626953e+01 3.656348466873168945e+00 1.407749772071838379e+00
1.449000000000000000e+03 4.473982238769531250e+01 -2.130876159667968750e+01 5.597149133682250977e-01 1.104612731933593750e+01 3.481752872467041016e+00 -4.034520685672760010e-01
1.450000000000000000e+03 2.804385566711425781e+01 -7.675706148147583008e-01 2.948327779769897461e+00 1.388459503650665283e-01 9.261521100997924805e-01 7.137891650199890137e-01
1.451000000000000000e+03 2.763054084777832031e+01 -1.435393691062927246e+00 2.480585098266601562e+00 1.221962571144104004e-01 7.808343768119812012e-01 1.204923152923583984e+00
1.452000000000000000e+03 3.425822830200195312e+01 4.616136550903320312e+00 1.069195985794067383e+00 1.652323722839355469e+01 5.277729988098144531e+00 1.060323119163513184e+00
1.453000000000000000e+03 6.026023101806640625e+01 3.058894395828247070e+00 9.023346900939941406e-01 4.490324974060058594e+00 1.617797851562500000e+00 1.742909550666809082e+00
1.454000000000000000e+03 6.072256469726562500e+01 3.773025989532470703e+00 8.747311830520629883e-01 5.175749778747558594e+00 1.815144181251525879e+00 1.706165909767150879e+00
1.455000000000000000e+03 3.000018501281738281e+01 -7.665257930755615234e+00 -4.545063972473144531e+00 -8.620918393135070801e-01 -1.622146844863891602e+00 1.093996405601501465e+00
1.456000000000000000e+03 3.188904190063476562e+01 -8.284726142883300781e+00 -3.711424589157104492e+00 2.475018501281738281e+00 -3.709218204021453857e-01 -2.629127204418182373e-01
1.457000000000000000e+03 1.292572212219238281e+01 -1.978973007202148438e+01 5.775816440582275391e-01 2.958011388778686523e+00 1.060677886009216309e+00 2.262266576290130615e-01
1.458000000000000000e+03 1.300293827056884766e+01 -1.898082542419433594e+01 4.767220616340637207e-01 3.353546380996704102e+00 1.149080514907836914e+00 2.745148539543151855e-01
1.459000000000000000e+03 3.432896804809570312e+01 -2.682240867614746094e+01 6.466340422630310059e-01 4.604547500610351562e+00 1.575354456901550293e+00 1.722000002861022949e+00
1.460000000000000000e+03 1.427207565307617188e+01 -2.207355499267578125e+01 1.943138688802719116e-01 2.809614658355712891e+00 9.011785984039306641e-01 -1.507286429405212402e-01
1.461000000000000000e+03 1.875076675415039062e+01 2.447712135314941406e+01 -2.290723174810409546e-01 2.596668340265750885e-02 -6.093169003725051880e-02 -3.381108120083808899e-02
1.462000000000000000e+03 1.941105842590332031e+01 2.286893272399902344e+01 -6.118474602699279785e-01 -2.418197132647037506e-02 -1.908088326454162598e-01 -9.182205796241760254e-02
1.463000000000000000e+03 3.154076004028320312e+01 1.789846229553222656e+01 1.670693397521972656e+00 8.333685874938964844e+00 3.001313686370849609e+00 -2.850939035415649414e+00
1.464000000000000000e+03 1.801912689208984375e+01 -2.745122146606445312e+01 -4.144760966300964355e-01 5.667473673820495605e-01 4.568138718605041504e-02 -8.733211457729339600e-02
1.465000000000000000e+03 1.856730461120605469e+01 -2.803575134277343750e+01 -4.996306300163269043e-01 4.785802662372589111e-01 -6.315107923001050949e-03 -5.691168829798698425e-02
1.466000000000000000e+03 5.978438949584960938e+01 2.373326063156127930e+00 9.204199910163879395e-01 3.912135839462280273e+00 1.449766755104064941e+00 1.727421760559082031e+00
1.467000000000000000e+03 6.561953735351562500e+01 -2.711590766906738281e+01 -3.889414072036743164e-01 3.302063703536987305e+00 8.739367127418518066e-01 1.096697092056274414e+00
1.468000000000000000e+03 4.810570144653320312e+01 1.926360702514648438e+01 1.625469774007797241e-01 1.005871534347534180e+00 3.505255579948425293e-01 7.753339409828186035e-01
1.469000000000000000e+03 5.759048843383789062e+01 -1.303922367095947266e+01 -1.942552328109741211e+00 3.083006739616394043e-01 -4.902755022048950195e-01 8.002122491598129272e-02
1.470000000000000000e+03 6.447481536865234375e+01 1.612727737426757812e+01 1.155219435691833496e+00 9.666275024414062500e+00 3.246448516845703125e+00 -7.250563502311706543e-01
1.471000000000000000e+03 6.375325775146484375e+01 1.639240074157714844e+01 1.202378392219543457e+00 1.008385181427001953e+01 3.385869026184082031e+00 -9.509618282318115234e-01
1.472000000000000000e+03 4.389604187011718750e+01 -2.115263557434082031e+01 1.078960418701171875e+00 1.034556484222412109e+01 3.427357673645019531e+00 -6.061304211616516113e-01
1.473000000000000000e+03 3.595811843872070312e+01 -2.092410469055175781e+01 8.498231172561645508e-01 1.018767833709716797e+01 3.311250448226928711e+00 5.073186755180358887e-01
1.474000000000000000e+03 1.420134925842285156e+01 -1.507772350311279297e+01 1.401988506317138672e+00 4.174254894256591797e+00 1.672872900962829590e+00 1.321567893028259277e+00
1.475000000000000000e+03 3.418205261230468750e+01 -1.095413684844970703e+01 5.384880569181405008e-05 7.702326297760009766e+00 2.310714006423950195e+00 -1.912131190299987793e+00
1.476000000000000000e+03 6.387206268310546875e+01 -2.782094955444335938e+01 -7.468270659446716309e-01 1.283756732940673828e+00 1.610788851976394653e-01 3.418105840682983398e-01
1.477000000000000000e+03 6.619260406494140625e+01 -2.645678901672363281e+01 -2.074342072010040283e-01 4.081981182098388672e+00 1.162364006042480469e+00 1.379688501358032227e+00
1.478000000000000000e+03 4.566328430175781250e+01 1.819889831542968750e+01 7.341286540031433105e-01 2.085095167160034180e+00 8.457671403884887695e-01 1.422217130661010742e+00
1.479000000000000000e+03 7.853973388671875000e+01 4.086641311645507812e+01 -9.146893396973609924e-03 7.191331386566162109e+00 2.154655456542968750e+00 1.643055491149425507e-02
1.480000000000000000e+03 7.813406372070312500e+01 1.760630989074707031e+01 4.275273904204368591e-02 5.870149135589599609e+00 1.773870587348937988e+00 9.848135709762573242e-02
1.481000000000000000e+03 7.742244720458984375e+01 3.791883850097656250e+01 4.260920919477939606e-03 7.020505428314208984e+00 2.107429981231689453e+00 2.916765585541725159e-02
1.482000000000000000e+03 7.701244354248046875e+01 3.687055587768554688e+01 -2.006463706493377686e-02 6.967441558837890625e+00 2.084213018417358398e+00 3.936313837766647339e-02
1.483000000000000000e+03 7.797962188720703125e+01 2.897883224487304688e+01 -2.304465509951114655e-02 6.785942077636718750e+00 2.028869152069091797e+00 1.803239285945892334e-01
1.484000000000000000e+03 7.886590576171875000e+01 2.150292778015136719e+01 5.280347540974617004e-03 6.024538993835449219e+00 1.808945775032043457e+00 1.481032222509384155e-01
1.485000000000000000e+03 7.812682342529296875e+01 2.004721260070800781e+01 3.106246143579483032e-02 6.009958267211914062e+00 1.812306165695190430e+00 1.867105811834335327e-01
1.486000000000000000e+03 7.792281341552734375e+01 2.735972595214843750e+01 -2.161833271384239197e-02 6.668368339538574219e+00 1.994024991989135742e+00 2.163459062576293945e-01
1.487000000000000000e+03 7.879943847656250000e+01 2.553532600402832031e+01 -5.251172464340925217e-03 6.493556976318359375e+00 1.946491837501525879e+00 1.570583730936050415e-01
1.488000000000000000e+03 7.729521179199218750e+01 2.412316513061523438e+01 -4.346926230937242508e-03 6.431590080261230469e+00 1.928172826766967773e+00 3.055302500724792480e-01
1.489000000000000000e+03 7.811293029785156250e+01 2.164242935180664062e+01 1.625701226294040680e-02 6.144594669342041016e+00 1.848255515098571777e+00 2.220839112997055054e-01
1.490000000000000000e+03 7.889189910888671875e+01 1.586880493164062500e+01 2.341758459806442261e-02 5.647332191467285156e+00 1.701224923133850098e+00 1.222386397421360016e-02
1.491000000000000000e+03 7.875502014160156250e+01 3.362428283691406250e+01 -1.164131704717874527e-02 7.111549854278564453e+00 2.129972696304321289e+00 5.681195110082626343e-02
1.492000000000000000e+03 7.872608947753906250e+01 3.529347991943359375e+01 -1.160246226936578751e-02 7.163450241088867188e+00 2.145554304122924805e+00 3.819581121206283569e-02
1.493000000000000000e+03 7.819935607910156250e+01 3.716939163208007812e+01 -1.786006265319883823e-03 7.133449554443359375e+00 2.139498949050903320e+00 2.317141555249691010e-02
1.494000000000000000e+03 7.805856323242187500e+01 3.218857574462890625e+01 -2.196903713047504425e-02 6.969746589660644531e+00 2.084333419799804688e+00 1.074420735239982605e-01
1.495000000000000000e+03 7.817459106445312500e+01 1.517087554931640625e+01 5.447282269597053528e-02 5.832566738128662109e+00 1.766111850738525391e+00 -2.145471610128879547e-02
1.496000000000000000e+03 7.890657043457031250e+01 1.266035938262939453e+01 2.209554798901081085e-02 5.761723041534423828e+00 1.735145688056945801e+00 -9.449771046638488770e-02
1.497000000000000000e+03 7.819653320312500000e+01 1.036531448364257812e+01 4.443265870213508606e-02 6.154545783996582031e+00 1.859693527221679688e+00 -2.543098032474517822e-01
1.498000000000000000e+03 7.818595123291015625e+01 1.357753276824951172e+01 5.265906080603599548e-02 5.881798267364501953e+00 1.780337214469909668e+00 -1.027555316686630249e-01
1.499000000000000000e+03 7.881319427490234375e+01 3.199575233459472656e+01 -1.398694608360528946e-02 7.042443752288818359e+00 2.108536958694458008e+00 7.375857234001159668e-02
1.500000000000000000e+03 7.818834686279296875e+01 1.277231216430664062e+01 4.760885983705520630e-02 5.930045127868652344e+00 1.793296217918395996e+00 -1.427429318428039551e-01
1.501000000000000000e+03 7.819786834716796875e+01 9.564474105834960938e+00 3.793368116021156311e-02 6.256754875183105469e+00 1.888406515121459961e+00 -2.874154746532440186e-01
1.502000000000000000e+03 7.762512969970703125e+01 -3.884321212768554688e+01 -7.709806412458419800e-02 1.015676879882812500e+01 3.023901224136352539e+00 -5.613117665052413940e-02
1.503000000000000000e+03 7.866471862792968750e+01 -3.620287322998046875e+01 -2.623210474848747253e-02 1.054343032836914062e+01 3.155159473419189453e+00 -6.000370904803276062e-02
1.504000000000000000e+03 7.736021423339843750e+01 -3.749984741210937500e+01 -2.944999001920223236e-02 9.892562866210937500e+00 2.958933830261230469e+00 -8.098977804183959961e-02
1.505000000000000000e+03 7.881228637695312500e+01 -2.977717399597167969e+01 -4.007631167769432068e-02 9.936623573303222656e+00 2.968964099884033203e+00 -3.162923455238342285e-01
1.506000000000000000e+03 7.791654205322265625e+01 -3.200953674316406250e+01 -1.035614311695098877e-01 9.963123321533203125e+00 2.957868576049804688e+00 -2.912856936454772949e-01
1.507000000000000000e+03 7.888648223876953125e+01 -2.256051635742187500e+01 3.727567568421363831e-02 7.560218811035156250e+00 2.279248476028442383e+00 -4.595785140991210938e-01
1.508000000000000000e+03 7.814903259277343750e+01 -2.480484008789062500e+01 -9.466955438256263733e-03 8.540950775146484375e+00 2.559445142745971680e+00 -7.663128972053527832e-01
1.509000000000000000e+03 7.892946624755859375e+01 -1.537772369384765625e+01 4.829584807157516479e-02 7.039264202117919922e+00 2.126267910003662109e+00 3.076920807361602783e-01
1.510000000000000000e+03 7.823439788818359375e+01 -1.758543205261230469e+01 1.830309182405471802e-01 7.196577548980712891e+00 2.213882446289062500e+00 1.005819588899612427e-01
1.511000000000000000e+03 7.749266815185546875e+01 -1.114461898803710938e+01 -1.306296885013580322e-01 8.443659782409667969e+00 2.493909120559692383e+00 6.338936090469360352e-01
1.512000000000000000e+03 7.891699981689453125e+01 -1.775322079658508301e+00 -1.710228621959686279e-02 8.470114707946777344e+00 2.535903930664062500e+00 -2.145761698484420776e-01
1.513000000000000000e+03 7.820800781250000000e+01 -3.271573543548583984e+00 -6.605906039476394653e-02 8.527143478393554688e+00 2.538325309753417969e+00 -2.512907981872558594e-01
1.514000000000000000e+03 7.891643524169921875e+01 5.441563129425048828e+00 6.151507608592510223e-03 6.903689384460449219e+00 2.072952270507812500e+00 -2.624405324459075928e-01
1.515000000000000000e+03 7.820959472656250000e+01 3.145900249481201172e+00 1.500169862993061543e-03 7.384937286376953125e+00 2.215931177139282227e+00 -4.283224940299987793e-01
1.516000000000000000e+03 7.795392608642578125e+01 2.651882743835449219e+01 -1.937566883862018585e-02 6.601850509643554688e+00 1.974742531776428223e+00 2.278599292039871216e-01
1.517000000000000000e+03 7.793244934082031250e+01 3.381322097778320312e+01 -1.644109748303890228e-02 7.011364936828613281e+00 2.098477125167846680e+00 7.989407330751419067e-02
1.518000000000000000e+03 7.800334167480468750e+01 3.298075485229492188e+01 -2.144141681492328644e-02 6.999031066894531250e+00 2.093276739120483398e+00 9.165950864553451538e-02
1.519000000000000000e+03 7.799532318115234375e+01 2.568009185791015625e+01 -1.376744359731674194e-02 6.526296615600585938e+00 1.953758835792541504e+00 2.381240725517272949e-01
1.520000000000000000e+03 7.812748718261718750e+01 1.923591804504394531e+01 3.365270048379898071e-02 5.954164505004882812e+00 1.796345114707946777e+00 1.625397652387619019e-01
1.521000000000000000e+03 7.749250030517578125e+01 9.635671615600585938e+00 7.331555336713790894e-02 6.360373020172119141e+00 1.930106520652770996e+00 -3.717880845069885254e-01
1.522000000000000000e+03 7.820969390869140625e+01 7.350185513496398926e-01 -1.585934869945049286e-02 7.862003803253173828e+00 2.353843450546264648e+00 -4.105333685874938965e-01
1.523000000000000000e+03 7.891990661621093750e+01 -4.983829021453857422e+00 -3.482659161090850830e-02 8.879464149475097656e+00 2.653391361236572266e+00 -7.166508585214614868e-02
1.524000000000000000e+03 7.749037933349609375e+01 -1.194610691070556641e+01 -8.497861027717590332e-02 8.337152481079101562e+00 2.475652217864990234e+00 6.923524737358093262e-01
1.525000000000000000e+03 7.891852569580078125e+01 -1.935071372985839844e+01 7.771311700344085693e-02 6.773481369018554688e+00 2.055358409881591797e+00 -1.488047242164611816e-01
1.526000000000000000e+03 7.885773468017578125e+01 -2.737928009033203125e+01 -3.486412391066551208e-02 9.303575515747070312e+00 2.780613422393798828e+00 -4.495266377925872803e-01
1.527000000000000000e+03 7.888197326660156250e+01 -2.497551155090332031e+01 7.184566347859799862e-04 8.451465606689453125e+00 2.535655260086059570e+00 -5.233059525489807129e-01
1.528000000000000000e+03 7.873959350585937500e+01 -3.460029220581054688e+01 -3.408082202076911926e-02 1.052717208862304688e+01 3.147927284240722656e+00 -9.535812586545944214e-02
1.529000000000000000e+03 7.875421142578125000e+01 -3.219486236572265625e+01 -3.466204926371574402e-02 1.032811164855957031e+01 3.088034868240356445e+00 -1.947173029184341431e-01
1.530000000000000000e+03 7.881052398681640625e+01 4.012546539306640625e+01 -2.410105802118778229e-02 7.204492092132568359e+00 2.154117345809936523e+00 1.346078328788280487e-02
1.531000000000000000e+03 7.737558746337890625e+01 4.016562652587890625e+01 -1.664480753242969513e-02 6.984794139862060547e+00 2.090444803237915039e+00 1.322595961391925812e-02
1.532000000000000000e+03 7.788332366943359375e+01 3.468661880493164062e+01 -2.515468373894691467e-02 7.035482883453369141e+00 2.103098392486572266e+00 7.340002059936523438e-02
1.533000000000000000e+03 7.801080322265625000e+01 2.977818679809570312e+01 -2.396124228835105896e-02 6.840251922607421875e+00 2.044887304306030273e+00 1.593605577945709229e-01
1.534000000000000000e+03 7.793493652343750000e+01 2.817996215820312500e+01 -2.423674054443836212e-02 6.730104923248291016e+00 2.011760473251342773e+00 1.980847418308258057e-01
1.535000000000000000e+03 7.806160736083984375e+01 2.403472709655761719e+01 -2.904119668528437614e-03 6.370832443237304688e+00 1.910378456115722656e+00 2.432071864604949951e-01
1.536000000000000000e+03 7.814603424072265625e+01 1.679357910156250000e+01 5.080756172537803650e-02 5.844289302825927734e+00 1.768529057502746582e+00 6.067072600126266479e-02
1.537000000000000000e+03 7.747293853759765625e+01 1.443692398071289062e+01 9.469985961914062500e-02 6.006481170654296875e+00 1.830354332923889160e+00 -8.089534193277359009e-02
1.538000000000000000e+03 7.820390319824218750e+01 7.952660560607910156e+00 3.057050518691539764e-02 6.493993282318115234e+00 1.957369208335876465e+00 -3.446057438850402832e-01
1.539000000000000000e+03 7.891535186767578125e+01 7.844097614288330078e+00 1.453270390629768372e-02 6.416058063507080078e+00 1.929177165031433105e+00 -2.240402996540069580e-01
1.540000000000000000e+03 7.762301635742187500e+01 -3.671977996826171875e+01 -4.349116235971450806e-02 1.001764488220214844e+01 2.992246150970458984e+00 -6.558831036090850830e-02
1.541000000000000000e+03 7.802201080322265625e+01 -2.958109092712402344e+01 -1.002339944243431091e-01 9.691730499267578125e+00 2.877448797225952148e+00 -4.870291352272033691e-01
1.542000000000000000e+03 7.814926147460937500e+01 -2.317980194091796875e+01 6.771131604909896851e-02 8.063786506652832031e+00 2.439449310302734375e+00 -7.268170714378356934e-01
1.543000000000000000e+03 7.822120666503906250e+01 -8.054587364196777344e+00 -1.181435659527778625e-01 8.730624198913574219e+00 2.583744049072265625e+00 2.013386934995651245e-01
1.544000000000000000e+03 7.892343139648437500e+01 -1.378660774230957031e+01 1.543956343084573746e-02 7.467229843139648438e+00 2.244800806045532227e+00 3.893508613109588623e-01
1.545000000000000000e+03 7.823850250244140625e+01 -1.601764678955078125e+01 1.455038934946060181e-01 7.333821773529052734e+00 2.243797540664672852e+00 3.668720126152038574e-01
1.546000000000000000e+03 7.820733642578125000e+01 -1.662602186203002930e+00 -4.451978206634521484e-02 8.292454719543457031e+00 2.474380493164062500e+00 -3.391211926937103271e-01
1.547000000000000000e+03 7.820516967773437500e+01 6.359212875366210938e+00 2.191440761089324951e-02 6.765777587890625000e+00 2.036307573318481445e+00 -3.882755339145660400e-01
1.548000000000000000e+03 7.820571899414062500e+01 5.553460121154785156e+00 1.962027139961719513e-02 6.913991928100585938e+00 2.080083608627319336e+00 -4.042094647884368896e-01
1.549000000000000000e+03 7.891835021972656250e+01 2.233836889266967773e+00 -2.548560500144958496e-03 7.627712726593017578e+00 2.287549257278442383e+00 -2.756473422050476074e-01
1.550000000000000000e+03 7.820900726318359375e+01 3.947967290878295898e+00 9.212855249643325806e-03 7.224952220916748047e+00 2.170249462127685547e+00 -4.242542088031768799e-01
1.551000000000000000e+03 7.820868682861328125e+01 2.346636533737182617e+00 -2.383774844929575920e-03 7.544135570526123047e+00 2.262525558471679688e+00 -4.278473556041717529e-01
1.552000000000000000e+03 7.751043701171875000e+01 3.219249963760375977e+00 6.315009668469429016e-03 7.337155818939208984e+00 2.203041315078735352e+00 -5.584793686866760254e-01
1.553000000000000000e+03 7.820999908447265625e+01 -4.075228214263916016e+00 -7.472558319568634033e-02 8.620365142822265625e+00 2.563691854476928711e+00 -1.941506415605545044e-01
1.554000000000000000e+03 7.821150207519531250e+01 -4.871946811676025391e+00 -8.786402642726898193e-02 8.691868782043457031e+00 2.581201314926147461e+00 -1.294435709714889526e-01
1.555000000000000000e+03 7.821885681152343750e+01 -6.470320701599121094e+00 -1.066715121269226074e-01 8.766308784484863281e+00 2.597891330718994141e+00 2.475214190781116486e-02
1.556000000000000000e+03 7.822064208984375000e+01 -7.260624408721923828e+00 -1.108106598258018494e-01 8.762084960937500000e+00 2.595382213592529297e+00 1.111122518777847290e-01
1.557000000000000000e+03 7.821952056884765625e+01 -8.852540016174316406e+00 -1.134892702102661133e-01 8.667882919311523438e+00 2.566318035125732422e+00 2.951310276985168457e-01
1.558000000000000000e+03 7.821673583984375000e+01 -1.365093708038330078e+01 3.602053225040435791e-02 7.788180828094482422e+00 2.347260475158691406e+00 5.788454413414001465e-01
1.559000000000000000e+03 7.820922088623046875e+01 -1.045689392089843750e+01 -9.009647369384765625e-02 8.452189445495605469e+00 2.508628129959106445e+00 4.642753303050994873e-01
1.560000000000000000e+03 7.822139739990234375e+01 -1.444513320922851562e+01 6.749184429645538330e-02 7.619259834289550781e+00 2.306025505065917969e+00 5.304422974586486816e-01
1.561000000000000000e+03 7.755605316162109375e+01 -1.589607715606689453e+01 2.377362102270126343e-01 7.729178905487060547e+00 2.390074491500854492e+00 4.772787392139434814e-01
1.562000000000000000e+03 7.822378540039062500e+01 -1.836851692199707031e+01 1.877312958240509033e-01 7.194777488708496094e+00 2.214752674102783203e+00 -4.030977189540863037e-02
1.563000000000000000e+03 7.752574157714843750e+01 -1.897436523437500000e+01 3.276139497756958008e-01 7.651507854461669922e+00 2.393736600875854492e+00 -2.014106214046478271e-01
1.564000000000000000e+03 7.817060089111328125e+01 -2.077003669738769531e+01 1.575020402669906616e-01 7.483835220336914062e+00 2.292401075363159180e+00 -4.704162478446960449e-01
1.565000000000000000e+03 7.814920806884765625e+01 -2.157516288757324219e+01 1.265875697135925293e-01 7.660571098327636719e+00 2.336147546768188477e+00 -5.803591609001159668e-01
1.566000000000000000e+03 7.813787841796875000e+01 -2.560122299194335938e+01 -3.051455318927764893e-02 8.768407821655273438e+00 2.621367931365966797e+00 -7.538294792175292969e-01
1.567000000000000000e+03 7.815355682373046875e+01 -2.399398422241210938e+01 3.449743613600730896e-02 8.302503585815429688e+00 2.501100301742553711e+00 -7.651709318161010742e-01
1.568000000000000000e+03 7.810029602050781250e+01 -2.719651985168457031e+01 -7.177815586328506470e-02 9.197488784790039062e+00 2.737713336944580078e+00 -6.707738637924194336e-01
1.569000000000000000e+03 7.786847686767578125e+01 -3.282083892822265625e+01 -7.893640547990798950e-02 1.003095912933349609e+01 2.985606908798217773e+00 -2.440144717693328857e-01
1.570000000000000000e+03 7.790204620361328125e+01 -3.444508361816406250e+01 -4.752270877361297607e-02 1.011509990692138672e+01 3.020273208618164062e+00 -1.458421647548675537e-01
1.571000000000000000e+03 7.786003875732421875e+01 -3.363502883911132812e+01 -7.202959805727005005e-02 1.008000278472900391e+01 3.002391815185546875e+00 -1.783339828252792358e-01
1.572000000000000000e+03 7.795598602294921875e+01 -3.963142776489257812e+01 -8.215343579649925232e-03 1.035799217224121094e+01 3.104933023452758789e+00 1.220848970115184784e-02
1.573000000000000000e+03 1.332192039489746094e+01 1.505467605590820312e+01 -1.172461430542171001e-03 1.733116921968758106e-03 1.681966532487422228e-04 -1.151264877989888191e-03
1.574000000000000000e+03 5.649898529052734375e+01 -3.459016084671020508e+00 1.060310959815979004e+00 1.948520421981811523e+00 9.026494026184082031e-01 1.327706098556518555e+00
1.575000000000000000e+03 4.400260925292968750e+01 -2.356778907775878906e+01 1.919726133346557617e+00 1.023985099792480469e+01 3.647873163223266602e+00 -1.678799033164978027e+00
1.576000000000000000e+03 1.999754905700683594e+01 5.633678913116455078e+00 -1.036847243085503578e-04 -9.856531687546521425e-05 -6.067501090001314878e-05 -1.107826537918299437e-04
1.577000000000000000e+03 1.936941528320312500e+01 4.376946449279785156e+00 2.235995088994968683e-05 2.687582455109804869e-04 8.733545837458223104e-05 3.295853457530029118e-05
1.578000000000000000e+03 1.371358585357666016e+01 -1.639062881469726562e+01 1.074599981307983398e+00 3.997503519058227539e+00 1.521631002426147461e+00 1.003079295158386230e+00
1.579000000000000000e+03 1.296617317199707031e+01 -1.735841178894042969e+01 8.242303133010864258e-01 3.357961654663085938e+00 1.254657626152038574e+00 7.331522107124328613e-01
1.580000000000000000e+03 3.874863815307617188e+01 6.178076267242431641e+00 8.410843014717102051e-01 1.620967674255371094e+01 5.115228176116943359e+00 1.283208966255187988e+00
1.581000000000000000e+03 3.737548446655273438e+01 6.266026020050048828e+00 1.435536026954650879e+00 1.503674697875976562e+01 4.941684722900390625e+00 1.109320878982543945e+00
1.582000000000000000e+03 6.730876159667968750e+01 -2.625726509094238281e+01 -4.864684939384460449e-01 5.973819732666015625e+00 1.646205425262451172e+00 1.437680840492248535e+00
1.583000000000000000e+03 1.478090763092041016e+00 3.645033645629882812e+01 4.073858726769685745e-03 -4.039555191993713379e-01 -1.199644953012466431e-01 3.346616402268409729e-02
1.584000000000000000e+03 1.498586773872375488e+00 3.913984680175781250e+01 1.582694984972476959e-02 -4.504514634609222412e-01 -1.303873509168624878e-01 2.168820798397064209e-02
1.585000000000000000e+03 2.414690256118774414e+00 4.055844497680664062e+01 1.879565231502056122e-02 -3.963198661804199219e-01 -1.132572665810585022e-01 1.711852662265300751e-02
1.586000000000000000e+03 1.002007722854614258e+00 3.887008285522460938e+01 1.136493124067783356e-02 -4.798284471035003662e-01 -1.405390501022338867e-01 1.343182194977998734e-02
1.587000000000000000e+03 1.349426031112670898e+00 3.470308303833007812e+01 1.574743422679603100e-03 -3.750143051147460938e-01 -1.120318695902824402e-01 3.605125844478607178e-02
1.588000000000000000e+03 1.823180556297302246e+00 2.983627700805664062e+01 3.140754779451526701e-05 -2.271883934736251831e-01 -6.814710050821304321e-02 5.888522416353225708e-02
1.589000000000000000e+03 1.818538188934326172e+00 2.505502510070800781e+01 -5.218778736889362335e-03 -1.038085073232650757e-01 -3.270818665623664856e-02 4.944003745913505554e-02
1.590000000000000000e+03 2.735260248184204102e+00 3.273875427246093750e+01 8.548127487301826477e-03 -2.563372850418090820e-01 -7.433674484491348267e-02 7.066017389297485352e-02
1.591000000000000000e+03 1.256271004676818848e+00 -3.408499908447265625e+01 -1.398872304707765579e-02 3.472664952278137207e-01 9.998332709074020386e-02 8.652654290199279785e-02
1.592000000000000000e+03 3.036004066467285156e+00 -3.271085357666015625e+01 -5.455629155039787292e-02 3.132200539112091064e-01 7.759912312030792236e-02 2.198018133640289307e-01
1.593000000000000000e+03 1.099228143692016602e+00 2.671826171875000000e+01 -5.199274164624512196e-04 -1.589407622814178467e-01 -4.783820360898971558e-02 3.559335321187973022e-02
1.594000000000000000e+03 1.068341493606567383e+00 2.109131622314453125e+01 -2.826587762683629990e-03 -3.092607297003269196e-02 -1.012579817324876785e-02 1.614095643162727356e-02
1.595000000000000000e+03 1.787081718444824219e+00 2.263627815246582031e+01 -5.577063187956809998e-03 -5.536445230245590210e-02 -1.828245446085929871e-02 3.534448146820068359e-02
1.596000000000000000e+03 2.507696628570556641e+00 2.339480781555175781e+01 -1.024694275110960007e-02 -6.305555999279022217e-02 -2.199074998497962952e-02 5.296664312481880188e-02
1.597000000000000000e+03 1.831416964530944824e+00 2.905075645446777344e+01 6.440962897613644600e-04 -2.064471095800399780e-01 -6.174090132117271423e-02 5.880794301629066467e-02
1.598000000000000000e+03 1.829226851463317871e+00 2.585752677917480469e+01 -3.232036251574754715e-03 -1.228799372911453247e-01 -3.783359378576278687e-02 5.303807556629180908e-02
1.599000000000000000e+03 1.837303996086120605e+00 2.666186332702636719e+01 -3.422612324357032776e-03 -1.427666842937469482e-01 -4.385679215192794800e-02 5.598209425806999207e-02
1.600000000000000000e+03 1.837821006774902344e+00 2.826091957092285156e+01 -1.451812218874692917e-03 -1.850230246782302856e-01 -5.594244971871376038e-02 5.896700173616409302e-02
1.601000000000000000e+03 2.357237815856933594e+00 3.543159103393554688e+01 5.167796742171049118e-03 -3.215448558330535889e-01 -9.491311758756637573e-02 5.253947153687477112e-02
1.602000000000000000e+03 1.827769041061401367e+00 3.061746597290039062e+01 3.326408797875046730e-03 -2.490112483501434326e-01 -7.370544970035552979e-02 5.778641253709793091e-02
1.603000000000000000e+03 1.981453299522399902e+00 3.291083526611328125e+01 2.117079216986894608e-03 -2.978385090827941895e-01 -8.871643245220184326e-02 5.547724291682243347e-02
1.604000000000000000e+03 2.206036090850830078e+00 3.454323196411132812e+01 2.497409703209996223e-03 -3.168596029281616211e-01 -9.430865943431854248e-02 5.333701521158218384e-02
1.605000000000000000e+03 1.129989743232727051e+00 4.000225830078125000e+01 1.800495083443820477e-03 -5.019590854644775391e-01 -1.500475853681564331e-01 3.813806921243667603e-03
1.606000000000000000e+03 2.131647348403930664e+00 -3.716179275512695312e+01 -2.007325924932956696e-02 4.752415716648101807e-01 1.365504860877990723e-01 7.653236389160156250e-02
1.607000000000000000e+03 2.057185888290405273e+00 -3.582273483276367188e+01 -2.107100747525691986e-02 4.408451914787292480e-01 1.259322613477706909e-01 9.560748934745788574e-02
1.608000000000000000e+03 1.066808581352233887e+00 2.028777122497558594e+01 -1.725758775137364864e-03 -2.065095491707324982e-02 -6.713014096021652222e-03 1.301772333681583405e-02
1.609000000000000000e+03 1.783726453781127930e+00 2.183227539062500000e+01 -6.569217890501022339e-03 -4.237680882215499878e-02 -1.468380820006132126e-02 3.020589798688888550e-02
1.610000000000000000e+03 2.508661985397338867e+00 -1.308709239959716797e+01 9.924986213445663452e-02 -1.151509642601013184e+00 -3.156779408454895020e-01 -1.825131773948669434e-01
1.611000000000000000e+03 1.100793004035949707e+00 -8.304177284240722656e+00 6.456908304244279861e-03 -1.020369172096252441e+00 -3.041736781597137451e-01 -2.188699543476104736e-01
1.612000000000000000e+03 1.224415779113769531e+00 -2.765365219116210938e+01 -1.067600771784782410e-02 -2.984250187873840332e-01 -9.273031353950500488e-02 1.880361735820770264e-01
1.613000000000000000e+03 1.972230911254882812e+00 -2.600582695007324219e+01 -1.395548973232507706e-02 -3.965894877910614014e-01 -1.231634914875030518e-01 3.125389814376831055e-01
1.614000000000000000e+03 1.868106961250305176e+00 7.328126907348632812e+00 1.561185199534520507e-04 2.037616679444909096e-03 6.581205525435507298e-04 -1.532762311398983002e-03
1.615000000000000000e+03 1.058448433876037598e+00 1.466238880157470703e+01 -8.018594817258417606e-04 7.922327145934104919e-03 2.136140363290905952e-03 5.994050661684013903e-05
1.616000000000000000e+03 1.761771798133850098e+00 1.541375923156738281e+01 -2.190436003729701042e-03 3.320458577945828438e-03 3.390067431610077620e-04 1.890122308395802975e-03
1.617000000000000000e+03 1.110782384872436523e+00 7.400034904479980469e+00 1.766093628248199821e-04 2.891849260777235031e-03 9.205375681631267071e-04 -1.064448966644704342e-03
1.618000000000000000e+03 1.833725094795227051e+00 8.959558486938476562e+00 9.725709969643503428e-05 2.956212498247623444e-03 9.160409099422395229e-04 -1.811742316931486130e-03
1.619000000000000000e+03 1.799062728881835938e+00 1.058328342437744141e+01 -1.033821681630797684e-04 3.938418813049793243e-03 1.150510972365736961e-03 -1.910919207148253918e-03
1.620000000000000000e+03 1.086128354072570801e+00 9.825463294982910156e+00 -4.402257036417722702e-05 5.060481838881969452e-03 1.504937885329127312e-03 -1.348598627373576164e-03
1.621000000000000000e+03 1.767211794853210449e+00 1.782065963745117188e+01 -3.387404372915625572e-03 -4.307816270738840103e-03 -2.308566123247146606e-03 8.876056410372257233e-03
1.622000000000000000e+03 2.560986757278442383e+00 -2.032535362243652344e+01 6.262502819299697876e-02 -9.120892882347106934e-01 -2.548392713069915771e-01 3.177607953548431396e-01
1.623000000000000000e+03 1.815471887588500977e+00 -1.713430023193359375e+01 5.605102702975273132e-02 -1.418281078338623047e+00 -4.086690247058868408e-01 9.450408816337585449e-02
1.624000000000000000e+03 1.881034374237060547e+00 -2.356440925598144531e+01 4.308615345507860184e-03 -7.402372956275939941e-01 -2.207785993814468384e-01 3.129731416702270508e-01
1.625000000000000000e+03 1.108127713203430176e+00 -2.037523078918457031e+01 1.431084517389535904e-02 -1.413764834403991699e+00 -4.198362231254577637e-01 1.600539088249206543e-01
1.626000000000000000e+03 1.832417488098144531e+00 -1.955027961730957031e+01 4.171166568994522095e-02 -1.238592743873596191e+00 -3.590643405914306641e-01 2.150389850139617920e-01
1.627000000000000000e+03 1.086145758628845215e+00 -1.313646984100341797e+01 2.182513847947120667e-02 -1.666863083839416504e+00 -4.935113787651062012e-01 -9.400422126054763794e-02
1.628000000000000000e+03 1.798743128776550293e+00 -1.231104946136474609e+01 5.062459409236907959e-02 -1.341411948204040527e+00 -3.872362077236175537e-01 -1.863836795091629028e-01
1.629000000000000000e+03 3.356868267059326172e+00 -4.113280296325683594e+00 -1.359704136848449707e-01 -2.382489442825317383e-01 -1.122658103704452515e-01 -4.230613112449645996e-01
1.630000000000000000e+03 3.435406208038330078e+00 -5.627550125122070312e+00 -6.492597609758377075e-02 -3.632437586784362793e-01 -1.284509152173995972e-01 -5.011135935783386230e-01
1.631000000000000000e+03 1.077985167503356934e+00 1.063365936279296875e+01 1.490692229708656669e-04 5.850205663591623306e-03 1.799782505258917809e-03 -1.446530572138726711e-03
1.632000000000000000e+03 1.062012910842895508e+00 1.305408382415771484e+01 -4.230173071846365929e-04 7.835969328880310059e-03 2.223885618150234222e-03 -9.840138955041766167e-04
1.633000000000000000e+03 1.126674771308898926e+00 4.214173793792724609e+00 1.531848247395828366e-04 9.539524908177554607e-04 3.321412077639251947e-04 -5.796463810838758945e-04
1.634000000000000000e+03 3.948424100875854492e+00 7.248243331909179688e+00 8.520753472112119198e-04 -1.199107573484070599e-04 2.196493733208626509e-04 -1.873545115813612938e-03
1.635000000000000000e+03 2.610608100891113281e+00 -4.164758682250976562e+00 -8.983989804983139038e-02 -2.836336195468902588e-01 -1.120420619845390320e-01 -3.567833900451660156e-01
1.636000000000000000e+03 1.795236349105834961e+00 -9.903360366821289062e+00 3.401138260960578918e-02 -1.097512364387512207e+00 -3.190503120422363281e-01 -2.890470325946807861e-01
1.637000000000000000e+03 1.268694400787353516e+00 -3.011013412475585938e+01 -1.141146291047334671e-02 7.295697461813688278e-03 -1.234729541465640068e-03 1.531259715557098389e-01
1.638000000000000000e+03 1.124310493469238281e+00 -2.278631591796875000e+01 4.307367838919162750e-03 -1.061181545257568359e+00 -3.170622587203979492e-01 1.979281902313232422e-01
1.639000000000000000e+03 1.856022477149963379e+00 -2.195993995666503906e+01 1.881821453571319580e-02 -9.577433466911315918e-01 -2.816775441169738770e-01 2.905467450618743896e-01
1.640000000000000000e+03 1.811084151268005371e+00 -1.552732467651367188e+01 6.025870144367218018e-02 -1.459451913833618164e+00 -4.197579622268676758e-01 -1.082933158613741398e-03
1.641000000000000000e+03 1.310782432556152344e+00 -3.764552688598632812e+01 -5.226669367402791977e-03 5.120195746421813965e-01 1.520378589630126953e-01 4.345789179205894470e-02
1.642000000000000000e+03 2.978816509246826172e+00 -2.939126205444335938e+01 -5.938817560672760010e-02 1.028578504920005798e-01 1.304090302437543869e-02 3.340428769588470459e-01
1.643000000000000000e+03 1.275403261184692383e+00 -3.092034339904785156e+01 -1.392398774623870850e-02 9.157946705818176270e-02 2.329664304852485657e-02 1.396958976984024048e-01
1.644000000000000000e+03 2.139201879501342773e+00 -3.017562103271484375e+01 -3.368857502937316895e-02 8.212549239397048950e-02 1.453107502311468124e-02 2.381903827190399170e-01
1.645000000000000000e+03 2.091266393661499023e+00 -2.849624252319335938e+01 -3.020086698234081268e-02 -8.792416751384735107e-02 -3.543750941753387451e-02 2.766260504722595215e-01
1.646000000000000000e+03 2.017020940780639648e+00 -2.682955360412597656e+01 -2.081324532628059387e-02 -2.876657843589782715e-01 -9.254370629787445068e-02 3.044460415840148926e-01
1.647000000000000000e+03 1.932740449905395508e+00 -2.518742370605468750e+01 -9.373282082378864288e-03 -5.109005570411682129e-01 -1.560821533203125000e-01 3.167670667171478271e-01
1.648000000000000000e+03 2.692611217498779297e+00 -2.513729286193847656e+01 -1.427717879414558411e-02 -3.554770946502685547e-01 -1.109262853860855103e-01 4.091010093688964844e-01
1.649000000000000000e+03 1.847534656524658203e+00 -2.115781784057617188e+01 2.717361971735954285e-02 -1.059345841407775879e+00 -3.096516728401184082e-01 2.709546089172363281e-01
1.650000000000000000e+03 1.094086289405822754e+00 -1.715629768371582031e+01 2.373669855296611786e-02 -1.715714812278747559e+00 -5.075934529304504395e-01 6.134999543428421021e-02
1.651000000000000000e+03 1.825838923454284668e+00 -1.874509429931640625e+01 4.676308110356330872e-02 -1.311993718147277832e+00 -3.795692026615142822e-01 1.795905977487564087e-01
1.652000000000000000e+03 1.808207392692565918e+00 -1.472342681884765625e+01 6.115032732486724854e-02 -1.455316543579101562e+00 -4.182498753070831299e-01 -4.996295645833015442e-02
1.653000000000000000e+03 1.087698101997375488e+00 -1.394054985046386719e+01 2.452326752245426178e-02 -1.717414617538452148e+00 -5.078673958778381348e-01 -6.401333957910537720e-02
1.654000000000000000e+03 1.804581284523010254e+00 -1.391879272460937500e+01 5.790807679295539856e-02 -1.433632731437683105e+00 -4.127173721790313721e-01 -9.793707728385925293e-02
1.655000000000000000e+03 1.084168314933776855e+00 -9.919492721557617188e+00 1.325680036097764969e-02 -1.289811611175537109e+00 -3.829664587974548340e-01 -1.898836642503738403e-01
1.656000000000000000e+03 1.796035528182983398e+00 -1.150770664215087891e+01 4.691740870475769043e-02 -1.273226857185363770e+00 -3.678928315639495850e-01 -2.254977524280548096e-01
1.657000000000000000e+03 1.794229388236999512e+00 -1.070519924163818359e+01 3.963871672749519348e-02 -1.190926551818847656e+00 -3.453863561153411865e-01 -2.596398293972015381e-01
1.658000000000000000e+03 1.865080356597900391e+00 -3.424892663955688477e+00 -6.546653807163238525e-02 -2.310352474451065063e-01 -8.895053714513778687e-02 -2.360906302928924561e-01
1.659000000000000000e+03 1.848637461662292480e+00 8.145241737365722656e+00 3.289321030024439096e-04 2.491810126230120659e-03 8.462226833216845989e-04 -1.696697087027132511e-03
1.660000000000000000e+03 2.623034715652465820e+00 7.282134532928466797e+00 5.275607691146433353e-04 1.163118402473628521e-03 5.072037456557154655e-04 -1.788017456419765949e-03
1.661000000000000000e+03 1.816667556762695312e+00 9.772403717041015625e+00 2.533448569010943174e-04 3.451957600191235542e-03 1.111590769141912460e-03 -1.956759253516793251e-03
1.662000000000000000e+03 1.761094212532043457e+00 1.461281585693359375e+01 -1.088526914827525616e-03 4.231543280184268951e-03 9.429048513993620872e-04 3.649709105957299471e-04
1.663000000000000000e+03 1.774670481681823730e+00 1.220114326477050781e+01 -4.937717458233237267e-04 4.711376968771219254e-03 1.265281578525900841e-03 -1.599519397132098675e-03
1.664000000000000000e+03 2.500566959381103516e+00 1.137201309204101562e+01 -4.212697676848620176e-04 2.362473402172327042e-03 5.823610699735581875e-04 -2.027784707024693489e-03
1.665000000000000000e+03 1.764139533042907715e+00 1.702169990539550781e+01 -3.476374782621860504e-03 -7.734443643130362034e-04 -1.274945680052042007e-03 6.136242765933275223e-03
1.666000000000000000e+03 1.771837830543518066e+00 1.862112426757812500e+01 -4.829114302992820740e-03 -8.869313634932041168e-03 -4.109528381377458572e-03 1.247035525739192963e-02
1.667000000000000000e+03 2.486202716827392578e+00 1.857352638244628906e+01 -7.678890600800514221e-03 -1.051434595137834549e-02 -5.457971245050430298e-03 1.643963344395160675e-02
1.668000000000000000e+03 1.782888174057006836e+00 2.103100967407226562e+01 -5.335673224180936813e-03 -3.179967775940895081e-02 -1.114060543477535248e-02 2.531517483294010162e-02
1.669000000000000000e+03 1.149127602577209473e+00 3.428493738174438477e+00 5.307885658112354577e-05 6.624904344789683819e-04 2.146707847714424133e-04 -4.645282169803977013e-04
1.670000000000000000e+03 3.610799551010131836e+00 2.637674331665039062e+00 6.043061730451881886e-04 1.071042861440218985e-04 2.134231326635926962e-04 -7.612044573761522770e-04
1.671000000000000000e+03 2.122321128845214844e+00 -3.413842391967773438e+01 -2.522618882358074188e-02 3.603040874004364014e-01 1.005233675241470337e-01 1.352089941501617432e-01
1.672000000000000000e+03 2.124619960784912109e+00 -3.495866394042968750e+01 -2.961346134543418884e-02 4.005913436412811279e-01 1.112933680415153503e-01 1.190324872732162476e-01
1.673000000000000000e+03 1.731990098953247070e+00 -3.658069229125976562e+01 -1.295577641576528549e-02 4.673119485378265381e-01 1.363068521022796631e-01 7.327009737491607666e-02
1.674000000000000000e+03 1.554714870452880859e+01 1.035305500030517578e+01 -4.804575291927903891e-04 4.736025817692279816e-03 1.276670489460229874e-03 -6.609514821320772171e-04
1.675000000000000000e+03 1.709492301940917969e+01 8.345071792602539062e+00 9.927203063853085041e-05 1.447794144041836262e-03 4.641198320314288139e-04 -1.577602670295163989e-04
1.676000000000000000e+03 1.399385833740234375e+01 1.522451019287109375e+01 -2.364400279475376010e-04 1.106700208038091660e-02 3.249168628826737404e-03 -3.020513686351478100e-04
1.677000000000000000e+03 5.930331039428710938e+01 1.707326173782348633e+00 9.758391976356506348e-01 3.453253269195556641e+00 1.328727722167968750e+00 1.711132884025573730e+00
1.678000000000000000e+03 5.537954330444335938e+01 -3.432743787765502930e+00 1.254402637481689453e+00 1.902439117431640625e+00 9.470525383949279785e-01 1.493321537971496582e+00
1.679000000000000000e+03 1.652656936645507812e+01 -2.445509147644042969e+01 7.637505978345870972e-02 9.235187172889709473e-01 2.999681234359741211e-01 -4.024268090724945068e-01
1.680000000000000000e+03 1.646669197082519531e+01 -2.558707237243652344e+01 -1.775028407573699951e-01 9.445077776908874512e-01 2.301014810800552368e-01 -2.498547732830047607e-01
1.681000000000000000e+03 2.525185966491699219e+01 2.257781219482421875e+01 3.772190213203430176e-01 4.021978080272674561e-01 2.338250428438186646e-01 -6.329420804977416992e-01
1.682000000000000000e+03 2.474990081787109375e+01 2.361445045471191406e+01 2.996937334537506104e-01 5.837416648864746094e-01 2.650306224822998047e-01 -7.868290543556213379e-01
1.683000000000000000e+03 3.386207962036132812e+01 1.269978141784667969e+01 8.975447416305541992e-01 1.116940021514892578e+01 3.620083570480346680e+00 -2.070464372634887695e+00
1.684000000000000000e+03 1.409430599212646484e+01 1.439620399475097656e+01 1.050477032549679279e-03 1.201132964342832565e-02 3.918542061001062393e-03 1.003460260108113289e-03
1.685000000000000000e+03 6.320641326904296875e+01 -2.839082527160644531e+01 -1.134560823440551758e+00 8.801990151405334473e-01 -7.630851864814758301e-02 1.480073183774948120e-01
1.686000000000000000e+03 3.734561920166015625e+01 -8.049026131629943848e-01 1.513011813163757324e+00 1.136890220642089844e+01 3.864573955535888672e+00 -1.281654000282287598e+00
1.687000000000000000e+03 2.191981697082519531e+01 2.308990287780761719e+01 -4.435696005821228027e-01 -2.923475392162799835e-02 -1.418413072824478149e-01 -1.702930331230163574e-01
1.688000000000000000e+03 2.118995857238769531e+01 2.389183044433593750e+01 -2.452072203159332275e-01 1.410625874996185303e-02 -6.933028995990753174e-02 -1.898087561130523682e-01
1.689000000000000000e+03 2.145780754089355469e+01 -9.883292198181152344e+00 1.120432853698730469e+00 3.652744889259338379e-01 4.457122087478637695e-01 9.401738643646240234e-01
1.690000000000000000e+03 4.606103897094726562e+01 -1.495812988281250000e+01 9.836573004722595215e-01 4.862972736358642578e+00 1.753988981246948242e+00 1.292075514793395996e+00
1.691000000000000000e+03 4.523418045043945312e+01 -1.705472564697265625e+01 1.377121567726135254e+00 7.615244865417480469e+00 2.697709798812866211e+00 1.107909560203552246e+00
1.692000000000000000e+03 3.943332672119140625e+01 9.511332511901855469e+00 1.982384800910949707e+00 1.372784996032714844e+01 4.713070392608642578e+00 3.149278640747070312e+00
1.693000000000000000e+03 5.026198577880859375e+01 -1.335582447052001953e+01 4.781174063682556152e-01 8.035547137260437012e-01 3.845016360282897949e-01 1.380898237228393555e+00
1.694000000000000000e+03 4.945165252685546875e+01 -8.323722839355468750e+00 -4.976661801338195801e-01 5.366407632827758789e-01 1.169238332659006119e-02 1.833545207977294922e+00
1.695000000000000000e+03 3.440939712524414062e+01 9.582565307617187500e+00 7.855581045150756836e-01 1.301189517974853516e+01 4.139235973358154297e+00 -1.305661439895629883e+00
1.696000000000000000e+03 4.267637634277343750e+01 1.435551452636718750e+01 1.891237616539001465e+00 4.128176212310791016e+00 1.805824160575866699e+00 2.604294538497924805e+00
1.697000000000000000e+03 3.917299652099609375e+01 8.689733505249023438e+00 2.076884508132934570e+00 1.511496448516845703e+01 5.157554626464843750e+00 2.822232246398925781e+00
1.698000000000000000e+03 3.954794692993164062e+01 1.135939407348632812e+01 1.439860939979553223e+00 1.053330230712890625e+01 3.591948747634887695e+00 2.616334438323974609e+00
1.699000000000000000e+03 6.085470199584960938e+01 -1.141256332397460938e+01 -2.614443540573120117e+00 4.548558890819549561e-01 -6.478762626647949219e-01 4.207117855548858643e-02
1.700000000000000000e+03 6.116379928588867188e+01 4.522821426391601562e+00 9.543561935424804688e-01 5.841681957244873047e+00 2.038811445236206055e+00 1.605924248695373535e+00
1.701000000000000000e+03 6.102364349365234375e+01 5.651659965515136719e+00 1.326454281806945801e+00 6.540604591369628906e+00 2.360117673873901367e+00 2.026560068130493164e+00
1.702000000000000000e+03 4.829387283325195312e+01 2.265501976013183594e+01 -1.782115846872329712e-01 1.710314989089965820e+00 4.596309959888458252e-01 1.248043298721313477e+00
1.703000000000000000e+03 6.730489349365234375e+01 -2.515502929687500000e+01 4.859101772308349609e-02 6.267062664031982422e+00 1.894696116447448730e+00 1.908467531204223633e+00
1.704000000000000000e+03 6.864552307128906250e+01 -2.188439750671386719e+01 1.957665920257568359e+00 1.299573898315429688e+01 4.486021518707275391e+00 2.481794357299804688e+00
1.705000000000000000e+03 3.132286453247070312e+01 1.863179016113281250e+01 1.791970014572143555e+00 7.811040878295898438e+00 2.880903244018554688e+00 -2.848259687423706055e+00
1.706000000000000000e+03 1.349394035339355469e+01 -1.553960514068603516e+01 1.313864469528198242e+00 3.564273834228515625e+00 1.463441491127014160e+00 9.772509336471557617e-01
1.707000000000000000e+03 1.283333778381347656e+01 -1.654035949707031250e+01 1.032807230949401855e+00 3.117578983306884766e+00 1.245115876197814941e+00 7.896335124969482422e-01
1.708000000000000000e+03 3.380703353881835938e+01 -2.742564582824707031e+01 5.854080915451049805e-01 3.923144102096557617e+00 1.352565646171569824e+00 1.666886806488037109e+00
1.709000000000000000e+03 1.494986915588378906e+01 -2.382406616210937500e+01 -1.050025224685668945e-01 1.828841447830200195e+00 5.171516537666320801e-01 -3.640802800655364990e-01
1.710000000000000000e+03 1.545888996124267578e+01 -2.439916419982910156e+01 -7.853106409311294556e-02 1.387794613838195801e+00 3.927790820598602295e-01 -3.518747389316558838e-01
1.711000000000000000e+03 2.557203865051269531e+01 2.334546279907226562e+01 4.955840706825256348e-01 8.403761982917785645e-01 4.007880687713623047e-01 -9.982477426528930664e-01
1.712000000000000000e+03 4.488786315917968750e+01 -2.612460899353027344e+01 2.097164630889892578e+00 9.522920608520507812e+00 3.486025810241699219e+00 -2.068741559982299805e+00
1.713000000000000000e+03 5.875148010253906250e+01 -3.164938735961914062e+01 -1.339914560317993164e+00 -1.581949591636657715e-01 -4.494328498840332031e-01 -2.493153959512710571e-01
1.714000000000000000e+03 5.837832260131835938e+01 4.261167645454406738e-01 1.176062464714050293e+00 2.804189920425415039e+00 1.194075703620910645e+00 1.661745429039001465e+00
1.715000000000000000e+03 5.070366287231445312e+01 -3.065479660034179688e+01 1.328608989715576172e-01 1.367325186729431152e+00 4.500558376312255859e-01 -1.485679984092712402e+00
1.716000000000000000e+03 1.424463558197021484e+01 1.355479049682617188e+01 -2.794206666294485331e-04 1.187786646187305450e-02 3.479533828794956207e-03 1.054220716468989849e-03
1.717000000000000000e+03 6.252032089233398438e+01 7.680103778839111328e+00 7.177082896232604980e-01 8.300729751586914062e+00 2.705531358718872070e+00 1.326624751091003418e+00
1.718000000000000000e+03 1.343886470794677734e+01 1.422006225585937500e+01 -6.834963569417595863e-04 4.891695454716682434e-03 1.262459787540137768e-03 1.471139956265687943e-03
1.719000000000000000e+03 3.580702209472656250e+01 -1.587409973144531250e+01 9.620606899261474609e-01 1.157742977142333984e+01 3.761847019195556641e+00 -1.884341955184936523e+00
1.720000000000000000e+03 3.632550430297851562e+01 -1.495854187011718750e+01 1.158730030059814453e+00 1.061538982391357422e+01 3.532236099243164062e+00 -1.947586059570312500e+00
1.721000000000000000e+03 6.361775207519531250e+01 1.565016841888427734e+01 8.330194950103759766e-01 1.063169765472412109e+01 3.439414978027343750e+00 -8.574150204658508301e-01
1.722000000000000000e+03 1.813938903808593750e+01 -2.625453948974609375e+01 -1.784339845180511475e-01 4.524182081222534180e-01 8.219526708126068115e-02 -1.226074770092964172e-01
1.723000000000000000e+03 3.275712203979492188e+01 1.657352828979492188e+01 1.177533030509948730e+00 8.987447738647460938e+00 3.049494266510009766e+00 -2.434219121932983398e+00
1.724000000000000000e+03 3.231397628784179688e+01 1.804619598388671875e+01 1.442117333412170410e+00 8.052844047546386719e+00 2.848488569259643555e+00 -2.318703174591064453e+00
1.725000000000000000e+03 2.695982360839843750e+01 2.272158432006835938e+01 9.334250092506408691e-01 1.417066216468811035e+00 7.051473855972290039e-01 -1.524806499481201172e+00
1.726000000000000000e+03 2.632105636596679688e+01 2.303137969970703125e+01 7.183831334114074707e-01 1.084970951080322266e+00 5.410062074661254883e-01 -1.247296333312988281e+00
1.727000000000000000e+03 5.595330047607421875e+01 -2.863636732101440430e+00 1.298219680786132812e+00 2.011045932769775391e+00 9.927796721458435059e-01 1.504275202751159668e+00
1.728000000000000000e+03 5.697320175170898438e+01 -1.535125255584716797e+00 1.385656118392944336e+00 2.296755313873291016e+00 1.104723453521728516e+00 1.525685667991638184e+00
1.729000000000000000e+03 3.559041976928710938e+01 5.615850925445556641e+00 1.408082604408264160e+00 1.502832412719726562e+01 4.930922031402587891e+00 8.757835626602172852e-01
1.730000000000000000e+03 3.365114974975585938e+01 -1.023270225524902344e+01 -8.654370903968811035e-01 6.220578193664550781e+00 1.606542348861694336e+00 -1.516450405120849609e+00
1.731000000000000000e+03 3.370017623901367188e+01 -9.111837387084960938e+00 -2.429620027542114258e+00 6.327624797821044922e+00 1.169401407241821289e+00 -1.095320940017700195e+00
1.732000000000000000e+03 6.213255691528320312e+01 -3.012155342102050781e+01 -1.266012549400329590e+00 7.564888596534729004e-01 -1.528571099042892456e-01 2.206067144870758057e-01
1.733000000000000000e+03 6.995799255371093750e+01 -1.854861259460449219e+01 1.753672838211059570e+00 1.497883033752441406e+01 5.019751071929931641e+00 -2.522889971733093262e-01
1.734000000000000000e+03 7.003104400634765625e+01 -1.763408851623535156e+01 2.145721912384033203e+00 1.470261955261230469e+01 5.054502487182617188e+00 -6.670458912849426270e-01
1.735000000000000000e+03 5.684024810791015625e+01 -1.315958881378173828e+01 -1.744605302810668945e+00 2.645405828952789307e-01 -4.440194070339202881e-01 2.046373337507247925e-01
1.736000000000000000e+03 4.751602554321289062e+01 1.985308647155761719e+01 1.165091693401336670e-01 1.479175448417663574e+00 4.787053763866424561e-01 1.046350002288818359e+00
1.737000000000000000e+03 4.813981628417968750e+01 2.048942375183105469e+01 -1.193915829062461853e-01 1.347213864326477051e+00 3.683466911315917969e-01 9.865456819534301758e-01
1.738000000000000000e+03 2.696895837783813477e+00 6.437354564666748047e+00 3.430060751270502806e-04 9.348064195364713669e-04 3.833437513094395399e-04 -1.611193758435547352e-03
1.739000000000000000e+03 4.327655792236328125e+00 3.454054594039916992e+00 7.501441286876797676e-04 -4.794960477738641202e-05 2.106583706336095929e-04 -9.457867126911878586e-04
1.740000000000000000e+03 7.077198505401611328e+00 2.687700271606445312e+00 1.205944688990712166e-03 -4.212889471091330051e-04 2.353967283852398396e-04 -3.275983326602727175e-04
1.741000000000000000e+03 6.392564296722412109e+00 4.456658840179443359e+00 1.207066467031836510e-03 -7.231035851873457432e-04 1.451888674637302756e-04 -7.521767402067780495e-04
1.742000000000000000e+03 1.926160216331481934e+00 3.388913869857788086e+00 2.889010065700858831e-04 5.371429724618792534e-04 2.478132082615047693e-04 -7.058962364681065083e-04
1.743000000000000000e+03 7.139330863952636719e+00 3.468649148941040039e+00 1.263167476281523705e-03 -5.531090428121387959e-04 2.130175271304324269e-04 -4.236665845382958651e-04
1.744000000000000000e+03 8.009556770324707031e+00 3.362001180648803711e+00 1.190721406601369381e-03 -6.816595559939742088e-04 1.527185522718355060e-04 -6.663217209279537201e-05
1.745000000000000000e+03 9.635181427001953125e+00 3.243500471115112305e+00 1.105639501474797726e-03 -5.685267969965934753e-04 1.611338229849934578e-04 4.096664197277277708e-04
1.746000000000000000e+03 1.040653324127197266e+01 3.213355302810668945e+00 1.088066375814378262e-03 -2.884815621655434370e-04 2.398754586465656757e-04 5.108185578137636185e-04
1.747000000000000000e+03 2.458688163757324219e+01 -3.078886032104492188e+01 -9.980266094207763672e-01 -1.531220376491546631e-01 -3.453445732593536377e-01 8.537060022354125977e-02
1.748000000000000000e+03 2.543801307678222656e+01 -3.183343124389648438e+01 -6.493633985519409180e-01 1.945974491536617279e-02 -1.889711022377014160e-01 1.626415550708770752e-01
1.749000000000000000e+03 1.749645614624023438e+01 -2.683149719238281250e+01 -3.240651488304138184e-01 6.588504910469055176e-01 1.004355996847152710e-01 -1.409179270267486572e-01
1.750000000000000000e+03 5.354228210449218750e+01 -1.287453079223632812e+01 -6.781454086303710938e-01 3.384359180927276611e-01 -1.019128412008285522e-01 9.561280012130737305e-01
1.751000000000000000e+03 5.155450439453125000e+01 -1.400174427032470703e+01 6.284739822149276733e-02 2.815621197223663330e-01 1.033228561282157898e-01 8.390606045722961426e-01
1.752000000000000000e+03 5.471146011352539062e+01 -3.346568679809570312e+01 -2.898021638393402100e-01 2.556315958499908447e-01 -1.025116909295320511e-02 -8.439520001411437988e-01
1.753000000000000000e+03 3.893081665039062500e+01 2.055964231491088867e+00 1.495197772979736328e+00 1.529921340942382812e+01 5.038323402404785156e+00 -2.029545068740844727e+00
1.754000000000000000e+03 6.276012802124023438e+01 8.503741264343261719e+00 7.339310050010681152e-01 8.708045005798339844e+00 2.832592964172363281e+00 1.084522724151611328e+00
1.755000000000000000e+03 3.440600585937500000e+01 3.062846422195434570e+00 3.337396383285522461e+00 1.467556953430175781e+01 5.403889656066894531e+00 1.964016318321228027e+00
1.756000000000000000e+03 3.660168838500976562e+01 -2.105790519714355469e+01 1.089025735855102539e+00 9.692219734191894531e+00 3.234373569488525391e+00 1.959744840860366821e-01
1.757000000000000000e+03 4.332055282592773438e+01 -4.155423641204833984e+00 -1.605857372283935547e+00 1.563390374183654785e+00 -1.274010725319385529e-02 -1.161468267440795898e+00
1.758000000000000000e+03 4.463145446777343750e+01 -5.289575099945068359e+00 -2.093738079071044922e+00 1.101199626922607422e+00 -2.977615594863891602e-01 -3.957695364952087402e-01
1.759000000000000000e+03 3.505118942260742188e+01 -2.425334739685058594e+01 1.511366963386535645e+00 7.160145282745361328e+00 2.601453781127929688e+00 2.023149013519287109e+00
1.760000000000000000e+03 3.830006027221679688e+01 1.979148149490356445e+00 1.898932576179504395e+00 1.432716846466064453e+01 4.867830276489257812e+00 -1.636598110198974609e+00
1.761000000000000000e+03 3.897680282592773438e+01 7.853738784790039062e+00 1.711578488349914551e+00 1.612154769897460938e+01 5.349937915802001953e+00 2.386850595474243164e+00
1.762000000000000000e+03 2.011743736267089844e+01 3.520325183868408203e+00 3.536111034918576479e-05 1.754123804857954383e-04 6.323204434011131525e-05 7.569970330223441124e-05
1.763000000000000000e+03 1.901741409301757812e+01 -2.819595575332641602e+00 -3.605587780475616455e-01 3.295731246471405029e-01 -9.295695461332798004e-03 7.976545691490173340e-01
1.764000000000000000e+03 3.545790863037109375e+01 7.299596309661865234e+00 1.128236413002014160e+00 1.430590534210205078e+01 4.630242824554443359e+00 5.181694030761718750e-02
1.765000000000000000e+03 3.663038253784179688e+01 5.064808368682861328e+00 1.614093303680419922e+00 1.489931201934814453e+01 4.954021453857421875e+00 7.993081808090209961e-01
1.766000000000000000e+03 3.408193206787109375e+01 1.276539921760559082e+00 3.240593194961547852e+00 1.187986660003662109e+01 4.536138057708740234e+00 2.131256580352783203e+00
1.767000000000000000e+03 5.492121505737304688e+01 -3.233296966552734375e+01 -8.933182358741760254e-01 -2.000875538215041161e-03 -2.685957551002502441e-01 -6.935447454452514648e-01
1.768000000000000000e+03 3.648386383056640625e+01 -1.582469558715820312e+01 1.103136777877807617e+00 1.064828681945800781e+01 3.525427103042602539e+00 -1.849353075027465820e+00
1.769000000000000000e+03 3.659251403808593750e+01 -1.315147876739501953e+01 7.508388161659240723e-01 9.563574790954589844e+00 3.094324111938476562e+00 -1.559330344200134277e+00
1.770000000000000000e+03 1.945730781555175781e+01 5.259604930877685547e+00 4.051970972795970738e-05 2.763573720585554838e-04 9.506312926532700658e-05 6.259258952923119068e-05
1.771000000000000000e+03 6.895010375976562500e+01 -2.416631507873535156e+01 -8.440333418548107147e-03 9.590409278869628906e+00 2.874590635299682617e+00 9.866862893104553223e-01
1.772000000000000000e+03 6.778627014160156250e+01 -2.339147186279296875e+01 1.260197758674621582e+00 8.832674026489257812e+00 3.027861356735229492e+00 2.946658134460449219e+00
1.773000000000000000e+03 1.697944831848144531e+01 -2.619902992248535156e+01 -2.403373569250106812e-01 8.093031644821166992e-01 1.706897467374801636e-01 -1.877441555261611938e-01
1.774000000000000000e+03 5.647888183593750000e+01 -2.210899114608764648e+00 1.364052772521972656e+00 2.145205020904541016e+00 1.052777290344238281e+00 1.505728125572204590e+00
1.775000000000000000e+03 3.893261337280273438e+01 1.172477912902832031e+01 1.164177060127258301e+00 1.056897544860839844e+01 3.519945621490478516e+00 1.769935369491577148e+00
1.776000000000000000e+03 6.990825653076171875e+01 -1.945534706115722656e+01 1.555057644844055176e+00 1.472138690948486328e+01 4.882933139801025391e+00 3.098317682743072510e-01
1.777000000000000000e+03 3.671311950683593750e+01 -1.931124496459960938e+01 8.010468482971191406e-01 1.026780128479003906e+01 3.320654392242431641e+00 -5.269365906715393066e-01
1.778000000000000000e+03 4.843034362792968750e+01 -6.486646652221679688e+00 -1.620876669883728027e+00 -1.837826371192932129e-01 -5.413977503776550293e-01 1.252844095230102539e+00
1.779000000000000000e+03 6.502418518066406250e+01 -2.778932189941406250e+01 -6.182491779327392578e-01 2.697529554367065430e+00 6.237841248512268066e-01 8.554563522338867188e-01
1.780000000000000000e+03 3.484045791625976562e+01 6.327207565307617188e+00 8.571474552154541016e-01 1.501288604736328125e+01 4.761010169982910156e+00 1.491106897592544556e-01
1.781000000000000000e+03 1.601068115234375000e+01 8.561264991760253906e+00 -3.250520385336130857e-04 2.309031551703810692e-03 5.951938801445066929e-04 1.633503416087478399e-04
1.782000000000000000e+03 3.659774780273437500e+01 -1.669458961486816406e+01 9.244049191474914551e-01 1.066224956512451172e+01 3.475996255874633789e+00 -1.638405561447143555e+00
1.783000000000000000e+03 3.804494094848632812e+01 5.335816860198974609e+00 9.661621451377868652e-01 1.559634113311767578e+01 4.968750953674316406e+00 8.058236241340637207e-01
1.784000000000000000e+03 3.487289428710937500e+01 -1.059466552734375000e+01 -9.714183211326599121e-01 8.375093460083007812e+00 2.221102476119995117e+00 -1.266230702400207520e+00
1.785000000000000000e+03 6.987353515625000000e+01 -2.041604232788085938e+01 1.645058870315551758e+00 1.374326133728027344e+01 4.616496086120605469e+00 6.736106872558593750e-01
1.786000000000000000e+03 5.593148422241210938e+01 -3.238908767700195312e+01 -9.390832781791687012e-01 -1.558842211961746216e-01 -3.284902572631835938e-01 -5.628726482391357422e-01
1.787000000000000000e+03 3.211349868774414062e+01 -3.016984176635742188e+01 -2.442792654037475586e-01 2.642499685287475586e+00 7.194661498069763184e-01 1.298426628112792969e+00
1.788000000000000000e+03 1.283951759338378906e+01 1.813805580139160156e+01 -6.252647191286087036e-02 -3.740907181054353714e-03 -1.988021284341812134e-02 -3.877491131424903870e-02
1.789000000000000000e+03 1.515706253051757812e+01 -1.265872859954833984e+01 2.030104875564575195e+00 2.891283035278320312e+00 1.476416349411010742e+00 1.438651919364929199e+00
1.790000000000000000e+03 3.914754867553710938e+01 -1.569851994514465332e+00 1.448381900787353516e+00 1.121958541870117188e+01 3.800390243530273438e+00 -2.490504741668701172e+00
1.791000000000000000e+03 4.987149810791015625e+01 -6.899522781372070312e+00 -1.086400508880615234e+00 2.321663945913314819e-01 -2.562702298164367676e-01 1.824155926704406738e+00
1.792000000000000000e+03 6.339373779296875000e+01 1.259195995330810547e+01 5.616078972816467285e-01 1.032287597656250000e+01 3.265345335006713867e+00 1.828269064426422119e-01
1.793000000000000000e+03 6.290084457397460938e+01 1.934433364868164062e+01 1.556101083755493164e+00 9.033031463623046875e+00 3.176739931106567383e+00 -1.231481075286865234e+00
1.794000000000000000e+03 5.127505493164062500e+01 -3.179137039184570312e+01 -2.170183360576629639e-01 1.345846414566040039e+00 3.386484086513519287e-01 -1.546146035194396973e+00
1.795000000000000000e+03 5.022661972045898438e+01 2.190792274475097656e+01 -4.898245036602020264e-01 8.540992736816406250e-01 1.092824265360832214e-01 7.898325920104980469e-01
1.796000000000000000e+03 2.155917167663574219e+01 -3.159856414794921875e+01 -7.338786721229553223e-01 2.045912146568298340e-01 -1.587862372398376465e-01 -1.572950035333633423e-01
1.797000000000000000e+03 3.612805175781250000e+01 -1.410161685943603516e+01 1.150139451026916504e+00 1.044140434265136719e+01 3.477463245391845703e+00 -2.020380735397338867e+00
1.798000000000000000e+03 3.589723968505859375e+01 -1.324819469451904297e+01 9.888099431991577148e-01 1.010699367523193359e+01 3.328741073608398438e+00 -1.963932394981384277e+00
1.799000000000000000e+03 6.752332305908203125e+01 -1.327757549285888672e+01 1.855388656258583069e-02 7.537433624267578125e+00 2.266796112060546875e+00 -2.683989048004150391e+00
1.800000000000000000e+03 6.643772125244140625e+01 -1.160064697265625000e+01 -2.048838376998901367e+00 4.493973731994628906e+00 7.335406541824340820e-01 -2.755348920822143555e+00
1.801000000000000000e+03 1.420577239990234375e+01 2.112614440917968750e+01 -3.122006058692932129e-01 3.835294023156166077e-02 -8.215429633855819702e-02 -3.882709890604019165e-02
1.802000000000000000e+03 4.952474212646484375e+01 -3.122287750244140625e+01 7.781033962965011597e-02 2.878241062164306641e+00 8.868154287338256836e-01 -2.059431314468383789e+00
1.803000000000000000e+03 3.441996002197265625e+01 5.031104087829589844e-01 2.697084426879882812e+00 1.125395107269287109e+01 4.185310840606689453e+00 1.394849777221679688e+00
1.804000000000000000e+03 6.312002563476562500e+01 1.016094493865966797e+01 6.786950826644897461e-01 9.547156333923339844e+00 3.067755222320556641e+00 8.294314146041870117e-01
1.805000000000000000e+03 2.743594741821289062e+01 -7.924142837524414062e+00 -2.294964075088500977e+00 4.292680621147155762e-01 -5.597088336944580078e-01 7.772618532180786133e-01
1.806000000000000000e+03 2.696062088012695312e+01 -7.358554840087890625e+00 -1.666314721107482910e+00 5.284153223037719727e-01 -3.413698077201843262e-01 1.481023430824279785e+00
1.807000000000000000e+03 1.716369628906250000e+01 7.315278530120849609e+00 -1.447529648430645466e-04 1.142387161962687969e-03 2.992902591358870268e-04 5.350303035811521113e-05
1.808000000000000000e+03 1.948658561706542969e+01 2.370190048217773438e+01 -3.904717266559600830e-01 -1.344575267285108566e-02 -1.211752369999885559e-01 -6.674384325742721558e-02
1.809000000000000000e+03 1.866729354858398438e+01 2.364006423950195312e+01 -3.918696641921997070e-01 -9.211744181811809540e-03 -1.203244179487228394e-01 -4.573652148246765137e-02
1.810000000000000000e+03 4.515909194946289062e+01 -2.702487373352050781e+01 1.741248607635498047e+00 8.825395584106445312e+00 3.169993162155151367e+00 -2.143368721008300781e+00
1.811000000000000000e+03 6.889411926269531250e+01 -1.259781837463378906e+01 -1.246520876884460449e+00 9.730389595031738281e+00 2.545160531997680664e+00 -1.346622347831726074e+00
1.812000000000000000e+03 4.589703750610351562e+01 -1.726796531677246094e+01 1.573990583419799805e+00 7.448959350585937500e+00 2.706884860992431641e+00 2.421525239944458008e+00
1.813000000000000000e+03 2.924332809448242188e+01 -3.128108787536621094e+01 -4.598990976810455322e-01 1.028943181037902832e+00 1.707132160663604736e-01 8.618778586387634277e-01
1.814000000000000000e+03 2.829058837890625000e+01 -3.167004776000976562e+01 -4.984840750694274902e-01 6.387521028518676758e-01 4.208040237426757812e-02 6.374883651733398438e-01
1.815000000000000000e+03 4.791224288940429688e+01 2.179415321350097656e+01 -1.550817191600799561e-01 1.734418153762817383e+00 4.738009274005889893e-01 1.237159252166748047e+00
1.816000000000000000e+03 5.195260620117187500e+01 -3.304951858520507812e+01 -2.544974684715270996e-01 1.321699619293212891e+00 3.201606571674346924e-01 -1.503715276718139648e+00
1.817000000000000000e+03 6.192797851562500000e+01 6.085083484649658203e+00 9.905803799629211426e-01 7.091062068939208984e+00 2.424492597579956055e+00 1.531944870948791504e+00
1.818000000000000000e+03 4.143660736083984375e+01 -4.188685894012451172e+00 -1.371298313140869141e+00 6.571594715118408203e+00 1.560088872909545898e+00 -2.677541494369506836e+00
1.819000000000000000e+03 3.132666206359863281e+01 -7.905819416046142578e-01 4.263472557067871094e+00 4.284049510955810547e+00 2.564256668090820312e+00 2.707519531250000000e+00
1.820000000000000000e+03 2.975375938415527344e+01 2.124270439147949219e+01 1.348544120788574219e+00 5.040164947509765625e+00 1.916612744331359863e+00 -1.996630907058715820e+00
1.821000000000000000e+03 1.372602653503417969e+01 -1.449839401245117188e+01 1.575033783912658691e+00 3.239437341690063477e+00 1.444341301918029785e+00 1.046770215034484863e+00
1.822000000000000000e+03 3.295152282714843750e+01 -2.885327529907226562e+01 1.181741952896118164e-01 3.098491668701171875e+00 9.649997353553771973e-01 1.373786926269531250e+00
1.823000000000000000e+03 4.759793472290039062e+01 -3.053507614135742188e+01 2.426605969667434692e-01 5.104447364807128906e+00 1.604132413864135742e+00 -2.210827589035034180e+00
1.824000000000000000e+03 5.306739044189453125e+01 -3.204605865478515625e+01 -6.150330305099487305e-01 5.109738111495971680e-01 -3.121777251362800598e-02 -1.021356225013732910e+00
1.825000000000000000e+03 2.626744842529296875e+01 -3.315314865112304688e+01 -3.295179307460784912e-01 2.740871906280517578e-01 -1.662922464311122894e-02 3.676624596118927002e-01
1.826000000000000000e+03 6.412884521484375000e+01 -2.983036422729492188e+01 -9.604295492172241211e-01 2.295233964920043945e+00 4.004413187503814697e-01 8.058173656463623047e-01
1.827000000000000000e+03 3.602267456054687500e+01 -2.369458770751953125e+01 1.388896346092224121e+00 7.914486885070800781e+00 2.791014909744262695e+00 1.198947310447692871e+00
1.828000000000000000e+03 2.226229095458984375e+01 -2.245025873184204102e+00 2.784388065338134766e-01 1.820938289165496826e-01 1.381597965955734253e-01 9.847772717475891113e-01
1.829000000000000000e+03 4.766882324218750000e+01 -6.299568653106689453e+00 -1.989028334617614746e+00 -9.895282238721847534e-02 -6.263943314552307129e-01 9.028342366218566895e-01
1.830000000000000000e+03 6.429509735107421875e+01 -1.188558387756347656e+01 -5.026052951812744141e+00 -7.670537233352661133e-01 -1.737931966781616211e+00 -1.081426382064819336e+00
1.831000000000000000e+03 3.944725799560546875e+01 1.249337196350097656e+01 1.153644561767578125e+00 9.396639823913574219e+00 3.165085315704345703e+00 2.079965114593505859e+00
1.832000000000000000e+03 5.695827102661132812e+01 -3.225774383544921875e+01 -1.064663052558898926e+00 -1.685416847467422485e-01 -3.699614405632019043e-01 -4.265286028385162354e-01
1.833000000000000000e+03 4.381632614135742188e+01 -2.211400413513183594e+01 1.330490469932556152e+00 1.036969852447509766e+01 3.510056495666503906e+00 -1.239402532577514648e+00
1.834000000000000000e+03 4.462403106689453125e+01 -2.526087951660156250e+01 2.237736940383911133e+00 1.010955238342285156e+01 3.704186916351318359e+00 -2.088234663009643555e+00
1.835000000000000000e+03 1.548322391510009766e+01 9.257909774780273438e+00 -7.203095592558383942e-04 3.162915818393230438e-03 7.327818893827497959e-04 1.438536564819514751e-04
1.836000000000000000e+03 4.029147720336914062e+01 -3.248816013336181641e+00 -5.449978709220886230e-01 9.084084510803222656e+00 2.561725854873657227e+00 -2.526014804840087891e+00
1.837000000000000000e+03 6.289297103881835938e+01 -2.959165000915527344e+01 -1.168813109397888184e+00 1.153674125671386719e+00 -4.541699774563312531e-03 3.622548580169677734e-01
1.838000000000000000e+03 4.387511825561523438e+01 -5.036200523376464844e+00 -1.856768250465393066e+00 1.703188061714172363e+00 -4.607405513525009155e-02 -1.019736528396606445e+00
1.839000000000000000e+03 3.647114562988281250e+01 -2.193813323974609375e+01 1.245167851448059082e+00 9.208134651184082031e+00 3.135990619659423828e+00 6.256856322288513184e-01
1.840000000000000000e+03 6.736508941650390625e+01 -1.128036308288574219e+01 -2.023610830307006836e+00 6.465736389160156250e+00 1.332637667655944824e+00 -2.512386322021484375e+00
1.841000000000000000e+03 5.955715942382812500e+01 -3.152042579650878906e+01 -1.249889373779296875e+00 5.343509465456008911e-02 -3.589363098144531250e-01 -1.410831958055496216e-01
1.842000000000000000e+03 6.718283843994140625e+01 -1.197514629364013672e+01 -1.871415734291076660e+00 6.395490646362304688e+00 1.357222557067871094e+00 -2.436120033264160156e+00
1.843000000000000000e+03 3.483160400390625000e+01 -2.614081573486328125e+01 7.585465908050537109e-01 5.399423599243164062e+00 1.847391009330749512e+00 1.687890648841857910e+00
1.844000000000000000e+03 3.529099273681640625e+01 -2.537689781188964844e+01 9.636947512626647949e-01 6.297532081604003906e+00 2.178368091583251953e+00 1.522165417671203613e+00
1.845000000000000000e+03 4.060821151733398438e+01 -4.076989173889160156e+00 -1.431171655654907227e+00 8.230493545532226562e+00 2.039796590805053711e+00 -2.534168958663940430e+00
1.846000000000000000e+03 6.128177642822265625e+01 2.068627738952636719e+01 1.235408663749694824e+00 6.830292701721191406e+00 2.419710397720336914e+00 -2.634349584579467773e+00
1.847000000000000000e+03 4.493034744262695312e+01 -1.779936027526855469e+01 1.740561366081237793e+00 8.500303268432617188e+00 3.072259426116943359e+00 8.642755746841430664e-01
1.848000000000000000e+03 5.351039123535156250e+01 2.257859992980957031e+01 -9.021905660629272461e-01 2.424529641866683960e-01 -1.979212760925292969e-01 2.175013571977615356e-01
1.849000000000000000e+03 6.865859222412109375e+01 -1.363582801818847656e+01 -8.828511834144592285e-02 1.053785324096679688e+01 3.134870529174804688e+00 -1.794314861297607422e+00
1.850000000000000000e+03 1.787158393859863281e+01 2.361921310424804688e+01 -3.627892136573791504e-01 -1.485130097717046738e-02 -1.132921501994132996e-01 7.426402880810201168e-04
1.851000000000000000e+03 1.628063964843750000e+01 2.376011276245117188e+01 -2.935088574886322021e-01 2.198443748056888580e-02 -8.145732432603836060e-02 5.355682969093322754e-02
1.852000000000000000e+03 2.032884597778320312e+01 2.379615402221679688e+01 -3.356459438800811768e-01 2.315634192200377584e-04 -1.006243154406547546e-01 -1.049897223711013794e-01
1.853000000000000000e+03 3.884548187255859375e+01 -6.292450428009033203e-01 1.984587788581848145e+00 1.220625686645507812e+01 4.257253170013427734e+00 -2.679140567779541016e+00
1.854000000000000000e+03 3.910652923583984375e+01 -3.010783195495605469e+00 -4.153369963169097900e-01 1.021639919281005859e+01 2.940318584442138672e+00 -1.869866013526916504e+00
1.855000000000000000e+03 2.761116027832031250e+01 -6.958196640014648438e+00 -1.374508380889892578e+00 1.796906590461730957e-01 -3.584453165531158447e-01 1.798558115959167480e+00
1.856000000000000000e+03 4.686615371704101562e+01 -1.522978210449218750e+01 1.378829002380371094e+00 4.007068634033203125e+00 1.615769267082214355e+00 1.760151743888854980e+00
1.857000000000000000e+03 4.506457519531250000e+01 -1.543457412719726562e+01 8.324253559112548828e-01 6.226743221282958984e+00 2.117750406265258789e+00 7.770714163780212402e-01
1.858000000000000000e+03 1.896816825866699219e+01 -9.823667526245117188e+00 1.399386286735534668e+00 1.077920794486999512e+00 7.431920766830444336e-01 1.360964059829711914e+00
1.859000000000000000e+03 1.677700614929199219e+01 -1.115379905700683594e+01 1.989645242691040039e+00 2.145124912261962891e+00 1.240431070327758789e+00 1.337925076484680176e+00
1.860000000000000000e+03 6.881711578369140625e+01 -2.301273536682128906e+01 9.454053640365600586e-01 1.086961460113525391e+01 3.544505834579467773e+00 1.481863021850585938e+00
1.861000000000000000e+03 5.875645446777343750e+01 2.241521644592285156e+01 -2.972358167171478271e-01 1.397199988365173340e+00 3.299892544746398926e-01 -1.842941045761108398e+00
1.862000000000000000e+03 5.802727127075195312e+01 2.424102401733398438e+01 1.131377182900905609e-02 1.657456159591674805e+00 5.006309747695922852e-01 -1.477321147918701172e+00
1.863000000000000000e+03 6.422363281250000000e+01 1.787597656250000000e+01 1.566229343414306641e+00 9.198626518249511719e+00 3.229456663131713867e+00 -8.699833750724792480e-01
1.864000000000000000e+03 6.374446487426757812e+01 1.911797904968261719e+01 1.530857801437377930e+00 9.082133293151855469e+00 3.183897495269775391e+00 -7.736436724662780762e-01
1.865000000000000000e+03 7.013732147216796875e+01 -1.665529632568359375e+01 2.289343118667602539e+00 1.364284038543701172e+01 4.779654979705810547e+00 -6.512557864189147949e-01
1.866000000000000000e+03 7.044178009033203125e+01 -1.573698520660400391e+01 1.900381326675415039e+00 1.245312881469726562e+01 4.306053161621093750e+00 -1.908780485391616821e-01
1.867000000000000000e+03 3.569098281860351562e+01 -2.455498504638671875e+01 1.228653073310852051e+00 7.118947029113769531e+00 2.504280090332031250e+00 1.345126390457153320e+00
1.868000000000000000e+03 2.227598762512207031e+01 -3.195517921447753906e+01 -6.750447750091552734e-01 1.124784722924232483e-01 -1.687698960304260254e-01 -1.372699141502380371e-01
1.869000000000000000e+03 2.466716384887695312e+01 -3.182273674011230469e+01 -7.238620519638061523e-01 -1.331792958080768585e-02 -2.211540043354034424e-01 6.072862073779106140e-02
1.870000000000000000e+03 1.411214542388916016e+01 1.159938049316406250e+01 -1.451844000257551670e-04 5.697228945791721344e-03 1.665613381192088127e-03 2.007082104682922363e-03
1.871000000000000000e+03 2.297796440124511719e+01 2.388204765319824219e+01 -1.891015470027923584e-02 2.293101847171783447e-01 6.312000751495361328e-02 -4.410264790058135986e-01
1.872000000000000000e+03 4.434030914306640625e+01 -2.441366577148437500e+01 2.131126403808593750e+00 1.038902664184570312e+01 3.756046056747436523e+00 -1.885850787162780762e+00
1.873000000000000000e+03 2.866028785705566406e+01 -1.277882814407348633e+00 3.285480499267578125e+00 4.377225935459136963e-01 1.116960883140563965e+00 1.236492156982421875e+00
1.874000000000000000e+03 1.182272911071777344e+00 2.649463891983032227e+00 1.430886914022266865e-04 4.105779516976326704e-04 1.660999841988086700e-04 -3.661741502583026886e-04
1.875000000000000000e+03 2.716358184814453125e+01 -4.997074604034423828e-01 2.279827594757080078e+00 -3.253675624728202820e-02 6.741872429847717285e-01 5.134196281433105469e-01
1.876000000000000000e+03 2.918830871582031250e+01 2.274260711669921875e+01 5.380433201789855957e-01 4.096657752990722656e+00 1.390410304069519043e+00 -1.855711340904235840e+00
1.877000000000000000e+03 4.788233947753906250e+01 -1.468781185150146484e+01 1.239618659019470215e+00 2.549439430236816406e+00 1.136717438697814941e+00 1.547971606254577637e+00
1.878000000000000000e+03 1.547122001647949219e+01 2.190699005126953125e+01 -3.860686123371124268e-01 1.587383449077606201e-03 -1.153443679213523865e-01 -1.437148451805114746e-02
1.879000000000000000e+03 1.848491477966308594e+01 -1.065885925292968750e+01 1.937229514122009277e+00 1.286829233169555664e+00 9.672176241874694824e-01 1.442780852317810059e+00
1.880000000000000000e+03 1.766310119628906250e+01 -1.088704299926757812e+01 2.014461994171142578e+00 1.787975430488586426e+00 1.140731215476989746e+00 1.440450787544250488e+00
1.881000000000000000e+03 3.820486068725585938e+01 2.814322471618652344e+00 1.679401397705078125e+00 1.476843929290771484e+01 4.934352397918701172e+00 -1.105452179908752441e+00
1.882000000000000000e+03 3.814171600341796875e+01 3.638661384582519531e+00 1.304425358772277832e+00 1.515512657165527344e+01 4.937865257263183594e+00 -5.146065354347229004e-01
1.883000000000000000e+03 3.515547943115234375e+01 3.257746696472167969e+00 2.837437629699707031e+00 1.449986839294433594e+01 5.201191902160644531e+00 1.238731622695922852e+00
1.884000000000000000e+03 5.262451171875000000e+01 -5.942350864410400391e+00 -1.966169625520706177e-01 1.593368887901306152e+00 4.190255701541900635e-01 1.566110610961914062e+00
1.885000000000000000e+03 3.118573760986328125e+01 2.104163360595703125e+01 1.189855575561523438e+00 6.071506977081298828e+00 2.178408861160278320e+00 -1.717480063438415527e+00
1.886000000000000000e+03 3.032877922058105469e+01 2.182433509826660156e+01 7.721381187438964844e-01 5.338054656982421875e+00 1.833057761192321777e+00 -1.773575067520141602e+00
1.887000000000000000e+03 6.304402542114257812e+01 -1.123213195800781250e+01 -2.925908803939819336e+00 -2.986942529678344727e-01 -9.673808813095092773e-01 -5.853515863418579102e-01
1.888000000000000000e+03 4.708715057373046875e+01 -1.448772716522216797e+01 1.123788356781005859e+00 3.475071191787719727e+00 1.379657864570617676e+00 1.526024341583251953e+00
1.889000000000000000e+03 3.218336105346679688e+01 -7.399280667304992676e-01 3.657154798507690430e+00 6.099575996398925781e+00 2.927019357681274414e+00 2.731930494308471680e+00
1.890000000000000000e+03 5.221228408813476562e+01 -5.463214397430419922e+00 -1.590104550123214722e-01 1.670327067375183105e+00 4.533949792385101318e-01 1.564429163932800293e+00
1.891000000000000000e+03 1.342726802825927734e+01 1.910526466369628906e+01 -1.110889241099357605e-01 1.572557957842946053e-03 -3.285491093993186951e-02 -6.093633919954299927e-02
1.892000000000000000e+03 1.450555896759033203e+01 2.041833305358886719e+01 -2.539330422878265381e-01 -9.561604820191860199e-03 -7.904839515686035156e-02 -9.564083069562911987e-02
1.893000000000000000e+03 2.904909896850585938e+01 -1.945419192314147949e+00 2.899209260940551758e+00 1.085894107818603516e+00 1.195531010627746582e+00 1.776563525199890137e+00
1.894000000000000000e+03 2.019844627380371094e+01 -2.980920600891113281e+01 -8.493453860282897949e-01 3.395792841911315918e-01 -1.529298275709152222e-01 -8.371339738368988037e-02
1.895000000000000000e+03 3.116596603393554688e+01 -3.061585426330566406e+01 -3.501502573490142822e-01 2.036088943481445312e+00 5.057815909385681152e-01 1.175053596496582031e+00
1.896000000000000000e+03 2.885718536376953125e+01 -2.939004421234130859e+00 2.017270565032958984e+00 1.007827281951904297e+00 9.075293540954589844e-01 1.843336343765258789e+00
1.897000000000000000e+03 3.091117858886718750e+01 -1.331739425659179688e+00 3.716995000839233398e+00 3.528621196746826172e+00 2.173684835433959961e+00 2.121510982513427734e+00
1.898000000000000000e+03 4.399365234375000000e+01 -1.832716560363769531e+01 1.794910907745361328e+00 8.616437911987304688e+00 3.123404502868652344e+00 1.117199212312698364e-01
1.899000000000000000e+03 6.071562194824218750e+01 2.129299926757812500e+01 5.883364081382751465e-01 5.326544284820556641e+00 1.774464249610900879e+00 -2.368361473083496094e+00
1.900000000000000000e+03 1.387402629852294922e+01 2.013182067871093750e+01 -2.161624878644943237e-01 6.215648725628852844e-03 -6.298405677080154419e-02 -7.585811614990234375e-02
1.901000000000000000e+03 1.313407707214355469e+01 1.988185882568359375e+01 -1.700169742107391357e-01 2.275977097451686859e-02 -4.417715966701507568e-02 -5.305450409650802612e-02
1.902000000000000000e+03 6.514817047119140625e+01 -1.071959304809570312e+01 -2.036442756652832031e+00 1.865426659584045410e+00 -5.130481347441673279e-02 -2.369663953781127930e+00
1.903000000000000000e+03 6.149367141723632812e+01 2.306132698059082031e+01 -5.395646095275878906e-01 5.775663852691650391e+00 1.570829868316650391e+00 -1.871173262596130371e+00
1.904000000000000000e+03 6.284368133544921875e+01 2.012663841247558594e+01 1.022426128387451172e+00 8.669397354125976562e+00 2.907546997070312500e+00 -1.216572165489196777e+00
1.905000000000000000e+03 6.180037689208984375e+01 2.126288414001464844e+01 1.602312624454498291e-01 7.322016239166259766e+00 2.244674205780029297e+00 -1.726931333541870117e+00
1.906000000000000000e+03 5.863281250000000000e+01 2.324915885925292969e+01 -1.709401011466979980e-01 1.780456781387329102e+00 4.828549921512603760e-01 -1.788445830345153809e+00
1.907000000000000000e+03 5.787178802490234375e+01 2.240197372436523438e+01 -6.490907669067382812e-01 2.499335408210754395e-01 -1.197471544146537781e-01 -1.050926327705383301e+00
1.908000000000000000e+03 5.080703258514404297e+00 -3.851915359497070312e+01 -8.291809260845184326e-02 5.188767313957214355e-01 1.307875961065292358e-01 9.268482774496078491e-02
1.909000000000000000e+03 4.566399002075195312e+01 -2.899263191223144531e+01 7.147803902626037598e-01 7.131428718566894531e+00 2.353862762451171875e+00 -1.811220645904541016e+00
1.910000000000000000e+03 4.860899734497070312e+01 -3.089072990417480469e+01 1.869664788246154785e-01 3.921247720718383789e+00 1.232464313507080078e+00 -2.180021524429321289e+00
1.911000000000000000e+03 2.316399192810058594e+01 -8.499653816223144531e+00 3.295438587665557861e-01 4.787520468235015869e-01 2.424887716770172119e-01 1.010668039321899414e+00
1.912000000000000000e+03 2.557406616210937500e+01 -2.077732324600219727e+00 1.389092683792114258e+00 -8.046974241733551025e-02 3.925868868827819824e-01 1.237544059753417969e+00
1.913000000000000000e+03 1.892179679870605469e+01 5.762580394744873047e+00 -6.066200512577779591e-05 7.732340600341558456e-05 4.998420990887098014e-06 -9.752078040037304163e-05
1.914000000000000000e+03 5.865528869628906250e+01 -1.131250095367431641e+01 -1.846397399902343750e+00 6.860355138778686523e-01 -3.481085598468780518e-01 3.725858330726623535e-01
1.915000000000000000e+03 5.883763122558593750e+01 -1.201974391937255859e+01 -2.089297056198120117e+00 5.707329511642456055e-01 -4.555692374706268311e-01 9.678175300359725952e-02
1.916000000000000000e+03 1.606637763977050781e+01 -2.781635284423828125e+01 -4.936716258525848389e-01 9.736526012420654297e-01 1.439943015575408936e-01 -9.995797276496887207e-02
1.917000000000000000e+03 1.912104606628417969e+01 -2.862738609313964844e+01 -6.217319369316101074e-01 4.206404387950897217e-01 -6.032745912671089172e-02 -3.632887452840805054e-02
1.918000000000000000e+03 1.820879554748535156e+01 3.413066625595092773e+00 -3.664245241452590562e-06 5.066833182354457676e-05 1.410122604283969849e-05 1.095932238968089223e-04
1.919000000000000000e+03 2.628376388549804688e+01 -7.745484828948974609e+00 -1.141578555107116699e+00 6.338027119636535645e-01 -1.523327678442001343e-01 1.045988082885742188e+00
1.920000000000000000e+03 6.175413131713867188e+01 -1.179918098449707031e+01 -3.321427822113037109e+00 1.517761945724487305e-01 -9.508954286575317383e-01 -2.266302257776260376e-01
1.921000000000000000e+03 6.019815444946289062e+01 -1.163307380676269531e+01 -2.407275199890136719e+00 5.536903738975524902e-01 -5.560754537582397461e-01 -5.504713859409093857e-03
1.922000000000000000e+03 1.776263999938964844e+01 6.771074295043945312e+00 -1.784842606866732240e-04 5.520642735064029694e-04 1.120739980251528323e-04 -1.551935856696218252e-04
1.923000000000000000e+03 1.337808036804199219e+01 4.523525714874267578e+00 2.985246246680617332e-04 3.942484327126294374e-04 2.078319084830582142e-04 1.011632266454398632e-03
1.924000000000000000e+03 1.545163249969482422e+01 3.231321334838867188e+00 1.146151771536096931e-04 1.815382856875658035e-04 8.884603448677808046e-05 5.152058438397943974e-04
1.925000000000000000e+03 1.995081901550292969e+01 4.753317832946777344e+00 -4.130240995436906815e-05 -6.738283263985067606e-05 -3.260557059547863901e-05 -6.066769492463208735e-05
1.926000000000000000e+03 2.213237380981445312e+01 -8.151077270507812500e+00 4.734961092472076416e-01 5.412617325782775879e-01 3.044273555278778076e-01 1.183382749557495117e+00
1.927000000000000000e+03 2.042009735107421875e+01 -9.451317787170410156e+00 1.163054585456848145e+00 6.027809977531433105e-01 5.297507047653198242e-01 1.204185485839843750e+00
1.928000000000000000e+03 1.336732959747314453e+01 3.847812891006469727e+00 3.276991483289748430e-04 4.558374712360091507e-05 1.119848748203366995e-04 9.023081511259078979e-04
1.929000000000000000e+03 2.038246726989746094e+01 4.248188972473144531e+00 8.429594163317233324e-05 1.454354351153597236e-04 6.891941302455961704e-05 6.928555376362055540e-05
1.930000000000000000e+03 5.982341384887695312e+01 1.248852372169494629e+00 8.886677622795104980e-01 3.648234128952026367e+00 1.361070513725280762e+00 1.524779319763183594e+00
1.931000000000000000e+03 2.822720527648925781e+01 -6.538360118865966797e+00 -1.276891469955444336e+00 3.134993091225624084e-02 -3.736624717712402344e-01 1.748985171318054199e+00
1.932000000000000000e+03 1.816046905517578125e+01 4.017100334167480469e+00 -2.156092250515939668e-06 4.585294227581471205e-04 1.369120000163093209e-04 8.102880383376032114e-05
1.933000000000000000e+03 1.120740699768066406e+01 3.857925891876220703e+00 8.790596039034426212e-04 -2.359748905291780829e-04 1.929254212882369757e-04 7.736652623862028122e-04
1.934000000000000000e+03 1.263124752044677734e+01 3.182475090026855469e+00 5.914828507229685783e-04 -1.096468040486797690e-04 1.445508096367120743e-04 8.096698438748717308e-04
1.935000000000000000e+03 5.792176437377929688e+01 -2.115075737237930298e-01 1.290610671043395996e+00 2.587392330169677734e+00 1.163400888442993164e+00 1.615505099296569824e+00
1.936000000000000000e+03 5.888099288940429688e+01 -3.656442835927009583e-02 1.110729813575744629e+00 2.914224863052368164e+00 1.207486391067504883e+00 1.510211944580078125e+00
1.937000000000000000e+03 1.056182765960693359e+01 4.573164939880371094e+00 9.712086757645010948e-04 -5.518954712897539139e-04 1.257939584320411086e-04 7.732811500318348408e-04
1.938000000000000000e+03 1.728347206115722656e+01 6.296882629394531250e+00 -1.951033773366361856e-04 8.487672894261777401e-04 1.960991794476285577e-04 1.478328485973179340e-04
1.939000000000000000e+03 1.970286560058593750e+01 -9.639727592468261719e+00 1.309323787689208984e+00 8.047379255294799805e-01 6.342185139656066895e-01 1.281823396682739258e+00
1.940000000000000000e+03 1.541168880462646484e+01 3.873708009719848633e+00 1.218104225699789822e-04 5.515402299351990223e-04 2.020051906583830714e-04 5.377604393288493156e-04
1.941000000000000000e+03 2.073700332641601562e+01 -1.009027862548828125e+01 1.381754159927368164e+00 4.281303286552429199e-01 5.429653525352478027e-01 1.006252050399780273e+00
1.942000000000000000e+03 5.087239074707031250e+01 -1.406983470916748047e+01 4.020518660545349121e-01 3.764280378818511963e-01 2.335439771413803101e-01 9.518427252769470215e-01
1.943000000000000000e+03 1.265926265716552734e+01 3.838585376739501953e+00 5.552408983930945396e-04 1.395053986925631762e-04 2.084238949464634061e-04 8.981263381429016590e-04
1.944000000000000000e+03 1.046996498107910156e+01 3.890169143676757812e+00 9.254852775484323502e-04 -6.271893507800996304e-04 8.948877803049981594e-05 7.208035676740109921e-04
1.945000000000000000e+03 5.607347106933593750e+01 -1.326655960083007812e+01 -1.570074677467346191e+00 2.311614006757736206e-01 -4.016739726066589355e-01 3.592577278614044189e-01
1.946000000000000000e+03 4.665417480468750000e+01 -6.808535575866699219e+00 -1.473151206970214844e+00 5.605376362800598145e-01 -2.737840712070465088e-01 4.421890676021575928e-01
1.947000000000000000e+03 4.614268112182617188e+01 -5.811684131622314453e+00 -2.308520555496215820e+00 3.997555971145629883e-01 -5.726295113563537598e-01 3.188250958919525146e-01
1.948000000000000000e+03 4.441269683837890625e+01 -5.910100936889648438e+00 -1.762538075447082520e+00 1.812095642089843750e+00 1.486726012080907822e-02 -8.077163100242614746e-01
1.949000000000000000e+03 1.192933273315429688e+01 -3.890646934509277344e+00 -6.298664212226867676e-01 2.713394165039062500e-01 -1.075580939650535583e-01 -2.434265762567520142e-01
1.950000000000000000e+03 1.036509418487548828e+01 -3.239380121231079102e+00 -7.411900758743286133e-01 1.298702508211135864e-01 -1.833959519863128662e-01 -3.818048238754272461e-01
1.951000000000000000e+03 8.816951751708984375e+00 -3.269128322601318359e+00 -6.341204643249511719e-01 6.790845841169357300e-02 -1.698635965585708618e-01 -4.757819771766662598e-01
1.952000000000000000e+03 1.115971374511718750e+01 -3.906826257705688477e+00 -6.088857054710388184e-01 2.308978140354156494e-01 -1.133963614702224731e-01 -3.337859511375427246e-01
1.953000000000000000e+03 5.472230911254882812e+01 -4.847041130065917969e+00 6.892834901809692383e-01 1.723572850227355957e+00 7.238568663597106934e-01 1.336290001869201660e+00
1.954000000000000000e+03 5.518706893920898438e+01 -4.446218967437744141e+00 8.913702368736267090e-01 1.749853968620300293e+00 7.923672795295715332e-01 1.348663568496704102e+00
1.955000000000000000e+03 1.422456932067871094e+01 -3.157696008682250977e+00 -8.063772320747375488e-01 2.655929327011108398e-01 -1.622352898120880127e-01 8.472800254821777344e-02
1.956000000000000000e+03 1.584628486633300781e+01 -3.763452768325805664e+00 -5.528908967971801758e-01 4.326220750808715820e-01 -3.608065471053123474e-02 4.046003818511962891e-01
1.957000000000000000e+03 2.387563323974609375e+01 -1.843020915985107422e+00 7.773668169975280762e-01 -7.673433981835842133e-03 2.309080213308334351e-01 9.730315208435058594e-01
1.958000000000000000e+03 2.502673912048339844e+01 -2.979530572891235352e+00 9.665319919586181641e-01 4.736453294754028320e-02 3.041689693927764893e-01 1.468422055244445801e+00
1.959000000000000000e+03 6.391599655151367188e+01 1.078180122375488281e+01 7.289037704467773438e-01 9.328590393066406250e+00 3.017248153686523438e+00 4.100067913532257080e-01
1.960000000000000000e+03 5.529334640502929688e+01 -1.336841869354248047e+01 -1.354969382286071777e+00 2.216247320175170898e-01 -3.400034010410308838e-01 4.625573456287384033e-01
1.961000000000000000e+03 5.297581863403320312e+01 -1.371900844573974609e+01 -5.573148131370544434e-01 2.188539057970046997e-01 -1.015382781624794006e-01 7.136355638504028320e-01
1.962000000000000000e+03 1.425805854797363281e+01 -3.830688476562500000e+00 -6.228622198104858398e-01 3.814501166343688965e-01 -7.242363691329956055e-02 1.198309138417243958e-01
1.963000000000000000e+03 3.488764572143554688e+01 5.525031089782714844e+00 9.773331880569458008e-01 1.546762180328369141e+01 4.933486461639404297e+00 6.601902842521667480e-01
1.964000000000000000e+03 4.137889385223388672e+00 -3.341386556625366211e+00 -2.333113998174667358e-01 -1.410745680332183838e-01 -1.123157888650894165e-01 -4.267699122428894043e-01
1.965000000000000000e+03 4.899690151214599609e+00 -4.060568809509277344e+00 -2.362992167472839355e-01 -1.389698386192321777e-01 -1.125807166099548340e-01 -5.242437720298767090e-01
1.966000000000000000e+03 5.691430568695068359e+00 -4.078399181365966797e+00 -2.910040318965911865e-01 -8.766836673021316528e-02 -1.136017218232154846e-01 -5.538951754570007324e-01
1.967000000000000000e+03 6.482148647308349609e+00 -4.078870773315429688e+00 -3.403925001621246338e-01 -4.239331185817718506e-02 -1.148357465863227844e-01 -5.679486989974975586e-01
1.968000000000000000e+03 8.057326316833496094e+00 -4.001926898956298828e+00 -4.476818144321441650e-01 5.513635650277137756e-02 -1.177636384963989258e-01 -5.513330101966857910e-01
1.969000000000000000e+03 8.843097686767578125e+00 -3.968472480773925781e+00 -4.980783462524414062e-01 9.991521388292312622e-02 -1.194489374756813049e-01 -5.198433399200439453e-01
1.970000000000000000e+03 1.853403687477111816e+00 -7.482814788818359375e+00 5.331296473741531372e-03 -7.580074667930603027e-01 -2.258028537034988403e-01 -3.444133698940277100e-01
1.971000000000000000e+03 2.615811586380004883e+00 -3.391928195953369141e+00 -1.156114190816879272e-01 -2.081990391016006470e-01 -9.714313596487045288e-02 -3.093437850475311279e-01
1.972000000000000000e+03 1.878588914871215820e+00 -5.015686035156250000e+00 -3.470510616898536682e-02 -4.187504649162292480e-01 -1.360366791486740112e-01 -3.140968382358551025e-01
1.973000000000000000e+03 1.120637989044189453e+01 -4.577920913696289062e+00 -4.548148214817047119e-01 3.093528449535369873e-01 -4.363859072327613831e-02 -3.446088731288909912e-01
1.974000000000000000e+03 1.740545272827148438e+01 -2.986640930175781250e+00 -5.728996396064758301e-01 3.326309621334075928e-01 -7.208059728145599365e-02 5.918209552764892578e-01
1.975000000000000000e+03 5.585549545288085938e+01 -4.084146499633789062e+00 9.474776387214660645e-01 1.839881658554077148e+00 8.362078070640563965e-01 1.337736964225769043e+00
1.976000000000000000e+03 1.747061157226562500e+01 -3.661976575851440430e+00 -4.268003702163696289e-01 4.513400197029113770e-01 7.361895870417356491e-03 6.895317435264587402e-01
1.977000000000000000e+03 1.270403575897216797e+01 -3.872103691101074219e+00 -6.397984027862548828e-01 3.125269114971160889e-01 -9.818144887685775757e-02 -1.327947080135345459e-01
1.978000000000000000e+03 6.224252700805664062e+01 6.872795104980468750e+00 8.656789064407348633e-01 7.653636932373046875e+00 2.555794715881347656e+00 1.507444500923156738e+00
1.979000000000000000e+03 5.791525650024414062e+01 -3.198528289794921875e+01 -1.226241350173950195e+00 -2.028121501207351685e-01 -4.287160336971282959e-01 -3.307149410247802734e-01
1.980000000000000000e+03 4.955913162231445312e+01 -1.331195354461669922e+01 6.481585502624511719e-01 1.156996369361877441e+00 5.415464639663696289e-01 1.509862422943115234e+00
1.981000000000000000e+03 1.347976016998291016e+01 -3.852668523788452148e+00 -6.372289061546325684e-01 3.464310765266418457e-01 -8.723934739828109741e-02 -1.456397119909524918e-02
1.982000000000000000e+03 6.034737777709960938e+01 7.991481423377990723e-01 8.180095553398132324e-01 3.790854930877685547e+00 1.382659316062927246e+00 1.285033345222473145e+00
1.983000000000000000e+03 4.269094467163085938e+01 1.649097442626953125e+01 1.014695763587951660e+00 4.215499877929687500e+00 1.569058656692504883e+00 2.062504529953002930e+00
1.984000000000000000e+03 6.348078918457031250e+01 1.414620685577392578e+01 5.844149589538574219e-01 1.063763618469238281e+01 3.366615295410156250e+00 -1.852280348539352417e-01
1.985000000000000000e+03 6.422140502929687500e+01 1.469053077697753906e+01 8.405956029891967773e-01 1.002651500701904297e+01 3.260133266448974609e+00 -4.704513251781463623e-01
1.986000000000000000e+03 5.813510513305664062e+01 -1.217728900909423828e+01 -1.928540468215942383e+00 5.143467187881469727e-01 -4.242581427097320557e-01 2.102164328098297119e-01
1.987000000000000000e+03 2.419723701477050781e+01 2.574691009521484375e+01 2.407436966896057129e-01 9.490150809288024902e-01 3.569276332855224609e-01 -8.834786415100097656e-01
1.988000000000000000e+03 2.388157463073730469e+01 2.379146003723144531e+01 1.381653547286987305e-01 4.035675823688507080e-01 1.625198870897293091e-01 -6.114620566368103027e-01
1.989000000000000000e+03 3.739204406738281250e+01 -1.849721527099609375e+01 1.027655601501464844e+00 9.909106254577636719e+00 3.281028747558593750e+00 -1.030696511268615723e+00
1.990000000000000000e+03 3.736363601684570312e+01 -1.759080886840820312e+01 1.019776582717895508e+00 9.989588737487792969e+00 3.302809715270996094e+00 -1.361613631248474121e+00
1.991000000000000000e+03 2.063721275329589844e+01 -2.571270227432250977e+00 -8.762137591838836670e-02 2.915308773517608643e-01 6.117285415530204773e-02 9.300600886344909668e-01
1.992000000000000000e+03 2.407387733459472656e+01 -7.292939186096191406e+00 -6.023000925779342651e-02 5.794598460197448730e-01 1.557689607143402100e-01 1.284265398979187012e+00
1.993000000000000000e+03 3.807755279541015625e+01 6.218190670013427734e+00 1.194712400436401367e+00 1.556662464141845703e+01 5.028400897979736328e+00 1.252527594566345215e+00
1.994000000000000000e+03 3.629995346069335938e+01 5.824812889099121094e+00 1.493557095527648926e+00 1.483976936340332031e+01 4.899997711181640625e+00 8.518339395523071289e-01
1.995000000000000000e+03 2.307459640502929688e+01 -2.052944898605346680e+00 4.954700469970703125e-01 1.125572547316551208e-01 1.824081838130950928e-01 9.828461408615112305e-01
1.996000000000000000e+03 2.404096412658691406e+01 -2.519943714141845703e+00 7.577998042106628418e-01 5.627269670367240906e-02 2.442217469215393066e-01 1.206346273422241211e+00
1.997000000000000000e+03 2.239737701416015625e+01 -2.908001184463500977e+00 2.840869724750518799e-01 2.433963268995285034e-01 1.582449823617935181e-01 1.156737565994262695e+00
1.998000000000000000e+03 2.483029747009277344e+01 -2.298920154571533203e+00 1.068938970565795898e+00 -5.427589640021324158e-02 3.043989241123199463e-01 1.221576929092407227e+00
1.999000000000000000e+03 4.157184982299804688e+01 1.415678882598876953e+01 1.518395185470581055e+00 5.732607364654541016e+00 2.175300836563110352e+00 2.626796960830688477e+00
2.000000000000000000e+03 2.074873924255371094e+01 -3.241963386535644531e+00 -3.464223071932792664e-02 3.692958056926727295e-01 1.003960669040679932e-01 1.069389939308166504e+00
2.001000000000000000e+03 4.268643951416015625e+01 1.541020584106445312e+01 1.403248429298400879e+00 4.198491573333740234e+00 1.680521965026855469e+00 2.291340351104736328e+00
2.002000000000000000e+03 4.366779327392578125e+01 -5.667419910430908203e+00 -1.704219818115234375e+00 2.584171772003173828e+00 2.639855742454528809e-01 -1.342667460441589355e+00
2.003000000000000000e+03 4.434920883178710938e+01 -1.939668273925781250e+01 1.716307759284973145e+00 9.623766899108886719e+00 3.402022361755371094e+00 4.537286460399627686e-01
2.004000000000000000e+03 4.305947113037109375e+01 -2.111324119567871094e+01 1.564834356307983398e+00 9.569785118103027344e+00 3.340385913848876953e+00 -7.855353355407714844e-01
2.005000000000000000e+03 6.674319458007812500e+01 -2.691314888000488281e+01 -5.476377010345458984e-01 4.999002456665039062e+00 1.335409402847290039e+00 1.315110445022583008e+00
2.006000000000000000e+03 1.165506649017333984e+01 1.622669219970703125e+01 -2.358619309961795807e-02 -6.035328377038240433e-03 -8.886456489562988281e-03 -1.301998738199472427e-02
2.007000000000000000e+03 3.348402023315429688e+01 1.428799438476562500e+01 9.214187860488891602e-01 1.031624889373779297e+01 3.371300458908081055e+00 -2.145075559616088867e+00
2.008000000000000000e+03 3.229151153564453125e+01 1.565052413940429688e+01 1.023998379707336426e+00 9.731733322143554688e+00 3.226719379425048828e+00 -2.850073337554931641e+00
2.009000000000000000e+03 4.628072357177734375e+01 1.872999954223632812e+01 5.431216359138488770e-01 1.845582962036132812e+00 7.166113853454589844e-01 1.267598986625671387e+00
2.010000000000000000e+03 4.445301055908203125e+01 1.932404708862304688e+01 3.932062387466430664e-01 3.083687782287597656e+00 1.043068170547485352e+00 1.635736465454101562e+00
2.011000000000000000e+03 1.955016517639160156e+01 2.452503013610839844e+01 -2.017139047384262085e-01 3.034283593297004700e-02 -5.141131952404975891e-02 -9.278238564729690552e-02
2.012000000000000000e+03 1.223769378662109375e+01 -1.896910667419433594e+01 6.360117793083190918e-01 2.701804161071777344e+00 1.001344799995422363e+00 4.840536117553710938e-01
2.013000000000000000e+03 6.618118286132812500e+01 -2.759852218627929688e+01 -6.445327997207641602e-01 4.231814861297607422e+00 1.076184630393981934e+00 1.131707191467285156e+00
2.014000000000000000e+03 3.413862991333007812e+01 1.113913631439208984e+01 7.532937526702880859e-01 1.206801986694335938e+01 3.846394062042236328e+00 -1.848753929138183594e+00
2.015000000000000000e+03 3.426660156250000000e+01 1.036620140075683594e+01 6.906970143318176270e-01 1.251744556427001953e+01 3.962442636489868164e+00 -1.639228820800781250e+00
2.016000000000000000e+03 1.491296195983886719e+01 -2.266718292236328125e+01 1.247774958610534668e-01 2.336605072021484375e+00 7.384147644042968750e-01 -6.301164031028747559e-01
2.017000000000000000e+03 7.699056243896484375e+01 3.582476425170898438e+01 -4.404828324913978577e-02 6.940535545349121094e+00 2.068946123123168945e+00 7.138930261135101318e-02
2.018000000000000000e+03 7.787204742431640625e+01 3.557646942138671875e+01 -2.355644293129444122e-02 7.058941364288330078e+00 2.110615491867065430e+00 5.087963119149208069e-02
2.019000000000000000e+03 7.802389526367187500e+01 3.141504096984863281e+01 -2.784334868192672729e-02 6.929767131805419922e+00 2.070577144622802734e+00 1.261723339557647705e-01
2.020000000000000000e+03 7.718478393554687500e+01 2.922328567504882812e+01 -4.400056600570678711e-02 6.768477916717529297e+00 2.017343282699584961e+00 2.179211825132369995e-01
2.021000000000000000e+03 7.706803894042968750e+01 2.841551780700683594e+01 -4.525439441204071045e-02 6.716657161712646484e+00 2.001420736312866211e+00 2.501802742481231689e-01
2.022000000000000000e+03 7.812242126464843750e+01 2.084790420532226562e+01 2.138726413249969482e-02 6.074246883392333984e+00 1.828690290451049805e+00 2.093510925769805908e-01
2.023000000000000000e+03 7.818292236328125000e+01 1.437370109558105469e+01 4.998956248164176941e-02 5.849984645843505859e+00 1.769992232322692871e+00 -6.183428689837455750e-02
2.024000000000000000e+03 7.747688293457031250e+01 1.364414119720458984e+01 9.055975824594497681e-02 6.036364078521728516e+00 1.838077187538146973e+00 -1.325448155403137207e-01
2.025000000000000000e+03 7.748982238769531250e+01 1.043924236297607422e+01 7.647175341844558716e-02 6.274312973022460938e+00 1.905235409736633301e+00 -3.297940790653228760e-01
2.026000000000000000e+03 7.728087615966796875e+01 3.071072196960449219e+01 -4.121283441781997681e-02 6.842835903167724609e+00 2.040487051010131836e+00 1.750839650630950928e-01
2.027000000000000000e+03 7.792155456542968750e+01 -3.522311782836914062e+01 -5.596560239791870117e-02 1.014820861816406250e+01 3.027672767639160156e+00 -1.052595600485801697e-01
2.028000000000000000e+03 7.633174133300781250e+01 -3.699220657348632812e+01 -5.772534012794494629e-02 9.320266723632812500e+00 2.778762578964233398e+00 -3.435768187046051025e-02
2.029000000000000000e+03 7.754415130615234375e+01 -1.741928291320800781e+01 3.125487864017486572e-01 7.606379032135009766e+00 2.375678300857543945e+00 1.639869362115859985e-01
2.030000000000000000e+03 7.820908355712890625e+01 -6.123185902833938599e-02 -2.581285499036312103e-02 8.012834548950195312e+00 2.396106481552124023e+00 -3.934728503227233887e-01
2.031000000000000000e+03 7.751049041748046875e+01 -7.875564694404602051e-01 -5.930057913064956665e-02 8.020857810974121094e+00 2.388467073440551758e+00 -4.894562959671020508e-01
2.032000000000000000e+03 7.807511138916015625e+01 -2.798952293395996094e+01 -9.253033995628356934e-02 9.386281967163085938e+00 2.788125514984130859e+00 -6.205105185508728027e-01
2.033000000000000000e+03 7.726680755615234375e+01 -2.859224891662597656e+01 -1.775318980216979980e-01 9.395043373107910156e+00 2.765253305435180664e+00 -7.115665674209594727e-01
2.034000000000000000e+03 7.820370483398437500e+01 -1.125775241851806641e+01 -7.087243348360061646e-02 8.308617591857910156e+00 2.471323490142822266e+00 5.271279811859130859e-01
2.035000000000000000e+03 7.820558929443359375e+01 7.154742240905761719e+00 2.923153527081012726e-02 6.625393867492675781e+00 1.996387720108032227e+00 -3.675523400306701660e-01
2.036000000000000000e+03 7.750457763671875000e+01 6.430194377899169922e+00 4.360355809330940247e-02 6.800467491149902344e+00 2.053221464157104492e+00 -5.036309957504272461e-01
2.037000000000000000e+03 7.750900268554687500e+01 4.817755699157714844e+00 2.568495273590087891e-02 7.062629699707031250e+00 2.126494407653808594e+00 -5.411978363990783691e-01
2.038000000000000000e+03 7.751205444335937500e+01 -3.202703237533569336e+00 -1.132785007357597351e-01 8.370868682861328125e+00 2.477277040481567383e+00 -3.436735868453979492e-01
2.039000000000000000e+03 7.820709228515625000e+01 -2.466251611709594727e+00 -5.286058411002159119e-02 8.416888236999511719e+00 2.509208440780639648e+00 -3.000199496746063232e-01
2.040000000000000000e+03 7.690290069580078125e+01 -3.352700424194335938e+01 -1.312611997127532959e-01 9.658971786499023438e+00 2.858313083648681641e+00 -2.428939491510391235e-01
2.041000000000000000e+03 7.798892211914062500e+01 -3.038336563110351562e+01 -9.742149710655212402e-02 9.803463935852050781e+00 2.911812782287597656e+00 -4.125674664974212646e-01
2.042000000000000000e+03 7.820976257324218750e+01 -1.285314750671386719e+01 -7.210263051092624664e-03 7.972525119781494141e+00 2.389594316482543945e+00 5.899116992950439453e-01
2.043000000000000000e+03 7.752759552001953125e+01 -1.433868408203125000e+01 1.241843402385711670e-01 7.941022872924804688e+00 2.419562101364135742e+00 6.668213009834289551e-01
2.044000000000000000e+03 7.681604003906250000e+01 -1.506564140319824219e+01 2.682259976863861084e-01 8.151360511779785156e+00 2.525876045227050781e+00 6.661766767501831055e-01
2.045000000000000000e+03 7.526092529296875000e+01 -1.163119411468505859e+01 -3.296089768409729004e-01 8.923549652099609375e+00 2.578182220458984375e+00 8.050326704978942871e-01
2.046000000000000000e+03 7.821579742431640625e+01 -9.654913902282714844e+00 -1.076538860797882080e-01 8.574007034301757812e+00 2.539906024932861328e+00 3.836157023906707764e-01
2.047000000000000000e+03 7.601917266845703125e+01 -1.177941513061523438e+01 -2.218159139156341553e-01 8.728920936584472656e+00 2.552131414413452148e+00 8.121032118797302246e-01
2.048000000000000000e+03 7.750793457031250000e+01 -1.034156608581542969e+01 -1.687823534011840820e-01 8.535968780517578125e+00 2.510155916213989258e+00 5.459304451942443848e-01
2.049000000000000000e+03 7.752639007568359375e+01 -9.544538497924804688e+00 -1.908572763204574585e-01 8.606384277343750000e+00 2.524658203125000000e+00 4.440741539001464844e-01
2.050000000000000000e+03 7.753777313232421875e+01 -8.750412940979003906e+00 -2.053012251853942871e-01 8.652709007263183594e+00 2.534222364425659180e+00 3.279324471950531006e-01
2.051000000000000000e+03 7.821505737304687500e+01 -5.672737598419189453e+00 -9.481525421142578125e-02 8.741108894348144531e+00 2.593888044357299805e+00 -5.565380305051803589e-02
2.052000000000000000e+03 7.753661346435546875e+01 -7.176378250122070312e+00 -1.998201757669448853e-01 8.674722671508789062e+00 2.542470693588256836e+00 1.024642065167427063e-01
2.053000000000000000e+03 7.752806091308593750e+01 -6.389957427978515625e+00 -1.823253631591796875e-01 8.648971557617187500e+00 2.539993762969970703e+00 -3.226371249184012413e-03
2.054000000000000000e+03 7.682935333251953125e+01 -2.357329368591308594e+00 -1.394220441579818726e-01 8.132235527038574219e+00 2.397843837738037109e+00 -4.998114407062530518e-01
2.055000000000000000e+03 7.751230621337890625e+01 -4.005568504333496094e+00 -1.354256868362426758e-01 8.464519500732421875e+00 2.498728275299072266e+00 -2.734462618827819824e-01
2.056000000000000000e+03 7.751393890380859375e+01 -4.800732135772705078e+00 -1.507990062236785889e-01 8.543131828308105469e+00 2.517699956893920898e+00 -1.932717710733413696e-01
2.057000000000000000e+03 7.751955413818359375e+01 -5.597083568572998047e+00 -1.720517426729202271e-01 8.606921195983886719e+00 2.530460834503173828e+00 -1.020334288477897644e-01
2.058000000000000000e+03 7.820883178710937500e+01 1.541040420532226562e+00 -1.089854910969734192e-02 7.704484939575195312e+00 2.308075904846191406e+00 -4.221158623695373535e-01
2.059000000000000000e+03 7.682580566406250000e+01 -7.523943185806274414e-01 -8.598399162292480469e-02 7.905945777893066406e+00 2.345988512039184570e+00 -5.944566130638122559e-01
2.060000000000000000e+03 7.751324462890625000e+01 8.058236241340637207e-01 -3.046661242842674255e-02 7.757506370544433594e+00 2.318111896514892578e+00 -5.381845235824584961e-01
2.061000000000000000e+03 7.751066589355468750e+01 2.418560028076171875e+00 -6.310036405920982361e-03 7.477222919464111328e+00 2.241273880004882812e+00 -5.587398409843444824e-01
2.062000000000000000e+03 7.751166534423828125e+01 9.875409305095672607e-03 -4.209820926189422607e-02 7.891471385955810547e+00 2.354811906814575195e+00 -5.175352096557617188e-01
2.063000000000000000e+03 7.819467163085937500e+01 -1.996091842651367188e+01 1.779348552227020264e-01 7.344991683959960938e+00 2.256877899169921875e+00 -3.336504101753234863e-01
2.064000000000000000e+03 7.745153045654296875e+01 -2.057785987854003906e+01 2.949477434158325195e-01 7.849783897399902344e+00 2.443419456481933594e+00 -5.519564747810363770e-01
2.065000000000000000e+03 7.750660705566406250e+01 5.623053073883056641e+00 3.259106725454330444e-02 6.929866313934326172e+00 2.088737249374389648e+00 -5.262343883514404297e-01
2.066000000000000000e+03 7.751035308837890625e+01 4.018608570098876953e+00 1.406681910157203674e-02 7.199450492858886719e+00 2.164055347442626953e+00 -5.532729625701904297e-01
2.067000000000000000e+03 7.821208953857421875e+01 -1.915950965881347656e+01 1.899570375680923462e-01 7.246205806732177734e+00 2.230848789215087891e+00 -1.927154958248138428e-01
2.068000000000000000e+03 7.621067810058593750e+01 -1.937584686279296875e+01 6.376349925994873047e-01 8.356757164001464844e+00 2.698317766189575195e+00 -3.893697261810302734e-01
2.069000000000000000e+03 7.753662872314453125e+01 -1.819288825988769531e+01 3.406986296176910400e-01 7.612466812133789062e+00 2.385949611663818359e+00 -2.199228666722774506e-02
2.070000000000000000e+03 7.749969482421875000e+01 -1.976786994934082031e+01 3.145748674869537354e-01 7.723704338073730469e+00 2.411483764648437500e+00 -3.769303560256958008e-01
2.071000000000000000e+03 7.820036315917968750e+01 8.759690284729003906e+00 3.758415579795837402e-02 6.368892669677734375e+00 1.921943068504333496e+00 -3.170844614505767822e-01
2.072000000000000000e+03 7.750371551513671875e+01 7.226724624633789062e+00 4.953768849372863770e-02 6.680054664611816406e+00 2.018877744674682617e+00 -4.781323075294494629e-01
2.073000000000000000e+03 7.824175262451171875e+01 -1.680136299133300781e+01 1.669805645942687988e-01 7.237306118011474609e+00 2.221286058425903320e+00 2.403260469436645508e-01
2.074000000000000000e+03 7.756190490722656250e+01 -1.665546035766601562e+01 2.991932928562164307e-01 7.648762702941894531e+00 2.384386777877807617e+00 3.230201601982116699e-01
2.075000000000000000e+03 7.750155639648437500e+01 8.023503303527832031e+00 5.972509086132049561e-02 6.564778327941894531e+00 1.987351059913635254e+00 -4.461261034011840820e-01
2.076000000000000000e+03 7.819433593750000000e+01 1.116800880432128906e+01 4.398686438798904419e-02 6.066967487335205078e+00 1.833286285400390625e+00 -2.191579043865203857e-01
2.077000000000000000e+03 7.748004913330078125e+01 1.284029197692871094e+01 9.156799316406250000e-02 6.076870441436767578e+00 1.850531578063964844e+00 -1.848873049020767212e-01
2.078000000000000000e+03 7.748715209960937500e+01 1.123943233489990234e+01 8.466704934835433960e-02 6.195531845092773438e+00 1.884059667587280273e+00 -2.833251059055328369e-01
2.079000000000000000e+03 7.816062927246093750e+01 1.597796821594238281e+01 4.973601549863815308e-02 5.831549167633056641e+00 1.764385581016540527e+00 2.068422362208366394e-02
2.080000000000000000e+03 7.809963989257812500e+01 2.243375396728515625e+01 7.871837355196475983e-03 6.217063903808593750e+00 1.867480635643005371e+00 2.346711158752441406e-01
2.081000000000000000e+03 7.812205505371093750e+01 -2.639694404602050781e+01 -6.306987255811691284e-02 8.994777679443359375e+00 2.679512262344360352e+00 -7.207443714141845703e-01
2.082000000000000000e+03 7.632731628417968750e+01 -3.000181961059570312e+01 -2.789395451545715332e-01 9.367034912109375000e+00 2.726428508758544922e+00 -6.181563735008239746e-01
2.083000000000000000e+03 7.738661193847656250e+01 1.769154739379882812e+01 8.192889392375946045e-02 6.024495601654052734e+00 1.831927299499511719e+00 1.267885416746139526e-01
2.084000000000000000e+03 7.746189117431640625e+01 1.522880744934082031e+01 9.297491610050201416e-02 5.991784572601318359e+00 1.825427889823913574e+00 -2.857835218310356140e-02
2.085000000000000000e+03 7.743956756591796875e+01 1.603793144226074219e+01 9.454916417598724365e-02 5.989758968353271484e+00 1.825292468070983887e+00 2.433472126722335815e-02
2.086000000000000000e+03 7.738649749755859375e+01 2.016667556762695312e+01 5.121679604053497314e-02 6.139124393463134766e+00 1.857102274894714355e+00 2.434837967157363892e-01
2.087000000000000000e+03 7.738542175292968750e+01 1.934710502624511719e+01 6.485906988382339478e-02 6.090987205505371094e+00 1.846753835678100586e+00 2.083102613687515259e-01
2.088000000000000000e+03 7.808312988281250000e+01 2.322902297973632812e+01 3.943829797208309174e-03 6.294275283813476562e+00 1.889465689659118652e+00 2.385040819644927979e-01
2.089000000000000000e+03 7.735640716552734375e+01 2.175469779968261719e+01 2.531787194311618805e-02 6.248384475708007812e+00 1.882110714912414551e+00 2.867144346237182617e-01
2.090000000000000000e+03 7.803286743164062500e+01 2.485083007812500000e+01 -7.351826410740613937e-03 6.450590610504150391e+00 1.932971596717834473e+00 2.403908520936965942e-01
2.091000000000000000e+03 7.644806671142578125e+01 2.581936073303222656e+01 -4.007882997393608093e-02 6.582119464874267578e+00 1.962612152099609375e+00 3.437569737434387207e-01
2.092000000000000000e+03 7.742768859863281250e+01 -2.464955329895019531e+01 -7.976723281899467111e-05 8.655039787292480469e+00 2.596487998962402344e+00 -9.518970251083374023e-01
2.093000000000000000e+03 7.738400268554687500e+01 -2.622056007385253906e+01 -9.182294458150863647e-02 8.988942146301269531e+00 2.669135808944702148e+00 -9.078443050384521484e-01
2.094000000000000000e+03 7.734709930419921875e+01 -2.701444816589355469e+01 -1.399386823177337646e-01 9.156692504882812500e+00 2.705026149749755859e+00 -8.518892526626586914e-01
2.095000000000000000e+03 7.744536590576171875e+01 -2.384714889526367188e+01 5.103174224495887756e-02 8.478534698486328125e+00 2.558869838714599609e+00 -9.400302767753601074e-01
2.096000000000000000e+03 7.740386962890625000e+01 -2.543370437622070312e+01 -5.453307926654815674e-02 8.827630996704101562e+00 2.631929397583007812e+00 -9.388787746429443359e-01
2.097000000000000000e+03 7.738018798828125000e+01 1.851940917968750000e+01 7.151804864406585693e-02 6.054745197296142578e+00 1.837878942489624023e+00 1.703870594501495361e-01
2.098000000000000000e+03 7.726255035400390625e+01 2.494030570983886719e+01 -1.537381205707788467e-02 6.492946624755859375e+00 1.943271875381469727e+00 3.056176304817199707e-01
2.099000000000000000e+03 7.703549194335937500e+01 2.753290939331054688e+01 -4.277089610695838928e-02 6.670458793640136719e+00 1.988306283950805664e+00 2.708713412284851074e-01
2.100000000000000000e+03 7.658013916015625000e+01 -3.525524520874023438e+01 -1.001254022121429443e-01 9.541110992431640625e+00 2.832295656204223633e+00 -1.258536577224731445e-01
2.101000000000000000e+03 7.720635223388671875e+01 2.577638626098632812e+01 -2.430346235632896423e-02 6.556929588317871094e+00 1.959787845611572266e+00 2.968963086605072021e-01
2.102000000000000000e+03 7.710063171386718750e+01 -3.181850814819335938e+01 -1.623081713914871216e-01 9.671410560607910156e+00 2.852730751037597656e+00 -3.743880987167358398e-01
2.103000000000000000e+03 7.496135711669921875e+01 -3.405127334594726562e+01 -2.659206688404083252e-01 8.880575180053710938e+00 2.584396362304687500e+00 -1.661400645971298218e-01
2.104000000000000000e+03 7.795702362060546875e+01 -3.119223785400390625e+01 -8.983125537633895874e-02 9.896169662475585938e+00 2.941901445388793945e+00 -3.611102104187011719e-01
2.105000000000000000e+03 7.715000915527343750e+01 -3.100594329833984375e+01 -1.733601838350296021e-01 9.639439582824707031e+00 2.839823722839355469e+00 -4.408527612686157227e-01
2.106000000000000000e+03 7.705898284912109375e+01 -3.438754653930664062e+01 -1.099443882703781128e-01 9.758378982543945312e+00 2.894530296325683594e+00 -1.629892587661743164e-01
2.107000000000000000e+03 7.704326629638671875e+01 3.486779403686523438e+01 -3.587228804826736450e-02 6.927479267120361328e+00 2.067481994628906250e+00 8.196783065795898438e-02
2.108000000000000000e+03 7.681548309326171875e+01 3.228168487548828125e+01 -5.729111284017562866e-02 6.850049018859863281e+00 2.037827253341674805e+00 1.500777155160903931e-01
2.109000000000000000e+03 7.723976898193359375e+01 3.308675765991210938e+01 -3.590596094727516174e-02 6.913829326629638672e+00 2.063376903533935547e+00 1.154103204607963562e-01
2.110000000000000000e+03 7.711130523681640625e+01 3.394932174682617188e+01 -3.236250951886177063e-02 6.931112766265869141e+00 2.069625139236450195e+00 9.899559617042541504e-02
2.111000000000000000e+03 4.690021514892578125e+01 1.927197265625000000e+01 3.284170925617218018e-01 1.644036889076232910e+00 5.917361974716186523e-01 1.147549510002136230e+00
2.112000000000000000e+03 7.698595428466796875e+01 -3.824216842651367188e+01 -2.319183014333248138e-02 9.637998580932617188e+00 2.884441852569580078e+00 -7.496561110019683838e-02
2.113000000000000000e+03 7.589570617675781250e+01 -3.781868743896484375e+01 -2.818611636757850647e-02 9.125358581542968750e+00 2.729151964187622070e+00 4.321336280554533005e-03
2.114000000000000000e+03 7.675457000732421875e+01 -3.629987335205078125e+01 -4.828184098005294800e-02 9.599861145019531250e+00 2.865473985671997070e+00 -8.788651227951049805e-02
2.115000000000000000e+03 7.576219177246093750e+01 3.717091369628906250e+01 -5.126484856009483337e-02 6.816400527954101562e+00 2.029540777206420898e+00 5.114860832691192627e-02
2.116000000000000000e+03 1.504534244537353516e+01 -3.801951169967651367e+00 -5.919620990753173828e-01 4.059027731418609619e-01 -5.581780150532722473e-02 2.556565105915069580e-01
2.117000000000000000e+03 1.665660667419433594e+01 -3.716609239578247070e+00 -4.935287535190582275e-01 4.416852295398712158e-01 -1.555305626243352890e-02 5.462667942047119141e-01
2.118000000000000000e+03 2.626044845581054688e+01 -1.896357059478759766e+00 1.705430746078491211e+00 -9.439656883478164673e-02 4.833102524280548096e-01 1.242725133895874023e+00
2.119000000000000000e+03 4.304010772705078125e+01 -2.190017127990722656e+01 1.588792681694030762e+00 9.609120368957519531e+00 3.359373807907104492e+00 -1.041880369186401367e+00
2.120000000000000000e+03 4.347985076904296875e+01 -2.291744422912597656e+01 1.744148373603820801e+00 9.931613922119140625e+00 3.502728462219238281e+00 -1.458030462265014648e+00
2.121000000000000000e+03 2.532500267028808594e+00 2.420460700988769531e+01 -1.042592339217662811e-02 -7.700018584728240967e-02 -2.622783184051513672e-02 5.925440788269042969e-02
2.122000000000000000e+03 3.763095855712890625e+00 3.748989105224609375e+01 1.735039986670017242e-02 -2.563602626323699951e-01 -7.170295715332031250e-02 5.120337009429931641e-02
2.123000000000000000e+03 2.959267616271972656e+00 -2.851589012145996094e+01 -5.208090692758560181e-02 2.202256396412849426e-02 -9.017502889037132263e-03 3.613473773002624512e-01
2.124000000000000000e+03 1.865997314453125000e+00 -2.276083564758300781e+01 1.255668979138135910e-02 -8.518976569175720215e-01 -2.518022954463958740e-01 3.038423359394073486e-01
2.125000000000000000e+03 2.573021650314331055e+00 -2.112649917602539062e+01 4.858341813087463379e-02 -8.291891217231750488e-01 -2.341817170381546021e-01 3.505264818668365479e-01
2.126000000000000000e+03 1.813108682632446289e+00 -1.633070755004882812e+01 6.030396744608879089e-02 -1.447793960571289062e+00 -4.162469804286956787e-01 4.741955548524856567e-02
2.127000000000000000e+03 2.516878128051757812e+00 -1.469366264343261719e+01 1.089822202920913696e-01 -1.192921638488769531e+00 -3.251818120479583740e-01 -6.254948675632476807e-02
2.128000000000000000e+03 2.512415409088134766e+00 -1.388987159729003906e+01 1.064981892704963684e-01 -1.179529666900634766e+00 -3.219094574451446533e-01 -1.241893917322158813e-01
2.129000000000000000e+03 3.102257013320922852e+00 -3.594572830200195312e+01 -4.959482699632644653e-02 4.541108310222625732e-01 1.213548034429550171e-01 1.281772255897521973e-01
2.130000000000000000e+03 2.133523225784301758e+00 -3.256950378417968750e+01 -2.753590419888496399e-02 2.624686956405639648e-01 7.047984004020690918e-02 1.749441921710968018e-01
2.131000000000000000e+03 1.777104973793029785e+00 1.942477798461914062e+01 -4.528593737632036209e-03 -1.506433077156543732e-02 -5.877877585589885712e-03 1.625085808336734772e-02
2.132000000000000000e+03 2.502861022949218750e+00 2.098052406311035156e+01 -1.128773111850023270e-02 -2.972722612321376801e-02 -1.230448763817548752e-02 3.330479562282562256e-02
2.133000000000000000e+03 2.463456392288208008e+00 1.378745174407958984e+01 -1.486072083935141563e-03 2.006565919145941734e-03 1.561481331009417772e-04 -3.593771834857761860e-04
2.134000000000000000e+03 2.460203647613525391e+00 1.538284301757812500e+01 -3.154351841658353806e-03 3.812712675426155329e-04 -8.319241460412740707e-04 2.773316111415624619e-03
2.135000000000000000e+03 1.767255306243896484e+00 1.300924777984619141e+01 -3.654508909676223993e-04 4.831378348171710968e-03 1.339778304100036621e-03 -1.300888834521174431e-03
2.136000000000000000e+03 2.497065544128417969e+00 1.937486076354980469e+01 -9.664432145655155182e-03 -1.553008239716291428e-02 -7.558354642242193222e-03 2.175554633140563965e-02
2.137000000000000000e+03 1.781145453453063965e+00 2.022864151000976562e+01 -5.952151492238044739e-03 -2.240082621574401855e-02 -8.505892939865589142e-03 2.071995660662651062e-02
2.138000000000000000e+03 2.503832101821899414e+00 2.017844390869140625e+01 -9.575495496392250061e-03 -2.233361825346946716e-02 -9.572734124958515167e-03 2.725435607135295868e-02
2.139000000000000000e+03 3.229494810104370117e+00 1.932966232299804688e+01 -1.404106337577104568e-02 -1.461718510836362839e-02 -8.597474545240402222e-03 2.607045322656631470e-02
2.140000000000000000e+03 3.249760866165161133e+00 1.056954860687255859e+01 -1.908079575514420867e-04 5.829983856528997421e-04 1.176571240648627281e-04 -2.222896087914705276e-03
2.141000000000000000e+03 2.467705488204956055e+00 1.698543357849121094e+01 -5.342532880604267120e-03 -3.407086245715618134e-03 -2.624885877594351768e-03 8.269337005913257599e-03
2.142000000000000000e+03 1.762589573860168457e+00 1.621857452392578125e+01 -2.150038024410605431e-03 1.613059313967823982e-03 -1.610936451470479369e-04 3.628150327131152153e-03
2.143000000000000000e+03 2.555183649063110352e+00 9.746501922607421875e+00 7.380118040600791574e-05 1.915118889883160591e-03 5.966760218143463135e-04 -2.184010110795497894e-03
2.144000000000000000e+03 2.528502941131591797e+00 -8.305274963378906250e+00 2.821254543960094452e-02 -7.482323646545410156e-01 -2.160059362649917603e-01 -4.187092483043670654e-01
2.145000000000000000e+03 1.803669571876525879e+00 -9.101815223693847656e+00 2.480616606771945953e-02 -9.923760890960693359e-01 -2.902709841728210449e-01 -3.128606677055358887e-01
2.146000000000000000e+03 3.194170236587524414e+00 -9.866895675659179688e+00 9.008068591356277466e-02 -7.562998533248901367e-01 -1.998657435178756714e-01 -4.295568168163299561e-01
2.147000000000000000e+03 1.819960474967956543e+00 -1.793946075439453125e+01 5.332177877426147461e-02 -1.373362183570861816e+00 -3.960121273994445801e-01 1.383846104145050049e-01
2.148000000000000000e+03 2.523475885391235352e+00 -1.630087852478027344e+01 1.074168607592582703e-01 -1.177891016006469727e+00 -3.211422264575958252e-01 6.303170323371887207e-02
2.149000000000000000e+03 3.228140592575073242e+00 -1.707153320312500000e+01 1.579647660255432129e-01 -9.026859998703002930e-01 -2.234163731336593628e-01 1.495980620384216309e-01
2.150000000000000000e+03 2.603109836578369141e+00 8.106269836425781250e+00 2.838497457560151815e-04 1.411601784639060497e-03 5.086354794912040234e-04 -1.994950696825981140e-03
2.151000000000000000e+03 1.840120673179626465e+00 2.746366882324218750e+01 -1.211553346365690231e-03 -1.637393683195114136e-01 -4.948527738451957703e-02 5.786013975739479065e-02
2.152000000000000000e+03 2.576004505157470703e+00 2.822580146789550781e+01 -1.016580848954617977e-03 -1.629475057125091553e-01 -4.918922856450080872e-02 7.763817906379699707e-02
2.153000000000000000e+03 2.497299671173095703e+00 -9.885900497436523438e+00 5.843016505241394043e-02 -9.202724099159240723e-01 -2.585526704788208008e-01 -3.676007091999053955e-01
2.154000000000000000e+03 2.505705833435058594e+00 -9.095209121704101562e+00 4.485443234443664551e-02 -8.388342261314392090e-01 -2.381939440965652466e-01 -3.966540992259979248e-01
2.155000000000000000e+03 2.497590780258178711e+00 -1.068167591094970703e+01 7.280471175909042358e-02 -9.946079850196838379e-01 -2.765409946441650391e-01 -3.310525715351104736e-01
2.156000000000000000e+03 2.527712821960449219e+00 -1.710494995117187500e+01 1.036923751235008240e-01 -1.150341629981994629e+00 -3.139947652816772461e-01 1.228878721594810486e-01
2.157000000000000000e+03 2.520484685897827148e+00 -1.549725055694580078e+01 1.112211123108863831e-01 -1.193306326866149902e+00 -3.246255517005920410e-01 4.736464761663228273e-04
2.158000000000000000e+03 4.109461784362792969e+00 -4.780751228332519531e+00 -1.411001533269882202e-01 -2.361814081668853760e-01 -1.131844744086265564e-01 -5.185009241104125977e-01
2.159000000000000000e+03 1.881355881690979004e+00 5.719195842742919922e+00 1.558454823680222034e-04 1.324019045569002628e-03 4.439593467395752668e-04 -1.189484260976314545e-03
2.160000000000000000e+03 3.345509767532348633e+00 2.740610694885253906e+01 -4.769188351929187775e-03 -1.238907352089881897e-01 -3.859797492623329163e-02 9.310697019100189209e-02
2.161000000000000000e+03 2.586807727813720703e+00 2.742417144775390625e+01 -4.121061880141496658e-03 -1.439110934734344482e-01 -4.440964385867118835e-02 7.635293155908584595e-02
2.162000000000000000e+03 2.558032751083374023e+00 2.500834846496582031e+01 -8.284196257591247559e-03 -9.222719073295593262e-02 -3.015341609716415405e-02 6.501772999763488770e-02
2.163000000000000000e+03 2.576619148254394531e+00 2.581206893920898438e+01 -7.844177074730396271e-03 -1.082114875316619873e-01 -3.481670096516609192e-02 7.004329562187194824e-02
2.164000000000000000e+03 2.586440324783325195e+00 2.661855506896972656e+01 -4.746579565107822418e-03 -1.259023696184158325e-01 -3.919468447566032410e-02 7.383636385202407837e-02
2.165000000000000000e+03 1.897988677024841309e+00 -5.834222793579101562e+00 -2.046144381165504456e-02 -5.284649729728698730e-01 -1.646779179573059082e-01 -3.372670710086822510e-01
2.166000000000000000e+03 1.889593124389648438e+00 -6.659793853759765625e+00 -7.244469597935676575e-03 -6.393371224403381348e-01 -1.939744651317596436e-01 -3.458249866962432861e-01
2.167000000000000000e+03 1.902962684631347656e+00 -2.437327957153320312e+01 -1.474903663620352745e-03 -6.263822317123413086e-01 -1.883571296930313110e-01 3.166187405586242676e-01
2.168000000000000000e+03 2.596784591674804688e+00 -2.272183036804199219e+01 2.190499380230903625e-02 -6.508211493492126465e-01 -1.886748373508453369e-01 3.925092816352844238e-01
2.169000000000000000e+03 1.806779742240905762e+00 2.425243186950683594e+01 -4.868697375059127808e-03 -8.629576116800308228e-02 -2.734933607280254364e-02 4.515545815229415894e-02
2.170000000000000000e+03 5.220531940460205078e+00 3.598441839218139648e+00 1.009916537441313267e-03 -3.300315293017774820e-04 2.039654937107115984e-04 -9.162236237898468971e-04
2.171000000000000000e+03 1.884289622306823730e+00 4.155185699462890625e+00 1.627344609005376697e-04 7.852048147469758987e-04 2.843817928805947304e-04 -8.356239413842558861e-04
2.172000000000000000e+03 3.501127481460571289e+00 3.381337642669677734e+00 6.394109805114567280e-04 1.571587927173823118e-04 2.389709261478856206e-04 -9.762474801391363144e-04
2.173000000000000000e+03 1.887555599212646484e+00 6.514294624328613281e+00 3.379172412678599358e-04 1.634445157833397388e-03 5.917086964473128319e-04 -1.351307262666523457e-03
2.174000000000000000e+03 1.795153021812438965e+00 2.344448852539062500e+01 -6.337338592857122421e-03 -6.982971727848052979e-02 -2.285011671483516693e-02 4.032130539417266846e-02
2.175000000000000000e+03 2.495442390441894531e+00 2.258557510375976562e+01 -1.170122716575860977e-02 -5.001438036561012268e-02 -1.851468160748481750e-02 4.605524986982345581e-02
2.176000000000000000e+03 2.757226705551147461e+00 -2.595662879943847656e+01 -2.686472609639167786e-02 -2.527762055397033691e-01 -8.389227837324142456e-02 4.054240882396697998e-01
2.177000000000000000e+03 2.616338014602661133e+00 -2.352122497558593750e+01 1.031557470560073853e-02 -5.562179684638977051e-01 -1.637707203626632690e-01 4.033213257789611816e-01
2.178000000000000000e+03 2.584441661834716797e+00 -2.192497634887695312e+01 3.616214916110038757e-02 -7.426050901412963867e-01 -2.119328826665878296e-01 3.748086094856262207e-01
2.179000000000000000e+03 2.920423030853271484e+00 -2.764529800415039062e+01 -4.765778779983520508e-02 -5.839996412396430969e-02 -3.181732445955276489e-02 3.807418346405029297e-01
2.180000000000000000e+03 2.840370893478393555e+00 -2.679047584533691406e+01 -3.635878860950469971e-02 -1.497019082307815552e-01 -5.581821128726005554e-02 3.969353735446929932e-01
2.181000000000000000e+03 2.156121492385864258e+00 -3.179477882385253906e+01 -3.238849714398384094e-02 2.117374688386917114e-01 5.380469188094139099e-02 1.941255480051040649e-01
2.182000000000000000e+03 3.019475460052490234e+00 -3.025391960144042969e+01 -6.046457588672637939e-02 1.703521758317947388e-01 3.296627849340438843e-02 3.045700192451477051e-01
2.183000000000000000e+03 2.074625253677368164e+00 3.370830154418945312e+01 4.798898473381996155e-03 -3.096842169761657715e-01 -9.146559238433837891e-02 5.416249483823776245e-02
2.184000000000000000e+03 3.023392677307128906e+00 3.431830596923828125e+01 9.082922711968421936e-03 -2.670575976371765137e-01 -7.739239931106567383e-02 6.775943934917449951e-02
2.185000000000000000e+03 3.063549518585205078e+00 -3.109906959533691406e+01 -6.278923153877258301e-02 2.279988229274749756e-01 4.956287518143653870e-02 2.767063379287719727e-01
2.186000000000000000e+03 2.109329462051391602e+00 -3.334592056274414062e+01 -3.130871430039405823e-02 3.146531581878662109e-01 8.500333130359649658e-02 1.550033837556838989e-01
2.187000000000000000e+03 3.980703353881835938e+00 -3.119867515563964844e+01 -9.585663676261901855e-02 3.118287622928619385e-01 6.479164212942123413e-02 3.214685916900634766e-01
2.188000000000000000e+03 2.939353942871093750e+00 -3.343865585327148438e+01 -4.653386399149894714e-02 3.405069112777709961e-01 8.819191157817840576e-02 1.974637061357498169e-01
2.189000000000000000e+03 1.916206002235412598e+00 3.214360046386718750e+01 3.854378592222929001e-03 -2.838627696037292480e-01 -8.400250971317291260e-02 5.594588071107864380e-02
2.190000000000000000e+03 2.834418058395385742e+00 3.351030349731445312e+01 5.216384306550025940e-03 -2.630102336406707764e-01 -7.733815908432006836e-02 6.914056092500686646e-02
2.191000000000000000e+03 4.409246444702148438e+00 3.006625556945800781e+01 3.001175587996840477e-03 -1.373127847909927368e-01 -4.029348120093345642e-02 1.102186664938926697e-01
2.192000000000000000e+03 4.013364315032958984e+00 -3.542840194702148438e+01 -7.294292747974395752e-02 4.572594165802001953e-01 1.152949482202529907e-01 1.690279841423034668e-01
2.193000000000000000e+03 3.083069086074829102e+00 -3.500501632690429688e+01 -4.657195508480072021e-02 4.138318896293640137e-01 1.101779788732528687e-01 1.602454483509063721e-01
2.194000000000000000e+03 2.517247676849365234e+00 2.979008102416992188e+01 2.168042352423071861e-03 -2.018230855464935303e-01 -5.989651381969451904e-02 7.543626427650451660e-02
2.195000000000000000e+03 3.028787374496459961e+00 -3.416992950439453125e+01 -5.185110867023468018e-02 3.840467929840087891e-01 9.965870529413223267e-02 1.772624701261520386e-01
2.196000000000000000e+03 1.861629962921142578e+00 3.138558959960937500e+01 1.324702869169414043e-03 -2.675507366657257080e-01 -7.986781001091003418e-02 5.656071379780769348e-02
2.197000000000000000e+03 6.080956268310546875e+01 2.633542299270629883e+00 7.321704030036926270e-01 4.707659721374511719e+00 1.631949067115783691e+00 1.434009909629821777e+00
2.198000000000000000e+03 6.344050598144531250e+01 1.338008403778076172e+01 5.898786187171936035e-01 1.041728019714355469e+01 3.302147865295410156e+00 5.499753728508949280e-02
2.199000000000000000e+03 6.416475677490234375e+01 1.395555019378662109e+01 7.577919363975524902e-01 9.935234069824218750e+00 3.207907676696777344e+00 -2.291991859674453735e-01
2.200000000000000000e+03 2.757256698608398438e+01 2.261053657531738281e+01 9.717417955398559570e-01 2.066110610961914062e+00 9.113556742668151855e-01 -1.794896841049194336e+00
2.201000000000000000e+03 3.299514389038085938e+01 1.334599113464355469e+01 9.897921681404113770e-01 1.103982925415039062e+01 3.608886480331420898e+00 -2.490599393844604492e+00
2.202000000000000000e+03 3.015083312988281250e+00 -3.848331451416015625e+01 -3.561515361070632935e-02 5.101311802864074707e-01 1.423548012971878052e-01 6.484007835388183594e-02
2.203000000000000000e+03 4.099175453186035156e+00 -3.749773788452148438e+01 -6.205198168754577637e-02 4.942885339260101318e-01 1.296709626913070679e-01 1.111708953976631165e-01
2.204000000000000000e+03 3.315782928466796875e+01 -8.366576194763183594e+00 -3.087954044342041016e+00 5.384051322937011719e+00 6.888293027877807617e-01 -9.735963344573974609e-01
2.205000000000000000e+03 5.224864196777343750e+01 -1.386542224884033203e+01 -2.619846165180206299e-01 2.206372767686843872e-01 -1.240420434623956680e-02 7.593359947204589844e-01
2.206000000000000000e+03 5.373279571533203125e+01 -1.358839416503906250e+01 -8.430011868476867676e-01 2.083044499158859253e-01 -1.904090195894241333e-01 6.400700807571411133e-01
2.207000000000000000e+03 6.437749481201171875e+01 -2.845474624633789062e+01 -8.655737638473510742e-01 2.146961927413940430e+00 3.844164609909057617e-01 6.882932782173156738e-01
2.208000000000000000e+03 6.560108184814453125e+01 -2.833826637268066406e+01 -7.826641798019409180e-01 3.548197031021118164e+00 8.296598792076110840e-01 9.950989484786987305e-01
2.209000000000000000e+03 5.934673309326171875e+01 5.961688160896301270e-01 1.005988717079162598e+00 3.246130943298339844e+00 1.275635838508605957e+00 1.524989962577819824e+00
2.210000000000000000e+03 5.745359420776367188e+01 -8.647626042366027832e-01 1.372757434844970703e+00 2.436704635620117188e+00 1.142838597297668457e+00 1.551276445388793945e+00
2.211000000000000000e+03 3.445720291137695312e+01 -2.795879936218261719e+01 2.188320308923721313e-01 4.532060623168945312e+00 1.425267815589904785e+00 1.433375716209411621e+00
2.212000000000000000e+03 3.421982955932617188e+01 1.690041732788085938e+01 8.760404586791992188e-01 8.539499282836914062e+00 2.824661970138549805e+00 -1.414016485214233398e+00
2.213000000000000000e+03 3.203049850463867188e+01 2.024897193908691406e+01 1.120293974876403809e+00 6.684151649475097656e+00 2.341333627700805664e+00 -1.596069216728210449e+00
2.214000000000000000e+03 4.505248641967773438e+01 1.766342735290527344e+01 9.060100317001342773e-01 2.369689226150512695e+00 9.827098250389099121e-01 1.586902976036071777e+00
2.215000000000000000e+03 4.386959838867187500e+01 1.765217781066894531e+01 8.184645175933837891e-01 3.275902271270751953e+00 1.228310108184814453e+00 1.816863536834716797e+00
2.216000000000000000e+03 5.591510391235351562e+01 -1.255065155029296875e+01 -1.364957213401794434e+00 3.864660859107971191e-01 -2.935473322868347168e-01 5.768923163414001465e-01
2.217000000000000000e+03 6.031723022460937500e+01 1.927823185920715332e+00 8.081707954406738281e-01 4.147349357604980469e+00 1.486655950546264648e+00 1.491053462028503418e+00
2.218000000000000000e+03 2.490762138366699219e+01 -8.482818603515625000e+00 -1.814101040363311768e-01 5.310611128807067871e-01 1.048953086137771606e-01 7.570530772209167480e-01
2.219000000000000000e+03 2.608336639404296875e+01 -4.430531501770019531e+00 6.215348243713378906e-01 2.032911926507949829e-01 2.474478036165237427e-01 1.881757855415344238e+00
2.220000000000000000e+03 6.787003326416015625e+01 -2.559140205383300781e+01 -4.275955855846405029e-01 7.092684268951416016e+00 1.999526619911193848e+00 1.475735664367675781e+00
2.221000000000000000e+03 1.150700664520263672e+01 -1.888373184204101562e+01 6.772484183311462402e-01 2.259140491485595703e+00 8.809166550636291504e-01 5.724804401397705078e-01
2.222000000000000000e+03 5.746168899536132812e+01 -1.979386806488037109e+00 1.262391567230224609e+00 2.273489713668823242e+00 1.060764431953430176e+00 1.376199483871459961e+00
2.223000000000000000e+03 6.172738265991210938e+01 4.153138160705566406e+00 7.609232068061828613e-01 5.880884647369384766e+00 1.992542386054992676e+00 1.246908187866210938e+00
2.224000000000000000e+03 4.780081176757812500e+01 -8.423389434814453125e+00 -5.044500827789306641e-01 8.961221575736999512e-01 1.175016313791275024e-01 1.163563370704650879e+00
2.225000000000000000e+03 3.251840972900390625e+01 -7.681860446929931641e+00 -2.873230218887329102e+00 4.199709415435791016e+00 3.979437947273254395e-01 -1.038041949272155762e+00
2.226000000000000000e+03 1.416771888732910156e+01 -1.392986869812011719e+01 1.659533619880676270e+00 3.354036331176757812e+00 1.504070997238159180e+00 1.177256941795349121e+00
2.227000000000000000e+03 1.877877044677734375e+01 4.065311908721923828e+00 3.831247795460512862e-06 -5.119413344800705090e-06 -3.864496136429806938e-07 2.838272848748601973e-05
2.228000000000000000e+03 3.455306625366210938e+01 8.785786628723144531e+00 8.313873410224914551e-01 1.345727729797363281e+01 4.286599636077880859e+00 -1.027611613273620605e+00
2.229000000000000000e+03 3.911319732666015625e+01 1.056443309783935547e+01 1.520672678947448730e+00 1.198336124420166016e+01 4.051209926605224609e+00 2.295076847076416016e+00
2.230000000000000000e+03 3.780265426635742188e+01 1.270865249633789062e+01 8.463401794433593750e-01 1.031642436981201172e+01 3.348829269409179688e+00 5.951871275901794434e-01
2.231000000000000000e+03 5.272795486450195312e+01 2.228508567810058594e+01 -9.521552324295043945e-01 3.216436505317687988e-01 -1.891534626483917236e-01 2.964172065258026123e-01
2.232000000000000000e+03 6.188471221923828125e+01 -3.148463821411132812e+01 -8.740311264991760254e-01 9.971129298210144043e-01 3.692455589771270752e-02 4.053373336791992188e-01
2.233000000000000000e+03 2.508904075622558594e+01 2.450738906860351562e+01 3.518766462802886963e-01 9.803162217140197754e-01 3.996578454971313477e-01 -1.027020215988159180e+00
2.234000000000000000e+03 4.052703857421875000e+01 1.282007694244384766e+01 1.542577028274536133e+00 7.791274547576904297e+00 2.800155401229858398e+00 2.792740106582641602e+00
2.235000000000000000e+03 3.469046783447265625e+01 1.201775741577148438e+01 8.411355018615722656e-01 1.148188781738281250e+01 3.696906805038452148e+00 -1.574363946914672852e+00
2.236000000000000000e+03 3.396219635009765625e+01 -2.839280891418457031e+01 1.388262063264846802e-01 3.936543464660644531e+00 1.222610831260681152e+00 1.444213390350341797e+00
2.237000000000000000e+03 4.568843078613281250e+01 1.928965568542480469e+01 4.039936065673828125e-01 2.325875043869018555e+00 8.189606070518493652e-01 1.439290046691894531e+00
2.238000000000000000e+03 3.668062973022460938e+01 -2.018184280395507812e+01 9.810389876365661621e-01 9.938779830932617188e+00 3.275945663452148438e+00 -1.696172356605529785e-01
2.239000000000000000e+03 4.294703292846679688e+01 -1.705736923217773438e+01 1.395562767982482910e+00 7.884563922882080078e+00 2.784038066864013672e+00 -5.036192536354064941e-01
2.240000000000000000e+03 3.252317428588867188e+01 1.731262397766113281e+01 1.317848086357116699e+00 8.506424903869628906e+00 2.947282075881958008e+00 -2.375787973403930664e+00
2.241000000000000000e+03 5.741479873657226562e+01 -1.231686496734619141e+01 -1.729636907577514648e+00 4.734272956848144531e-01 -3.768628835678100586e-01 3.065268695354461670e-01
2.242000000000000000e+03 5.667622375488281250e+01 -1.244022560119628906e+01 -1.566441297531127930e+00 4.224128127098083496e-01 -3.432085216045379639e-01 4.553051590919494629e-01
2.243000000000000000e+03 1.596310806274414062e+01 -2.499087524414062500e+01 -1.236524730920791626e-01 1.178700685501098633e+00 3.165144622325897217e-01 -3.013197779655456543e-01
2.244000000000000000e+03 5.376956558227539062e+01 -3.306306838989257812e+01 -3.822482526302337646e-01 4.617506861686706543e-01 2.385072782635688782e-02 -1.016648292541503906e+00
2.245000000000000000e+03 6.431752014160156250e+01 1.541515350341796875e+01 9.962387084960937500e-01 9.784337997436523438e+00 3.234173059463500977e+00 -6.053546071052551270e-01
2.246000000000000000e+03 1.536808300018310547e+01 -2.553892517089843750e+01 -2.836987972259521484e-01 1.269528985023498535e+00 2.957490682601928711e-01 -1.846717745065689087e-01
2.247000000000000000e+03 1.724312210083007812e+01 -2.814263153076171875e+01 -5.102982521057128906e-01 7.490040063858032227e-01 7.161172479391098022e-02 -1.180284395813941956e-01
2.248000000000000000e+03 1.783299827575683594e+01 -2.873760223388671875e+01 -5.741174817085266113e-01 6.753615140914916992e-01 3.037321381270885468e-02 -1.076311096549034119e-01
2.249000000000000000e+03 3.332421064376831055e+00 7.276547431945800781e+00 4.896532627753913403e-04 4.262336296960711479e-04 2.747660619206726551e-04 -1.912710955366492271e-03
2.250000000000000000e+03 6.189826488494873047e+00 3.610060214996337891e+00 1.054491847753524780e-03 -5.695405416190624237e-04 1.454853772884234786e-04 -6.444235332310199738e-04
2.251000000000000000e+03 2.635562181472778320e+00 4.107871055603027344e+00 4.661520652007311583e-04 5.006031133234500885e-04 2.900265390053391457e-04 -1.027604681439697742e-03
2.252000000000000000e+03 8.836828231811523438e+00 3.290580749511718750e+00 1.259960117749869823e-03 -4.871589480899274349e-04 2.318403712706640363e-04 1.139055311796255410e-04
2.253000000000000000e+03 7.295059680938720703e+00 4.226319313049316406e+00 1.151296542957425117e-03 -9.653331944718956947e-04 5.578900163527578115e-05 -3.312420449219644070e-04
2.254000000000000000e+03 5.614434814453125000e+01 2.333065605163574219e+01 -4.471271634101867676e-01 3.443134427070617676e-01 -3.084411658346652985e-02 -4.822787344455718994e-01
2.255000000000000000e+03 6.400752258300781250e+01 1.160433387756347656e+01 7.348607778549194336e-01 9.546212196350097656e+00 3.084321975708007812e+00 2.280863970518112183e-01
2.256000000000000000e+03 6.407228088378906250e+01 1.241384983062744141e+01 7.066114544868469238e-01 9.734749794006347656e+00 3.132408380508422852e+00 1.207112148404121399e-01
2.257000000000000000e+03 1.536173629760742188e+01 4.507231235504150391e+00 -8.902592526283115149e-05 4.352686228230595589e-04 1.038728078128769994e-04 6.710272282361984253e-04
2.258000000000000000e+03 6.394716644287109375e+01 1.712021636962890625e+01 1.406524658203125000e+00 9.866971969604492188e+00 3.382049083709716797e+00 -9.091300964355468750e-01
2.259000000000000000e+03 1.828732490539550781e+01 -3.592573881149291992e+00 -3.380068540573120117e-01 4.363386332988739014e-01 2.949953638017177582e-02 8.073552846908569336e-01
2.260000000000000000e+03 1.910714530944824219e+01 -3.499592542648315430e+00 -2.547629475593566895e-01 4.298825860023498535e-01 5.253589525818824768e-02 9.192764163017272949e-01
2.261000000000000000e+03 3.558259201049804688e+01 -2.661606216430664062e+01 5.178211927413940430e-01 5.831700801849365234e+00 1.904856562614440918e+00 1.244642972946166992e+00
2.262000000000000000e+03 6.251622009277343750e+01 5.757558822631835938e+00 8.435450196266174316e-01 6.948860645294189453e+00 2.337721586227416992e+00 1.113916277885437012e+00
2.263000000000000000e+03 3.739350891113281250e+01 -1.940206718444824219e+01 1.109023690223693848e+00 9.723876953125000000e+00 3.249870300292968750e+00 -6.963746547698974609e-01
2.264000000000000000e+03 1.186757946014404297e+01 1.052778625488281250e+01 -3.792643547058105469e-04 -1.291910652071237564e-03 -5.013525369577109814e-04 3.144377144053578377e-03
2.265000000000000000e+03 1.379634857177734375e+01 1.246680164337158203e+01 -5.530760390684008598e-04 6.248119752854108810e-03 1.708513125777244568e-03 2.361210528761148453e-03
2.266000000000000000e+03 3.585651397705078125e+01 3.503130912780761719e+00 2.615881919860839844e+00 1.414072608947753906e+01 5.026982307434082031e+00 7.823085188865661621e-01
2.267000000000000000e+03 3.878242492675781250e+01 9.710719108581542969e+00 1.756127953529357910e+00 1.314149188995361328e+01 4.469285964965820312e+00 1.986523032188415527e+00
2.268000000000000000e+03 4.742165374755859375e+01 2.106056785583496094e+01 -8.174934238195419312e-02 1.801973819732666016e+00 5.160673260688781738e-01 1.235857129096984863e+00
2.269000000000000000e+03 3.534177017211914062e+01 -1.146670055389404297e+01 -1.651709973812103271e-01 9.052612304687500000e+00 2.666232585906982422e+00 -1.432743549346923828e+00
2.270000000000000000e+03 3.434447097778320312e+01 -8.720495223999023438e+00 -2.864393949508666992e+00 7.368048667907714844e+00 1.351096510887145996e+00 -1.075668454170227051e+00
2.271000000000000000e+03 6.403847503662109375e+01 -1.076618289947509766e+01 -2.228671550750732422e+00 -3.845850750803947449e-02 -6.801390051841735840e-01 -1.281898856163024902e+00
2.272000000000000000e+03 6.367750167846679688e+01 -1.134164619445800781e+01 -2.830712080001831055e+00 -5.614883303642272949e-01 -1.017660140991210938e+00 -9.417871236801147461e-01
2.273000000000000000e+03 1.565745353698730469e+01 -1.198239707946777344e+01 2.042960882186889648e+00 2.587930202484130859e+00 1.389267325401306152e+00 1.343182921409606934e+00
2.274000000000000000e+03 1.379126548767089844e+01 -2.496608161926269531e+01 -3.147865533828735352e-01 1.685884237289428711e+00 4.113292992115020752e-01 7.018086314201354980e-02
2.275000000000000000e+03 1.489617061614990234e+01 -2.495173835754394531e+01 -2.633883655071258545e-01 1.552954554557800293e+00 3.868698775768280029e-01 -1.711622029542922974e-01
2.276000000000000000e+03 3.176815605163574219e+01 -2.746278345584869385e-01 4.656930923461914062e+00 5.416256427764892578e+00 3.021956205368041992e+00 2.951097726821899414e+00
2.277000000000000000e+03 3.323068618774414062e+01 -1.630408614873886108e-01 2.986335754394531250e+00 8.831831932067871094e+00 3.545450210571289062e+00 2.201853036880493164e+00
2.278000000000000000e+03 1.992819404602050781e+01 -3.381809234619140625e+00 -1.371031999588012695e-01 3.911486566066741943e-01 7.621363550424575806e-02 9.983512163162231445e-01
2.279000000000000000e+03 2.813709831237792969e+01 -1.831302881240844727e+00 2.534240245819091797e+00 3.747885823249816895e-01 8.727086186408996582e-01 1.431534528732299805e+00
2.280000000000000000e+03 9.715933799743652344e+00 3.937688350677490234e+00 1.141442917287349701e-03 -5.704465438611805439e-04 1.712989178486168385e-04 4.373847332317382097e-04
2.281000000000000000e+03 1.657414054870605469e+01 7.910370349884033203e+00 -4.137711366638541222e-04 1.506479224190115929e-03 3.278124204371124506e-04 -1.343187905149534345e-04
2.282000000000000000e+03 2.830587196350097656e+01 2.269793891906738281e+01 7.967526912689208984e-01 3.098244905471801758e+00 1.168499231338500977e+00 -1.987208247184753418e+00
2.283000000000000000e+03 2.805729103088378906e+01 2.367825698852539062e+01 4.002898335456848145e-01 2.889236927032470703e+00 9.868580102920532227e-01 -1.751027584075927734e+00
2.284000000000000000e+03 2.597239303588867188e+01 2.412116050720214844e+01 4.675274193286895752e-01 1.337852716445922852e+00 5.416139960289001465e-01 -1.264369368553161621e+00
2.285000000000000000e+03 3.180997657775878906e+01 -1.263175249099731445e+00 3.154761314392089844e+00 5.474465370178222656e+00 2.588768005371093750e+00 2.182044506072998047e+00
2.286000000000000000e+03 3.819533538818359375e+01 7.098793029785156250e+00 1.576115250587463379e+00 1.535705566406250000e+01 5.079951286315917969e+00 1.597591400146484375e+00
2.287000000000000000e+03 1.208250236511230469e+01 1.790590858459472656e+01 -6.199511513113975525e-02 7.535101613029837608e-04 -1.837248168885707855e-02 -3.125316277146339417e-02
2.288000000000000000e+03 3.709197235107421875e+01 1.018982768058776855e+00 2.378336668014526367e+00 1.267581653594970703e+01 4.516245841979980469e+00 -1.065278887748718262e+00
2.289000000000000000e+03 6.365830230712890625e+01 -2.906627845764160156e+01 -1.080454349517822266e+00 1.630929350852966309e+00 1.651425063610076904e-01 5.476524233818054199e-01
2.290000000000000000e+03 6.841992950439453125e+01 -2.489497566223144531e+01 -3.013142645359039307e-01 8.365105628967285156e+00 2.419137477874755859e+00 1.314195632934570312e+00
2.291000000000000000e+03 6.834690093994140625e+01 -2.376413154602050781e+01 4.581247270107269287e-01 9.438467025756835938e+00 2.968977451324462891e+00 1.814236283302307129e+00
2.292000000000000000e+03 2.676033782958984375e+01 2.371895599365234375e+01 5.796677470207214355e-01 1.741288185119628906e+00 6.962867975234985352e-01 -1.523688554763793945e+00
2.293000000000000000e+03 3.996211242675781250e+01 1.321841812133789062e+01 1.178998231887817383e+00 8.236494064331054688e+00 2.824647665023803711e+00 2.244023799896240234e+00
2.294000000000000000e+03 2.729129409790039062e+01 -3.189512062072753906e+01 -5.166354775428771973e-01 3.310198187828063965e-01 -5.568470433354377747e-02 4.737960100173950195e-01
2.295000000000000000e+03 2.887921524047851562e+01 -3.274753952026367188e+01 -3.847113549709320068e-01 1.100810408592224121e+00 2.148296982049942017e-01 7.908995151519775391e-01
2.296000000000000000e+03 1.959541702270507812e+01 2.536441802978515625e+01 -5.201815068721771240e-02 8.931864798069000244e-02 1.119014900177717209e-02 -1.273608356714248657e-01
2.297000000000000000e+03 3.702184295654296875e+01 -1.489302444458007812e+01 1.155351996421813965e+00 9.858936309814453125e+00 3.304286479949951172e+00 -1.739467501640319824e+00
2.298000000000000000e+03 5.434394454956054688e+01 2.288950157165527344e+01 -8.224982023239135742e-01 2.720954418182373047e-01 -1.651208251714706421e-01 1.912819221615791321e-02
2.299000000000000000e+03 3.681789016723632812e+01 -1.401608085632324219e+01 1.008918046951293945e+00 9.748803138732910156e+00 3.227316379547119141e+00 -1.671133279800415039e+00
2.300000000000000000e+03 3.488282775878906250e+01 1.051470661163330078e+01 8.739349246025085449e-01 1.240587329864501953e+01 3.983942508697509766e+00 -1.252180695533752441e+00
2.301000000000000000e+03 1.796761131286621094e+01 2.448822212219238281e+01 -2.379895895719528198e-01 3.804752603173255920e-02 -5.998262017965316772e-02 2.618742641061544418e-03
2.302000000000000000e+03 1.709008026123046875e+01 2.365632629394531250e+01 -3.486444056034088135e-01 1.288451626896858215e-02 -1.007279679179191589e-01 2.484304085373878479e-02
2.303000000000000000e+03 6.313982772827148438e+01 7.395890712738037109e+00 7.589301466941833496e-01 7.928997993469238281e+00 2.606378316879272461e+00 9.111450314521789551e-01
2.304000000000000000e+03 6.339474487304687500e+01 8.243489265441894531e+00 7.550505995750427246e-01 8.377449035644531250e+00 2.739749908447265625e+00 7.740039825439453125e-01
2.305000000000000000e+03 4.744048690795898438e+01 -7.053967475891113281e+00 -1.258155941963195801e+00 3.667837977409362793e-01 -2.674116194248199463e-01 8.594694733619689941e-01
2.306000000000000000e+03 3.183913612365722656e+01 -7.065178394317626953e+00 -2.440726518630981445e+00 2.868696451187133789e+00 1.283909678459167480e-01 -5.114567279815673828e-01
2.307000000000000000e+03 1.583662891387939453e+01 -2.613259506225585938e+01 -3.241513669490814209e-01 1.141822099685668945e+00 2.453012317419052124e-01 -1.751634627580642700e-01
2.308000000000000000e+03 1.633216857910156250e+01 -2.672945594787597656e+01 -3.693597912788391113e-01 9.672217965126037598e-01 1.793586015701293945e-01 -1.501026898622512817e-01
2.309000000000000000e+03 6.499811553955078125e+01 1.751560592651367188e+01 1.438969135284423828e+00 8.754504203796386719e+00 3.058042049407958984e+00 -4.994131028652191162e-01
2.310000000000000000e+03 6.965396881103515625e+01 -2.136503791809082031e+01 1.624066114425659180e+00 1.292508316040039062e+01 4.364744663238525391e+00 8.849688768386840820e-01
2.311000000000000000e+03 5.114131164550781250e+01 2.191710090637207031e+01 -6.933795213699340820e-01 5.799353718757629395e-01 -3.403324261307716370e-02 5.525028109550476074e-01
2.312000000000000000e+03 4.924835968017578125e+01 2.217421340942382812e+01 -3.108190596103668213e-01 1.252590775489807129e+00 2.825314998626708984e-01 1.022586822509765625e+00
2.313000000000000000e+03 1.843081092834472656e+01 5.358506202697753906e+00 -4.885815360466949642e-05 4.567679134197533131e-04 1.223729195771738887e-04 4.742519013234414160e-05
2.314000000000000000e+03 1.892379570007324219e+01 4.883236885070800781e+00 -1.080846141121583059e-05 6.940738967387005687e-05 1.757967947924043983e-05 -1.650594822422135621e-05
2.315000000000000000e+03 6.361100006103515625e+01 9.096800804138183594e+00 7.653228640556335449e-01 8.716206550598144531e+00 2.844458580017089844e+00 6.231942176818847656e-01
2.316000000000000000e+03 2.938706970214843750e+01 -2.578964710235595703e+00 2.214553356170654297e+00 1.345419645309448242e+00 1.067991971969604492e+00 1.754777073860168457e+00
2.317000000000000000e+03 5.793203735351562500e+01 -1.305041193962097168e+00 1.260114908218383789e+00 2.442337274551391602e+00 1.110735654830932617e+00 1.424396038055419922e+00
2.318000000000000000e+03 7.683486175537109375e+01 -1.725997161865234375e+01 4.887318611145019531e-01 8.007556915283203125e+00 2.548886775970458984e+00 2.328813970088958740e-01
2.319000000000000000e+03 7.061054229736328125e+01 -1.867778396606445312e+01 1.983948945999145508e+00 1.348030757904052734e+01 4.639276981353759766e+00 -2.696740627288818359e-01
2.320000000000000000e+03 1.679682731628417969e+01 -2.739033889770507812e+01 -4.335699379444122314e-01 8.547266721725463867e-01 1.263470202684402466e-01 -1.216369494795799255e-01
2.321000000000000000e+03 4.964159393310546875e+01 -7.606663703918457031e+00 -7.561301589012145996e-01 3.334131538867950439e-01 -1.268150955438613892e-01 1.878664731979370117e+00
2.322000000000000000e+03 3.754780960083007812e+01 7.209733486175537109e+00 1.654853820800781250e+00 1.473379039764404297e+01 4.916593074798583984e+00 1.237084269523620605e+00
2.323000000000000000e+03 3.836150360107421875e+01 7.959973812103271484e+00 1.894785404205322266e+00 1.492943191528320312e+01 5.047265052795410156e+00 1.735056638717651367e+00
2.324000000000000000e+03 2.526880455017089844e+01 -3.657477617263793945e+00 8.179868459701538086e-01 1.225442215800285339e-01 2.821593284606933594e-01 1.678726434707641602e+00
2.325000000000000000e+03 4.048137283325195312e+01 1.391056060791015625e+01 1.186647415161132812e+00 7.225886344909667969e+00 2.523760080337524414e+00 2.307138681411743164e+00
2.326000000000000000e+03 2.086890602111816406e+01 -3.915323257446289062e+00 5.107386037707328796e-02 4.165623486042022705e-01 1.402908712625503540e-01 1.181692838668823242e+00
2.327000000000000000e+03 5.699830627441406250e+01 -2.690740585327148438e+00 1.187332749366760254e+00 2.104922771453857422e+00 9.876766800880432129e-01 1.353908777236938477e+00
2.328000000000000000e+03 2.157086181640625000e+01 -3.082472801208496094e+00 1.292663216590881348e-01 2.976316511631011963e-01 1.280693858861923218e-01 1.118027567863464355e+00
2.329000000000000000e+03 1.499164104461669922e+01 9.993996620178222656e+00 -4.623841959983110428e-04 4.174302797764539719e-03 1.113575533963739872e-03 8.451848989352583885e-04
2.330000000000000000e+03 1.442414379119873047e+01 9.609905242919921875e+00 -8.070875192061066628e-04 3.338317852467298508e-03 7.593691116198897362e-04 1.419106149114668369e-03
2.331000000000000000e+03 4.580684280395507812e+01 -1.565328311920166016e+01 1.121867179870605469e+00 5.568932056427001953e+00 2.007239818572998047e+00 1.456782341003417969e+00
2.332000000000000000e+03 4.482150268554687500e+01 -1.614043807983398438e+01 1.035045027732849121e+00 6.910543441772460938e+00 2.383676528930664062e+00 6.528431773185729980e-01
2.333000000000000000e+03 3.479460525512695312e+01 1.517745971679687500e+00 3.231548547744750977e+00 1.285363197326660156e+01 4.825553894042968750e+00 1.263329029083251953e+00
2.334000000000000000e+03 1.594172763824462891e+01 -5.088168621063232422e+00 -2.542095780372619629e-01 6.998439431190490723e-01 1.336902976036071777e-01 5.101436376571655273e-01
2.335000000000000000e+03 5.039872741699218750e+01 -3.153268432617187500e+01 -6.210149824619293213e-02 2.110195636749267578e+00 6.144282817840576172e-01 -1.843154907226562500e+00
2.336000000000000000e+03 3.696127319335937500e+01 1.883127450942993164e+00 2.502792119979858398e+00 1.322922992706298828e+01 4.719606399536132812e+00 -7.363644242286682129e-01
2.337000000000000000e+03 1.354985141754150391e+01 2.091728210449218750e+01 -2.507653236389160156e-01 5.042419582605361938e-02 -6.010233610868453979e-02 -2.813875302672386169e-02
2.338000000000000000e+03 4.332495880126953125e+01 -2.404658508300781250e+01 2.065302371978759766e+00 9.358839988708496094e+00 3.427242755889892578e+00 -1.460640668869018555e+00
2.339000000000000000e+03 3.684680557250976562e+01 2.769571065902709961e+00 2.425005435943603516e+00 1.380653381347656250e+01 4.869461536407470703e+00 -2.228408753871917725e-01
2.340000000000000000e+03 4.547375106811523438e+01 -2.798838615417480469e+01 1.310556769371032715e+00 7.811949729919433594e+00 2.736752033233642578e+00 -2.049680948257446289e+00
2.341000000000000000e+03 6.471881103515625000e+01 -1.129227733612060547e+01 -2.391165494918823242e+00 4.187911450862884521e-01 -5.917122960090637207e-01 -1.932817816734313965e+00
2.342000000000000000e+03 3.746353149414062500e+01 4.409739971160888672e+00 1.470899224281311035e+00 1.506113052368164062e+01 4.959609031677246094e+00 3.529688715934753418e-01
2.343000000000000000e+03 3.730191040039062500e+01 -1.668691062927246094e+01 1.113241791725158691e+00 9.973968505859375000e+00 3.326163053512573242e+00 -1.580561280250549316e+00
2.344000000000000000e+03 3.718867111206054688e+01 -1.578551387786865234e+01 1.152010321617126465e+00 9.945043563842773438e+00 3.329116106033325195e+00 -1.699295163154602051e+00
2.345000000000000000e+03 3.202931594848632812e+01 1.948202705383300781e+01 1.288936853408813477e+00 7.187853813171386719e+00 2.543037176132202148e+00 -1.877184033393859863e+00
2.346000000000000000e+03 3.694196701049804688e+01 -2.303426170349121094e+01 1.452757596969604492e+00 8.268954277038574219e+00 2.916513442993164062e+00 4.918655753135681152e-01
2.347000000000000000e+03 6.100136566162109375e+01 -3.231725692749023438e+01 -6.618382930755615234e-01 6.948608756065368652e-01 9.906790219247341156e-03 2.640780806541442871e-01
2.348000000000000000e+03 1.260090541839599609e+01 -2.148251152038574219e+01 3.816337883472442627e-01 2.395380020141601562e+00 8.331041336059570312e-01 3.672363460063934326e-01
2.349000000000000000e+03 1.280133914947509766e+01 -2.062399673461914062e+01 4.821206927299499512e-01 2.672467470169067383e+00 9.463765025138854980e-01 3.021761775016784668e-01
2.350000000000000000e+03 5.195634841918945312e+01 2.204609298706054688e+01 -8.574619293212890625e-01 4.095274209976196289e-01 -1.343803554773330688e-01 4.012994468212127686e-01
2.351000000000000000e+03 4.858671569824218750e+01 2.363814926147460938e+01 -1.377260982990264893e-01 1.734849095344543457e+00 4.791368842124938965e-01 1.248538732528686523e+00
2.352000000000000000e+03 7.054406738281250000e+01 -1.952606773376464844e+01 1.849596023559570312e+00 1.334442138671875000e+01 4.558205127716064453e+00 -4.998123273253440857e-03
2.353000000000000000e+03 4.463342285156250000e+01 -1.858496284484863281e+01 1.907042264938354492e+00 9.186337471008300781e+00 3.328013896942138672e+00 6.375019550323486328e-01
2.354000000000000000e+03 4.275630187988281250e+01 -2.035279273986816406e+01 1.674803733825683594e+00 9.225287437438964844e+00 3.270027399063110352e+00 -6.413074135780334473e-01
2.355000000000000000e+03 3.731750106811523438e+01 -1.308124256134033203e+01 5.003641843795776367e-01 9.141616821289062500e+00 2.892594099044799805e+00 -1.297649860382080078e+00
2.356000000000000000e+03 5.593099212646484375e+01 -3.361465835571289062e+01 -2.820373773574829102e-01 9.761805832386016846e-02 -5.532579496502876282e-02 -6.161583662033081055e-01
2.357000000000000000e+03 1.405857276916503906e+01 4.546113014221191406e+00 5.365778633859008551e-05 2.782047085929661989e-04 9.955874702427536249e-05 9.209671989083290100e-04
2.358000000000000000e+03 3.712850189208984375e+01 -2.211896514892578125e+01 1.433406949043273926e+00 8.778345108032226562e+00 3.063525438308715820e+00 2.260501086711883545e-01
2.359000000000000000e+03 1.547007560729980469e+01 2.283431816101074219e+01 -3.626001179218292236e-01 1.595420204102993011e-02 -1.039937734603881836e-01 3.554042801260948181e-02
2.360000000000000000e+03 1.151200962066650391e+01 1.695522308349609375e+01 -3.939796984195709229e-02 -2.396985655650496483e-03 -1.253848709166049957e-02 -1.907457225024700165e-02
2.361000000000000000e+03 6.187046813964843750e+01 2.237287902832031250e+01 -4.646225571632385254e-01 6.517351627349853516e+00 1.815818786621093750e+00 -1.660127997398376465e+00
2.362000000000000000e+03 1.492282390594482422e+01 8.855270385742187500e+00 -6.453041569329798222e-04 2.749520121142268181e-03 6.312648183666169643e-04 1.054754946380853653e-03
2.363000000000000000e+03 1.545483493804931641e+01 8.128352165222167969e+00 -6.553721614181995392e-04 2.131812740117311478e-03 4.429321852512657642e-04 5.104484735056757927e-04
2.364000000000000000e+03 6.924530029296875000e+01 -2.221924591064453125e+01 1.389759659767150879e+00 1.202829170227050781e+01 4.025415420532226562e+00 1.213410019874572754e+00
2.365000000000000000e+03 7.060575866699218750e+01 -2.042303657531738281e+01 1.670147657394409180e+00 1.261985301971435547e+01 4.287000179290771484e+00 1.102905813604593277e-02
2.366000000000000000e+03 6.128149414062500000e+01 3.374506950378417969e+00 7.319539189338684082e-01 5.293981075286865234e+00 1.807780504226684570e+00 1.336903214454650879e+00
2.367000000000000000e+03 6.347774505615234375e+01 6.260267734527587891e+00 7.323428988456726074e-01 7.279390811920166016e+00 2.403520107269287109e+00 6.525973677635192871e-01
2.368000000000000000e+03 5.499850082397460938e+01 -5.751934528350830078e+00 2.601655721664428711e-01 1.679743885993957520e+00 5.819728374481201172e-01 1.329917073249816895e+00
2.369000000000000000e+03 2.730925750732421875e+01 -3.322171401977539062e+01 -3.239752650260925293e-01 5.166791081428527832e-01 5.781115964055061340e-02 5.078852772712707520e-01
2.370000000000000000e+03 7.074636077880859375e+01 -1.782565116882324219e+01 2.232874631881713867e+00 1.300601100921630859e+01 4.571665763854980469e+00 -3.696620464324951172e-01
2.371000000000000000e+03 3.636377334594726562e+01 -1.228522777557373047e+01 2.574968934059143066e-01 9.336388587951660156e+00 2.878165721893310547e+00 -1.337343454360961914e+00
2.372000000000000000e+03 3.855383300781250000e+01 8.827843666076660156e+00 1.955027461051940918e+00 1.419354629516601562e+01 4.844572067260742188e+00 1.846844792366027832e+00
2.373000000000000000e+03 3.535508728027343750e+01 8.152967453002929688e+00 1.078576326370239258e+00 1.380806159973144531e+01 4.465991497039794922e+00 -3.373980522155761719e-01
2.374000000000000000e+03 7.675824737548828125e+01 4.161828994750976562e+01 -1.635305210947990417e-02 6.936637878417968750e+00 2.076085567474365234e+00 1.080373884178698063e-03
2.375000000000000000e+03 2.462287902832031250e+01 -3.285126495361328125e+01 -4.516502320766448975e-01 7.531416416168212891e-02 -1.129008233547210693e-01 7.200232148170471191e-02
2.376000000000000000e+03 5.922795104980468750e+01 -3.239295578002929688e+01 -7.918457388877868652e-01 6.946432590484619141e-02 -2.167144268751144409e-01 -7.913234829902648926e-02
2.377000000000000000e+03 5.999174118041992188e+01 -3.326463699340820312e+01 -3.390966653823852539e-01 4.628852009773254395e-01 3.713655844330787659e-02 1.314813494682312012e-01
2.378000000000000000e+03 2.315513420104980469e+01 2.476176071166992188e+01 1.423523724079132080e-01 4.453000426292419434e-01 1.762957274913787842e-01 -5.886926054954528809e-01
2.379000000000000000e+03 2.220422172546386719e+01 2.485052680969238281e+01 5.840127542614936829e-02 2.476470023393630981e-01 9.181448072195053101e-02 -4.205449819564819336e-01
2.380000000000000000e+03 3.735504531860351562e+01 -2.030300140380859375e+01 1.218406677246093750e+00 9.513933181762695312e+00 3.219702005386352539e+00 -3.643187880516052246e-01
2.381000000000000000e+03 4.529071426391601562e+01 -1.471473693847656250e+01 6.957535147666931152e-01 5.507047176361083984e+00 1.860840201377868652e+00 8.503191471099853516e-01
2.382000000000000000e+03 6.957569885253906250e+01 -2.460906410217285156e+01 -3.235646784305572510e-01 9.576705932617187500e+00 2.775942325592041016e+00 3.904241919517517090e-01
2.383000000000000000e+03 4.821777343750000000e+01 -7.189972877502441406e+00 -1.085577011108398438e+00 1.547663360834121704e-01 -2.792432010173797607e-01 1.289005160331726074e+00
2.384000000000000000e+03 3.671552276611328125e+01 8.717019081115722656e+00 1.537327408790588379e+00 1.343887424468994141e+01 4.492860317230224609e+00 3.548671007156372070e-01
2.385000000000000000e+03 4.229677200317382812e+01 -4.489599704742431641e+00 -1.435520172119140625e+00 4.353178977966308594e+00 8.752977252006530762e-01 -2.401849031448364258e+00
2.386000000000000000e+03 6.560639190673828125e+01 -2.978355216979980469e+01 -9.185124635696411133e-01 3.701738357543945312e+00 8.349677920341491699e-01 9.885296821594238281e-01
2.387000000000000000e+03 1.343791103363037109e+01 1.124055767059326172e+01 -6.288952426984906197e-04 3.266563871875405312e-03 7.913005538284778595e-04 2.747002989053726196e-03
2.388000000000000000e+03 5.040763092041015625e+01 2.293227005004882812e+01 -3.325642347335815430e-01 1.047347545623779297e+00 2.144349813461303711e-01 9.175616502761840820e-01
2.389000000000000000e+03 2.167205429077148438e+01 -3.270122146606445312e+01 -4.823938608169555664e-01 2.209335863590240479e-01 -7.843808084726333618e-02 -1.770153790712356567e-01
2.390000000000000000e+03 5.214753723144531250e+01 -3.426839447021484375e+01 -1.277562379837036133e-01 1.461387515068054199e+00 4.000893831253051758e-01 -1.450965166091918945e+00
2.391000000000000000e+03 5.719105148315429688e+01 -3.339247894287109375e+01 -3.798047900199890137e-01 -1.738353446125984192e-02 -1.191564947366714478e-01 -3.647081851959228516e-01
2.392000000000000000e+03 4.918730545043945312e+01 -3.215421676635742188e+01 -2.310672104358673096e-01 3.332446575164794922e+00 9.304138422012329102e-01 -2.047426223754882812e+00
2.393000000000000000e+03 4.749385833740234375e+01 -2.888392829895019531e+01 1.683182477951049805e+00 5.311919689178466797e+00 2.098530769348144531e+00 -2.828522920608520508e+00
2.394000000000000000e+03 4.724174118041992188e+01 -3.172658348083496094e+01 -4.083335399627685547e-01 5.093723773956298828e+00 1.405617117881774902e+00 -1.884533286094665527e+00
2.395000000000000000e+03 1.839327430725097656e+01 -2.928085517883300781e+01 -6.280670762062072754e-01 5.708876252174377441e-01 -1.715383306145668030e-02 -1.186014413833618164e-01
2.396000000000000000e+03 1.962812614440917969e+01 -3.057793045043945312e+01 -6.675519347190856934e-01 4.031404256820678711e-01 -7.932344824075698853e-02 -1.820433139801025391e-01
2.397000000000000000e+03 6.797349548339843750e+01 -1.207251358032226562e+01 -1.618007779121398926e+00 7.988338947296142578e+00 1.911099314689636230e+00 -2.051933765411376953e+00
2.398000000000000000e+03 3.503472900390625000e+01 9.759119987487792969e+00 9.016544222831726074e-01 1.285755252838134766e+01 4.127762317657470703e+00 -1.016410112380981445e+00
2.399000000000000000e+03 6.927134704589843750e+01 -1.323843383789062500e+01 -6.418495178222656250e-01 1.059528160095214844e+01 2.986029624938964844e+00 -9.952965974807739258e-01
2.400000000000000000e+03 4.366261672973632812e+01 -2.475239562988281250e+01 2.137567281723022461e+00 9.371029853820800781e+00 3.452579259872436523e+00 -1.533218383789062500e+00
2.401000000000000000e+03 4.213203048706054688e+01 -5.198058128356933594e+00 -1.794389843940734863e+00 5.192587852478027344e+00 1.019459366798400879e+00 -2.367774724960327148e+00
2.402000000000000000e+03 6.032835388183593750e+01 2.322191619873046875e+01 -4.055801331996917725e-01 4.325387477874755859e+00 1.175942182540893555e+00 -2.224965095520019531e+00
2.403000000000000000e+03 5.925755310058593750e+01 2.345550537109375000e+01 -2.269800305366516113e-01 2.605676412582397461e+00 7.136089205741882324e-01 -2.012897014617919922e+00
2.404000000000000000e+03 1.522203826904296875e+01 -1.115299797058105469e+01 1.481216669082641602e+00 2.273212909698486328e+00 1.126328945159912109e+00 8.656892776489257812e-01
2.405000000000000000e+03 6.214201354980468750e+01 4.953408241271972656e+00 8.299308419227600098e-01 6.436631202697753906e+00 2.179968595504760742e+00 1.142166972160339355e+00
2.406000000000000000e+03 4.290827178955078125e+01 -5.428974151611328125e+00 -1.697927713394165039e+00 3.668844223022460938e+00 5.912749171257019043e-01 -1.931969642639160156e+00
2.407000000000000000e+03 6.257221984863281250e+01 -3.075237083435058594e+01 -1.011539220809936523e+00 1.188634991645812988e+00 5.312874168157577515e-02 5.038254261016845703e-01
2.408000000000000000e+03 6.493739318847656250e+01 -2.910697364807128906e+01 -9.074016809463500977e-01 2.942730188369750977e+00 6.105985641479492188e-01 8.930564522743225098e-01
2.409000000000000000e+03 6.973276519775390625e+01 -1.512447834014892578e+01 1.512810945510864258e+00 1.268259334564208984e+01 4.258621215820312500e+00 -7.126879692077636719e-01
2.410000000000000000e+03 7.030130004882812500e+01 -1.445896816253662109e+01 7.089956998825073242e-01 1.147021675109863281e+01 3.653763771057128906e+00 -2.259528450667858124e-02
2.411000000000000000e+03 3.833736038208007812e+01 -2.635547876358032227e+00 -5.914450809359550476e-02 1.055088806152343750e+01 3.147523164749145508e+00 -1.556017518043518066e+00
2.412000000000000000e+03 4.802758789062500000e+01 -1.391747474670410156e+01 9.126971364021301270e-01 2.388339281082153320e+00 9.903109073638916016e-01 1.574870705604553223e+00
2.413000000000000000e+03 4.875245666503906250e+01 -1.401385879516601562e+01 9.789799451828002930e-01 1.666176080703735352e+00 7.935467958450317383e-01 1.516920566558837891e+00
2.414000000000000000e+03 6.461962127685546875e+01 1.870624160766601562e+01 1.414064288139343262e+00 8.534197807312011719e+00 2.984478473663330078e+00 -4.570316970348358154e-01
2.415000000000000000e+03 4.060540008544921875e+01 -4.885807037353515625e+00 -2.058867454528808594e+00 7.847784042358398438e+00 1.736675024032592773e+00 -2.390542030334472656e+00
2.416000000000000000e+03 3.965926742553710938e+01 -2.454205513000488281e+00 6.062204837799072266e-01 1.035923862457275391e+01 3.289637565612792969e+00 -2.370817661285400391e+00
2.417000000000000000e+03 3.751760482788085938e+01 3.587630987167358398e+00 1.793714165687561035e+00 1.463291454315185547e+01 4.927988529205322266e+00 -2.462676614522933960e-01
2.418000000000000000e+03 6.212052154541015625e+01 -1.092937088012695312e+01 -2.466858148574829102e+00 1.610378473997116089e-01 -6.917460560798645020e-01 -1.421893388032913208e-01
2.419000000000000000e+03 3.780475234985351562e+01 -2.230810928344726562e+01 1.573514580726623535e+00 8.458515167236328125e+00 3.009608983993530273e+00 -6.926441937685012817e-02
2.420000000000000000e+03 3.429203033447265625e+01 -2.922068595886230469e+01 -6.776500493288040161e-02 4.317031383514404297e+00 1.274779915809631348e+00 1.357812285423278809e+00
2.421000000000000000e+03 6.943982696533203125e+01 -2.341251754760742188e+01 4.423389136791229248e-01 1.062064361572265625e+01 3.318894863128662109e+00 6.390612125396728516e-01
2.422000000000000000e+03 7.094612884521484375e+01 -1.696392440795898438e+01 2.148655652999877930e+00 1.231410503387451172e+01 4.338828086853027344e+00 -1.267898082733154297e-01
2.423000000000000000e+03 1.864979982376098633e+00 -4.212785720825195312e+00 -5.157320201396942139e-02 -3.186985552310943604e-01 -1.110815256834030151e-01 -2.790516912937164307e-01
2.424000000000000000e+03 7.095524597167968750e+01 -2.127032279968261719e+01 1.461344242095947266e+00 1.175082588195800781e+01 3.963650941848754883e+00 -2.426400929689407349e-01
2.425000000000000000e+03 1.946361541748046875e+01 -3.170584106445312500e+01 -6.298934817314147949e-01 4.526803195476531982e-01 -5.316394567489624023e-02 -2.326803952455520630e-01
2.426000000000000000e+03 2.059062767028808594e+01 -3.167539405822753906e+01 -6.554487347602844238e-01 2.853474318981170654e-01 -1.110303923487663269e-01 -2.056565880775451660e-01
2.427000000000000000e+03 2.337051200866699219e+01 -3.157624816894531250e+01 -8.078278899192810059e-01 -1.059295088052749634e-01 -2.741272151470184326e-01 -2.321191690862178802e-02
2.428000000000000000e+03 1.473746395111083984e+01 2.198345565795898438e+01 -3.440835475921630859e-01 3.568986803293228149e-02 -9.251809865236282349e-02 -8.479343960061669350e-04
2.429000000000000000e+03 3.601973342895507812e+01 -2.575450134277343750e+01 7.797092199325561523e-01 6.530630111694335938e+00 2.193101882934570312e+00 1.061622858047485352e+00
2.430000000000000000e+03 3.639143753051757812e+01 -2.486461639404296875e+01 1.073154330253601074e+00 7.139141082763671875e+00 2.463688611984252930e+00 8.830613493919372559e-01
2.431000000000000000e+03 2.600462722778320312e+01 -3.467445373535156250e+01 -1.895075440406799316e-01 4.986572265625000000e-01 9.274490177631378174e-02 3.465639650821685791e-01
2.432000000000000000e+03 2.397375488281250000e+01 -3.183490753173828125e+01 -6.897271275520324707e-01 -4.745798557996749878e-02 -2.211555391550064087e-01 2.244730107486248016e-02
2.433000000000000000e+03 3.833971023559570312e+01 -1.705794095993041992e+00 9.451767206192016602e-01 1.104318332672119141e+01 3.596508264541625977e+00 -1.782047510147094727e+00
2.434000000000000000e+03 4.292764282226562500e+01 -2.347803306579589844e+01 2.011361360549926758e+00 9.263975143432617188e+00 3.382601022720336914e+00 -1.362932801246643066e+00
2.435000000000000000e+03 4.223982620239257812e+01 -2.236456108093261719e+01 1.812704563140869141e+00 9.031025886535644531e+00 3.253118991851806641e+00 -1.081658124923706055e+00
2.436000000000000000e+03 3.382050704956054688e+01 1.953473836183547974e-01 2.986577510833740234e+00 1.002844619750976562e+01 3.904507160186767578e+00 1.981880187988281250e+00
2.437000000000000000e+03 2.907032966613769531e+01 2.160756301879882812e+01 1.320147275924682617e+00 4.310995101928710938e+00 1.689342737197875977e+00 -2.294570684432983398e+00
2.438000000000000000e+03 2.737131881713867188e+01 2.443711280822753906e+01 2.999165654182434082e-01 2.424160242080688477e+00 8.172230124473571777e-01 -1.558269381523132324e+00
2.439000000000000000e+03 6.975115966796875000e+01 -1.386289024353027344e+01 4.399318993091583252e-02 1.131796264648437500e+01 3.408586740493774414e+00 -4.568316340446472168e-01
2.440000000000000000e+03 5.144409179687500000e+01 -6.837552547454833984e+00 -7.455905079841613770e-01 9.427339434623718262e-01 5.914302915334701538e-02 1.978587031364440918e+00
2.441000000000000000e+03 5.053774261474609375e+01 -7.151546001434326172e+00 -8.288285732269287109e-01 5.064882636070251465e-01 -9.670209884643554688e-02 1.995726943016052246e+00
2.442000000000000000e+03 2.647320556640625000e+01 -6.800612926483154297e+00 -8.233418464660644531e-01 4.802134633064270020e-01 -1.029385104775428772e-01 1.694642186164855957e+00
2.443000000000000000e+03 6.424958038330078125e+01 2.010556983947753906e+01 8.491754531860351562e-01 8.225017547607421875e+00 2.722257852554321289e+00 -3.568981885910034180e-01
2.444000000000000000e+03 1.328694915771484375e+01 2.173974800109863281e+01 -2.617104053497314453e-01 7.145647704601287842e-02 -5.707617476582527161e-02 2.289636060595512390e-02
2.445000000000000000e+03 2.707275152206420898e+00 3.368051767349243164e+00 3.546497027855366468e-04 4.001720808446407318e-04 2.264465438202023506e-04 -8.349709096364676952e-04
2.446000000000000000e+03 2.126648330688476562e+01 2.480696296691894531e+01 -3.571289777755737305e-02 1.520967781543731689e-01 3.491516783833503723e-02 -2.794561982154846191e-01
2.447000000000000000e+03 3.117495346069335938e+01 2.196729850769042969e+01 5.017744898796081543e-01 5.627713680267333984e+00 1.838846445083618164e+00 -1.336186766624450684e+00
2.448000000000000000e+03 5.513223648071289062e+01 -1.265330123901367188e+01 -1.164148092269897461e+00 3.596651554107666016e-01 -2.413448989391326904e-01 7.302424311637878418e-01
2.449000000000000000e+03 1.638487815856933594e+01 2.472120285034179688e+01 -1.993663161993026733e-01 6.020291522145271301e-02 -4.174901917576789856e-02 7.061443477869033813e-02
2.450000000000000000e+03 1.539246273040771484e+01 2.390219688415527344e+01 -2.594252824783325195e-01 5.812107771635055542e-02 -6.039125844836235046e-02 9.197150170803070068e-02
2.451000000000000000e+03 1.659569168090820312e+01 -1.041064834594726562e+01 1.390844941139221191e+00 1.963009119033813477e+00 1.006156206130981445e+00 1.073611855506896973e+00
2.452000000000000000e+03 1.590983963012695312e+01 -1.125431251525878906e+01 1.766137719154357910e+00 2.303928375244140625e+00 1.221019864082336426e+00 1.135654568672180176e+00
2.453000000000000000e+03 4.630331802368164062e+01 -1.423880481719970703e+01 7.643013000488281250e-01 4.310267448425292969e+00 1.522370576858520508e+00 1.234665155410766602e+00
2.454000000000000000e+03 3.174917411804199219e+01 -3.181542778015136719e+01 -4.480050802230834961e-01 2.557203769683837891e+00 6.327596306800842285e-01 1.265706658363342285e+00
2.455000000000000000e+03 6.350419998168945312e+01 2.077980041503906250e+01 4.483944773674011230e-01 8.106580734252929688e+00 2.566492557525634766e+00 -6.354010701179504395e-01
2.456000000000000000e+03 6.233686447143554688e+01 2.072575759887695312e+01 5.535691976547241211e-01 7.928487777709960938e+00 2.544617176055908203e+00 -1.335108399391174316e+00
2.457000000000000000e+03 5.385421752929687500e+01 -6.006180286407470703e+00 4.531037062406539917e-02 1.666631221771240234e+00 5.135824680328369141e-01 1.466521739959716797e+00
2.458000000000000000e+03 5.323099136352539062e+01 -5.547063827514648438e+00 1.538653075695037842e-01 1.746534824371337891e+00 5.701200366020202637e-01 1.465626239776611328e+00
2.459000000000000000e+03 3.277873992919921875e+01 -3.138601875305175781e+01 -4.482821822166442871e-01 3.145221471786499023e+00 8.090817928314208984e-01 1.297399401664733887e+00
2.460000000000000000e+03 3.303923034667968750e+01 -2.981820106506347656e+01 -1.622372418642044067e-01 3.226291418075561523e+00 9.192162156105041504e-01 1.380222320556640625e+00
2.461000000000000000e+03 1.311882400512695312e+01 -2.254771232604980469e+01 6.552881002426147461e-02 2.298657417297363281e+00 7.092558741569519043e-01 2.534675300121307373e-01
2.462000000000000000e+03 1.381324768066406250e+01 -2.284247016906738281e+01 1.862780936062335968e-02 2.259697198867797852e+00 6.834974884986877441e-01 4.548054188489913940e-02
2.463000000000000000e+03 2.912300300598144531e+01 -3.610569477081298828e+00 1.375975608825683594e+00 1.038797140121459961e+00 7.244318127632141113e-01 1.766482234001159668e+00
2.464000000000000000e+03 3.010753059387207031e+01 -1.305268406867980957e+00 3.787880659103393555e+00 2.002751827239990234e+00 1.737189769744873047e+00 1.834930300712585449e+00
2.465000000000000000e+03 3.755329513549804688e+01 2.769807577133178711e+00 2.023310184478759766e+00 1.423776817321777344e+01 4.878323554992675781e+00 -7.433874607086181641e-01
2.466000000000000000e+03 3.534475708007812500e+01 2.490333080291748047e+00 3.184732198715209961e+00 1.346500301361083984e+01 4.994920730590820312e+00 9.215361475944519043e-01
2.467000000000000000e+03 3.110349273681640625e+01 2.297667694091796875e+01 1.149972379207611084e-01 5.356015682220458984e+00 1.641303896903991699e+00 -1.259576559066772461e+00
2.468000000000000000e+03 1.263076019287109375e+01 1.887527465820312500e+01 -1.013929173350334167e-01 7.117630448192358017e-03 -2.828258648514747620e-02 -4.510632529854774475e-02
2.469000000000000000e+03 4.473172760009765625e+01 -2.925798606872558594e+01 3.559096753597259521e-01 7.392852306365966797e+00 2.324628591537475586e+00 -1.257865667343139648e+00
2.470000000000000000e+03 5.275311660766601562e+01 -6.612717628479003906e+00 -3.933529257774353027e-01 1.554551005363464355e+00 3.483594357967376709e-01 1.753705382347106934e+00
2.471000000000000000e+03 5.197920227050781250e+01 -7.138344764709472656e+00 -6.193313598632812500e-01 1.206096053123474121e+00 1.760293990373611450e-01 2.031630039215087891e+00
2.472000000000000000e+03 4.428348159790039062e+01 -1.757974433898925781e+01 1.587295532226562500e+00 8.176946640014648438e+00 2.929272890090942383e+00 2.330855280160903931e-01
2.473000000000000000e+03 6.101871109008789062e+01 2.379673576354980469e+01 -5.345859527587890625e-01 5.081812858581542969e+00 1.364168047904968262e+00 -1.941803455352783203e+00
2.474000000000000000e+03 4.540143585205078125e+01 -2.993276214599609375e+01 8.658660948276519775e-02 6.812540054321289062e+00 2.069737911224365234e+00 -1.477753043174743652e+00
2.475000000000000000e+03 4.650032043457031250e+01 -3.020923423767089844e+01 1.518605649471282959e-01 6.000797271728515625e+00 1.845797300338745117e+00 -1.956298947334289551e+00
2.476000000000000000e+03 4.833187484741210938e+01 -3.182503700256347656e+01 -2.462925761938095093e-01 4.207987785339355469e+00 1.188508629798889160e+00 -2.099559307098388672e+00
2.477000000000000000e+03 4.415573501586914062e+01 -2.637858963012695312e+01 1.813452839851379395e+00 8.907825469970703125e+00 3.216383457183837891e+00 -1.489220023155212402e+00
2.478000000000000000e+03 4.434193420410156250e+01 -2.727996635437011719e+01 1.425377368927001953e+00 8.319525718688964844e+00 2.923470973968505859e+00 -1.362293839454650879e+00
2.479000000000000000e+03 5.713615417480468750e+01 2.440408897399902344e+01 9.754219651222229004e-02 1.201687455177307129e+00 3.897688984870910645e-01 -1.084784269332885742e+00
2.480000000000000000e+03 5.788384246826171875e+01 2.330559158325195312e+01 -1.471783369779586792e-01 1.062785148620605469e+00 2.746820449829101562e-01 -1.416739463806152344e+00
2.481000000000000000e+03 3.515168190002441406e+00 -3.941809082031250000e+01 -4.082088917493820190e-02 5.184546113014221191e-01 1.432901173830032349e-01 5.465380102396011353e-02
2.482000000000000000e+03 4.032081604003906250e+00 3.890436172485351562e+01 2.673341333866119385e-02 -2.407633513212203979e-01 -6.420898437500000000e-02 3.991809114813804626e-02
2.483000000000000000e+03 2.501123666763305664e+00 3.754548263549804688e+01 9.366386570036411285e-03 -3.390476703643798828e-01 -9.890437871217727661e-02 4.214072600007057190e-02
2.484000000000000000e+03 2.147781753540039062e+01 -8.401222229003906250e+00 6.780285835266113281e-01 5.716108679771423340e-01 3.748918473720550537e-01 1.186514735221862793e+00
2.485000000000000000e+03 2.449157905578613281e+01 -7.889995574951171875e+00 -2.261604815721511841e-01 5.803406834602355957e-01 1.062540560960769653e-01 1.077795505523681641e+00
2.486000000000000000e+03 5.699966430664062500e+01 -4.776753902435302734e+00 6.146814227104187012e-01 1.809688329696655273e+00 7.273108959197998047e-01 1.145122766494750977e+00
2.487000000000000000e+03 2.640806579589843750e+01 -2.493201732635498047e+00 1.558462381362915039e+00 8.689593523740768433e-03 4.701455831527709961e-01 1.503322720527648926e+00
2.488000000000000000e+03 1.840284919738769531e+01 4.504236698150634766e+00 -1.664464070927351713e-05 3.285940620116889477e-04 9.358482202515006065e-05 7.046137761790305376e-05
2.489000000000000000e+03 6.149205398559570312e+01 -1.119266796112060547e+01 -2.449585914611816406e+00 3.004048168659210205e-01 -6.447542905807495117e-01 -4.682300984859466553e-02
2.490000000000000000e+03 5.998682403564453125e+01 -1.096080589294433594e+01 -2.061730384826660156e+00 6.585361957550048828e-01 -4.209582507610321045e-01 2.633350193500518799e-01
2.491000000000000000e+03 3.693252563476562500e+01 -2.456911802291870117e+00 -1.235499139875173569e-02 1.033683872222900391e+01 3.097345113754272461e+00 -9.921838045120239258e-01
2.492000000000000000e+03 3.264984893798828125e+01 -4.330093562602996826e-01 3.343440771102905273e+00 7.606290340423583984e+00 3.284919261932373047e+00 2.721735715866088867e+00
2.493000000000000000e+03 6.617565155029296875e+01 -1.059799003601074219e+01 -1.947454810142517090e+00 4.013153553009033203e+00 6.197096109390258789e-01 -2.771697044372558594e+00
2.494000000000000000e+03 6.577704620361328125e+01 -1.118142318725585938e+01 -2.133639812469482422e+00 2.902607440948486328e+00 2.306902855634689331e-01 -2.518907546997070312e+00
2.495000000000000000e+03 2.991407966613769531e+01 -2.192226409912109375e+00 2.699119091033935547e+00 1.991520166397094727e+00 1.407191753387451172e+00 1.808923721313476562e+00
2.496000000000000000e+03 3.135233306884765625e+01 -1.840623140335083008e+00 2.498354673385620117e+00 4.437143802642822266e+00 2.080649614334106445e+00 1.987227916717529297e+00
2.497000000000000000e+03 6.181376266479492188e+01 -1.038253116607666016e+01 -1.855332016944885254e+00 3.833903074264526367e-01 -4.415825307369232178e-01 1.454958040267229080e-02
2.498000000000000000e+03 1.609242057800292969e+01 3.919563293457031250e+00 -2.882271837734151632e-05 2.932536590378731489e-04 7.932927837828174233e-05 4.502801166381686926e-04
2.499000000000000000e+03 1.664999389648437500e+01 6.833559513092041016e+00 -3.166171954944729805e-04 1.108870608732104301e-03 2.376760385232046247e-04 1.037729161907918751e-04
2.500000000000000000e+03 1.281979846954345703e+01 2.068489074707031250e+01 -2.131078839302062988e-01 5.335589498281478882e-02 -4.792559891939163208e-02 -1.749538071453571320e-02
2.501000000000000000e+03 1.252091693878173828e+01 2.151358032226562500e+01 -2.181635200977325439e-01 7.387638092041015625e-02 -4.328614473342895508e-02 2.318376116454601288e-02
2.502000000000000000e+03 2.181725311279296875e+01 -9.020096778869628906e+00 7.714537978172302246e-01 4.647090733051300049e-01 3.708488643169403076e-01 1.061662435531616211e+00
2.503000000000000000e+03 2.080784797668457031e+01 -8.626409530639648438e+00 8.009893298149108887e-01 6.333962082862854004e-01 4.303156435489654541e-01 1.240313410758972168e+00
2.504000000000000000e+03 1.788488960266113281e+01 5.819138526916503906e+00 -7.208342867670580745e-05 4.037311300635337830e-04 9.949431114364415407e-05 -7.188176823547109962e-06
2.505000000000000000e+03 1.290144443511962891e+01 1.315324783325195312e+01 -9.981945622712373734e-04 1.471878495067358017e-03 1.421052002115175128e-04 2.581778215244412422e-03
2.506000000000000000e+03 1.405642509460449219e+01 3.855225563049316406e+00 3.125316288787871599e-04 4.115851770620793104e-04 2.172350505134090781e-04 7.840959005989134312e-04
2.507000000000000000e+03 1.127468013763427734e+01 4.518672466278076172e+00 7.134802290238440037e-04 -5.742046050727367401e-04 4.178267772658728063e-05 1.027481048367917538e-03
2.508000000000000000e+03 1.473336410522460938e+01 3.858204364776611328e+00 9.039635187946259975e-05 2.470439358148723841e-04 1.012320935842581093e-04 7.262029103003442287e-04
2.509000000000000000e+03 1.544556903839111328e+01 6.930150032043457031e+00 -4.655324446503072977e-04 1.402753638103604317e-03 2.811663725879043341e-04 6.350684561766684055e-04
2.510000000000000000e+03 2.249646568298339844e+01 -8.770730972290039062e+00 5.978879928588867188e-01 4.674090445041656494e-01 3.195891082286834717e-01 1.008517742156982422e+00
2.511000000000000000e+03 2.342260742187500000e+01 -7.595103740692138672e+00 8.600701391696929932e-02 5.614970922470092773e-01 1.942512243986129761e-01 1.223946928977966309e+00
2.512000000000000000e+03 1.136837768554687500e+01 5.182030200958251953e+00 7.460973574779927731e-04 -3.909752704203128815e-04 1.065366304828785360e-04 1.064667361788451672e-03
2.513000000000000000e+03 6.394343185424804688e+01 -9.604641914367675781e+00 -1.154857397079467773e+00 9.810656309127807617e-01 -5.213753134012222290e-02 -1.319911718368530273e+00
2.514000000000000000e+03 2.421403503417968750e+01 -3.204391717910766602e+00 7.092097997665405273e-01 1.020102053880691528e-01 2.433660030364990234e-01 1.422787070274353027e+00
2.515000000000000000e+03 1.746457862854003906e+01 5.338422298431396484e+00 -2.133491652784869075e-04 5.836524069309234619e-04 1.110909724957309663e-04 1.440547057427465916e-04
2.516000000000000000e+03 2.012064170837402344e+01 -8.825897216796875000e+00 9.342244863510131836e-01 7.626280784606933594e-01 5.090557932853698730e-01 1.272205591201782227e+00
2.517000000000000000e+03 1.268256950378417969e+01 4.490375995635986328e+00 3.952175029553472996e-04 -1.111359815695323050e-04 8.522445568814873695e-05 1.108226249925792217e-03
2.518000000000000000e+03 6.085918045043945312e+01 1.490738391876220703e+00 7.065315842628479004e-01 4.289715290069580078e+00 1.498874068260192871e+00 1.228065967559814453e+00
2.519000000000000000e+03 2.706726455688476562e+01 -3.533475160598754883e+00 1.241735339164733887e+00 1.952849775552749634e-01 4.311060905456542969e-01 1.837190747261047363e+00
2.520000000000000000e+03 2.732117462158203125e+01 -1.950331568717956543e+00 2.117001295089721680e+00 8.295557647943496704e-02 6.599870920181274414e-01 1.388633728027343750e+00
2.521000000000000000e+03 5.089011764526367188e+01 -1.344497776031494141e+01 3.588691353797912598e-01 5.442433357238769531e-01 2.709337472915649414e-01 1.241708993911743164e+00
2.522000000000000000e+03 5.608820343017578125e+01 2.445920753479003906e+01 4.835773631930351257e-02 7.988396286964416504e-01 2.541592121124267578e-01 -5.715717673301696777e-01
2.523000000000000000e+03 4.589457321166992188e+01 -6.455868244171142578e+00 -1.715442180633544922e+00 8.643797636032104492e-01 -2.553187310695648193e-01 7.663122564554214478e-02
2.524000000000000000e+03 1.197330760955810547e+01 -4.559993267059326172e+00 -4.683330655097961426e-01 3.668674528598785400e-01 -3.043968230485916138e-02 -2.420461177825927734e-01
2.525000000000000000e+03 1.440993309020996094e+01 -2.439813613891601562e+01 -2.398495674133300781e-01 1.773599863052368164e+00 4.601250588893890381e-01 -7.564776390790939331e-02
2.526000000000000000e+03 9.622353553771972656e+00 -3.941937923431396484e+00 -5.429878830909729004e-01 1.452925056219100952e-01 -1.193086206912994385e-01 -4.722625315189361572e-01
2.527000000000000000e+03 9.670964241027832031e+00 -4.623284339904785156e+00 -4.063383936882019043e-01 1.972094327211380005e-01 -6.273869425058364868e-02 -4.960711896419525146e-01
2.528000000000000000e+03 5.986370086669921875e+01 1.346036940813064575e-01 9.207915663719177246e-01 3.358137607574462891e+00 1.283678770065307617e+00 1.313195109367370605e+00
2.529000000000000000e+03 5.840947723388671875e+01 -6.628283262252807617e-01 1.213795781135559082e+00 2.658287048339843750e+00 1.161624789237976074e+00 1.459528684616088867e+00
2.530000000000000000e+03 2.709400939941406250e+01 -6.394293785095214844e+00 -8.834092617034912109e-01 3.602780401706695557e-01 -1.569393575191497803e-01 1.856503486633300781e+00
2.531000000000000000e+03 2.768799972534179688e+01 -5.958340167999267578e+00 -5.122579932212829590e-01 2.328327894210815430e-01 -8.382756263017654419e-02 2.053990602493286133e+00
2.532000000000000000e+03 7.709666442871093750e+01 -3.570864868164062500e+01 -7.665698230266571045e-02 9.758593559265136719e+00 2.904580831527709961e+00 -9.427651762962341309e-02
2.533000000000000000e+03 4.331592178344726562e+01 -6.971471786499023438e+00 -1.553191781044006348e+00 3.917907953262329102e+00 7.094148397445678711e-01 -1.467375755310058594e+00
2.534000000000000000e+03 3.365220069885253906e+00 -4.867339134216308594e+00 -9.947448968887329102e-02 -3.037547767162322998e-01 -1.209687888622283936e-01 -4.627837836742401123e-01
2.535000000000000000e+03 4.872747421264648438e+00 -4.765246868133544922e+00 -1.788883209228515625e-01 -1.760291904211044312e-01 -1.064752489328384399e-01 -5.588536262512207031e-01
2.536000000000000000e+03 1.050307941436767578e+01 -5.264850616455078125e+00 -2.974945306777954102e-01 3.270924091339111328e-01 8.879362605512142181e-03 -4.350295960903167725e-01
2.537000000000000000e+03 5.205668640136718750e+01 -1.318771266937255859e+01 -1.444045305252075195e-01 3.678269982337951660e-01 6.702674180269241333e-02 1.090429902076721191e+00
2.538000000000000000e+03 5.100506591796875000e+01 -8.091620445251464844e+00 -5.555787682533264160e-01 7.732428312301635742e-01 6.529921293258666992e-02 2.106658935546875000e+00
2.539000000000000000e+03 2.627606391906738281e+00 -4.956853866577148438e+00 -6.635251641273498535e-02 -3.608686327934265137e-01 -1.281663477420806885e-01 -3.981777429580688477e-01
2.540000000000000000e+03 2.683368206024169922e+00 -5.792491436004638672e+00 -3.876909241080284119e-02 -4.475519657135009766e-01 -1.458963155746459961e-01 -4.331683814525604248e-01
2.541000000000000000e+03 7.269760131835937500e+00 -4.042965888977050781e+00 -3.925330042839050293e-01 6.591280456632375717e-03 -1.157825216650962830e-01 -5.688697695732116699e-01
2.542000000000000000e+03 8.112704277038574219e+00 -4.713596820831298828e+00 -3.325176835060119629e-01 7.973726838827133179e-02 -7.583412528038024902e-02 -5.847710371017456055e-01
2.543000000000000000e+03 5.674856662750244141e+00 -4.854957580566406250e+00 -2.055969834327697754e-01 -1.127446666359901428e-01 -9.550249576568603516e-02 -5.963287949562072754e-01
2.544000000000000000e+03 6.510204315185546875e+00 -4.879320144653320312e+00 -2.403382956981658936e-01 -4.851410537958145142e-02 -8.665572106838226318e-02 -6.129729151725769043e-01
2.545000000000000000e+03 1.753380966186523438e+01 -4.334847450256347656e+00 -2.846368551254272461e-01 5.631805062294006348e-01 8.356308937072753906e-02 7.637964487075805664e-01
2.546000000000000000e+03 1.351566600799560547e+01 -4.524758815765380859e+00 -4.713852107524871826e-01 4.665866196155548096e-01 -1.439573941752314568e-03 7.601590827107429504e-03
2.547000000000000000e+03 5.416922378540039062e+01 -1.204997825622558594e+01 -8.042509555816650391e-01 4.854898750782012939e-01 -9.562832862138748169e-02 1.099851608276367188e+00
2.548000000000000000e+03 8.134368896484375000e+00 4.089278221130371094e+00 1.269718166440725327e-03 -7.683006697334349155e-04 1.504252431914210320e-04 -8.136905671562999487e-05
2.549000000000000000e+03 3.735105514526367188e+01 5.302106380462646484e+00 1.330052733421325684e+00 1.515385723114013672e+01 4.945172786712646484e+00 7.876021265983581543e-01
2.550000000000000000e+03 3.370987701416015625e+01 -2.897164535522460938e+01 5.777624994516372681e-02 3.799548625946044922e+00 1.157197475433349609e+00 1.432663559913635254e+00
2.551000000000000000e+03 3.462384796142578125e+01 -2.862476730346679688e+01 2.370940148830413818e-02 4.651868820190429688e+00 1.402673363685607910e+00 1.390635967254638672e+00
2.552000000000000000e+03 1.508703899383544922e+01 -4.470889091491699219e+00 -4.331752359867095947e-01 5.389789342880249023e-01 3.174111247062683105e-02 3.025474846363067627e-01
2.553000000000000000e+03 1.820502090454101562e+01 -1.001679897308349609e+01 1.444974422454833984e+00 1.439727187156677246e+00 8.654104471206665039e-01 1.354117989540100098e+00
2.554000000000000000e+03 2.322436332702636719e+01 -2.722373723983764648e+00 5.191882848739624023e-01 1.326638609170913696e-01 1.955556422472000122e-01 1.188242197036743164e+00
2.555000000000000000e+03 2.253013610839843750e+01 -3.567170381546020508e+00 3.071069717407226562e-01 2.782658934593200684e-01 1.756118685007095337e-01 1.303490042686462402e+00
2.556000000000000000e+03 1.667066383361816406e+01 4.682609081268310547e+00 -1.611353363841772079e-04 4.125114355701953173e-04 7.541283412138000131e-05 3.538471646606922150e-04
2.557000000000000000e+03 1.274294281005859375e+01 -4.542150497436523438e+00 -4.750872850418090820e-01 4.169306159019470215e-01 -1.744699850678443909e-02 -1.276129633188247681e-01
2.558000000000000000e+03 7.722905731201171875e+01 -2.938693046569824219e+01 -1.862431466579437256e-01 9.495601654052734375e+00 2.792807579040527344e+00 -6.130380630493164062e-01
2.559000000000000000e+03 7.589228820800781250e+01 3.139983558654785156e+01 -8.233518898487091064e-02 6.763151168823242188e+00 2.004244804382324219e+00 1.979279667139053345e-01
2.560000000000000000e+03 7.651576995849609375e+01 3.026247215270996094e+01 -6.427176296710968018e-02 6.776163101196289062e+00 2.013567447662353516e+00 2.171371281147003174e-01
2.561000000000000000e+03 3.551069641113281250e+01 6.447251796722412109e+00 1.134824275970458984e+00 1.476877880096435547e+01 4.771080970764160156e+00 4.324002265930175781e-01
2.562000000000000000e+03 2.549883842468261719e+00 2.901643180847167969e+01 -3.330376057419925928e-04 -1.824164390563964844e-01 -5.482484400272369385e-02 7.748680561780929565e-02
2.563000000000000000e+03 3.129517793655395508e+00 3.049213218688964844e+01 4.638119135051965714e-03 -1.956043988466262817e-01 -5.728988349437713623e-02 8.705928921699523926e-02
2.564000000000000000e+03 4.324713134765625000e+01 1.820611000061035156e+01 6.017392873764038086e-01 3.788669109344482422e+00 1.317122578620910645e+00 1.812387466430664062e+00
2.565000000000000000e+03 3.478261566162109375e+01 1.125812911987304688e+01 8.176846504211425781e-01 1.188691043853759766e+01 3.811378717422485352e+00 -1.493199467658996582e+00
2.566000000000000000e+03 2.238806724548339844e+01 -7.259013175964355469e+00 2.577568590641021729e-01 5.801725983619689941e-01 2.513788342475891113e-01 1.318609714508056641e+00
2.567000000000000000e+03 6.676165008544921875e+01 -2.802227783203125000e+01 -8.316249251365661621e-01 4.965033531188964844e+00 1.240022659301757812e+00 1.110518336296081543e+00
2.568000000000000000e+03 5.611663055419921875e+01 -4.933485031127929688e+00 5.929948091506958008e-01 1.750800848007202148e+00 7.031386494636535645e-01 1.232459664344787598e+00
2.569000000000000000e+03 5.876073455810546875e+01 2.396282005310058594e+01 -7.693614810705184937e-02 2.225917339324951172e+00 6.446943283081054688e-01 -1.742033004760742188e+00
2.570000000000000000e+03 7.637471008300781250e+01 -3.163005638122558594e+01 -2.356080114841461182e-01 9.465280532836914062e+00 2.768901586532592773e+00 -4.143669009208679199e-01
2.571000000000000000e+03 4.661702632904052734e+00 -2.873223304748535156e+01 -1.166998818516731262e-01 2.688634097576141357e-01 4.564905539155006409e-02 4.668803811073303223e-01
2.572000000000000000e+03 7.651219940185546875e+01 2.499576377868652344e+01 -2.303670905530452728e-02 6.535440921783447266e+00 1.953721165657043457e+00 3.519868254661560059e-01
2.573000000000000000e+03 7.739323425292968750e+01 -2.220836830139160156e+01 1.899907141923904419e-01 8.134683609008789062e+00 2.497402191162109375e+00 -8.116173744201660156e-01
2.574000000000000000e+03 7.674880981445312500e+01 -2.293935394287109375e+01 1.935324370861053467e-01 8.530434608459472656e+00 2.617190122604370117e+00 -1.019111037254333496e+00
2.575000000000000000e+03 3.478629827499389648e+00 3.260480499267578125e+01 1.027303375303745270e-02 -2.146279811859130859e-01 -6.130648404359817505e-02 8.583743125200271606e-02
2.576000000000000000e+03 2.575409889221191406e+00 3.127119827270507812e+01 6.635614205151796341e-03 -2.340101599693298340e-01 -6.821236759424209595e-02 7.435717433691024780e-02
2.577000000000000000e+03 7.663168334960937500e+01 2.105509567260742188e+01 5.755568668246269226e-02 6.294235706329345703e+00 1.905537366867065430e+00 3.152943253517150879e-01
2.578000000000000000e+03 3.883562326431274414e+00 -3.032910919189453125e+01 -9.645785391330718994e-02 2.616325020790100098e-01 4.955239966511726379e-02 3.537253141403198242e-01
2.579000000000000000e+03 5.404859542846679688e+01 2.382167625427246094e+01 -3.126306831836700439e-01 5.020612478256225586e-01 5.682916939258575439e-02 1.815020292997360229e-01
2.580000000000000000e+03 4.330477142333984375e+01 -1.981988334655761719e+01 1.665261864662170410e+00 9.256306648254394531e+00 3.276470422744750977e+00 -3.324089944362640381e-01
2.581000000000000000e+03 4.232013320922851562e+01 -2.122833633422851562e+01 1.779478311538696289e+00 9.043178558349609375e+00 3.246796846389770508e+00 -9.116505384445190430e-01
2.582000000000000000e+03 7.670239257812500000e+01 -2.449458312988281250e+01 -3.980063833296298981e-03 8.790936470031738281e+00 2.636087179183959961e+00 -1.085023880004882812e+00
2.583000000000000000e+03 7.658550262451171875e+01 2.183534622192382812e+01 4.087177291512489319e-02 6.342828273773193359e+00 1.915109992027282715e+00 3.366752266883850098e-01
2.584000000000000000e+03 7.663313293457031250e+01 1.773677253723144531e+01 1.249510571360588074e-01 6.161082744598388672e+00 1.885810136795043945e+00 1.486236900091171265e-01
2.585000000000000000e+03 7.677278137207031250e+01 1.445600986480712891e+01 1.433034241199493408e-01 6.145022869110107422e+00 1.886497855186462402e+00 -9.987043589353561401e-02
2.586000000000000000e+03 7.748372650146484375e+01 1.203752326965332031e+01 8.518548309803009033e-02 6.131727695465087891e+00 1.865073919296264648e+00 -2.354985773563385010e-01
2.587000000000000000e+03 7.676343536376953125e+01 1.523819828033447266e+01 1.446304321289062500e-01 6.129172801971435547e+00 1.882140994071960449e+00 -3.890547901391983032e-02
2.588000000000000000e+03 6.490532684326171875e+01 1.450928974151611328e+01 9.738698005676269531e-01 9.361646652221679688e+00 3.100654840469360352e+00 -3.982624411582946777e-01
2.589000000000000000e+03 7.678717041015625000e+01 1.047918224334716797e+01 1.218448504805564880e-01 6.379071235656738281e+00 1.950274825096130371e+00 -3.937662243843078613e-01
2.590000000000000000e+03 7.678264617919921875e+01 1.127610874176025391e+01 1.278295964002609253e-01 6.315370082855224609e+00 1.932959794998168945e+00 -3.410317301750183105e-01
2.591000000000000000e+03 7.680522918701171875e+01 8.058380126953125000e+00 9.011051803827285767e-02 6.632904529571533203e+00 2.016904354095458984e+00 -5.355671048164367676e-01
2.592000000000000000e+03 7.753237152099609375e+01 -1.512804985046386719e+01 1.694140732288360596e-01 7.825122356414794922e+00 2.398360967636108398e+00 5.765241980552673340e-01
2.593000000000000000e+03 7.688121032714843750e+01 -1.583278369903564453e+01 3.394969999790191650e-01 8.063897132873535156e+00 2.521018266677856445e+00 5.474147796630859375e-01
2.594000000000000000e+03 7.610237121582031250e+01 8.870643615722656250e+00 1.432916969060897827e-01 6.615919589996337891e+00 2.027763366699218750e+00 -5.639974474906921387e-01
2.595000000000000000e+03 7.688462066650390625e+01 -1.652197074890136719e+01 4.290171861648559570e-01 8.008412361145019531e+00 2.531228780746459961e+00 3.957261741161346436e-01
2.596000000000000000e+03 7.681999206542968750e+01 3.257013797760009766e+00 8.023139089345932007e-03 7.298603057861328125e+00 2.191987752914428711e+00 -6.708962917327880859e-01
2.597000000000000000e+03 7.682620239257812500e+01 1.647353529930114746e+00 -2.584792673587799072e-02 7.544732570648193359e+00 2.255665302276611328e+00 -6.644058823585510254e-01
2.598000000000000000e+03 7.751074981689453125e+01 -1.590428352355957031e+00 -7.430938631296157837e-02 8.145253181457519531e+00 2.421283006668090820e+00 -4.514949917793273926e-01
2.599000000000000000e+03 7.682905578613281250e+01 -3.163900375366210938e+00 -1.732525974512100220e-01 8.238681793212890625e+00 2.419628858566284180e+00 -4.332702457904815674e-01
2.600000000000000000e+03 7.682817840576171875e+01 -1.556166052818298340e+00 -1.134695783257484436e-01 8.021422386169433594e+00 2.372385740280151367e+00 -5.527247786521911621e-01
2.601000000000000000e+03 7.614117431640625000e+01 2.462276697158813477e+00 -9.553615935146808624e-03 7.370225906372070312e+00 2.208201646804809570e+00 -7.685087323188781738e-01
2.602000000000000000e+03 7.682719421386718750e+01 8.440178632736206055e-01 -4.282654076814651489e-02 7.667621135711669922e+00 2.287438392639160156e+00 -6.492093801498413086e-01
2.603000000000000000e+03 7.605598449707031250e+01 -1.091925334930419922e+01 -3.278951048851013184e-01 8.738754272460937500e+00 2.523257732391357422e+00 7.015712261199951172e-01
2.604000000000000000e+03 7.679698944091796875e+01 -1.266220760345458984e+01 -5.097128450870513916e-02 8.440841674804687500e+00 2.516961336135864258e+00 8.131728768348693848e-01
2.605000000000000000e+03 7.752009582519531250e+01 -1.354087066650390625e+01 4.958084598183631897e-02 8.078586578369140625e+00 2.438450336456298828e+00 7.176621556282043457e-01
2.606000000000000000e+03 7.633695983886718750e+01 -1.611705207824707031e+01 4.786235094070434570e-01 8.297454833984375000e+00 2.632823467254638672e+00 5.205066800117492676e-01
2.607000000000000000e+03 7.630297851562500000e+01 2.878564453125000000e+01 -6.774242967367172241e-02 6.713607788085937500e+00 1.993759632110595703e+00 2.701483368873596191e-01
2.608000000000000000e+03 7.725382995605468750e+01 2.998471069335937500e+01 -3.818449378013610840e-02 6.805534362792968750e+00 2.030205011367797852e+00 1.967421025037765503e-01
2.609000000000000000e+03 7.712570190429687500e+01 2.663352394104003906e+01 -3.537417203187942505e-02 6.614055633544921875e+00 1.973604440689086914e+00 2.894330620765686035e-01
2.610000000000000000e+03 7.750348663330078125e+01 -1.274396228790283203e+01 -2.344192378222942352e-02 8.211045265197753906e+00 2.456281185150146484e+00 7.252306938171386719e-01
2.611000000000000000e+03 7.676739501953125000e+01 -1.185463809967041016e+01 -1.413782984018325806e-01 8.522791862487792969e+00 2.514424085617065430e+00 7.745989561080932617e-01
2.612000000000000000e+03 7.677702331542968750e+01 -1.103700160980224609e+01 -2.156751304864883423e-01 8.590129852294921875e+00 2.512336254119873047e+00 6.905870437622070312e-01
2.613000000000000000e+03 7.682534027099609375e+01 -4.766233921051025391e+00 -2.322992235422134399e-01 8.423684120178222656e+00 2.457415342330932617e+00 -2.617827653884887695e-01
2.614000000000000000e+03 7.682698822021484375e+01 -3.970187664031982422e+00 -2.001294195652008057e-01 8.336734771728515625e+00 2.440981626510620117e+00 -3.534493446350097656e-01
2.615000000000000000e+03 7.681327819824218750e+01 6.463157653808593750e+00 6.505607813596725464e-02 6.835520267486572266e+00 2.070172786712646484e+00 -6.039487123489379883e-01
2.616000000000000000e+03 7.751233673095703125e+01 1.611900568008422852e+00 -1.588966511189937592e-02 7.618045330047607422e+00 2.280646562576293945e+00 -5.515336990356445312e-01
2.617000000000000000e+03 7.682280731201171875e+01 2.453619718551635742e+00 -6.073547527194023132e-03 7.420713424682617188e+00 2.224391937255859375e+00 -6.707397103309631348e-01
2.618000000000000000e+03 7.681874847412109375e+01 4.055051326751708984e+00 2.516454458236694336e-02 7.178134918212890625e+00 2.160989761352539062e+00 -6.627418398857116699e-01
2.619000000000000000e+03 7.683303070068359375e+01 -1.956960105895996094e+01 4.780170619487762451e-01 8.060957908630371094e+00 2.561692476272583008e+00 -3.924067914485931396e-01
2.620000000000000000e+03 7.677456665039062500e+01 1.366929912567138672e+01 1.426009684801101685e-01 6.171222686767578125e+00 1.894147038459777832e+00 -1.615283638238906860e-01
2.621000000000000000e+03 7.749690246582031250e+01 8.828956604003906250e+00 6.434835493564605713e-02 6.459125041961669922e+00 1.957041978836059570e+00 -4.117757081985473633e-01
2.622000000000000000e+03 7.679263305664062500e+01 9.672681808471679688e+00 1.109654605388641357e-01 6.456834793090820312e+00 1.970340013504028320e+00 -4.461222589015960693e-01
2.623000000000000000e+03 7.540887451171875000e+01 1.516074466705322266e+01 2.632417082786560059e-01 6.362637042999267578e+00 1.987763643264770508e+00 -7.065329700708389282e-02
2.624000000000000000e+03 7.754048156738281250e+01 -7.960985183715820312e+00 -2.020579129457473755e-01 8.674521446228027344e+00 2.541739225387573242e+00 2.155767381191253662e-01
2.625000000000000000e+03 7.687705993652343750e+01 -8.667593955993652344e+00 -3.030251562595367432e-01 8.654749870300292969e+00 2.505517482757568359e+00 3.320170640945434570e-01
2.626000000000000000e+03 7.741052246093750000e+01 1.686348915100097656e+01 8.802246302366256714e-02 6.001870632171630859e+00 1.826967954635620117e+00 7.809482514858245850e-02
2.627000000000000000e+03 7.668350219726562500e+01 1.688155937194824219e+01 1.402578502893447876e-01 6.140215873718261719e+00 1.884142160415649414e+00 8.752828836441040039e-02
2.628000000000000000e+03 7.680980682373046875e+01 -1.022692394256591797e+01 -2.654389739036560059e-01 8.630562782287597656e+00 2.509537220001220703e+00 5.833544135093688965e-01
2.629000000000000000e+03 7.686665344238281250e+01 -7.124882221221923828e+00 -2.907946705818176270e-01 8.608170509338378906e+00 2.495212793350219727e+00 7.487114518880844116e-02
2.630000000000000000e+03 7.684677124023437500e+01 -6.345993995666503906e+00 -2.824135720729827881e-01 8.564698219299316406e+00 2.484685420989990234e+00 -4.568898305296897888e-02
2.631000000000000000e+03 7.662908935546875000e+01 1.859308052062988281e+01 1.138425394892692566e-01 6.182606220245361328e+00 1.888934612274169922e+00 2.005803585052490234e-01
2.632000000000000000e+03 7.653147888183593750e+01 2.339808082580566406e+01 7.398462388664484024e-03 6.438854217529296875e+00 1.933875799179077148e+00 3.557365536689758301e-01
2.633000000000000000e+03 7.731620788574218750e+01 2.332349395751953125e+01 3.878353396430611610e-03 6.367700576782226562e+00 1.911473631858825684e+00 3.061756491661071777e-01
2.634000000000000000e+03 7.666272735595703125e+01 -2.605383682250976562e+01 -1.292141377925872803e-01 9.033965110778808594e+00 2.671425104141235352e+00 -1.049683451652526855e+00
2.635000000000000000e+03 7.567382049560546875e+01 -2.323966407775878906e+01 2.257100790739059448e-01 8.908664703369140625e+00 2.740312576293945312e+00 -1.182777762413024902e+00
2.636000000000000000e+03 7.647722625732421875e+01 -2.843037796020507812e+01 -2.575719952583312988e-01 9.291543960571289062e+00 2.710191488265991211e+00 -8.116711974143981934e-01
2.637000000000000000e+03 7.616407012939453125e+01 -2.348028182983398438e+00 -1.910809427499771118e-01 8.018250465393066406e+00 2.348150968551635742e+00 -5.891085863113403320e-01
2.638000000000000000e+03 7.681803131103515625e+01 4.851498126983642578e+00 3.740009292960166931e-02 7.061889171600341797e+00 2.129786729812622070e+00 -6.500602364540100098e-01
2.639000000000000000e+03 7.643268585205078125e+01 -2.919353675842285156e+01 -2.868673205375671387e-01 9.351931571960449219e+00 2.719519138336181641e+00 -7.120468616485595703e-01
2.640000000000000000e+03 7.652841949462890625e+01 2.418907737731933594e+01 -8.973190560936927795e-03 6.483677387237548828e+00 1.942411303520202637e+00 3.596426844596862793e-01
2.641000000000000000e+03 7.662065124511718750e+01 -2.208596038818359375e+01 3.161472678184509277e-01 8.445421218872070312e+00 2.628470659255981445e+00 -9.331235289573669434e-01
2.642000000000000000e+03 7.739995574951171875e+01 -2.139175796508789062e+01 2.392407804727554321e-01 7.993299007415771484e+00 2.469762086868286133e+00 -7.033931016921997070e-01
2.643000000000000000e+03 7.681629180908203125e+01 5.655430316925048828e+00 5.330507084727287292e-02 6.946077823638916016e+00 2.099814891815185547e+00 -6.286996006965637207e-01
2.644000000000000000e+03 7.620294189453125000e+01 -1.863018035888671875e+01 6.817299127578735352e-01 8.323675155639648438e+00 2.701621532440185547e+00 -1.649346500635147095e-01
2.645000000000000000e+03 7.651148986816406250e+01 3.305644989013671875e+01 -5.308343097567558289e-02 6.851226806640625000e+00 2.039443016052246094e+00 1.319089978933334351e-01
2.646000000000000000e+03 7.492254638671875000e+01 3.471215057373046875e+01 -7.862757891416549683e-02 6.713102340698242188e+00 1.990342378616333008e+00 1.151304468512535095e-01
2.647000000000000000e+03 7.677931976318359375e+01 1.207013511657714844e+01 1.361346989870071411e-01 6.256180286407470703e+00 1.917694449424743652e+00 -2.831890285015106201e-01
2.648000000000000000e+03 6.728470611572265625e+01 -2.734555435180664062e+01 -7.788708209991455078e-01 5.743263721466064453e+00 1.489317774772644043e+00 1.149282455444335938e+00
2.649000000000000000e+03 7.694631195068359375e+01 -3.264175033569335938e+01 -1.661959886550903320e-01 9.639672279357910156e+00 2.842042684555053711e+00 -2.915727496147155762e-01
2.650000000000000000e+03 7.601407623291015625e+01 -3.570775222778320312e+01 -1.087284684181213379e-01 9.234080314636230469e+00 2.737605571746826172e+00 -7.330858707427978516e-02
2.651000000000000000e+03 7.591235351562500000e+01 -3.366333389282226562e+01 -2.132738232612609863e-01 9.301940917968750000e+00 2.726599931716918945e+00 -2.114320844411849976e-01
2.652000000000000000e+03 7.546915435791015625e+01 -3.000681304931640625e+01 -4.007275700569152832e-01 9.193163871765136719e+00 2.637731075286865234e+00 -6.490761637687683105e-01
2.653000000000000000e+03 7.677661132812500000e+01 1.286921977996826172e+01 1.388550698757171631e-01 6.210214138031005859e+00 1.904720783233642578e+00 -2.227274179458618164e-01
2.654000000000000000e+03 7.665496826171875000e+01 1.943557167053222656e+01 9.796200692653656006e-02 6.214181423187255859e+00 1.893643140792846680e+00 2.498376667499542236e-01
2.655000000000000000e+03 7.664235687255859375e+01 3.091217803955078125e+01 -5.787035450339317322e-02 6.798037528991699219e+00 2.022050142288208008e+00 1.938079893589019775e-01
2.656000000000000000e+03 7.731195068359375000e+01 3.173832511901855469e+01 -4.311826825141906738e-02 6.880271434783935547e+00 2.051146030426025391e+00 1.503325551748275757e-01
2.657000000000000000e+03 7.729507446289062500e+01 -2.780193519592285156e+01 -1.519885808229446411e-01 9.281008720397949219e+00 2.738705873489379883e+00 -7.761216759681701660e-01
2.658000000000000000e+03 7.593370819091796875e+01 -2.657714653015136719e+01 -2.487314492464065552e-01 9.152474403381347656e+00 2.671122789382934570e+00 -1.063984274864196777e+00
2.659000000000000000e+03 3.439674615859985352e+00 -2.505269622802734375e+01 -2.171983197331428528e-02 -2.019887119531631470e-01 -6.711256504058837891e-02 4.860453307628631592e-01
2.660000000000000000e+03 3.337761878967285156e+00 -2.345922470092773438e+01 1.588977873325347900e-02 -3.766427338123321533e-01 -1.082258895039558411e-01 4.791949987411499023e-01
2.661000000000000000e+03 2.497106075286865234e+00 2.178210067749023438e+01 -1.059524435549974442e-02 -3.947107866406440735e-02 -1.501989737153053284e-02 3.965049609541893005e-02
2.662000000000000000e+03 3.206965684890747070e+00 2.334801101684570312e+01 -1.735166460275650024e-02 -5.414329096674919128e-02 -2.144848741590976715e-02 6.325612962245941162e-02
2.663000000000000000e+03 7.677159881591796875e+01 -2.372654151916503906e+01 9.649904817342758179e-02 8.651401519775390625e+00 2.624370098114013672e+00 -1.068711042404174805e+00
2.664000000000000000e+03 7.665917205810546875e+01 2.025879287719726562e+01 7.592736184597015381e-02 6.250418186187744141e+00 1.897903561592102051e+00 2.848002612590789795e-01
2.665000000000000000e+03 3.309419393539428711e+00 2.496164703369140625e+01 -1.445901766419410706e-02 -7.883325219154357910e-02 -2.798767946660518646e-02 7.864543050527572632e-02
2.666000000000000000e+03 3.285295724868774414e+00 -2.108650398254394531e+01 7.647385448217391968e-02 -6.135446429252624512e-01 -1.611212342977523804e-01 4.162194728851318359e-01
2.667000000000000000e+03 3.314021110534667969e+00 -2.266940116882324219e+01 3.656645864248275757e-02 -4.600682854652404785e-01 -1.270505487918853760e-01 4.656126797199249268e-01
2.668000000000000000e+03 3.371493339538574219e+00 8.074481964111328125e+00 6.677912315353751183e-04 4.249684570822864771e-04 3.278279036749154329e-04 -2.067655557766556740e-03
2.669000000000000000e+03 3.372528791427612305e+00 8.918194770812988281e+00 3.394176601432263851e-04 3.712640609592199326e-04 2.132045192411169410e-04 -2.213227562606334686e-03
2.670000000000000000e+03 2.588941574096679688e+00 8.927092552185058594e+00 4.333824035711586475e-04 1.684625982306897640e-03 6.354025099426507950e-04 -2.147834282368421555e-03
2.671000000000000000e+03 3.217209339141845703e+00 -1.465942764282226562e+01 1.700595170259475708e-01 -9.551899433135986328e-01 -2.355391234159469604e-01 -7.113308459520339966e-02
2.672000000000000000e+03 2.533719778060913086e+00 -1.790989685058593750e+01 9.513937681913375854e-02 -1.107120275497436523e+00 -3.035942614078521729e-01 1.801972389221191406e-01
2.673000000000000000e+03 3.222264289855957031e+00 -1.626715660095214844e+01 1.674073487520217896e-01 -9.342001080513000488e-01 -2.300378233194351196e-01 7.812941074371337891e-02
2.674000000000000000e+03 2.665223360061645508e+00 -6.661913871765136719e+00 -1.333972532302141190e-02 -5.414708256721496582e-01 -1.664431691169738770e-01 -4.457887411117553711e-01
2.675000000000000000e+03 2.459950923919677734e+00 1.458349418640136719e+01 -2.818270353600382805e-03 1.509992405772209167e-03 -3.924834309145808220e-04 1.100273919291794300e-03
2.676000000000000000e+03 3.158509492874145508e+00 1.616880989074707031e+01 -6.748739164322614670e-03 -2.909704810008406639e-03 -2.897533122450113297e-03 6.598324049264192581e-03
2.677000000000000000e+03 3.188170194625854492e+00 1.774563217163085938e+01 -1.038710772991180420e-02 -7.145235780626535416e-03 -5.259703379124403000e-03 1.459666993468999863e-02
2.678000000000000000e+03 3.218029975891113281e+00 1.138161468505859375e+01 -3.278416697867214680e-04 5.653624539263546467e-04 7.125623233150690794e-05 -2.138650976121425629e-03
2.679000000000000000e+03 2.575404167175292969e+00 -7.504179954528808594e+00 1.191183738410472870e-02 -6.531400680541992188e-01 -1.923684775829315186e-01 -4.352095723152160645e-01
2.680000000000000000e+03 3.155382394790649414e+00 1.457709217071533203e+01 -3.673217026516795158e-03 -7.471661665476858616e-04 -1.326114987023174763e-03 1.576742390170693398e-03
2.681000000000000000e+03 2.484341382980346680e+00 1.218294429779052734e+01 -4.435103037394583225e-04 2.415161812677979469e-03 5.914954817853868008e-04 -1.818646560423076153e-03
2.682000000000000000e+03 3.153035640716552734e+00 1.537177753448486328e+01 -5.777669604867696762e-03 -1.452268916182219982e-03 -2.168981591239571571e-03 3.888268023729324341e-03
2.683000000000000000e+03 2.472047567367553711e+00 1.298933410644531250e+01 -1.339858863502740860e-03 2.383247716352343559e-03 3.130166733171790838e-04 -1.094466308131814003e-03
2.684000000000000000e+03 3.913292169570922852e+00 1.222721099853515625e+01 -1.453816774301230907e-03 -1.193420379422605038e-03 -7.941711228340864182e-04 -1.525834784843027592e-03
2.685000000000000000e+03 3.196761131286621094e+00 1.219283103942871094e+01 -1.280141179449856281e-03 4.930587601847946644e-04 -2.361247461521998048e-04 -1.566222170367836952e-03
2.686000000000000000e+03 3.214843273162841797e+00 -1.385772323608398438e+01 1.622854024171829224e-01 -9.469792246818542480e-01 -2.354081422090530396e-01 -1.434698700904846191e-01
2.687000000000000000e+03 4.681755542755126953e+00 1.842933654785156250e+01 -2.501773834228515625e-02 -5.850862711668014526e-03 -9.260579943656921387e-03 2.425933443009853363e-02
2.688000000000000000e+03 2.475889205932617188e+00 1.777887725830078125e+01 -7.340298499912023544e-03 -6.331588607281446457e-03 -4.101566039025783539e-03 1.217372622340917587e-02
2.689000000000000000e+03 3.191057682037353516e+00 2.254693603515625000e+01 -1.690417155623435974e-02 -4.368869960308074951e-02 -1.817786134779453278e-02 5.543051287531852722e-02
2.690000000000000000e+03 2.501047372817993164e+00 -1.148215770721435547e+01 8.252422511577606201e-02 -1.057884812355041504e+00 -2.926082015037536621e-01 -2.869554460048675537e-01
2.691000000000000000e+03 2.540967226028442383e+00 -1.871600532531738281e+01 8.669543266296386719e-02 -1.053322911262512207e+00 -2.899882495403289795e-01 2.315334826707839966e-01
2.692000000000000000e+03 4.585203170776367188e+00 -1.622046279907226562e+01 3.056881427764892578e-01 -4.944984316825866699e-01 -5.664308369159698486e-02 1.148081868886947632e-01
2.693000000000000000e+03 2.504963159561157227e+00 -1.228455162048339844e+01 9.323274344205856323e-02 -1.111150741577148438e+00 -3.053753972053527832e-01 -2.373571991920471191e-01
2.694000000000000000e+03 3.196468830108642578e+00 -1.065529823303222656e+01 1.098653152585029602e-01 -8.113982081413269043e-01 -2.104598730802536011e-01 -3.871482312679290771e-01
2.695000000000000000e+03 3.202950954437255859e+00 -1.145462894439697266e+01 1.290836334228515625e-01 -8.604852557182312012e-01 -2.194204926490783691e-01 -3.354665040969848633e-01
2.696000000000000000e+03 2.549964189529418945e+00 -1.952176284790039062e+01 7.467965781688690186e-02 -9.868821501731872559e-01 -2.736607491970062256e-01 2.789363265037536621e-01
2.697000000000000000e+03 3.235027551651000977e+00 -1.787664413452148438e+01 1.481353938579559326e-01 -8.643373847007751465e-01 -2.148606032133102417e-01 2.150444090366363525e-01
2.698000000000000000e+03 3.853153944015502930e+00 -2.854086303710937500e+01 -8.740019053220748901e-02 1.531170010566711426e-01 1.971504092216491699e-02 4.281217455863952637e-01
2.699000000000000000e+03 3.267031431198120117e+00 2.902868652343750000e+01 9.600009652785956860e-04 -1.589348316192626953e-01 -4.739245027303695679e-02 9.370742738246917725e-02
2.700000000000000000e+03 3.242001533508300781e+00 -1.868363952636718750e+01 1.331068277359008789e-01 -8.134706020355224609e-01 -2.041091322898864746e-01 2.780177891254425049e-01
2.701000000000000000e+03 3.324776887893676758e+00 2.822601318359375000e+01 -3.211659844964742661e-03 -1.410554945468902588e-01 -4.328014701604843140e-02 9.397932887077331543e-02
2.702000000000000000e+03 2.677867174148559570e+00 5.619199752807617188e+00 5.569248460233211517e-04 7.564799161627888680e-04 3.940214228350669146e-04 -1.396161969751119614e-03
2.703000000000000000e+03 3.859256982803344727e+00 5.803787231445312500e+00 7.421793416142463684e-04 1.090884470613673329e-04 2.553803205955773592e-04 -1.597407390363514423e-03
2.704000000000000000e+03 3.351888895034790039e+00 2.658806228637695312e+01 -9.699020534753799438e-03 -1.067920848727226257e-01 -3.494733199477195740e-02 8.981183171272277832e-02
2.705000000000000000e+03 2.605195999145507812e+00 4.853083133697509766e+00 2.966847678180783987e-04 6.940608145669102669e-04 2.972236834466457367e-04 -1.159270759671926498e-03
2.706000000000000000e+03 3.856563568115234375e+00 4.858161926269531250e+00 7.025436498224735260e-04 7.494909368688240647e-05 2.332478325115516782e-04 -1.309499726630747318e-03
2.707000000000000000e+03 3.380047082901000977e+00 4.098713874816894531e+00 4.983606631867587566e-04 3.017415292561054230e-04 2.400306693743914366e-04 -1.085390453226864338e-03
2.708000000000000000e+03 4.130132198333740234e+00 4.195469856262207031e+00 7.910074200481176376e-04 -8.915615035220980644e-05 2.105553721776232123e-04 -1.154222292825579643e-03
2.709000000000000000e+03 2.647533416748046875e+00 -2.432557296752929688e+01 -3.647990291938185692e-03 -4.562657475471496582e-01 -1.379741132259368896e-01 4.093126952648162842e-01
2.710000000000000000e+03 4.001331329345703125e+00 -2.182346153259277344e+01 8.116912096738815308e-02 -3.431677222251892090e-01 -7.859957963228225708e-02 5.038811564445495605e-01
2.711000000000000000e+03 3.530957937240600586e+00 -2.586119079589843750e+01 -3.802733495831489563e-02 -1.103543862700462341e-01 -4.451451450586318970e-02 4.816493988037109375e-01
2.712000000000000000e+03 3.377919197082519531e+00 -2.425252914428710938e+01 -2.453465946018695831e-03 -2.917525470256805420e-01 -8.826180547475814819e-02 4.848611950874328613e-01
2.713000000000000000e+03 3.209473609924316406e+00 2.174952888488769531e+01 -1.803396083414554596e-02 -3.382221236824989319e-02 -1.555685140192508698e-02 4.739509150385856628e-02
2.714000000000000000e+03 3.208913803100585938e+00 1.853155899047851562e+01 -1.325266156345605850e-02 -1.013196166604757309e-02 -7.015386596322059631e-03 2.008440159261226654e-02
2.715000000000000000e+03 3.170576333999633789e+00 1.696115875244140625e+01 -9.325926192104816437e-03 -4.580961540341377258e-03 -4.172066226601600647e-03 1.038946583867073059e-02
2.716000000000000000e+03 4.132420063018798828e+00 -5.435230731964111328e+00 -1.016568019986152649e-01 -2.697418332099914551e-01 -1.114195883274078369e-01 -5.487455725669860840e-01
2.717000000000000000e+03 3.212587833404541016e+00 -1.305769157409667969e+01 1.546494513750076294e-01 -9.283150434494018555e-01 -2.320996671915054321e-01 -2.122088074684143066e-01
2.718000000000000000e+03 3.208999395370483398e+00 -1.225694847106933594e+01 1.420856714248657227e-01 -8.987119197845458984e-01 -2.269878685474395752e-01 -2.761150002479553223e-01
2.719000000000000000e+03 3.077967643737792969e+00 -3.192214584350585938e+01 -5.822799354791641235e-02 2.762475311756134033e-01 6.540586054325103760e-02 2.488716095685958862e-01
2.720000000000000000e+03 3.816788434982299805e+00 -2.945859146118164062e+01 -8.951345831155776978e-02 2.069232314825057983e-01 3.522293269634246826e-02 3.865216970443725586e-01
2.721000000000000000e+03 3.696944475173950195e+00 -3.378296661376953125e+01 -7.155544310808181763e-02 3.954375684261322021e-01 9.716463834047317505e-02 2.133556008338928223e-01
2.722000000000000000e+03 4.580677509307861328e+00 -2.954077339172363281e+01 -1.216477677226066589e-01 2.960906922817230225e-01 5.233287811279296875e-02 4.245212078094482422e-01
2.723000000000000000e+03 3.528852462768554688e+00 3.328804779052734375e+01 1.258399616926908493e-02 -2.278078645467758179e-01 -6.456716358661651611e-02 8.049034327268600464e-02
2.724000000000000000e+03 2.673171043395996094e+00 3.199235534667968750e+01 3.332483349367976189e-03 -2.459744960069656372e-01 -7.279260456562042236e-02 7.367903739213943481e-02
2.725000000000000000e+03 3.270577907562255859e+00 3.109989547729492188e+01 5.653523374348878860e-03 -2.003307640552520752e-01 -5.840317159891128540e-02 8.973813802003860474e-02
2.726000000000000000e+03 3.804169654846191406e+00 3.399418258666992188e+01 1.011797785758972168e-02 -2.239312976598739624e-01 -6.414400041103363037e-02 8.004403114318847656e-02
2.727000000000000000e+03 3.268763303756713867e+00 -2.029044151306152344e+01 9.609571844339370728e-02 -6.860968470573425293e-01 -1.770003437995910645e-01 3.792024254798889160e-01
2.728000000000000000e+03 3.253175258636474609e+00 -1.948951339721679688e+01 1.162012666463851929e-01 -7.542930245399475098e-01 -1.914275288581848145e-01 3.318227231502532959e-01
2.729000000000000000e+03 3.220968484878540039e+00 -8.330186843872070312e+00 4.358922317624092102e-02 -6.257393956184387207e-01 -1.746450513601303101e-01 -4.858280122280120850e-01
2.730000000000000000e+03 3.268684148788452148e+00 -7.573049068450927734e+00 1.799273118376731873e-02 -5.519833564758300781e-01 -1.601971834897994995e-01 -5.006836652755737305e-01
2.731000000000000000e+03 3.186203718185424805e+00 2.979388618469238281e+01 2.717763883993029594e-03 -1.784688979387283325e-01 -5.272534117102622986e-02 9.133559465408325195e-02
2.732000000000000000e+03 7.585341644287109375e+01 2.836048698425292969e+01 -7.841823250055313110e-02 6.685886383056640625e+00 1.982240438461303711e+00 2.968922257423400879e-01
2.733000000000000000e+03 7.616185760498046875e+01 2.755079269409179688e+01 -6.691864877939224243e-02 6.665045738220214844e+00 1.979438066482543945e+00 3.142517507076263428e-01
2.734000000000000000e+03 3.701105117797851562e+00 -6.213156700134277344e+00 -4.136331751942634583e-02 -3.819193542003631592e-01 -1.269848048686981201e-01 -5.327074527740478516e-01
2.735000000000000000e+03 3.861888170242309570e+00 2.252927398681640625e+01 -2.513207495212554932e-02 -3.518796339631080627e-02 -1.809601113200187683e-02 6.230111792683601379e-02
2.736000000000000000e+03 3.658342361450195312e+00 -2.669705772399902344e+01 -5.584018304944038391e-02 -1.537038199603557587e-02 -2.136316895484924316e-02 4.743161797523498535e-01
2.737000000000000000e+03 3.257396936416625977e+00 2.415446853637695312e+01 -1.517635677009820938e-02 -6.618011742830276489e-02 -2.440694160759449005e-02 7.157439738512039185e-02
2.738000000000000000e+03 4.234986114501953125e+01 -2.181683731079101562e+01 1.775392174720764160e+00 9.116965293884277344e+00 3.267707347869873047e+00 -9.892383217811584473e-01
2.739000000000000000e+03 6.470886993408203125e+01 1.143661022186279297e+01 8.043077588081359863e-01 9.070930480957031250e+00 2.962571620941162109e+00 8.021536469459533691e-02
2.740000000000000000e+03 6.412100982666015625e+01 1.319968795776367188e+01 7.250191569328308105e-01 9.903418540954589844e+00 3.188531398773193359e+00 -1.034225746989250183e-01
2.741000000000000000e+03 3.391499710083007812e+01 -7.976589679718017578e+00 -2.985652446746826172e+00 6.766003608703613281e+00 1.134105324745178223e+00 -1.187627553939819336e+00
2.742000000000000000e+03 3.426578140258789062e+01 -9.833510398864746094e+00 -1.863791465759277344e+00 7.359893321990966797e+00 1.648830533027648926e+00 -1.208025574684143066e+00
2.743000000000000000e+03 7.636183929443359375e+01 -3.086951828002929688e+01 -2.705628275871276855e-01 9.422381401062011719e+00 2.745545625686645508e+00 -5.190717577934265137e-01
2.744000000000000000e+03 3.970618247985839844e+00 -3.296621322631835938e+01 -8.739965409040451050e-02 3.815682530403137207e-01 8.825057744979858398e-02 2.521833777427673340e-01
2.745000000000000000e+03 4.100344848632812500e+01 1.567712974548339844e+01 8.951391577720642090e-01 5.960905075073242188e+00 2.056813240051269531e+00 2.013557672500610352e+00
2.746000000000000000e+03 4.327282714843750000e+01 1.708317565917968750e+01 9.218383431434631348e-01 3.708542108535766602e+00 1.389114141464233398e+00 1.945243000984191895e+00
2.747000000000000000e+03 4.101480865478515625e+01 1.458132743835449219e+01 1.185741543769836426e+00 6.298097133636474609e+00 2.245151519775390625e+00 2.308585882186889648e+00
2.748000000000000000e+03 4.212285232543945312e+01 1.479437923431396484e+01 1.487801432609558105e+00 4.883276462554931641e+00 1.911323308944702148e+00 2.480705738067626953e+00
2.749000000000000000e+03 4.140770435333251953e+00 3.483378219604492188e+01 1.767335087060928345e-02 -2.127384245395660400e-01 -5.851952359080314636e-02 7.549808919429779053e-02
2.750000000000000000e+03 3.265084505081176758e+00 3.520492172241210938e+01 7.745358161628246307e-03 -2.649621069431304932e-01 -7.716502249240875244e-02 6.478421390056610107e-02
2.751000000000000000e+03 3.530889272689819336e+00 3.624081420898437500e+01 1.357893366366624832e-02 -2.584167718887329102e-01 -7.345134764909744263e-02 5.934002622961997986e-02
2.752000000000000000e+03 1.317198944091796875e+01 -1.413034057617187500e+01 1.485110878944396973e+00 2.696949720382690430e+00 1.254618167877197266e+00 7.423200011253356934e-01
2.753000000000000000e+03 1.228433895111083984e+01 -1.822691345214843750e+01 7.242493033409118652e-01 2.830111742019653320e+00 1.066308259963989258e+00 5.457563400268554688e-01
2.754000000000000000e+03 3.811907196044921875e+01 -7.477113604545593262e-01 1.709451556205749512e+00 1.175038433074951172e+01 4.037950992584228516e+00 -1.941486001014709473e+00
2.755000000000000000e+03 7.620871734619140625e+01 3.499390029907226562e+01 -4.560493677854537964e-02 6.841849803924560547e+00 2.038873434066772461e+00 9.277566522359848022e-02
2.756000000000000000e+03 7.550807189941406250e+01 3.390532684326171875e+01 -7.886973768472671509e-02 6.778676509857177734e+00 2.009942054748535156e+00 1.192132607102394104e-01
2.757000000000000000e+03 7.628668212890625000e+01 3.197611427307128906e+01 -6.990372389554977417e-02 6.800795078277587891e+00 2.019267320632934570e+00 1.700848191976547241e-01
2.758000000000000000e+03 4.618016815185546875e+01 2.098503494262695312e+01 2.850450202822685242e-02 2.373741149902343750e+00 7.206736803054809570e-01 1.440318942070007324e+00
2.759000000000000000e+03 1.358787536621093750e+01 1.335198497772216797e+01 1.917569024953991175e-04 5.910987500101327896e-03 1.830823253840208054e-03 2.395958639681339264e-03
2.760000000000000000e+03 1.194226551055908203e+01 -2.050830650329589844e+01 4.993245005607604980e-01 2.289962530136108398e+00 8.367860913276672363e-01 4.725964069366455078e-01
2.761000000000000000e+03 1.322012519836425781e+01 1.585748672485351562e+01 -5.746811628341674805e-03 -1.904715434648096561e-03 -2.295458223670721054e-03 -5.767981056123971939e-03
2.762000000000000000e+03 4.154751205444335938e+01 -1.570463943481445312e+01 1.018377780914306641e+00 7.757098197937011719e+00 2.632642745971679688e+00 -9.130305051803588867e-01
2.763000000000000000e+03 6.785535430908203125e+01 -2.671276473999023438e+01 -7.845076322555541992e-01 6.620081901550292969e+00 1.750672340393066406e+00 1.175747394561767578e+00
2.764000000000000000e+03 5.557067489624023438e+01 -6.267006397247314453e+00 6.876444816589355469e-02 1.617874264717102051e+00 5.059916377067565918e-01 1.306250333786010742e+00
2.765000000000000000e+03 5.652965927124023438e+01 -1.173250198364257812e+01 -1.370987415313720703e+00 5.788372755050659180e-01 -2.376450300216674805e-01 6.574356555938720703e-01
2.766000000000000000e+03 2.512538528442382812e+01 2.598629951477050781e+01 2.439333349466323853e-01 1.282724261283874512e+00 4.579972624778747559e-01 -1.075140237808227539e+00
2.767000000000000000e+03 2.412979698181152344e+01 2.472709083557128906e+01 2.460050135850906372e-01 6.916381716728210449e-01 2.812929451465606689e-01 -8.175668120384216309e-01
2.768000000000000000e+03 1.589324092864990234e+01 -4.428503513336181641e+00 -3.944948613643646240e-01 5.573896765708923340e-01 4.886845499277114868e-02 4.554049968719482422e-01
2.769000000000000000e+03 2.852854728698730469e+01 -2.348168849945068359e+00 2.373570919036865234e+00 6.547876596450805664e-01 9.085075855255126953e-01 1.681586027145385742e+00
2.770000000000000000e+03 3.991502761840820312e+01 1.543963718414306641e+01 7.290158271789550781e-01 7.047001838684082031e+00 2.332805156707763672e+00 1.649240732192993164e+00
2.771000000000000000e+03 3.556659698486328125e+01 4.854007720947265625e+00 1.724394440650939941e+00 1.496254920959472656e+01 5.006083011627197266e+00 9.534266591072082520e-01
2.772000000000000000e+03 6.377862167358398438e+01 7.112457752227783203e+00 7.405447363853454590e-01 7.697360992431640625e+00 2.531371593475341797e+00 5.565941333770751953e-01
2.773000000000000000e+03 6.284740447998046875e+01 6.565990447998046875e+00 8.012194633483886719e-01 7.478209972381591797e+00 2.483828783035278320e+00 1.028921604156494141e+00
2.774000000000000000e+03 6.138301467895507812e+01 2.213941574096679688e+00 6.419644951820373535e-01 4.845046520233154297e+00 1.646103262901306152e+00 1.126520752906799316e+00
2.775000000000000000e+03 6.499768829345703125e+01 1.520505237579345703e+01 1.062721490859985352e+00 9.364425659179687500e+00 3.128144264221191406e+00 -5.199350714683532715e-01
2.776000000000000000e+03 1.396951007843017578e+01 -2.387866401672363281e+01 -1.787975728511810303e-01 1.941493391990661621e+00 5.288087725639343262e-01 -2.007267065346240997e-02
2.777000000000000000e+03 6.187232208251953125e+01 2.987619400024414062e+00 6.075798273086547852e-01 5.370149135589599609e+00 1.793318629264831543e+00 1.021662235260009766e+00
2.778000000000000000e+03 3.640461349487304688e+01 3.924163103103637695e+00 2.156817674636840820e+00 1.440287303924560547e+01 4.967907428741455078e+00 5.062479972839355469e-01
2.779000000000000000e+03 1.740760993957519531e+01 -1.022203731536865234e+01 1.441846728324890137e+00 1.777386426925659180e+00 9.657699465751647949e-01 1.264602184295654297e+00
2.780000000000000000e+03 5.718358230590820312e+01 -3.879554986953735352e+00 8.598706722259521484e-01 1.927957653999328613e+00 8.363484740257263184e-01 1.186884284019470215e+00
2.781000000000000000e+03 4.447270584106445312e+01 1.820396232604980469e+01 6.997995376586914062e-01 2.900438785552978516e+00 1.080071568489074707e+00 1.680047512054443359e+00
2.782000000000000000e+03 5.584353923797607422e+00 4.935494899749755859e+00 1.028068712912499905e-03 -8.446844294667243958e-04 5.501530176843516529e-05 -9.997569723054766655e-04
2.783000000000000000e+03 8.938184738159179688e+00 4.001545429229736328e+00 1.111413235776126385e-03 -8.754954324103891850e-04 7.077534974087029696e-05 2.727973042055964470e-04
2.784000000000000000e+03 6.764959335327148438e+00 5.210511207580566406e+00 1.135737285949289799e-03 -1.304916921071708202e-03 -5.075388617115095258e-05 -5.999858258292078972e-04
2.785000000000000000e+03 4.914941310882568359e+00 4.439638614654541016e+00 9.093441185541450977e-04 -3.165618109051138163e-04 1.778346922947093844e-04 -1.098557026125490665e-03
2.786000000000000000e+03 4.961506366729736328e+00 5.573592662811279297e+00 9.683824609965085983e-04 -5.013273330405354500e-04 1.401165500283241272e-04 -1.362059614621102810e-03
2.787000000000000000e+03 3.299535369873046875e+01 -7.018154621124267578e+00 -2.704110145568847656e+00 5.320453643798828125e+00 7.849030494689941406e-01 -9.441378116607666016e-01
2.788000000000000000e+03 6.064373493194580078e+00 5.600228309631347656e+00 1.165737281553447247e-03 -1.018068171106278896e-03 4.430073386174626648e-05 -1.016505411826074123e-03
2.789000000000000000e+03 4.111572265625000000e+00 7.889605998992919922e+00 5.942580755800008774e-04 -5.781570216640830040e-04 4.830306352232582867e-06 -1.930735772475600243e-03
2.790000000000000000e+03 4.507805252075195312e+01 1.874841690063476562e+01 5.645264387130737305e-01 2.588052749633789062e+00 9.457737803459167480e-01 1.548946857452392578e+00
2.791000000000000000e+03 3.640831375122070312e+01 -2.707059860229492188e+01 4.195090234279632568e-01 6.184869289398193359e+00 1.981313467025756836e+00 9.331183433532714844e-01
2.792000000000000000e+03 3.507096481323242188e+01 -2.742391967773437500e+01 3.020676970481872559e-01 5.125757694244384766e+00 1.628347516059875488e+00 1.406675219535827637e+00
2.793000000000000000e+03 6.378569793701171875e+01 9.946524620056152344e+00 7.962172031402587891e-01 9.025609016418457031e+00 2.946547985076904297e+00 5.221221446990966797e-01
2.794000000000000000e+03 6.462103271484375000e+01 1.059378242492675781e+01 8.277397751808166504e-01 8.864547729492187500e+00 2.907686233520507812e+00 1.515694409608840942e-01
2.795000000000000000e+03 3.348853302001953125e+01 1.673748970031738281e+01 1.027607202529907227e+00 8.738306999206542969e+00 2.929774284362792969e+00 -1.881931543350219727e+00
2.796000000000000000e+03 3.520059585571289062e+01 8.976223945617675781e+00 1.035288572311401367e+00 1.331878566741943359e+01 4.306222438812255859e+00 -6.848838925361633301e-01
2.797000000000000000e+03 3.840396881103515625e+01 1.086866855621337891e+01 1.292683362960815430e+00 1.181750679016113281e+01 3.933057069778442383e+00 1.318945050239562988e+00
2.798000000000000000e+03 1.062381458282470703e+01 1.742683792114257812e+01 -5.312132462859153748e-02 5.339719355106353760e-03 -1.433448120951652527e-02 -1.283922418951988220e-02
2.799000000000000000e+03 1.251130294799804688e+01 1.566802692413330078e+01 -8.647993206977844238e-03 -6.897128652781248093e-03 -4.663536790758371353e-03 -7.827426306903362274e-03
2.800000000000000000e+03 2.003682518005371094e+01 -4.065585136413574219e+00 -6.523201614618301392e-02 4.853551983833312988e-01 1.260369569063186646e-01 1.113351821899414062e+00
2.801000000000000000e+03 1.318988704681396484e+01 -1.481788730621337891e+01 1.461732149124145508e+00 2.986786127090454102e+00 1.334555506706237793e+00 8.677725791931152344e-01
2.802000000000000000e+03 3.803724288940429688e+01 -1.669544219970703125e+01 1.201117277145385742e+00 9.431177139282226562e+00 3.189688444137573242e+00 -1.493576765060424805e+00
2.803000000000000000e+03 2.037957000732421875e+01 2.462694549560546875e+01 -1.356911212205886841e-01 4.618309810757637024e-02 -2.685240842401981354e-02 -1.556820422410964966e-01
2.804000000000000000e+03 2.049458503723144531e+01 2.620899581909179688e+01 1.047081649303436279e-01 2.401097714900970459e-01 1.034453809261322021e-01 -2.735604941844940186e-01
2.805000000000000000e+03 1.514066314697265625e+01 -2.671507072448730469e+01 -4.352844953536987305e-01 1.211180329322814941e+00 2.327687442302703857e-01 -6.529817730188369751e-02
2.806000000000000000e+03 6.624822998046875000e+01 -2.882693099975585938e+01 -8.826404213905334473e-01 4.383761882781982422e+00 1.050336480140686035e+00 1.021362185478210449e+00
2.807000000000000000e+03 5.889338684082031250e+01 -1.110821127891540527e+00 1.098761796951293945e+00 2.721827268600463867e+00 1.146176695823669434e+00 1.303740024566650391e+00
2.808000000000000000e+03 3.806560897827148438e+01 9.897553443908691406e+00 1.577863812446594238e+00 1.277816677093505859e+01 4.306808948516845703e+00 1.118371725082397461e+00
2.809000000000000000e+03 3.214210128784179688e+01 1.876575469970703125e+01 1.455132126808166504e+00 7.547849655151367188e+00 2.700894594192504883e+00 -2.076516151428222656e+00
2.810000000000000000e+03 3.210128402709960938e+01 2.111582565307617188e+01 7.265799641609191895e-01 6.251312255859375000e+00 2.093367576599121094e+00 -1.242904663085937500e+00
2.811000000000000000e+03 1.453482437133789062e+01 -1.225112628936767578e+01 1.674612522125244141e+00 2.560640335083007812e+00 1.270575881004333496e+00 9.166768193244934082e-01
2.812000000000000000e+03 1.465221023559570312e+01 -1.330224990844726562e+01 1.817206382751464844e+00 3.232019424438476562e+00 1.514767765998840332e+00 1.377872705459594727e+00
2.813000000000000000e+03 6.577443695068359375e+01 1.565392112731933594e+01 1.181267619132995605e+00 8.776480674743652344e+00 2.987324476242065430e+00 -4.362907409667968750e-01
2.814000000000000000e+03 6.515774536132812500e+01 1.587731361389160156e+01 1.213949561119079590e+00 9.023901939392089844e+00 3.071355581283569336e+00 -5.710449218750000000e-01
2.815000000000000000e+03 9.071796417236328125e+00 4.719457626342773438e+00 1.209930167533457279e-03 -9.350394830107688904e-04 8.246718789450824261e-05 3.154634614475071430e-04
2.816000000000000000e+03 6.340312576293945312e+01 -1.016394901275634766e+01 -1.540808200836181641e+00 3.252268433570861816e-01 -3.646744191646575928e-01 -8.292703032493591309e-01
2.817000000000000000e+03 3.609983062744140625e+01 2.684610605239868164e+00 2.737633705139160156e+00 1.363881874084472656e+01 4.912935733795166016e+00 2.385932058095932007e-01
2.818000000000000000e+03 3.878791427612304688e+01 -1.771354293823242188e+01 1.356429219245910645e+00 9.065998077392578125e+00 3.126728057861328125e+00 -1.276090860366821289e+00
2.819000000000000000e+03 6.843394470214843750e+01 -2.604601478576660156e+01 -7.213920950889587402e-01 7.598706722259521484e+00 2.063194274902343750e+00 1.045673370361328125e+00
2.820000000000000000e+03 1.433948230743408203e+01 -2.548520851135253906e+01 -3.673576414585113525e-01 1.526351094245910645e+00 3.476980328559875488e-01 -5.672781262546777725e-03
2.821000000000000000e+03 3.616907501220703125e+01 -1.138522434234619141e+01 -5.277332067489624023e-01 9.096885681152343750e+00 2.570745944976806641e+00 -1.122129797935485840e+00
2.822000000000000000e+03 3.623534393310546875e+01 -1.055293750762939453e+01 -1.307804107666015625e+00 8.961973190307617188e+00 2.296250820159912109e+00 -9.347118735313415527e-01
2.823000000000000000e+03 2.557432556152343750e+01 2.528643417358398438e+01 2.862895727157592773e-01 1.372957706451416016e+00 4.977741837501525879e-01 -1.158841967582702637e+00
2.824000000000000000e+03 2.198686981201171875e+01 -6.627771377563476562e+00 2.791625559329986572e-01 5.860620737075805664e-01 2.595673799514770508e-01 1.382320642471313477e+00
2.825000000000000000e+03 2.169718551635742188e+01 -3.743155241012573242e+00 1.389924883842468262e-01 3.734576702117919922e-01 1.537350416183471680e-01 1.246099472045898438e+00
2.826000000000000000e+03 5.294710159301757812e+01 -3.295174026489257812e+01 -3.309946656227111816e-01 7.551574707031250000e-01 1.272488385438919067e-01 -1.208262681961059570e+00
2.827000000000000000e+03 5.404420471191406250e+01 -3.457820129394531250e+01 4.683524370193481445e-02 6.804502606391906738e-01 2.181856483221054077e-01 -9.953601956367492676e-01
2.828000000000000000e+03 3.312456512451171875e+01 -1.369723558425903320e+00 1.974993586540222168e+00 7.570707321166992188e+00 2.863710165023803711e+00 1.411348938941955566e+00
2.829000000000000000e+03 3.361854171752929688e+01 -8.959254026412963867e-01 2.168761014938354492e+00 8.707223892211914062e+00 3.262795448303222656e+00 1.468953490257263184e+00
2.830000000000000000e+03 3.726545333862304688e+01 -2.120825767517089844e+01 1.356542587280273438e+00 9.160678863525390625e+00 3.155166387557983398e+00 -4.896026849746704102e-02
2.831000000000000000e+03 3.808102035522460938e+01 -1.856793975830078125e+01 1.260540604591369629e+00 9.433634757995605469e+00 3.208252429962158203e+00 -1.087196826934814453e+00
2.832000000000000000e+03 1.836344909667968750e+01 -4.275053977966308594e+00 -2.185286283493041992e-01 5.517397522926330566e-01 9.996334463357925415e-02 9.059485197067260742e-01
2.833000000000000000e+03 1.919938468933105469e+01 -4.186333179473876953e+00 -1.332122385501861572e-01 5.104364156723022461e-01 1.131672486662864685e-01 1.009897708892822266e+00
2.834000000000000000e+03 5.432240295410156250e+01 -5.397693634033203125e+00 4.212825298309326172e-01 1.745690464973449707e+00 6.500918865203857422e-01 1.364192724227905273e+00
2.835000000000000000e+03 5.683893585205078125e+01 -7.254867076873779297e+00 -2.548827230930328369e-01 1.424227714538574219e+00 3.508034944534301758e-01 1.132437705993652344e+00
2.836000000000000000e+03 1.736770629882812500e+01 4.745412349700927734e+00 2.016464895859826356e-05 6.194123416207730770e-04 1.918730995384976268e-04 1.225656451424583793e-04
2.837000000000000000e+03 5.938863372802734375e+01 -5.036695599555969238e-01 1.031992077827453613e+00 3.009526491165161133e+00 1.212455630302429199e+00 1.308538675308227539e+00
2.838000000000000000e+03 4.300332641601562500e+01 -2.506102943420410156e+01 1.980510830879211426e+00 8.730169296264648438e+00 3.213203907012939453e+00 -1.190631747245788574e+00
2.839000000000000000e+03 3.674510574340820312e+01 1.270490169525146484e+01 8.288149833679199219e-01 1.060429859161376953e+01 3.429934263229370117e+00 -1.916674524545669556e-01
2.840000000000000000e+03 3.712487792968750000e+01 8.225320816040039062e+00 1.641854405403137207e+00 1.393242931365966797e+01 4.672285079956054688e+00 7.633923292160034180e-01
2.841000000000000000e+03 4.668239974975585938e+01 2.157852554321289062e+01 -4.312268272042274475e-02 2.227257728576660156e+00 6.552405357360839844e-01 1.397698521614074707e+00
2.842000000000000000e+03 4.686886215209960938e+01 2.042061614990234375e+01 6.944280117750167847e-02 1.934767842292785645e+00 6.012632250785827637e-01 1.265514850616455078e+00
2.843000000000000000e+03 4.367835617065429688e+01 -1.908028602600097656e+01 1.772683024406433105e+00 9.040397644042968750e+00 3.243924140930175781e+00 -3.989496454596519470e-02
2.844000000000000000e+03 4.211911010742187500e+01 -2.064288520812988281e+01 1.784044981002807617e+00 8.954271316528320312e+00 3.221494913101196289e+00 -8.770250082015991211e-01
2.845000000000000000e+03 1.520916271209716797e+01 -2.878126525878906250e+01 -5.629344582557678223e-01 1.053558468818664551e+00 1.471872031688690186e-01 -4.550157487392425537e-02
2.846000000000000000e+03 6.469853973388671875e+01 1.681926155090332031e+01 1.376356482505798340e+00 9.147985458374023438e+00 3.157302618026733398e+00 -7.460945248603820801e-01
2.847000000000000000e+03 2.644084930419921875e+01 2.488923454284667969e+01 3.130627870559692383e-01 1.794234871864318848e+00 6.321892738342285156e-01 -1.349020123481750488e+00
2.848000000000000000e+03 2.883452606201171875e+01 -6.073426723480224609e+00 -8.208317756652832031e-01 1.241307109594345093e-01 -2.090103179216384888e-01 1.783401966094970703e+00
2.849000000000000000e+03 3.063227462768554688e+01 -6.996219635009765625e+00 -2.104220151901245117e+00 5.807998180389404297e-01 -4.570261240005493164e-01 2.493931651115417480e-01
2.850000000000000000e+03 5.829553222656250000e+01 -3.299721908569335938e+01 -5.294229388236999512e-01 8.922915905714035034e-03 -1.561500132083892822e-01 -1.961838901042938232e-01
2.851000000000000000e+03 5.245734786987304688e+01 2.307425689697265625e+01 -5.411854982376098633e-01 5.202023983001708984e-01 -6.294924300163984299e-03 5.042813420295715332e-01
2.852000000000000000e+03 6.404595947265625000e+01 7.984562873840332031e+00 7.492095828056335449e-01 8.047596931457519531e+00 2.639041900634765625e+00 4.448676407337188721e-01
2.853000000000000000e+03 6.476661682128906250e+01 1.225686740875244141e+01 8.308896422386169434e-01 9.241799354553222656e+00 3.021806716918945312e+00 -6.575117260217666626e-02
2.854000000000000000e+03 3.774324798583984375e+01 8.073260307312011719e+00 1.820169687271118164e+00 1.433019351959228516e+01 4.845108985900878906e+00 1.259219884872436523e+00
2.855000000000000000e+03 3.100311660766601562e+01 -3.345892715454101562e+01 -4.932808578014373779e-01 2.290487289428710938e+00 5.391619205474853516e-01 1.104597449302673340e+00
2.856000000000000000e+03 2.310463142395019531e+01 2.638280487060546875e+01 2.200760096311569214e-01 7.279459834098815918e-01 2.844066023826599121e-01 -6.912224888801574707e-01
2.857000000000000000e+03 3.718979644775390625e+01 1.229606047272682190e-01 2.029233455657958984e+00 1.197708511352539062e+01 4.201895713806152344e+00 -1.265546679496765137e+00
2.858000000000000000e+03 3.764329910278320312e+01 1.923341274261474609e+00 2.227818012237548828e+00 1.370390415191650391e+01 4.779516696929931641e+00 -1.168722271919250488e+00
2.859000000000000000e+03 6.428238677978515625e+01 8.861734390258789062e+00 7.891097664833068848e-01 8.374627113342285156e+00 2.749121189117431641e+00 3.444879651069641113e-01
2.860000000000000000e+03 2.035410690307617188e+01 2.541612243652343750e+01 -1.519521791487932205e-02 1.175829172134399414e-01 3.071630932390689850e-02 -1.984463185071945190e-01
2.861000000000000000e+03 4.737164306640625000e+01 2.308929443359375000e+01 -1.280715316534042358e-01 2.121605634689331055e+00 5.980602502822875977e-01 1.399306178092956543e+00
2.862000000000000000e+03 4.886288833618164062e+01 -1.329357814788818359e+01 6.593520641326904297e-01 1.642718672752380371e+00 6.906212568283081055e-01 1.574496030807495117e+00
2.863000000000000000e+03 4.817752456665039062e+01 -1.321106624603271484e+01 6.511855125427246094e-01 2.200479984283447266e+00 8.554996848106384277e-01 1.515991568565368652e+00
2.864000000000000000e+03 3.753090286254882812e+01 -1.393902587890625000e+01 8.595120310783386230e-01 9.214456558227539062e+00 3.022190809249877930e+00 -1.454397439956665039e+00
2.865000000000000000e+03 5.755730438232421875e+01 -3.074748277664184570e+00 1.059794783592224121e+00 2.109775304794311523e+00 9.508709907531738281e-01 1.218577146530151367e+00
2.866000000000000000e+03 5.795291137695312500e+01 -2.368021965026855469e+00 1.121103763580322266e+00 2.267913103103637695e+00 1.016705036163330078e+00 1.252420306205749512e+00
2.867000000000000000e+03 1.882472801208496094e+01 2.529784584045410156e+01 -9.461423009634017944e-02 9.192656725645065308e-02 -8.062996785156428814e-04 -6.583006680011749268e-02
2.868000000000000000e+03 1.807580757141113281e+01 2.531415557861328125e+01 -1.084236279129981995e-01 7.132835686206817627e-02 -1.112858299165964127e-02 -7.093421183526515961e-03
2.869000000000000000e+03 5.116776657104492188e+01 -7.431273937225341797e+00 -7.174630165100097656e-01 8.018969893455505371e-01 2.533019520342350006e-02 2.116863489151000977e+00
2.870000000000000000e+03 1.433764553070068359e+01 8.444176673889160156e+00 -6.998919998295605183e-04 2.156247617676854134e-03 4.369066446088254452e-04 1.423658221028745174e-03
2.871000000000000000e+03 1.287191009521484375e+01 -2.662372398376464844e+01 -4.518422186374664307e-01 1.407817840576171875e+00 2.867926955223083496e-01 2.273256629705429077e-01
2.872000000000000000e+03 3.688856124877929688e+01 3.579921007156372070e+00 2.122849225997924805e+00 1.440068054199218750e+01 4.957058906555175781e+00 1.736437678337097168e-01
2.873000000000000000e+03 4.156559753417968750e+01 1.523689842224121094e+01 1.150349736213684082e+00 5.495629787445068359e+00 1.993793845176696777e+00 2.256954431533813477e+00
2.874000000000000000e+03 1.602857971191406250e+01 7.442921638488769531e+00 -4.030194249935448170e-04 1.615512650460004807e-03 3.637479676399379969e-04 3.958827292080968618e-04
2.875000000000000000e+03 1.584371089935302734e+01 5.733371734619140625e+00 -5.011318717151880264e-05 9.900951990857720375e-04 2.819945802912116051e-04 5.044904537498950958e-04
2.876000000000000000e+03 2.768969917297363281e+01 -2.302368879318237305e+00 2.094632863998413086e+00 2.455098330974578857e-01 7.020428180694580078e-01 1.563856959342956543e+00
2.877000000000000000e+03 3.777238464355468750e+01 1.055580973625183105e+00 2.208519458770751953e+00 1.309683513641357422e+01 4.591606140136718750e+00 -1.613583922386169434e+00
2.878000000000000000e+03 4.455935287475585938e+01 -1.685082054138183594e+01 1.279993176460266113e+00 7.609468936920166016e+00 2.666838645935058594e+00 4.621310830116271973e-01
2.879000000000000000e+03 3.962117004394531250e+01 -1.692915344238281250e+01 1.343542933464050293e+00 8.593792915344238281e+00 2.981200695037841797e+00 -1.278667092323303223e+00
2.880000000000000000e+03 4.954032135009765625e+01 2.325450706481933594e+01 -2.315415143966674805e-01 1.331786513328552246e+00 3.300735056400299072e-01 1.082577228546142578e+00
2.881000000000000000e+03 6.187391662597656250e+01 -3.319247055053710938e+01 -3.159857690334320068e-01 1.387796044349670410e+00 3.215430676937103271e-01 5.039928555488586426e-01
2.882000000000000000e+03 6.262645339965820312e+01 -3.210194778442382812e+01 -6.485449075698852539e-01 1.599326133728027344e+00 2.852343916893005371e-01 6.477606892585754395e-01
2.883000000000000000e+03 3.558981704711914062e+01 4.188435077667236328e+00 2.161959886550903320e+00 1.481472873687744141e+01 5.093006610870361328e+00 1.113419890403747559e+00
2.884000000000000000e+03 3.673012542724609375e+01 6.450653076171875000e+00 1.471527695655822754e+00 1.474808883666992188e+01 4.865884780883789062e+00 8.909304141998291016e-01
2.885000000000000000e+03 1.204074382781982422e+01 2.042538070678710938e+01 -1.713479608297348022e-01 5.260103195905685425e-02 -3.562407940626144409e-02 -8.692367933690547943e-03
2.886000000000000000e+03 1.235956573486328125e+01 1.963517761230468750e+01 -1.422883868217468262e-01 3.100622817873954773e-02 -3.338464722037315369e-02 -3.395805135369300842e-02
2.887000000000000000e+03 1.570567703247070312e+01 -2.723088264465332031e+01 -4.569292962551116943e-01 1.085972189903259277e+00 1.887128502130508423e-01 -9.621977806091308594e-02
2.888000000000000000e+03 3.505450820922851562e+01 7.512045502662658691e-01 2.540964365005493164e+00 1.167485237121582031e+01 4.264745235443115234e+00 6.001006364822387695e-01
2.889000000000000000e+03 4.894847488403320312e+01 -7.386559009552001953e+00 -9.207953214645385742e-01 1.770914942026138306e-01 -2.231111526489257812e-01 1.583849191665649414e+00
2.890000000000000000e+03 3.792881774902343750e+01 -1.575111007690429688e+01 1.185940623283386230e+00 9.354144096374511719e+00 3.162025213241577148e+00 -1.561361432075500488e+00
2.891000000000000000e+03 5.840052795410156250e+01 -1.717369318008422852e+00 1.149564504623413086e+00 2.476988315582275391e+00 1.087965846061706543e+00 1.266777157783508301e+00
2.892000000000000000e+03 6.327801132202148438e+01 -3.029508972167968750e+01 -9.953659772872924805e-01 1.741976022720336914e+00 2.239830046892166138e-01 6.070106625556945801e-01
2.893000000000000000e+03 2.510879135131835938e+01 -5.142469882965087891e+00 1.854065805673599243e-01 3.589415550231933594e-01 1.633044332265853882e-01 1.795632719993591309e+00
2.894000000000000000e+03 3.809056472778320312e+01 -1.950220870971679688e+01 1.345307230949401855e+00 9.313198089599609375e+00 3.197551488876342773e+00 -8.090186119079589844e-01
2.895000000000000000e+03 7.123799896240234375e+01 -2.021358299255371094e+01 1.686480402946472168e+00 1.187510013580322266e+01 4.068474292755126953e+00 -3.418285250663757324e-01
2.896000000000000000e+03 7.128023529052734375e+01 -1.887623214721679688e+01 2.075859785079956055e+00 1.216692733764648438e+01 4.272836208343505859e+00 -2.840599119663238525e-01
2.897000000000000000e+03 4.961717224121093750e+01 -1.254069709777832031e+01 3.913808465003967285e-01 1.231715679168701172e+00 4.869289696216583252e-01 1.621300697326660156e+00
2.898000000000000000e+03 1.307816410064697266e+01 1.218826007843017578e+01 -8.418806828558444977e-05 2.406442537903785706e-03 6.966763176023960114e-04 3.153152763843536377e-03
2.899000000000000000e+03 1.283263301849365234e+01 1.069979190826416016e+01 -4.095082695130258799e-04 8.650088566355407238e-04 1.366501819575205445e-04 3.192616160959005356e-03
2.900000000000000000e+03 1.659960937500000000e+01 2.557659339904785156e+01 -1.108636260032653809e-01 7.346095889806747437e-02 -1.122079975903034210e-02 5.465665832161903381e-02
2.901000000000000000e+03 1.719216346740722656e+01 2.456296539306640625e+01 -2.110018730163574219e-01 2.666709572076797485e-02 -5.530043318867683411e-02 4.040309786796569824e-02
2.902000000000000000e+03 3.626003646850585938e+01 1.818169116973876953e+00 2.768756628036499023e+00 1.291802787780761719e+01 4.706035614013671875e+00 -1.931147873401641846e-01
2.903000000000000000e+03 7.033684539794921875e+01 -2.185904502868652344e+01 1.317644953727722168e+00 1.176451396942138672e+01 3.924647569656372070e+00 5.972382798790931702e-02
2.904000000000000000e+03 7.166660308837890625e+01 -1.983062362670898438e+01 1.793576598167419434e+00 1.145111465454101562e+01 3.973407506942749023e+00 -4.649527370929718018e-01
2.905000000000000000e+03 7.148040008544921875e+01 -1.810592079162597656e+01 2.110152006149291992e+00 1.182789611816406250e+01 4.181414127349853516e+00 -1.834564357995986938e-01
2.906000000000000000e+03 3.430184173583984375e+01 -3.023762130737304688e+01 -3.605187833309173584e-01 4.057237148284912109e+00 1.109015464782714844e+00 1.284536957740783691e+00
2.907000000000000000e+03 6.472267913818359375e+01 -3.059293556213378906e+01 -8.368216753005981445e-01 2.960954904556274414e+00 6.372399330139160156e-01 9.031439423561096191e-01
2.908000000000000000e+03 5.618013381958007812e+01 -3.490333175659179688e+01 1.537438929080963135e-01 3.280079662799835205e-01 1.445255577564239502e-01 -5.561775565147399902e-01
2.909000000000000000e+03 3.794859695434570312e+01 -2.137334823608398438e+01 1.528244256973266602e+00 8.831409454345703125e+00 3.107896089553833008e+00 -3.035330474376678467e-01
2.910000000000000000e+03 3.669762039184570312e+01 -2.395298385620117188e+01 1.335461139678955078e+00 7.713740825653076172e+00 2.714760541915893555e+00 6.686716079711914062e-01
2.911000000000000000e+03 2.537540245056152344e+01 -3.292787551879882812e+01 -4.231771826744079590e-01 2.187334746122360229e-01 -6.133311241865158081e-02 2.341335713863372803e-01
2.912000000000000000e+03 3.792511367797851562e+01 8.936230659484863281e+00 1.801499962806701660e+00 1.367903232574462891e+01 4.644159793853759766e+00 1.154361724853515625e+00
2.913000000000000000e+03 3.687677383422851562e+01 7.388419151306152344e+00 1.592051625251770020e+00 1.434643077850341797e+01 4.781544685363769531e+00 8.498837947845458984e-01
2.914000000000000000e+03 3.567147445678710938e+01 9.986080169677734375e+00 1.056876182556152344e+00 1.267269802093505859e+01 4.118872165679931641e+00 -6.954359412193298340e-01
2.915000000000000000e+03 4.750265884399414062e+01 -9.074616432189941406e+00 -3.458158075809478760e-01 1.310209870338439941e+00 2.893182039260864258e-01 1.088476300239562988e+00
2.916000000000000000e+03 4.748707962036132812e+01 -1.302428150177001953e+01 5.875287055969238281e-01 2.746595859527587891e+00 1.000237345695495605e+00 1.398993968963623047e+00
2.917000000000000000e+03 1.392567539215087891e+01 6.126146316528320312e+00 -2.307421964360401034e-04 6.858469569124281406e-04 1.365314383292570710e-04 1.240981975570321083e-03
2.918000000000000000e+03 6.444123077392578125e+01 6.832286834716796875e+00 6.969045400619506836e-01 7.477863311767578125e+00 2.452430248260498047e+00 2.461766451597213745e-01
2.919000000000000000e+03 3.712558364868164062e+01 -1.225085067749023438e+01 -1.398309599608182907e-02 9.055899620056152344e+00 2.712574720382690430e+00 -1.129936933517456055e+00
2.920000000000000000e+03 4.435819244384765625e+01 -1.525392723083496094e+01 7.512201070785522461e-01 6.548484802246093750e+00 2.189911603927612305e+00 3.003018498420715332e-01
2.921000000000000000e+03 3.368763351440429688e+01 1.349783897399902344e+01 9.323003292083740234e-01 1.071402740478515625e+01 3.493898391723632812e+00 -2.133455038070678711e+00
2.922000000000000000e+03 5.114847564697265625e+01 2.271885299682617188e+01 -4.730133116245269775e-01 7.649790048599243164e-01 8.758971840143203735e-02 7.185900807380676270e-01
2.923000000000000000e+03 3.805422973632812500e+01 -2.043864440917968750e+01 1.452037096023559570e+00 9.088322639465332031e+00 3.162107944488525391e+00 -5.466786026954650879e-01
2.924000000000000000e+03 5.886891555786132812e+01 -3.413465499877929688e+01 -5.078066885471343994e-02 3.319739401340484619e-01 8.435798436403274536e-02 -4.372230544686317444e-02
2.925000000000000000e+03 6.091561889648437500e+01 -3.439194869995117188e+01 4.685955867171287537e-02 1.077139377593994141e+00 3.371996879577636719e-01 2.947903275489807129e-01
2.926000000000000000e+03 3.327252960205078125e+01 1.746440124511718750e+01 1.117598176002502441e+00 8.313737869262695312e+00 2.829400777816772461e+00 -1.867091774940490723e+00
2.927000000000000000e+03 3.280233383178710938e+01 1.956164360046386719e+01 1.078624606132507324e+00 7.124710559844970703e+00 2.461000442504882812e+00 -1.453310370445251465e+00
2.928000000000000000e+03 6.230687332153320312e+01 2.186846351623535156e+01 -2.065564095973968506e-01 7.158996105194091797e+00 2.085731983184814453e+00 -1.323535680770874023e+00
2.929000000000000000e+03 3.700004577636718750e+01 -1.145765876770019531e+01 -6.599667072296142578e-01 9.018548965454101562e+00 2.507574796676635742e+00 -9.925361275672912598e-01
2.930000000000000000e+03 3.728520965576171875e+01 1.327124595642089844e+01 7.388831377029418945e-01 1.009338951110839844e+01 3.249681949615478516e+00 1.643696874380111694e-01
2.931000000000000000e+03 5.321501922607421875e+01 -3.377999496459960938e+01 -1.744306087493896484e-01 8.093433976173400879e-01 1.904738396406173706e-01 -1.202287554740905762e+00
2.932000000000000000e+03 5.097033691406250000e+01 -3.281029129028320312e+01 -2.519192695617675781e-01 1.897572636604309082e+00 4.936960041522979736e-01 -1.717872500419616699e+00
2.933000000000000000e+03 6.278188705444335938e+01 -1.060754013061523438e+01 -2.027547359466552734e+00 9.425624459981918335e-02 -5.799873471260070801e-01 -3.554855287075042725e-01
2.934000000000000000e+03 5.144564056396484375e+01 2.335590934753417969e+01 -3.243069946765899658e-01 8.082830905914306641e-01 1.451928168535232544e-01 7.440830469131469727e-01
2.935000000000000000e+03 3.753596878051757812e+01 -1.694653272628784180e+00 6.987238526344299316e-01 1.086026287078857422e+01 3.467695951461791992e+00 -1.298638343811035156e+00
2.936000000000000000e+03 6.541098022460937500e+01 1.824481010437011719e+01 1.327426671981811523e+00 8.418181419372558594e+00 2.923682451248168945e+00 -3.490134477615356445e-01
2.937000000000000000e+03 4.340083312988281250e+01 -2.656447792053222656e+01 1.585296988487243652e+00 8.397233963012695312e+00 2.994759082794189453e+00 -1.041762471199035645e+00
2.938000000000000000e+03 4.393559265136718750e+01 -2.553966140747070312e+01 2.056408166885375977e+00 9.225990295410156250e+00 3.384719371795654297e+00 -1.496293425559997559e+00
2.939000000000000000e+03 2.745254707336425781e+01 -3.460866928100585938e+01 -2.166900634765625000e-01 8.307995200157165527e-01 1.842328310012817383e-01 4.892274737358093262e-01
2.940000000000000000e+03 2.828852081298828125e+01 -3.371094894409179688e+01 -3.217114806175231934e-01 1.020583748817443848e+00 2.096616625785827637e-01 6.459808349609375000e-01
2.941000000000000000e+03 1.788971519470214844e+01 -3.073993492126464844e+01 -6.076971292495727539e-01 6.524506807327270508e-01 1.342606730759143829e-02 -1.976145803928375244e-01
2.942000000000000000e+03 1.384416675567626953e+01 9.197758674621582031e+00 -5.839682416990399361e-04 2.177159301936626434e-03 4.779573355335742235e-04 2.086906228214502335e-03
2.943000000000000000e+03 6.231797790527343750e+01 3.800418376922607422e+00 6.437168717384338379e-01 5.910163402557373047e+00 1.966164112091064453e+00 8.898966908454895020e-01
2.944000000000000000e+03 6.274212265014648438e+01 4.619770526885986328e+00 6.814086437225341797e-01 6.410778522491455078e+00 2.127656221389770508e+00 8.116961717605590820e-01
2.945000000000000000e+03 5.498813629150390625e+01 -1.194930648803710938e+01 -1.013931393623352051e+00 5.052014589309692383e-01 -1.526189893484115601e-01 9.398918151855468750e-01
2.946000000000000000e+03 5.334643173217773438e+01 -1.214952754974365234e+01 -5.615700483322143555e-01 4.762651324272155762e-01 -2.559147775173187256e-02 1.217373728752136230e+00
2.947000000000000000e+03 2.786911773681640625e+01 2.539156150817871094e+01 7.547739148139953613e-02 2.839325189590454102e+00 8.744407892227172852e-01 -1.477431654930114746e+00
2.948000000000000000e+03 4.231610488891601562e+01 -2.387863159179687500e+01 2.003909349441528320e+00 8.769899368286132812e+00 3.232142686843872070e+00 -1.154384136199951172e+00
2.949000000000000000e+03 3.704032516479492188e+01 1.073295879364013672e+01 1.180809140205383301e+00 1.211287403106689453e+01 3.988105058670043945e+00 1.594776809215545654e-01
2.950000000000000000e+03 6.796171569824218750e+01 -1.130569934844970703e+01 -2.078407287597656250e+00 7.424487113952636719e+00 1.603823900222778320e+00 -2.178670644760131836e+00
2.951000000000000000e+03 6.769044494628906250e+01 -1.074224185943603516e+01 -2.063551664352416992e+00 6.733746528625488281e+00 1.401058435440063477e+00 -2.267434120178222656e+00
2.952000000000000000e+03 4.284115982055664062e+01 -2.255714797973632812e+01 1.733454108238220215e+00 9.435439109802246094e+00 3.350667953491210938e+00 -1.204101085662841797e+00
2.953000000000000000e+03 4.135068893432617188e+01 -5.002297878265380859e+00 -1.940830945968627930e+00 6.690613746643066406e+00 1.424934864044189453e+00 -2.454404592514038086e+00
2.954000000000000000e+03 4.274393463134765625e+01 -6.108695983886718750e+00 -1.767845511436462402e+00 4.395094394683837891e+00 7.881746292114257812e-01 -1.918871164321899414e+00
2.955000000000000000e+03 2.057771873474121094e+01 -3.325880432128906250e+01 -4.636125266551971436e-01 3.629994392395019531e-01 -3.018392249941825867e-02 -2.316548377275466919e-01
2.956000000000000000e+03 6.321050262451171875e+01 -3.112641334533691406e+01 -8.342671990394592285e-01 1.841106534004211426e+00 3.020517826080322266e-01 7.060321569442749023e-01
2.957000000000000000e+03 5.013998413085937500e+01 -8.474356651306152344e+00 -4.565821290016174316e-01 6.335185766220092773e-01 5.308093130588531494e-02 2.003655672073364258e+00
2.958000000000000000e+03 5.031507873535156250e+01 -7.826366901397705078e+00 -6.623833775520324707e-01 5.461158156394958496e-01 -3.488027304410934448e-02 2.030424118041992188e+00
2.959000000000000000e+03 7.092011260986328125e+01 -1.496764087677001953e+01 1.095237255096435547e+00 1.138944435119628906e+01 3.745404481887817383e+00 2.726782858371734619e-01
2.960000000000000000e+03 3.992853546142578125e+01 1.433572483062744141e+01 9.298055768013000488e-01 7.585973262786865234e+00 2.554733753204345703e+00 1.886445522308349609e+00
2.961000000000000000e+03 6.987230682373046875e+01 -2.263936996459960938e+01 9.254124760627746582e-01 1.131400871276855469e+01 3.671826362609863281e+00 3.664557635784149170e-01
2.962000000000000000e+03 7.162390899658203125e+01 -2.085510826110839844e+01 1.501743078231811523e+00 1.127373600006103516e+01 3.832643508911132812e+00 -5.511966943740844727e-01
2.963000000000000000e+03 5.018472290039062500e+01 -3.351700973510742188e+01 -3.323792517185211182e-01 2.626405000686645508e+00 6.882076859474182129e-01 -1.863953232765197754e+00
2.964000000000000000e+03 1.232376956939697266e+01 1.008253955841064453e+01 -2.736077003646641970e-04 2.877652696042787284e-05 -7.344935875153169036e-05 2.760054776445031166e-03
2.965000000000000000e+03 6.900637054443359375e+01 -2.533853912353515625e+01 -5.870749354362487793e-01 8.640786170959472656e+00 2.416113376617431641e+00 7.661859393119812012e-01
2.966000000000000000e+03 7.586067962646484375e+01 -2.513314819335937500e+01 -7.993130385875701904e-02 9.042846679687500000e+00 2.688874721527099609e+00 -1.186350226402282715e+00
2.967000000000000000e+03 7.034626770019531250e+01 -1.223584747314453125e+01 -1.167743682861328125e+00 1.004176521301269531e+01 2.662206411361694336e+00 -3.211875557899475098e-01
2.968000000000000000e+03 6.869197845458984375e+01 -1.191864395141601562e+01 -1.693320512771606445e+00 9.012731552124023438e+00 2.195823192596435547e+00 -1.638220548629760742e+00
2.969000000000000000e+03 3.015431022644042969e+01 2.284274673461914062e+01 3.397720456123352051e-01 4.807211875915527344e+00 1.544095158576965332e+00 -1.583979487419128418e+00
2.970000000000000000e+03 5.079113006591796875e+01 -3.478218460083007812e+01 -2.890581488609313965e-01 2.384958267211914062e+00 6.287699937820434570e-01 -1.584269523620605469e+00
2.971000000000000000e+03 5.006066894531250000e+01 -3.249080276489257812e+01 -2.372462153434753418e-01 2.662155151367187500e+00 7.274726629257202148e-01 -1.951320528984069824e+00
2.972000000000000000e+03 6.946862030029296875e+01 -1.230256652832031250e+01 -1.312341570854187012e+00 9.916151046752929688e+00 2.581142902374267578e+00 -9.344116449356079102e-01
2.973000000000000000e+03 6.862424468994140625e+01 -1.118550014495849609e+01 -1.969491124153137207e+00 8.310122489929199219e+00 1.902189493179321289e+00 -1.780337333679199219e+00
2.974000000000000000e+03 2.582581710815429688e+01 -7.184219837188720703e+00 -8.441122174263000488e-01 6.232089400291442871e-01 -6.627098470926284790e-02 1.431448101997375488e+00
2.975000000000000000e+03 2.659331512451171875e+01 -5.854190349578857422e+00 -2.616943120956420898e-01 3.629873692989349365e-01 3.038792125880718231e-02 1.988973379135131836e+00
2.976000000000000000e+03 4.199845504760742188e+01 -5.921771049499511719e+00 -1.974096298217773438e+00 5.612386703491210938e+00 1.091487169265747070e+00 -2.178207635879516602e+00
2.977000000000000000e+03 1.941584014892578125e+01 -9.004398345947265625e+00 1.007794976234436035e+00 9.424155354499816895e-01 5.850631594657897949e-01 1.319887518882751465e+00
2.978000000000000000e+03 1.671020126342773438e+01 -4.382334709167480469e+00 -3.495982289314270020e-01 5.746222138404846191e-01 6.750719249248504639e-02 6.185330748558044434e-01
2.979000000000000000e+03 2.297646903991699219e+01 -3.251829528808593750e+01 -5.258960127830505371e-01 5.203751102089881897e-02 -1.421575397253036499e-01 -9.078123420476913452e-02
2.980000000000000000e+03 3.681123733520507812e+01 -2.612473869323730469e+01 6.858245134353637695e-01 6.668082237243652344e+00 2.206171989440917969e+00 7.409116029739379883e-01
2.981000000000000000e+03 2.180466079711914062e+01 2.632891845703125000e+01 1.629529595375061035e-01 4.060939252376556396e-01 1.707140654325485229e-01 -4.542652070522308350e-01
2.982000000000000000e+03 3.969869613647460938e+01 -3.567331314086914062e+00 -1.013580560684204102e+00 9.653609275817871094e+00 2.592008829116821289e+00 -2.117151737213134766e+00
2.983000000000000000e+03 4.254625701904296875e+01 -2.595941543579101562e+01 1.655343890190124512e+00 8.196367263793945312e+00 2.955513238906860352e+00 -8.774774074554443359e-01
2.984000000000000000e+03 1.186661624908447266e+01 1.862984085083007812e+01 -9.150247275829315186e-02 1.520874071866273880e-02 -2.288812026381492615e-02 -2.899990230798721313e-02
2.985000000000000000e+03 3.923101806640625000e+01 -4.664442539215087891e+00 -1.996257781982421875e+00 9.506163597106933594e+00 2.252971649169921875e+00 -1.820190787315368652e+00
2.986000000000000000e+03 7.083129882812500000e+01 -1.380989646911621094e+01 5.181470885872840881e-02 1.085283088684082031e+01 3.271393775939941406e+00 2.700427174568176270e-01
2.987000000000000000e+03 3.485979080200195312e+01 -9.414068222045898438e+00 -2.268637180328369141e+00 8.069786071777343750e+00 1.740344762802124023e+00 -1.058358788490295410e+00
2.988000000000000000e+03 4.451293945312500000e+01 -7.953048706054687500e+00 -1.075759887695312500e+00 2.968338966369628906e+00 5.677737593650817871e-01 -6.631482243537902832e-01
2.989000000000000000e+03 4.553126525878906250e+01 -1.397995948791503906e+01 5.627577900886535645e-01 4.917275905609130859e+00 1.644010186195373535e+00 8.349311947822570801e-01
2.990000000000000000e+03 4.442291259765625000e+01 -8.543719291687011719e+00 -9.362820982933044434e-01 3.367898702621459961e+00 7.294850349426269531e-01 -5.909127593040466309e-01
2.991000000000000000e+03 5.577467727661132812e+01 -1.184836578369140625e+01 -1.210988163948059082e+00 5.390537977218627930e-01 -2.015803158283233643e-01 8.138726949691772461e-01
2.992000000000000000e+03 7.147832489013671875e+01 -2.200650978088378906e+01 1.067755699157714844e+00 1.086399841308593750e+01 3.579526185989379883e+00 -6.305133104324340820e-01
2.993000000000000000e+03 7.053263092041015625e+01 -2.308844947814941406e+01 5.209417343139648438e-01 1.077355957031250000e+01 3.388350248336791992e+00 -2.681787908077239990e-01
2.994000000000000000e+03 3.877911376953125000e+01 -3.731749534606933594e+00 -1.274857282638549805e+00 9.989641189575195312e+00 2.614435195922851562e+00 -1.657136917114257812e+00
2.995000000000000000e+03 4.207245254516601562e+01 -2.480296707153320312e+01 1.860260248184204102e+00 8.333853721618652344e+00 3.058234214782714844e+00 -9.425762891769409180e-01
2.996000000000000000e+03 6.516350555419921875e+01 1.958669853210449219e+01 1.069004774093627930e+00 8.171055793762207031e+00 2.772018194198608398e+00 -1.363313794136047363e-01
2.997000000000000000e+03 7.123520660400390625e+01 -1.614540672302246094e+01 1.879785537719726562e+00 1.166530132293701172e+01 4.063526153564453125e+00 1.479970663785934448e-01
2.998000000000000000e+03 2.137846183776855469e+01 -3.491061019897460938e+01 -2.736102938652038574e-01 3.658029437065124512e-01 2.765779756009578705e-02 -1.537607461214065552e-01
2.999000000000000000e+03 3.367428207397460938e+01 -3.083670043945312500e+01 -4.550853669643402100e-01 3.636044740676879883e+00 9.542878270149230957e-01 1.293246984481811523e+00
3.000000000000000000e+03 3.379912567138671875e+01 -2.958832168579101562e+01 -1.164074093103408813e-01 3.833498239517211914e+00 1.115127205848693848e+00 1.376366615295410156e+00
3.001000000000000000e+03 1.241173362731933594e+01 -1.406269073486328125e+01 1.398703932762145996e+00 2.251858234405517578e+00 1.095168709754943848e+00 5.234220623970031738e-01
3.002000000000000000e+03 1.493091869354248047e+01 -1.010636043548583984e+01 1.025757074356079102e+00 1.893814325332641602e+00 8.758714199066162109e-01 5.762810707092285156e-01
3.003000000000000000e+03 3.806995391845703125e+01 -1.763628196716308594e+01 1.219346284866333008e+00 9.470131874084472656e+00 3.206843376159667969e+00 -1.330391883850097656e+00
3.004000000000000000e+03 5.363171577453613281e+00 2.357411766052246094e+01 -4.054048657417297363e-02 -2.469597570598125458e-02 -1.957093924283981323e-02 9.121982008218765259e-02
3.005000000000000000e+03 6.479454040527343750e+01 2.099022483825683594e+01 3.605731427669525146e-01 7.916851520538330078e+00 2.483227491378784180e+00 -1.556915342807769775e-01
3.006000000000000000e+03 1.550722408294677734e+01 2.500614547729492188e+01 -1.689121276140213013e-01 8.094387501478195190e-02 -2.639047615230083466e-02 9.717632085084915161e-02
3.007000000000000000e+03 1.210471630096435547e+01 -1.971915054321289062e+01 5.561122298240661621e-01 2.536229848861694336e+00 9.277026057243347168e-01 4.600391685962677002e-01
3.008000000000000000e+03 1.234464168548583984e+01 -2.235632896423339844e+01 1.529093682765960693e-01 2.121870517730712891e+00 6.824339628219604492e-01 4.583640396595001221e-01
3.009000000000000000e+03 2.369298744201660156e+01 -3.420075607299804688e+01 -2.536750733852386475e-01 2.082466185092926025e-01 -1.362853497266769409e-02 1.841852441430091858e-02
3.010000000000000000e+03 5.293459320068359375e+01 2.146536827087402344e+01 -1.435571551322937012e+00 1.520544737577438354e-01 -3.850551247596740723e-01 1.373178046196699142e-02
3.011000000000000000e+03 2.904138946533203125e+01 2.396708297729492188e+01 1.564427763223648071e-01 3.665241956710815430e+00 1.146505355834960938e+00 -1.638120293617248535e+00
3.012000000000000000e+03 3.210425567626953125e+01 2.206012344360351562e+01 3.354281485080718994e-01 5.955563545227050781e+00 1.887297391891479492e+00 -1.057876467704772949e+00
3.013000000000000000e+03 4.365161514282226562e+01 -3.073581314086914062e+01 -4.244729280471801758e-01 6.816950321197509766e+00 1.917743206024169922e+00 -7.452691197395324707e-01
3.014000000000000000e+03 4.509504318237304688e+01 -3.456254577636718750e+01 -1.107436895370483398e+00 5.302043914794921875e+00 1.258382201194763184e+00 -9.302621483802795410e-01
3.015000000000000000e+03 7.722624206542968750e+01 -4.005168914794921875e+01 -4.756541922688484192e-02 9.904223442077636719e+00 2.956997156143188477e+00 -9.004983305931091309e-02
3.016000000000000000e+03 3.068612670898437500e+01 -3.210590362548828125e+01 -4.444963634014129639e-01 1.949246883392333984e+00 4.514251649379730225e-01 1.131087064743041992e+00
3.017000000000000000e+03 4.729957580566406250e+01 -3.291833496093750000e+01 -6.901711225509643555e-01 4.818929195404052734e+00 1.238627433776855469e+00 -1.722481608390808105e+00
3.018000000000000000e+03 4.610797119140625000e+01 -3.137920951843261719e+01 -4.171684086322784424e-01 5.746984481811523438e+00 1.598944783210754395e+00 -1.583590507507324219e+00
3.019000000000000000e+03 4.349253845214843750e+01 -2.742872619628906250e+01 1.140118360519409180e+00 8.134954452514648438e+00 2.782521724700927734e+00 -9.037493467330932617e-01
3.020000000000000000e+03 3.786566257476806641e+00 4.177265167236328125e+01 2.032399363815784454e-02 -3.035313487052917480e-01 -8.496220409870147705e-02 1.398416515439748764e-02
3.021000000000000000e+03 5.072670459747314453e+00 -3.629003143310546875e+01 -1.012293174862861633e-01 5.002940893173217773e-01 1.197194382548332214e-01 1.580822616815567017e-01
3.022000000000000000e+03 3.813123464584350586e+00 -4.056627655029296875e+01 -4.863596335053443909e-02 5.303926467895507812e-01 1.445270180702209473e-01 2.921217307448387146e-02
3.023000000000000000e+03 5.098277091979980469e+00 3.695436477661132812e+01 3.033921867609024048e-02 -1.693298220634460449e-01 -4.169718176126480103e-02 6.240761280059814453e-02
3.024000000000000000e+03 4.170092105865478516e+00 4.033937454223632812e+01 3.572812676429748535e-02 -2.386233359575271606e-01 -6.086856499314308167e-02 3.024428710341453552e-02
3.025000000000000000e+03 3.263393020629882812e+01 -1.016041159629821777e+00 2.675710678100585938e+00 7.284305095672607422e+00 2.988004684448242188e+00 2.077955484390258789e+00
3.026000000000000000e+03 3.402243041992187500e+01 -1.577771425247192383e+00 1.209299802780151367e+00 8.710963249206542969e+00 2.976078748703002930e+00 6.534791588783264160e-01
3.027000000000000000e+03 1.205948448181152344e+01 1.387023258209228516e+01 -3.549576271325349808e-03 -3.420037217438220978e-03 -2.090884139761328697e-03 2.106425381498411298e-04
3.028000000000000000e+03 1.263230609893798828e+01 1.487315273284912109e+01 -4.643544089049100876e-03 -2.734107431024312973e-03 -2.213295549154281616e-03 -2.287889597937464714e-03
3.029000000000000000e+03 2.431409645080566406e+01 -6.385576725006103516e+00 -4.256774485111236572e-02 5.284346342086791992e-01 1.457600742578506470e-01 1.550133466720581055e+00
3.030000000000000000e+03 2.576607131958007812e+01 -2.736140012741088867e+00 1.261047005653381348e+00 -4.371420945972204208e-03 3.770026564598083496e-01 1.499626517295837402e+00
3.031000000000000000e+03 5.849491882324218750e+01 -1.058771896362304688e+01 -1.517217397689819336e+00 8.077339529991149902e-01 -2.128450423479080200e-01 5.510671138763427734e-01
3.032000000000000000e+03 5.932667922973632812e+01 -1.115298557281494141e+01 -1.935409307479858398e+00 7.030599117279052734e-01 -3.697048127651214600e-01 2.770795524120330811e-01
3.033000000000000000e+03 1.262906837463378906e+01 -1.573355007171630859e+01 1.261395573616027832e+00 2.823505640029907227e+00 1.225470304489135742e+00 7.403305768966674805e-01
3.034000000000000000e+03 4.491521453857421875e+01 -6.771790504455566406e+00 -1.459656476974487305e+00 1.880212187767028809e+00 1.261667311191558838e-01 -5.583888888359069824e-01
3.035000000000000000e+03 4.728514099121093750e+01 -1.374063491821289062e+01 7.390657067298889160e-01 3.116924285888671875e+00 1.156796932220458984e+00 1.418986797332763672e+00
3.036000000000000000e+03 3.553416824340820312e+01 1.695847272872924805e+00 2.971330404281616211e+00 1.275537776947021484e+01 4.718012809753417969e+00 3.125938773155212402e-01
3.037000000000000000e+03 3.572446823120117188e+01 9.256934523582458496e-01 2.622901678085327148e+00 1.211769390106201172e+01 4.422178745269775391e+00 2.314940840005874634e-02
3.038000000000000000e+03 3.418103790283203125e+01 -5.328972339630126953e-01 2.037198305130004883e+00 9.807844161987304688e+00 3.553512811660766602e+00 1.067806601524353027e+00
3.039000000000000000e+03 1.869235992431640625e+01 -9.176225662231445312e+00 1.048921704292297363e+00 1.192191362380981445e+00 6.723338961601257324e-01 1.300925850868225098e+00
3.040000000000000000e+03 1.717246627807617188e+01 -9.543765068054199219e+00 1.043007969856262207e+00 1.664994239807128906e+00 8.124006390571594238e-01 1.090217709541320801e+00
3.041000000000000000e+03 5.254274749755859375e+01 -1.227738285064697266e+01 -3.225227296352386475e-01 4.875451326370239258e-01 4.950672015547752380e-02 1.336030602455139160e+00
3.042000000000000000e+03 5.266804122924804688e+01 -7.361860752105712891e+00 -5.704194903373718262e-01 1.319428324699401855e+00 2.247026562690734863e-01 1.898061633110046387e+00
3.043000000000000000e+03 2.114900016784667969e+01 -7.795635223388671875e+00 5.220256447792053223e-01 6.449398398399353027e-01 3.500896394252777100e-01 1.289823412895202637e+00
3.044000000000000000e+03 5.177375411987304688e+01 -7.650728225708007812e+00 -6.197209954261779785e-01 1.076659560203552246e+00 1.370815783739089966e-01 2.066529750823974609e+00
3.045000000000000000e+03 1.600933647155761719e+01 4.555102825164794922e+00 -4.503421678236918524e-06 7.028194377198815346e-04 2.094947994919493794e-04 4.327876958996057510e-04
3.046000000000000000e+03 1.614206886291503906e+01 6.302911281585693359e+00 -4.013050929643213749e-04 1.083590323105454445e-03 2.046855515800416470e-04 4.849463875871151686e-04
3.047000000000000000e+03 5.173569869995117188e+01 -1.248921966552734375e+01 -5.474655330181121826e-02 5.420252084732055664e-01 1.461835950613021851e-01 1.394732594490051270e+00
3.048000000000000000e+03 5.277598953247070312e+01 -1.301129341125488281e+01 -4.031097590923309326e-01 3.407624065876007080e-01 -1.870420388877391815e-02 1.023507237434387207e+00
3.049000000000000000e+03 1.268146324157714844e+01 5.124027252197265625e+00 3.434620739426463842e-04 2.165309269912540913e-04 1.679978886386379600e-04 1.191649585962295532e-03
3.050000000000000000e+03 1.471602249145507812e+01 4.523583889007568359e+00 1.274935348192229867e-04 6.250341539271175861e-04 2.257583109894767404e-04 7.515765610150992870e-04
3.051000000000000000e+03 2.277711486816406250e+01 -7.880654335021972656e+00 3.354148268699645996e-01 5.430845022201538086e-01 2.635498046875000000e-01 1.173861980438232422e+00
3.052000000000000000e+03 2.176995277404785156e+01 -7.537410259246826172e+00 4.357356727123260498e-01 5.981533527374267578e-01 3.101667165756225586e-01 1.284458637237548828e+00
3.053000000000000000e+03 4.413877105712890625e+01 -1.594875240325927734e+01 9.577967524528503418e-01 7.081785678863525391e+00 2.411874771118164062e+00 1.626218706369400024e-01
3.054000000000000000e+03 3.882052230834960938e+01 -1.672919654846191406e+01 1.283687233924865723e+00 8.944721221923828125e+00 3.068522453308105469e+00 -1.390686988830566406e+00
3.055000000000000000e+03 1.684190559387207031e+01 5.767745971679687500e+00 -1.437401806470006704e-04 7.312968373298645020e-04 1.762669999152421951e-04 2.297212195117026567e-04
3.056000000000000000e+03 1.202641010284423828e+01 5.113776683807373047e+00 4.911598516628146172e-04 -4.038374463561922312e-04 2.619672341097611934e-05 1.290509593673050404e-03
3.057000000000000000e+03 1.197974395751953125e+01 4.486061573028564453e+00 6.301696994341909885e-04 -6.838121043983846903e-05 1.685365568846464157e-04 1.006714417599141598e-03
3.058000000000000000e+03 2.051036643981933594e+01 -8.023001670837402344e+00 6.483072638511657715e-01 7.279539704322814941e-01 4.128783643245697021e-01 1.285130500793457031e+00
3.059000000000000000e+03 1.323531150817871094e+01 8.760821342468261719e+00 -4.963153623975813389e-04 1.330726081505417824e-03 2.503232099115848541e-04 2.227809280157089233e-03
3.060000000000000000e+03 2.721627044677734375e+01 -2.693021297454833984e+00 1.737511873245239258e+00 1.425515711307525635e-01 5.640190243721008301e-01 1.642847180366516113e+00
3.061000000000000000e+03 2.803652572631835938e+01 -2.737149238586425781e+00 1.994175195693969727e+00 4.403911232948303223e-01 7.303699254989624023e-01 1.714039564132690430e+00
3.062000000000000000e+03 1.352056789398193359e+01 6.902718067169189453e+00 -1.023747172439470887e-04 7.245215238071978092e-04 1.866440434241667390e-04 1.607645885087549686e-03
3.063000000000000000e+03 6.064605712890625000e+01 -1.072293376922607422e+01 -1.953476786613464355e+00 5.669630765914916992e-01 -4.159541130065917969e-01 2.036004066467285156e-01
3.064000000000000000e+03 6.038769149780273438e+01 -1.008765792846679688e+01 -1.653304815292358398e+00 7.219360470771789551e-01 -2.794106006622314453e-01 3.320810496807098389e-01
3.065000000000000000e+03 1.514330768585205078e+01 5.716948986053466797e+00 -3.443697351031005383e-04 8.310361299663782120e-04 1.459999184589833021e-04 7.032763678580522537e-04
3.066000000000000000e+03 5.044298934936523438e+01 -1.260996246337890625e+01 3.031858503818511963e-01 8.191221952438354492e-01 3.366924226284027100e-01 1.540590047836303711e+00
3.067000000000000000e+03 5.111918640136718750e+01 -1.288066768646240234e+01 1.488974392414093018e-01 6.074987053871154785e-01 2.269188463687896729e-01 1.401207327842712402e+00
3.068000000000000000e+03 1.068828964233398438e+01 5.269869327545166016e+00 7.540847291238605976e-04 -9.147437522187829018e-04 -4.819770765607245266e-05 1.064403913915157318e-03
3.069000000000000000e+03 9.828137397766113281e+00 4.640007972717285156e+00 9.708457509987056255e-04 -9.732198668643832207e-04 -7.122311558305227663e-07 6.634114542976021767e-04
3.070000000000000000e+03 4.209123992919921875e+01 1.698177909851074219e+01 7.670235633850097656e-01 4.734162807464599609e+00 1.650355935096740723e+00 1.953781008720397949e+00
3.071000000000000000e+03 4.154375076293945312e+01 1.633600616455078125e+01 8.343541026115417480e-01 5.307733058929443359e+00 1.842626094818115234e+00 1.999236583709716797e+00
3.072000000000000000e+03 4.236464309692382812e+01 -8.125595092773437500e+00 -1.588857054710388184e+00 5.575256347656250000e+00 1.195919871330261230e+00 -1.464135885238647461e+00
3.073000000000000000e+03 4.420415496826171875e+01 -6.531699657440185547e+00 -1.534781694412231445e+00 2.490687608718872070e+00 2.867718040943145752e-01 -1.005568504333496094e+00
3.074000000000000000e+03 1.202452659606933594e+01 -5.230019092559814453e+00 -3.184550404548645020e-01 4.657010734081268311e-01 4.417380690574645996e-02 -2.402212172746658325e-01
3.075000000000000000e+03 1.044021892547607422e+01 -4.596905231475830078e+00 -4.331036210060119629e-01 2.550621628761291504e-01 -5.341244488954544067e-02 -4.269028902053833008e-01
3.076000000000000000e+03 3.324982452392578125e+01 -6.390645503997802734e+00 -2.225450277328491211e+00 5.849444389343261719e+00 1.087198257446289062e+00 -9.208964705467224121e-01
3.077000000000000000e+03 3.281198120117187500e+01 -6.066032886505126953e+00 -1.878750801086425781e+00 5.193697452545166016e+00 9.944840073585510254e-01 -6.763909459114074707e-01
3.078000000000000000e+03 8.895397186279296875e+00 -4.661438465118408203e+00 -3.720489740371704102e-01 1.404357254505157471e-01 -6.948398053646087646e-02 -5.480493903160095215e-01
3.079000000000000000e+03 1.126523780822753906e+01 -5.245263099670410156e+00 -3.094796538352966309e-01 3.995304107666015625e-01 2.701522596180438995e-02 -3.430789411067962646e-01
3.080000000000000000e+03 1.823136901855468750e+01 -7.830452919006347656e+00 5.049214363098144531e-01 1.149015188217163086e+00 4.961809813976287842e-01 1.133552789688110352e+00
3.081000000000000000e+03 6.038748168945312500e+01 -3.118997514247894287e-01 8.392284512519836426e-01 3.468384027481079102e+00 1.292283773422241211e+00 1.072627186775207520e+00
3.082000000000000000e+03 6.086700057983398438e+01 3.658554553985595703e-01 7.320479154586791992e-01 3.886333942413330078e+00 1.385514497756958008e+00 1.050024271011352539e+00
3.083000000000000000e+03 4.812063694000244141e+00 -5.406723499298095703e+00 -1.282281279563903809e-01 -2.088257372379302979e-01 -1.011161580681800842e-01 -5.813248753547668457e-01
3.084000000000000000e+03 5.501429080963134766e+00 -5.550409317016601562e+00 -1.392217874526977539e-01 -1.481908559799194336e-01 -8.622379601001739502e-02 -6.180557012557983398e-01
3.085000000000000000e+03 7.324604034423828125e+00 -4.786904335021972656e+00 -2.892698347568511963e-01 2.132433094084262848e-02 -8.038365095853805542e-02 -6.069790124893188477e-01
3.086000000000000000e+03 7.448744773864746094e+00 -5.535379409790039062e+00 -1.901848614215850830e-01 4.243095591664314270e-02 -4.432617127895355225e-02 -6.278397440910339355e-01
3.087000000000000000e+03 6.041629791259765625e+00 -6.011088848114013672e+00 -1.038947105407714844e-01 -1.031249463558197021e-01 -6.210589781403541565e-02 -6.388493776321411133e-01
3.088000000000000000e+03 6.683637619018554688e+00 -5.692574501037597656e+00 -1.519798934459686279e-01 -3.553928807377815247e-02 -5.625575035810470581e-02 -6.388965249061584473e-01
3.089000000000000000e+03 5.531452941894531250e+01 -5.076152324676513672e+00 5.514566898345947266e-01 1.730590462684631348e+00 6.846141219139099121e-01 1.302517175674438477e+00
3.090000000000000000e+03 1.133059883117675781e+01 -5.914192199707031250e+00 -1.736281067132949829e-01 4.927565157413482666e-01 9.573852270841598511e-02 -3.402566015720367432e-01
3.091000000000000000e+03 8.210290908813476562e+00 -5.425987720489501953e+00 -2.237104475498199463e-01 1.157911196351051331e-01 -3.237579762935638428e-02 -6.038854718208312988e-01
3.092000000000000000e+03 1.433425045013427734e+01 -5.181114196777343750e+00 -3.025335967540740967e-01 6.421274542808532715e-01 1.018781587481498718e-01 1.815043836832046509e-01
3.093000000000000000e+03 1.429529380798339844e+01 -4.503033638000488281e+00 -4.551512002944946289e-01 5.026937723159790039e-01 1.426276564598083496e-02 1.468277126550674438e-01
3.094000000000000000e+03 1.545065307617187500e+01 -9.167598724365234375e+00 7.359302639961242676e-01 1.664337992668151855e+00 7.200804948806762695e-01 6.214390993118286133e-01
3.095000000000000000e+03 5.725772094726562500e+01 -1.160085487365722656e+01 -1.547817230224609375e+00 6.205031275749206543e-01 -2.781942188739776611e-01 5.538193583488464355e-01
3.096000000000000000e+03 5.796612930297851562e+01 -1.145917892456054688e+01 -1.677592277526855469e+00 6.628050208091735840e-01 -3.044361770153045654e-01 4.292825162410736084e-01
3.097000000000000000e+03 7.548165893554687500e+01 -3.275977706909179688e+01 -2.866381704807281494e-01 9.149198532104492188e+00 2.658768177032470703e+00 -3.040642738342285156e-01
3.098000000000000000e+03 2.651790046691894531e+01 -3.955266237258911133e+00 9.027676582336425781e-01 1.788626015186309814e-01 3.244890868663787842e-01 1.881534218788146973e+00
3.099000000000000000e+03 5.248561859130859375e+00 3.298976135253906250e+01 2.461576648056507111e-02 -1.456943303346633911e-01 -3.632356971502304077e-02 1.049099490046501160e-01
3.100000000000000000e+03 6.558991241455078125e+01 -1.016367816925048828e+01 -1.575532317161560059e+00 2.912428617477416992e+00 4.010688960552215576e-01 -2.482188224792480469e+00
3.101000000000000000e+03 6.677280426025390625e+01 -1.097660255432128906e+01 -2.076100587844848633e+00 5.315977096557617188e+00 9.719629883766174316e-01 -2.634703636169433594e+00
3.102000000000000000e+03 7.573114776611328125e+01 3.060653305053710938e+01 -9.063564240932464600e-02 6.726685523986816406e+00 1.990814924240112305e+00 2.290012091398239136e-01
3.103000000000000000e+03 7.579215240478515625e+01 3.286484527587890625e+01 -8.167105168104171753e-02 6.771903038024902344e+00 2.007069587707519531e+00 1.564629524946212769e-01
3.104000000000000000e+03 7.494221496582031250e+01 3.279037475585937500e+01 -1.078578308224678040e-01 6.698129653930664062e+00 1.977081656455993652e+00 1.598126590251922607e-01
3.105000000000000000e+03 1.278374862670898438e+01 -5.216500759124755859e+00 -3.210181295871734619e-01 5.365266203880310059e-01 6.465254724025726318e-02 -1.149590760469436646e-01
3.106000000000000000e+03 5.876837921142578125e+01 -3.462304592132568359e+00 8.025839328765869141e-01 2.226456642150878906e+00 9.087121486663818359e-01 9.539901614189147949e-01
3.107000000000000000e+03 3.992416858673095703e+00 2.911553573608398438e+01 2.955630479846149683e-04 -1.357788443565368652e-01 -4.064498469233512878e-02 1.073398515582084656e-01
3.108000000000000000e+03 7.565529632568359375e+01 2.981264877319335938e+01 -9.040317684412002563e-02 6.715229988098144531e+00 1.987448096275329590e+00 2.533943057060241699e-01
3.109000000000000000e+03 7.642691802978515625e+01 2.952406883239746094e+01 -6.226285919547080994e-02 6.738955497741699219e+00 2.003007650375366211e+00 2.458050400018692017e-01
3.110000000000000000e+03 3.819074869155883789e+00 -2.759509849548339844e+01 -7.385091483592987061e-02 8.460897952318191528e-02 3.227419685572385788e-03 4.592233002185821533e-01
3.111000000000000000e+03 7.647743988037109375e+01 -2.761226272583007812e+01 -2.466050684452056885e-01 9.227407455444335938e+00 2.694240808486938477e+00 -9.036922454833984375e-01
3.112000000000000000e+03 7.582669830322265625e+01 -2.866334152221679688e+01 -3.388037383556365967e-01 9.221587181091308594e+00 2.664834976196289062e+00 -8.241196274757385254e-01
3.113000000000000000e+03 7.626742553710937500e+01 3.403285980224609375e+01 -5.432719737291336060e-02 6.828480720520019531e+00 2.032246112823486328e+00 1.085157021880149841e-01
3.114000000000000000e+03 7.405700683593750000e+01 3.202764129638671875e+01 -1.379779875278472900e-01 6.626029968261718750e+00 1.946415662765502930e+00 1.844862252473831177e-01
3.115000000000000000e+03 6.703251647949218750e+01 -2.917521858215332031e+01 -9.886331558227539062e-01 5.156926631927490234e+00 1.250488042831420898e+00 9.905924797058105469e-01
3.116000000000000000e+03 6.737359619140625000e+01 -2.834610939025878906e+01 -9.157924056053161621e-01 5.590114593505859375e+00 1.402296662330627441e+00 9.963174462318420410e-01
3.117000000000000000e+03 7.481996917724609375e+01 -2.188704299926757812e+01 6.273917555809020996e-01 9.152206420898437500e+00 2.933879375457763672e+00 -1.079982161521911621e+00
3.118000000000000000e+03 7.570503997802734375e+01 2.346985244750976562e+01 7.019822951406240463e-03 6.505796909332275391e+00 1.953845024108886719e+00 4.036630094051361084e-01
3.119000000000000000e+03 6.453121948242187500e+01 -1.019527912139892578e+01 -1.426301598548889160e+00 1.167613983154296875e+00 -7.760626822710037231e-02 -1.907837867736816406e+00
3.120000000000000000e+03 6.337282562255859375e+01 -8.985904693603515625e+00 -8.195385932922363281e-01 1.154443860054016113e+00 1.004715785384178162e-01 -8.909999132156372070e-01
3.121000000000000000e+03 7.615294647216796875e+01 -3.227901840209960938e+01 -2.448199689388275146e-01 9.402821540832519531e+00 2.747400283813476562e+00 -3.496533334255218506e-01
3.122000000000000000e+03 7.579020690917968750e+01 2.186711692810058594e+01 5.205021053552627563e-02 6.431690216064453125e+00 1.945122122764587402e+00 3.784270882606506348e-01
3.123000000000000000e+03 7.654777526855468750e+01 2.261637496948242188e+01 1.998631097376346588e-02 6.391487121582031250e+00 1.923442006111145020e+00 3.523860275745391846e-01
3.124000000000000000e+03 3.544370269775390625e+01 1.132048988342285156e+01 9.003739953041076660e-01 1.179554843902587891e+01 3.808776855468750000e+00 -1.031225919723510742e+00
3.125000000000000000e+03 3.541599655151367188e+01 1.208000183105468750e+01 8.489474058151245117e-01 1.131871414184570312e+01 3.650298595428466797e+00 -1.115393161773681641e+00
3.126000000000000000e+03 7.661950683593750000e+01 -2.120305824279785156e+01 4.047727882862091064e-01 8.328370094299316406e+00 2.619942665100097656e+00 -7.828034162521362305e-01
3.127000000000000000e+03 7.589544677734375000e+01 -2.220731353759765625e+01 3.926022648811340332e-01 8.723956108093261719e+00 2.734967470169067383e+00 -1.037688612937927246e+00
3.128000000000000000e+03 4.077562808990478516e+00 2.489809799194335938e+01 -2.009877562522888184e-02 -6.325309723615646362e-02 -2.500556223094463348e-02 9.013171494007110596e-02
3.129000000000000000e+03 7.632761383056640625e+01 2.666469001770019531e+01 -5.099872872233390808e-02 6.626269340515136719e+00 1.972581148147583008e+00 3.280754685401916504e-01
3.130000000000000000e+03 7.495447540283203125e+01 2.441398811340332031e+01 -3.085856325924396515e-02 6.594377517700195312e+00 1.969055652618408203e+00 4.250431060791015625e-01
3.131000000000000000e+03 7.585574340820312500e+01 1.773628997802734375e+01 1.839090585708618164e-01 6.288914680480957031e+00 1.941847085952758789e+00 1.628388315439224243e-01
3.132000000000000000e+03 7.608045959472656250e+01 1.520792293548583984e+01 2.023308873176574707e-01 6.251040458679199219e+00 1.936011433601379395e+00 -5.318372324109077454e-02
3.133000000000000000e+03 7.607017517089843750e+01 1.366428756713867188e+01 2.001604437828063965e-01 6.295820713043212891e+00 1.948794364929199219e+00 -1.882651597261428833e-01
3.134000000000000000e+03 3.984262943267822266e+00 -2.104080009460449219e+01 1.066594347357749939e-01 -4.078823328018188477e-01 -9.036687761545181274e-02 4.710814654827117920e-01
3.135000000000000000e+03 3.299576520919799805e+00 -2.187896347045898438e+01 5.555386096239089966e-02 -5.373116731643676758e-01 -1.445273458957672119e-01 4.452297389507293701e-01
3.136000000000000000e+03 7.673417663574218750e+01 1.604450225830078125e+01 1.424202769994735718e-01 6.128641128540039062e+00 1.881318449974060059e+00 2.343119680881500244e-02
3.137000000000000000e+03 7.607617187500000000e+01 1.444158172607421875e+01 2.006643563508987427e-01 6.269067287445068359e+00 1.940919518470764160e+00 -1.215482205152511597e-01
3.138000000000000000e+03 7.597774505615234375e+01 1.683533859252929688e+01 1.945738494396209717e-01 6.260683059692382812e+00 1.936577200889587402e+00 8.753081411123275757e-02
3.139000000000000000e+03 7.571363830566406250e+01 2.266825294494628906e+01 3.240835666656494141e-02 6.470101356506347656e+00 1.950752973556518555e+00 3.921897709369659424e-01
3.140000000000000000e+03 4.174603939056396484e+00 -2.493032073974609375e+01 -2.659068815410137177e-02 -5.038991943001747131e-02 -2.309418283402919769e-02 5.479080677032470703e-01
3.141000000000000000e+03 4.018136024475097656e+00 -2.260333061218261719e+01 5.145624652504920959e-02 -2.731579244136810303e-01 -6.651049852371215820e-02 5.273999571800231934e-01
3.142000000000000000e+03 4.036664485931396484e+00 -3.208703613281250000e+01 -9.608361124992370605e-02 3.518405258655548096e-01 7.672707736492156982e-02 2.882415354251861572e-01
3.143000000000000000e+03 4.707680225372314453e+00 -3.035465621948242188e+01 -1.298906505107879639e-01 3.504772782325744629e-01 6.617598980665206909e-02 3.934586346149444580e-01
3.144000000000000000e+03 7.589544677734375000e+01 2.108982276916503906e+01 8.443049341440200806e-02 6.385165691375732422e+00 1.940878868103027344e+00 3.537256121635437012e-01
3.145000000000000000e+03 7.608368682861328125e+01 1.048890113830566406e+01 1.704894900321960449e-01 6.479226589202880859e+00 1.994914770126342773e+00 -4.528042376041412354e-01
3.146000000000000000e+03 7.612109375000000000e+01 7.265786647796630859e+00 1.101610511541366577e-01 6.778158187866210938e+00 2.066495895385742188e+00 -6.539059281349182129e-01
3.147000000000000000e+03 7.675276184082031250e+01 -2.036966705322265625e+01 4.477555453777313232e-01 8.172899246215820312e+00 2.586196422576904297e+00 -5.896090269088745117e-01
3.148000000000000000e+03 7.334500122070312500e+01 -2.078573608398437500e+01 1.242516279220581055e+00 9.947689056396484375e+00 3.357061624526977539e+00 -8.294484019279479980e-01
3.149000000000000000e+03 7.612623596191406250e+01 6.466784000396728516e+00 9.338701516389846802e-02 6.866569995880126953e+00 2.087987184524536133e+00 -6.882331371307373047e-01
3.150000000000000000e+03 7.680982971191406250e+01 7.262530803680419922e+00 7.979285717010498047e-02 6.729602813720703125e+00 2.042818784713745117e+00 -5.711842179298400879e-01
3.151000000000000000e+03 7.679888153076171875e+01 8.862528800964355469e+00 1.028260290622711182e-01 6.539950370788574219e+00 1.992832899093627930e+00 -4.922328293323516846e-01
3.152000000000000000e+03 7.609251403808593750e+01 9.683931350708007812e+00 1.583624035120010376e-01 6.541759014129638672e+00 2.010036468505859375e+00 -5.092833638191223145e-01
3.153000000000000000e+03 7.684912109375000000e+01 -1.425557613372802734e+01 1.800763309001922607e-01 8.236140251159667969e+00 2.524864912033081055e+00 7.699364423751831055e-01
3.154000000000000000e+03 7.611215209960937500e+01 -1.492624568939208984e+01 3.788998723030090332e-01 8.465168952941894531e+00 2.653220891952514648e+00 7.495213150978088379e-01
3.155000000000000000e+03 7.661119842529296875e+01 -2.682353401184082031e+01 -2.011336982250213623e-01 9.135499954223632812e+00 2.680309772491455078e+00 -9.809532761573791504e-01
3.156000000000000000e+03 7.520135498046875000e+01 -2.913323211669921875e+01 -4.432003200054168701e-01 9.169059753417968750e+00 2.617757797241210938e+00 -7.530301809310913086e-01
3.157000000000000000e+03 7.686289978027343750e+01 -1.879720687866210938e+01 4.846295416355133057e-01 7.988402366638183594e+00 2.541909694671630859e+00 -1.893724054098129272e-01
3.158000000000000000e+03 7.541262054443359375e+01 -2.144043540954589844e+01 6.138061881065368652e-01 8.852644920349121094e+00 2.839935302734375000e+00 -9.442913532257080078e-01
3.159000000000000000e+03 7.687029266357421875e+01 -1.804271316528320312e+01 5.117822289466857910e-01 7.973967075347900391e+00 2.545724868774414062e+00 4.984121304005384445e-03
3.160000000000000000e+03 7.615258789062500000e+01 -7.442267537117004395e-01 -1.200239583849906921e-01 7.804101943969726562e+00 2.305223226547241211e+00 -6.894975900650024414e-01
3.161000000000000000e+03 7.682552337646484375e+01 4.797803610563278198e-02 -6.556241959333419800e-02 7.787273406982421875e+00 2.316513299942016602e+00 -6.273233890533447266e-01
3.162000000000000000e+03 7.613471984863281250e+01 3.266961336135864258e+00 1.450213324278593063e-02 7.263339996337890625e+00 2.183352708816528320e+00 -7.665112018585205078e-01
3.163000000000000000e+03 7.615100860595703125e+01 5.735002458095550537e-02 -8.653772622346878052e-02 7.695628166198730469e+00 2.282727241516113281e+00 -7.229527235031127930e-01
3.164000000000000000e+03 7.615813446044921875e+01 -1.548209309577941895e+00 -1.504978984594345093e-01 7.912187576293945312e+00 2.328506946563720703e+00 -6.438660621643066406e-01
3.165000000000000000e+03 7.550108337402343750e+01 -1.562134146690368652e+00 -1.954848468303680420e-01 7.812884330749511719e+00 2.285219907760620117e+00 -7.284343838691711426e-01
3.166000000000000000e+03 7.683991241455078125e+01 -1.345919036865234375e+01 5.551573261618614197e-02 8.337462425231933594e+00 2.517893552780151367e+00 8.199129700660705566e-01
3.167000000000000000e+03 7.612850952148437500e+01 5.662373542785644531e+00 7.314062863588333130e-02 6.962126731872558594e+00 2.110580205917358398e+00 -7.193225622177124023e-01
3.168000000000000000e+03 7.613116455078125000e+01 4.064636707305908203e+00 3.361674398183822632e-02 7.160833358764648438e+00 2.158335208892822266e+00 -7.585948705673217773e-01
3.169000000000000000e+03 7.683116912841796875e+01 -5.558001518249511719e+00 -2.542383968830108643e-01 8.498267173767089844e+00 2.473208427429199219e+00 -1.609533727169036865e-01
3.170000000000000000e+03 7.559703063964843750e+01 -1.408047389984130859e+01 2.469929009675979614e-01 8.760111808776855469e+00 2.702131509780883789e+00 8.927311301231384277e-01
3.171000000000000000e+03 7.608437347412109375e+01 -1.262683010101318359e+01 -8.916676789522171021e-02 8.668830871582031250e+00 2.573899269104003906e+00 8.804210424423217773e-01
3.172000000000000000e+03 7.685066986083984375e+01 -9.441184043884277344e+00 -2.974443137645721436e-01 8.650424957275390625e+00 2.505894184112548828e+00 4.563610851764678955e-01
3.173000000000000000e+03 7.392357635498046875e+01 -1.130641651153564453e+01 -6.386278271675109863e-01 9.199477195739746094e+00 2.568254709243774414e+00 6.224074959754943848e-01
3.174000000000000000e+03 7.544198608398437500e+01 4.056096076965332031e+00 4.714950919151306152e-02 7.141236782073974609e+00 2.156515836715698242e+00 -8.389854431152343750e-01
3.175000000000000000e+03 7.614170074462890625e+01 -4.756523609161376953e+00 -3.148401677608489990e-01 8.322026252746582031e+00 2.402155637741088867e+00 -3.379304409027099609e-01
3.176000000000000000e+03 7.614360809326171875e+01 -5.551706314086914062e+00 -3.538247942924499512e-01 8.410754203796386719e+00 2.417078733444213867e+00 -2.276724129915237427e-01
3.177000000000000000e+03 7.688001251220703125e+01 -7.896495342254638672e+00 -3.099326789379119873e-01 8.643523216247558594e+00 2.500077247619628906e+00 1.980319619178771973e-01
3.178000000000000000e+03 7.618767547607421875e+01 -9.328216552734375000e+00 -4.070989787578582764e-01 8.703227996826171875e+00 2.488838672637939453e+00 4.440113008022308350e-01
3.179000000000000000e+03 7.616492462158203125e+01 -3.149898290634155273e+00 -2.315510660409927368e-01 8.124013900756835938e+00 2.367738723754882812e+00 -5.205991268157958984e-01
3.180000000000000000e+03 7.615589141845703125e+01 -3.956737041473388672e+00 -2.770780622959136963e-01 8.226909637451171875e+00 2.384949445724487305e+00 -4.349289834499359131e-01
3.181000000000000000e+03 7.623480987548828125e+01 -7.858576774597167969e+00 -4.037430584430694580e-01 8.615874290466308594e+00 2.463639497756958008e+00 1.665613353252410889e-01
3.182000000000000000e+03 7.665884399414062500e+01 -2.527120018005371094e+01 -5.754999443888664246e-02 8.905682563781738281e+00 2.654439687728881836e+00 -1.077545285224914551e+00
3.183000000000000000e+03 7.616820526123046875e+01 -6.339331150054931641e+00 -3.843249082565307617e-01 8.494768142700195312e+00 2.433132886886596680e+00 -1.069967821240425110e-01
3.184000000000000000e+03 7.620532226562500000e+01 -7.108188629150390625e+00 -4.113205075263977051e-01 8.571665763854980469e+00 2.448103427886962891e+00 3.291735053062438965e-02
3.185000000000000000e+03 7.612958526611328125e+01 4.860797882080078125e+00 5.540091916918754578e-02 7.059370517730712891e+00 2.134431362152099609e+00 -7.412158250808715820e-01
3.186000000000000000e+03 7.548839569091796875e+01 -1.976540374755859375e+01 7.808747887611389160e-01 8.721219062805175781e+00 2.850628137588500977e+00 -5.308414697647094727e-01
3.187000000000000000e+03 7.607692718505859375e+01 1.128337764739990234e+01 1.817291378974914551e-01 6.420412540435791016e+00 1.980642557144165039e+00 -3.906823098659515381e-01
3.188000000000000000e+03 7.249073028564453125e+01 -1.768553543090820312e+01 1.858210802078247070e+00 1.061017608642578125e+01 3.740515947341918945e+00 1.363712269812822342e-02
3.189000000000000000e+03 7.606972503662109375e+01 1.287068843841552734e+01 1.987386792898178101e-01 6.327814102172851562e+00 1.957965850830078125e+00 -2.596032917499542236e-01
3.190000000000000000e+03 7.607249450683593750e+01 1.207584476470947266e+01 1.901624202728271484e-01 6.373941898345947266e+00 1.969231247901916504e+00 -3.276893198490142822e-01
3.191000000000000000e+03 3.920751094818115234e+00 2.175013923645019531e+01 -2.421710081398487091e-02 -2.846795134246349335e-02 -1.580551452934741974e-02 5.460890755057334900e-02
3.192000000000000000e+03 3.341767072677612305e+00 2.577362251281738281e+01 -1.136949378997087479e-02 -9.247989952564239502e-02 -3.115481697022914886e-02 8.460396528244018555e-02
3.193000000000000000e+03 3.490419626235961914e+00 3.181237411499023438e+01 9.818708524107933044e-03 -2.041943222284317017e-01 -5.831268429756164551e-02 8.923281729221343994e-02
3.194000000000000000e+03 7.586315155029296875e+01 1.865779495239257812e+01 1.649477928876876831e-01 6.306359767913818359e+00 1.941392183303833008e+00 2.273737788200378418e-01
3.195000000000000000e+03 1.238881874084472656e+01 1.643497657775878906e+01 -2.111383154988288879e-02 -7.085218559950590134e-03 -8.459715172648429871e-03 -1.681707054376602173e-02
3.196000000000000000e+03 1.134765148162841797e+01 1.766479492187500000e+01 -5.840718001127243042e-02 5.203652661293745041e-03 -1.596105843782424927e-02 -1.995305344462394714e-02
3.197000000000000000e+03 7.574896240234375000e+01 2.426496505737304688e+01 -1.428085472434759140e-02 6.543243408203125000e+00 1.958688735961914062e+00 3.969223797321319580e-01
3.198000000000000000e+03 1.004309654235839844e+01 1.126314544677734375e+01 -1.117786974646151066e-03 -4.906118381768465042e-03 -1.807171618565917015e-03 1.413561869412660599e-03
3.199000000000000000e+03 3.915738344192504883e+00 -1.463005542755126953e+01 2.374075949192047119e-01 -7.323315143585205078e-01 -1.484771817922592163e-01 -7.493178546428680420e-02
3.200000000000000000e+03 3.219263315200805664e+00 -1.546281147003173828e+01 1.702063381671905518e-01 -9.499764442443847656e-01 -2.339310348033905029e-01 3.957915119826793671e-03
3.201000000000000000e+03 3.454368114471435547e+00 6.499817371368408203e+00 6.931630196049809456e-04 2.487969468347728252e-04 2.825880073942244053e-04 -1.641968498006463051e-03
3.202000000000000000e+03 4.446734428405761719e+00 7.017221927642822266e+00 8.457051008008420467e-04 -7.975728949531912804e-04 1.443966539227403700e-05 -1.686140079982578754e-03
3.203000000000000000e+03 3.281111717224121094e+00 4.767941951751708984e+00 6.405432359315454960e-04 3.292160690762102604e-04 2.909277973230928183e-04 -1.297764130868017673e-03
3.204000000000000000e+03 4.408183097839355469e+00 5.164190769195556641e+00 8.045884314924478531e-04 -3.344863362144678831e-04 1.410306285833939910e-04 -1.287592691369354725e-03
3.205000000000000000e+03 3.836078405380249023e+00 1.538026142120361328e+01 -7.374963723123073578e-03 -2.902551554143428802e-03 -3.083254443481564522e-03 4.533108323812484741e-03
3.206000000000000000e+03 4.583933353424072266e+00 -1.702225875854492188e+01 2.854858040809631348e-01 -4.609586894512176514e-01 -5.264186114072799683e-02 2.002796381711959839e-01
3.207000000000000000e+03 3.909221172332763672e+00 -1.623721313476562500e+01 2.325869053602218628e-01 -7.053425908088684082e-01 -1.418267190456390381e-01 9.540767967700958252e-02
3.208000000000000000e+03 3.910157918930053711e+00 -1.543261337280273438e+01 2.413512915372848511e-01 -7.268025875091552734e-01 -1.456353962421417236e-01 1.037114951759576797e-02
3.209000000000000000e+03 3.982057809829711914e+00 1.060959243774414062e+01 -3.526188811520114541e-05 -8.598474669270217419e-04 -2.685328072402626276e-04 -2.200604649260640144e-03
3.210000000000000000e+03 3.937896728515625000e+00 1.141803550720214844e+01 -9.772280463948845863e-04 -1.002131728455424309e-03 -5.938079557381570339e-04 -1.841404940932989120e-03
3.211000000000000000e+03 3.847125053405761719e+00 1.459342861175537109e+01 -5.997253116220235825e-03 -2.039486775174736977e-03 -2.411022083833813667e-03 2.329905750229954720e-03
3.212000000000000000e+03 3.894632101058959961e+00 -1.062598991394042969e+01 1.547030806541442871e-01 -6.407591700553894043e-01 -1.458168327808380127e-01 -4.305388927459716797e-01
3.213000000000000000e+03 3.889450788497924805e+00 -9.844652175903320312e+00 1.235333383083343506e-01 -5.984898805618286133e-01 -1.424869596958160400e-01 -4.780442714691162109e-01
3.214000000000000000e+03 3.200590372085571289e+00 -9.092585563659667969e+00 6.656958162784576416e-02 -6.925701498985290527e-01 -1.878001838922500610e-01 -4.624980986118316650e-01
3.215000000000000000e+03 3.872416257858276367e+00 1.381209278106689453e+01 -3.734914585947990417e-03 -1.854622503742575645e-03 -1.676861196756362915e-03 4.722314188256859779e-04
3.216000000000000000e+03 3.893698930740356445e+00 -9.087944030761718750e+00 9.259300678968429565e-02 -5.541307926177978516e-01 -1.384613215923309326e-01 -5.126298069953918457e-01
3.217000000000000000e+03 3.296509265899658203e+00 9.757833480834960938e+00 3.559242177288979292e-04 5.190810770727694035e-04 2.625015913508832455e-04 -2.335843630135059357e-03
3.218000000000000000e+03 4.105311870574951172e+00 9.036829948425292969e+00 4.946016124449670315e-04 -6.548325181938707829e-04 -4.806926517630927265e-05 -2.205773955211043358e-03
3.219000000000000000e+03 7.615661621093750000e+01 -2.359965705871582031e+01 1.437215656042098999e-01 8.807527542114257812e+00 2.685374736785888672e+00 -1.149313211441040039e+00
3.220000000000000000e+03 7.014521026611328125e+01 -2.385793495178222656e+01 8.154612034559249878e-02 1.030466747283935547e+01 3.115864038467407227e+00 -3.115629032254219055e-02
3.221000000000000000e+03 3.905299901962280273e+00 1.771302032470703125e+01 -1.582990586757659912e-02 -6.433007773011922836e-03 -6.678873673081398010e-03 1.672948710620403290e-02
3.222000000000000000e+03 3.233494758605957031e+00 2.094539451599121094e+01 -1.634549722075462341e-02 -2.670809812843799591e-02 -1.291607879102230072e-02 4.014994576573371887e-02
3.223000000000000000e+03 3.981225013732910156e+00 2.093434333801269531e+01 -2.503880485892295837e-02 -2.060364000499248505e-02 -1.369273383170366287e-02 4.598923027515411377e-02
3.224000000000000000e+03 3.165572881698608398e+00 1.378704738616943359e+01 -3.060873132199048996e-03 -1.354663163510849699e-05 -9.223259403370320797e-04 2.253166312584653497e-04
3.225000000000000000e+03 3.180127859115600586e+00 1.299540138244628906e+01 -1.599685638211667538e-03 2.297096798429265618e-04 -4.109927976969629526e-04 -1.025616540573537350e-03
3.226000000000000000e+03 3.385667800903320312e+00 -6.807638168334960938e+00 -1.262023579329252243e-02 -4.656506776809692383e-01 -1.434812694787979126e-01 -5.147714614868164062e-01
3.227000000000000000e+03 3.921944618225097656e+00 -1.383043766021728516e+01 2.294615954160690308e-01 -7.289848923683166504e-01 -1.498569846153259277e-01 -1.562870442867279053e-01
3.228000000000000000e+03 3.977068662643432617e+00 1.928200340270996094e+01 -2.156449668109416962e-02 -1.132899243384599686e-02 -9.868046268820762634e-03 2.969797700643539429e-02
3.229000000000000000e+03 3.241346836090087891e+00 2.013717842102050781e+01 -1.650838553905487061e-02 -1.955646276473999023e-02 -1.081945467740297318e-02 3.308003768324851990e-02
3.230000000000000000e+03 4.096380233764648438e+00 -2.415174865722656250e+01 -1.730180112645030022e-03 -1.278770416975021362e-01 -3.888216987252235413e-02 5.485457777976989746e-01
3.231000000000000000e+03 4.712470531463623047e+00 -2.252506446838378906e+01 7.370939850807189941e-02 -9.571542590856552124e-02 -6.601807195693254471e-03 5.788676142692565918e-01
3.232000000000000000e+03 3.940734386444091797e+00 1.848708915710449219e+01 -1.765242777764797211e-02 -8.776313625276088715e-03 -7.928622886538505554e-03 2.233815193176269531e-02
3.233000000000000000e+03 4.467480659484863281e+00 8.477967262268066406e+00 8.830922888591885567e-04 -9.088415536098182201e-04 -7.724768693151418120e-06 -2.054803306236863136e-03
3.234000000000000000e+03 3.847055435180664062e+00 1.616705322265625000e+01 -1.042685098946094513e-02 -3.617845708504319191e-03 -4.213409032672643661e-03 7.896494120359420776e-03
3.235000000000000000e+03 3.873870849609375000e+00 1.694404029846191406e+01 -1.216077338904142380e-02 -5.010746885091066360e-03 -5.151456221938133240e-03 1.164879743009805679e-02
3.236000000000000000e+03 4.096218585968017578e+00 2.826945877075195312e+01 -2.274176338687539101e-03 -1.188788861036300659e-01 -3.634591773152351379e-02 1.095334887504577637e-01
3.237000000000000000e+03 4.174203109741210938e+01 -2.180519294738769531e+01 1.855055689811706543e+00 8.804672241210937500e+00 3.197918176651000977e+00 -9.852553606033325195e-01
3.238000000000000000e+03 7.595666503906250000e+01 2.031737518310546875e+01 1.030943915247917175e-01 6.343857765197753906e+00 1.934085607528686523e+00 3.165850937366485596e-01
3.239000000000000000e+03 7.595214843750000000e+01 1.951688957214355469e+01 1.275539398193359375e-01 6.316216945648193359e+00 1.933131217956542969e+00 2.805011868476867676e-01
3.240000000000000000e+03 4.108198642730712891e+00 2.740745353698730469e+01 -9.028965607285499573e-03 -1.014239192008972168e-01 -3.313586488366127014e-02 1.074769943952560425e-01
3.241000000000000000e+03 4.137736797332763672e+00 2.657299423217773438e+01 -1.296953111886978149e-02 -8.807301521301269531e-02 -3.031276538968086243e-02 1.032941266894340515e-01
3.242000000000000000e+03 3.907317876815795898e+00 -1.142620944976806641e+01 1.798940449953079224e-01 -6.726705431938171387e-01 -1.478329598903656006e-01 -3.721871972084045410e-01
3.243000000000000000e+03 4.698188304901123047e+00 -2.735797500610351562e+01 -1.002755910158157349e-01 2.124050408601760864e-01 3.363883495330810547e-02 5.197359323501586914e-01
3.244000000000000000e+03 4.289145469665527344e+00 -2.571191787719726562e+01 -5.042973905801773071e-02 2.999638393521308899e-02 -6.130006629973649979e-03 5.437571406364440918e-01
3.245000000000000000e+03 3.923163890838623047e+00 -1.865354347229003906e+01 1.869468688964843750e-01 -5.928918123245239258e-01 -1.217834800481796265e-01 3.159233629703521729e-01
3.246000000000000000e+03 3.924310207366943359e+00 -1.303234004974365234e+01 2.158423662185668945e-01 -7.172741889953613281e-01 -1.504295468330383301e-01 -2.321769297122955322e-01
3.247000000000000000e+03 4.915136337280273438e+00 -3.123578643798828125e+01 -1.422468274831771851e-01 4.024872481822967529e-01 7.807213068008422852e-02 3.551509678363800049e-01
3.248000000000000000e+03 3.961240291595458984e+00 -2.025332450866699219e+01 1.338644921779632568e-01 -4.723701775074005127e-01 -1.015517041087150574e-01 4.304915964603424072e-01
3.249000000000000000e+03 3.937961101531982422e+00 -1.945786285400390625e+01 1.622175425291061401e-01 -5.362237691879272461e-01 -1.122018694877624512e-01 3.803689479827880859e-01
3.250000000000000000e+03 4.526992797851562500e+00 3.354175567626953125e+01 2.020657807588577271e-02 -1.794901490211486816e-01 -4.778507351875305176e-02 9.075904637575149536e-02
3.251000000000000000e+03 4.360811233520507812e+00 3.159419441223144531e+01 1.114272698760032654e-02 -1.654084026813507080e-01 -4.627970233559608459e-02 1.070570051670074463e-01
3.252000000000000000e+03 5.572306632995605469e+00 3.095268249511718750e+01 1.770496740937232971e-02 -1.056263223290443420e-01 -2.637640573084354401e-02 1.268783658742904663e-01
3.253000000000000000e+03 4.734479427337646484e+00 -5.973422527313232422e+00 -8.081500232219696045e-02 -2.441411912441253662e-01 -9.748686105012893677e-02 -5.993654131889343262e-01
3.254000000000000000e+03 3.908293008804321289e+00 -8.356406211853027344e+00 6.106116622686386108e-02 -5.039029717445373535e-01 -1.328525394201278687e-01 -5.382978916168212891e-01
3.255000000000000000e+03 3.942705869674682617e+00 -7.654938697814941406e+00 2.756114117801189423e-02 -4.493601918220520020e-01 -1.265397220849990845e-01 -5.550768971443176270e-01
3.256000000000000000e+03 4.485769271850585938e+00 2.321676254272460938e+01 -3.067261911928653717e-02 -3.529094904661178589e-02 -1.978906989097595215e-02 7.720114290714263916e-02
3.257000000000000000e+03 7.372063446044921875e+01 -3.627772521972656250e+01 -1.967714130878448486e-01 8.288516044616699219e+00 2.427523374557495117e+00 6.101969629526138306e-02
3.258000000000000000e+03 7.623136138916015625e+01 -3.454551315307617188e+01 -1.332749724388122559e-01 9.377985000610351562e+00 2.773413181304931641e+00 -1.620749980211257935e-01
3.259000000000000000e+03 5.137334823608398438e+00 -2.808476448059082031e+01 -1.302754580974578857e-01 3.101628124713897705e-01 5.396620556712150574e-02 5.089527964591979980e-01
3.260000000000000000e+03 7.510364532470703125e+01 2.827580642700195312e+01 -1.067484989762306213e-01 6.672336101531982422e+00 1.969676375389099121e+00 3.209011554718017578e-01
3.261000000000000000e+03 7.535160827636718750e+01 2.744649124145507812e+01 -8.766488730907440186e-02 6.657789707183837891e+00 1.971037387847900391e+00 3.405074179172515869e-01
3.262000000000000000e+03 3.878314018249511719e+00 2.329615020751953125e+01 -2.321461029350757599e-02 -4.468677192926406860e-02 -2.037041448056697845e-02 7.229980826377868652e-02
3.263000000000000000e+03 3.981503963470458984e+00 2.408231353759765625e+01 -2.292601205408573151e-02 -5.384441465139389038e-02 -2.303112857043743134e-02 8.134567737579345703e-02
3.264000000000000000e+03 7.609986877441406250e+01 3.591460800170898438e+01 -5.671995133161544800e-02 6.823668003082275391e+00 2.030084371566772461e+00 7.718320190906524658e-02
3.265000000000000000e+03 7.475334167480468750e+01 3.382442474365234375e+01 -1.016631871461868286e-01 6.662729740142822266e+00 1.968320012092590332e+00 1.403671354055404663e-01
3.266000000000000000e+03 7.578456878662109375e+01 2.504350471496582031e+01 -3.614618629217147827e-02 6.571127891540527344e+00 1.960494518280029297e+00 3.888407051563262939e-01
3.267000000000000000e+03 4.634222507476806641e+00 -3.437648391723632812e+01 -1.034784093499183655e-01 4.552013278007507324e-01 1.055168733000755310e-01 2.210839539766311646e-01
3.268000000000000000e+03 4.564449310302734375e+00 3.582314300537109375e+01 1.804053038358688354e-02 -2.007107138633728027e-01 -5.480105802416801453e-02 7.235388457775115967e-02
3.269000000000000000e+03 1.200991249084472656e+01 -1.671059799194335938e+01 1.028538584709167480e+00 2.534731388092041016e+00 1.068980932235717773e+00 6.440101861953735352e-01
3.270000000000000000e+03 1.086168098449707031e+01 -1.787746238708496094e+01 8.318303823471069336e-01 1.872353672981262207e+00 8.112552165985107422e-01 5.794879198074340820e-01
3.271000000000000000e+03 4.452868938446044922e+00 -2.651379966735839844e+01 -7.244542986154556274e-02 1.150153279304504395e-01 1.277096942067146301e-02 5.343299508094787598e-01
3.272000000000000000e+03 3.614437866210937500e+01 6.557058811187744141e+00 1.399853825569152832e+00 1.465890502929687500e+01 4.817627429962158203e+00 7.367382049560546875e-01
3.273000000000000000e+03 7.559325408935546875e+01 -3.088325500488281250e+01 -3.502718508243560791e-01 9.213358879089355469e+00 2.658926248550415039e+00 -5.059082508087158203e-01
3.274000000000000000e+03 7.574433135986328125e+01 -3.165328979492187500e+01 -3.227072060108184814e-01 9.223683357238769531e+00 2.670292854309082031e+00 -4.451179206371307373e-01
3.275000000000000000e+03 5.487023925781250000e+01 -1.126129913330078125e+01 -9.071023464202880859e-01 6.535079479217529297e-01 -7.607831805944442749e-02 1.153077721595764160e+00
3.276000000000000000e+03 7.349885940551757812e+00 -3.576564025878906250e+01 -1.846652626991271973e-01 5.739877223968505859e-01 1.167967393994331360e-01 1.733908951282501221e-01
3.277000000000000000e+03 6.837947845458984375e+01 -2.721442985534667969e+01 -9.611599445343017578e-01 6.999964714050292969e+00 1.811641454696655273e+00 9.082843661308288574e-01
3.278000000000000000e+03 3.678333282470703125e+00 3.062734985351562500e+01 7.225121371448040009e-03 -1.761097759008407593e-01 -5.066539719700813293e-02 9.972528368234634399e-02
3.279000000000000000e+03 3.476188278198242188e+01 1.775278282165527344e+01 7.178308963775634766e-01 8.010700225830078125e+00 2.618559360504150391e+00 -9.341923594474792480e-01
3.280000000000000000e+03 3.372574996948242188e+01 1.599467086791992188e+01 9.342415928840637207e-01 9.195198059082031250e+00 3.038831710815429688e+00 -1.884679079055786133e+00
3.281000000000000000e+03 6.485150146484375000e+01 1.379055786132812500e+01 8.883103728294372559e-01 9.446593284606933594e+00 3.100471258163452148e+00 -3.172335922718048096e-01
3.282000000000000000e+03 7.498793792724609375e+01 3.180270957946777344e+01 -1.119452789425849915e-01 6.689591407775878906e+00 1.973293781280517578e+00 1.966981887817382812e-01
3.283000000000000000e+03 1.172240352630615234e+01 -1.589634418487548828e+01 1.149480342864990234e+00 2.216378211975097656e+00 1.009757518768310547e+00 5.799509882926940918e-01
3.284000000000000000e+03 1.513176918029785156e+01 -5.141576290130615234e+00 -2.788217365741729736e-01 6.723855733871459961e-01 1.180691570043563843e-01 3.376574814319610596e-01
3.285000000000000000e+03 1.676078414916992188e+01 -5.039025306701660156e+00 -2.089538574218750000e-01 6.994725465774536133e-01 1.471556127071380615e-01 6.722700595855712891e-01
3.286000000000000000e+03 3.622817230224609375e+01 -3.315648734569549561e-01 1.820226788520812988e+00 1.126032447814941406e+01 3.924165487289428711e+00 -5.379528403282165527e-01
3.287000000000000000e+03 4.628938293457031250e+01 1.983973503112792969e+01 2.377748936414718628e-01 2.104044437408447266e+00 7.025458216667175293e-01 1.336839556694030762e+00
3.288000000000000000e+03 5.783016967773437500e+01 -4.827878952026367188e+00 5.404490232467651367e-01 1.851610302925109863e+00 7.176178097724914551e-01 1.022116899490356445e+00
3.289000000000000000e+03 5.451759719848632812e+01 -6.313052177429199219e+00 -4.289139807224273682e-02 1.639492630958557129e+00 4.789803922176361084e-01 1.440294981002807617e+00
3.290000000000000000e+03 4.212366485595703125e+01 1.587435913085937500e+01 1.096529722213745117e+00 4.797883033752441406e+00 1.768323779106140137e+00 2.174772262573242188e+00
3.291000000000000000e+03 4.265859222412109375e+01 1.760712814331054688e+01 6.863414645195007324e-01 4.235868930816650391e+00 1.476663112640380859e+00 1.886846423149108887e+00
3.292000000000000000e+03 3.402009963989257812e+01 1.761025428771972656e+01 9.154048562049865723e-01 8.116616249084472656e+00 2.709606409072875977e+00 -1.334896206855773926e+00
3.293000000000000000e+03 2.098372077941894531e+01 -6.350736618041992188e+00 2.778658568859100342e-01 6.399313807487487793e-01 2.753391563892364502e-01 1.355972290039062500e+00
3.294000000000000000e+03 6.250731277465820312e+01 2.609695196151733398e+00 5.281428694725036621e-01 5.445424556732177734e+00 1.792070269584655762e+00 6.898056268692016602e-01
3.295000000000000000e+03 6.543721771240234375e+01 1.129529380798339844e+01 8.784130215644836426e-01 8.653508186340332031e+00 2.859576463699340820e+00 -1.154283210635185242e-01
3.296000000000000000e+03 6.481064605712890625e+01 1.304283237457275391e+01 8.441893458366394043e-01 9.336796760559082031e+00 3.054295778274536133e+00 -1.448127776384353638e-01
3.297000000000000000e+03 5.961729049682617188e+01 -9.683683395385742188e+00 -1.304041624069213867e+00 9.148887395858764648e-01 -1.167458668351173401e-01 5.149702429771423340e-01
3.298000000000000000e+03 5.634897613525390625e+01 -8.821914672851562500e+00 -7.016410827636718750e-01 1.181443452835083008e+00 1.439407020807266235e-01 1.178475260734558105e+00
3.299000000000000000e+03 7.529595851898193359e+00 4.964519977569580078e+00 1.291549182496964931e-03 -1.099624903872609138e-03 5.757728285971097648e-05 -3.191927971784025431e-04
3.300000000000000000e+03 4.755429267883300781e+00 7.525971889495849609e+00 9.476541890762746334e-04 -9.089055820368230343e-04 1.162459557235706598e-05 -1.772753079421818256e-03
3.301000000000000000e+03 8.302987098693847656e+00 4.818981647491455078e+00 1.126806717365980148e-03 -1.238077413290739059e-03 -3.338122769491747022e-05 7.814284617779776454e-05
3.302000000000000000e+03 6.472239971160888672e+00 6.237913608551025391e+00 1.165385940112173557e-03 -1.729992567561566830e-03 -1.693820086074993014e-04 -7.782836328260600567e-04
3.303000000000000000e+03 1.347749137878417969e+01 -2.355658912658691406e+01 -1.441707909107208252e-01 2.048544645309448242e+00 5.713121294975280762e-01 1.538144201040267944e-01
3.304000000000000000e+03 7.099829196929931641e+00 5.894476413726806641e+00 1.278035575523972511e-03 -1.464756671339273453e-03 -5.601633165497332811e-05 -5.793743184767663479e-04
3.305000000000000000e+03 4.548034286499023438e+01 2.158453941345214844e+01 2.864667214453220367e-03 2.739874601364135742e+00 8.228217363357543945e-01 1.537467956542968750e+00
3.306000000000000000e+03 4.505781555175781250e+01 1.986883354187011719e+01 2.798694074153900146e-01 2.776320219039916992e+00 9.168568849563598633e-01 1.546588182449340820e+00
3.307000000000000000e+03 3.834973144531250000e+01 1.217359352111816406e+01 9.797945022583007812e-01 1.049984645843505859e+01 3.443892240524291992e+00 1.143334746360778809e+00
3.308000000000000000e+03 3.547311019897460938e+01 1.066709899902343750e+01 9.579584598541259766e-01 1.229645442962646484e+01 3.976323843002319336e+00 -9.523062109947204590e-01
3.309000000000000000e+03 1.228990745544433594e+01 1.206768131256103516e+01 -1.012816792353987694e-03 -6.943123298697173595e-04 -5.121387657709419727e-04 3.126643365249037743e-03
3.310000000000000000e+03 4.046133804321289062e+01 1.501006412506103516e+01 9.167197942733764648e-01 6.740175247192382812e+00 2.297068595886230469e+00 1.974825501441955566e+00
3.311000000000000000e+03 4.043387985229492188e+01 1.610570907592773438e+01 6.865077018737792969e-01 6.339382171630859375e+00 2.107766866683959961e+00 1.747517943382263184e+00
3.312000000000000000e+03 1.245111751556396484e+01 -1.492195606231689453e+01 1.364618897438049316e+00 2.556474685668945312e+00 1.176328063011169434e+00 6.446105837821960449e-01
3.313000000000000000e+03 2.337237358093261719e+01 -3.396636486053466797e+00 4.640962779521942139e-01 2.110861241817474365e-01 2.025547176599502563e-01 1.362211585044860840e+00
3.314000000000000000e+03 2.567264938354492188e+01 -4.831205368041992188e+00 3.501767218112945557e-01 2.852886021137237549e-01 1.906396001577377319e-01 1.892374038696289062e+00
3.315000000000000000e+03 3.455451583862304688e+01 1.281600761413574219e+01 8.576993346214294434e-01 1.094944000244140625e+01 3.542141675949096680e+00 -1.650952458381652832e+00
3.316000000000000000e+03 2.183864212036132812e+01 -4.399312973022460938e+00 1.936853080987930298e-01 4.100854694843292236e-01 1.811312437057495117e-01 1.344069719314575195e+00
3.317000000000000000e+03 3.849174499511718750e+01 -2.250206184387207031e+01 1.654924392700195312e+00 8.300783157348632812e+00 2.986712217330932617e+00 -3.252435028553009033e-01
3.318000000000000000e+03 2.971536064147949219e+01 -3.180415868759155273e+00 1.763877153396606445e+00 1.720289945602416992e+00 1.045250177383422852e+00 1.723466396331787109e+00
3.319000000000000000e+03 4.078426361083984375e+01 -1.925751304626464844e+01 1.765972733497619629e+00 8.571259498596191406e+00 3.101169586181640625e+00 -9.836456775665283203e-01
3.320000000000000000e+03 4.384568023681640625e+01 1.877614784240722656e+01 5.054350495338439941e-01 3.414870023727416992e+00 1.176091551780700684e+00 1.729175448417663574e+00
3.321000000000000000e+03 6.606802368164062500e+01 1.616082191467285156e+01 1.224642157554626465e+00 8.465348243713378906e+00 2.906996965408325195e+00 -4.136136174201965332e-01
3.322000000000000000e+03 3.616619873046875000e+01 7.438484668731689453e+00 1.380335092544555664e+00 1.418363380432128906e+01 4.669190406799316406e+00 4.020818769931793213e-01
3.323000000000000000e+03 6.137189102172851562e+01 -9.994103431701660156e+00 -1.520829916000366211e+00 6.091816425323486328e-01 -2.734944820404052734e-01 8.679887652397155762e-02
3.324000000000000000e+03 6.898222351074218750e+01 -2.652808761596679688e+01 -9.017232060432434082e-01 7.885900974273681641e+00 2.095253467559814453e+00 6.706079840660095215e-01
3.325000000000000000e+03 6.554279327392578125e+01 1.366071987152099609e+01 9.792734384536743164e-01 8.913583755493164062e+00 2.967857122421264648e+00 -3.054124414920806885e-01
3.326000000000000000e+03 4.563383102416992188e+01 2.042507934570312500e+01 1.559363901615142822e-01 2.547133445739746094e+00 8.109209537506103516e-01 1.493036746978759766e+00
3.327000000000000000e+03 2.491260147094726562e+01 2.833306694030761719e+01 9.680905938148498535e-02 1.584962725639343262e+00 5.045315623283386230e-01 -9.318003654479980469e-01
3.328000000000000000e+03 5.795487213134765625e+01 -4.053999900817871094e+00 7.450218796730041504e-01 1.987993478775024414e+00 8.199046254158020020e-01 1.046414613723754883e+00
3.329000000000000000e+03 1.326054763793945312e+01 -2.570521545410156250e+01 -4.019620120525360107e-01 1.545463562011718750e+00 3.430504500865936279e-01 2.001523673534393311e-01
3.330000000000000000e+03 1.400198841094970703e+01 -2.615156364440917969e+01 -4.234524667263031006e-01 1.436693191528320312e+00 3.039722144603729248e-01 4.969665408134460449e-02
3.331000000000000000e+03 4.265969085693359375e+01 -1.927908134460449219e+01 1.802577257156372070e+00 8.718856811523437500e+00 3.156430244445800781e+00 -5.935574173927307129e-01
3.332000000000000000e+03 4.166839599609375000e+01 -2.132616806030273438e+01 1.841743350028991699e+00 8.821997642517089844e+00 3.199122190475463867e+00 -9.625411629676818848e-01
3.333000000000000000e+03 3.586025619506835938e+01 9.217483520507812500e+00 1.191858172416687012e+00 1.308975791931152344e+01 4.284484863281250000e+00 -3.783597350120544434e-01
3.334000000000000000e+03 3.728422546386718750e+01 9.843940734863281250e+00 1.438050866127014160e+00 1.273235321044921875e+01 4.251121044158935547e+00 4.857250452041625977e-01
3.335000000000000000e+03 4.265642166137695312e+01 -1.266651248931884766e+01 -8.543565124273300171e-02 6.352241992950439453e+00 1.880041837692260742e+00 -5.252891778945922852e-01
3.336000000000000000e+03 1.169940090179443359e+01 2.124249839782714844e+01 -1.851096749305725098e-01 6.712108105421066284e-02 -3.539657592773437500e-02 2.663145773112773895e-02
3.337000000000000000e+03 4.738992309570312500e+01 -7.854692935943603516e+00 -8.116891384124755859e-01 7.952818274497985840e-01 -4.922198597341775894e-03 9.118470549583435059e-01
3.338000000000000000e+03 4.891247558593750000e+01 -1.260463047027587891e+01 5.097804069519042969e-01 1.578223705291748047e+00 6.264012455940246582e-01 1.600962162017822266e+00
3.339000000000000000e+03 1.843447494506835938e+01 -4.967645168304443359e+00 -8.910546451807022095e-02 6.497595906257629395e-01 1.681962460279464722e-01 9.730396270751953125e-01
3.340000000000000000e+03 1.929607963562011719e+01 -4.886912345886230469e+00 -3.663071244955062866e-02 6.200695037841796875e-01 1.750316321849822998e-01 1.104667425155639648e+00
3.341000000000000000e+03 6.338618469238281250e+01 2.242449951171875000e+01 -3.863316178321838379e-01 7.316689491271972656e+00 2.079107284545898438e+00 -8.246005773544311523e-01
3.342000000000000000e+03 6.289149475097656250e+01 2.143919181823730469e+01 3.871172294020652771e-02 7.727170467376708984e+00 2.329764604568481445e+00 -1.058306455612182617e+00
3.343000000000000000e+03 6.547605133056640625e+01 1.213382720947265625e+01 8.918927311897277832e-01 8.793929100036621094e+00 2.905746459960937500e+00 -1.572553217411041260e-01
3.344000000000000000e+03 3.541376876831054688e+01 -8.981869697570800781e+00 -2.643488168716430664e+00 8.567178726196289062e+00 1.777107238769531250e+00 -9.906828999519348145e-01
3.345000000000000000e+03 1.639834403991699219e+01 5.324657917022705078e+00 -1.278175332117825747e-04 7.670261547900736332e-04 1.917625777423381805e-04 3.197094192728400230e-04
3.346000000000000000e+03 9.970557212829589844e+00 5.354421615600585938e+00 1.067157485522329807e-03 -9.749779710546135902e-04 2.765385761449579149e-05 7.609905442222952843e-04
3.347000000000000000e+03 9.227743148803710938e+00 5.447548866271972656e+00 1.031744643114507198e-03 -1.424603979103267193e-03 -1.178577876999042928e-04 5.514856893569231033e-04
3.348000000000000000e+03 2.683143806457519531e+01 2.572992897033691406e+01 1.444389671087265015e-01 2.153453111648559570e+00 6.893676519393920898e-01 -1.333008170127868652e+00
3.349000000000000000e+03 4.053244018554687500e+01 -5.629966735839843750e+00 -2.276466369628906250e+00 7.823822021484375000e+00 1.664206743240356445e+00 -2.231707572937011719e+00
3.350000000000000000e+03 2.401258087158203125e+01 2.678274536132812500e+01 2.008363604545593262e-01 1.067224979400634766e+00 3.804184198379516602e-01 -8.413413166999816895e-01
3.351000000000000000e+03 2.248275947570800781e+01 2.575476455688476562e+01 1.587384343147277832e-01 4.512711763381958008e-01 1.830028891563415527e-01 -5.185654163360595703e-01
3.352000000000000000e+03 1.471995258331298828e+01 -2.607039642333984375e+01 -4.084388017654418945e-01 1.385439991950988770e+00 2.931003272533416748e-01 -4.923202469944953918e-02
3.353000000000000000e+03 2.101165008544921875e+01 -4.595052719116210938e+00 8.427696675062179565e-02 4.998096823692321777e-01 1.752260029315948486e-01 1.282473206520080566e+00
3.354000000000000000e+03 3.856287384033203125e+01 -4.445903778076171875e+00 -1.834895253181457520e+00 9.767942428588867188e+00 2.379914283752441406e+00 -1.570556163787841797e+00
3.355000000000000000e+03 3.993924331665039062e+01 -4.148792743682861328e+00 -1.573773384094238281e+00 9.187395095825195312e+00 2.284086704254150391e+00 -2.214053630828857422e+00
3.356000000000000000e+03 4.126604843139648438e+01 -1.966344261169433594e+01 1.808850765228271484e+00 8.601226806640625000e+00 3.123023271560668945e+00 -9.237989783287048340e-01
3.357000000000000000e+03 2.472842597961425781e+01 -6.968207836151123047e+00 -3.224827349185943604e-01 5.959185957908630371e-01 8.203075826168060303e-02 1.428132772445678711e+00
3.358000000000000000e+03 1.495098495483398438e+01 -1.168464660644531250e+01 1.574429869651794434e+00 2.366847753524780273e+00 1.182383298873901367e+00 9.016302227973937988e-01
3.359000000000000000e+03 1.456873321533203125e+01 -2.751224708557128906e+01 -5.144352912902832031e-01 1.235187530517578125e+00 2.162256538867950439e-01 5.069495528005063534e-04
3.360000000000000000e+03 6.471187591552734375e+01 7.724859237670898438e+00 7.388853430747985840e-01 7.809446334838867188e+00 2.564499378204345703e+00 1.664284765720367432e-01
3.361000000000000000e+03 3.587889480590820312e+01 -8.591826438903808594e+00 -2.770740985870361328e+00 8.771647453308105469e+00 1.800271868705749512e+00 -1.030187010765075684e+00
3.362000000000000000e+03 7.159731292724609375e+01 -1.538705253601074219e+01 1.393850088119506836e+00 1.104515266418457031e+01 3.731700897216796875e+00 4.792570471763610840e-01
3.363000000000000000e+03 6.573362731933593750e+01 1.713356590270996094e+01 1.305288672447204590e+00 8.484570503234863281e+00 2.936957836151123047e+00 -4.298879206180572510e-01
3.364000000000000000e+03 2.537351608276367188e+01 -6.619862556457519531e+00 -3.644880950450897217e-01 5.405752658843994141e-01 5.282614752650260925e-02 1.604913473129272461e+00
3.365000000000000000e+03 2.599624443054199219e+01 -6.249966144561767578e+00 -4.760583043098449707e-01 4.843010902404785156e-01 2.472831169143319130e-03 1.778138041496276855e+00
3.366000000000000000e+03 1.820088195800781250e+01 2.607662200927734375e+01 -2.219201810657978058e-02 1.217635795474052429e-01 2.987146750092506409e-02 -3.850014880299568176e-02
3.367000000000000000e+03 7.172862243652343750e+01 -1.730667877197265625e+01 2.023372411727905273e+00 1.137906265258789062e+01 4.020730495452880859e+00 4.678545985370874405e-03
3.368000000000000000e+03 7.201791381835937500e+01 -1.652063751220703125e+01 1.783208727836608887e+00 1.092299175262451172e+01 3.811860084533691406e+00 2.802846729755401611e-01
3.369000000000000000e+03 1.113287830352783203e+01 1.836609458923339844e+01 -7.996266335248947144e-02 1.485237665474414825e-02 -1.953308470547199249e-02 -1.805214211344718933e-02
3.370000000000000000e+03 5.500815200805664062e+01 2.424702453613281250e+01 -7.961615920066833496e-02 6.270290017127990723e-01 1.642238646745681763e-01 -1.695113629102706909e-01
3.371000000000000000e+03 5.279875183105468750e+01 2.423208236694335938e+01 -1.534513384103775024e-01 7.680044770240783691e-01 1.843659430742263794e-01 4.978834092617034912e-01
3.372000000000000000e+03 2.827432632446289062e+01 -5.471622943878173828e+00 -5.173081904649734497e-02 2.546642720699310303e-01 6.088003516197204590e-02 1.916997909545898438e+00
3.373000000000000000e+03 3.004568290710449219e+01 -6.236454963684082031e+00 -1.282263040542602539e+00 2.621681690216064453e-01 -3.060284852981567383e-01 9.007874727249145508e-01
3.374000000000000000e+03 6.447975921630859375e+01 9.734346389770507812e+00 7.988458871841430664e-01 8.630060195922851562e+00 2.828671932220458984e+00 2.511456906795501709e-01
3.375000000000000000e+03 3.888597869873046875e+01 1.292506885528564453e+01 9.424521923065185547e-01 9.481280326843261719e+00 3.127119779586791992e+00 1.480267882347106934e+00
3.376000000000000000e+03 3.940760803222656250e+01 1.364470958709716797e+01 9.223254323005676270e-01 8.515370368957519531e+00 2.831308841705322266e+00 1.734743952751159668e+00
3.377000000000000000e+03 2.594794654846191406e+01 2.601260375976562500e+01 1.994096636772155762e-01 1.714278817176818848e+00 5.741065740585327148e-01 -1.196302294731140137e+00
3.378000000000000000e+03 4.334227752685546875e+01 -1.802642631530761719e+01 1.664510011672973633e+00 8.328817367553710938e+00 2.997997999191284180e+00 -3.071919083595275879e-01
3.379000000000000000e+03 4.389007949829101562e+01 -1.663763427734375000e+01 1.227071166038513184e+00 7.557552337646484375e+00 2.635387182235717773e+00 -2.375002391636371613e-02
3.380000000000000000e+03 3.774325180053710938e+01 -1.482800388336181641e+01 1.055983066558837891e+00 9.289800643920898438e+00 3.103735208511352539e+00 -1.536486387252807617e+00
3.381000000000000000e+03 6.113408279418945312e+01 2.513292884826660156e+01 -4.823646247386932373e-01 4.829081058502197266e+00 1.304014921188354492e+00 -1.724919319152832031e+00
3.382000000000000000e+03 5.983536148071289062e+01 2.397461700439453125e+01 -2.933802008628845215e-01 3.552838802337646484e+00 9.778375625610351562e-01 -2.071882486343383789e+00
3.383000000000000000e+03 3.606183624267578125e+01 8.367409706115722656e+00 1.340069770812988281e+00 1.366090106964111328e+01 4.500291347503662109e+00 5.215269699692726135e-02
3.384000000000000000e+03 3.368943405151367188e+01 1.905879783630371094e+01 8.472722768783569336e-01 7.334022998809814453e+00 2.454388618469238281e+00 -1.102298855781555176e+00
3.385000000000000000e+03 3.311965179443359375e+01 2.110771560668945312e+01 4.835613965988159180e-01 6.491093158721923828e+00 2.092396497726440430e+00 -8.464112281799316406e-01
3.386000000000000000e+03 3.484936141967773438e+01 -2.975324440002441406e+01 -2.154027372598648071e-01 4.603767395019531250e+00 1.316509366035461426e+00 1.221972227096557617e+00
3.387000000000000000e+03 4.560791397094726562e+01 -8.447990417480468750e+00 -7.527419924736022949e-01 2.211591482162475586e+00 4.376548528671264648e-01 1.737868785858154297e-02
3.388000000000000000e+03 4.534581756591796875e+01 -7.614958763122558594e+00 -1.061356782913208008e+00 2.004831075668334961e+00 2.830422818660736084e-01 -2.765712440013885498e-01
3.389000000000000000e+03 4.561489105224609375e+01 -7.056146621704101562e+00 -1.348416090011596680e+00 1.432151675224304199e+00 2.512066625058650970e-02 -1.195345222949981689e-01
3.390000000000000000e+03 6.497512817382812500e+01 8.619017601013183594e+00 7.671183943748474121e-01 8.059444427490234375e+00 2.647968769073486328e+00 8.658621460199356079e-02
3.391000000000000000e+03 2.329611587524414062e+01 -6.080960273742675781e+00 1.388394683599472046e-01 5.127766132354736328e-01 1.954848170280456543e-01 1.503573775291442871e+00
3.392000000000000000e+03 2.265952873229980469e+01 -4.214125156402587891e+00 2.581267952919006348e-01 3.589498698711395264e-01 1.851229965686798096e-01 1.411314249038696289e+00
3.393000000000000000e+03 6.313351440429687500e+01 5.435646057128906250e+00 7.239490151405334473e-01 6.867671966552734375e+00 2.277486324310302734e+00 7.205353975296020508e-01
3.394000000000000000e+03 6.336763381958007812e+01 4.290641784667968750e+00 5.828002095222473145e-01 6.386991500854492188e+00 2.090937614440917969e+00 4.919728934764862061e-01
3.395000000000000000e+03 1.179235363006591797e+01 1.547265911102294922e+01 -1.398902293294668198e-02 -6.253272760659456253e-03 -6.072688847780227661e-03 -8.210896514356136322e-03
3.396000000000000000e+03 5.883382415771484375e+01 -2.101844310760498047e+00 1.028706669807434082e+00 2.482394695281982422e+00 1.053330421447753906e+00 1.143414020538330078e+00
3.397000000000000000e+03 3.421208190917968750e+01 1.444594955444335938e+01 8.610480427742004395e-01 1.005837154388427734e+01 3.275825977325439453e+00 -1.754369854927062988e+00
3.398000000000000000e+03 1.628401184082031250e+01 -2.866388893127441406e+01 -5.612879395484924316e-01 9.038968086242675781e-01 1.027826741337776184e-01 -9.022501111030578613e-02
3.399000000000000000e+03 6.231861114501953125e+01 -9.998111724853515625e+00 -1.530311942100524902e+00 4.648136794567108154e-01 -3.196494579315185547e-01 -2.592003345489501953e-01
3.400000000000000000e+03 5.978297805786132812e+01 -1.030913639068603516e+01 -1.610376954078674316e+00 7.778343558311462402e-01 -2.497627735137939453e-01 3.985936641693115234e-01
3.401000000000000000e+03 6.956918334960937500e+01 -2.580702972412109375e+01 -7.614364027976989746e-01 8.775287628173828125e+00 2.404155492782592773e+00 3.630323410034179688e-01
3.402000000000000000e+03 6.536773681640625000e+01 1.041290664672851562e+01 8.419165015220642090e-01 8.469758987426757812e+00 2.793502569198608398e+00 -4.040492326021194458e-02
3.403000000000000000e+03 1.486431694030761719e+01 7.688280105590820312e+00 -5.309754051268100739e-04 1.791297807358205318e-03 3.780967381317168474e-04 1.086474512703716755e-03
3.404000000000000000e+03 3.825225067138671875e+01 -1.385157966613769531e+01 6.792169809341430664e-01 8.799838066101074219e+00 2.843716382980346680e+00 -1.287193417549133301e+00
3.405000000000000000e+03 3.565594100952148438e+01 -6.315177679061889648e-01 1.560498476028442383e+00 1.067377948760986328e+01 3.670283317565917969e+00 -2.123403698205947876e-01
3.406000000000000000e+03 5.815341949462890625e+01 -3.336482286453247070e+00 9.019058942794799805e-01 2.120231628417968750e+00 9.066413044929504395e-01 1.085076093673706055e+00
3.407000000000000000e+03 5.843574142456054688e+01 -2.689422130584716797e+00 1.020565867424011230e+00 2.313848495483398438e+00 1.000324249267578125e+00 1.120780110359191895e+00
3.408000000000000000e+03 3.805191421508789062e+01 -1.301233482360839844e+01 3.023900091648101807e-01 8.775227546691894531e+00 2.723285198211669922e+00 -1.166762590408325195e+00
3.409000000000000000e+03 1.643924713134765625e+01 -2.981895065307617188e+01 -5.939655900001525879e-01 8.486772775650024414e-01 7.641350477933883667e-02 -1.253468543291091919e-01
3.410000000000000000e+03 1.755089569091796875e+01 -2.963390922546386719e+01 -6.184961199760437012e-01 7.111030817031860352e-01 2.778210490942001343e-02 -1.296560317277908325e-01
3.411000000000000000e+03 3.871070480346679688e+01 -1.570473098754882812e+01 1.149626851081848145e+00 8.859236717224121094e+00 3.002659082412719727e+00 -1.417661905288696289e+00
3.412000000000000000e+03 3.847077941894531250e+01 -1.473835277557373047e+01 9.578583836555480957e-01 8.820851325988769531e+00 2.933612823486328125e+00 -1.390570163726806641e+00
3.413000000000000000e+03 3.598446655273437500e+01 1.100615024566650391e+01 9.905062913894653320e-01 1.197457599639892578e+01 3.889524698257446289e+00 -6.626306176185607910e-01
3.414000000000000000e+03 2.715939140319824219e+01 -5.425808906555175781e+00 -1.874995790421962738e-02 2.783385813236236572e-01 7.787659019231796265e-02 2.002479553222656250e+00
3.415000000000000000e+03 1.665762519836425781e+01 2.641557502746582031e+01 -3.201508522033691406e-02 1.309411823749542236e-01 2.967783063650131226e-02 3.938208892941474915e-02
3.416000000000000000e+03 5.565282058715820312e+01 -1.116822242736816406e+01 -1.063545584678649902e+00 6.862257122993469238e-01 -1.131959632039070129e-01 9.795275330543518066e-01
3.417000000000000000e+03 5.767865371704101562e+01 2.689184379577636719e+01 2.967061698436737061e-01 2.430783271789550781e+00 8.182467818260192871e-01 -1.055093288421630859e+00
3.418000000000000000e+03 5.837799453735351562e+01 2.523949432373046875e+01 1.124304085969924927e-01 2.257366657257080078e+00 7.109391093254089355e-01 -1.449334144592285156e+00
3.419000000000000000e+03 3.649468612670898438e+01 2.166636735200881958e-01 2.095092535018920898e+00 1.175237083435058594e+01 4.154239177703857422e+00 -7.382465600967407227e-01
3.420000000000000000e+03 1.475020027160644531e+01 5.219223499298095703e+00 -1.658555411268025637e-04 5.492704804055392742e-04 1.150244788732379675e-04 8.696568547748029232e-04
3.421000000000000000e+03 7.113969421386718750e+01 -1.957650375366210938e+01 1.920429706573486328e+00 1.224703788757324219e+01 4.250240325927734375e+00 -2.582790255546569824e-01
3.422000000000000000e+03 7.194800567626953125e+01 -1.920693016052246094e+01 1.916958451271057129e+00 1.119270420074462891e+01 3.932898759841918945e+00 -3.780606091022491455e-01
3.423000000000000000e+03 3.469462585449218750e+01 1.541783428192138672e+01 8.026262521743774414e-01 9.323483467102050781e+00 3.037832975387573242e+00 -1.360110163688659668e+00
3.424000000000000000e+03 3.384617233276367188e+01 1.832709693908691406e+01 8.929202556610107422e-01 7.762547492980957031e+00 2.596640348434448242e+00 -1.268422126770019531e+00
3.425000000000000000e+03 3.293025970458984375e+01 1.889246940612792969e+01 1.103052377700805664e+00 7.492340087890625000e+00 2.578617811203002930e+00 -1.609666466712951660e+00
3.426000000000000000e+03 7.220295715332031250e+01 -2.035770416259765625e+01 1.559559822082519531e+00 1.080263614654541016e+01 3.708658695220947266e+00 -6.175758242607116699e-01
3.427000000000000000e+03 1.371355724334716797e+01 8.031999588012695312e+00 -3.749514871742576361e-04 1.301351119764149189e-03 2.779198985081166029e-04 1.874859211966395378e-03
3.428000000000000000e+03 1.320546722412109375e+01 5.901405334472656250e+00 1.285754988202825189e-04 4.339294391684234142e-04 1.687514741206541657e-04 1.334615633822977543e-03
3.429000000000000000e+03 4.884505081176757812e+01 2.467593955993652344e+01 -2.152648568153381348e-02 1.770988583564758301e+00 5.248386263847351074e-01 1.212371349334716797e+00
3.430000000000000000e+03 4.642921829223632812e+01 2.346197509765625000e+01 -9.820319712162017822e-02 2.470644235610961914e+00 7.117323279380798340e-01 1.479383468627929688e+00
3.431000000000000000e+03 4.708069992065429688e+01 2.227329254150390625e+01 -9.212574362754821777e-02 2.128008127212524414e+00 6.107646822929382324e-01 1.392210960388183594e+00
3.432000000000000000e+03 6.295546340942382812e+01 -3.387201309204101562e+01 -1.695085763931274414e-01 2.077821016311645508e+00 5.724937319755554199e-01 6.999104619026184082e-01
3.433000000000000000e+03 6.494673919677734375e+01 -3.154940414428710938e+01 -7.338492870330810547e-01 3.242073774337768555e+00 7.524673342704772949e-01 9.845257997512817383e-01
3.434000000000000000e+03 3.440189743041992188e+01 1.363524055480957031e+01 8.681696057319641113e-01 1.047747516632080078e+01 3.403693437576293945e+00 -1.672616720199584961e+00
3.435000000000000000e+03 3.523751831054687500e+01 1.290767574310302734e+01 8.286639451980590820e-01 1.080933856964111328e+01 3.491400718688964844e+00 -1.192957878112792969e+00
3.436000000000000000e+03 3.640908432006835938e+01 1.000202059745788574e+00 2.519078016281127930e+00 1.229295539855957031e+01 4.443610191345214844e+00 -6.020184159278869629e-01
3.437000000000000000e+03 7.568962860107421875e+01 -1.758539581298828125e+01 8.259942531585693359e-01 8.591465950012207031e+00 2.825237989425659180e+00 1.384176313877105713e-01
3.438000000000000000e+03 4.972729873657226562e+01 -1.099012660980224609e+01 8.261872828006744385e-02 1.058785796165466309e+00 3.424213528633117676e-01 1.763808727264404297e+00
3.439000000000000000e+03 4.874405670166015625e+01 -8.070471763610839844e+00 -6.222011446952819824e-01 4.838282167911529541e-01 -4.151187837123870850e-02 1.573378086090087891e+00
3.440000000000000000e+03 6.213829040527343750e+01 -3.543139266967773438e+01 2.128251343965530396e-01 1.897844552993774414e+00 6.332008838653564453e-01 4.709466695785522461e-01
3.441000000000000000e+03 3.878352355957031250e+01 -1.292367076873779297e+01 1.196802482008934021e-01 8.450019836425781250e+00 2.570909976959228516e+00 -1.080560445785522461e+00
3.442000000000000000e+03 3.788080596923828125e+01 -1.221758556365966797e+01 -2.025588899850845337e-01 8.795881271362304688e+00 2.577996730804443359e+00 -1.042490601539611816e+00
3.443000000000000000e+03 6.609132385253906250e+01 1.777260780334472656e+01 1.281408309936523438e+00 8.147025108337402344e+00 2.828529834747314453e+00 -2.286607623100280762e-01
3.444000000000000000e+03 3.291106414794921875e+01 2.023551750183105469e+01 7.690985798835754395e-01 6.801361083984375000e+00 2.271137952804565430e+00 -1.126017212867736816e+00
3.445000000000000000e+03 2.935280227661132812e+01 2.625065422058105469e+01 -2.564884424209594727e-01 3.578223943710327148e+00 9.965206384658813477e-01 -1.202661752700805664e+00
3.446000000000000000e+03 3.879579162597656250e+01 -2.059256744384765625e+01 1.629479050636291504e+00 8.803163528442382812e+00 3.129792690277099609e+00 -7.080239057540893555e-01
3.447000000000000000e+03 1.984940719604492188e+01 -8.217304229736328125e+00 7.051128149032592773e-01 8.451843857765197754e-01 4.650891423225402832e-01 1.308865308761596680e+00
3.448000000000000000e+03 2.611213493347167969e+01 -5.330453872680664062e+00 6.772786378860473633e-02 3.337571322917938232e-01 1.204455047845840454e-01 1.914593338966369629e+00
3.449000000000000000e+03 3.817012786865234375e+01 -2.443951225280761719e+01 1.330840945243835449e+00 7.564172267913818359e+00 2.668503999710083008e+00 4.717835783958435059e-02
3.450000000000000000e+03 3.302281570434570312e+01 -2.354158163070678711e+00 1.113650083541870117e+00 6.923069000244140625e+00 2.411015748977661133e+00 9.543326497077941895e-01
3.451000000000000000e+03 1.336096000671386719e+01 9.952878952026367188e+00 -5.659268354065716267e-04 2.277459483593702316e-03 5.134597886353731155e-04 2.566890558227896690e-03
3.452000000000000000e+03 3.762855148315429688e+01 -2.325243377685546875e+01 1.504305601119995117e+00 8.054912567138671875e+00 2.867765665054321289e+00 1.257334798574447632e-01
3.453000000000000000e+03 4.654174423217773438e+01 -1.350447082519531250e+01 6.065936684608459473e-01 3.774078845977783203e+00 1.314201712608337402e+00 1.182517051696777344e+00
3.454000000000000000e+03 6.293017959594726562e+01 3.474517583847045898e+00 5.362539887428283691e-01 5.951813220977783203e+00 1.946420073509216309e+00 6.029335260391235352e-01
3.455000000000000000e+03 3.236254119873046875e+01 -6.514047622680664062e+00 -2.134805917739868164e+00 4.173946380615234375e+00 6.117421984672546387e-01 -7.629510164260864258e-01
3.456000000000000000e+03 3.776084899902343750e+01 -1.147776794433593750e+01 -6.913532614707946777e-01 8.812291145324707031e+00 2.436281442642211914e+00 -9.860764145851135254e-01
3.457000000000000000e+03 4.598401641845703125e+01 2.207452392578125000e+01 -3.561053797602653503e-02 2.600189447402954102e+00 7.693737149238586426e-01 1.511153936386108398e+00
3.458000000000000000e+03 4.401357269287109375e+01 -7.160528182983398438e+00 -1.388383150100708008e+00 3.100119590759277344e+00 5.135208964347839355e-01 -1.071272969245910645e+00
3.459000000000000000e+03 3.596750640869140625e+01 -3.304956054687500000e+01 -8.438310623168945312e-01 4.646132946014404297e+00 1.140690565109252930e+00 9.102752804756164551e-01
3.460000000000000000e+03 3.730715942382812500e+01 -2.953486251831054688e+01 -2.758046090602874756e-01 5.827046871185302734e+00 1.665372610092163086e+00 7.884829640388488770e-01
3.461000000000000000e+03 4.583852767944335938e+00 1.692400932312011719e+01 -1.695358194410800934e-02 -4.412640351802110672e-03 -6.409866269677877426e-03 1.282230298966169357e-02
3.462000000000000000e+03 5.055187606811523438e+01 -1.182180881500244141e+01 1.297315210103988647e-01 8.513715267181396484e-01 2.943309247493743896e-01 1.685303211212158203e+00
3.463000000000000000e+03 4.628652191162109375e+01 -7.421012401580810547e+00 -1.109816789627075195e+00 1.068534135818481445e+00 -1.238480955362319946e-02 2.988925874233245850e-01
3.464000000000000000e+03 3.741429901123046875e+01 -2.420761680603027344e+01 1.311869144439697266e+00 7.619769573211669922e+00 2.679491758346557617e+00 3.249929249286651611e-01
3.465000000000000000e+03 4.121731185913085938e+01 -2.196223831176757812e+01 1.874881505966186523e+00 8.618450164794921875e+00 3.147999525070190430e+00 -9.564834237098693848e-01
3.466000000000000000e+03 6.488579559326171875e+01 5.635834693908691406e+00 5.840129256248474121e-01 7.014053821563720703e+00 2.279419898986816406e+00 1.446639560163021088e-02
3.467000000000000000e+03 7.090372467041015625e+01 -2.246215057373046875e+01 8.866171240806579590e-01 1.101402950286865234e+01 3.570194005966186523e+00 -4.289424717426300049e-01
3.468000000000000000e+03 2.108415222167968750e+01 2.566320610046386719e+01 7.275462150573730469e-02 2.342820763587951660e-01 9.211100637912750244e-02 -3.108131587505340576e-01
3.469000000000000000e+03 3.775308609008789062e+01 1.137504577636718750e+01 1.109574675559997559e+00 1.146083641052246094e+01 3.771123409271240234e+00 6.506546735763549805e-01
3.470000000000000000e+03 1.217511653900146484e+01 1.118695735931396484e+01 1.216382952407002449e-04 -3.089491510763764381e-04 -5.619325747829861939e-05 3.063796786591410637e-03
3.471000000000000000e+03 1.106943702697753906e+01 7.526538372039794922e+00 7.419586181640625000e-04 -1.247620326466858387e-03 -1.516985066700726748e-04 1.779827987775206566e-03
3.472000000000000000e+03 5.080156326293945312e+01 2.388725471496582031e+01 -1.807750463485717773e-01 1.110582351684570312e+00 2.789421975612640381e-01 9.035891294479370117e-01
3.473000000000000000e+03 4.760685729980468750e+01 2.402801895141601562e+01 -9.842877835035324097e-02 2.153044939041137695e+00 6.163848638534545898e-01 1.378093361854553223e+00
3.474000000000000000e+03 7.528231048583984375e+01 -1.535403060913085938e+01 6.020881533622741699e-01 8.825441360473632812e+00 2.828258752822875977e+00 7.322809100151062012e-01
3.475000000000000000e+03 1.964579010009765625e+01 2.628067207336425781e+01 6.521692872047424316e-02 2.004846930503845215e-01 7.971049100160598755e-02 -1.888823956251144409e-01
3.476000000000000000e+03 2.980763435363769531e+01 -3.333178710937500000e+01 -4.096087515354156494e-01 1.691857457160949707e+00 3.846746087074279785e-01 9.381046891212463379e-01
3.477000000000000000e+03 5.630859375000000000e+01 -3.625201034545898438e+01 4.668240249156951904e-01 6.530022025108337402e-01 3.359478712081909180e-01 -4.973699450492858887e-01
3.478000000000000000e+03 5.756952285766601562e+01 -3.466360092163085938e+01 8.790552616119384766e-02 2.387654334306716919e-01 9.800129383802413940e-02 -2.749211788177490234e-01
3.479000000000000000e+03 7.593006134033203125e+01 -2.429253005981445312e+01 3.439300134778022766e-02 8.943697929382324219e+00 2.693427324295043945e+00 -1.193471431732177734e+00
3.480000000000000000e+03 3.199615287780761719e+01 -2.843724727630615234e+00 1.163312077522277832e+00 5.183928012847900391e+00 1.904171943664550781e+00 1.162028789520263672e+00
3.481000000000000000e+03 3.230788803100585938e+01 -1.552161931991577148e+00 2.290848016738891602e+00 6.182459831237792969e+00 2.541992187500000000e+00 1.820778608322143555e+00
3.482000000000000000e+03 2.835226249694824219e+01 -3.213909864425659180e+00 1.725976586341857910e+00 6.230024695396423340e-01 7.046937346458435059e-01 1.840036869049072266e+00
3.483000000000000000e+03 5.915287399291992188e+01 -1.046621608734130859e+01 -1.632110953330993652e+00 8.209937810897827148e-01 -2.433351576328277588e-01 4.994188249111175537e-01
3.484000000000000000e+03 6.354515075683593750e+01 -3.255282974243164062e+01 -4.924938976764678955e-01 2.273207187652587891e+00 5.342139601707458496e-01 7.801009416580200195e-01
3.485000000000000000e+03 6.462064361572265625e+01 -3.281935119628906250e+01 -5.039740204811096191e-01 3.109223127365112305e+00 7.815747857093811035e-01 9.093399047851562500e-01
3.486000000000000000e+03 1.923271179199218750e+01 -3.310468673706054688e+01 -4.663732647895812988e-01 4.523319005966186523e-01 -4.212410189211368561e-03 -2.408031374216079712e-01
3.487000000000000000e+03 1.813054084777832031e+01 -3.449789810180664062e+01 -3.920766711235046387e-01 5.284557938575744629e-01 4.091374203562736511e-02 -1.967694461345672607e-01
3.488000000000000000e+03 4.249705886840820312e+01 -2.820743560791015625e+01 6.502108573913574219e-01 7.539829254150390625e+00 2.457012176513671875e+00 -4.864698648452758789e-01
3.489000000000000000e+03 3.714661407470703125e+01 -2.516829872131347656e+01 1.022863507270812988e+00 7.152572154998779297e+00 2.452630758285522461e+00 5.062566399574279785e-01
3.490000000000000000e+03 3.981986618041992188e+01 -5.499844074249267578e+00 -2.393649101257324219e+00 8.674742698669433594e+00 1.884328126907348633e+00 -2.052947521209716797e+00
3.491000000000000000e+03 3.746538925170898438e+01 -3.264021158218383789e+00 -8.091175556182861328e-01 1.020551872253417969e+01 2.818920373916625977e+00 -1.180611968040466309e+00
3.492000000000000000e+03 3.653700637817382812e+01 9.528543472290039062e+00 1.311086177825927734e+00 1.293111705780029297e+01 4.272661209106445312e+00 -3.510896116495132446e-02
3.493000000000000000e+03 3.598889160156250000e+01 -2.810304069519042969e+01 6.367015093564987183e-02 5.545350074768066406e+00 1.682705998420715332e+00 1.107292294502258301e+00
3.494000000000000000e+03 4.221525573730468750e+01 -1.973881149291992188e+01 1.805078625679016113e+00 8.758110046386718750e+00 3.168956756591796875e+00 -7.140583992004394531e-01
3.495000000000000000e+03 4.303493881225585938e+01 -1.869642829895019531e+01 1.758401870727539062e+00 8.572340011596679688e+00 3.099222660064697266e+00 -4.401336014270782471e-01
3.496000000000000000e+03 5.639229202270507812e+01 -1.103946399688720703e+01 -1.210872530937194824e+00 7.226289510726928711e-01 -1.464730799198150635e-01 8.702567219734191895e-01
3.497000000000000000e+03 7.539546203613281250e+01 -3.634920120239257812e+01 -1.058306619524955750e-01 8.988001823425292969e+00 2.664651393890380859e+00 -2.048875764012336731e-02
3.498000000000000000e+03 7.473706817626953125e+01 -3.719207763671875000e+01 -9.901880472898483276e-02 8.607229232788085938e+00 2.552463054656982422e+00 5.766830965876579285e-02
3.499000000000000000e+03 2.326104545593261719e+01 -3.598423004150390625e+01 -1.458296626806259155e-01 3.820447921752929688e-01 7.086453586816787720e-02 3.120358660817146301e-02
3.500000000000000000e+03 1.593700408935546875e+01 2.599966621398925781e+01 -7.374285906553268433e-02 1.151904240250587463e-01 1.243426837027072906e-02 8.146321773529052734e-02
3.501000000000000000e+03 1.466135406494140625e+01 2.284579658508300781e+01 -3.065067827701568604e-01 6.614331156015396118e-02 -7.210904359817504883e-02 6.126856058835983276e-02
3.502000000000000000e+03 1.215252971649169922e+01 8.989683151245117188e+00 -1.203366264235228300e-04 -2.778053458314388990e-04 -1.194425931316800416e-04 2.421206561848521233e-03
3.503000000000000000e+03 3.377806091308593750e+01 -7.192909240722656250e+00 -2.779608726501464844e+00 6.474548816680908203e+00 1.108482122421264648e+00 -1.091017127037048340e+00
3.504000000000000000e+03 5.290985488891601562e+01 -3.551165390014648438e+01 6.619707494974136353e-02 1.377102851867675781e+00 4.329899847507476807e-01 -1.168958902359008789e+00
3.505000000000000000e+03 1.152245330810546875e+01 -2.220150566101074219e+01 2.011808753013610840e-01 1.882410168647766113e+00 6.250773072242736816e-01 5.651453733444213867e-01
3.506000000000000000e+03 2.944250297546386719e+01 -3.458670043945312500e+01 -3.655777871608734131e-01 1.662984967231750488e+00 3.892221450805664062e-01 8.072431683540344238e-01
3.507000000000000000e+03 3.232209777832031250e+01 -3.327854156494140625e+01 -5.939713716506958008e-01 2.918327569961547852e+00 6.973068714141845703e-01 1.176054477691650391e+00
3.508000000000000000e+03 7.541062927246093750e+01 3.549734878540039062e+01 -6.105046346783638000e-02 6.772415161132812500e+00 2.013409376144409180e+00 8.158775418996810913e-02
3.509000000000000000e+03 1.109996891021728516e+01 -2.037145042419433594e+01 4.873465299606323242e-01 1.919073224067687988e+00 7.219259142875671387e-01 5.975437760353088379e-01
3.510000000000000000e+03 1.210698127746582031e+01 -2.324613571166992188e+01 -4.685991257429122925e-02 1.895068168640136719e+00 5.544624924659729004e-01 4.508786499500274658e-01
3.511000000000000000e+03 6.868468475341796875e+01 -1.046845149993896484e+01 -2.068548440933227539e+00 7.906034469604492188e+00 1.751245737075805664e+00 -1.862293720245361328e+00
3.512000000000000000e+03 6.867092132568359375e+01 -9.812648773193359375e+00 -1.889996647834777832e+00 7.463578701019287109e+00 1.672074675559997559e+00 -1.857523202896118164e+00
3.513000000000000000e+03 4.369548797607421875e+01 -1.510856056213378906e+01 7.090545892715454102e-01 6.754309177398681641e+00 2.239009141921997070e+00 -7.642377167940139771e-02
3.514000000000000000e+03 1.406793308258056641e+01 -1.285227203369140625e+01 1.642595767974853516e+00 2.636973381042480469e+00 1.283870816230773926e+00 8.625836372375488281e-01
3.515000000000000000e+03 1.438246822357177734e+01 -1.129844474792480469e+01 1.307855486869812012e+00 2.150130271911621094e+00 1.037395715713500977e+00 6.074393391609191895e-01
3.516000000000000000e+03 3.811896133422851562e+01 -3.457813501358032227e+00 -1.067728877067565918e+00 1.015216827392578125e+01 2.725331783294677734e+00 -1.424620985984802246e+00
3.517000000000000000e+03 3.757685470581054688e+01 -2.510015010833740234e+00 3.344959020614624023e-02 1.052123641967773438e+01 3.166405677795410156e+00 -1.228895425796508789e+00
3.518000000000000000e+03 4.267622375488281250e+01 -2.443408584594726562e+01 2.019173860549926758e+00 8.770048141479492188e+00 3.236766576766967773e+00 -1.209613204002380371e+00
3.519000000000000000e+03 4.240239334106445312e+01 -2.530705642700195312e+01 1.835878252983093262e+00 8.348028182983398438e+00 3.055171966552734375e+00 -9.696771502494812012e-01
3.520000000000000000e+03 4.125711059570312500e+01 -5.761803627014160156e+00 -2.145512342453002930e+00 6.762412071228027344e+00 1.385069966316223145e+00 -2.267724990844726562e+00
3.521000000000000000e+03 4.188072204589843750e+01 -6.633047103881835938e+00 -1.987367391586303711e+00 5.896097183227539062e+00 1.172618865966796875e+00 -1.989645600318908691e+00
3.522000000000000000e+03 1.105180263519287109e+01 -1.849820137023925781e+01 7.495098114013671875e-01 2.003494262695312500e+00 8.259012103080749512e-01 5.753962993621826172e-01
3.523000000000000000e+03 6.932025146484375000e+01 -1.115662860870361328e+01 -1.864819169044494629e+00 9.012772560119628906e+00 2.144386053085327148e+00 -1.285104036331176758e+00
3.524000000000000000e+03 7.031248474121093750e+01 -1.330681610107421875e+01 -4.362564682960510254e-01 1.068776702880859375e+01 3.075453042984008789e+00 -8.734500408172607422e-02
3.525000000000000000e+03 7.466390991210937500e+01 -1.066477870941162109e+01 -5.862419605255126953e-01 8.985980033874511719e+00 2.519921541213989258e+00 5.966355800628662109e-01
3.526000000000000000e+03 4.206282806396484375e+01 -2.286313438415527344e+01 1.874727368354797363e+00 8.866083145141601562e+00 3.222243309020996094e+00 -1.112507224082946777e+00
3.527000000000000000e+03 3.990877532958984375e+01 -2.295780754089355469e+01 1.793472290039062500e+00 8.151764869689941406e+00 2.983571052551269531e+00 -6.600493192672729492e-01
3.528000000000000000e+03 5.320769882202148438e+01 2.342655372619628906e+01 -4.629794061183929443e-01 4.815386831760406494e-01 5.567783955484628677e-03 3.361749351024627686e-01
3.529000000000000000e+03 3.657461166381835938e+01 -9.863167762756347656e+00 -1.988553762435913086e+00 8.969454765319824219e+00 2.094270467758178711e+00 -9.135431051254272461e-01
3.530000000000000000e+03 3.596422195434570312e+01 -9.482325553894042969e+00 -2.232546329498291016e+00 8.794751167297363281e+00 1.968661427497863770e+00 -9.513617157936096191e-01
3.531000000000000000e+03 4.886949920654296875e+01 -3.386974334716796875e+01 -5.538832545280456543e-01 3.593150138854980469e+00 9.117800593376159668e-01 -1.794310688972473145e+00
3.532000000000000000e+03 4.846741867065429688e+01 -3.275779724121093750e+01 -4.786182940006256104e-01 3.971398353576660156e+00 1.047834038734436035e+00 -1.967739462852478027e+00
3.533000000000000000e+03 7.418064117431640625e+01 -3.221861648559570312e+01 -4.628222286701202393e-01 8.738771438598632812e+00 2.482784748077392578e+00 -3.059495389461517334e-01
3.534000000000000000e+03 3.871752548217773438e+01 -2.766780471801757812e+01 3.914865553379058838e-01 6.776806354522705078e+00 2.150487899780273438e+00 3.136598765850067139e-01
3.535000000000000000e+03 7.209920501708984375e+01 -2.156400871276855469e+01 1.219994544982910156e+00 1.065206909179687500e+01 3.561619043350219727e+00 -7.868900895118713379e-01
3.536000000000000000e+03 7.016696166992187500e+01 -2.510479736328125000e+01 -5.298789739608764648e-01 9.488378524780273438e+00 2.687549829483032227e+00 4.278116393834352493e-03
3.537000000000000000e+03 7.542284393310546875e+01 -2.609295272827148438e+01 -2.434289455413818359e-01 9.155160903930664062e+00 2.673519372940063477e+00 -1.146809220314025879e+00
3.538000000000000000e+03 2.261245727539062500e+01 2.713006782531738281e+01 2.067303210496902466e-01 7.346689105033874512e-01 2.824197709560394287e-01 -6.127033233642578125e-01
3.539000000000000000e+03 1.452919292449951172e+01 2.382391166687011719e+01 -2.435252517461776733e-01 7.115782797336578369e-02 -5.171022564172744751e-02 9.788595139980316162e-02
3.540000000000000000e+03 1.385121917724609375e+01 2.277271080017089844e+01 -2.691271007061004639e-01 7.574717700481414795e-02 -5.801397189497947693e-02 6.453207135200500488e-02
3.541000000000000000e+03 4.742856597900390625e+01 -3.409862136840820312e+01 -8.113664984703063965e-01 4.445998668670654297e+00 1.090389609336853027e+00 -1.565857410430908203e+00
3.542000000000000000e+03 4.926650619506835938e+01 -3.526562881469726562e+01 -5.481549501419067383e-01 3.298101186752319336e+00 8.249838352203369141e-01 -1.600575089454650879e+00
3.543000000000000000e+03 6.411685180664062500e+01 2.171671104431152344e+01 -1.392622012645006180e-02 7.649416446685791016e+00 2.290647029876708984e+00 -4.547152221202850342e-01
3.544000000000000000e+03 6.476333618164062500e+01 2.230120277404785156e+01 -1.786199808120727539e-01 7.458414554595947266e+00 2.183938264846801758e+00 -2.731126546859741211e-01
3.545000000000000000e+03 3.727289199829101562e+01 -2.744176864624023438e+01 3.702566921710968018e-01 6.345406055450439453e+00 2.014698743820190430e+00 6.576229929924011230e-01
3.546000000000000000e+03 4.182744979858398438e+01 -2.534501075744628906e+01 1.717268466949462891e+00 8.089858055114746094e+00 2.942137956619262695e+00 -7.793912887573242188e-01
3.547000000000000000e+03 1.458405876159667969e+01 2.552874755859375000e+01 -1.251857876777648926e-01 9.722417593002319336e-02 -8.388482034206390381e-03 1.237476617097854614e-01
3.548000000000000000e+03 6.563477325439453125e+01 2.051034736633300781e+01 5.969283580780029297e-01 7.784689903259277344e+00 2.514485359191894531e+00 3.109535202383995056e-02
3.549000000000000000e+03 2.897599029541015625e+01 2.515807914733886719e+01 -6.683763116598129272e-02 3.479347705841064453e+00 1.023753046989440918e+00 -1.463804483413696289e+00
3.550000000000000000e+03 3.199645614624023438e+01 2.300409126281738281e+01 7.053068839013576508e-03 5.611451148986816406e+00 1.685551285743713379e+00 -9.626116752624511719e-01
3.551000000000000000e+03 1.663472747802734375e+01 -3.120532417297363281e+01 -5.784907341003417969e-01 7.661320567131042480e-01 5.629240348935127258e-02 -1.362445652484893799e-01
3.552000000000000000e+03 2.548225021362304688e+01 -3.648187637329101562e+01 -1.076133549213409424e-01 6.656974554061889648e-01 1.674252301454544067e-01 2.538965344429016113e-01
3.553000000000000000e+03 4.289802169799804688e+01 -3.392819976806640625e+01 -1.152585268020629883e+00 5.874030590057373047e+00 1.416433572769165039e+00 -4.248894155025482178e-01
3.554000000000000000e+03 5.964277648925781250e+01 -3.553313446044921875e+01 3.395806550979614258e-01 7.399447560310363770e-01 3.238576352596282959e-01 9.146213531494140625e-02
3.555000000000000000e+03 3.469310760498046875e+01 -3.180568885803222656e+01 -6.000543236732482910e-01 4.215925216674804688e+00 1.084761261940002441e+00 1.196474313735961914e+00
3.556000000000000000e+03 3.114196205139160156e+01 2.414064979553222656e+01 -2.068378925323486328e-01 4.985694408416748047e+00 1.433656930923461914e+00 -1.106042385101318359e+00
3.557000000000000000e+03 3.011895179748535156e+01 2.408812332153320312e+01 -7.890093326568603516e-02 4.462334632873535156e+00 1.315030097961425781e+00 -1.354539632797241211e+00
3.558000000000000000e+03 7.408316802978515625e+01 -3.830256271362304688e+01 -4.554244875907897949e-02 8.306421279907226562e+00 2.478263616561889648e+00 9.920430928468704224e-02
3.559000000000000000e+03 4.364910125732421875e+01 -2.952481460571289062e+01 1.134868115186691284e-01 7.271885395050048828e+00 2.215611696243286133e+00 -8.031455278396606445e-01
3.560000000000000000e+03 4.495573425292968750e+01 -3.103397560119628906e+01 -4.295507073402404785e-01 6.492192745208740234e+00 1.818792581558227539e+00 -1.141111731529235840e+00
3.561000000000000000e+03 5.800069046020507812e+01 -3.622418212890625000e+01 4.935701191425323486e-01 6.069917678833007812e-01 3.301685750484466553e-01 -1.725469380617141724e-01
3.562000000000000000e+03 7.824806213378906250e+01 -4.083391571044921875e+01 -2.627132460474967957e-02 1.048566722869873047e+01 3.137818813323974609e+00 3.467729687690734863e-02
3.563000000000000000e+03 7.399693298339843750e+01 -3.455494308471679688e+01 -3.206973373889923096e-01 8.513961791992187500e+00 2.457979202270507812e+00 -4.673478379845619202e-02
3.564000000000000000e+03 6.997139453887939453e+00 -4.153649139404296875e+01 -1.112845689058303833e-01 5.402107834815979004e-01 1.286778599023818970e-01 2.155293524265289307e-02
3.565000000000000000e+03 6.391988277435302734e+00 -3.725770950317382812e+01 -1.311802715063095093e-01 5.395634174346923828e-01 1.225149333477020264e-01 1.320720613002777100e-01
3.566000000000000000e+03 7.458963012695312500e+01 4.004415512084960938e+01 -2.325678244233131409e-02 6.649445533752441406e+00 1.987856745719909668e+00 2.458357810974121094e-02
3.567000000000000000e+03 7.169580078125000000e+01 4.093404769897460938e+01 -5.033318325877189636e-02 6.263611316680908203e+00 1.863983511924743652e+00 6.211009807884693146e-03
3.568000000000000000e+03 7.282954406738281250e+01 -1.688722419738769531e+01 1.638846755027770996e+00 1.024355983734130859e+01 3.564722061157226562e+00 2.813048064708709717e-01
3.569000000000000000e+03 7.139230346679687500e+01 -1.426102828979492188e+01 4.829030036926269531e-01 1.076906967163085938e+01 3.375591754913330078e+00 5.191650986671447754e-01
3.570000000000000000e+03 7.231298828125000000e+01 -1.575577640533447266e+01 1.416299819946289062e+00 1.053818321228027344e+01 3.586344718933105469e+00 5.303490757942199707e-01
3.571000000000000000e+03 5.628842163085937500e+01 -5.816278457641601562e+00 2.506527602672576904e-01 1.656352519989013672e+00 5.721015930175781250e-01 1.195830106735229492e+00
3.572000000000000000e+03 2.082487869262695312e+01 -7.208776473999023438e+00 4.350802898406982422e-01 6.931455731391906738e-01 3.384677767753601074e-01 1.314967393875122070e+00
3.573000000000000000e+03 3.684360885620117188e+01 -1.752181291580200195e+00 6.673524379730224609e-01 1.066310214996337891e+01 3.399136543273925781e+00 -9.294751882553100586e-01
3.574000000000000000e+03 3.726548004150390625e+01 -3.962513685226440430e+00 -1.471891045570373535e+00 9.900233268737792969e+00 2.528502702713012695e+00 -1.179536461830139160e+00
3.575000000000000000e+03 2.366825103759765625e+01 -6.690660476684570312e+00 -4.359564743936061859e-03 5.607308745384216309e-01 1.669113934040069580e-01 1.440613985061645508e+00
3.576000000000000000e+03 2.228362655639648438e+01 -5.697847366333007812e+00 2.130322754383087158e-01 5.095347762107849121e-01 2.167701125144958496e-01 1.446601986885070801e+00
3.577000000000000000e+03 1.531457328796386719e+01 5.117498874664306641e+00 1.077430169971194118e-05 7.547453860752284527e-04 2.296559105161577463e-04 6.832083454355597496e-04
3.578000000000000000e+03 1.473209667205810547e+01 6.450058937072753906e+00 -2.362526429351419210e-04 1.120712375268340111e-03 2.653379051480442286e-04 1.028181053698062897e-03
3.579000000000000000e+03 2.453467178344726562e+01 -5.486925601959228516e+00 1.510779559612274170e-01 4.127945303916931152e-01 1.691617518663406372e-01 1.717082381248474121e+00
3.580000000000000000e+03 2.022640800476074219e+01 -7.439146518707275391e+00 4.727008342742919922e-01 7.829543352127075195e-01 3.766965568065643311e-01 1.316077470779418945e+00
3.581000000000000000e+03 6.658033752441406250e+01 -1.000569438934326172e+01 -1.767213106155395508e+00 4.788830280303955078e+00 9.064851999282836914e-01 -2.573965787887573242e+00
3.582000000000000000e+03 6.502433776855468750e+01 -9.651268005371093750e+00 -1.330729603767395020e+00 2.246237277984619141e+00 2.746523320674896240e-01 -2.117946624755859375e+00
3.583000000000000000e+03 1.335211372375488281e+01 5.213447093963623047e+00 1.138481238740496337e-04 1.898889458971098065e-04 9.112111729336902499e-05 1.195097807794809341e-03
3.584000000000000000e+03 1.262013339996337891e+01 5.707013130187988281e+00 2.455776557326316833e-04 -3.761048719752579927e-05 6.239015056053176522e-05 1.436748076230287552e-03
3.585000000000000000e+03 1.407904243469238281e+01 5.310320377349853516e+00 8.161615551216527820e-05 7.185853901319205761e-04 2.400604716967791319e-04 1.044009230099618435e-03
3.586000000000000000e+03 1.421621894836425781e+01 7.271888732910156250e+00 -4.895236925221979618e-04 1.328731770627200603e-03 2.517624234315007925e-04 1.306298538111150265e-03
3.587000000000000000e+03 1.209504318237304688e+01 5.697022438049316406e+00 4.561863024719059467e-04 -9.527178190182894468e-05 1.082743547158315778e-04 1.309429993852972984e-03
3.588000000000000000e+03 1.152181529998779297e+01 5.856913566589355469e+00 5.099495756439864635e-04 -7.107693818397819996e-04 -6.024593312758952379e-05 1.422857516445219517e-03
3.589000000000000000e+03 1.233608436584472656e+01 7.158411026000976562e+00 2.021219552261754870e-04 -2.139669668395072222e-04 -3.553506076059420593e-06 1.936507062055170536e-03
3.590000000000000000e+03 5.076360702514648438e+01 -8.691318511962890625e+00 -4.506576955318450928e-01 7.467334270477294922e-01 8.882272243499755859e-02 2.083885908126831055e+00
3.591000000000000000e+03 1.962075042724609375e+01 -6.268905639648437500e+00 1.917144954204559326e-01 7.762569189071655273e-01 2.903914451599121094e-01 1.238484859466552734e+00
3.592000000000000000e+03 1.477430725097656250e+01 -1.089892578125000000e+01 1.273350715637207031e+00 2.057005405426025391e+00 9.991068243980407715e-01 6.400289535522460938e-01
3.593000000000000000e+03 1.401620483398437500e+01 -1.018211650848388672e+01 9.342006444931030273e-01 1.789912462234497070e+00 8.172339200973510742e-01 3.215748369693756104e-01
3.594000000000000000e+03 3.514204788208007812e+01 1.375449943542480469e+01 7.947303652763366699e-01 1.023802280426025391e+01 3.309826135635375977e+00 -1.230528473854064941e+00
3.595000000000000000e+03 3.497753524780273438e+01 1.461534118652343750e+01 7.908960580825805664e-01 9.773634910583496094e+00 3.169359207153320312e+00 -1.233569979667663574e+00
3.596000000000000000e+03 4.474730300903320312e+01 -1.371741008758544922e+01 3.711629807949066162e-01 5.437000751495361328e+00 1.742449045181274414e+00 4.059255719184875488e-01
3.597000000000000000e+03 2.755872154235839844e+01 -3.128083705902099609e+00 1.573551177978515625e+00 2.574130594730377197e-01 5.492892861366271973e-01 1.808601379394531250e+00
3.598000000000000000e+03 4.968059921264648438e+01 -1.175156307220458984e+01 2.774153947830200195e-01 1.178420305252075195e+00 4.367507100105285645e-01 1.681685328483581543e+00
3.599000000000000000e+03 9.739956855773925781e+00 -5.297281265258789062e+00 -2.767478227615356445e-01 2.581866383552551270e-01 -5.568353459239006042e-03 -5.066787004470825195e-01
3.600000000000000000e+03 1.057725906372070312e+01 -5.926541805267333984e+00 -1.644233167171478271e-01 4.092914164066314697e-01 7.346042990684509277e-02 -4.322802722454071045e-01
3.601000000000000000e+03 2.299101066589355469e+01 -5.464020252227783203e+00 1.649933308362960815e-01 4.776633083820343018e-01 1.927969902753829956e-01 1.528153896331787109e+00
3.602000000000000000e+03 2.302262878417968750e+01 -6.976570129394531250e+00 1.744297891855239868e-01 5.631356835365295410e-01 2.212696522474288940e-01 1.353361368179321289e+00
3.603000000000000000e+03 1.090621757507324219e+01 -2.119073486328125000e+01 3.751634359359741211e-01 1.769855022430419922e+00 6.435055136680603027e-01 6.181383132934570312e-01
3.604000000000000000e+03 1.127069568634033203e+01 -1.957631111145019531e+01 6.160038113594055176e-01 2.071858882904052734e+00 8.063588142395019531e-01 5.714256763458251953e-01
3.605000000000000000e+03 7.393650817871093750e+01 3.016502761840820312e+01 -1.531998068094253540e-01 6.638179302215576172e+00 1.945493817329406738e+00 2.416991144418716431e-01
3.606000000000000000e+03 4.199425697326660156e+00 -5.979847908020019531e+00 -6.871017813682556152e-02 -3.010918200016021729e-01 -1.109405979514122009e-01 -5.635200142860412598e-01
3.607000000000000000e+03 6.179467010498046875e+01 -9.485791206359863281e+00 -1.228261590003967285e+00 7.463275790214538574e-01 -1.445802152156829834e-01 -2.190073952078819275e-02
3.608000000000000000e+03 5.600589752197265625e+01 -6.857508182525634766e+00 -1.161460205912590027e-01 1.502109408378601074e+00 4.157890081405639648e-01 1.260851383209228516e+00
3.609000000000000000e+03 5.837226867675781250e+01 -9.802832603454589844e+00 -1.210168123245239258e+00 9.412271976470947266e-01 -8.068227022886276245e-02 7.236288785934448242e-01
3.610000000000000000e+03 5.090920448303222656e+00 2.896743583679199219e+01 1.529454719275236130e-03 -9.663246572017669678e-02 -2.853090316057205200e-02 1.269406676292419434e-01
3.611000000000000000e+03 3.815167427062988281e+00 2.989243316650390625e+01 5.092125851660966873e-03 -1.559945195913314819e-01 -4.527071863412857056e-02 1.046503484249114990e-01
3.612000000000000000e+03 6.339199542999267578e+00 -6.701826095581054688e+00 -3.436176478862762451e-02 -7.314699143171310425e-02 -3.225262463092803955e-02 -6.506453752517700195e-01
3.613000000000000000e+03 6.953443527221679688e+00 -6.468450069427490234e+00 -5.641338229179382324e-02 -2.149937354261055589e-04 -1.698851212859153748e-02 -6.505525708198547363e-01
3.614000000000000000e+03 8.975480079650878906e+00 -5.349532604217529297e+00 -2.528211176395416260e-01 1.860573738813400269e-01 -2.002912014722824097e-02 -5.631166100502014160e-01
3.615000000000000000e+03 1.065249252319335938e+01 -6.579261779785156250e+00 -4.038264602422714233e-02 4.849381744861602783e-01 1.333666592836380005e-01 -4.242094457149505615e-01
3.616000000000000000e+03 7.631621837615966797e+00 -6.281203746795654297e+00 -8.936911821365356445e-02 7.840127497911453247e-02 -3.290352178737521172e-03 -6.353926062583923340e-01
3.617000000000000000e+03 1.355157470703125000e+01 -5.202756881713867188e+00 -3.158115446567535400e-01 5.924662947654724121e-01 8.299642056226730347e-02 2.288138680160045624e-02
3.618000000000000000e+03 8.349401473999023438e+00 -6.136132717132568359e+00 -1.157595217227935791e-01 1.611544042825698853e-01 1.361846365034580231e-02 -6.084913015365600586e-01
3.619000000000000000e+03 5.600895404815673828e+00 -2.860265350341796875e+01 -1.557750105857849121e-01 3.994384407997131348e-01 7.309903204441070557e-02 5.031560659408569336e-01
3.620000000000000000e+03 1.639209747314453125e+01 -9.710167884826660156e+00 1.033938169479370117e+00 1.781406402587890625e+00 8.446033596992492676e-01 9.301321506500244141e-01
3.621000000000000000e+03 7.504726409912109375e+01 -3.191267967224121094e+01 -3.889694213867187500e-01 9.036836624145507812e+00 2.594360113143920898e+00 -3.613275289535522461e-01
3.622000000000000000e+03 5.207984447479248047e+00 -2.957453727722167969e+01 -1.505976468324661255e-01 3.834384679794311523e-01 6.985224783420562744e-02 4.547913670539855957e-01
3.623000000000000000e+03 5.232550430297851562e+01 -7.961649894714355469e+00 -5.548017024993896484e-01 1.164027094841003418e+00 1.827676147222518921e-01 1.989098787307739258e+00
3.624000000000000000e+03 5.870133876800537109e+00 3.226020050048828125e+01 2.970206178724765778e-02 -1.031537055969238281e-01 -2.203549444675445557e-02 1.200815290212631226e-01
3.625000000000000000e+03 5.139189243316650391e+00 3.172353172302246094e+01 1.879867166280746460e-02 -1.342041343450546265e-01 -3.462163731455802917e-02 1.136776655912399292e-01
3.626000000000000000e+03 4.976535797119140625e+00 3.040084838867187500e+01 1.027855556458234787e-02 -1.248910352587699890e-01 -3.438374400138854980e-02 1.210151016712188721e-01
3.627000000000000000e+03 7.490254211425781250e+01 2.912892532348632812e+01 -1.171775460243225098e-01 6.681078910827636719e+00 1.969170331954956055e+00 2.849003970623016357e-01
3.628000000000000000e+03 8.489280700683593750e+00 5.555097579956054688e+00 1.288569183088839054e-03 -1.366439391858875751e-03 -2.336105353606399149e-05 1.360124588245525956e-04
3.629000000000000000e+03 1.358303070068359375e+01 -5.892801761627197266e+00 -1.647280007600784302e-01 7.386130094528198242e-01 1.721654981374740601e-01 4.156515374779701233e-02
3.630000000000000000e+03 5.086097717285156250e+00 -3.222993087768554688e+01 -1.372284144163131714e-01 4.355297684669494629e-01 8.949040621519088745e-02 3.123000562191009521e-01
3.631000000000000000e+03 5.453513145446777344e+00 -3.025050544738769531e+01 -1.672129333019256592e-01 4.284624755382537842e-01 7.837486267089843750e-02 4.219431877136230469e-01
3.632000000000000000e+03 7.080780792236328125e+01 -2.442946815490722656e+01 -1.846807599067687988e-01 9.977500915527343750e+00 2.937846183776855469e+00 -4.209906160831451416e-01
3.633000000000000000e+03 7.615251159667968750e+01 -2.296090698242187500e+01 2.341758161783218384e-01 8.719785690307617188e+00 2.686188459396362305e+00 -1.101513743400573730e+00
3.634000000000000000e+03 4.694208145141601562e+00 -2.175977325439453125e+01 1.082644239068031311e-01 -1.509823352098464966e-01 -1.281537394970655441e-02 5.513120293617248535e-01
3.635000000000000000e+03 7.585538482666015625e+01 -2.083981895446777344e+01 5.932061076164245605e-01 8.618759155273437500e+00 2.763589620590209961e+00 -7.892727255821228027e-01
3.636000000000000000e+03 7.527395629882812500e+01 -2.259534072875976562e+01 4.088805913925170898e-01 9.022789955139160156e+00 2.829501152038574219e+00 -1.148714184761047363e+00
3.637000000000000000e+03 4.636189937591552734e+00 2.182365036010742188e+01 -3.380833566188812256e-02 -2.036404795944690704e-02 -1.625171490013599396e-02 6.156234815716743469e-02
3.638000000000000000e+03 7.496052551269531250e+01 2.179813385009765625e+01 8.302783221006393433e-02 6.508802890777587891e+00 1.977549195289611816e+00 4.071047902107238770e-01
3.639000000000000000e+03 7.537001800537109375e+01 1.441531372070312500e+01 2.653337121009826660e-01 6.382351398468017578e+00 1.994305491447448730e+00 -1.395209878683090210e-01
3.640000000000000000e+03 7.410041046142578125e+01 2.916728019714355469e+01 -1.533814519643783569e-01 6.652204513549804688e+00 1.949646949768066406e+00 2.854036986827850342e-01
3.641000000000000000e+03 7.563536071777343750e+01 2.906582260131835938e+01 -9.383367002010345459e-02 6.699944972991943359e+00 1.981833457946777344e+00 2.824090421199798584e-01
3.642000000000000000e+03 4.716681003570556641e+00 2.394176292419433594e+01 -3.040292859077453613e-02 -3.893802314996719360e-02 -2.080228552222251892e-02 8.824543654918670654e-02
3.643000000000000000e+03 7.518514251708984375e+01 2.102789306640625000e+01 1.061311960220336914e-01 6.467521667480468750e+00 1.972095847129821777e+00 3.772448897361755371e-01
3.644000000000000000e+03 5.778257751464843750e+01 -5.590995311737060547e+00 3.191427290439605713e-01 1.725539445877075195e+00 6.134046316146850586e-01 9.874451756477355957e-01
3.645000000000000000e+03 7.572955322265625000e+01 2.581994438171386719e+01 -5.288822948932647705e-02 6.606736183166503906e+00 1.966154456138610840e+00 3.734345734119415283e-01
3.646000000000000000e+03 7.423950195312500000e+01 2.457950401306152344e+01 -4.597185924649238586e-02 6.642636299133300781e+00 1.978999376296997070e+00 4.333012998104095459e-01
3.647000000000000000e+03 7.464907073974609375e+01 1.645104026794433594e+01 3.173779249191284180e-01 6.458485126495361328e+00 2.032758951187133789e+00 5.145860835909843445e-02
3.648000000000000000e+03 7.540667724609375000e+01 1.590865898132324219e+01 2.590031623840332031e-01 6.353528976440429688e+00 1.983759641647338867e+00 5.893570370972156525e-03
3.649000000000000000e+03 7.605460357666015625e+01 1.599832057952880859e+01 1.971344351768493652e-01 6.246661663055419922e+00 1.933138847351074219e+00 1.741721108555793762e-02
3.650000000000000000e+03 7.480463409423828125e+01 1.578831958770751953e+01 3.079260587692260742e-01 6.436964511871337891e+00 2.023467063903808594e+00 -1.452183630317449570e-02
3.651000000000000000e+03 1.207754135131835938e+01 -5.910291671752929688e+00 -1.732122898101806641e-01 5.795208215713500977e-01 1.218925639986991882e-01 -2.267547249794006348e-01
3.652000000000000000e+03 1.282138347625732422e+01 -5.903877735137939453e+00 -1.689560413360595703e-01 6.548333168029785156e-01 1.457631736993789673e-01 -1.072922870516777039e-01
3.653000000000000000e+03 4.491958141326904297e+00 2.256693267822265625e+01 -3.116443194448947906e-02 -2.905764244496822357e-02 -1.806662231683731079e-02 6.991644948720932007e-02
3.654000000000000000e+03 3.917834997177124023e+00 -1.784580612182617188e+01 2.050315141677856445e-01 -6.368055939674377441e-01 -1.295322328805923462e-01 2.483811080455780029e-01
3.655000000000000000e+03 7.537370300292968750e+01 1.047721004486083984e+01 2.256428152322769165e-01 6.567950725555419922e+00 2.038078069686889648e+00 -5.039110183715820312e-01
3.656000000000000000e+03 7.538753509521484375e+01 9.673015594482421875e+00 2.087701410055160522e-01 6.623948574066162109e+00 2.049815654754638672e+00 -5.661982297897338867e-01
3.657000000000000000e+03 7.565924072265625000e+01 -2.722694015502929688e+01 -3.213365972042083740e-01 9.168078422546386719e+00 2.654022455215454102e+00 -9.968678355216979980e-01
3.658000000000000000e+03 7.478407287597656250e+01 -2.842476463317871094e+01 -4.959971010684967041e-01 9.132235527038574219e+00 2.590871572494506836e+00 -8.501846194267272949e-01
3.659000000000000000e+03 7.542237854003906250e+01 8.046200752258300781e+00 1.687429845333099365e-01 6.750615596771240234e+00 2.075807571411132812e+00 -6.787405014038085938e-01
3.660000000000000000e+03 7.608969116210937500e+01 -2.010568046569824219e+01 6.113330125808715820e-01 8.444360733032226562e+00 2.716708183288574219e+00 -5.766077637672424316e-01
3.661000000000000000e+03 7.543263244628906250e+01 7.246618747711181641e+00 1.459584981203079224e-01 6.819824695587158203e+00 2.089735031127929688e+00 -7.226739525794982910e-01
3.662000000000000000e+03 7.383972167968750000e+01 -1.547384166717529297e+01 9.394704699516296387e-01 9.569960594177246094e+00 3.152829408645629883e+00 7.587154507637023926e-01
3.663000000000000000e+03 7.585961914062500000e+01 -1.557547473907470703e+01 5.015490055084228516e-01 8.528320312500000000e+00 2.708960771560668945e+00 6.643784046173095703e-01
3.664000000000000000e+03 7.611261749267578125e+01 8.063179969787597656e+00 1.290069520473480225e-01 6.692718029022216797e+00 2.046517610549926758e+00 -6.109311580657958984e-01
3.665000000000000000e+03 7.467261505126953125e+01 9.645152091979980469e+00 2.651638090610504150e-01 6.695565223693847656e+00 2.088218688964843750e+00 -6.146985292434692383e-01
3.666000000000000000e+03 7.496614837646484375e+01 -1.936509132385253906e+01 1.000930547714233398e+00 8.981638908386230469e+00 2.994771003723144531e+00 -4.526299536228179932e-01
3.667000000000000000e+03 7.581616210937500000e+01 -1.658293342590332031e+01 6.971516013145446777e-01 8.516715049743652344e+00 2.764160156250000000e+00 4.390757977962493896e-01
3.668000000000000000e+03 7.620075225830078125e+01 -1.417016983032226562e+01 2.073569595813751221e-01 8.491862297058105469e+00 2.609765768051147461e+00 8.531262278556823730e-01
3.669000000000000000e+03 7.536626434326171875e+01 1.127118301391601562e+01 2.417093813419342041e-01 6.521428585052490234e+00 2.028941392898559570e+00 -4.376997351646423340e-01
3.670000000000000000e+03 7.386940002441406250e+01 -2.049188995361328125e+01 1.136611104011535645e+00 9.581745147705078125e+00 3.215506792068481445e+00 -7.663641571998596191e-01
3.671000000000000000e+03 7.548708343505859375e+01 4.813953489065170288e-02 -1.124884933233261108e-01 7.609403133392333984e+00 2.249074459075927734e+00 -8.089004158973693848e-01
3.672000000000000000e+03 7.548983764648437500e+01 -7.567908167839050293e-01 -1.503090411424636841e-01 7.710292339324951172e+00 2.267995119094848633e+00 -7.745019197463989258e-01
3.673000000000000000e+03 7.615072631835937500e+01 8.560927510261535645e-01 -6.024235486984252930e-02 7.586758613586425781e+00 2.257954835891723633e+00 -7.473565936088562012e-01
3.674000000000000000e+03 7.548361968994140625e+01 8.497286438941955566e-01 -7.383480668067932129e-02 7.511346340179443359e+00 2.231253623962402344e+00 -8.318652510643005371e-01
3.675000000000000000e+03 7.485583496093750000e+01 -1.599348068237304688e+00 -2.355786114931106567e-01 7.717814922332763672e+00 2.244670867919921875e+00 -8.075491786003112793e-01
3.676000000000000000e+03 7.551888275146484375e+01 -2.360510826110839844e+00 -2.371935993432998657e-01 7.916225910186767578e+00 2.303709745407104492e+00 -6.701004505157470703e-01
3.677000000000000000e+03 7.544981384277343750e+01 3.256259918212890625e+00 1.789580658078193665e-02 7.230484008789062500e+00 2.174514055252075195e+00 -8.502628207206726074e-01
3.678000000000000000e+03 7.619435882568359375e+01 -1.341626167297363281e+01 7.116299867630004883e-02 8.570534706115722656e+00 2.592509269714355469e+00 8.821595907211303711e-01
3.679000000000000000e+03 7.547360229492187500e+01 -1.472758579254150391e+01 4.342770576477050781e-01 8.785937309265136719e+00 2.766064405441284180e+00 8.437750935554504395e-01
3.680000000000000000e+03 7.610843658447265625e+01 -1.009250450134277344e+01 -3.851781487464904785e-01 8.721366882324218750e+00 2.500856637954711914e+00 5.639673471450805664e-01
3.681000000000000000e+03 6.985096740722656250e+01 -1.185628604888916016e+01 -1.507666945457458496e+00 9.769800186157226562e+00 2.478639841079711914e+00 -7.008491158485412598e-01
3.682000000000000000e+03 7.614762878417968750e+01 1.657271742820739746e+00 -3.210688382387161255e-02 7.478421688079833984e+00 2.233894348144531250e+00 -7.612612843513488770e-01
3.683000000000000000e+03 7.272670745849609375e+01 -1.227404594421386719e+01 -6.012961268424987793e-01 9.697069168090820312e+00 2.728732109069824219e+00 6.127061843872070312e-01
3.684000000000000000e+03 7.534119415283203125e+01 -1.078074455261230469e+01 -4.661218822002410889e-01 8.874754905700683594e+00 2.522589921951293945e+00 6.601410508155822754e-01
3.685000000000000000e+03 7.477928161621093750e+01 2.426884412765502930e+00 -1.166053954511880875e-02 7.272638320922851562e+00 2.178293228149414062e+00 -9.242588281631469727e-01
3.686000000000000000e+03 7.623853302001953125e+01 -8.597218513488769531e+00 -4.274213910102844238e-01 8.669257164001464844e+00 2.472550630569458008e+00 2.923961877822875977e-01
3.687000000000000000e+03 7.553164672851562500e+01 -9.163143157958984375e+00 -5.647406578063964844e-01 8.755477905273437500e+00 2.457221031188964844e+00 3.655348718166351318e-01
3.688000000000000000e+03 7.545799255371093750e+01 -4.755550861358642578e+00 -4.073453247547149658e-01 8.228293418884277344e+00 2.346284389495849609e+00 -4.236412644386291504e-01
3.689000000000000000e+03 7.544741821289062500e+01 -5.569819450378417969e+00 -4.577604532241821289e-01 8.333462715148925781e+00 2.362710714340209961e+00 -3.104760646820068359e-01
3.690000000000000000e+03 8.275151252746582031e+00 7.457301616668701172e+00 1.041902694851160049e-03 -2.698980504646897316e-03 -4.971233429387211800e-04 2.878209052141755819e-04
3.691000000000000000e+03 7.552733612060546875e+01 -3.151603698730468750e+00 -2.937100827693939209e-01 8.019959449768066406e+00 2.317874908447265625e+00 -6.036891937255859375e-01
3.692000000000000000e+03 7.550430297851562500e+01 -3.948598384857177734e+00 -3.495198488235473633e-01 8.125396728515625000e+00 2.332762956619262695e+00 -5.209665894508361816e-01
3.693000000000000000e+03 7.563464355468750000e+01 -8.543056488037109375e+00 -5.029377937316894531e-01 8.661015510559082031e+00 2.447423458099365234e+00 2.446965724229812622e-01
3.694000000000000000e+03 7.554792022705078125e+01 -7.134882450103759766e+00 -5.332943797111511230e-01 8.539209365844726562e+00 2.401774406433105469e+00 -3.709252551198005676e-02
3.695000000000000000e+03 7.543703460693359375e+01 5.651502132415771484e+00 9.857680648565292358e-02 6.973666191101074219e+00 2.121672868728637695e+00 -7.948225736618041992e-01
3.696000000000000000e+03 7.543802642822265625e+01 4.852576732635498047e+00 7.186444103717803955e-02 7.057001113891601562e+00 2.138659715652465820e+00 -8.219476342201232910e-01
3.697000000000000000e+03 7.622934722900390625e+01 -1.793504714965820312e+01 6.780263781547546387e-01 8.282938957214355469e+00 2.688289403915405273e+00 1.664690300822257996e-02
3.698000000000000000e+03 7.477983856201171875e+01 -1.631904602050781250e+01 8.843661546707153320e-01 9.026478767395019531e+00 2.973253488540649414e+00 5.303756594657897949e-01
3.699000000000000000e+03 7.543647766113281250e+01 6.450852394104003906e+00 1.217952892184257507e-01 6.895622253417968750e+00 2.105225324630737305e+00 -7.629636526107788086e-01
3.700000000000000000e+03 7.516799926757812500e+01 1.889056777954101562e+01 2.045586109161376953e-01 6.403316974639892578e+00 1.982362627983093262e+00 2.553278505802154541e-01
3.701000000000000000e+03 4.047032833099365234e+00 6.691149234771728516e+00 7.071783766150474548e-04 -9.525543282506987453e-05 1.835768925957381725e-04 -1.763672335073351860e-03
3.702000000000000000e+03 4.916327476501464844e+00 6.585033893585205078e+00 9.672458982095122337e-04 -7.285097381100058556e-04 7.162085239542648196e-05 -1.585622667334973812e-03
3.703000000000000000e+03 7.537627410888671875e+01 -1.595976352691650391e+01 6.775378584861755371e-01 8.760210990905761719e+00 2.831324577331542969e+00 5.980340838432312012e-01
3.704000000000000000e+03 7.220634460449218750e+01 -1.846694755554199219e+01 1.950913071632385254e+00 1.093338871002197266e+01 3.865290641784667969e+00 -2.218841165304183960e-01
3.705000000000000000e+03 7.598860168457031250e+01 -2.593841743469238281e+01 -1.702094674110412598e-01 9.098309516906738281e+00 2.678430080413818359e+00 -1.124360561370849609e+00
3.706000000000000000e+03 7.525762939453125000e+01 -2.789489364624023438e+01 -4.020064771175384521e-01 9.184117317199707031e+00 2.634633302688598633e+00 -9.303902983665466309e-01
3.707000000000000000e+03 4.594994068145751953e+00 -1.541951465606689453e+01 3.183873593807220459e-01 -5.117882490158081055e-01 -5.802026763558387756e-02 2.199294418096542358e-02
3.708000000000000000e+03 7.535475921630859375e+01 1.364257240295410156e+01 2.700297534465789795e-01 6.407650947570800781e+00 2.003304243087768555e+00 -2.192610353231430054e-01
3.709000000000000000e+03 7.535426330566406250e+01 1.285247898101806641e+01 2.617013752460479736e-01 6.445611476898193359e+00 2.012193918228149414e+00 -2.952103018760681152e-01
3.710000000000000000e+03 5.494091415405273438e+01 -6.729574680328369141e+00 -1.336905956268310547e-01 1.550030589103698730e+00 4.249019920825958252e-01 1.402570486068725586e+00
3.711000000000000000e+03 5.593923187255859375e+01 -8.355020523071289062e+00 -5.502561926841735840e-01 1.277283549308776855e+00 2.181082069873809814e-01 1.288341403007507324e+00
3.712000000000000000e+03 5.144298553466796875e+01 -1.339369964599609375e+01 8.659188449382781982e-02 3.942614495754241943e-01 1.442560106515884399e-01 1.110725998878479004e+00
3.713000000000000000e+03 7.556660461425781250e+01 2.662179946899414062e+01 -7.293406873941421509e-02 6.637075901031494141e+00 1.969242572784423828e+00 3.602258265018463135e-01
3.714000000000000000e+03 7.008747100830078125e+01 -2.628014183044433594e+01 -8.750069737434387207e-01 8.804817199707031250e+00 2.378943204879760742e+00 1.021062880754470825e-01
3.715000000000000000e+03 5.501572608947753906e+00 -2.387461090087890625e+01 1.175706926733255386e-02 1.872633248567581177e-01 5.970611795783042908e-02 6.426815390586853027e-01
3.716000000000000000e+03 4.747977733612060547e+00 -2.327837181091308594e+01 3.326617926359176636e-02 -2.868437767028808594e-02 1.374540734104812145e-03 5.952146649360656738e-01
3.717000000000000000e+03 3.913370847702026367e+00 -1.704097747802734375e+01 2.207415997982025146e-01 -6.775532364845275879e-01 -1.370434910058975220e-01 1.734177023172378540e-01
3.718000000000000000e+03 5.454168319702148438e+00 6.090237140655517578e+00 1.044199918396770954e-03 -1.170596806332468987e-03 -3.791904964600689709e-05 -1.208346802741289139e-03
3.719000000000000000e+03 4.496259689331054688e+00 1.540496826171875000e+01 -1.044626254588365555e-02 -3.329037921503186226e-03 -4.132590256631374359e-03 5.206761881709098816e-03
3.720000000000000000e+03 4.653000831604003906e+00 1.147582530975341797e+01 -9.240618092007935047e-04 -2.333391457796096802e-03 -9.772359626367688179e-04 -1.740143517963588238e-03
3.721000000000000000e+03 5.249361515045166016e+00 -1.702261352539062500e+01 3.499182760715484619e-01 -2.624445855617523193e-01 2.624210715293884277e-02 2.244580090045928955e-01
3.722000000000000000e+03 7.132489776611328125e+01 -2.510269546508789062e+01 -4.345950186252593994e-01 9.637972831726074219e+00 2.761013269424438477e+00 -6.023467183113098145e-01
3.723000000000000000e+03 4.529084205627441406e+00 1.463717269897460938e+01 -7.224123459309339523e-03 -3.386238124221563339e-03 -3.183108288794755936e-03 2.671880880370736122e-03
3.724000000000000000e+03 4.591684818267822266e+00 -1.059234237670898438e+01 2.003387659788131714e-01 -4.740607440471649170e-01 -8.211659640073776245e-02 -4.637611508369445801e-01
3.725000000000000000e+03 4.583717346191406250e+00 -9.816716194152832031e+00 1.606081277132034302e-01 -4.501046240329742432e-01 -8.684895187616348267e-02 -5.118682980537414551e-01
3.726000000000000000e+03 4.047016143798828125e+00 -2.337765502929687500e+01 2.558712475001811981e-02 -2.040712535381317139e-01 -5.354524031281471252e-02 5.407496690750122070e-01
3.727000000000000000e+03 4.591524600982666016e+00 1.386618995666503906e+01 -5.827265791594982147e-03 -2.805386902764439583e-03 -2.589795971289277077e-03 1.111108926124870777e-03
3.728000000000000000e+03 5.106589794158935547e+00 8.097108840942382812e+00 7.694527157582342625e-04 -1.622874638997018337e-03 -2.560265711508691311e-04 -1.631383434869349003e-03
3.729000000000000000e+03 4.789944648742675781e+00 2.006910705566406250e+01 -3.242476284503936768e-02 -9.386340156197547913e-03 -1.254333090037107468e-02 4.096083343029022217e-02
3.730000000000000000e+03 4.619962215423583984e+00 -1.461956501007080078e+01 3.156733512878417969e-01 -5.192742347717285156e-01 -6.108026579022407532e-02 -7.234683632850646973e-02
3.731000000000000000e+03 4.039876461029052734e+00 9.811496734619140625e+00 1.429829862900078297e-04 -7.125078118406236172e-04 -1.708574418444186449e-04 -2.124056220054626465e-03
3.732000000000000000e+03 5.034037113189697266e+00 -2.551781082153320312e+01 -6.146715581417083740e-02 1.744067668914794922e-01 3.388188406825065613e-02 5.934669375419616699e-01
3.733000000000000000e+03 7.469984436035156250e+01 2.061417579650878906e+01 1.455772817134857178e-01 6.502601146697998047e+00 1.994453549385070801e+00 3.766568005084991455e-01
3.734000000000000000e+03 7.527898406982421875e+01 1.960932540893554688e+01 1.569193601608276367e-01 6.404604911804199219e+00 1.968457341194152832e+00 3.065071702003479004e-01
3.735000000000000000e+03 4.000456809997558594e+00 2.010320663452148438e+01 -2.251845970749855042e-02 -1.604619994759559631e-02 -1.156939752399921417e-02 3.763902559876441956e-02
3.736000000000000000e+03 4.753241062164306641e+00 2.095911598205566406e+01 -3.345517814159393311e-02 -1.424530427902936935e-02 -1.431014388799667358e-02 5.126305297017097473e-02
3.737000000000000000e+03 3.895620822906494141e+00 1.302686500549316406e+01 -2.984077436849474907e-03 -1.375834573991596699e-03 -1.307973521761596203e-03 -4.911934374831616879e-04
3.738000000000000000e+03 5.333539485931396484e+00 1.232098960876464844e+01 -2.511376282200217247e-03 -3.636925015598535538e-03 -1.844490412622690201e-03 -1.077318331226706505e-03
3.739000000000000000e+03 4.630335330963134766e+00 1.227758502960205078e+01 -2.545413793995976448e-03 -2.569094533100724220e-03 -1.534352428279817104e-03 -1.079693436622619629e-03
3.740000000000000000e+03 4.795500755310058594e+00 9.072546005249023438e+00 3.878691641148179770e-04 -1.781894243322312832e-03 -4.182075208518654108e-04 -1.843299018219113350e-03
3.741000000000000000e+03 5.450799465179443359e+00 -2.316458892822265625e+01 4.184308275580406189e-02 1.377637684345245361e-01 5.388205498456954956e-02 6.296399235725402832e-01
3.742000000000000000e+03 4.521341323852539062e+00 1.616905593872070312e+01 -1.290379930287599564e-02 -3.921175841242074966e-03 -5.047492682933807373e-03 8.386098779737949371e-03
3.743000000000000000e+03 7.218875408172607422e+00 2.109923553466796875e+01 -7.066470384597778320e-02 1.539481151849031448e-02 -1.658096723258495331e-02 5.932919681072235107e-02
3.744000000000000000e+03 1.762368202209472656e+01 -5.662750244140625000e+00 -3.000115975737571716e-02 8.107264637947082520e-01 2.342175841331481934e-01 8.853045105934143066e-01
3.745000000000000000e+03 1.758929443359375000e+01 -5.004229545593261719e+00 -1.550936251878738403e-01 6.940101981163024902e-01 1.616749763488769531e-01 8.406530022621154785e-01
3.746000000000000000e+03 3.919395208358764648e+00 -1.223136425018310547e+01 2.024206668138504028e-01 -6.994135379791259766e-01 -1.490978598594665527e-01 -3.052102327346801758e-01
3.747000000000000000e+03 4.613868236541748047e+00 -1.139484310150146484e+01 2.401364743709564209e-01 -4.956694543361663818e-01 -7.665989547967910767e-02 -3.989935517311096191e-01
3.748000000000000000e+03 4.645458698272705078e+00 -1.381773090362548828e+01 3.021493852138519287e-01 -5.174374580383300781e-01 -6.458642333745956421e-02 -1.596163064241409302e-01
3.749000000000000000e+03 4.630230426788330078e+00 1.767413520812988281e+01 -1.973970420658588409e-02 -5.097696091979742050e-03 -7.451219949871301651e-03 1.723426766693592072e-02
3.750000000000000000e+03 4.650567531585693359e+00 3.234165954589843750e+01 2.076950110495090485e-02 -1.631046831607818604e-01 -4.270055517554283142e-02 1.022704392671585083e-01
3.751000000000000000e+03 7.424566650390625000e+01 -2.803536796569824219e+01 -5.683836936950683594e-01 9.103951454162597656e+00 2.560670375823974609e+00 -8.527574539184570312e-01
3.752000000000000000e+03 4.131944179534912109e+00 2.573773574829101562e+01 -1.808060705661773682e-02 -7.484505325555801392e-02 -2.787769958376884460e-02 9.799595177173614502e-02
3.753000000000000000e+03 4.862638950347900391e+00 2.823673057556152344e+01 -4.737763665616512299e-03 -9.504985064268112183e-02 -2.993628382682800293e-02 1.221571043133735657e-01
3.754000000000000000e+03 4.961002826690673828e+00 2.570452499389648438e+01 -2.383140288293361664e-02 -5.552444979548454285e-02 -2.380675636231899261e-02 1.104307025671005249e-01
3.755000000000000000e+03 4.023546218872070312e+00 -7.004650592803955078e+00 -1.907279875013045967e-05 -3.933216333389282227e-01 -1.180022135376930237e-01 -5.704699754714965820e-01
3.756000000000000000e+03 4.161581039428710938e+00 -6.456700325012207031e+00 -3.279199823737144470e-02 -3.507722020149230957e-01 -1.150692626833915710e-01 -5.734891295433044434e-01
3.757000000000000000e+03 4.655322074890136719e+00 -1.301485061645507812e+01 2.900685966014862061e-01 -5.131453275680541992e-01 -6.692300736904144287e-02 -2.443894743919372559e-01
3.758000000000000000e+03 4.675849437713623047e+00 -2.099021530151367188e+01 1.402477473020553589e-01 -2.083182930946350098e-01 -2.042116038501262665e-02 5.182888507843017578e-01
3.759000000000000000e+03 4.640207767486572266e+00 -2.021375274658203125e+01 1.738155335187911987e-01 -2.701726853847503662e-01 -2.890715003013610840e-02 4.758074879646301270e-01
3.760000000000000000e+03 4.586361408233642578e+00 -9.073269844055175781e+00 1.214632987976074219e-01 -4.183445274829864502e-01 -8.906436711549758911e-02 -5.511755347251892090e-01
3.761000000000000000e+03 4.592183113098144531e+00 -8.362345695495605469e+00 7.992993295192718506e-02 -3.852473795413970947e-01 -9.159523248672485352e-02 -5.773902535438537598e-01
3.762000000000000000e+03 4.600375175476074219e+00 -1.942742538452148438e+01 2.114561051130294800e-01 -3.299115598201751709e-01 -3.553664311766624451e-02 4.199037551879882812e-01
3.763000000000000000e+03 5.685992240905761719e+00 3.377693557739257812e+01 3.167418390512466431e-02 -1.252014935016632080e-01 -2.805819176137447357e-02 9.884896129369735718e-02
3.764000000000000000e+03 4.085145950317382812e+00 3.287125015258789062e+01 1.495439559221267700e-02 -1.950047314167022705e-01 -5.401510000228881836e-02 9.400396794080734253e-02
3.765000000000000000e+03 5.961324691772460938e+00 -8.275135040283203125e+00 1.192224323749542236e-01 -1.512889862060546875e-01 -9.619964286684989929e-03 -6.209438443183898926e-01
3.766000000000000000e+03 4.854105472564697266e+00 2.742190361022949219e+01 -1.047352887690067291e-02 -8.294741809368133545e-02 -2.802628278732299805e-02 1.193956509232521057e-01
3.767000000000000000e+03 1.794351387023925781e+01 -9.356874465942382812e+00 1.051174163818359375e+00 1.455935597419738770e+00 7.521329522132873535e-01 1.245138287544250488e+00
3.768000000000000000e+03 1.844094276428222656e+01 -8.516599655151367188e+00 7.568564414978027344e-01 1.205330014228820801e+00 5.886559486389160156e-01 1.234305977821350098e+00
3.769000000000000000e+03 1.437551021575927734e+01 -5.873301029205322266e+00 -1.516287177801132202e-01 7.885127663612365723e-01 1.910652220249176025e-01 2.085831463336944580e-01
3.770000000000000000e+03 4.973760128021240234e+00 2.292017555236816406e+01 -3.608731552958488464e-02 -2.482039667665958405e-02 -1.827231422066688538e-02 7.742309570312500000e-02
3.771000000000000000e+03 7.509493255615234375e+01 2.513970375061035156e+01 -4.686003178358078003e-02 6.612323284149169922e+00 1.969638943672180176e+00 4.091249406337738037e-01
3.772000000000000000e+03 5.780887222290039062e+01 -1.073008441925048828e+01 -1.445908546447753906e+00 7.958561778068542480e-01 -1.950157135725021362e-01 6.588422060012817383e-01
3.773000000000000000e+03 7.463111877441406250e+01 -3.020838928222656250e+01 -5.150924324989318848e-01 8.996479988098144531e+00 2.544416189193725586e+00 -5.706593990325927734e-01
3.774000000000000000e+03 7.480180358886718750e+01 -3.105586242675781250e+01 -4.615985751152038574e-01 8.994181632995605469e+00 2.559775114059448242e+00 -4.813067913055419922e-01
3.775000000000000000e+03 5.205246925354003906e+00 -2.626066017150878906e+01 -8.990208804607391357e-02 2.481586486101150513e-01 4.747696965932846069e-02 5.821322202682495117e-01
3.776000000000000000e+03 4.247802352905273438e+01 -7.471726417541503906e+00 -1.695902705192565918e+00 5.255426883697509766e+00 1.067857265472412109e+00 -1.620198369026184082e+00
3.777000000000000000e+03 5.908901214599609375e+00 -2.770231819152832031e+01 -1.611930280923843384e-01 4.322891831398010254e-01 8.132885396480560303e-02 5.508939027786254883e-01
3.778000000000000000e+03 5.478793144226074219e+00 -2.699003982543945312e+01 -1.198011115193367004e-01 3.442944586277008057e-01 6.734800338745117188e-02 5.757200717926025391e-01
3.779000000000000000e+03 7.400379180908203125e+01 3.285165786743164062e+01 -1.482743322849273682e-01 6.584917545318603516e+00 1.930992960929870605e+00 1.526510119438171387e-01
3.780000000000000000e+03 5.254872798919677734e+00 -2.903328704833984375e+01 -1.491514295339584351e-01 3.784061670303344727e-01 6.877641379833221436e-02 4.810258746147155762e-01
3.781000000000000000e+03 7.433640289306640625e+01 2.823341178894042969e+01 -1.333774179220199585e-01 6.666338443756103516e+00 1.959888339042663574e+00 3.234946131706237793e-01
3.782000000000000000e+03 7.457927703857421875e+01 2.735250663757324219e+01 -1.144593134522438049e-01 6.662332057952880859e+00 1.964361906051635742e+00 3.604118525981903076e-01
3.783000000000000000e+03 7.376374816894531250e+01 -3.041268539428710938e+01 -6.358514428138732910e-01 8.773261070251464844e+00 2.441222906112670898e+00 -4.752391576766967773e-01
3.784000000000000000e+03 7.454095458984375000e+01 -3.313651657104492188e+01 -3.680590689182281494e-01 8.813509941101074219e+00 2.533635139465332031e+00 -2.021114081144332886e-01
3.785000000000000000e+03 2.439684677124023438e+01 -3.894653558731079102e+00 5.506705045700073242e-01 2.075404375791549683e-01 2.274632751941680908e-01 1.580363631248474121e+00
3.786000000000000000e+03 2.351481056213378906e+01 -4.078746318817138672e+00 4.186381399631500244e-01 2.622638940811157227e-01 2.042706012725830078e-01 1.496425867080688477e+00
3.787000000000000000e+03 1.126545429229736328e+01 -1.696248817443847656e+01 9.725625514984130859e-01 2.092721462249755859e+00 9.195851683616638184e-01 5.841549634933471680e-01
3.788000000000000000e+03 5.439039707183837891e+00 1.833652305603027344e+01 -3.067212924361228943e-02 -2.204637043178081512e-03 -9.863030165433883667e-03 2.408302016556262970e-02
3.789000000000000000e+03 1.076062297821044922e+01 1.673649787902832031e+01 -3.856485709547996521e-02 -1.046800316544249654e-04 -1.160086039453744888e-02 -1.224268414080142975e-02
3.790000000000000000e+03 3.884186172485351562e+01 1.525694847106933594e+01 6.058743000030517578e-01 7.960481166839599609e+00 2.569906711578369141e+00 1.134701609611511230e+00
3.791000000000000000e+03 1.752270317077636719e+01 -6.953326702117919922e+00 2.362503111362457275e-01 1.069642424583435059e+00 3.917678296566009521e-01 9.622819423675537109e-01
3.792000000000000000e+03 3.444325637817382812e+01 1.617234420776367188e+01 8.367103934288024902e-01 8.930251121520996094e+00 2.930088281631469727e+00 -1.385509014129638672e+00
3.793000000000000000e+03 3.446644210815429688e+01 1.921399116516113281e+01 6.141491532325744629e-01 7.291106224060058594e+00 2.371576547622680664e+00 -7.296447157859802246e-01
3.794000000000000000e+03 3.936513900756835938e+01 -2.180784225463867188e+01 1.769135594367980957e+00 8.429656028747558594e+00 3.059637546539306641e+00 -6.540902853012084961e-01
3.795000000000000000e+03 5.573167037963867188e+01 -7.349982261657714844e+00 -2.848398387432098389e-01 1.467908859252929688e+00 3.549206852912902832e-01 1.307354331016540527e+00
3.796000000000000000e+03 1.520899391174316406e+01 -1.064472484588623047e+01 1.299213171005249023e+00 2.100152730941772461e+00 1.019809722900390625e+00 7.428256273269653320e-01
3.797000000000000000e+03 1.560612773895263672e+01 -9.851359367370605469e+00 9.884080290794372559e-01 1.861393213272094727e+00 8.549403548240661621e-01 7.292870879173278809e-01
3.798000000000000000e+03 6.284458541870117188e+01 -9.533014297485351562e+00 -1.193641543388366699e+00 7.156717181205749512e-01 -1.433909386396408081e-01 -5.168238878250122070e-01
3.799000000000000000e+03 6.081011962890625000e+01 -9.626744270324707031e+00 -1.336872577667236328e+00 7.916229367256164551e-01 -1.635748744010925293e-01 2.902704477310180664e-01
3.800000000000000000e+03 6.139178466796875000e+01 1.056808829307556152e+00 6.460197567939758301e-01 4.362915039062500000e+00 1.502680420875549316e+00 9.562736153602600098e-01
3.801000000000000000e+03 6.318718338012695312e+01 1.599187135696411133e+00 4.285711646080017090e-01 5.271024703979492188e+00 1.709878802299499512e+00 3.559295237064361572e-01
3.802000000000000000e+03 4.131309127807617188e+01 -2.045683670043945312e+01 1.840404033660888672e+00 8.683862686157226562e+00 3.157279968261718750e+00 -9.262412190437316895e-01
3.803000000000000000e+03 4.119334793090820312e+01 -1.727440834045410156e+01 1.453467249870300293e+00 8.170601844787597656e+00 2.887220621109008789e+00 -1.006848931312561035e+00
3.804000000000000000e+03 5.326405525207519531e+00 7.108432769775390625e+00 9.697236237116158009e-04 -1.489724032580852509e-03 -1.560001110192388296e-04 -1.408500596880912781e-03
3.805000000000000000e+03 1.518734741210937500e+01 -5.818849563598632812e+00 -1.354270428419113159e-01 8.226926326751708984e-01 2.061796784400939941e-01 3.844708204269409180e-01
3.806000000000000000e+03 1.599940204620361328e+01 -5.738074779510498047e+00 -1.096308901906013489e-01 8.373690843582153320e-01 2.183214575052261353e-01 5.527910590171813965e-01
3.807000000000000000e+03 7.777129173278808594e+00 5.680824279785156250e+00 1.145140035077929497e-03 -1.661735586822032928e-03 -1.549786684336140752e-04 -1.361293252557516098e-04
3.808000000000000000e+03 6.856070995330810547e+00 6.838399410247802734e+00 1.244804007001221180e-03 -1.844486687332391739e-03 -1.799047895474359393e-04 -7.763076573610305786e-04
3.809000000000000000e+03 1.369374752044677734e+01 2.372831344604492188e+01 -2.209810018539428711e-01 8.918612450361251831e-02 -3.953846171498298645e-02 1.019296348094940186e-01
3.810000000000000000e+03 4.434470176696777344e+00 6.153048515319824219e+00 8.584194001741707325e-04 -5.212645628489553928e-04 1.011464482871815562e-04 -1.500629121437668800e-03
3.811000000000000000e+03 6.566596984863281250e+01 1.503721427917480469e+01 1.133174180984497070e+00 8.800651550292968750e+00 2.980147838592529297e+00 -4.415875673294067383e-01
3.812000000000000000e+03 4.256557846069335938e+01 1.878451728820800781e+01 4.000398516654968262e-01 4.274523258209228516e+00 1.402369022369384766e+00 1.755403518676757812e+00
3.813000000000000000e+03 4.144371795654296875e+01 1.746269035339355469e+01 5.533628463745117188e-01 5.202409267425537109e+00 1.726731657981872559e+00 1.803467869758605957e+00
3.814000000000000000e+03 4.316914367675781250e+01 1.939253616333007812e+01 3.197958171367645264e-01 3.873083591461181641e+00 1.257863879203796387e+00 1.719527363777160645e+00
3.815000000000000000e+03 5.904351425170898438e+01 -9.758205413818359375e+00 -1.236971974372863770e+00 9.440492391586303711e-01 -8.787680417299270630e-02 6.081113219261169434e-01
3.816000000000000000e+03 2.016198348999023438e+01 -4.760280132293701172e+00 4.340412840247154236e-02 5.475043058395385742e-01 1.772725284099578857e-01 1.195466279983520508e+00
3.817000000000000000e+03 6.886215209960937500e+01 -2.781724929809570312e+01 -1.071898341178894043e+00 7.225553989410400391e+00 1.846096634864807129e+00 6.485733389854431152e-01
3.818000000000000000e+03 6.633030700683593750e+01 1.494218921661376953e+01 1.115877509117126465e+00 8.479429244995117188e+00 2.878592014312744141e+00 -3.741583824157714844e-01
3.819000000000000000e+03 6.558931732177734375e+01 1.436487293243408203e+01 1.030253887176513672e+00 8.960475921630859375e+00 2.997218847274780273e+00 -4.050082266330718994e-01
3.820000000000000000e+03 2.770278358459472656e+01 -4.952867031097412109e+00 3.242689669132232666e-01 3.188590109348297119e-01 1.929383873939514160e-01 2.048756122589111328e+00
3.821000000000000000e+03 2.887402534484863281e+01 -4.885581016540527344e+00 3.902639448642730713e-01 5.930151343345642090e-01 2.949837148189544678e-01 1.784209728240966797e+00
3.822000000000000000e+03 1.218723201751708984e+01 1.300497055053710938e+01 -8.149293134920299053e-04 -1.861758413724601269e-03 -8.030062890611588955e-04 2.164107048884034157e-03
3.823000000000000000e+03 1.125454235076904297e+01 2.012253570556640625e+01 -1.413297951221466064e-01 4.536797106266021729e-02 -2.878854796290397644e-02 2.718198229558765888e-04
3.824000000000000000e+03 7.389002323150634766e+00 6.498254299163818359e+00 1.207350171171128750e-03 -2.111966256052255630e-03 -2.713848662097007036e-04 -3.155000740662217140e-04
3.825000000000000000e+03 5.859341049194335938e+01 -4.887515068054199219e+00 4.920017123222351074e-01 1.914504051208496094e+00 7.219517230987548828e-01 8.669683933258056641e-01
3.826000000000000000e+03 1.275898838043212891e+01 1.403854560852050781e+01 -1.100569730624556541e-03 -5.632545799016952515e-04 -4.991472815163433552e-04 1.024346216581761837e-03
3.827000000000000000e+03 1.192680072784423828e+01 1.468962860107421875e+01 -6.071393378078937531e-03 -5.803800188004970551e-03 -3.562557976692914963e-03 -3.013240406289696693e-03
3.828000000000000000e+03 3.876238632202148438e+01 -1.863788032531738281e+01 1.426021814346313477e+00 9.083271980285644531e+00 3.152788162231445312e+00 -1.122533559799194336e+00
3.829000000000000000e+03 3.216025161743164062e+01 -4.151841640472412109e+00 -1.136254221200942993e-01 4.790312290191650391e+00 1.403005957603454590e+00 3.947409093379974365e-01
3.830000000000000000e+03 3.126057243347167969e+01 -6.383915424346923828e+00 -1.743834733963012695e+00 2.238901138305664062e+00 1.485199630260467529e-01 -1.567313373088836670e-01
3.831000000000000000e+03 4.422238922119140625e+01 2.167712211608886719e+01 8.555178646929562092e-04 3.385434865951538086e+00 1.015887141227722168e+00 1.624941825866699219e+00
3.832000000000000000e+03 1.013517379760742188e+01 6.072804450988769531e+00 8.386834524571895599e-04 -1.406911062076687813e-03 -1.704682945273816586e-04 1.059339847415685654e-03
3.833000000000000000e+03 9.394855499267578125e+00 6.175723552703857422e+00 1.164045184850692749e-03 -1.508979476056993008e-03 -1.034802844515070319e-04 6.543744239024817944e-04
3.834000000000000000e+03 6.618436431884765625e+01 1.024875450134277344e+01 8.573162555694580078e-01 8.124035835266113281e+00 2.694405555725097656e+00 -2.483614236116409302e-01
3.835000000000000000e+03 6.621430206298828125e+01 1.283932781219482422e+01 9.749441742897033691e-01 8.497200012207031250e+00 2.841643333435058594e+00 -2.957264482975006104e-01
3.836000000000000000e+03 6.757868194580078125e+01 -9.709643363952636719e+00 -1.852198004722595215e+00 6.166615962982177734e+00 1.294325351715087891e+00 -2.278157711029052734e+00
3.837000000000000000e+03 6.714718627929687500e+01 -1.035961437225341797e+01 -1.966429114341735840e+00 5.789826393127441406e+00 1.147019267082214355e+00 -2.558139562606811523e+00
3.838000000000000000e+03 2.139942359924316406e+01 -6.930814266204833984e+00 3.170886933803558350e-01 6.271571516990661621e-01 2.832737565040588379e-01 1.351432561874389648e+00
3.839000000000000000e+03 8.654626846313476562e+00 6.323864936828613281e+00 1.048413221724331379e-03 -1.965382136404514313e-03 -2.750907151494175196e-04 3.802756837103515863e-04
3.840000000000000000e+03 5.351302623748779297e+00 1.154523086547851562e+01 -1.796878408640623093e-03 -3.319092793390154839e-03 -1.534791430458426476e-03 -1.172281801700592041e-03
3.841000000000000000e+03 3.078552055358886719e+01 -2.316792011260986328e+00 2.346989393234252930e+00 3.356985330581665039e+00 1.711192369461059570e+00 1.722505211830139160e+00
3.842000000000000000e+03 2.640339660644531250e+01 2.880416297912597656e+01 -5.575704202055931091e-02 2.161438465118408203e+00 6.317044496536254883e-01 -9.924675226211547852e-01
3.843000000000000000e+03 1.159389781951904297e+01 1.936506843566894531e+01 -1.192374601960182190e-01 3.020209074020385742e-02 -2.671061083674430847e-02 -1.942634396255016327e-02
3.844000000000000000e+03 1.043176078796386719e+01 1.809301185607910156e+01 -7.009581476449966431e-02 1.383105665445327759e-02 -1.687942631542682648e-02 -8.601711131632328033e-03
3.845000000000000000e+03 3.881155014038085938e+01 -1.959433555603027344e+01 1.545306563377380371e+00 8.951659202575683594e+00 3.149089574813842773e+00 -9.025666117668151855e-01
3.846000000000000000e+03 4.165605163574218750e+01 -1.919213294982910156e+01 1.783411741256713867e+00 8.537632942199707031e+00 3.096313476562500000e+00 -8.668431043624877930e-01
3.847000000000000000e+03 6.319965362548828125e+01 2.388262748718261719e+00 4.485524892807006836e-01 5.557831764221191406e+00 1.801915168762207031e+00 4.111174345016479492e-01
3.848000000000000000e+03 5.429761123657226562e+01 -6.850939750671386719e+00 -2.282750755548477173e-01 1.555876135826110840e+00 3.982802927494049072e-01 1.524288177490234375e+00
3.849000000000000000e+03 5.348579788208007812e+01 -7.521083354949951172e+00 -4.823432564735412598e-01 1.416808843612670898e+00 2.803396582603454590e-01 1.755731105804443359e+00
3.850000000000000000e+03 3.911127090454101562e+01 -5.338728904724121094e+00 -2.370258808135986328e+00 9.306479454040527344e+00 2.080866336822509766e+00 -1.770717501640319824e+00
3.851000000000000000e+03 3.499966430664062500e+01 -8.366019248962402344e+00 -2.908440351486206055e+00 8.155535697937011719e+00 1.574128508567810059e+00 -1.111545801162719727e+00
3.852000000000000000e+03 4.093542480468750000e+01 1.678349494934082031e+01 6.308528184890747070e-01 5.721009254455566406e+00 1.905558705329895020e+00 1.796688914299011230e+00
3.853000000000000000e+03 6.708473205566406250e+01 1.560713768005371094e+01 1.141455888748168945e+00 8.096651077270507812e+00 2.771432161331176758e+00 -2.811490595340728760e-01
3.854000000000000000e+03 1.372270584106445312e+01 -2.707088088989257812e+01 -4.966531991958618164e-01 1.335350871086120605e+00 2.516093254089355469e-01 1.126547306776046753e-01
3.855000000000000000e+03 6.414835357666015625e+01 5.950431346893310547e+00 6.642225384712219238e-01 7.140715599060058594e+00 2.341481447219848633e+00 3.173596560955047607e-01
3.856000000000000000e+03 6.538494110107421875e+01 7.464362621307373047e+00 7.007701992988586426e-01 7.594007492065429688e+00 2.488433361053466797e+00 -6.088076904416084290e-02
3.857000000000000000e+03 6.811074066162109375e+01 9.794223785400390625e+00 7.753818631172180176e-01 7.550556659698486328e+00 2.497781515121459961e+00 -5.387953519821166992e-01
3.858000000000000000e+03 1.939837455749511719e+01 -5.604596614837646484e+00 9.682855755090713501e-02 7.011405229568481445e-01 2.393907308578491211e-01 1.161392211914062500e+00
3.859000000000000000e+03 2.031295394897460938e+01 -5.466130733489990234e+00 1.198767349123954773e-01 6.310948133468627930e-01 2.252914607524871826e-01 1.281559109687805176e+00
3.860000000000000000e+03 3.988661575317382812e+01 -1.619823837280273438e+01 1.219981193542480469e+00 8.403180122375488281e+00 2.886948585510253906e+00 -1.262995004653930664e+00
3.861000000000000000e+03 3.456291961669921875e+01 -7.106806755065917969e+00 -2.900075197219848633e+00 7.733465194702148438e+00 1.450017094612121582e+00 -1.109553694725036621e+00
3.862000000000000000e+03 3.639547729492187500e+01 -2.466200351715087891e+00 3.690791502594947815e-02 1.013658046722412109e+01 3.052046537399291992e+00 -7.270002961158752441e-01
3.863000000000000000e+03 4.579705047607421875e+01 -1.323984813690185547e+01 3.883801102638244629e-01 4.358227729797363281e+00 1.423982381820678711e+00 8.410266041755676270e-01
3.864000000000000000e+03 4.043643188476562500e+01 -6.352371215820312500e+00 -2.398069858551025391e+00 7.787886619567871094e+00 1.616945028305053711e+00 -2.041710376739501953e+00
3.865000000000000000e+03 9.927195549011230469e+00 -6.611502170562744141e+00 -3.900031372904777527e-02 3.954342603683471680e-01 1.069301813840866089e-01 -4.963123798370361328e-01
3.866000000000000000e+03 4.452314376831054688e+01 -1.450221443176269531e+01 5.463521480560302734e-01 6.009012699127197266e+00 1.966609477996826172e+00 3.517233133316040039e-01
3.867000000000000000e+03 4.382797622680664062e+01 -1.445083522796630859e+01 5.111281275749206543e-01 6.344685077667236328e+00 2.056743860244750977e+00 -1.451340783387422562e-02
3.868000000000000000e+03 4.373218154907226562e+01 2.107694625854492188e+01 3.214836865663528442e-02 3.545139312744140625e+00 1.073186278343200684e+00 1.640630364418029785e+00
3.869000000000000000e+03 4.861468887329101562e+01 -1.209726428985595703e+01 3.548253178596496582e-01 1.701745629310607910e+00 6.169713139533996582e-01 1.561974287033081055e+00
3.870000000000000000e+03 4.596083450317382812e+01 -7.964630126953125000e+00 -8.546860814094543457e-01 1.771352767944335938e+00 2.750000059604644775e-01 1.559566408395767212e-01
3.871000000000000000e+03 5.872075271606445312e+01 -4.124156475067138672e+00 6.558706760406494141e-01 2.080694198608398438e+00 8.209694623947143555e-01 9.003184437751770020e-01
3.872000000000000000e+03 3.833736801147460938e+01 1.340792846679687500e+01 7.850344181060791016e-01 9.476263999938964844e+00 3.078389406204223633e+00 9.859795570373535156e-01
3.873000000000000000e+03 6.935914611816406250e+01 -1.045894145965576172e+01 -1.930822014808654785e+00 8.551597595214843750e+00 1.986232638359069824e+00 -1.389585256576538086e+00
3.874000000000000000e+03 6.930570220947265625e+01 -1.178816032409667969e+01 -1.653787970542907715e+00 9.362742424011230469e+00 2.312686204910278320e+00 -1.169596672058105469e+00
3.875000000000000000e+03 4.664731597900390625e+01 -8.062500953674316406e+00 -7.685034275054931641e-01 1.228810548782348633e+00 1.380921304225921631e-01 5.310934185981750488e-01
3.876000000000000000e+03 7.430862426757812500e+01 -1.287617588043212891e+01 -1.394964009523391724e-01 9.265735626220703125e+00 2.737871885299682617e+00 9.055204391479492188e-01
3.877000000000000000e+03 7.082411956787109375e+01 -1.273135566711425781e+01 -7.782962918281555176e-01 1.032345294952392578e+01 2.863547086715698242e+00 8.154571801424026489e-02
3.878000000000000000e+03 3.074214553833007812e+01 -5.613264083862304688e+00 -5.677285790443420410e-01 1.846928477287292480e+00 3.837599754333496094e-01 4.847633540630340576e-01
3.879000000000000000e+03 3.023488044738769531e+01 -2.732084751129150391e+00 1.978194594383239746e+00 2.258965730667114258e+00 1.271148085594177246e+00 1.686954379081726074e+00
3.880000000000000000e+03 6.626865386962890625e+01 1.426175594329833984e+01 1.081435561180114746e+00 8.493903160095214844e+00 2.872601509094238281e+00 -3.631545305252075195e-01
3.881000000000000000e+03 6.550867462158203125e+01 1.292099285125732422e+01 9.312490224838256836e-01 8.914645195007324219e+00 2.953768253326416016e+00 -2.634419500827789307e-01
3.882000000000000000e+03 2.614357566833496094e+01 2.693698501586914062e+01 9.811211377382278442e-02 1.911058068275451660e+00 6.027510166168212891e-01 -1.146716594696044922e+00
3.883000000000000000e+03 3.548220443725585938e+01 -1.008850002288818359e+01 -1.715980648994445801e+00 8.687175750732421875e+00 2.091358423233032227e+00 -1.012547731399536133e+00
3.884000000000000000e+03 3.700425720214843750e+01 -1.074674701690673828e+01 -1.185069918632507324e+00 9.005254745483398438e+00 2.346055507659912109e+00 -9.317327141761779785e-01
3.885000000000000000e+03 1.149464130401611328e+01 -1.764372253417968750e+01 8.691307902336120605e-01 2.287311553955078125e+00 9.469326734542846680e-01 5.759566426277160645e-01
3.886000000000000000e+03 2.363022994995117188e+01 -5.262700080871582031e+00 2.111713737249374390e-01 4.204290211200714111e-01 1.894801110029220581e-01 1.590146660804748535e+00
3.887000000000000000e+03 3.582861709594726562e+01 1.655507278442382812e+01 6.193184256553649902e-01 8.410991668701171875e+00 2.709093093872070312e+00 -5.410745739936828613e-01
3.888000000000000000e+03 1.284243869781494141e+01 -2.340504646301269531e+01 -9.115942567586898804e-02 1.996711611747741699e+00 5.716656446456909180e-01 3.114085793495178223e-01
3.889000000000000000e+03 1.916083145141601562e+01 -8.375679016113281250e+00 7.511749267578125000e-01 1.006230831146240234e+00 5.272217392921447754e-01 1.279223442077636719e+00
3.890000000000000000e+03 3.885942459106445312e+01 1.410648345947265625e+01 7.613435387611389160e-01 8.627772331237792969e+00 2.816734790802001953e+00 1.269989728927612305e+00
3.891000000000000000e+03 6.618938446044921875e+01 1.120475006103515625e+01 8.905237913131713867e-01 8.306032180786132812e+00 2.758966922760009766e+00 -2.438659369945526123e-01
3.892000000000000000e+03 5.356453704833984375e+01 -6.715779304504394531e+00 -3.102055490016937256e-01 1.588094472885131836e+00 3.833666741847991943e-01 1.604448914527893066e+00
3.893000000000000000e+03 1.174513435363769531e+01 -2.133749008178710938e+01 3.532731235027313232e-01 2.067814350128173828e+00 7.263262271881103516e-01 5.325525999069213867e-01
3.894000000000000000e+03 6.512628936767578125e+01 6.572751998901367188e+00 6.517056226730346680e-01 7.349760532379150391e+00 2.400439977645874023e+00 -2.070237882435321808e-02
3.895000000000000000e+03 6.379079818725585938e+01 5.105234622955322266e+00 6.202746629714965820e-01 6.780988693237304688e+00 2.220378875732421875e+00 4.010092318058013916e-01
3.896000000000000000e+03 1.884716796875000000e+01 2.607998847961425781e+01 6.778008770197629929e-03 1.519335806369781494e-01 4.761347547173500061e-02 -8.521584421396255493e-02
3.897000000000000000e+03 1.857200050354003906e+01 2.672552108764648438e+01 5.793080851435661316e-02 1.770318746566772461e-01 7.048880308866500854e-02 -8.742633461952209473e-02
3.898000000000000000e+03 1.514527130126953125e+01 -2.999270057678222656e+01 -5.771105289459228516e-01 9.597086310386657715e-01 1.147794276475906372e-01 -4.121955484151840210e-02
3.899000000000000000e+03 1.711732482910156250e+01 -3.275392913818359375e+01 -5.187368988990783691e-01 6.711060404777526855e-01 4.571074619889259338e-02 -1.883272826671600342e-01
3.900000000000000000e+03 6.197103023529052734e+00 -2.304294204711914062e+01 6.156708300113677979e-02 3.249914646148681641e-01 1.159675642848014832e-01 6.717783808708190918e-01
3.901000000000000000e+03 7.123317718505859375e+01 -2.312409019470214844e+01 4.644109904766082764e-01 1.045891475677490234e+01 3.276997566223144531e+00 -6.359480619430541992e-01
3.902000000000000000e+03 6.951013183593750000e+01 -2.701301193237304688e+01 -9.900873303413391113e-01 8.115667343139648438e+00 2.137674093246459961e+00 3.676663339138031006e-01
3.903000000000000000e+03 6.607746887207031250e+01 -3.157782173156738281e+01 -7.194186449050903320e-01 4.080184459686279297e+00 1.008229732513427734e+00 9.194605946540832520e-01
3.904000000000000000e+03 6.678878784179687500e+01 -3.330452728271484375e+01 -4.869070649147033691e-01 4.524794578552246094e+00 1.211366176605224609e+00 7.870962023735046387e-01
3.905000000000000000e+03 5.553603363037109375e+01 -1.049890232086181641e+01 -9.349508285522460938e-01 8.158271312713623047e-01 -3.573709726333618164e-02 1.160983085632324219e+00
3.906000000000000000e+03 4.157274627685546875e+01 -2.084647560119628906e+01 1.841719150543212891e+00 8.746996879577636719e+00 3.176614761352539062e+00 -9.202288389205932617e-01
3.907000000000000000e+03 2.705430984497070312e+01 2.665743446350097656e+01 3.995409980416297913e-02 2.393441915512084961e+00 7.300187945365905762e-01 -1.300623893737792969e+00
3.908000000000000000e+03 6.521271514892578125e+01 9.514783859252929688e+00 8.225239515304565430e-01 8.293634414672851562e+00 2.734847545623779297e+00 7.150652818381786346e-03
3.909000000000000000e+03 2.604606056213378906e+01 -3.376566171646118164e+00 1.076326251029968262e+00 9.465213865041732788e-02 3.512935042381286621e-01 1.705158591270446777e+00
3.910000000000000000e+03 5.612505912780761719e+00 2.479623031616210938e+01 -3.622793033719062805e-02 -3.255960717797279358e-02 -2.063626050949096680e-02 1.074069887399673462e-01
3.911000000000000000e+03 1.401340579986572266e+01 2.190641403198242188e+01 -2.912635803222656250e-01 6.579016894102096558e-02 -6.764201819896697998e-02 2.245229668915271759e-02
3.912000000000000000e+03 3.315060806274414062e+01 2.221299362182617188e+01 9.189312905073165894e-02 6.033949851989746094e+00 1.837752819061279297e+00 -6.075697541236877441e-01
3.913000000000000000e+03 3.175936508178710938e+01 -2.332784652709960938e+00 1.915528774261474609e+00 4.958941936492919922e+00 2.062341213226318359e+00 1.539511084556579590e+00
3.914000000000000000e+03 3.151016807556152344e+01 -2.867093086242675781e+00 1.445364594459533691e+00 4.377300262451171875e+00 1.746799468994140625e+00 1.427420496940612793e+00
3.915000000000000000e+03 3.795113754272460938e+01 -2.544803428649902344e+01 1.026067256927490234e+00 7.222952842712402344e+00 2.474706172943115234e+00 2.464158385992050171e-01
3.916000000000000000e+03 5.739575195312500000e+01 -7.026564598083496094e+00 -1.972601264715194702e-01 1.481572031974792480e+00 3.852935731410980225e-01 1.038491487503051758e+00
3.917000000000000000e+03 5.963309860229492188e+01 -2.136182785034179688e+00 8.988753557205200195e-01 2.725865602493286133e+00 1.087422370910644531e+00 9.469830393791198730e-01
3.918000000000000000e+03 3.188941764831542969e+01 -5.880954742431640625e+00 -1.313828229904174805e+00 3.502239704132080078e+00 6.565234661102294922e-01 -2.555027008056640625e-01
3.919000000000000000e+03 6.567648315429687500e+01 8.349872589111328125e+00 7.563236951828002930e-01 7.806017398834228516e+00 2.568702459335327148e+00 -1.325875818729400635e-01
3.920000000000000000e+03 3.612852478027343750e+01 1.227247905731201172e+01 8.598017096519470215e-01 1.108754920959472656e+01 3.584205389022827148e+00 -6.481386423110961914e-01
3.921000000000000000e+03 5.991098403930664062e+01 -9.978212118148803711e-01 9.097256064414978027e-01 3.080996036529541016e+00 1.197216510772705078e+00 1.088056921958923340e+00
3.922000000000000000e+03 6.188648986816406250e+01 5.986945629119873047e-01 5.750691294670104980e-01 4.400735378265380859e+00 1.492741346359252930e+00 7.287074923515319824e-01
3.923000000000000000e+03 1.782581710815429688e+01 2.713616943359375000e+01 6.399133801460266113e-02 1.811931580305099487e-01 7.355535030364990234e-02 -5.174089223146438599e-02
3.924000000000000000e+03 1.750352478027343750e+01 2.627340888977050781e+01 -1.945009082555770874e-02 1.197162643074989319e-01 3.007985092699527740e-02 -4.799267277121543884e-03
3.925000000000000000e+03 6.092994308471679688e+01 -7.178626656532287598e-01 7.355822324752807617e-01 3.559612751007080078e+00 1.288558483123779297e+00 8.503924608230590820e-01
3.926000000000000000e+03 3.897508239746093750e+01 -1.373678112030029297e+01 5.254013538360595703e-01 8.426631927490234375e+00 2.685610055923461914e+00 -1.181542158126831055e+00
3.927000000000000000e+03 6.648455047607421875e+01 1.674449920654296875e+01 1.228554248809814453e+00 8.157757759094238281e+00 2.815893411636352539e+00 -2.674385905265808105e-01
3.928000000000000000e+03 3.919020080566406250e+01 -1.458935928344726562e+01 8.254852294921875000e-01 8.454365730285644531e+00 2.783955097198486328e+00 -1.249263405799865723e+00
3.929000000000000000e+03 6.599707794189453125e+01 1.897603797912597656e+01 1.071126341819763184e+00 7.941014289855957031e+00 2.703642129898071289e+00 -8.100756257772445679e-02
3.930000000000000000e+03 3.861870574951171875e+01 -1.215662956237792969e+01 -2.997768521308898926e-01 8.476819992065429688e+00 2.453112840652465820e+00 -1.023107647895812988e+00
3.931000000000000000e+03 1.442155838012695312e+01 -6.588696956634521484e+00 1.324629224836826324e-02 9.586033821105957031e-01 2.915548980236053467e-01 2.456772178411483765e-01
3.932000000000000000e+03 1.286035728454589844e+01 6.551054477691650391e+00 4.399057797854766250e-05 2.918955869972705841e-04 1.007658502203412354e-04 1.559121650643646717e-03
3.933000000000000000e+03 2.758454132080078125e+01 -3.998642206192016602e+00 1.045312762260437012e+00 3.031886816024780273e-01 4.045504331588745117e-01 1.942367196083068848e+00
3.934000000000000000e+03 3.590096282958984375e+01 2.326994389295578003e-01 2.119809627532958984e+00 1.152320671081542969e+01 4.092905044555664062e+00 -2.524960935115814209e-01
3.935000000000000000e+03 6.000296020507812500e+01 -2.850512742996215820e+00 7.643250226974487305e-01 2.647137880325317383e+00 1.023438811302185059e+00 7.351519465446472168e-01
3.936000000000000000e+03 3.466676712036132812e+01 -7.736248493194580078e+00 -2.954559087753295898e+00 7.800764083862304688e+00 1.453861474990844727e+00 -1.087318778038024902e+00
3.937000000000000000e+03 5.028533935546875000e+01 -9.058776855468750000e+00 -3.289518654346466064e-01 7.327772378921508789e-01 1.211476027965545654e-01 1.989317893981933594e+00
3.938000000000000000e+03 5.394418716430664062e+01 -1.011328029632568359e+01 -6.405147910118103027e-01 8.690629005432128906e-01 6.856442242860794067e-02 1.581230282783508301e+00
3.939000000000000000e+03 3.938430023193359375e+01 1.478038692474365234e+01 7.345803380012512207e-01 7.827799797058105469e+00 2.568714141845703125e+00 1.497614622116088867e+00
3.940000000000000000e+03 2.947054862976074219e+01 -5.527758121490478516e+00 -1.502961665391921997e-01 6.114843487739562988e-01 1.383564621210098267e-01 1.465862035751342773e+00
3.941000000000000000e+03 4.023286437988281250e+01 -1.266270828247070312e+01 -1.161002442240715027e-01 7.722767353057861328e+00 2.282000303268432617e+00 -9.600872993469238281e-01
3.942000000000000000e+03 3.475100708007812500e+01 -2.291015386581420898e-01 2.133351564407348633e+00 1.041778278350830078e+01 3.765340328216552734e+00 6.349784731864929199e-01
3.943000000000000000e+03 3.352220153808593750e+01 -1.973907113075256348e+00 1.191831588745117188e+00 7.940957546234130859e+00 2.739836692810058594e+00 9.211735725402832031e-01
3.944000000000000000e+03 2.362789916992187500e+01 2.780430221557617188e+01 1.805292814970016479e-01 1.102307319641113281e+00 3.848509788513183594e-01 -7.623522877693176270e-01
3.945000000000000000e+03 1.304169845581054688e+01 7.616356849670410156e+00 -2.408170403214171529e-04 6.702634855173528194e-04 1.288339262828230858e-04 1.860466436482965946e-03
3.946000000000000000e+03 1.277831554412841797e+01 9.461103439331054688e+00 -1.878188777482137084e-04 5.007295403629541397e-04 9.387319732923060656e-05 2.826435491442680359e-03
3.947000000000000000e+03 7.420462036132812500e+01 -1.954787254333496094e+01 1.253431797027587891e+00 9.408337593078613281e+00 3.198530673980712891e+00 -5.069493651390075684e-01
3.948000000000000000e+03 3.385915374755859375e+01 -2.623708486557006836e+00 4.423543810844421387e-01 7.899371623992919922e+00 2.502517700195312500e+00 3.390937745571136475e-01
3.949000000000000000e+03 3.661777114868164062e+01 -9.803901314735412598e-01 1.262636899948120117e+00 1.095610713958740234e+01 3.665623426437377930e+00 -8.503069877624511719e-01
3.950000000000000000e+03 3.838385009765625000e+01 -2.922076225280761719e+01 -8.974155038595199585e-02 6.330512046813964844e+00 1.872231125831604004e+00 5.071186423301696777e-01
3.951000000000000000e+03 4.174245834350585938e+01 -2.011768150329589844e+01 1.811776041984558105e+00 8.758743286132812500e+00 3.171155929565429688e+00 -8.531802892684936523e-01
3.952000000000000000e+03 4.208435440063476562e+01 -1.877436256408691406e+01 1.758021116256713867e+00 8.457105636596679688e+00 3.064538002014160156e+00 -7.775950431823730469e-01
3.953000000000000000e+03 2.711814308166503906e+01 -4.464698314666748047e+00 7.174996733665466309e-01 2.530106306076049805e-01 2.911531031131744385e-01 1.997850179672241211e+00
3.954000000000000000e+03 3.348017120361328125e+01 1.980593109130859375e+01 7.306413650512695312e-01 7.004402637481689453e+00 2.320513248443603516e+00 -9.969591498374938965e-01
3.955000000000000000e+03 6.568006134033203125e+01 5.497096061706542969e+00 5.353693962097167969e-01 6.978532791137695312e+00 2.254170656204223633e+00 -2.351015359163284302e-01
3.956000000000000000e+03 3.991403198242187500e+01 -2.017420768737792969e+01 1.753832340240478516e+00 8.656813621520996094e+00 3.123193979263305664e+00 -9.328939914703369141e-01
3.957000000000000000e+03 3.864569854736328125e+01 -2.156110763549804688e+01 1.671935439109802246e+00 8.561963081359863281e+00 3.070169687271118164e+00 -4.913088977336883545e-01
3.958000000000000000e+03 5.300133132934570312e+01 2.546362495422363281e+01 1.897153854370117188e-01 1.078863024711608887e+00 3.805735409259796143e-01 3.761449754238128662e-01
3.959000000000000000e+03 4.989726257324218750e+01 2.433625030517578125e+01 -6.718774139881134033e-02 1.418015003204345703e+00 4.052481949329376221e-01 1.074103236198425293e+00
3.960000000000000000e+03 7.433118438720703125e+01 -2.571839714050292969e+01 -2.949121892452239990e-01 9.275009155273437500e+00 2.694029092788696289e+00 -1.167676091194152832e+00
3.961000000000000000e+03 3.970772933959960938e+01 -1.359155654907226562e+01 3.621717393398284912e-01 8.074556350708007812e+00 2.531018257141113281e+00 -1.072482228279113770e+00
3.962000000000000000e+03 3.721678924560546875e+01 1.205130386352539062e+01 9.210956096649169922e-01 1.099338626861572266e+01 3.574344635009765625e+00 1.394153237342834473e-01
3.963000000000000000e+03 3.598235321044921875e+01 -1.266694307327270508e+00 1.075831532478332520e+00 1.048812103271484375e+01 3.469185829162597656e+00 -4.436262249946594238e-01
3.964000000000000000e+03 7.272337341308593750e+01 -2.109724426269531250e+01 1.264818191528320312e+00 1.029025077819824219e+01 3.466520547866821289e+00 -8.382344841957092285e-01
3.965000000000000000e+03 4.664253234863281250e+01 2.434650039672851562e+01 -9.108242392539978027e-02 2.481239795684814453e+00 7.170472145080566406e-01 1.481703281402587891e+00
3.966000000000000000e+03 4.918952560424804688e+01 -9.002234458923339844e+00 -3.032907545566558838e-01 7.759621143341064453e-01 1.418014168739318848e-01 1.750374317169189453e+00
3.967000000000000000e+03 4.849827194213867188e+01 -8.716403007507324219e+00 -3.717556893825531006e-01 7.802208065986633301e-01 1.225395351648330688e-01 1.484189391136169434e+00
3.968000000000000000e+03 7.523012542724609375e+01 -1.696679306030273438e+01 9.357236623764038086e-01 8.808557510375976562e+00 2.923284292221069336e+00 3.419125080108642578e-01
3.969000000000000000e+03 4.385367584228515625e+01 -7.801742553710937500e+00 -1.256034016609191895e+00 3.632253885269165039e+00 7.128659486770629883e-01 -1.041464924812316895e+00
3.970000000000000000e+03 4.705946350097656250e+01 -1.206364536285400391e+01 2.858014702796936035e-01 2.804501295089721680e+00 9.270908236503601074e-01 1.167680382728576660e+00
3.971000000000000000e+03 3.833377838134765625e+01 -2.345622634887695312e+01 1.571739554405212402e+00 7.933305740356445312e+00 2.851513624191284180e+00 -1.423400640487670898e-01
3.972000000000000000e+03 4.064982223510742188e+01 -2.329385185241699219e+01 1.848692655563354492e+00 8.223502159118652344e+00 3.021658420562744141e+00 -8.131786584854125977e-01
3.973000000000000000e+03 6.355791091918945312e+01 3.182760477066040039e+00 4.788347780704498291e-01 5.975133419036865234e+00 1.936190366744995117e+00 3.372928202152252197e-01
3.974000000000000000e+03 6.400843048095703125e+01 3.941018104553222656e+00 4.944713413715362549e-01 6.332510948181152344e+00 2.048094749450683594e+00 2.212482839822769165e-01
3.975000000000000000e+03 5.403976440429687500e+01 -1.136499118804931641e+01 -7.232206463813781738e-01 6.243699193000793457e-01 -2.965521439909934998e-02 1.285771489143371582e+00
3.976000000000000000e+03 4.362131500244140625e+01 -1.733304405212402344e+01 1.485150456428527832e+00 7.971724987030029297e+00 2.837062597274780273e+00 -1.721652597188949585e-01
3.977000000000000000e+03 4.306731414794921875e+01 -1.493376064300537109e+01 6.640731692314147949e-01 6.957919120788574219e+00 2.286597728729248047e+00 -3.800999224185943604e-01
3.978000000000000000e+03 1.085841941833496094e+01 5.988651752471923828e+00 8.571252692490816116e-04 -8.065283182077109814e-04 1.517907548986840993e-05 1.191102201119065285e-03
3.979000000000000000e+03 3.516391372680664062e+01 -3.066371536254882812e+01 -4.709369242191314697e-01 4.557471275329589844e+00 1.225960373878479004e+00 1.148543953895568848e+00
3.980000000000000000e+03 4.139818954467773438e+01 -2.345963287353515625e+01 1.907206892967224121e+00 8.427328109741210938e+00 3.100360631942749023e+00 -9.511070251464843750e-01
3.981000000000000000e+03 3.384552383422851562e+01 -5.798637390136718750e+00 -1.969118356704711914e+00 6.772562503814697266e+00 1.441033244132995605e+00 -8.041626811027526855e-01
3.982000000000000000e+03 6.256256866455078125e+01 2.265569496154785156e+01 -4.868222475051879883e-01 6.819701671600341797e+00 1.899863839149475098e+00 -1.268952965736389160e+00
3.983000000000000000e+03 6.172594070434570312e+01 2.440588951110839844e+01 -5.915461778640747070e-01 5.389198780059814453e+00 1.439295887947082520e+00 -1.645400762557983398e+00
3.984000000000000000e+03 3.632227325439453125e+01 1.031177234649658203e+01 1.179813146591186523e+00 1.239952945709228516e+01 4.073802947998046875e+00 -3.211348056793212891e-01
3.985000000000000000e+03 1.257676982879638672e+01 8.309718132019042969e+00 3.845566243398934603e-05 9.321135439677163959e-05 3.950010432163253427e-05 2.371286973357200623e-03
3.986000000000000000e+03 6.575444030761718750e+01 -3.292304611206054688e+01 -5.453860759735107422e-01 3.778741598129272461e+00 9.700067043304443359e-01 9.289575815200805664e-01
3.987000000000000000e+03 3.539449691772460938e+01 1.565994834899902344e+01 7.109683156013488770e-01 9.063404083251953125e+00 2.932311534881591797e+00 -8.936658501625061035e-01
3.988000000000000000e+03 4.115770339965820312e+01 -6.489889144897460938e+00 -2.204037904739379883e+00 6.895432472229003906e+00 1.407418251037597656e+00 -2.082295894622802734e+00
3.989000000000000000e+03 7.461126708984375000e+01 -3.551432037353515625e+01 -1.912269443273544312e-01 8.652477264404296875e+00 2.538375139236450195e+00 -3.021990507841110229e-02
3.990000000000000000e+03 7.377406311035156250e+01 3.393448638916015625e+01 -1.093278229236602783e-01 6.560867786407470703e+00 1.935461997985839844e+00 1.228063330054283142e-01
3.991000000000000000e+03 6.309886932373046875e+00 -3.222153854370117188e+01 -2.019869983196258545e-01 5.393761396408081055e-01 1.012167409062385559e-01 3.286791443824768066e-01
3.992000000000000000e+03 4.200996780395507812e+01 -2.756081008911132812e+01 8.500391244888305664e-01 7.530922889709472656e+00 2.514288663864135742e+00 -4.321759045124053955e-01
3.993000000000000000e+03 4.264793395996093750e+01 -2.668368530273437500e+01 1.340612649917602539e+00 8.040716171264648438e+00 2.814398765563964844e+00 -7.651600241661071777e-01
3.994000000000000000e+03 7.255539703369140625e+01 -2.232890319824218750e+01 7.755282521247863770e-01 1.017051124572753906e+01 3.283811807632446289e+00 -1.017305374145507812e+00
3.995000000000000000e+03 7.387504577636718750e+01 3.524945449829101562e+01 -1.008060351014137268e-01 6.553347587585449219e+00 1.935762405395507812e+00 1.067970246076583862e-01
3.996000000000000000e+03 7.272061157226562500e+01 -3.726662826538085938e+01 -1.364192813634872437e-01 7.702426433563232422e+00 2.269802093505859375e+00 1.369949728250503540e-01
3.997000000000000000e+03 7.506900024414062500e+01 -2.527269554138183594e+01 -1.440720111131668091e-01 9.183921813964843750e+00 2.711955070495605469e+00 -1.216034293174743652e+00
3.998000000000000000e+03 2.195196342468261719e+01 2.794131660461425781e+01 2.015125751495361328e-01 7.014716267585754395e-01 2.708952724933624268e-01 -5.252799391746520996e-01
3.999000000000000000e+03 2.109318351745605469e+01 2.705149841308593750e+01 1.658269166946411133e-01 4.089680016040802002e-01 1.724384725093841553e-01 -3.662894964218139648e-01
4.000000000000000000e+03 4.188054275512695312e+01 -2.604669952392578125e+01 1.447835683822631836e+00 7.905574798583984375e+00 2.806023120880126953e+00 -6.400076150894165039e-01
4.001000000000000000e+03 4.161096191406250000e+01 -2.422625541687011719e+01 1.898538947105407715e+00 8.323828697204589844e+00 3.066710472106933594e+00 -9.175221323966979980e-01
4.002000000000000000e+03 7.175591278076171875e+01 -3.597384262084960938e+01 -2.893504202365875244e-01 7.391548156738281250e+00 2.130659341812133789e+00 1.824922114610671997e-01
4.003000000000000000e+03 6.427962493896484375e+01 -3.426532363891601562e+01 -1.232719793915748596e-01 2.894221544265747070e+00 8.312848806381225586e-01 7.684222459793090820e-01
4.004000000000000000e+03 6.577410125732421875e+01 -3.423687362670898438e+01 -2.376666814088821411e-01 3.861303806304931641e+00 1.087091207504272461e+00 7.964937686920166016e-01
4.005000000000000000e+03 4.013728713989257812e+01 -2.766000366210937500e+01 5.800184011459350586e-01 7.134556770324707031e+00 2.314372539520263672e+00 -1.515693776309490204e-02
4.006000000000000000e+03 3.767259597778320312e+01 -2.649646949768066406e+01 6.448115706443786621e-01 6.796285629272460938e+00 2.232329130172729492e+00 4.480511546134948730e-01
4.007000000000000000e+03 4.166962051391601562e+01 -2.894195175170898438e+01 2.251145988702774048e-01 7.214665889739990234e+00 2.231934070587158203e+00 -2.149579077959060669e-01
4.008000000000000000e+03 4.270793914794921875e+01 -2.744009780883789062e+01 1.061942100524902344e+00 7.848913669586181641e+00 2.673256635665893555e+00 -6.880845427513122559e-01
4.009000000000000000e+03 7.363703155517578125e+01 -2.957792282104492188e+01 -6.682853698730468750e-01 8.823830604553222656e+00 2.446663618087768555e+00 -5.604647397994995117e-01
4.010000000000000000e+03 6.652252197265625000e+01 -3.027186584472656250e+01 -9.164411425590515137e-01 4.567650794982910156e+00 1.095362901687622070e+00 9.534306526184082031e-01
4.011000000000000000e+03 4.973590469360351562e+01 -3.690188980102539062e+01 -4.602698087692260742e-01 3.044172525405883789e+00 7.751708626747131348e-01 -1.231199145317077637e+00
4.012000000000000000e+03 5.264214324951171875e+01 -3.800143051147460938e+01 1.547921746969223022e-01 1.778084397315979004e+00 5.798629522323608398e-01 -8.105437755584716797e-01
4.013000000000000000e+03 1.515598678588867188e+01 2.667352676391601562e+01 -4.253551736474037170e-02 1.296155005693435669e-01 2.612399309873580933e-02 9.854651987552642822e-02
4.014000000000000000e+03 6.243970489501953125e+01 2.515681076049804688e+01 -6.019551753997802734e-01 5.658785343170166016e+00 1.517048954963684082e+00 -1.281229138374328613e+00
4.015000000000000000e+03 6.541365051269531250e+01 2.231202125549316406e+01 -1.372949928045272827e-01 7.423040866851806641e+00 2.185723781585693359e+00 -1.162526234984397888e-01
4.016000000000000000e+03 3.359566497802734375e+01 -3.273638916015625000e+01 -6.454952359199523926e-01 3.580327272415161133e+00 8.804496526718139648e-01 1.197984933853149414e+00
4.017000000000000000e+03 5.449393844604492188e+01 2.527996444702148438e+01 2.043740898370742798e-01 9.264168143272399902e-01 3.392372727394104004e-01 -2.164880372583866119e-02
4.018000000000000000e+03 5.360276412963867188e+01 2.469908142089843750e+01 2.409998886287212372e-02 7.349731326103210449e-01 2.277219444513320923e-01 2.480359226465225220e-01
4.019000000000000000e+03 5.806072616577148438e+01 -4.098443984985351562e+01 8.991678357124328613e-01 1.210624933242797852e+00 6.329378485679626465e-01 -3.508953005075454712e-02
4.020000000000000000e+03 5.841009902954101562e+01 -3.828482437133789062e+01 7.770122885704040527e-01 1.017476081848144531e+00 5.383465290069580078e-01 -1.136883795261383057e-01
4.021000000000000000e+03 7.284256744384765625e+01 -4.151720809936523438e+01 6.753440201282501221e-02 7.463032722473144531e+00 2.259170055389404297e+00 7.487799972295761108e-02
4.022000000000000000e+03 7.347502136230468750e+01 -3.973631668090820312e+01 1.611921004951000214e-02 7.853998661041259766e+00 2.361035346984863281e+00 1.488721668720245361e-01
4.023000000000000000e+03 4.528586959838867188e+01 -3.227880859375000000e+01 -7.875722050666809082e-01 5.930361270904541016e+00 1.542836666107177734e+00 -1.167380928993225098e+00
4.024000000000000000e+03 3.130119132995605469e+01 2.557499504089355469e+01 -4.425256252288818359e-01 4.581431388854980469e+00 1.241671681404113770e+00 -9.021715521812438965e-01
4.025000000000000000e+03 4.942807674407958984e+00 3.432909011840820312e+01 2.093055844306945801e-02 -1.731668263673782349e-01 -4.567088186740875244e-02 9.001383185386657715e-02
4.026000000000000000e+03 3.285546875000000000e+01 -3.512362670898437500e+01 -7.265348434448242188e-01 3.214564323425292969e+00 7.464088201522827148e-01 1.012581348419189453e+00
4.027000000000000000e+03 3.004545783996582031e+01 2.538363647460937500e+01 -2.678748071193695068e-01 4.066006660461425781e+00 1.139439582824707031e+00 -1.194958925247192383e+00
4.028000000000000000e+03 4.358025741577148438e+01 -3.551503753662109375e+01 -1.302290201187133789e+00 5.473834037780761719e+00 1.251463174819946289e+00 -5.405784845352172852e-01
4.029000000000000000e+03 5.625915145874023438e+01 2.558836174011230469e+01 2.817927002906799316e-01 1.383779048919677734e+00 4.996715188026428223e-01 -6.522649526596069336e-01
4.030000000000000000e+03 4.257138442993164062e+01 -2.996952819824218750e+01 -1.428835541009902954e-01 7.019289016723632812e+00 2.062921762466430664e+00 -3.586542010307312012e-01
4.031000000000000000e+03 4.293231964111328125e+01 -3.188359832763671875e+01 -7.602862119674682617e-01 6.469678401947021484e+00 1.712817668914794922e+00 -4.640251398086547852e-01
4.032000000000000000e+03 5.036979293823242188e+01 -3.883567810058593750e+01 -2.419780343770980835e-01 2.661313295364379883e+00 7.258005738258361816e-01 -7.836005091667175293e-01
4.033000000000000000e+03 5.405917739868164062e+01 -3.678145980834960938e+01 3.437225222587585449e-01 1.088450193405151367e+00 4.296517968177795410e-01 -8.166995048522949219e-01
4.034000000000000000e+03 5.038794517517089844e+00 -3.329919433593750000e+01 -1.274880319833755493e-01 4.510728120803833008e-01 9.707543253898620605e-02 2.721634507179260254e-01
4.035000000000000000e+03 5.895314693450927734e+00 -3.500905227661132812e+01 -1.474451869726181030e-01 5.245335698127746582e-01 1.131265163421630859e-01 2.102202624082565308e-01
4.036000000000000000e+03 3.457525253295898438e+01 -3.437762832641601562e+01 -8.337571620941162109e-01 3.867027997970581055e+00 9.099812507629394531e-01 1.001843452453613281e+00
4.037000000000000000e+03 5.737507247924804688e+01 2.553018569946289062e+01 2.031495124101638794e-01 1.740481019020080566e+00 5.830891728401184082e-01 -1.155493497848510742e+00
4.038000000000000000e+03 2.858908081054687500e+01 -3.602120590209960938e+01 -2.566459774971008301e-01 1.393848061561584473e+00 3.411606252193450928e-01 5.534891486167907715e-01
4.039000000000000000e+03 3.102712821960449219e+01 -3.513501739501953125e+01 -5.428164005279541016e-01 2.426021575927734375e+00 5.649615526199340820e-01 9.058333039283752441e-01
4.040000000000000000e+03 6.387607192993164062e+01 -3.608456039428710938e+01 1.869900822639465332e-01 2.723612546920776367e+00 8.731807470321655273e-01 6.471804976463317871e-01
4.041000000000000000e+03 1.107617664337158203e+01 -3.763084030151367188e+01 -2.388299405574798584e-01 6.121251583099365234e-01 1.119885668158531189e-01 4.230999201536178589e-02
4.042000000000000000e+03 7.885635852813720703e+00 -3.846483230590820312e+01 -1.527794748544692993e-01 5.623942613601684570e-01 1.228844299912452698e-01 8.777830004692077637e-02
4.043000000000000000e+03 2.393918037414550781e+01 -5.807615280151367188e+00 6.486361473798751831e-02 4.800183176994323730e-01 1.634645909070968628e-01 1.592891097068786621e+00
4.044000000000000000e+03 5.776669692993164062e+01 -6.260632991790771484e+00 8.916337043046951294e-02 1.630490660667419434e+00 5.158962011337280273e-01 9.740365743637084961e-01
4.045000000000000000e+03 3.015127563476562500e+01 -4.904138088226318359e+00 1.284109801054000854e-01 1.461605668067932129e+00 4.770050048828125000e-01 1.132085561752319336e+00
4.046000000000000000e+03 4.678831100463867188e+01 -1.277476692199707031e+01 4.045876264572143555e-01 3.297483682632446289e+00 1.110621333122253418e+00 1.155743002891540527e+00
4.047000000000000000e+03 3.770414733886718750e+01 -1.080811691284179688e+01 -1.197812557220458984e+00 8.834267616271972656e+00 2.290936470031738281e+00 -9.371296763420104980e-01
4.048000000000000000e+03 3.768019104003906250e+01 -1.021086502075195312e+01 -1.578153848648071289e+00 8.875367164611816406e+00 2.189164161682128906e+00 -9.363477826118469238e-01
4.049000000000000000e+03 4.399766540527343750e+01 -1.336167716979980469e+01 2.275703549385070801e-01 5.777393341064453125e+00 1.801489114761352539e+00 2.011050470173358917e-02
4.050000000000000000e+03 6.999491882324218750e+01 -1.119168663024902344e+01 -1.649672865867614746e+00 9.363408088684082031e+00 2.314120769500732422e+00 -7.896724939346313477e-01
4.051000000000000000e+03 4.348552322387695312e+01 -1.575005531311035156e+01 9.230849742889404297e-01 7.160903930664062500e+00 2.425196647644042969e+00 -2.122004777193069458e-01
4.052000000000000000e+03 7.132753753662109375e+01 -1.317959213256835938e+01 -3.601811826229095459e-01 1.037533092498779297e+01 3.004544973373413086e+00 3.892080783843994141e-01
4.053000000000000000e+03 7.538243865966796875e+01 -9.902400970458984375e+00 -5.238397121429443359e-01 8.810898780822753906e+00 2.486117839813232422e+00 5.017604231834411621e-01
4.054000000000000000e+03 4.838298797607421875e+01 -1.119354057312011719e+01 1.812216937541961670e-01 1.671393752098083496e+00 5.557846426963806152e-01 1.486713528633117676e+00
4.055000000000000000e+03 1.249379158020019531e+01 -2.528094863891601562e+01 -3.299897909164428711e-01 1.585366845130920410e+00 3.766131103038787842e-01 3.187493383884429932e-01
4.056000000000000000e+03 3.270520401000976562e+01 -3.259503841400146484e+00 4.130774736404418945e-01 6.033506393432617188e+00 1.933975100517272949e+00 6.094924807548522949e-01
4.057000000000000000e+03 3.533223724365234375e+01 2.836568653583526611e-02 2.203092813491821289e+00 1.117384243011474609e+01 4.013080596923828125e+00 2.429797053337097168e-01
4.058000000000000000e+03 7.522762298583984375e+01 -2.379986572265625000e+01 1.316101849079132080e-01 9.106543540954589844e+00 2.771445989608764648e+00 -1.240864396095275879e+00
4.059000000000000000e+03 7.155271911621093750e+01 -2.389796066284179688e+01 8.658403158187866211e-02 1.010780143737792969e+01 3.058315515518188477e+00 -7.566666007041931152e-01
4.060000000000000000e+03 6.658229064941406250e+01 2.038333129882812500e+01 6.383020281791687012e-01 7.645866870880126953e+00 2.485250711441040039e+00 1.660605072975158691e-01
4.061000000000000000e+03 1.136884021759033203e+01 2.208517456054687500e+01 -1.768543869256973267e-01 7.734834402799606323e-02 -2.985181473195552826e-02 5.894055590033531189e-02
4.062000000000000000e+03 3.100419616699218750e+01 -2.886138916015625000e+00 1.621575951576232910e+00 3.544527292251586914e+00 1.549831032752990723e+00 1.545174360275268555e+00
4.063000000000000000e+03 3.011291313171386719e+01 -3.727614879608154297e+00 1.205647587776184082e+00 1.857768893241882324e+00 9.190249443054199219e-01 1.503609299659729004e+00
4.064000000000000000e+03 2.263408279418945312e+01 -6.344792366027832031e+00 1.561112254858016968e-01 5.593621134757995605e-01 2.146420031785964966e-01 1.441825270652770996e+00
4.065000000000000000e+03 1.090801620483398438e+01 1.601888847351074219e+01 -2.625703439116477966e-02 -4.112694412469863892e-03 -9.110919199883937836e-03 -1.027926430106163025e-02
4.066000000000000000e+03 1.179908561706542969e+01 6.554787635803222656e+00 5.076190573163330555e-04 -3.691510646604001522e-04 4.154040288995020092e-05 1.534727052785456181e-03
4.067000000000000000e+03 6.587995147705078125e+01 2.137685203552246094e+01 2.437392473220825195e-01 7.597337722778320312e+00 2.352323055267333984e+00 4.806177690625190735e-02
4.068000000000000000e+03 4.706350708007812500e+01 -1.038007259368896484e+01 -7.112074643373489380e-02 2.185955524444580078e+00 6.344504356384277344e-01 9.726239442825317383e-01
4.069000000000000000e+03 5.373426437377929688e+01 -9.707633972167968750e+00 -6.093508601188659668e-01 9.585834741592407227e-01 1.047697886824607849e-01 1.659568905830383301e+00
4.070000000000000000e+03 6.020998001098632812e+01 -9.476742744445800781e+00 -1.174408912658691406e+00 8.841016888618469238e-01 -8.709215372800827026e-02 4.179993867874145508e-01
4.071000000000000000e+03 5.999425888061523438e+01 -8.788064002990722656e+00 -8.920415639877319336e-01 1.080283284187316895e+00 5.647251754999160767e-02 4.617858231067657471e-01
4.072000000000000000e+03 4.441524124145507812e+01 -9.142009735107421875e+00 -7.932993769645690918e-01 3.692157506942749023e+00 8.696573972702026367e-01 -4.821084439754486084e-01
4.073000000000000000e+03 4.317143630981445312e+01 -7.638190746307373047e+00 -1.465636014938354492e+00 4.386065959930419922e+00 8.761290311813354492e-01 -1.351814866065979004e+00
4.074000000000000000e+03 1.014525604248046875e+01 1.580656528472900391e+01 -2.513807453215122223e-02 -3.433635924011468887e-03 -8.571512997150421143e-03 -6.201430689543485641e-03
4.075000000000000000e+03 3.423231506347656250e+01 2.106348800659179688e+01 2.647595107555389404e-01 6.536175727844238281e+00 2.040280580520629883e+00 -4.563038945198059082e-01
4.076000000000000000e+03 3.559248352050781250e+01 2.533601570129394531e+01 -5.773842930793762207e-01 5.220970630645751953e+00 1.393075942993164062e+00 2.264717370271682739e-01
4.077000000000000000e+03 8.340543746948242188e+00 -8.361490249633789062e+00 2.101974338293075562e-01 2.662622630596160889e-01 1.429378986358642578e-01 -5.783329606056213379e-01
4.078000000000000000e+03 1.347702121734619141e+01 -1.236979675292968750e+01 1.415814757347106934e+00 2.246746301651000977e+00 1.098768353462219238e+00 5.297527909278869629e-01
4.079000000000000000e+03 4.331213474273681641e+00 3.076706695556640625e+01 1.204178947955369949e-02 -1.532349437475204468e-01 -4.235794767737388611e-02 1.081918850541114807e-01
4.080000000000000000e+03 6.311972141265869141e+00 3.052393913269042969e+01 1.681356132030487061e-02 -7.195369899272918701e-02 -1.654204167425632477e-02 1.359756439924240112e-01
4.081000000000000000e+03 1.139088821411132812e+01 -6.588892936706542969e+00 -3.124026954174041748e-02 5.999438762664794922e-01 1.706110835075378418e-01 -3.289357423782348633e-01
4.082000000000000000e+03 9.827197074890136719e+00 -5.961689949035644531e+00 -1.551385670900344849e-01 3.208245635032653809e-01 4.970580339431762695e-02 -5.075265765190124512e-01
4.083000000000000000e+03 6.021016120910644531e+00 -2.897764778137207031e+01 -1.884651929140090942e-01 4.923933148384094238e-01 9.117843955755233765e-02 4.935481548309326172e-01
4.084000000000000000e+03 8.900517463684082031e+00 7.085876464843750000e+00 1.247926265932619572e-03 -2.106202999129891396e-03 -2.574830141384154558e-04 4.438272444531321526e-04
4.085000000000000000e+03 7.423789978027343750e+01 -2.868856811523437500e+01 -5.797575116157531738e-01 9.036429405212402344e+00 2.537001609802246094e+00 -7.530501484870910645e-01
4.086000000000000000e+03 5.778791904449462891e+00 2.880141830444335938e+01 -3.520654514431953430e-03 -7.396344840526580811e-02 -2.324523031711578369e-02 1.328640580177307129e-01
4.087000000000000000e+03 1.397887420654296875e+01 -1.076437091827392578e+01 1.092752933502197266e+00 1.904182910919189453e+00 8.990807533264160156e-01 3.891373872756958008e-01
4.088000000000000000e+03 4.071968460083007812e+01 1.791946220397949219e+01 3.926999568939208984e-01 5.607539653778076172e+00 1.800071954727172852e+00 1.609445810317993164e+00
4.089000000000000000e+03 6.924693107604980469e+00 -2.863476943969726562e+01 -2.258901596069335938e-01 5.966308116912841797e-01 1.112222000956535339e-01 5.193108320236206055e-01
4.090000000000000000e+03 5.772302150726318359e+00 -6.926297187805175781e+00 -1.250693295150995255e-02 -1.537508964538574219e-01 -4.987734928727149963e-02 -6.412114500999450684e-01
4.091000000000000000e+03 5.838797569274902344e+00 -3.110057640075683594e+01 -1.850855201482772827e-01 4.902373552322387695e-01 9.154555201530456543e-02 3.889332413673400879e-01
4.092000000000000000e+03 5.666580200195312500e+00 -2.938772964477539062e+01 -1.734744459390640259e-01 4.436684846878051758e-01 8.105821162462234497e-02 4.688713848590850830e-01
4.093000000000000000e+03 7.171950817108154297e+00 -7.220561027526855469e+00 2.935387380421161652e-02 3.975794464349746704e-02 2.073354460299015045e-02 -6.441566348075866699e-01
4.094000000000000000e+03 2.494162559509277344e+01 -6.053080081939697266e+00 -1.481121778488159180e-01 4.972299337387084961e-01 1.047353297472000122e-01 1.680747270584106445e+00
4.095000000000000000e+03 9.084341049194335938e+00 -6.030191898345947266e+00 -1.382954865694046021e-01 2.429555952548980713e-01 3.139803186058998108e-02 -5.648735761642456055e-01
4.096000000000000000e+03 7.182520866394042969e+00 3.182659530639648438e+01 3.912086784839630127e-02 -4.602999612689018250e-02 -2.072738716378808022e-03 1.349203884601593018e-01
4.097000000000000000e+03 1.003202533721923828e+01 -7.240367412567138672e+00 7.038691639900207520e-02 4.647938311100006104e-01 1.605542302131652832e-01 -4.846697449684143066e-01
4.098000000000000000e+03 9.370274543762207031e+00 -7.332957744598388672e+00 7.846472412347793579e-02 3.770524561405181885e-01 1.366551518440246582e-01 -5.371092557907104492e-01
4.099000000000000000e+03 7.283594512939453125e+01 3.152536392211914062e+01 -1.799874454736709595e-01 6.532584190368652344e+00 1.905779004096984863e+00 1.579082310199737549e-01
4.100000000000000000e+03 5.999356746673583984e+00 2.962738227844238281e+01 8.176788687705993652e-03 -7.308119535446166992e-02 -1.947132125496864319e-02 1.355671137571334839e-01
4.101000000000000000e+03 7.443906402587890625e+01 -2.940632057189941406e+01 -5.655273199081420898e-01 9.018593788146972656e+00 2.535919904708862305e+00 -6.758067607879638672e-01
4.102000000000000000e+03 6.864376831054687500e+01 -3.066198730468750000e+01 -9.562601447105407715e-01 6.280761241912841797e+00 1.597350239753723145e+00 6.311876177787780762e-01
4.103000000000000000e+03 2.469482994079589844e+01 -4.549157619476318359e+00 4.502861499786376953e-01 2.679218649864196777e-01 2.154624015092849731e-01 1.723822593688964844e+00
4.104000000000000000e+03 2.554011344909667969e+01 -5.702060222625732422e+00 -3.609044104814529419e-02 4.075934886932373047e-01 1.114509105682373047e-01 1.844505667686462402e+00
4.105000000000000000e+03 1.156144714355468750e+01 -1.500830078125000000e+01 1.266018033027648926e+00 1.964183330535888672e+00 9.690604209899902344e-01 4.714269936084747314e-01
4.106000000000000000e+03 6.602588653564453125e+01 -9.624975204467773438e+00 -1.551867365837097168e+00 3.871175527572631836e+00 6.957924962043762207e-01 -2.503084659576416016e+00
4.107000000000000000e+03 5.385099411010742188e+00 -2.169571113586425781e+01 1.463091820478439331e-01 3.447887301445007324e-02 5.423641577363014221e-02 5.942894816398620605e-01
4.108000000000000000e+03 1.528147029876708984e+01 -7.961284637451171875e+00 3.641735017299652100e-01 1.318851828575134277e+00 5.049076080322265625e-01 5.104427337646484375e-01
4.109000000000000000e+03 7.317334747314453125e+01 -2.192694473266601562e+01 8.759616017341613770e-01 9.914378166198730469e+00 3.237102031707763672e+00 -1.043465614318847656e+00
4.110000000000000000e+03 4.894249343872070312e+01 -1.157649612426757812e+01 2.626284956932067871e-01 1.487755894660949707e+00 5.251153111457824707e-01 1.643078923225402832e+00
4.111000000000000000e+03 4.824599456787109375e+01 -9.367844581604003906e+00 -2.214964330196380615e-01 1.080611109733581543e+00 2.577344179153442383e-01 1.423579931259155273e+00
4.112000000000000000e+03 1.285257816314697266e+01 -6.617072582244873047e+00 -2.366413548588752747e-02 7.906219959259033203e-01 2.300873547792434692e-01 -9.172617644071578979e-02
4.113000000000000000e+03 7.412860870361328125e+01 2.168740653991699219e+01 1.083331480622291565e-01 6.591457366943359375e+00 2.009937286376953125e+00 4.287030696868896484e-01
4.114000000000000000e+03 7.481182861328125000e+01 2.356349563598632812e+01 4.624988418072462082e-03 6.585551261901855469e+00 1.977052807807922363e+00 4.327642023563385010e-01
4.115000000000000000e+03 1.066113471984863281e+01 2.378193283081054688e+01 -1.364181935787200928e-01 7.669588923454284668e-02 -1.791669428348541260e-02 1.128138080239295959e-01
4.116000000000000000e+03 7.456072998046875000e+01 2.556407356262207031e+01 -7.073030620813369751e-02 6.636947154998779297e+00 1.969865083694458008e+00 4.122526645660400391e-01
4.117000000000000000e+03 5.907447814941406250e+00 2.211982345581054688e+01 -5.131053179502487183e-02 -3.402520669624209404e-03 -1.641391590237617493e-02 7.364818453788757324e-02
4.118000000000000000e+03 7.434105682373046875e+01 -1.576274681091308594e+01 8.893221020698547363e-01 9.226539611816406250e+00 3.034758329391479492e+00 6.628237962722778320e-01
4.119000000000000000e+03 7.483419036865234375e+01 2.652308082580566406e+01 -8.695781975984573364e-02 6.644376754760742188e+00 1.967225670814514160e+00 3.788904845714569092e-01
4.120000000000000000e+03 7.462459564208984375e+01 1.441640853881835938e+01 3.467939198017120361e-01 6.496857166290283203e+00 2.053095340728759766e+00 -1.590198278427124023e-01
4.121000000000000000e+03 7.507950592041015625e+01 2.578558158874511719e+01 -7.027733325958251953e-02 6.626972675323486328e+00 1.967008590698242188e+00 3.948088586330413818e-01
4.122000000000000000e+03 7.278459167480468750e+01 2.486272430419921875e+01 -8.613321185111999512e-02 6.714724540710449219e+00 1.988577365875244141e+00 4.356832206249237061e-01
4.123000000000000000e+03 7.520737457275390625e+01 -2.032115364074707031e+01 8.441778421401977539e-01 8.906809806823730469e+00 2.925296306610107422e+00 -6.963896155357360840e-01
4.124000000000000000e+03 7.530232238769531250e+01 1.669407463073730469e+01 2.463557124137878418e-01 6.358620166778564453e+00 1.981492757797241211e+00 7.362204045057296753e-02
4.125000000000000000e+03 7.473959350585937500e+01 1.515017700195312500e+01 3.306449651718139648e-01 6.465230941772460938e+00 2.038762807846069336e+00 -8.180649578571319580e-02
4.126000000000000000e+03 4.804388046264648438e+00 -2.402306556701660156e+01 1.395098399370908737e-03 3.324949741363525391e-02 1.039337925612926483e-02 5.971010327339172363e-01
4.127000000000000000e+03 5.396651268005371094e+00 -2.243834877014160156e+01 9.336731582880020142e-02 9.632235765457153320e-02 5.690690129995346069e-02 6.245619654655456543e-01
4.128000000000000000e+03 1.497518634796142578e+01 -7.503961563110351562e+00 2.342555373907089233e-01 1.189990162849426270e+00 4.272737205028533936e-01 3.977006375789642334e-01
4.129000000000000000e+03 5.145690917968750000e+01 -1.172709083557128906e+01 -5.346804112195968628e-02 6.877755522727966309e-01 1.902922689914703369e-01 1.650019764900207520e+00
4.130000000000000000e+03 7.462192535400390625e+01 -2.434669494628906250e+01 1.691350340843200684e-02 9.259897232055664062e+00 2.783043384552001953e+00 -1.259302377700805664e+00
4.131000000000000000e+03 4.898213863372802734e+00 -2.477211570739746094e+01 -2.895712666213512421e-02 1.020745486021041870e-01 2.193522825837135315e-02 5.996496677398681641e-01
4.132000000000000000e+03 7.509568786621093750e+01 1.753925514221191406e+01 2.522465884685516357e-01 6.394676208496093750e+00 1.994076848030090332e+00 1.564744561910629272e-01
4.133000000000000000e+03 5.710728454589843750e+01 -1.088731384277343750e+01 -1.314392685890197754e+00 7.661294937133789062e-01 -1.644789576530456543e-01 7.375087738037109375e-01
4.134000000000000000e+03 5.714663982391357422e+00 7.676754951477050781e+00 1.065181219018995762e-03 -1.734474324621260166e-03 -2.007879229495301843e-04 -1.464382512494921684e-03
4.135000000000000000e+03 7.406643390655517578e+00 3.408532333374023438e+01 5.219899863004684448e-02 -4.820111393928527832e-02 1.199365244247019291e-03 1.020232960581779480e-01
4.136000000000000000e+03 7.465142822265625000e+01 1.045324897766113281e+01 2.850858271121978760e-01 6.655302524566650391e+00 2.082116365432739258e+00 -5.495495796203613281e-01
4.137000000000000000e+03 7.473567199707031250e+01 8.013365745544433594e+00 2.111489921808242798e-01 6.800072193145751953e+00 2.103366374969482422e+00 -7.336137294769287109e-01
4.138000000000000000e+03 3.585156631469726562e+01 1.300402164459228516e+01 8.079498410224914551e-01 1.060536670684814453e+01 3.423995018005371094e+00 -8.754122853279113770e-01
4.139000000000000000e+03 4.965095043182373047e+00 2.658935737609863281e+01 -1.891896314918994904e-02 -6.670054048299789429e-02 -2.568585053086280823e-02 1.162259057164192200e-01
4.140000000000000000e+03 7.473939514160156250e+01 7.214760303497314453e+00 1.826637685298919678e-01 6.859453678131103516e+00 2.112635374069213867e+00 -7.830485105514526367e-01
4.141000000000000000e+03 7.536023712158203125e+01 1.206193256378173828e+01 2.515545487403869629e-01 6.476880073547363281e+00 2.018530368804931641e+00 -3.655233979225158691e-01
4.142000000000000000e+03 7.465134429931640625e+01 1.124805164337158203e+01 3.058754205703735352e-01 6.611800670623779297e+00 2.075302839279174805e+00 -4.784199595451354980e-01
4.143000000000000000e+03 7.379138183593750000e+01 -1.610825538635253906e+01 1.160455465316772461e+00 9.582669258117675781e+00 3.222937583923339844e+00 5.569671988487243652e-01
4.144000000000000000e+03 7.488843536376953125e+01 -1.454935932159423828e+01 4.328329265117645264e-01 9.021522521972656250e+00 2.836306571960449219e+00 8.772866129875183105e-01
4.145000000000000000e+03 7.540592193603515625e+01 8.857756614685058594e+00 1.911657005548477173e-01 6.681688308715820312e+00 2.061856031417846680e+00 -6.243184208869934082e-01
4.146000000000000000e+03 5.447003364562988281e+00 2.253227615356445312e+01 -4.346042871475219727e-02 -1.598801836371421814e-02 -1.783453486859798431e-02 7.793437689542770386e-02
4.147000000000000000e+03 5.270244121551513672e+00 -1.543928813934326172e+01 4.003171026706695557e-01 -3.050374388694763184e-01 2.858389168977737427e-02 3.595381602644920349e-02
4.148000000000000000e+03 5.888577938079833984e+00 6.662295818328857422e+00 1.142837572842836380e-03 -1.361015485599637032e-03 -6.545335781993344426e-05 -1.243410632014274597e-03
4.149000000000000000e+03 7.562537384033203125e+01 -1.862224388122558594e+01 8.476283550262451172e-01 8.601220130920410156e+00 2.834654569625854492e+00 -1.765632629394531250e-01
4.150000000000000000e+03 7.445039367675781250e+01 -1.896014404296875000e+01 1.258525848388671875e+00 9.256523132324218750e+00 3.154514789581298828e+00 -3.090712428092956543e-01
4.151000000000000000e+03 7.468283843994140625e+01 1.830477523803710938e+01 2.528206706047058105e-01 6.454791069030761719e+00 2.012283563613891602e+00 2.217145860195159912e-01
4.152000000000000000e+03 7.528112030029296875e+01 2.033652114868164062e+01 1.375997066497802734e-01 6.425419807434082031e+00 1.968905925750732422e+00 3.417236208915710449e-01
4.153000000000000000e+03 7.504039001464843750e+01 -1.347481060028076172e+01 7.850304245948791504e-02 9.021614074707031250e+00 2.730035305023193359e+00 9.376254677772521973e-01
4.154000000000000000e+03 7.467424011230468750e+01 -1.517573261260986328e+01 6.717840433120727539e-01 9.099344253540039062e+00 2.931338310241699219e+00 7.967047095298767090e-01
4.155000000000000000e+03 7.320691680908203125e+01 -1.811157417297363281e+01 1.665161252021789551e+00 1.004722213745117188e+01 3.513715028762817383e+00 -8.777220547199249268e-02
4.156000000000000000e+03 7.483586883544921875e+01 2.881301939487457275e-02 -1.336762458086013794e-01 7.525605201721191406e+00 2.217578649520874023e+00 -8.843510746955871582e-01
4.157000000000000000e+03 7.483567047119140625e+01 -7.835036516189575195e-01 -1.844568103551864624e-01 7.618422985076904297e+00 2.230189800262451172e+00 -8.520982861518859863e-01
4.158000000000000000e+03 7.418330383300781250e+01 -8.174113631248474121e-01 -2.113468796014785767e-01 7.524117946624755859e+00 2.193831205368041992e+00 -9.225778579711914062e-01
4.159000000000000000e+03 7.482678222656250000e+01 8.304728269577026367e-01 -8.915140479803085327e-02 7.436502456665039062e+00 2.204205274581909180e+00 -9.058088064193725586e-01
4.160000000000000000e+03 7.547448730468750000e+01 1.649946570396423340e+00 -4.141316562891006470e-02 7.414936542510986328e+00 2.212056875228881836e+00 -8.463916182518005371e-01
4.161000000000000000e+03 7.492310333251953125e+01 -1.290883541107177734e+01 -7.705671340227127075e-02 9.047101020812988281e+00 2.691013336181640625e+00 9.349530339241027832e-01
4.162000000000000000e+03 7.418190002441406250e+01 7.968423962593078613e-01 -1.009611338376998901e-01 7.366059780120849609e+00 2.179529666900634766e+00 -9.664587378501892090e-01
4.163000000000000000e+03 7.505070495605468750e+01 -1.232652854919433594e+01 -2.322266548871994019e-01 8.992608070373535156e+00 2.628114461898803711e+00 8.776003718376159668e-01
4.164000000000000000e+03 7.480478668212890625e+01 1.627584338188171387e+00 -4.742603749036788940e-02 7.353558063507080078e+00 2.191839694976806641e+00 -9.175166487693786621e-01
4.165000000000000000e+03 7.546168518066406250e+01 2.452278852462768555e+00 -9.247397072613239288e-03 7.321465492248535156e+00 2.193665504455566406e+00 -8.511511087417602539e-01
4.166000000000000000e+03 7.275552368164062500e+01 -1.053277969360351562e+01 -1.063827753067016602e+00 9.264722824096679688e+00 2.460268497467041016e+00 2.056103795766830444e-01
4.167000000000000000e+03 7.489317321777343750e+01 -2.398461341857910156e+00 -2.937023043632507324e-01 7.825047492980957031e+00 2.259403467178344727e+00 -7.448584437370300293e-01
4.168000000000000000e+03 7.475868988037109375e+01 3.228992223739624023e+00 2.542406879365444183e-02 7.194715499877929688e+00 2.166041851043701172e+00 -9.196695685386657715e-01
4.169000000000000000e+03 7.492268371582031250e+01 -3.161468267440795898e+00 -3.420884311199188232e-01 7.924171447753906250e+00 2.274625062942504883e+00 -6.797626614570617676e-01
4.170000000000000000e+03 7.488829040527343750e+01 -3.920142173767089844e+00 -4.200393259525299072e-01 8.025535583496093750e+00 2.281648874282836914e+00 -6.097411513328552246e-01
4.171000000000000000e+03 7.559744262695312500e+01 -7.857772827148437500e+00 -5.360069870948791504e-01 8.628344535827636719e+00 2.427701473236083984e+00 1.319376081228256226e-01
4.172000000000000000e+03 7.548322296142578125e+01 -6.373494148254394531e+00 -5.020961165428161621e-01 8.438771247863769531e+00 2.381002426147460938e+00 -1.746410131454467773e-01
4.173000000000000000e+03 7.440111541748046875e+01 -7.658532619476318359e+00 -7.733753919601440430e-01 8.577111244201660156e+00 2.341120719909667969e+00 -8.738575875759124756e-02
4.174000000000000000e+03 7.447631072998046875e+01 -8.958832740783691406e+00 -7.627776861190795898e-01 8.791867256164550781e+00 2.408726930618286133e+00 2.109652012586593628e-01
4.175000000000000000e+03 7.476175689697265625e+01 -4.736304283142089844e+00 -4.906932413578033447e-01 8.127251625061035156e+00 2.290967464447021484e+00 -5.222423076629638672e-01
4.176000000000000000e+03 7.478099060058593750e+01 -6.468143463134765625e+00 -6.303346157073974609e-01 8.400910377502441406e+00 2.331172704696655273e+00 -2.514644265174865723e-01
4.177000000000000000e+03 7.473578643798828125e+01 6.425459861755371094e+00 1.551242470741271973e-01 6.918225288391113281e+00 2.122004985809326172e+00 -8.241365551948547363e-01
4.178000000000000000e+03 7.473452758789062500e+01 5.631295204162597656e+00 1.241405680775642395e-01 6.983137130737304688e+00 2.132183313369750977e+00 -8.609048128128051758e-01
4.179000000000000000e+03 5.484592437744140625e+00 8.740483283996582031e+00 8.103619911707937717e-04 -2.029810799285769463e-03 -3.658346831798553467e-04 -1.715712016448378563e-03
4.180000000000000000e+03 7.414608001708984375e+01 -1.678382110595703125e+01 1.218982100486755371e+00 9.401790618896484375e+00 3.186231851577758789e+00 3.813514113426208496e-01
4.181000000000000000e+03 7.524330139160156250e+01 -1.801079559326171875e+01 9.721117615699768066e-01 8.791581153869628906e+00 2.929107904434204102e+00 7.138255983591079712e-03
4.182000000000000000e+03 7.290444946289062500e+01 -1.887856292724609375e+01 1.714480161666870117e+00 1.028366374969482422e+01 3.599443197250366211e+00 -3.251204192638397217e-01
4.183000000000000000e+03 7.464388275146484375e+01 1.203626346588134766e+01 3.216567635536193848e-01 6.578864574432373047e+00 2.070156335830688477e+00 -4.011026322841644287e-01
4.184000000000000000e+03 4.578039646148681641e+00 -1.782505035400390625e+01 2.658803462982177734e-01 -4.298642575740814209e-01 -4.919518157839775085e-02 2.760513722896575928e-01
4.185000000000000000e+03 5.251255989074707031e+00 -1.622397422790527344e+01 3.853378891944885254e-01 -2.857978940010070801e-01 2.986199781298637390e-02 1.401590406894683838e-01
4.186000000000000000e+03 5.185670375823974609e+00 1.472731113433837891e+01 -1.016933750361204147e-02 -3.483117558062076569e-03 -4.095736425369977951e-03 3.235078416764736176e-03
4.187000000000000000e+03 5.344994068145751953e+00 1.396384334564208984e+01 -7.005229592323303223e-03 -4.201872274279594421e-03 -3.362130606546998024e-03 1.209368812851607800e-03
4.188000000000000000e+03 4.713558197021484375e+00 1.067408466339111328e+01 -5.688017699867486954e-04 -2.100872574374079704e-03 -8.009022567421197891e-04 -1.796319498680531979e-03
4.189000000000000000e+03 6.024219989776611328e+00 1.790987586975097656e+01 -3.282389417290687561e-02 -9.770801989361643791e-04 -1.014029141515493393e-02 2.006737142801284790e-02
4.190000000000000000e+03 4.819049835205078125e+00 9.848505020141601562e+00 3.647584235295653343e-04 -1.976144267246127129e-03 -4.834157589357346296e-04 -2.044334309175610542e-03
4.191000000000000000e+03 9.772477149963378906e+00 1.414523124694824219e+01 -1.103936880826950073e-02 -6.185419857501983643e-03 -5.167436785995960236e-03 -2.118892967700958252e-03
4.192000000000000000e+03 7.462633514404296875e+01 1.361480236053466797e+01 3.463067710399627686e-01 6.525589466094970703e+00 2.061568975448608398e+00 -2.493773251771926880e-01
4.193000000000000000e+03 7.462692260742187500e+01 1.282340908050537109e+01 3.250756263732910156e-01 6.545936584472656250e+00 2.061303615570068359e+00 -3.251858055591583252e-01
4.194000000000000000e+03 4.578339576721191406e+00 -1.862943458557128906e+01 2.444115132093429565e-01 -3.845661580562591553e-01 -4.204638674855232239e-02 3.540053069591522217e-01
4.195000000000000000e+03 6.428930759429931641e+00 -1.799543380737304688e+01 4.363864660263061523e-01 1.397017389535903931e-01 1.728264540433883667e-01 3.898639082908630371e-01
4.196000000000000000e+03 4.625421047210693359e+00 1.307980155944824219e+01 -3.567970823496580124e-03 -2.825742354616522789e-03 -1.918113906867802143e-03 -4.059984639752656221e-04
4.197000000000000000e+03 1.014235115051269531e+01 -7.850442886352539062e+00 1.800083220005035400e-01 5.505800843238830566e-01 2.191765159368515015e-01 -4.570091962814331055e-01
4.198000000000000000e+03 5.273246288299560547e+00 -9.783919334411621094e+00 2.016463577747344971e-01 -3.062631189823150635e-01 -3.138502687215805054e-02 -5.374287962913513184e-01
4.199000000000000000e+03 7.068280029296875000e+01 -2.563945007324218750e+01 -6.586739420890808105e-01 9.356190681457519531e+00 2.609255075454711914e+00 -2.689422070980072021e-01
4.200000000000000000e+03 4.738318443298339844e+00 1.921537590026855469e+01 -2.715394273400306702e-02 -7.751700934022665024e-03 -1.047169324010610580e-02 3.114609420299530029e-02
4.201000000000000000e+03 5.511952400207519531e+00 2.114785766601562500e+01 -4.345027357339859009e-02 -6.540752947330474854e-03 -1.499730814248323441e-02 5.714335665106773376e-02
4.202000000000000000e+03 1.130550289154052734e+01 -2.309545898437500000e+01 1.417653355747461319e-02 1.710510730743408203e+00 5.174062252044677734e-01 5.925353765487670898e-01
4.203000000000000000e+03 5.861299514770507812e+00 2.050275993347167969e+01 -4.682385921478271484e-02 -1.666274969466030598e-03 -1.454703975468873978e-02 5.003529414534568787e-02
4.204000000000000000e+03 5.107782840728759766e+00 1.544133186340332031e+01 -1.181851606816053391e-02 -4.010688513517379761e-03 -4.748761188238859177e-03 5.407241638749837875e-03
4.205000000000000000e+03 5.216450691223144531e+00 -1.782334136962890625e+01 3.344043791294097900e-01 -2.296897023916244507e-01 3.141440451145172119e-02 3.107173740863800049e-01
4.206000000000000000e+03 8.680850028991699219e+00 -8.893302917480468750e+00 2.967172861099243164e-01 3.586020171642303467e-01 1.965957880020141602e-01 -5.354094505310058594e-01
4.207000000000000000e+03 7.353282928466796875e+01 2.596444129943847656e+01 -1.139437556266784668e-01 6.678020477294921875e+00 1.969223022460937500e+00 4.076234996318817139e-01
4.208000000000000000e+03 9.895777702331542969e+00 1.724224662780761719e+01 -4.866822063922882080e-02 6.104896310716867447e-03 -1.276899687945842743e-02 -5.509661510586738586e-03
4.209000000000000000e+03 6.351675033569335938e+00 1.524952125549316406e+01 -1.627504639327526093e-02 -2.977864816784858704e-03 -5.775873549282550812e-03 4.257556051015853882e-03
4.210000000000000000e+03 5.324723243713378906e+00 1.688372802734375000e+01 -2.054436318576335907e-02 -3.240035846829414368e-03 -7.135319989174604416e-03 1.264381688088178635e-02
4.211000000000000000e+03 1.040119361877441406e+01 -1.872664451599121094e+01 7.052325010299682617e-01 1.671479463577270508e+00 7.130135893821716309e-01 6.052626371383666992e-01
4.212000000000000000e+03 5.705413055419921875e+01 -5.625451564788818359e+00 3.144133090972900391e-01 1.702141642570495605e+00 6.049664616584777832e-01 1.094516277313232422e+00
4.213000000000000000e+03 1.360383987426757812e+01 -6.592348098754882812e+00 -1.147330924868583679e-02 8.829677104949951172e-01 2.614483237266540527e-01 5.483334138989448547e-02
4.214000000000000000e+03 5.522720813751220703e+00 1.993193054199218750e+01 -3.959190472960472107e-02 -3.511131973937153816e-03 -1.293091103434562683e-02 4.163139685988426208e-02
4.215000000000000000e+03 4.868941307067871094e+00 2.479477691650390625e+01 -3.030144236981868744e-02 -4.465423896908760071e-02 -2.248670347034931183e-02 9.924666583538055420e-02
4.216000000000000000e+03 5.784604072570800781e+00 2.681529045104980469e+01 -2.110751345753669739e-02 -5.087140202522277832e-02 -2.159367501735687256e-02 1.273636668920516968e-01
4.217000000000000000e+03 4.641194343566894531e+00 -1.220708179473876953e+01 2.668283581733703613e-01 -5.052418112754821777e-01 -7.152403146028518677e-02 -3.239856064319610596e-01
4.218000000000000000e+03 5.279479026794433594e+00 -1.055455493927001953e+01 2.481443583965301514e-01 -3.204382061958312988e-01 -2.168815582990646362e-02 -4.813222587108612061e-01
4.219000000000000000e+03 7.440303039550781250e+01 1.716590881347656250e+01 3.286364376544952393e-01 6.495664596557617188e+00 2.047290325164794922e+00 1.221015825867652893e-01
4.220000000000000000e+03 7.409286499023437500e+01 -2.350072669982910156e+01 2.564119100570678711e-01 9.443894386291503906e+00 2.910092115402221680e+00 -1.235144615173339844e+00
4.221000000000000000e+03 7.389422607421875000e+01 -2.476387405395507812e+01 -1.136548295617103577e-01 9.419415473937988281e+00 2.791728019714355469e+00 -1.206814885139465332e+00
4.222000000000000000e+03 5.273375988006591797e+00 -8.335884094238281250e+00 1.014836058020591736e-01 -2.674588859081268311e-01 -4.979258403182029724e-02 -6.055892705917358398e-01
4.223000000000000000e+03 5.333583354949951172e+00 -1.464686107635498047e+01 3.949991762638092041e-01 -3.063262999057769775e-01 2.660185471177101135e-02 -5.207078158855438232e-02
4.224000000000000000e+03 5.394668579101562500e+00 -1.383109855651855469e+01 3.957880437374114990e-01 -3.092734515666961670e-01 2.595437690615653992e-02 -1.537040621042251587e-01
4.225000000000000000e+03 5.944177627563476562e+00 -1.704144096374511719e+01 4.363870620727539062e-01 -4.502198100090026855e-02 1.174095273017883301e-01 2.551354169845581055e-01
4.226000000000000000e+03 7.428482055664062500e+01 2.000434303283691406e+01 2.106046378612518311e-01 6.546543121337890625e+00 2.027144193649291992e+00 3.501794338226318359e-01
4.227000000000000000e+03 7.091912746429443359e+00 -2.452306175231933594e+01 -5.261651054024696350e-02 6.077296733856201172e-01 1.665339469909667969e-01 6.936419606208801270e-01
4.228000000000000000e+03 5.313680648803710938e+00 -1.135536003112792969e+01 2.982235252857208252e-01 -3.196806013584136963e-01 -6.437122821807861328e-03 -4.184918105602264404e-01
4.229000000000000000e+03 6.448339843750000000e+01 -9.054093360900878906e+00 -9.109194278717041016e-01 1.947270274162292480e+00 3.109052479267120361e-01 -1.723036170005798340e+00
4.230000000000000000e+03 6.228019714355468750e+01 -8.982288360595703125e+00 -8.829797506332397461e-01 9.528130292892456055e-01 2.094997465610504150e-02 -3.013466596603393555e-01
4.231000000000000000e+03 5.379286766052246094e+00 -2.093578720092773438e+01 1.701882034540176392e-01 -1.121935155242681503e-02 4.769065603613853455e-02 5.567086935043334961e-01
4.232000000000000000e+03 5.315751075744628906e+00 -2.016279602050781250e+01 2.209596335887908936e-01 -6.843560934066772461e-02 4.575721174478530884e-02 5.158811807632446289e-01
4.233000000000000000e+03 6.092996120452880859e+00 2.785958862304687500e+01 -1.152460835874080658e-02 -5.237803608179092407e-02 -1.917079463601112366e-02 1.358967572450637817e-01
4.234000000000000000e+03 4.624211311340332031e+00 -7.076819419860839844e+00 4.453410394489765167e-03 -3.218339979648590088e-01 -9.521418064832687378e-02 -6.010776758193969727e-01
4.235000000000000000e+03 4.601473331451416016e+00 -7.692551612854003906e+00 4.292483255267143250e-02 -3.511908054351806641e-01 -9.247979521751403809e-02 -5.962141156196594238e-01
4.236000000000000000e+03 6.120405960083007812e+01 -9.021409988403320312e+00 -9.608792662620544434e-01 9.406003952026367188e-01 -6.083662621676921844e-03 1.231524124741554260e-01
4.237000000000000000e+03 5.920338630676269531e+00 2.410407066345214844e+01 -4.415393248200416565e-02 -1.838225498795509338e-02 -1.876085624098777771e-02 1.019230335950851440e-01
4.238000000000000000e+03 6.493855953216552734e+00 -2.497610282897949219e+01 -6.857114285230636597e-02 4.624955356121063232e-01 1.181773170828819275e-01 6.651427745819091797e-01
4.239000000000000000e+03 7.367385864257812500e+01 2.489128112792968750e+01 -6.345824152231216431e-02 6.666662216186523438e+00 1.980961203575134277e+00 4.397969245910644531e-01
4.240000000000000000e+03 6.486535072326660156e+00 3.368951416015625000e+01 4.082268849015235901e-02 -9.092721343040466309e-02 -1.503135822713375092e-02 1.088660955429077148e-01
4.241000000000000000e+03 6.165561676025390625e+00 3.450481796264648438e+01 3.596564382314682007e-02 -1.135477051138877869e-01 -2.327461913228034973e-02 9.555242210626602173e-02
4.242000000000000000e+03 6.614048480987548828e+00 -2.724725723266601562e+01 -1.754119843244552612e-01 5.386367440223693848e-01 1.089674308896064758e-01 5.884591937065124512e-01
4.243000000000000000e+03 3.328468704223632812e+01 -5.850481986999511719e+00 -1.976666688919067383e+00 6.083771705627441406e+00 1.232131481170654297e+00 -6.804935932159423828e-01
4.244000000000000000e+03 3.139973258972167969e+01 -4.318661689758300781e+00 2.158440351486206055e-01 3.464238405227661133e+00 1.104024648666381836e+00 6.732973456382751465e-01
4.245000000000000000e+03 7.381484222412109375e+01 2.723873710632324219e+01 -1.400915980339050293e-01 6.674255371093750000e+00 1.960249066352844238e+00 3.633986115455627441e-01
4.246000000000000000e+03 7.408451080322265625e+01 2.525752830505371094e+01 -6.985163688659667969e-02 6.656943798065185547e+00 1.976127624511718750e+00 4.273284971714019775e-01
4.247000000000000000e+03 7.359880065917968750e+01 2.817515754699707031e+01 -1.683077216148376465e-01 6.658165454864501953e+00 1.946957349777221680e+00 3.178584873676300049e-01
4.248000000000000000e+03 1.103937244415283203e+01 2.294066810607910156e+01 -1.624834686517715454e-01 7.631783187389373779e-02 -2.584968879818916321e-02 8.903817087411880493e-02
4.249000000000000000e+03 1.620857238769531250e+01 -9.045011520385742188e+00 7.506527900695800781e-01 1.646146535873413086e+00 7.190397977828979492e-01 8.151230812072753906e-01
4.250000000000000000e+03 1.141727542877197266e+01 -7.256223201751708984e+00 9.703153371810913086e-02 6.827031373977661133e-01 2.339203953742980957e-01 -3.195748925209045410e-01
4.251000000000000000e+03 4.106231307983398438e+01 -7.201577663421630859e+00 -2.161974668502807617e+00 6.981346607208251953e+00 1.445811629295349121e+00 -1.863813757896423340e+00
4.252000000000000000e+03 7.352666473388671875e+01 -3.355949783325195312e+01 -4.242493510246276855e-01 8.370316505432128906e+00 2.383820056915283203e+00 -1.190911605954170227e-01
4.253000000000000000e+03 1.680761528015136719e+01 -5.678669929504394531e+00 -7.915458083152770996e-02 8.345095515251159668e-01 2.266064882278442383e-01 7.317307591438293457e-01
4.254000000000000000e+03 5.624735641479492188e+01 -1.036286830902099609e+01 -1.030022978782653809e+00 8.703208565711975098e-01 -4.791063442826271057e-02 1.014572262763977051e+00
4.255000000000000000e+03 5.693967437744140625e+01 -1.017274475097656250e+01 -1.120233535766601562e+00 8.998445868492126465e-01 -6.611667573451995850e-02 9.237484931945800781e-01
4.256000000000000000e+03 7.260333061218261719e+00 -2.997503280639648438e+01 -2.546204030513763428e-01 6.324449181556701660e-01 1.133473441004753113e-01 4.405702650547027588e-01
4.257000000000000000e+03 3.386054229736328125e+01 -6.461031436920166016e+00 -2.538287401199340820e+00 6.689160823822021484e+00 1.245262026786804199e+00 -9.720826148986816406e-01
4.258000000000000000e+03 3.515973281860351562e+01 -7.303961753845214844e+00 -2.895880460739135742e+00 8.312584877014160156e+00 1.625011205673217773e+00 -1.119915008544921875e+00
4.259000000000000000e+03 4.439358520507812500e+01 2.047342872619628906e+01 1.521543413400650024e-01 3.231898784637451172e+00 1.015215992927551270e+00 1.627030491828918457e+00
4.260000000000000000e+03 4.801883316040039062e+01 -1.174885272979736328e+01 2.825883328914642334e-01 2.032531023025512695e+00 6.945357918739318848e-01 1.420413970947265625e+00
4.261000000000000000e+03 1.961514663696289062e+01 -7.634506225585937500e+00 5.373757481575012207e-01 8.726894855499267578e-01 4.230195879936218262e-01 1.283914685249328613e+00
4.262000000000000000e+03 1.839706802368164062e+01 -6.398110866546630859e+00 1.552400738000869751e-01 8.823052048683166504e-01 3.112635910511016846e-01 1.069461584091186523e+00
4.263000000000000000e+03 6.947908020019531250e+01 -2.832957839965820312e+01 -1.088928341865539551e+00 7.511666297912597656e+00 1.926821351051330566e+00 4.114859998226165771e-01
4.264000000000000000e+03 6.798677825927734375e+01 -2.930044364929199219e+01 -1.053933739662170410e+00 6.091902732849121094e+00 1.511390686035156250e+00 7.987663149833679199e-01
4.265000000000000000e+03 1.849123001098632812e+01 -5.682288169860839844e+00 4.186607152223587036e-02 7.729303240776062012e-01 2.444389164447784424e-01 1.055100560188293457e+00
4.266000000000000000e+03 1.940770912170410156e+01 -7.090520381927490234e+00 3.765679895877838135e-01 8.640479445457458496e-01 3.721847832202911377e-01 1.260044336318969727e+00
4.267000000000000000e+03 1.527326393127441406e+01 -6.511540412902832031e+00 2.185861207544803619e-02 9.841149449348449707e-01 3.017920553684234619e-01 4.264067411422729492e-01
4.268000000000000000e+03 1.769751167297363281e+01 -8.684947967529296875e+00 7.550052404403686523e-01 1.390192270278930664e+00 6.435592174530029297e-01 1.114008426666259766e+00
4.269000000000000000e+03 5.849234390258789062e+01 -5.681758403778076172e+00 2.500785887241363525e-01 1.738094449043273926e+00 5.964518785476684570e-01 8.498243689537048340e-01
4.270000000000000000e+03 3.633497619628906250e+01 1.329546165466308594e+01 7.492992281913757324e-01 1.030253219604492188e+01 3.315549373626708984e+00 -4.723112583160400391e-01
4.271000000000000000e+03 3.583011245727539062e+01 1.368694210052490234e+01 7.722309231758117676e-01 1.012586593627929688e+01 3.269429206848144531e+00 -8.115999698638916016e-01
4.272000000000000000e+03 3.227152252197265625e+01 -2.079792499542236328e+00 1.813455343246459961e+00 5.843854904174804688e+00 2.297193050384521484e+00 1.550749063491821289e+00
4.273000000000000000e+03 3.287218856811523438e+01 -3.923757076263427734e+00 -2.097592055797576904e-01 6.036237716674804688e+00 1.747943520545959473e+00 2.364067882299423218e-01
4.274000000000000000e+03 5.508022308349609375e+01 -7.360549926757812500e+00 -2.964543998241424561e-01 1.473726272583007812e+00 3.531815707683563232e-01 1.420923471450805664e+00
4.275000000000000000e+03 5.271310806274414062e+01 -8.575656890869140625e+00 -5.555341243743896484e-01 1.116236925125122070e+00 1.682108342647552490e-01 1.947686314582824707e+00
4.276000000000000000e+03 1.695177459716796875e+01 -8.877096176147460938e+00 7.580078840255737305e-01 1.531900763511657715e+00 6.869725584983825684e-01 9.828718304634094238e-01
4.277000000000000000e+03 6.295146942138671875e+00 7.243432044982910156e+00 1.084056100808084011e-03 -2.179845934733748436e-03 -3.287369618192315102e-04 -9.533630800433456898e-04
4.278000000000000000e+03 1.896450996398925781e+01 -7.761867046356201172e+00 5.396655201911926270e-01 9.967101812362670898e-01 4.609127044677734375e-01 1.243427634239196777e+00
4.279000000000000000e+03 6.393455505371093750e+01 -8.371130943298339844e+00 -6.365175843238830566e-01 1.851845383644104004e+00 3.645983338356018066e-01 -1.249257087707519531e+00
4.280000000000000000e+03 4.198652267456054688e+01 1.813260650634765625e+01 4.815428256988525391e-01 4.720349311828613281e+00 1.560567617416381836e+00 1.785980463027954102e+00
4.281000000000000000e+03 4.027647018432617188e+01 1.719703483581542969e+01 4.630148410797119141e-01 6.096536159515380859e+00 1.967865347862243652e+00 1.557939052581787109e+00
4.282000000000000000e+03 7.965825080871582031e+00 6.378171920776367188e+00 1.313734217546880245e-03 -1.861633616499602795e-03 -1.643698051339015365e-04 -6.092544208513572812e-05
4.283000000000000000e+03 2.543568992614746094e+01 -4.292960166931152344e+00 5.991613864898681641e-01 2.124669104814529419e-01 2.434884905815124512e-01 1.789590477943420410e+00
4.284000000000000000e+03 6.249612045288085938e+01 1.218303561210632324e+00 4.976556599140167236e-01 4.903865337371826172e+00 1.620456337928771973e+00 5.463082790374755859e-01
4.285000000000000000e+03 3.541101074218750000e+01 -1.551434755325317383e+00 9.040825963020324707e-01 9.902008056640625000e+00 3.241827249526977539e+00 -1.869986355304718018e-01
4.286000000000000000e+03 3.454216766357421875e+01 -1.224070668220520020e+00 1.432159423828125000e+00 9.412651062011718750e+00 3.253443002700805664e+00 4.928963184356689453e-01
4.287000000000000000e+03 5.127393341064453125e+01 -9.237478256225585938e+00 -3.881584405899047852e-01 8.318423628807067871e-01 1.331051737070083618e-01 2.063254117965698242e+00
4.288000000000000000e+03 5.318356704711914062e+01 -1.140913295745849609e+01 -4.976622760295867920e-01 6.160766482353210449e-01 3.552430868148803711e-02 1.468266963958740234e+00
4.289000000000000000e+03 4.124287796020507812e+01 1.864430809020996094e+01 3.151041567325592041e-01 5.163983821868896484e+00 1.643726468086242676e+00 1.646633863449096680e+00
4.290000000000000000e+03 4.888468933105468750e+01 -9.597152709960937500e+00 -1.588235348463058472e-01 1.034838199615478516e+00 2.628043889999389648e-01 1.627971291542053223e+00
4.291000000000000000e+03 3.779755401611328125e+01 1.392196083068847656e+01 7.062816023826599121e-01 9.382136344909667969e+00 3.026525259017944336e+00 5.197545289993286133e-01
4.292000000000000000e+03 6.729647064208984375e+01 1.639711761474609375e+01 1.149077057838439941e+00 7.928973197937011719e+00 2.723415136337280273e+00 -2.310542017221450806e-01
4.293000000000000000e+03 4.184295654296875000e+01 -1.816583442687988281e+01 1.652571082115173340e+00 8.303089141845703125e+00 2.986698150634765625e+00 -8.632274270057678223e-01
4.294000000000000000e+03 3.954569244384765625e+01 -1.787331390380859375e+01 1.483120799064636230e+00 8.737091064453125000e+00 3.066063642501831055e+00 -1.218550324440002441e+00
4.295000000000000000e+03 6.378927230834960938e+01 1.747043848037719727e+00 3.735005259513854980e-01 5.510866165161132812e+00 1.765309929847717285e+00 1.320533454418182373e-01
4.296000000000000000e+03 1.389501571655273438e+01 -1.176932621002197266e+01 1.346211314201354980e+00 2.179397344589233398e+00 1.057682514190673828e+00 5.240668058395385742e-01
4.297000000000000000e+03 7.788556575775146484e+00 6.951129913330078125e+00 1.217799843288958073e-03 -2.111936919391155243e-03 -2.682411577552556992e-04 -2.165613841498270631e-04
4.298000000000000000e+03 4.182875061035156250e+01 1.936819458007812500e+01 2.360271215438842773e-01 4.716485977172851562e+00 1.485753893852233887e+00 1.664269924163818359e+00
4.299000000000000000e+03 3.495749282836914062e+01 1.707037353515625000e+01 7.452941536903381348e-01 8.299875259399414062e+00 2.713550567626953125e+00 -9.382256269454956055e-01
4.300000000000000000e+03 2.412409782409667969e+01 -4.939942359924316406e+00 2.695966660976409912e-01 3.464307785034179688e-01 1.848082244396209717e-01 1.633712410926818848e+00
4.301000000000000000e+03 4.586672592163085938e+01 -9.074480056762695312e+00 -5.476304888725280762e-01 2.278507947921752930e+00 5.192632079124450684e-01 2.065039277076721191e-01
4.302000000000000000e+03 2.119971275329589844e+01 -5.291304588317871094e+00 1.773111671209335327e-01 5.399806499481201172e-01 2.151875346899032593e-01 1.345056533813476562e+00
4.303000000000000000e+03 3.942930221557617188e+01 -1.871945190429687500e+01 1.549977302551269531e+00 8.800095558166503906e+00 3.105021715164184570e+00 -1.100373387336730957e+00
4.304000000000000000e+03 1.029094600677490234e+01 6.768712043762207031e+00 9.533534175716340542e-04 -1.396646024659276009e-03 -1.329877995885908604e-04 1.255775685422122478e-03
4.305000000000000000e+03 1.135551166534423828e+01 1.067364025115966797e+01 2.504857257008552551e-04 -2.152269007638096809e-03 -5.705349612981081009e-04 2.922861138358712196e-03
4.306000000000000000e+03 2.848367500305175781e+01 -3.774329900741577148e+00 1.289011240005493164e+00 6.682955622673034668e-01 5.871920585632324219e-01 1.890913486480712891e+00
4.307000000000000000e+03 1.176487255096435547e+01 9.606633186340332031e+00 2.010874304687604308e-04 -1.303601427935063839e-03 -3.307542065158486366e-04 2.835152903571724892e-03
4.308000000000000000e+03 4.267475509643554688e+01 -1.771331787109375000e+01 1.578465700149536133e+00 8.134854316711425781e+00 2.913995981216430664e+00 -6.047211885452270508e-01
4.309000000000000000e+03 4.323222351074218750e+01 -1.640102005004882812e+01 1.160744309425354004e+00 7.549213409423828125e+00 2.612987279891967773e+00 -3.553731739521026611e-01
4.310000000000000000e+03 3.838220977783203125e+01 -1.077101325988769531e+01 -1.187884330749511719e+00 8.604797363281250000e+00 2.225074052810668945e+00 -9.843808412551879883e-01
4.311000000000000000e+03 5.931102752685546875e+01 -4.942499637603759766e+00 4.200696647167205811e-01 1.991455197334289551e+00 7.234574556350708008e-01 7.191243171691894531e-01
4.312000000000000000e+03 1.144537448883056641e+01 1.132435894012451172e+01 -6.870823563076555729e-04 -2.807226963341236115e-03 -1.048292731866240501e-03 2.643495332449674606e-03
4.313000000000000000e+03 1.149473571777343750e+01 1.208686733245849609e+01 -7.961259107105433941e-04 -3.087386721745133400e-03 -1.165053807199001312e-03 2.361811231821775436e-03
4.314000000000000000e+03 4.167571258544921875e+01 -2.224691009521484375e+01 1.870441198348999023e+00 8.745677947998046875e+00 3.184835672378540039e+00 -9.944636821746826172e-01
4.315000000000000000e+03 4.012953948974609375e+01 -2.211493301391601562e+01 1.848886370658874512e+00 8.370222091674804688e+00 3.065732479095458984e+00 -8.071790933609008789e-01
4.316000000000000000e+03 6.703853607177734375e+01 1.029115772247314453e+01 8.416807055473327637e-01 7.865253925323486328e+00 2.612080335617065430e+00 -3.798773288726806641e-01
4.317000000000000000e+03 2.154501724243164062e+01 -5.976990222930908203e+00 1.929277032613754272e-01 5.898514986038208008e-01 2.348337471485137939e-01 1.390937566757202148e+00
4.318000000000000000e+03 5.439307403564453125e+01 -9.305695533752441406e+00 -6.651050448417663574e-01 1.089604735374450684e+00 1.273498982191085815e-01 1.560787439346313477e+00
4.319000000000000000e+03 5.150672912597656250e+01 2.460535430908203125e+01 -3.938741236925125122e-02 1.070024609565734863e+00 3.091911673545837402e-01 7.782770991325378418e-01
4.320000000000000000e+03 5.205300903320312500e+01 2.382316970825195312e+01 -2.457554936408996582e-01 7.472210526466369629e-01 1.504396647214889526e-01 6.541708111763000488e-01
4.321000000000000000e+03 6.551962280273437500e+01 -9.151546478271484375e+00 -1.165299057960510254e+00 3.174489498138427734e+00 6.027571558952331543e-01 -2.234521627426147461e+00
4.322000000000000000e+03 1.074506282806396484e+01 1.205364322662353516e+01 -1.816110103391110897e-03 -4.786842502653598785e-03 -1.980885863304138184e-03 1.634213957004249096e-03
4.323000000000000000e+03 2.201901817321777344e+01 -5.048511505126953125e+00 1.720369309186935425e-01 4.822250902652740479e-01 1.962786018848419189e-01 1.419215559959411621e+00
4.324000000000000000e+03 7.004972076416015625e+01 -2.743977737426757812e+01 -1.040204286575317383e+00 8.270081520080566406e+00 2.168962955474853516e+00 1.656301915645599365e-01
4.325000000000000000e+03 2.822080039978027344e+01 -4.396746635437011719e+00 8.629434108734130859e-01 5.169804692268371582e-01 4.139771759510040283e-01 1.961059331893920898e+00
4.326000000000000000e+03 1.085439586639404297e+01 1.906275939941406250e+01 -1.009415313601493835e-01 2.681270055472850800e-02 -2.223864942789077759e-02 -8.554971776902675629e-03
4.327000000000000000e+03 6.158160686492919922e+00 1.991866493225097656e+01 -4.871765151619911194e-02 3.694227430969476700e-03 -1.350702717900276184e-02 4.173197969794273376e-02
4.328000000000000000e+03 6.694179534912109375e+01 1.204106712341308594e+01 9.444289803504943848e-01 8.115139961242675781e+00 2.717870712280273438e+00 -3.478354811668395996e-01
4.329000000000000000e+03 2.511970329284667969e+01 2.707823944091796875e+01 1.626377850770950317e-01 1.496849536895751953e+00 4.978461861610412598e-01 -1.027391791343688965e+00
4.330000000000000000e+03 1.083484268188476562e+01 2.091732406616210938e+01 -1.487496346235275269e-01 5.897798389196395874e-02 -2.693149633705615997e-02 2.822728827595710754e-02
4.331000000000000000e+03 3.530998992919921875e+01 1.854043388366699219e+01 5.386261343955993652e-01 7.495349407196044922e+00 2.410192728042602539e+00 -4.993064403533935547e-01
4.332000000000000000e+03 3.459132003784179688e+01 1.845578765869140625e+01 6.874896287918090820e-01 7.607065200805664062e+00 2.488366365432739258e+00 -8.099985122680664062e-01
4.333000000000000000e+03 6.862731933593750000e+01 -9.120399475097656250e+00 -1.789519071578979492e+00 7.164611339569091797e+00 1.612527728080749512e+00 -1.853715181350708008e+00
4.334000000000000000e+03 6.812589263916015625e+01 -1.018122386932373047e+01 -1.967806458473205566e+00 7.094433307647705078e+00 1.537988066673278809e+00 -2.134082317352294922e+00
4.335000000000000000e+03 1.328105831146240234e+01 -2.811733245849609375e+01 -5.317523479461669922e-01 1.227059602737426758e+00 2.085921764373779297e-01 1.368534117937088013e-01
4.336000000000000000e+03 6.583044433593750000e+01 6.367869377136230469e+00 6.049625873565673828e-01 7.224344730377197266e+00 2.348792076110839844e+00 -2.270245999097824097e-01
4.337000000000000000e+03 9.956466674804687500e+00 1.654611015319824219e+01 -3.725982084870338440e-02 8.067116141319274902e-04 -1.093593239784240723e-02 -6.826500408351421356e-03
4.338000000000000000e+03 4.040537261962890625e+01 -1.717676925659179688e+01 1.413104057312011719e+00 8.346920013427734375e+00 2.928007364273071289e+00 -1.154273271560668945e+00
4.339000000000000000e+03 4.033552169799804688e+01 -7.070096969604492188e+00 -2.382183074951171875e+00 7.793398380279541016e+00 1.623364686965942383e+00 -1.851645469665527344e+00
4.340000000000000000e+03 3.937799835205078125e+01 1.586797523498535156e+01 5.837622880935668945e-01 7.266980648040771484e+00 2.355222940444946289e+00 1.340193152427673340e+00
4.341000000000000000e+03 7.191631317138671875e+01 -2.274197769165039062e+01 6.271679997444152832e-01 1.035190773010253906e+01 3.293722867965698242e+00 -8.749155998229980469e-01
4.342000000000000000e+03 7.299045562744140625e+01 -2.310646438598632812e+01 4.261244833469390869e-01 9.850312232971191406e+00 3.082930803298950195e+00 -1.121675729751586914e+00
4.343000000000000000e+03 3.990655899047851562e+01 -4.808547496795654297e+00 -2.070002794265747070e+00 8.920584678649902344e+00 2.055174589157104492e+00 -2.156076908111572266e+00
4.344000000000000000e+03 5.817333984375000000e+01 -9.025959014892578125e+00 -8.745408654212951660e-01 1.077654957771301270e+00 6.093421205878257751e-02 8.299834728240966797e-01
4.345000000000000000e+03 4.033941650390625000e+01 -2.405873107910156250e+01 1.733525514602661133e+00 7.992128372192382812e+00 2.917696237564086914e+00 -6.552760601043701172e-01
4.346000000000000000e+03 7.383104705810546875e+01 -1.401760768890380859e+01 3.015424907207489014e-01 9.508600234985351562e+00 2.943042755126953125e+00 9.242433905601501465e-01
4.347000000000000000e+03 6.606144714355468750e+01 7.197781085968017578e+00 6.639065742492675781e-01 7.433990478515625000e+00 2.429368972778320312e+00 -2.639046311378479004e-01
4.348000000000000000e+03 4.634978485107421875e+01 -1.175623989105224609e+01 1.250598281621932983e-01 3.267723560333251953e+00 1.017835021018981934e+00 8.598166704177856445e-01
4.349000000000000000e+03 4.504756546020507812e+01 -8.605444908142089844e+00 -8.032004237174987793e-01 2.831132173538208008e+00 6.083794832229614258e-01 -2.625667452812194824e-01
4.350000000000000000e+03 6.600741577148437500e+01 9.267351150512695312e+00 7.998143434524536133e-01 7.954612731933593750e+00 2.626328229904174805e+00 -2.037437856197357178e-01
4.351000000000000000e+03 7.341742706298828125e+01 7.953743457794189453e+00 2.991949021816253662e-01 6.884750366210937500e+00 2.155183553695678711e+00 -8.084634542465209961e-01
4.352000000000000000e+03 2.813339805603027344e+01 2.653780937194824219e+01 -1.108620539307594299e-01 2.930148839950561523e+00 8.457859754562377930e-01 -1.268069863319396973e+00
4.353000000000000000e+03 1.270211219787597656e+01 -2.432517814636230469e+01 -2.505177855491638184e-01 1.787019729614257812e+00 4.609505832195281982e-01 3.042725324630737305e-01
4.354000000000000000e+03 5.233842468261718750e+01 2.499587249755859375e+01 5.389997363090515137e-02 9.827179908752441406e-01 3.109853863716125488e-01 6.061035394668579102e-01
4.355000000000000000e+03 2.687854957580566406e+01 2.760099983215332031e+01 -4.520538821816444397e-02 2.310700178146362305e+00 6.796484589576721191e-01 -1.164286375045776367e+00
4.356000000000000000e+03 4.173249435424804688e+01 -1.629240036010742188e+01 1.203202009201049805e+00 7.857282161712646484e+00 2.718145370483398438e+00 -8.861676454544067383e-01
4.357000000000000000e+03 3.945481491088867188e+01 -1.548795509338378906e+01 1.073290586471557617e+00 8.466171264648437500e+00 2.861838340759277344e+00 -1.291899442672729492e+00
4.358000000000000000e+03 3.926145172119140625e+01 1.683408355712890625e+01 4.354755580425262451e-01 6.863711833953857422e+00 2.189756155014038086e+00 1.231156229972839355e+00
4.359000000000000000e+03 2.353991317749023438e+01 -4.713135242462158203e+00 2.935587763786315918e-01 3.642962574958801270e-01 1.973565220832824707e-01 1.581944704055786133e+00
4.360000000000000000e+03 5.888579177856445312e+01 -2.932156085968017578e+00 8.996156454086303711e-01 2.356667041778564453e+00 9.768847823143005371e-01 1.010677695274353027e+00
4.361000000000000000e+03 5.925440597534179688e+01 -3.219796895980834961e+00 7.869307994842529297e-01 2.361253738403320312e+00 9.444553852081298828e-01 8.773582577705383301e-01
4.362000000000000000e+03 2.279164314270019531e+01 -4.843040466308593750e+00 2.653799653053283691e-01 3.917635381221771240e-01 1.971430480480194092e-01 1.480466365814208984e+00
4.363000000000000000e+03 7.265551757812500000e+01 2.119202041625976562e+01 1.976539343595504761e-01 6.742874145507812500e+00 2.082158565521240234e+00 4.346707761287689209e-01
4.364000000000000000e+03 2.820176315307617188e+01 2.774933242797851562e+01 -2.066810578107833862e-01 2.855696439743041992e+00 7.947045564651489258e-01 -1.099905133247375488e+00
4.365000000000000000e+03 6.473392486572265625e+01 2.404412508010864258e+00 3.335119187831878662e-01 5.980767250061035156e+00 1.894283771514892578e+00 -1.433766037225723267e-01
4.366000000000000000e+03 1.816127204895019531e+01 2.801680183410644531e+01 1.142928972840309143e-01 2.541225850582122803e-01 1.105246469378471375e-01 -9.293246269226074219e-02
4.367000000000000000e+03 3.831027221679687500e+01 1.460652256011962891e+01 6.437664628028869629e-01 8.636618614196777344e+00 2.784115552902221680e+00 8.814246654510498047e-01
4.368000000000000000e+03 3.571253585815429688e+01 1.493427467346191406e+01 7.148009538650512695e-01 9.410262107849121094e+00 3.037518978118896484e+00 -8.165200352668762207e-01
4.369000000000000000e+03 6.676478576660156250e+01 8.830052375793457031e+00 7.625517249107360840e-01 7.696901798248291016e+00 2.537836074829101562e+00 -3.751559555530548096e-01
4.370000000000000000e+03 1.279280948638916016e+01 2.361253547668457031e+01 -2.040090262889862061e-01 8.763142675161361694e-02 -3.491327539086341858e-02 1.023765355348587036e-01
4.371000000000000000e+03 1.397721004486083984e+01 2.459829902648925781e+01 -1.841998100280761719e-01 8.845426887273788452e-02 -2.872366458177566528e-02 1.231756582856178284e-01
4.372000000000000000e+03 7.393082427978515625e+01 -3.129604339599609375e+01 -5.546910166740417480e-01 8.724212646484375000e+00 2.450856685638427734e+00 -3.676656782627105713e-01
4.373000000000000000e+03 7.294854736328125000e+01 -3.519175720214843750e+01 -3.086983561515808105e-01 7.970534324645996094e+00 2.298550844192504883e+00 3.595163673162460327e-02
4.374000000000000000e+03 3.820715332031250000e+01 -3.041763305664062500e+01 -4.570905864238739014e-01 6.022681713104248047e+00 1.669677376747131348e+00 6.138173341751098633e-01
4.375000000000000000e+03 3.717935180664062500e+01 -3.164828681945800781e+01 -7.077329754829406738e-01 5.404825210571289062e+00 1.409127712249755859e+00 8.126784563064575195e-01
4.376000000000000000e+03 6.737174224853515625e+01 9.440625190734863281e+00 7.886303067207336426e-01 7.661646842956542969e+00 2.535083055496215820e+00 -4.573897719383239746e-01
4.377000000000000000e+03 6.023441314697265625e+01 -4.293097972869873047e+00 4.961357116699218750e-01 2.318591117858886719e+00 8.444181084632873535e-01 5.224142074584960938e-01
4.378000000000000000e+03 6.093013000488281250e+01 -3.369295358657836914e+00 5.619465708732604980e-01 2.763657093048095703e+00 9.976810812950134277e-01 4.260330200195312500e-01
4.379000000000000000e+03 1.521864604949951172e+01 -3.150288772583007812e+01 -5.563768148422241211e-01 8.663676977157592773e-01 9.299727529287338257e-02 -8.097075670957565308e-02
4.380000000000000000e+03 5.947645187377929688e+01 -4.193508625030517578e+00 5.936396718025207520e-01 2.193195343017578125e+00 8.360505104064941406e-01 7.363500595092773438e-01
4.381000000000000000e+03 5.971927261352539062e+01 -3.496085643768310547e+00 6.821581125259399414e-01 2.389265060424804688e+00 9.214269518852233887e-01 7.353358864784240723e-01
4.382000000000000000e+03 1.311528205871582031e+01 2.523814392089843750e+01 -1.354180574417114258e-01 9.719711542129516602e-02 -1.146628335118293762e-02 1.379260271787643433e-01
4.383000000000000000e+03 3.992325210571289062e+01 -1.439576148986816406e+01 6.994621157646179199e-01 8.083859443664550781e+00 2.634996414184570312e+00 -1.118706107139587402e+00
4.384000000000000000e+03 1.905179977416992188e+01 2.812329673767089844e+01 1.407124698162078857e-01 3.491127490997314453e-01 1.469475626945495605e-01 -1.832373887300491333e-01
4.385000000000000000e+03 3.790002059936523438e+01 -4.208938121795654297e+00 -1.657105684280395508e+00 9.922606468200683594e+00 2.479650259017944336e+00 -1.374694108963012695e+00
4.386000000000000000e+03 3.666051864624023438e+01 -3.724070072174072266e+00 -1.171170711517333984e+00 9.761376380920410156e+00 2.577061653137207031e+00 -9.678985476493835449e-01
4.387000000000000000e+03 6.450798797607421875e+01 4.737185001373291016e+00 5.367540717124938965e-01 6.702670097351074219e+00 2.171827316284179688e+00 8.508325368165969849e-02
4.388000000000000000e+03 3.620100402832031250e+01 1.431453037261962891e+01 6.951386928558349609e-01 9.694200515747070312e+00 3.116801738739013672e+00 -5.521128177642822266e-01
4.389000000000000000e+03 7.261724853515625000e+01 -1.501464366912841797e+01 9.441431760787963867e-01 1.019993114471435547e+01 3.343222379684448242e+00 7.663174271583557129e-01
4.390000000000000000e+03 7.199047851562500000e+01 -1.466272735595703125e+01 7.412040829658508301e-01 1.054929733276367188e+01 3.387150287628173828e+00 6.838608980178833008e-01
4.391000000000000000e+03 5.916437149047851562e+00 -1.623286437988281250e+01 4.630822837352752686e-01 -8.319292217493057251e-02 1.139668077230453491e-01 1.649039834737777710e-01
4.392000000000000000e+03 7.055995941162109375e+01 -2.672486495971679688e+01 -9.084624052047729492e-01 8.793430328369140625e+00 2.365490436553955078e+00 -1.080982238054275513e-01
4.393000000000000000e+03 4.233346557617187500e+01 -1.114941883087158203e+01 -6.434772610664367676e-01 6.210107326507568359e+00 1.669989109039306641e+00 -7.641352415084838867e-01
4.394000000000000000e+03 3.530084991455078125e+01 1.925287437438964844e+01 4.643089473247528076e-01 7.189891815185546875e+00 2.296260356903076172e+00 -3.730970323085784912e-01
4.395000000000000000e+03 3.430178070068359375e+01 2.006800651550292969e+01 4.996273219585418701e-01 6.914677143096923828e+00 2.224291324615478516e+00 -6.287006735801696777e-01
4.396000000000000000e+03 6.020817184448242188e+01 -2.155851602554321289e+00 7.927059531211853027e-01 2.895102024078369141e+00 1.106342434883117676e+00 8.181525468826293945e-01
4.397000000000000000e+03 3.946543502807617188e+01 -1.950066184997558594e+01 1.650653839111328125e+00 8.775649070739746094e+00 3.127890825271606445e+00 -9.871470928192138672e-01
4.398000000000000000e+03 7.261867523193359375e+01 -1.967057228088378906e+01 1.648397207260131836e+00 1.051078319549560547e+01 3.647753953933715820e+00 -5.429962277412414551e-01
4.399000000000000000e+03 4.293421173095703125e+01 2.149617767333984375e+01 -2.676326036453247070e-02 3.991506814956665039e+00 1.189423084259033203e+00 1.636361479759216309e+00
4.400000000000000000e+03 4.547932815551757812e+01 2.275725746154785156e+01 -9.106758236885070801e-02 2.882040739059448242e+00 8.372918963432312012e-01 1.552947282791137695e+00
4.401000000000000000e+03 1.444087600708007812e+01 -9.658298492431640625e+00 7.975706458091735840e-01 1.717540860176086426e+00 7.545334696769714355e-01 3.868459761142730713e-01
4.402000000000000000e+03 1.647177314758300781e+01 -7.603875637054443359e+00 3.369857072830200195e-01 1.271176099777221680e+00 4.824485480785369873e-01 7.713214755058288574e-01
4.403000000000000000e+03 3.974650192260742188e+01 -2.454827117919921875e+01 1.541568875312805176e+00 7.721473217010498047e+00 2.778912544250488281e+00 -3.998543918132781982e-01
4.404000000000000000e+03 4.168851089477539062e+01 -8.010192871093750000e+00 -1.812062382698059082e+00 6.291859149932861328e+00 1.343938946723937988e+00 -1.610210061073303223e+00
4.405000000000000000e+03 3.431259155273437500e+01 2.220359802246093750e+01 -3.196683898568153381e-02 6.164821624755859375e+00 1.839856505393981934e+00 -2.675424218177795410e-01
4.406000000000000000e+03 1.745703697204589844e+01 -7.995035648345947266e+00 5.032283067703247070e-01 1.284341454505920410e+00 5.362709164619445801e-01 1.024932742118835449e+00
4.407000000000000000e+03 1.608413314819335938e+01 -6.370081424713134766e+00 2.253850549459457397e-02 9.737973213195800781e-01 2.989007532596588135e-01 6.157068014144897461e-01
4.408000000000000000e+03 6.417371368408203125e+01 2.863350629806518555e+00 4.041569530963897705e-01 5.977779388427734375e+00 1.914580821990966797e+00 8.172991126775741577e-02
4.409000000000000000e+03 7.376913452148437500e+01 -2.156023216247558594e+01 9.089642167091369629e-01 9.649962425231933594e+00 3.167677879333496094e+00 -1.034811973571777344e+00
4.410000000000000000e+03 4.539529800415039062e+01 2.373915672302246094e+01 -1.183385625481605530e-01 2.959183692932128906e+00 8.522535562515258789e-01 1.533246159553527832e+00
4.411000000000000000e+03 1.234605121612548828e+01 6.172320842742919922e+00 2.783871314022690058e-04 -1.749161456245929003e-04 3.104129791609011590e-05 1.559830503538250923e-03
4.412000000000000000e+03 7.470187377929687500e+01 -1.741120719909667969e+01 1.137402892112731934e+00 9.089012145996093750e+00 3.067924499511718750e+00 1.981963366270065308e-01
4.413000000000000000e+03 3.791718673706054688e+01 -2.811235618591308594e+01 1.888495385646820068e-01 6.462804317474365234e+00 1.995496034622192383e+00 5.039007067680358887e-01
4.414000000000000000e+03 1.041303062438964844e+01 -1.946105003356933594e+01 6.098120808601379395e-01 1.678073167800903320e+00 6.863656044006347656e-01 6.230853796005249023e-01
4.415000000000000000e+03 1.068610191345214844e+01 -2.204982948303222656e+01 2.128434479236602783e-01 1.618774294853210449e+00 5.494853258132934570e-01 6.532585620880126953e-01
4.416000000000000000e+03 1.728930473327636719e+01 2.835457611083984375e+01 1.073089465498924255e-01 2.323754876852035522e-01 1.019053310155868530e-01 -5.298097431659698486e-02
4.417000000000000000e+03 1.680828666687011719e+01 2.739647483825683594e+01 4.457557946443557739e-02 1.770212203264236450e-01 6.647904217243194580e-02 4.578995518386363983e-03
4.418000000000000000e+03 6.582566070556640625e+01 4.681086540222167969e+00 4.546305239200592041e-01 6.779853343963623047e+00 2.170345067977905273e+00 -3.092414438724517822e-01
4.419000000000000000e+03 1.106516838073730469e+01 6.749151706695556641e+00 4.706804757006466389e-04 -1.073561492376029491e-03 -1.808643137337639928e-04 1.538960495963692665e-03
4.420000000000000000e+03 4.177504348754882812e+01 -7.329019069671630859e+00 -1.933330297470092773e+00 6.131783962249755859e+00 1.259536147117614746e+00 -1.806847572326660156e+00
4.421000000000000000e+03 6.693852233886718750e+01 1.280720329284667969e+01 9.958909153938293457e-01 8.200590133666992188e+00 2.758944511413574219e+00 -3.647109568119049072e-01
4.422000000000000000e+03 6.623175048828125000e+01 1.356539630889892578e+01 1.017517566680908203e+00 8.564529418945312500e+00 2.874614238739013672e+00 -3.556428551673889160e-01
4.423000000000000000e+03 3.839988327026367188e+01 -5.146590709686279297e+00 -2.272816181182861328e+00 9.581795692443847656e+00 2.192693710327148438e+00 -1.543287038803100586e+00
4.424000000000000000e+03 5.920040893554687500e+01 2.467867279052734375e+01 -9.983110427856445312e-02 2.863685607910156250e+00 8.291563391685485840e-01 -1.751749038696289062e+00
4.425000000000000000e+03 6.046494293212890625e+01 2.456647109985351562e+01 -4.190740883350372314e-01 4.293900966644287109e+00 1.162448048591613770e+00 -1.929761767387390137e+00
4.426000000000000000e+03 5.127756500244140625e+01 -1.094197082519531250e+01 -1.235242486000061035e-01 7.811195254325866699e-01 1.972785741090774536e-01 1.810161590576171875e+00
4.427000000000000000e+03 6.675830078125000000e+01 1.953859138488769531e+01 8.925186991691589355e-01 7.696383476257324219e+00 2.576670646667480469e+00 9.882553666830062866e-02
4.428000000000000000e+03 6.665256500244140625e+01 1.826267623901367188e+01 1.136129975318908691e+00 7.902377605438232422e+00 2.711552143096923828e+00 -6.942649930715560913e-02
4.429000000000000000e+03 4.909898376464843750e+01 2.569591903686523438e+01 6.986195594072341919e-02 1.781411886215209961e+00 5.553821325302124023e-01 1.177448153495788574e+00
4.430000000000000000e+03 4.676861572265625000e+01 2.675468254089355469e+01 7.524579414166510105e-04 2.607709407806396484e+00 7.825385332107543945e-01 1.338147640228271484e+00
4.431000000000000000e+03 3.301029586791992188e+01 -4.604156017303466797e+00 -8.486511707305908203e-01 5.987376213073730469e+00 1.541617512702941895e+00 -1.018754020333290100e-01
4.432000000000000000e+03 3.623599624633789062e+01 -1.899128317832946777e+00 5.096628665924072266e-01 1.028233623504638672e+01 3.237599849700927734e+00 -6.525164246559143066e-01
4.433000000000000000e+03 2.667587661743164062e+01 -3.032765626907348633e+00 1.391318798065185547e+00 9.639019519090652466e-02 4.463126957416534424e-01 1.702422261238098145e+00
4.434000000000000000e+03 1.231607246398925781e+01 -1.319178962707519531e+01 1.340058565139770508e+00 1.974115252494812012e+00 9.942521452903747559e-01 3.625392913818359375e-01
4.435000000000000000e+03 1.156999015808105469e+01 -1.411570835113525391e+01 1.265213727951049805e+00 1.794860005378723145e+00 9.180220961570739746e-01 3.300968706607818604e-01
4.436000000000000000e+03 1.106012058258056641e+01 1.527490520477294922e+01 -1.522570569068193436e-02 -6.371180526912212372e-03 -6.479065865278244019e-03 -6.414174102246761322e-03
4.437000000000000000e+03 1.144689559936523438e+01 1.290364170074462891e+01 -2.525171963497996330e-03 -4.117853473871946335e-03 -1.992907607927918434e-03 1.456581521779298782e-03
4.438000000000000000e+03 3.686203002929687500e+01 -3.110451698303222656e+00 -5.669631361961364746e-01 1.003649711608886719e+01 2.840860128402709961e+00 -9.444584846496582031e-01
4.439000000000000000e+03 6.386939620971679688e+01 2.364703178405761719e+01 -5.491945743560791016e-01 6.855299949645996094e+00 1.891831636428833008e+00 -7.837392091751098633e-01
4.440000000000000000e+03 6.167639923095703125e+01 2.591898155212402344e+01 -4.811573028564453125e-01 4.998051166534423828e+00 1.355068206787109375e+00 -1.435502529144287109e+00
4.441000000000000000e+03 4.379427719116210938e+01 1.993537330627441406e+01 2.539767622947692871e-01 3.528799772262573242e+00 1.134832978248596191e+00 1.677577137947082520e+00
4.442000000000000000e+03 2.297362899780273438e+01 2.885045242309570312e+01 1.796393841505050659e-01 1.056410789489746094e+00 3.708150684833526611e-01 -6.454343199729919434e-01
4.443000000000000000e+03 3.789885330200195312e+01 1.652226257324218750e+01 4.486490488052368164e-01 7.749361991882324219e+00 2.459403276443481445e+00 5.809420943260192871e-01
4.444000000000000000e+03 7.356761169433593750e+01 -2.794171524047851562e+01 -6.463734507560729980e-01 9.028018951416015625e+00 2.514493703842163086e+00 -7.927730679512023926e-01
4.445000000000000000e+03 3.971733474731445312e+01 -2.375332450866699219e+01 1.677883386611938477e+00 7.941555500030517578e+00 2.885831594467163086e+00 -5.238903164863586426e-01
4.446000000000000000e+03 4.017306137084960938e+01 -2.529299736022949219e+01 1.377853035926818848e+00 7.642604351043701172e+00 2.706137180328369141e+00 -3.918294310569763184e-01
4.447000000000000000e+03 6.394966125488281250e+00 -3.360307312011718750e+01 -1.843517422676086426e-01 5.434846282005310059e-01 1.077398732304573059e-01 2.705417275428771973e-01
4.448000000000000000e+03 1.192108058929443359e+01 -2.414282417297363281e+01 -1.891458481550216675e-01 1.690912008285522461e+00 4.505298733711242676e-01 4.564805328845977783e-01
4.449000000000000000e+03 7.921560287475585938e+00 -2.476483535766601562e+01 -8.578725904226303101e-02 8.055015802383422852e-01 2.159142941236495972e-01 6.971787214279174805e-01
4.450000000000000000e+03 8.000529289245605469e+00 -3.412244033813476562e+01 -2.452085316181182861e-01 6.300311684608459473e-01 1.154467836022377014e-01 2.327562570571899414e-01
4.451000000000000000e+03 2.972790718078613281e+01 2.759866523742675781e+01 -3.953630328178405762e-01 3.551208496093750000e+00 9.467536211013793945e-01 -9.860495924949645996e-01
4.452000000000000000e+03 7.257489013671875000e+01 3.378845214843750000e+01 -1.524982750415802002e-01 6.420740604400634766e+00 1.880472660064697266e+00 9.979353845119476318e-02
4.453000000000000000e+03 7.299044799804687500e+01 3.024875640869140625e+01 -1.999764442443847656e-01 6.583437919616699219e+00 1.915038466453552246e+00 2.186514884233474731e-01
4.454000000000000000e+03 6.217112541198730469e+00 3.612929916381835938e+01 3.661557659506797791e-02 -1.141646653413772583e-01 -2.326472848653793335e-02 7.705532014369964600e-02
4.455000000000000000e+03 5.470674037933349609e+00 3.520537185668945312e+01 3.018675930798053741e-02 -1.432068943977355957e-01 -3.390603885054588318e-02 8.191407471895217896e-02
4.456000000000000000e+03 3.964549636840820312e+01 -2.610308647155761719e+01 1.067534446716308594e+00 7.322339534759521484e+00 2.516962289810180664e+00 -1.491878926753997803e-01
4.457000000000000000e+03 4.494594192504882812e+01 2.103986358642578125e+01 5.100520327687263489e-02 2.966373443603515625e+00 9.052135944366455078e-01 1.564689755439758301e+00
4.458000000000000000e+03 4.393378829956054688e+01 2.298124694824218750e+01 -1.351991891860961914e-01 3.489448308944702148e+00 1.006274700164794922e+00 1.589979052543640137e+00
4.459000000000000000e+03 4.040917968750000000e+01 -2.660691642761230469e+01 1.043113708496093750e+00 7.463843345642089844e+00 2.552087068557739258e+00 -2.342634946107864380e-01
4.460000000000000000e+03 4.126456832885742188e+01 -2.605978393554687500e+01 1.372722148895263672e+00 7.732591629028320312e+00 2.731594085693359375e+00 -4.919852614402770996e-01
4.461000000000000000e+03 2.109210586547851562e+01 2.868753814697265625e+01 1.899391561746597290e-01 6.447542309761047363e-01 2.504080235958099365e-01 -4.137848019599914551e-01
4.462000000000000000e+03 1.368660449981689453e+01 2.615750694274902344e+01 -8.439682424068450928e-02 1.069512218236923218e-01 6.766317877918481827e-03 1.351599991321563721e-01
4.463000000000000000e+03 1.234495544433593750e+01 2.458818626403808594e+01 -1.537744700908660889e-01 9.328535199165344238e-02 -1.814673468470573425e-02 1.301681399345397949e-01
4.464000000000000000e+03 1.578606891632080078e+01 2.789599418640136719e+01 3.960454463958740234e-02 1.955357789993286133e-01 7.054209709167480469e-02 4.907975718379020691e-02
4.465000000000000000e+03 6.721693420410156250e+01 -3.182019805908203125e+01 -7.565013170242309570e-01 5.092605590820312500e+00 1.300831198692321777e+00 7.947717905044555664e-01
4.466000000000000000e+03 6.949212646484375000e+01 -3.354929351806640625e+01 -5.591013431549072266e-01 6.324782371520996094e+00 1.729704260826110840e+00 4.096183776855468750e-01
4.467000000000000000e+03 3.897275543212890625e+01 -2.462753105163574219e+01 1.403079271316528320e+00 7.584529876708984375e+00 2.696282863616943359e+00 -1.845278739929199219e-01
4.468000000000000000e+03 3.881041336059570312e+01 -2.568972587585449219e+01 1.065007448196411133e+00 7.262545585632324219e+00 2.498265981674194336e+00 8.717071264982223511e-03
4.469000000000000000e+03 6.599806976318359375e+01 -3.603173065185546875e+01 4.038121551275253296e-03 3.876255273818969727e+00 1.164088010787963867e+00 6.337916254997253418e-01
4.470000000000000000e+03 4.617601013183593750e+01 -3.606680297851562500e+01 -1.008356213569641113e+00 4.593253612518310547e+00 1.075469255447387695e+00 -1.070962190628051758e+00
4.471000000000000000e+03 3.852803039550781250e+01 -2.671287536621093750e+01 6.624684929847717285e-01 6.928659439086914062e+00 2.277338504791259766e+00 2.518290579319000244e-01
4.472000000000000000e+03 7.154044342041015625e+01 -3.852906799316406250e+01 -6.044852361083030701e-02 7.158020496368408203e+00 2.129271507263183594e+00 1.914990544319152832e-01
4.473000000000000000e+03 7.034750366210937500e+01 -3.688052749633789062e+01 -1.800410151481628418e-01 6.522419452667236328e+00 1.902713418006896973e+00 1.834678351879119873e-01
4.474000000000000000e+03 6.562010192871093750e+01 2.312048149108886719e+01 -2.598475217819213867e-01 7.264760017395019531e+00 2.101473808288574219e+00 -1.226217597723007202e-01
4.475000000000000000e+03 6.479356384277343750e+01 2.331162071228027344e+01 -4.014118909835815430e-01 7.218308925628662109e+00 2.045068979263305664e+00 -3.640548586845397949e-01
4.476000000000000000e+03 3.947523117065429688e+01 -3.121425056457519531e+01 -6.117171645164489746e-01 6.212773323059082031e+00 1.680316805839538574e+00 3.663947582244873047e-01
4.477000000000000000e+03 7.482643890380859375e+01 3.001767539978027344e+01 -1.235744878649711609e-01 6.679779052734375000e+00 1.966861248016357422e+00 2.551190257072448730e-01
4.478000000000000000e+03 7.391667175292968750e+01 3.116647529602050781e+01 -1.428295522928237915e-01 6.622642517089843750e+00 1.943943977355957031e+00 2.098764479160308838e-01
4.479000000000000000e+03 4.114921951293945312e+01 -2.784552383422851562e+01 6.320152282714843750e-01 7.320358753204345703e+00 2.385712146759033203e+00 -1.918683946132659912e-01
4.480000000000000000e+03 3.852663421630859375e+01 -3.279438018798828125e+01 -9.517002701759338379e-01 5.591737747192382812e+00 1.392011165618896484e+00 5.452740788459777832e-01
4.481000000000000000e+03 5.631472778320312500e+01 2.666543197631835938e+01 4.064527451992034912e-01 1.788611412048339844e+00 6.585192680358886719e-01 -6.126159429550170898e-01
4.482000000000000000e+03 2.738556671142578125e+01 -3.758054351806640625e+01 -1.567919105291366577e-01 1.113513827323913574e+00 2.870165705680847168e-01 3.812000155448913574e-01
4.483000000000000000e+03 5.163421249389648438e+01 -4.119209289550781250e+01 1.376841962337493896e-01 2.116174697875976562e+00 6.761576533317565918e-01 -2.464327216148376465e-01
4.484000000000000000e+03 7.318114471435546875e+01 3.253356552124023438e+01 -1.677273958921432495e-01 6.515001296997070312e+00 1.904182195663452148e+00 1.381418406963348389e-01
4.485000000000000000e+03 6.516447448730468750e+01 2.438806343078613281e+01 -5.622185468673706055e-01 6.889187335968017578e+00 1.898090720176696777e+00 -3.948240280151367188e-01
4.486000000000000000e+03 7.187584686279296875e+01 -2.975643157958984375e+01 -8.854749202728271484e-01 8.282420158386230469e+00 2.219083547592163086e+00 -2.297612130641937256e-01
4.487000000000000000e+03 7.157243728637695312e+00 4.150609207153320312e+01 6.554655730724334717e-02 -3.740178048610687256e-02 8.443432860076427460e-03 4.555149469524621964e-03
4.488000000000000000e+03 7.217887878417968750e+00 3.715797805786132812e+01 5.751480907201766968e-02 -5.577580258250236511e-02 5.217017605900764465e-04 6.217847391963005066e-02
4.489000000000000000e+03 5.013039016723632812e+01 2.543235206604003906e+01 5.576790124177932739e-02 1.541673302650451660e+00 4.792323708534240723e-01 1.050256013870239258e+00
4.490000000000000000e+03 1.615973854064941406e+01 -3.544578170776367188e+01 -3.534764349460601807e-01 6.150210499763488770e-01 7.846338301897048950e-02 -1.437288373708724976e-01
4.491000000000000000e+03 3.284618377685546875e+01 2.326519966125488281e+01 -1.474237889051437378e-01 5.675247669219970703e+00 1.658347129821777344e+00 -5.945710539817810059e-01
4.492000000000000000e+03 3.256690216064453125e+01 2.500506782531738281e+01 -4.521625339984893799e-01 5.048699378967285156e+00 1.378961086273193359e+00 -5.967197418212890625e-01
4.493000000000000000e+03 4.407429122924804688e+01 -3.307475280761718750e+01 -1.009771466255187988e+00 5.971493721008300781e+00 1.488516688346862793e+00 -7.823398709297180176e-01
4.494000000000000000e+03 1.381254959106445312e+01 -2.987448883056640625e+01 -5.564458966255187988e-01 1.050832867622375488e+00 1.483160853385925293e-01 5.873846262693405151e-02
4.495000000000000000e+03 7.296282958984375000e+01 -3.155222511291503906e+01 -6.550915241241455078e-01 8.387689590454101562e+00 2.319779396057128906e+00 -2.462312877178192139e-01
4.496000000000000000e+03 6.620488739013671875e+01 -3.843252944946289062e+01 3.075552284717559814e-01 4.063855171203613281e+00 1.311423182487487793e+00 4.035559296607971191e-01
4.497000000000000000e+03 5.582027816772460938e+01 -3.789786148071289062e+01 6.567113995552062988e-01 8.943488001823425293e-01 4.653180539608001709e-01 -4.850617051124572754e-01
4.498000000000000000e+03 3.308384323120117188e+01 -4.074001312255859375e+01 -8.344197273254394531e-01 3.165618419647216797e+00 6.993595957756042480e-01 2.371032536029815674e-01
4.499000000000000000e+03 5.229669952392578125e+01 -9.608819961547851562e+00 -4.334612786769866943e-01 9.042982459068298340e-01 1.412511020898818970e-01 1.945912957191467285e+00
4.500000000000000000e+03 5.355759429931640625e+01 -1.037460136413574219e+01 -5.702103972434997559e-01 8.206638097763061523e-01 7.513602823019027710e-02 1.607339382171630859e+00
4.501000000000000000e+03 4.014944458007812500e+01 -1.518386840820312500e+01 9.143532514572143555e-01 8.085394859313964844e+00 2.699924468994140625e+00 -1.155675172805786133e+00
4.502000000000000000e+03 3.677455520629882812e+01 1.381194782257080078e+01 7.009435296058654785e-01 9.894850730895996094e+00 3.178738117218017578e+00 -1.624507308006286621e-01
4.503000000000000000e+03 9.583065032958984375e+00 6.870461463928222656e+00 9.447085903957486153e-04 -2.081308513879776001e-03 -3.409799537621438503e-04 9.658123599365353584e-04
4.504000000000000000e+03 1.145030879974365234e+01 1.013642978668212891e+01 -2.046873851213604212e-04 -1.618074136786162853e-03 -5.468284361995756626e-04 2.454200061038136482e-03
4.505000000000000000e+03 6.792861938476562500e+01 -8.963320732116699219e+00 -1.685270309448242188e+00 6.450455665588378906e+00 1.429555535316467285e+00 -2.126882314682006836e+00
4.506000000000000000e+03 5.930752182006835938e+01 -9.143455505371093750e+00 -9.726443290710449219e-01 1.007949948310852051e+00 1.059167180210351944e-02 6.344054937362670898e-01
4.507000000000000000e+03 5.875304412841796875e+01 -6.869853019714355469e+00 -1.149291470646858215e-01 1.503805398941040039e+00 4.166628718376159668e-01 7.834999561309814453e-01
4.508000000000000000e+03 6.928486347198486328e+00 -1.542359924316406250e+01 6.045886278152465820e-01 1.837561726570129395e-01 2.365034371614456177e-01 9.846052527427673340e-02
4.509000000000000000e+03 7.472636699676513672e+00 -1.588619136810302734e+01 6.632528901100158691e-01 3.828561604022979736e-01 3.138327300548553467e-01 1.855838894844055176e-01
4.510000000000000000e+03 4.048289489746093750e+01 -1.647653961181640625e+01 1.292735338211059570e+00 8.238699913024902344e+00 2.859430551528930664e+00 -1.138722777366638184e+00
4.511000000000000000e+03 4.196298217773437500e+01 -1.742921447753906250e+01 1.494235515594482422e+00 8.093857765197753906e+00 2.876428127288818359e+00 -8.521665930747985840e-01
4.512000000000000000e+03 3.607227706909179688e+01 1.597025489807128906e+01 6.357216238975524902e-01 8.721263885498046875e+00 2.807095527648925781e+00 -4.710980653762817383e-01
4.513000000000000000e+03 3.985396194458007812e+01 1.650515174865722656e+01 5.426470637321472168e-01 6.628089904785156250e+00 2.151221036911010742e+00 1.484399318695068359e+00
4.514000000000000000e+03 7.331196594238281250e+01 -2.003348731994628906e+01 1.403939127922058105e+00 9.971692085266113281e+00 3.412689208984375000e+00 -6.303517222404479980e-01
4.515000000000000000e+03 6.656043243408203125e+01 2.212532997131347656e+01 3.449716791510581970e-02 7.345023155212402344e+00 2.213856220245361328e+00 1.286597996950149536e-01
4.516000000000000000e+03 6.641818237304687500e+01 -9.095648765563964844e+00 -1.430133461952209473e+00 4.530785560607910156e+00 9.301955699920654297e-01 -2.367501020431518555e+00
4.517000000000000000e+03 6.506070709228515625e+01 -8.564744949340820312e+00 -9.242463707923889160e-01 2.782427787780761719e+00 5.574544072151184082e-01 -1.893970012664794922e+00
4.518000000000000000e+03 7.172556400299072266e+00 3.024755859375000000e+01 1.850386336445808411e-02 -3.656586632132530212e-02 -5.418600980192422867e-03 1.430503576993942261e-01
4.519000000000000000e+03 7.028173065185546875e+01 -2.862194633483886719e+01 -1.062161922454833984e+00 7.914112567901611328e+00 2.055585145950317383e+00 1.347885727882385254e-01
4.520000000000000000e+03 6.173635005950927734e+00 -2.840096282958984375e+01 -1.834693551063537598e-01 4.866142570972442627e-01 9.094347059726715088e-02 5.247875452041625977e-01
4.521000000000000000e+03 6.449780273437500000e+01 -5.628599524497985840e-01 2.398586869239807129e-01 4.985984325408935547e+00 1.567752957344055176e+00 -3.245623111724853516e-01
4.522000000000000000e+03 6.080203247070312500e+01 -2.416247367858886719e+00 6.903614997863769531e-01 3.010874032974243164e+00 1.110370635986328125e+00 6.115900278091430664e-01
4.523000000000000000e+03 6.116194248199462891e+00 8.257126808166503906e+00 8.737927419133484364e-04 -2.668021712452173233e-03 -5.382687086239457130e-04 -1.170560601167380810e-03
4.524000000000000000e+03 1.134002780914306641e+01 1.371741104125976562e+01 -4.153159447014331818e-03 -5.470446776598691940e-03 -2.887081820517778397e-03 -3.941123140975832939e-04
4.525000000000000000e+03 5.764447021484375000e+01 -9.981760978698730469e+00 -1.147137641906738281e+00 9.348207712173461914e-01 -6.369505077600479126e-02 8.065662384033203125e-01
4.526000000000000000e+03 5.882057952880859375e+01 -8.651260375976562500e+00 -8.117899894714355469e-01 1.142562389373779297e+00 9.923169761896133423e-02 7.173250913619995117e-01
4.527000000000000000e+03 9.217932701110839844e+00 -6.694378376007080078e+00 -2.819927223026752472e-02 3.036807179450988770e-01 8.264443278312683105e-02 -5.575790405273437500e-01
4.528000000000000000e+03 1.368763637542724609e+01 -7.951173305511474609e+00 3.030855059623718262e-01 1.187389016151428223e+00 4.471423625946044922e-01 1.128165423870086670e-01
4.529000000000000000e+03 5.546226501464843750e+00 2.812570190429687500e+01 -5.563145969063043594e-03 -7.120807468891143799e-02 -2.303136698901653290e-02 1.311425566673278809e-01
4.530000000000000000e+03 6.768610477447509766e+00 2.937350273132324219e+01 4.808596801012754440e-03 -4.660630226135253906e-02 -1.253931131213903427e-02 1.437258422374725342e-01
4.531000000000000000e+03 7.268422603607177734e+00 7.382257461547851562e+00 1.083904062397778034e-03 -2.608457347378134727e-03 -4.573659680318087339e-04 -3.555658913683146238e-04
4.532000000000000000e+03 6.123215198516845703e+00 -2.664309310913085938e+01 -1.353565752506256104e-01 4.352064728736877441e-01 8.995496481657028198e-02 6.009712219238281250e-01
4.533000000000000000e+03 5.432027816772460938e+01 -7.493719577789306641e+00 -3.855268061161041260e-01 1.451092958450317383e+00 3.196698427200317383e-01 1.555802822113037109e+00
4.534000000000000000e+03 6.528485774993896484e+00 -7.420145511627197266e+00 4.552602395415306091e-02 -4.944141209125518799e-02 -1.174616976641118526e-03 -6.471982002258300781e-01
4.535000000000000000e+03 7.834915161132812500e+00 -7.009736061096191406e+00 1.454049721360206604e-02 1.296672821044921875e-01 4.326233267784118652e-02 -6.308584809303283691e-01
4.536000000000000000e+03 1.094798278808593750e+01 -8.955554008483886719e+00 4.239718019962310791e-01 8.381028771400451660e-01 3.786224126815795898e-01 -3.293010294437408447e-01
4.537000000000000000e+03 5.951367378234863281e+00 -9.757564544677734375e+00 2.437061816453933716e-01 -1.659683585166931152e-01 2.332134917378425598e-02 -5.492607355117797852e-01
4.538000000000000000e+03 1.214958477020263672e+01 -7.374435424804687500e+00 1.400675177574157715e-01 8.362943530082702637e-01 2.929085493087768555e-01 -1.973629891872406006e-01
4.539000000000000000e+03 1.212583160400390625e+01 -6.616143226623535156e+00 -2.722443640232086182e-02 6.955257654190063477e-01 2.004904001951217651e-01 -2.181328088045120239e-01
4.540000000000000000e+03 8.522120475769042969e+00 3.440513610839843750e+01 7.428378611803054810e-02 5.188740789890289307e-03 2.384175732731819153e-02 1.058842688798904419e-01
4.541000000000000000e+03 8.519630432128906250e+00 -6.828609943389892578e+00 -9.887176565825939178e-03 2.192704230546951294e-01 6.281497329473495483e-02 -5.993651151657104492e-01
4.542000000000000000e+03 3.208428573608398438e+01 -3.462773323059082031e+00 6.165043711662292480e-01 4.937341690063476562e+00 1.666153788566589355e+00 7.996839284896850586e-01
4.543000000000000000e+03 3.148088073730468750e+01 -3.545244693756103516e+00 8.249682784080505371e-01 3.954858541488647461e+00 1.433948040008544922e+00 1.090852856636047363e+00
4.544000000000000000e+03 6.068745803833007812e+01 -8.472781181335449219e+00 -7.254374027252197266e-01 1.109675884246826172e+00 1.152715459465980530e-01 3.124201595783233643e-01
4.545000000000000000e+03 1.212961864471435547e+01 -1.237023067474365234e+01 1.188215374946594238e+00 1.682519912719726562e+00 8.612205982208251953e-01 1.792607307434082031e-01
4.546000000000000000e+03 6.137929534912109375e+01 -5.053004994988441467e-02 6.689330935478210449e-01 3.961820840835571289e+00 1.389226198196411133e+00 7.989031672477722168e-01
4.547000000000000000e+03 7.469526672363281250e+01 -2.305382728576660156e+01 3.473472297191619873e-01 9.246707916259765625e+00 2.878216505050659180e+00 -1.223482012748718262e+00
4.548000000000000000e+03 6.082425594329833984e+00 -2.167631721496582031e+01 1.734998375177383423e-01 2.404910326004028320e-01 1.241972595453262329e-01 6.351647973060607910e-01
4.549000000000000000e+03 6.049247264862060547e+00 -2.234302520751953125e+01 1.136470735073089600e-01 2.573386430740356445e-01 1.112957149744033813e-01 6.504219770431518555e-01
4.550000000000000000e+03 7.413825988769531250e+01 2.096683120727539062e+01 1.560206115245819092e-01 6.576472282409667969e+00 2.019747734069824219e+00 4.004295766353607178e-01
4.551000000000000000e+03 6.466151237487792969e+00 2.854507827758789062e+01 -4.813559353351593018e-03 -4.705702140927314758e-02 -1.556117460131645203e-02 1.407473534345626831e-01
4.552000000000000000e+03 7.490247344970703125e+01 -2.658022308349609375e+01 -3.633646667003631592e-01 9.197179794311523438e+00 2.650144577026367188e+00 -1.092777729034423828e+00
4.553000000000000000e+03 7.355529785156250000e+01 -2.876158714294433594e+01 -6.832499504089355469e-01 8.921534538269042969e+00 2.471485376358032227e+00 -6.681451201438903809e-01
4.554000000000000000e+03 1.047627639770507812e+01 2.177589797973632812e+01 -1.486485451459884644e-01 6.264824420213699341e-02 -2.580008842051029205e-02 5.721624195575714111e-02
4.555000000000000000e+03 7.397908020019531250e+01 2.386230087280273438e+01 -1.198594365268945694e-02 6.637834548950195312e+00 1.987754583358764648e+00 4.517747163772583008e-01
4.556000000000000000e+03 7.342740631103515625e+01 2.326135253906250000e+01 1.503938063979148865e-02 6.684014797210693359e+00 2.009716272354125977e+00 4.598671793937683105e-01
4.557000000000000000e+03 5.232751083374023438e+01 -1.149631309509277344e+01 -3.052713871002197266e-01 6.268364191055297852e-01 9.646949917078018188e-02 1.561752796173095703e+00
4.558000000000000000e+03 5.322940063476562500e+01 -1.077252483367919922e+01 -5.337120294570922852e-01 7.302731871604919434e-01 5.896834284067153931e-02 1.572445034980773926e+00
4.559000000000000000e+03 7.432438659667968750e+01 -2.119010543823242188e+01 8.946561217308044434e-01 9.350479125976562500e+00 3.073540687561035156e+00 -9.396723508834838867e-01
4.560000000000000000e+03 5.050532913208007812e+01 -1.105814456939697266e+01 1.425148639827966690e-02 8.804183006286621094e-01 2.684009373188018799e-01 1.824575185775756836e+00
4.561000000000000000e+03 7.284136199951171875e+01 2.388872528076171875e+01 -2.916418574750423431e-02 6.723588943481445312e+00 2.008327484130859375e+00 4.560392498970031738e-01
4.562000000000000000e+03 5.156958103179931641e+00 1.614545440673828125e+01 -1.656551845371723175e-02 -3.441269509494304657e-03 -6.002036388963460922e-03 8.406124077737331390e-03
4.563000000000000000e+03 9.145792961120605469e+00 1.627167129516601562e+01 -3.299114480614662170e-02 1.703518064459785819e-04 -9.846237488090991974e-03 -2.232211874797940254e-03
4.564000000000000000e+03 7.383142089843750000e+01 1.431656074523925781e+01 4.325474202632904053e-01 6.616026878356933594e+00 2.114572286605834961e+00 -1.814336627721786499e-01
4.565000000000000000e+03 7.427306365966796875e+01 1.547687339782714844e+01 3.676733076572418213e-01 6.531946659088134766e+00 2.069885969161987305e+00 -5.655161663889884949e-02
4.566000000000000000e+03 6.516875267028808594e+00 2.728030204772949219e+01 -1.960434392094612122e-02 -3.341017663478851318e-02 -1.590435579419136047e-02 1.391800940036773682e-01
4.567000000000000000e+03 7.469823455810546875e+01 1.941637039184570312e+01 2.107453942298889160e-01 6.482792377471923828e+00 2.008061408996582031e+00 3.060716092586517334e-01
4.568000000000000000e+03 6.322364330291748047e+00 2.259200286865234375e+01 -5.740059167146682739e-02 -5.783057422377169132e-04 -1.739366911351680756e-02 8.228957653045654297e-02
4.569000000000000000e+03 6.999188899993896484e+00 -1.827376937866210938e+01 4.776990711688995361e-01 3.427186906337738037e-01 2.461253255605697632e-01 4.409968554973602295e-01
4.570000000000000000e+03 5.278383255004882812e+00 -9.044941902160644531e+00 1.501002758741378784e-01 -2.868640124797821045e-01 -4.102912545204162598e-02 -5.769881010055541992e-01
4.571000000000000000e+03 1.039756870269775391e+01 8.923317909240722656e+00 6.935022538527846336e-04 -2.690923633053898811e-03 -5.992264486849308014e-04 2.033607335761189461e-03
4.572000000000000000e+03 3.637729263305664062e+01 1.537916755676269531e+01 6.112606525421142578e-01 8.938499450683593750e+00 2.864928245544433594e+00 -3.323673903942108154e-01
4.573000000000000000e+03 1.361758136749267578e+01 -7.290186882019042969e+00 1.443666666746139526e-01 1.028064012527465820e+00 3.517292141914367676e-01 7.250595092773437500e-02
4.574000000000000000e+03 5.387220382690429688e+01 -1.079292392730712891e+01 -6.439788937568664551e-01 7.177540659904479980e-01 2.213255502283573151e-02 1.449567079544067383e+00
4.575000000000000000e+03 5.789428234100341797e+00 -2.530728149414062500e+01 -7.298146933317184448e-02 3.282414376735687256e-01 7.657799124717712402e-02 6.299470067024230957e-01
4.576000000000000000e+03 6.199282646179199219e+00 -2.375104713439941406e+01 1.754968799650669098e-02 3.659731149673461914e-01 1.150568425655364990e-01 6.770718693733215332e-01
4.577000000000000000e+03 7.377558898925781250e+01 1.678990364074707031e+01 4.038720726966857910e-01 6.590768814086914062e+00 2.098392248153686523e+00 8.119815587997436523e-02
4.578000000000000000e+03 6.271093368530273438e+01 -1.753676414489746094e+00 4.331519901752471924e-01 3.936331987380981445e+00 1.310845255851745605e+00 7.794735580682754517e-02
4.579000000000000000e+03 5.925487518310546875e+00 -1.551440715789794922e+01 4.785985648632049561e-01 -1.124592050909996033e-01 1.098418086767196655e-01 6.552007049322128296e-02
4.580000000000000000e+03 7.208160400390625000e+01 -2.799517250061035156e+01 -8.643705844879150391e-01 8.772021293640136719e+00 2.372295141220092773e+00 -4.863788187503814697e-01
4.581000000000000000e+03 7.403355407714843750e+01 7.183479785919189453e+00 2.232272922992706299e-01 6.891661643981933594e+00 2.134466648101806641e+00 -8.318176269531250000e-01
4.582000000000000000e+03 7.323270416259765625e+01 1.125242996215820312e+01 4.419367909431457520e-01 6.775666713714599609e+00 2.165281057357788086e+00 -5.347874164581298828e-01
4.583000000000000000e+03 7.524057769775390625e+01 -1.890590286254882812e+01 9.758951067924499512e-01 8.828365325927734375e+00 2.941278219223022461e+00 -2.810224592685699463e-01
4.584000000000000000e+03 7.432467651367187500e+01 -2.016997337341308594e+01 1.100316166877746582e+00 9.361250877380371094e+00 3.138470172882080078e+00 -6.993660330772399902e-01
4.585000000000000000e+03 7.470043945312500000e+01 -1.984208869934082031e+01 1.003990292549133301e+00 9.115577697753906250e+00 3.035870552062988281e+00 -5.877140760421752930e-01
4.586000000000000000e+03 7.393846130371093750e+01 9.597593307495117188e+00 3.249696493148803711e-01 6.774179458618164062e+00 2.129744768142700195e+00 -6.602361798286437988e-01
4.587000000000000000e+03 7.405973815917968750e+01 7.974708080291748047e+00 2.557158768177032471e-01 6.847382068634033203e+00 2.130929470062255859e+00 -7.785164713859558105e-01
4.588000000000000000e+03 7.471147918701171875e+01 8.827143669128417969e+00 2.412516623735427856e-01 6.747941493988037109e+00 2.096757888793945312e+00 -6.788188219070434570e-01
4.589000000000000000e+03 7.359185028076171875e+01 -1.736755943298339844e+01 1.475272297859191895e+00 9.739202499389648438e+00 3.364342451095581055e+00 1.921438574790954590e-01
4.590000000000000000e+03 7.505991363525390625e+01 -1.399397945404052734e+01 2.669503986835479736e-01 8.981850624084472656e+00 2.774640321731567383e+00 9.275896549224853516e-01
4.591000000000000000e+03 7.408771514892578125e+01 -1.488911342620849609e+01 6.723632216453552246e-01 9.416198730468750000e+00 3.026568651199340820e+00 8.521119356155395508e-01
4.592000000000000000e+03 7.473706817626953125e+01 4.832152366638183594e+00 9.351815283298492432e-02 7.049674510955810547e+00 2.142957687377929688e+00 -8.887293338775634766e-01
4.593000000000000000e+03 6.235568523406982422e+00 2.149847793579101562e+01 -5.597385391592979431e-02 1.476771780289709568e-03 -1.634912379086017609e-02 6.618888676166534424e-02
4.594000000000000000e+03 6.953944396972656250e+01 1.029325485229492188e+01 7.277581095695495605e-01 7.305892467498779297e+00 2.410095214843750000e+00 -6.160686612129211426e-01
4.595000000000000000e+03 7.412500000000000000e+01 2.634098434448242188e+01 -1.080733016133308411e-01 6.667741775512695312e+00 1.967900514602661133e+00 3.972054719924926758e-01
4.596000000000000000e+03 7.420538330078125000e+01 8.283130824565887451e-03 -1.539581716060638428e-01 7.440367698669433594e+00 2.185922861099243164e+00 -9.489285945892333984e-01
4.597000000000000000e+03 7.434683227539062500e+01 -1.430919742584228516e+01 4.176834523677825928e-01 9.292877197265625000e+00 2.913168191909790039e+00 9.313213825225830078e-01
4.598000000000000000e+03 7.417537689208984375e+01 1.893668174743652344e+01 2.764332890510559082e-01 6.544251441955566406e+00 2.046205520629882812e+00 2.836488783359527588e-01
4.599000000000000000e+03 7.315888214111328125e+01 1.905962562561035156e+01 3.493631780147552490e-01 6.665247917175292969e+00 2.104383230209350586e+00 3.015157282352447510e-01
4.600000000000000000e+03 6.649872303009033203e+00 1.470901679992675781e+01 -1.325015723705291748e-02 -4.860005807131528854e-03 -5.433049052953720093e-03 2.359086880460381508e-03
4.601000000000000000e+03 7.288291931152343750e+01 -1.909108877182006836e+00 -3.701858818531036377e-01 7.422385215759277344e+00 2.115659713745117188e+00 -1.011736273765563965e+00
4.602000000000000000e+03 7.323487091064453125e+01 1.381592941284179688e+01 4.951126575469970703e-01 6.711180210113525391e+00 2.161887884140014648e+00 -2.604963779449462891e-01
4.603000000000000000e+03 6.757399749755859375e+01 1.411865806579589844e+01 1.070593953132629395e+00 7.947384357452392578e+00 2.705393552780151367e+00 -3.515766561031341553e-01
4.604000000000000000e+03 7.423656463623046875e+01 -1.792871856689453125e+01 1.292910814285278320e+00 9.345781326293945312e+00 3.191607475280761719e+00 7.831363007426261902e-03
4.605000000000000000e+03 7.436651611328125000e+01 -1.218845081329345703e+01 -3.348390460014343262e-01 9.192830085754394531e+00 2.657397508621215820e+00 8.301525115966796875e-01
4.606000000000000000e+03 7.330282592773437500e+01 -1.267144012451171875e+01 -3.026873171329498291e-01 9.580984115600585938e+00 2.783488988876342773e+00 7.921043634414672852e-01
4.607000000000000000e+03 7.421867370605468750e+01 -1.660992741584777832e+00 -2.816133499145507812e-01 7.616900444030761719e+00 2.200586080551147461e+00 -8.822826743125915527e-01
4.608000000000000000e+03 7.408583831787109375e+01 2.381546735763549805e+00 -1.063079200685024261e-02 7.220640182495117188e+00 2.163002967834472656e+00 -9.841330051422119141e-01
4.609000000000000000e+03 7.467752838134765625e+01 -9.820149421691894531e+00 -6.630489230155944824e-01 8.878871917724609375e+00 2.464746952056884766e+00 4.170412123203277588e-01
4.610000000000000000e+03 7.128433990478515625e+01 -1.217303943634033203e+01 -9.644622206687927246e-01 9.977191925048828125e+00 2.703819036483764648e+00 1.254906505346298218e-01
4.611000000000000000e+03 7.455546569824218750e+01 -1.144805908203125000e+01 -5.016469359397888184e-01 9.098847389221191406e+00 2.579159975051879883e+00 7.263966798782348633e-01
4.612000000000000000e+03 7.402461242675781250e+01 -1.059345149993896484e+01 -7.259344458580017090e-01 9.073019027709960938e+00 2.504125356674194336e+00 4.901377260684967041e-01
4.613000000000000000e+03 7.474510192871093750e+01 4.031617641448974609e+00 5.797331407666206360e-02 7.121965885162353516e+00 2.153981685638427734e+00 -9.095864892005920410e-01
4.614000000000000000e+03 6.644707489013671875e+01 5.497480392456054688e+00 4.944963157176971436e-01 6.978347301483154297e+00 2.241853237152099609e+00 -4.400347471237182617e-01
4.615000000000000000e+03 7.401175689697265625e+01 6.399163246154785156e+00 1.894954144954681396e-01 6.939368724822998047e+00 2.138659238815307617e+00 -8.754551410675048828e-01
4.616000000000000000e+03 7.506201171875000000e+01 -8.661816596984863281e+00 -6.331481933593750000e-01 8.716534614562988281e+00 2.425015926361083984e+00 2.204795032739639282e-01
4.617000000000000000e+03 7.063623046875000000e+01 -1.117780494689941406e+01 -1.506121397018432617e+00 9.526663780212402344e+00 2.406162738800048828e+00 -4.515511393547058105e-01
4.618000000000000000e+03 6.575047302246093750e+01 3.587175369262695312e+00 3.633548021316528320e-01 6.470299720764160156e+00 2.050096511840820312e+00 -3.704686164855957031e-01
4.619000000000000000e+03 7.427235412597656250e+01 -2.482819795608520508e+00 -3.441553711891174316e-01 7.738716602325439453e+00 2.218368291854858398e+00 -8.170961737632751465e-01
4.620000000000000000e+03 7.434740447998046875e+01 -3.201364040374755859e+00 -4.095950424671173096e-01 7.841385841369628906e+00 2.229537248611450195e+00 -7.549389004707336426e-01
4.621000000000000000e+03 7.489689636230468750e+01 -7.227248191833496094e+00 -6.618343591690063477e-01 8.516213417053222656e+00 2.356313705444335938e+00 -1.155513226985931396e-01
4.622000000000000000e+03 7.473487854003906250e+01 -5.601522445678710938e+00 -5.748951435089111328e-01 8.245278358459472656e+00 2.301115036010742188e+00 -4.176990687847137451e-01
4.623000000000000000e+03 7.381915283203125000e+01 -7.187200546264648438e+00 -8.617724180221557617e-01 8.446626663208007812e+00 2.275456428527832031e+00 -3.016877174377441406e-01
4.624000000000000000e+03 7.401580810546875000e+01 5.605846881866455078e+00 1.559366881847381592e-01 6.986813545227050781e+00 2.142825126647949219e+00 -9.138264656066894531e-01
4.625000000000000000e+03 6.072857379913330078e+00 1.089266014099121094e+01 -1.023374847136437893e-03 -3.895338857546448708e-03 -1.475614146329462528e-03 -1.026784186251461506e-03
4.626000000000000000e+03 5.414401531219482422e+00 1.077769565582275391e+01 -4.796248977072536945e-04 -3.128353506326675415e-03 -1.082393573597073555e-03 -1.722976448945701122e-03
4.627000000000000000e+03 7.412659454345703125e+01 -6.475995540618896484e+00 -7.373895645141601562e-01 8.347144126892089844e+00 2.282926321029663086e+00 -3.536425828933715820e-01
4.628000000000000000e+03 7.410072326660156250e+01 -4.538758277893066406e+00 -5.607251524925231934e-01 8.008802413940429688e+00 2.234423398971557617e+00 -6.383891105651855469e-01
4.629000000000000000e+03 7.368645477294921875e+01 -5.206671237945556641e+00 -6.718356609344482422e-01 8.052079200744628906e+00 2.214072942733764648e+00 -6.268628835678100586e-01
4.630000000000000000e+03 6.063955307006835938e+00 1.425416755676269531e+01 -1.012692693620920181e-02 -3.957569133490324020e-03 -4.225349053740501404e-03 1.855039736256003380e-03
4.631000000000000000e+03 7.479335784912109375e+01 -1.843895721435546875e+01 1.137377500534057617e+00 9.057112693786621094e+00 3.058346986770629883e+00 -1.396617442369461060e-01
4.632000000000000000e+03 7.285971069335937500e+01 -2.710895919799804688e+01 -6.866014599800109863e-01 9.117927551269531250e+00 2.529397726058959961e+00 -7.933229804039001465e-01
4.633000000000000000e+03 5.972909927368164062e+00 9.318502426147460938e+00 4.813434497918933630e-04 -3.124987706542015076e-03 -7.930932333692908287e-04 -1.348490244708955288e-03
4.634000000000000000e+03 5.200407028198242188e+00 -1.861385536193847656e+01 2.963525056838989258e-01 -1.892372369766235352e-01 3.213457763195037842e-02 3.866400420665740967e-01
4.635000000000000000e+03 6.466894626617431641e+00 -1.591875267028808594e+01 5.329102873802185059e-01 6.876723468303680420e-02 1.805032640695571899e-01 1.390275806188583374e-01
4.636000000000000000e+03 6.003306865692138672e+00 1.233830738067626953e+01 -3.698098473250865936e-03 -4.290725104510784149e-03 -2.396647119894623756e-03 -4.266187315806746483e-04
4.637000000000000000e+03 5.708520889282226562e+00 2.553047370910644531e+01 -3.189064562320709229e-02 -3.843368589878082275e-02 -2.109730057418346405e-02 1.170674562454223633e-01
4.638000000000000000e+03 5.569303989410400391e+00 9.994051933288574219e+00 -3.322729389765299857e-05 -2.862063935026526451e-03 -8.685873472131788731e-04 -1.540850265882909298e-03
4.639000000000000000e+03 6.773188781738281250e+01 1.128834342956542969e+01 8.916497230529785156e-01 7.768955707550048828e+00 2.598181486129760742e+00 -4.355875253677368164e-01
4.640000000000000000e+03 6.057510852813720703e+00 -1.474539566040039062e+01 4.835790395736694336e-01 -9.999309480190277100e-02 1.150757819414138794e-01 -2.186300605535507202e-02
4.641000000000000000e+03 5.535299301147460938e+00 1.910888290405273438e+01 -3.589805215597152710e-02 -2.446124097332358360e-03 -1.150325313210487366e-02 3.176224976778030396e-02
4.642000000000000000e+03 5.386051654815673828e+00 1.313799762725830078e+01 -5.377022083848714828e-03 -3.934082575142383575e-03 -2.793331397697329521e-03 1.434240984963253140e-04
4.643000000000000000e+03 6.553705692291259766e+00 8.801550865173339844e+00 8.968864567577838898e-04 -2.923717489466071129e-03 -6.080493330955505371e-04 -1.060920883901417255e-03
4.644000000000000000e+03 6.048234939575195312e+00 1.161748218536376953e+01 -1.823375350795686245e-03 -4.186411853879690170e-03 -1.802936196327209473e-03 -1.274979673326015472e-03
4.645000000000000000e+03 5.237058639526367188e+00 -1.939166069030761719e+01 2.631575763225555420e-01 -1.365293860435485840e-01 3.798845410346984863e-02 4.534892439842224121e-01
4.646000000000000000e+03 5.912893772125244141e+00 -2.602129364013671875e+01 -9.833092242479324341e-02 3.810748755931854248e-01 8.482318371534347534e-02 6.244828701019287109e-01
4.647000000000000000e+03 6.235013008117675781e+00 -2.436878585815429688e+01 -3.496934100985527039e-02 3.826435506343841553e-01 1.043022647500038147e-01 6.613306403160095215e-01
4.648000000000000000e+03 5.370844364166259766e+00 1.763070678710937500e+01 -2.578270994126796722e-02 -2.605567453429102898e-03 -8.516483008861541748e-03 1.722713001072406769e-02
4.649000000000000000e+03 6.076416969299316406e+00 1.574234867095947266e+01 -1.763918064534664154e-02 -3.976939711719751358e-03 -6.484836339950561523e-03 6.445019505918025970e-03
4.650000000000000000e+03 5.374852657318115234e+00 -1.217568588256835938e+01 3.440101444721221924e-01 -3.166018724441528320e-01 8.222479373216629028e-03 -3.355374336242675781e-01
4.651000000000000000e+03 1.137622547149658203e+01 -7.864340782165527344e+00 2.109649479389190674e-01 7.638394236564636230e-01 2.924413084983825684e-01 -3.062441349029541016e-01
4.652000000000000000e+03 7.382495117187500000e+01 2.045404624938964844e+01 1.993179768323898315e-01 6.597771644592285156e+00 2.039126873016357422e+00 3.829360902309417725e-01
4.653000000000000000e+03 8.062344551086425781e+00 1.650616073608398438e+01 -3.235656395554542542e-02 4.398856835905462503e-04 -9.575003758072853088e-03 3.692846512421965599e-03
4.654000000000000000e+03 6.333370685577392578e+00 1.917834281921386719e+01 -4.551820456981658936e-02 3.388123353943228722e-03 -1.263902429491281509e-02 3.206403926014900208e-02
4.655000000000000000e+03 4.511626052856445312e+01 -9.178953170776367188e+00 -6.434137821197509766e-01 3.086925268173217773e+00 7.330534458160400391e-01 -1.295810788869857788e-01
4.656000000000000000e+03 4.772059249877929688e+01 -1.235304355621337891e+01 3.889359235763549805e-01 2.401984691619873047e+00 8.372761607170104980e-01 1.389294266700744629e+00
4.657000000000000000e+03 1.050970745086669922e+01 1.975648498535156250e+01 -1.160602048039436340e-01 3.935516253113746643e-02 -2.301151305437088013e-02 6.750204600393772125e-03
4.658000000000000000e+03 6.231120586395263672e+00 2.613324737548828125e+01 -3.029441460967063904e-02 -3.116929158568382263e-02 -1.843911223113536835e-02 1.279073506593704224e-01
4.659000000000000000e+03 6.138469219207763672e+00 -2.089371299743652344e+01 2.161559015512466431e-01 2.076179832220077515e-01 1.271321624517440796e-01 6.000410914421081543e-01
4.660000000000000000e+03 5.974224090576171875e+00 -9.008219718933105469e+00 1.808234602212905884e-01 -1.560376137495040894e-01 7.435755804181098938e-03 -5.929465293884277344e-01
4.661000000000000000e+03 5.417095184326171875e+00 -1.300434875488281250e+01 3.675100207328796387e-01 -3.079963922500610352e-01 1.785409636795520782e-02 -2.480673789978027344e-01
4.662000000000000000e+03 5.945253849029541016e+00 -1.051900100708007812e+01 2.994579672813415527e-01 -1.729177236557006836e-01 3.796206787228584290e-02 -4.940819144248962402e-01
4.663000000000000000e+03 5.837219715118408203e+00 -1.933259201049804688e+01 3.156938254833221436e-01 4.562437534332275391e-02 1.083954647183418274e-01 4.829647541046142578e-01
4.664000000000000000e+03 6.741689300537109375e+01 1.878889846801757812e+01 9.665612578392028809e-01 7.596735477447509766e+00 2.568989038467407227e+00 6.926196068525314331e-02
4.665000000000000000e+03 7.404075622558593750e+01 1.784823226928710938e+01 3.375840187072753906e-01 6.548812866210937500e+00 2.065919160842895508e+00 1.852375566959381104e-01
4.666000000000000000e+03 6.233040332794189453e+00 -1.299472808837890625e+01 4.675981998443603516e-01 -8.580715954303741455e-02 1.145373135805130005e-01 -2.394639998674392700e-01
4.667000000000000000e+03 6.116969585418701172e+00 -1.211046886444091797e+01 4.194377660751342773e-01 -1.247498765587806702e-01 8.840636909008026123e-02 -3.419246375560760498e-01
4.668000000000000000e+03 9.304178237915039062e+00 -1.694903182983398438e+01 8.284822106361389160e-01 1.112169504165649414e+00 5.821955204010009766e-01 4.223430454730987549e-01
4.669000000000000000e+03 6.994739532470703125e+01 -2.963306045532226562e+01 -1.035568475723266602e+00 7.431095600128173828e+00 1.918658137321472168e+00 2.802501916885375977e-01
4.670000000000000000e+03 7.321051788330078125e+01 1.644030952453613281e+01 4.749026298522949219e-01 6.664398670196533203e+00 2.141790390014648438e+00 3.434171900153160095e-02
4.671000000000000000e+03 6.207993507385253906e+00 2.508313941955566406e+01 -4.192466661334037781e-02 -1.796929351985454559e-02 -1.796818897128105164e-02 1.187547594308853149e-01
4.672000000000000000e+03 5.890871047973632812e+00 -7.573339939117431641e+00 5.651231110095977783e-02 -1.473356187343597412e-01 -2.724699117243289948e-02 -6.406170725822448730e-01
4.673000000000000000e+03 5.248230457305908203e+00 -7.666231632232666016e+00 5.121718719601631165e-02 -2.539256513118743896e-01 -6.081254035234451294e-02 -6.201996803283691406e-01
4.674000000000000000e+03 1.174745559692382812e+01 -2.499542236328125000e+01 -2.857167720794677734e-01 1.572439789772033691e+00 3.860169053077697754e-01 4.455934762954711914e-01
4.675000000000000000e+03 4.976962280273437500e+01 -9.429741859436035156e+00 -2.241898328065872192e-01 8.069576621055603027e-01 1.748303472995758057e-01 1.897365093231201172e+00
4.676000000000000000e+03 7.316446685791015625e+01 -2.512051010131835938e+01 -2.615496516227722168e-01 9.493432044982910156e+00 2.769564867019653320e+00 -1.100513577461242676e+00
4.677000000000000000e+03 7.353947448730468750e+01 -2.606013298034667969e+01 -4.361922144889831543e-01 9.310655593872070312e+00 2.662338972091674805e+00 -1.047666907310485840e+00
4.678000000000000000e+03 7.343717193603515625e+01 -2.390583801269531250e+01 1.297824084758758545e-01 9.601605415344238281e+00 2.919416427612304688e+00 -1.197270393371582031e+00
4.679000000000000000e+03 3.776664352416992188e+01 -7.868754386901855469e+00 -2.726835727691650391e+00 9.086851119995117188e+00 1.908004522323608398e+00 -1.253961086273193359e+00
4.680000000000000000e+03 1.185164070129394531e+01 7.844123840332031250e+00 1.822959311539307237e-04 -5.624277400784194469e-04 -1.140395324910059571e-04 1.982367131859064102e-03
4.681000000000000000e+03 1.147592353820800781e+01 8.578239440917968750e+00 4.505699616856873035e-04 -1.353074563667178154e-03 -2.707513631321489811e-04 2.377609489485621452e-03
4.682000000000000000e+03 6.233358001708984375e+01 1.306447982788085938e-01 5.167936682701110840e-01 4.429881095886230469e+00 1.484002470970153809e+00 4.822194278240203857e-01
4.683000000000000000e+03 6.588140964508056641e+00 2.449326896667480469e+01 -5.199178308248519897e-02 -7.171011529862880707e-03 -1.774883829057216644e-02 1.147540435194969177e-01
4.684000000000000000e+03 5.866940021514892578e+00 2.306392860412597656e+01 -4.795978590846061707e-02 -1.071628089994192123e-02 -1.760281994938850403e-02 8.693213760852813721e-02
4.685000000000000000e+03 6.746094226837158203e+00 -2.397341918945312500e+01 -9.481619112193584442e-03 5.053724646568298340e-01 1.487672477960586548e-01 6.901372075080871582e-01
4.686000000000000000e+03 7.303909301757812500e+01 2.731694030761718750e+01 -1.738206148147583008e-01 6.673760890960693359e+00 1.949982047080993652e+00 3.500238955020904541e-01
4.687000000000000000e+03 9.203514099121093750e+00 -2.574528121948242188e+01 -2.227066010236740112e-01 1.050662636756896973e+00 2.483868151903152466e-01 6.242336034774780273e-01
4.688000000000000000e+03 4.667930984497070312e+01 -8.942651748657226562e+00 -4.733133316040039062e-01 1.702612400054931641e+00 3.687897324562072754e-01 6.482726931571960449e-01
4.689000000000000000e+03 3.640112304687500000e+01 -8.916320800781250000e+00 -2.613105535507202148e+00 8.970438957214355469e+00 1.907200098037719727e+00 -1.004166722297668457e+00
4.690000000000000000e+03 6.278148269653320312e+01 -8.422098159790039062e+00 -6.484041810035705566e-01 1.317355871200561523e+00 2.006855010986328125e-01 -5.643867850303649902e-01
4.691000000000000000e+03 4.438029861450195312e+01 -9.754236221313476562e+00 -6.380110383033752441e-01 4.030175209045410156e+00 1.017649292945861816e+00 -3.576418757438659668e-01
4.692000000000000000e+03 4.373646926879882812e+01 -8.462251663208007812e+00 -1.116891264915466309e+00 4.072442531585693359e+00 8.866654038429260254e-01 -9.308668971061706543e-01
4.693000000000000000e+03 3.570384216308593750e+01 -2.141715049743652344e+00 3.332760334014892578e-01 9.865757942199707031e+00 3.059710264205932617e+00 -4.004020988941192627e-01
4.694000000000000000e+03 4.585112762451171875e+01 -1.070845985412597656e+01 -1.539515852928161621e-01 3.136949777603149414e+00 8.948994874954223633e-01 5.038340091705322266e-01
4.695000000000000000e+03 1.685189437866210938e+01 -6.293863773345947266e+00 5.114109069108963013e-02 9.594047665596008301e-01 3.031637668609619141e-01 7.652019262313842773e-01
4.696000000000000000e+03 5.493349456787109375e+01 -9.729518890380859375e+00 -7.457327842712402344e-01 9.862839579582214355e-01 7.216534018516540527e-02 1.388864636421203613e+00
4.697000000000000000e+03 5.369898986816406250e+01 -9.124910354614257812e+00 -5.943855047225952148e-01 1.085458040237426758e+00 1.473217457532882690e-01 1.727073907852172852e+00
4.698000000000000000e+03 5.718579864501953125e+01 -6.360587596893310547e+00 6.899601966142654419e-02 1.581017613410949707e+00 4.950040876865386963e-01 1.074361085891723633e+00
4.699000000000000000e+03 1.126050472259521484e+01 -2.884051704406738281e+01 -4.672759473323822021e-01 1.097385644912719727e+00 1.890329122543334961e-01 3.260006904602050781e-01
4.700000000000000000e+03 3.971772384643554688e+01 -6.202216148376464844e+00 -2.519914388656616211e+00 8.557924270629882812e+00 1.811402797698974609e+00 -1.910925269126892090e+00
4.701000000000000000e+03 5.445286178588867188e+01 -8.213850021362304688e+00 -5.270780920982360840e-01 1.323864102363586426e+00 2.390358150005340576e-01 1.580085277557373047e+00
4.702000000000000000e+03 5.674955368041992188e+01 -8.321000099182128906e+00 -5.625361204147338867e-01 1.241494059562683105e+00 2.036873698234558105e-01 1.133093714714050293e+00
4.703000000000000000e+03 1.760731315612792969e+01 -6.309570312500000000e+00 1.020535305142402649e-01 9.358862638473510742e-01 3.113819360733032227e-01 9.400231838226318359e-01
4.704000000000000000e+03 1.027059745788574219e+01 -1.674372100830078125e+01 9.265721440315246582e-01 1.496725440025329590e+00 7.269892692565917969e-01 4.702268838882446289e-01
4.705000000000000000e+03 7.230600738525390625e+01 -1.293754100799560547e+01 -3.357400000095367432e-01 9.982175827026367188e+00 2.893930912017822266e+00 6.527326107025146484e-01
4.706000000000000000e+03 7.185626220703125000e+01 -1.359000396728515625e+01 -2.206998877227306366e-02 1.032752895355224609e+01 3.091637611389160156e+00 6.354138255119323730e-01
4.707000000000000000e+03 1.713596153259277344e+01 -7.396193981170654297e+00 3.354423344135284424e-01 1.177347779273986816e+00 4.538370370864868164e-01 9.048905372619628906e-01
4.708000000000000000e+03 7.067930221557617188e+00 1.947102737426757812e+01 -5.773441866040229797e-02 1.149432361125946045e-02 -1.387202832847833633e-02 3.350007534027099609e-02
4.709000000000000000e+03 6.287836456298828125e+01 5.938516855239868164e-01 4.533167183399200439e-01 4.780070304870605469e+00 1.570016145706176758e+00 3.235842883586883545e-01
4.710000000000000000e+03 6.404757690429687500e+01 1.220790386199951172e+00 3.377659022808074951e-01 5.395253658294677734e+00 1.719905853271484375e+00 1.530825532972812653e-02
4.711000000000000000e+03 1.582538127899169922e+01 -7.782701492309570312e+00 3.521911203861236572e-01 1.317951202392578125e+00 5.010427236557006836e-01 6.122542619705200195e-01
4.712000000000000000e+03 4.313163375854492188e+01 2.062969779968261719e+01 9.497881680727005005e-02 3.926325321197509766e+00 1.206391215324401855e+00 1.647038817405700684e+00
4.713000000000000000e+03 9.186219215393066406e+00 -3.122647857666015625e+01 -3.555914759635925293e-01 7.929256558418273926e-01 1.312002539634704590e-01 3.254973888397216797e-01
4.714000000000000000e+03 3.094750022888183594e+01 -3.486206531524658203e+00 1.088102459907531738e+00 3.351147413253784180e+00 1.331774950027465820e+00 1.243719577789306641e+00
4.715000000000000000e+03 4.105886840820312500e+01 -1.879235076904296875e+01 1.724577069282531738e+00 8.455396652221679688e+00 3.053992033004760742e+00 -9.847708344459533691e-01
4.716000000000000000e+03 4.031873321533203125e+01 -2.129271125793457031e+01 1.852044224739074707e+00 8.527907371520996094e+00 3.113985538482666016e+00 -8.863283395767211914e-01
4.717000000000000000e+03 1.014795494079589844e+01 1.873483657836914062e+01 -8.451357483863830566e-02 2.287003770470619202e-02 -1.849306188523769379e-02 -1.184581662528216839e-03
4.718000000000000000e+03 7.065631103515625000e+01 -2.776764297485351562e+01 -1.027783274650573730e+00 8.400083541870117188e+00 2.211690187454223633e+00 -5.270833522081375122e-02
4.719000000000000000e+03 6.898198699951171875e+01 -2.942614364624023438e+01 -1.069441556930541992e+00 6.854278564453125000e+00 1.735451102256774902e+00 5.676735639572143555e-01
4.720000000000000000e+03 2.663074874877929688e+01 -4.915326595306396484e+00 3.562361299991607666e-01 2.814665734767913818e-01 1.913108080625534058e-01 2.021922826766967773e+00
4.721000000000000000e+03 6.680843353271484375e+01 1.751137733459472656e+01 1.153647303581237793e+00 7.939379692077636719e+00 2.727908134460449219e+00 -1.649750024080276489e-01
4.722000000000000000e+03 1.036158084869384766e+01 7.401115894317626953e+00 6.921205786056816578e-04 -1.794288284145295620e-03 -3.306503058411180973e-04 1.427348470315337181e-03
4.723000000000000000e+03 1.085502719879150391e+01 9.906291007995605469e+00 4.289908683858811855e-04 -2.622472355142235756e-03 -6.580444169230759144e-04 2.511973259970545769e-03
4.724000000000000000e+03 1.993834304809570312e+01 -6.861099720001220703e+00 3.716348409652709961e-01 7.909614443778991699e-01 3.487788736820220947e-01 1.288460731506347656e+00
4.725000000000000000e+03 2.051068115234375000e+01 -6.660176753997802734e+00 3.048040270805358887e-01 7.217050194740295410e-01 3.079527020454406738e-01 1.333336114883422852e+00
4.726000000000000000e+03 7.111394500732421875e+01 -2.617470550537109375e+01 -7.583966851234436035e-01 9.191872596740722656e+00 2.530042648315429688e+00 -4.072507619857788086e-01
4.727000000000000000e+03 3.514935684204101562e+01 1.636694335937500000e+01 7.211853265762329102e-01 8.654795646667480469e+00 2.812794208526611328e+00 -9.593726396560668945e-01
4.728000000000000000e+03 7.386387634277343750e+01 -1.855424880981445312e+01 1.431949853897094727e+00 9.591092109680175781e+00 3.306912660598754883e+00 -2.050369679927825928e-01
4.729000000000000000e+03 1.672544860839843750e+01 -8.228369712829589844e+00 5.293627381324768066e-01 1.412868499755859375e+00 5.826693773269653320e-01 8.647668957710266113e-01
4.730000000000000000e+03 5.546143722534179688e+01 -9.884947776794433594e+00 -8.205204010009765625e-01 9.524508118629455566e-01 3.957913443446159363e-02 1.255690097808837891e+00
4.731000000000000000e+03 5.606363677978515625e+01 -9.716897010803222656e+00 -8.797785043716430664e-01 9.817445874214172363e-01 3.058983944356441498e-02 1.166622996330261230e+00
4.732000000000000000e+03 3.550833892822265625e+01 2.199342155456542969e+01 -1.061686053872108459e-01 6.147329807281494141e+00 1.812348365783691406e+00 8.713629096746444702e-02
4.733000000000000000e+03 5.919057846069335938e+01 -5.721873283386230469e+00 2.269419133663177490e-01 1.792644023895263672e+00 6.058757901191711426e-01 7.052819728851318359e-01
4.734000000000000000e+03 3.563875198364257812e+01 -7.640980720520019531e+00 -2.947914123535156250e+00 8.707666397094726562e+00 1.727925777435302734e+00 -1.086224794387817383e+00
4.735000000000000000e+03 3.457992553710937500e+01 -6.407961845397949219e+00 -2.583225965499877930e+00 7.644143581390380859e+00 1.518275380134582520e+00 -1.051938414573669434e+00
4.736000000000000000e+03 3.532507324218750000e+01 -6.198723316192626953e+00 -2.623502016067504883e+00 8.519612312316894531e+00 1.768833160400390625e+00 -1.064227581024169922e+00
4.737000000000000000e+03 5.658060073852539062e+01 -6.552575111389160156e+00 -1.532411575317382812e-02 1.557792663574218750e+00 4.627405703067779541e-01 1.170009136199951172e+00
4.738000000000000000e+03 5.830210494995117188e+01 -6.385482311248779297e+00 5.417393147945404053e-02 1.600386261940002441e+00 4.963680803775787354e-01 8.693729639053344727e-01
4.739000000000000000e+03 1.111922931671142578e+01 9.245092391967773438e+00 9.235735342372208834e-05 -1.752744894474744797e-03 -4.981162492185831070e-04 2.146261744201183319e-03
4.740000000000000000e+03 4.505550003051757812e+01 -1.296064949035644531e+01 2.266591787338256836e-01 4.812849998474121094e+00 1.511852860450744629e+00 4.626698493957519531e-01
4.741000000000000000e+03 4.420418167114257812e+01 2.405931091308593750e+01 -1.626956760883331299e-01 3.380428552627563477e+00 9.653198719024658203e-01 1.555848240852355957e+00
4.742000000000000000e+03 1.473852920532226562e+01 -9.107904434204101562e+00 6.591008305549621582e-01 1.602839827537536621e+00 6.785821914672851562e-01 4.226716756820678711e-01
4.743000000000000000e+03 7.177914428710937500e+01 -1.256789016723632812e+01 -6.436024308204650879e-01 1.001961421966552734e+01 2.812803506851196289e+00 4.307200014591217041e-01
4.744000000000000000e+03 4.094525909423828125e+01 -8.608329772949218750e+00 -1.851226329803466797e+00 7.071631908416748047e+00 1.566121578216552734e+00 -1.454874157905578613e+00
4.745000000000000000e+03 3.934413146972656250e+01 -1.205985260009765625e+01 -4.160656929016113281e-01 8.152917861938476562e+00 2.321055650711059570e+00 -9.890089035034179688e-01
4.746000000000000000e+03 4.114149475097656250e+01 -1.809338188171386719e+01 1.626076817512512207e+00 8.329038619995117188e+00 2.986534595489501953e+00 -9.995360374450683594e-01
4.747000000000000000e+03 4.984646224975585938e+01 -1.034603214263916016e+01 -4.500517621636390686e-02 9.433273077011108398e-01 2.694966495037078857e-01 1.826916694641113281e+00
4.748000000000000000e+03 3.634724044799804688e+01 -2.952995061874389648e+00 -4.682762324810028076e-01 9.904678344726562500e+00 2.830920457839965820e+00 -7.900528907775878906e-01
4.749000000000000000e+03 4.157445526123046875e+01 2.070973968505859375e+01 2.285623922944068909e-02 4.654094219207763672e+00 1.403085231781005859e+00 1.560193300247192383e+00
4.750000000000000000e+03 4.105229568481445312e+01 1.989827919006347656e+01 9.879495203495025635e-02 5.025445938110351562e+00 1.537272214889526367e+00 1.523996710777282715e+00
4.751000000000000000e+03 4.034792327880859375e+01 -1.799807739257812500e+01 1.566796660423278809e+00 8.467969894409179688e+00 3.010430097579956055e+00 -1.125366449356079102e+00
4.752000000000000000e+03 3.848703384399414062e+01 -1.144138145446777344e+01 -7.681239843368530273e-01 8.536730766296386719e+00 2.330582141876220703e+00 -9.732029438018798828e-01
4.753000000000000000e+03 4.236103439331054688e+01 -9.319046020507812500e+00 -1.230722784996032715e+00 5.837278366088867188e+00 1.381966590881347656e+00 -1.107035756111145020e+00
4.754000000000000000e+03 6.696706390380859375e+01 -9.370194435119628906e+00 -1.670008897781372070e+00 5.264894962310791016e+00 1.078465700149536133e+00 -2.430001735687255859e+00
4.755000000000000000e+03 1.009331798553466797e+01 -2.102843856811523438e+01 3.740240335464477539e-01 1.484755516052246094e+00 5.576338768005371094e-01 6.755798459053039551e-01
4.756000000000000000e+03 1.027146816253662109e+01 -2.023334503173828125e+01 5.033344626426696777e-01 1.589276552200317383e+00 6.277832984924316406e-01 6.422145962715148926e-01
4.757000000000000000e+03 3.550717926025390625e+01 1.792928314208984375e+01 5.521540641784667969e-01 7.771257400512695312e+00 2.497023582458496094e+00 -4.624258577823638916e-01
4.758000000000000000e+03 5.671640014648437500e+01 -9.451697349548339844e+00 -8.681555390357971191e-01 1.047195196151733398e+00 5.371189117431640625e-02 1.051131248474121094e+00
4.759000000000000000e+03 6.695750427246093750e+01 1.120684909820556641e+01 9.083973169326782227e-01 8.036164283752441406e+00 2.683368444442749023e+00 -3.624373078346252441e-01
4.760000000000000000e+03 7.307028198242187500e+01 -1.606388282775878906e+01 1.318021416664123535e+00 1.000382232666015625e+01 3.396553039550781250e+00 5.434666872024536133e-01
4.761000000000000000e+03 7.324850463867187500e+01 -1.529064273834228516e+01 9.589033126831054688e-01 9.831767082214355469e+00 3.237200975418090820e+00 7.461262941360473633e-01
4.762000000000000000e+03 1.089605617523193359e+01 -1.624818420410156250e+01 1.061398029327392578e+00 1.784879446029663086e+00 8.538832664489746094e-01 4.958242475986480713e-01
4.763000000000000000e+03 4.881127548217773438e+01 -1.022443103790283203e+01 -1.548423804342746735e-02 1.227737665176391602e+00 3.636760115623474121e-01 1.620060682296752930e+00
4.764000000000000000e+03 8.577804565429687500e+00 1.190693378448486328e+01 -2.670412650331854820e-03 -5.803151521831750870e-03 -2.542069181799888611e-03 -4.523041570791974664e-05
4.765000000000000000e+03 2.037710189819335938e+01 -6.110224723815917969e+00 2.161746174097061157e-01 6.687295436859130859e-01 2.654712498188018799e-01 1.293189406394958496e+00
4.766000000000000000e+03 3.611050033569335938e+01 -8.184132575988769531e+00 -2.846845149993896484e+00 8.950202941894531250e+00 1.831007242202758789e+00 -1.079132318496704102e+00
4.767000000000000000e+03 3.987741470336914062e+01 1.834676170349121094e+01 2.608787119388580322e-01 6.030186653137207031e+00 1.887319564819335938e+00 1.361097812652587891e+00
4.768000000000000000e+03 7.325054931640625000e+01 9.419206619262695312e+00 3.776303827762603760e-01 6.839535236358642578e+00 2.165149688720703125e+00 -6.995943784713745117e-01
4.769000000000000000e+03 6.449968719482421875e+01 1.517790675163269043e+00 3.028587698936462402e-01 5.690091609954833984e+00 1.797885060310363770e+00 -1.152656599879264832e-01
4.770000000000000000e+03 6.382522964477539062e+01 2.282512426376342773e+00 4.034942388534545898e-01 5.702110290527343750e+00 1.831681370735168457e+00 1.482601463794708252e-01
4.771000000000000000e+03 4.042872619628906250e+01 1.914418411254882812e+01 1.765045970678329468e-01 5.548014640808105469e+00 1.717355847358703613e+00 1.441910505294799805e+00
4.772000000000000000e+03 6.000529479980468750e+01 -5.014216423034667969e+00 3.697671890258789062e-01 2.070653676986694336e+00 7.321262955665588379e-01 5.326374769210815430e-01
4.773000000000000000e+03 7.402346038818359375e+01 4.803741455078125000e+00 1.129861027002334595e-01 7.041483879089355469e+00 2.146341085433959961e+00 -9.455305337905883789e-01
4.774000000000000000e+03 4.243854904174804688e+01 2.010429573059082031e+01 1.407056748867034912e-01 4.298856258392333984e+00 1.331868648529052734e+00 1.668975234031677246e+00
4.775000000000000000e+03 1.480481147766113281e+01 -8.525199890136718750e+00 4.934709966182708740e-01 1.433608889579772949e+00 5.781239271163940430e-01 4.021475017070770264e-01
4.776000000000000000e+03 2.798472785949707031e+01 2.913117218017578125e+01 -2.505728006362915039e-01 2.770473957061767578e+00 7.559702992439270020e-01 -9.833742380142211914e-01
4.777000000000000000e+03 2.074437713623046875e+01 3.092955589294433594e+01 1.663965731859207153e-01 8.193301558494567871e-01 2.957180142402648926e-01 -3.747551739215850830e-01
4.778000000000000000e+03 4.049964141845703125e+01 -2.987092018127441406e+01 -1.837602257728576660e-01 6.721292018890380859e+00 1.961259603500366211e+00 1.222542300820350647e-01
4.779000000000000000e+03 3.918864440917968750e+01 -2.270901107788085938e+01 1.723109602928161621e+00 8.190309524536132812e+00 2.974025964736938477e+00 -5.020260810852050781e-01
4.780000000000000000e+03 5.698398590087890625e+00 1.604356193542480469e+01 -1.717622764408588409e-02 -3.227081615477800369e-03 -6.120992824435234070e-03 7.577005773782730103e-03
4.781000000000000000e+03 6.636416625976562500e+01 8.015151977539062500e+00 7.150576114654541016e-01 7.588420391082763672e+00 2.491043567657470703e+00 -3.065742254257202148e-01
4.782000000000000000e+03 6.702463531494140625e+01 7.627577304840087891e+00 6.606817841529846191e-01 7.411943435668945312e+00 2.421787500381469727e+00 -4.743176996707916260e-01
4.783000000000000000e+03 1.136363983154296875e+01 -2.568419647216796875e+01 -3.295491337776184082e-01 1.413109660148620605e+00 3.250681459903717041e-01 4.649295806884765625e-01
4.784000000000000000e+03 6.517542266845703125e+01 4.198733329772949219e+00 4.498125910758972168e-01 6.577908039093017578e+00 2.108316183090209961e+00 -1.604371815919876099e-01
4.785000000000000000e+03 7.336841583251953125e+01 2.307334184646606445e+00 -1.087216194719076157e-02 7.163453102111816406e+00 2.145774126052856445e+00 -1.035969614982604980e+00
4.786000000000000000e+03 7.362354278564453125e+01 -2.271018791198730469e+01 5.324057340621948242e-01 9.651337623596191406e+00 3.055123090744018555e+00 -1.178309440612792969e+00
4.787000000000000000e+03 1.604023551940917969e+01 -8.406147956848144531e+00 5.265193581581115723e-01 1.484529495239257812e+00 6.033146381378173828e-01 7.216998338699340820e-01
4.788000000000000000e+03 6.667636871337890625e+01 2.131476974487304688e+01 2.860558331012725830e-01 7.489064693450927734e+00 2.332536220550537109e+00 1.985686719417572021e-01
4.789000000000000000e+03 6.741327667236328125e+01 2.015484046936035156e+01 6.146273612976074219e-01 7.444985389709472656e+00 2.417883872985839844e+00 2.339732348918914795e-01
4.790000000000000000e+03 6.300132751464843750e+01 -1.088787913322448730e+00 4.055172204971313477e-01 4.259391307830810547e+00 1.399472475051879883e+00 7.400159537792205811e-02
4.791000000000000000e+03 3.530271911621093750e+01 2.007792282104492188e+01 2.899412810802459717e-01 6.825326919555664062e+00 2.134580373764038086e+00 -1.931734979152679443e-01
4.792000000000000000e+03 6.789183807373046875e+01 8.775492668151855469e+00 7.115850448608398438e-01 7.454697608947753906e+00 2.449884891510009766e+00 -5.580162405967712402e-01
4.793000000000000000e+03 9.986355781555175781e+00 1.271010780334472656e+01 -4.101211205124855042e-03 -6.137900985777378082e-03 -3.071733750402927399e-03 2.694423601496964693e-04
4.794000000000000000e+03 3.688460922241210938e+01 4.286670684814453125e+00 1.783444285392761230e+00 1.475630760192871094e+01 4.961925506591796875e+00 4.446586370468139648e-01
4.795000000000000000e+03 1.267908287048339844e+01 -1.141062355041503906e+01 1.078409552574157715e+00 1.701154828071594238e+00 8.338692784309387207e-01 1.654050946235656738e-01
4.796000000000000000e+03 1.152758598327636719e+01 -1.327921009063720703e+01 1.221442699432373047e+00 1.644512176513671875e+00 8.597864508628845215e-01 2.051485925912857056e-01
4.797000000000000000e+03 1.283299732208251953e+01 -1.220734405517578125e+01 1.263164281845092773e+00 1.892627954483032227e+00 9.467376470565795898e-01 2.871336936950683594e-01
4.798000000000000000e+03 1.338028430938720703e+01 -1.107643413543701172e+01 1.100991964340209961e+00 1.839672684669494629e+00 8.821994066238403320e-01 2.834362089633941650e-01
4.799000000000000000e+03 1.032284450531005859e+01 1.507156467437744141e+01 -1.701409369707107544e-02 -5.485570523887872696e-03 -6.749899592250585556e-03 -5.077319219708442688e-03
4.800000000000000000e+03 1.048234653472900391e+01 1.432874011993408203e+01 -9.890481829643249512e-03 -6.475578993558883667e-03 -4.909818526357412338e-03 -2.665657317265868187e-03
4.801000000000000000e+03 8.102889060974121094e+00 -3.064814186096191406e+01 -3.038219511508941650e-01 7.162952423095703125e-01 1.237419843673706055e-01 3.890506029129028320e-01
4.802000000000000000e+03 7.403033256530761719e+00 -3.166026115417480469e+01 -2.551066279411315918e-01 6.298351287841796875e-01 1.124185472726821899e-01 3.521014750003814697e-01
4.803000000000000000e+03 3.951266098022460938e+01 -1.280636882781982422e+01 1.730149890022403270e-08 8.089580535888671875e+00 2.426874160766601562e+00 -1.036595821380615234e+00
4.804000000000000000e+03 4.068819427490234375e+01 -1.420242691040039062e+01 5.442428588867187500e-01 7.705407142639160156e+00 2.474895000457763672e+00 -9.886393547058105469e-01
4.805000000000000000e+03 6.464012908935546875e+01 3.509669303894042969e+00 4.241203069686889648e-01 6.295882701873779297e+00 2.016000986099243164e+00 -2.061004005372524261e-02
4.806000000000000000e+03 3.151740264892578125e+01 -5.139935493469238281e+00 -6.131907701492309570e-01 3.271347999572753906e+00 7.974471449851989746e-01 2.859680056571960449e-01
4.807000000000000000e+03 6.692192840576171875e+01 1.351073646545410156e+01 1.029954671859741211e+00 8.197733879089355469e+00 2.768306493759155273e+00 -3.453762829303741455e-01
4.808000000000000000e+03 6.811229705810546875e+01 1.605868530273437500e+01 1.078528404235839844e+00 7.655330181121826172e+00 2.620157480239868164e+00 -1.667937934398651123e-01
4.809000000000000000e+03 3.508689880371093750e+01 -9.136299490928649902e-01 1.457303881645202637e+00 1.021926498413085938e+01 3.502970457077026367e+00 2.009221017360687256e-01
4.810000000000000000e+03 3.437693405151367188e+01 -2.236671686172485352e+00 6.295435428619384766e-01 8.665761947631835938e+00 2.788591623306274414e+00 2.688992917537689209e-01
4.811000000000000000e+03 1.007482910156250000e+01 2.044430541992187500e+01 -1.224248558282852173e-01 4.411552846431732178e-02 -2.349279820919036865e-02 2.834650501608848572e-02
4.812000000000000000e+03 6.764727783203125000e+01 1.724387168884277344e+01 1.098077535629272461e+00 7.699572086334228516e+00 2.639294862747192383e+00 -8.166201412677764893e-02
4.813000000000000000e+03 4.669998931884765625e+01 -9.785045623779296875e+00 -2.253272980451583862e-01 2.170385837554931641e+00 5.835175514221191406e-01 7.772231698036193848e-01
4.814000000000000000e+03 4.140229034423828125e+01 -1.392960166931152344e+01 3.907082974910736084e-01 7.364665985107421875e+00 2.326612234115600586e+00 -8.373069763183593750e-01
4.815000000000000000e+03 3.701723861694335938e+01 -9.241658210754394531e+00 -2.317811965942382812e+00 8.980139732360839844e+00 1.998698234558105469e+00 -1.004080653190612793e+00
4.816000000000000000e+03 3.750283050537109375e+01 -9.672332763671875000e+00 -2.068061351776123047e+00 8.952376365661621094e+00 2.065294504165649414e+00 -9.583039283752441406e-01
4.817000000000000000e+03 1.627703285217285156e+01 3.225487518310546875e+01 1.495994180440902710e-01 4.553106129169464111e-01 1.814730167388916016e-01 -5.283545702695846558e-02
4.818000000000000000e+03 1.658748245239257812e+01 2.899933052062988281e+01 1.127365753054618835e-01 2.735894620418548584e-01 1.158978119492530823e-01 -2.803893014788627625e-02
4.819000000000000000e+03 6.762477111816406250e+01 1.353317165374755859e+01 1.017756223678588867e+00 7.933658599853515625e+00 2.685424566268920898e+00 -3.728313744068145752e-01
4.820000000000000000e+03 6.065999221801757812e+01 2.596366882324218750e+01 -2.840821146965026855e-01 4.244124889373779297e+00 1.188012838363647461e+00 -1.598209500312805176e+00
4.821000000000000000e+03 6.303319168090820312e+01 2.428132247924804688e+01 -6.761828660964965820e-01 6.437485694885253906e+00 1.728390812873840332e+00 -1.098265290260314941e+00
4.822000000000000000e+03 3.673356628417968750e+01 1.485344600677490234e+01 6.288641691207885742e-01 9.188364028930664062e+00 2.945168495178222656e+00 -1.499483585357666016e-01
4.823000000000000000e+03 6.578260898590087891e+00 -2.938496398925781250e+01 -2.163347005844116211e-01 5.500211715698242188e-01 1.001059487462043762e-01 4.721667468547821045e-01
4.824000000000000000e+03 7.115315246582031250e+01 -3.462399291992187500e+01 -4.410358965396881104e-01 7.171673297882080078e+00 2.019191265106201172e+00 1.543931514024734497e-01
4.825000000000000000e+03 6.970270538330078125e+01 -3.077185821533203125e+01 -9.492107033729553223e-01 6.984077453613281250e+00 1.810460090637207031e+00 3.917613625526428223e-01
4.826000000000000000e+03 6.784522247314453125e+01 1.538342761993408203e+01 1.085397720336914062e+00 7.778940677642822266e+00 2.659301519393920898e+00 -2.602404356002807617e-01
4.827000000000000000e+03 7.003713226318359375e+01 -1.044774150848388672e+01 -1.808203577995300293e+00 8.930360794067382812e+00 2.136647224426269531e+00 -9.678384065628051758e-01
4.828000000000000000e+03 6.937374114990234375e+01 -9.745902061462402344e+00 -1.896695852279663086e+00 8.074755668640136719e+00 1.853417992591857910e+00 -1.504013776779174805e+00
4.829000000000000000e+03 4.736563873291015625e+01 -9.805017471313476562e+00 -1.582658439874649048e-01 1.708488821983337402e+00 4.650669097900390625e-01 1.056467413902282715e+00
4.830000000000000000e+03 7.358852386474609375e+01 -1.928590011596679688e+01 1.482755541801452637e+00 9.798963546752929688e+00 3.384515762329101562e+00 -4.490526020526885986e-01
4.831000000000000000e+03 4.325313568115234375e+01 -1.437591552734375000e+01 5.031492114067077637e-01 6.707917690277099609e+00 2.163320064544677734e+00 -2.774239778518676758e-01
4.832000000000000000e+03 4.432600402832031250e+01 -1.265293884277343750e+01 5.798707902431488037e-02 5.220183372497558594e+00 1.583451151847839355e+00 1.165418699383735657e-01
4.833000000000000000e+03 2.341688156127929688e+01 3.109934806823730469e+01 6.728346645832061768e-02 1.397235035896301270e+00 4.393555521965026855e-01 -5.671876668930053711e-01
4.834000000000000000e+03 6.525684356689453125e+01 2.975400686264038086e+00 3.347329795360565186e-01 6.233834743499755859e+00 1.970570206642150879e+00 -2.575067579746246338e-01
4.835000000000000000e+03 1.858224296569824219e+01 2.883935928344726562e+01 1.481612771749496460e-01 3.844897150993347168e-01 1.597952842712402344e-01 -1.609978973865509033e-01
4.836000000000000000e+03 1.764281082153320312e+01 2.928094100952148438e+01 1.404259502887725830e-01 3.352188467979431152e-01 1.426934450864791870e-01 -1.030047237873077393e-01
4.837000000000000000e+03 3.707203292846679688e+01 1.550221824645996094e+01 5.617015957832336426e-01 8.649498939514160156e+00 2.763360261917114258e+00 7.567922770977020264e-02
4.838000000000000000e+03 4.086545181274414062e+01 -1.500247669219970703e+01 8.151001334190368652e-01 7.771810531616210938e+00 2.576073169708251953e+00 -1.012645602226257324e+00
4.839000000000000000e+03 7.291413879394531250e+01 9.966915130615234375e+00 4.233852922916412354e-01 6.851971626281738281e+00 2.182607173919677734e+00 -6.662952303886413574e-01
4.840000000000000000e+03 6.770271301269531250e+01 1.207113647460937500e+01 9.378989338874816895e-01 7.860852241516113281e+00 2.639625310897827148e+00 -4.148545563220977783e-01
4.841000000000000000e+03 5.112993240356445312e+01 2.562864494323730469e+01 1.415384709835052490e-01 1.369942545890808105e+00 4.534443318843841553e-01 8.185933828353881836e-01
4.842000000000000000e+03 7.249413299560546875e+01 3.560300064086914062e+01 -1.181358769536018372e-01 6.370644569396972656e+00 1.875752568244934082e+00 5.821691080927848816e-02
4.843000000000000000e+03 6.942295837402343750e+01 3.289989852905273438e+01 -2.432287186384201050e-01 6.137874126434326172e+00 1.768393635749816895e+00 -7.311567664146423340e-02
4.844000000000000000e+03 3.081374359130859375e+01 3.135208511352539062e+01 -5.716851353645324707e-01 3.454620361328125000e+00 8.648805618286132812e-01 -4.254873991012573242e-01
4.845000000000000000e+03 8.761202812194824219e+00 -2.242276763916015625e+01 1.425906270742416382e-01 1.020686268806457520e+00 3.489830791950225830e-01 7.228292822837829590e-01
4.846000000000000000e+03 4.293259429931640625e+01 2.308950805664062500e+01 -1.869408041238784790e-01 3.918512105941772461e+00 1.119471430778503418e+00 1.559705853462219238e+00
4.847000000000000000e+03 4.779644393920898438e+01 2.507813072204589844e+01 -3.008988127112388611e-02 2.204447031021118164e+00 6.523070931434631348e-01 1.322368621826171875e+00
4.848000000000000000e+03 4.574283981323242188e+01 2.485240554809570312e+01 -1.081205382943153381e-01 2.845358848571777344e+00 8.211714625358581543e-01 1.485881447792053223e+00
4.849000000000000000e+03 3.536350250244140625e+01 2.099931526184082031e+01 1.041478589177131653e-01 6.491090774536132812e+00 1.978571653366088867e+00 -5.269471183419227600e-02
4.850000000000000000e+03 6.599388885498046875e+01 2.210904693603515625e+01 -3.180407732725143433e-02 7.434482574462890625e+00 2.220803499221801758e+00 2.610657922923564911e-02
4.851000000000000000e+03 7.318384552001953125e+01 -3.255587005615234375e+01 -5.396020412445068359e-01 8.336527824401855469e+00 2.339077711105346680e+00 -1.450005918741226196e-01
4.852000000000000000e+03 4.087518310546875000e+01 -2.469411659240722656e+01 1.722150444984436035e+00 7.989702701568603516e+00 2.913555860519409180e+00 -6.727907061576843262e-01
4.853000000000000000e+03 3.947340774536132812e+01 -2.871637344360351562e+01 1.014905199408531189e-01 6.760013580322265625e+00 2.058451175689697266e+00 2.606838643550872803e-01
4.854000000000000000e+03 1.364280128479003906e+01 -3.154885101318359375e+01 -5.249931812286376953e-01 9.209035038948059082e-01 1.187731027603149414e-01 3.993940353393554688e-02
4.855000000000000000e+03 6.834777069091796875e+01 -3.202060699462890625e+01 -7.832452058792114258e-01 5.842259883880615234e+00 1.517704367637634277e+00 6.619520783424377441e-01
4.856000000000000000e+03 3.416116333007812500e+01 2.492913246154785156e+01 -5.054705739021301270e-01 5.367907047271728516e+00 1.458730936050415039e+00 -1.563976407051086426e-01
4.857000000000000000e+03 4.072387695312500000e+01 -2.583840179443359375e+01 1.316449165344238281e+00 7.663260936737060547e+00 2.693912982940673828e+00 -3.990053534507751465e-01
4.858000000000000000e+03 4.191049957275390625e+01 -2.678403472900390625e+01 1.194551348686218262e+00 7.685084342956542969e+00 2.663890600204467773e+00 -5.283920168876647949e-01
4.859000000000000000e+03 4.116463470458984375e+01 -2.682311058044433594e+01 1.054668903350830078e+00 7.550281047821044922e+00 2.581485033035278320e+00 -3.349803686141967773e-01
4.860000000000000000e+03 7.251100158691406250e+01 2.901290130615234375e+01 -2.168557196855545044e-01 6.620891571044921875e+00 1.921210765838623047e+00 2.557224631309509277e-01
4.861000000000000000e+03 7.199662685394287109e+00 2.765862655639648438e+01 -1.639486663043498993e-02 -2.028859965503215790e-02 -1.100503932684659958e-02 1.461767405271530151e-01
4.862000000000000000e+03 7.291936492919921875e+01 2.809881210327148438e+01 -1.857878714799880981e-01 6.654593944549560547e+00 1.940641760826110840e+00 3.109030425548553467e-01
4.863000000000000000e+03 5.366815948486328125e+01 2.618613052368164062e+01 3.483213484287261963e-01 1.142728805541992188e+00 4.473150670528411865e-01 1.718064993619918823e-01
4.864000000000000000e+03 5.535067367553710938e+01 2.604048919677734375e+01 3.766866624355316162e-01 1.177639842033386230e+00 4.662979543209075928e-01 -3.136121928691864014e-01
4.865000000000000000e+03 7.238750457763671875e+01 2.588796806335449219e+01 -1.554656177759170532e-01 6.723551273345947266e+00 1.970425724983215332e+00 3.953796923160552979e-01
4.866000000000000000e+03 6.770299911499023438e+00 2.552402305603027344e+01 -4.412892833352088928e-02 -1.054447237402200699e-02 -1.640202105045318604e-02 1.274428069591522217e-01
4.867000000000000000e+03 1.148509502410888672e+01 2.415297889709472656e+01 -1.529678702354431152e-01 8.512351661920547485e-02 -2.035330608487129211e-02 1.202467456459999084e-01
4.868000000000000000e+03 7.329111480712890625e+01 2.914695167541503906e+01 -1.774139255285263062e-01 6.631617546081542969e+00 1.936261057853698730e+00 2.719137966632843018e-01
4.869000000000000000e+03 7.241013336181640625e+01 -3.405979919433593750e+01 -4.589361548423767090e-01 7.856440544128417969e+00 2.219251155853271484e+00 5.793053656816482544e-02
4.870000000000000000e+03 7.078655242919921875e+01 -3.079777717590332031e+01 -9.030724167823791504e-01 7.562493324279785156e+00 1.997826218605041504e+00 1.083907485008239746e-01
4.871000000000000000e+03 3.588864135742187500e+01 -3.646457672119140625e+01 -1.093907713890075684e+00 4.256203651428222656e+00 9.486888647079467773e-01 6.404882669448852539e-01
4.872000000000000000e+03 3.742949295043945312e+01 -3.453286743164062500e+01 -1.120012760162353516e+00 5.064383029937744141e+00 1.183311104774475098e+00 6.217055320739746094e-01
4.873000000000000000e+03 5.896801376342773438e+01 2.640711593627929688e+01 7.519559562206268311e-02 2.996730089187622070e+00 9.215776920318603516e-01 -1.414473295211791992e+00
4.874000000000000000e+03 6.721285343170166016e+00 3.274786376953125000e+01 4.203774780035018921e-02 -7.491678744554519653e-02 -9.863711893558502197e-03 1.192352250218391418e-01
4.875000000000000000e+03 3.145317077636718750e+01 2.742407608032226562e+01 -5.631243586540222168e-01 4.201531410217285156e+00 1.091522097587585449e+00 -6.940745115280151367e-01
4.876000000000000000e+03 4.167157363891601562e+01 -3.093295097351074219e+01 -4.961242377758026123e-01 6.727618694305419922e+00 1.869448423385620117e+00 -1.261265873908996582e-01
4.877000000000000000e+03 6.802935028076171875e+01 -3.365814590454101562e+01 -5.004827380180358887e-01 5.325213909149169922e+00 1.447419404983520508e+00 6.318091154098510742e-01
4.878000000000000000e+03 7.311174774169921875e+01 3.762121582031250000e+01 -8.648041635751724243e-02 6.431533813476562500e+00 1.903516054153442383e+00 5.317427590489387512e-02
4.879000000000000000e+03 7.070227813720703125e+01 3.806570053100585938e+01 -7.406647503376007080e-02 6.081564903259277344e+00 1.802249431610107422e+00 2.677484881132841110e-03
4.880000000000000000e+03 8.167254447937011719e+00 3.579259490966796875e+01 6.480249762535095215e-02 -1.723707094788551331e-02 1.426962669938802719e-02 8.097779750823974609e-02
4.881000000000000000e+03 8.516263961791992188e+00 3.837182235717773438e+01 7.696557790040969849e-02 1.185568142682313919e-02 2.664637751877307892e-02 4.517956078052520752e-02
4.882000000000000000e+03 5.982529067993164062e+01 2.541783714294433594e+01 -1.565397977828979492e-01 3.619575977325439453e+00 1.038910865783691406e+00 -1.719422459602355957e+00
4.883000000000000000e+03 7.000873565673828125e+00 3.512908172607421875e+01 4.780944809317588806e-02 -6.857030093669891357e-02 -6.228254642337560654e-03 9.027050435543060303e-02
4.884000000000000000e+03 3.321020126342773438e+01 2.740518569946289062e+01 -6.741994619369506836e-01 4.627293109893798828e+00 1.185928225517272949e+00 -3.386090397834777832e-01
4.885000000000000000e+03 4.771673583984375000e+01 -3.696263885498046875e+01 -8.138592243194580078e-01 3.911975860595703125e+00 9.294349551200866699e-01 -1.154200196266174316e+00
4.886000000000000000e+03 4.002938079833984375e+01 -3.367645263671875000e+01 -1.125581741333007812e+00 5.814392566680908203e+00 1.406643271446228027e+00 2.316924333572387695e-01
4.887000000000000000e+03 5.458965682983398438e+01 -3.993936157226562500e+01 5.835848450660705566e-01 1.302445769309997559e+00 5.658091902732849121e-01 -3.596413135528564453e-01
4.888000000000000000e+03 5.044357681274414062e+01 2.647435951232910156e+01 2.249834537506103516e-01 1.665688753128051758e+00 5.672016739845275879e-01 9.029908180236816406e-01
4.889000000000000000e+03 4.813822937011718750e+01 2.621762275695800781e+01 5.966100469231605530e-02 2.191093206405639648e+00 6.752262711524963379e-01 1.232246279716491699e+00
4.890000000000000000e+03 6.860597229003906250e+01 -3.778739547729492188e+01 4.438948631286621094e-02 5.269235610961914062e+00 1.594087481498718262e+00 3.148089945316314697e-01
4.891000000000000000e+03 1.174055099487304688e+01 -8.560185432434082031e+00 3.862713575363159180e-01 9.526273012161254883e-01 4.016695916652679443e-01 -2.283537089824676514e-01
4.892000000000000000e+03 3.357688903808593750e+01 -3.676844596862792969e+00 -3.581764996051788330e-01 7.134025096893310547e+00 2.032754659652709961e+00 5.083848536014556885e-02
4.893000000000000000e+03 9.368712425231933594e+00 9.639080047607421875e+00 7.251299102790653706e-04 -3.848662367090582848e-03 -9.370597545057535172e-04 1.118779415264725685e-03
4.894000000000000000e+03 9.801312446594238281e+00 7.485159873962402344e+00 1.005118712782859802e-03 -2.014899626374244690e-03 -3.029342624358832836e-04 1.091119018383324146e-03
4.895000000000000000e+03 3.229333877563476562e+01 -4.850676536560058594e+00 -6.354725956916809082e-01 4.790911197662353516e+00 1.246631622314453125e+00 2.407909743487834930e-02
4.896000000000000000e+03 3.559140777587890625e+01 -8.153960227966308594e+00 -2.888390302658081055e+00 8.638068199157714844e+00 1.724903345108032227e+00 -1.038592457771301270e+00
4.897000000000000000e+03 3.742141723632812500e+01 -8.565413475036621094e+00 -2.615512609481811523e+00 9.053520202636718750e+00 1.931402325630187988e+00 -1.124827742576599121e+00
4.898000000000000000e+03 4.936330032348632812e+01 -9.953628540039062500e+00 -7.440503686666488647e-02 1.000640392303466797e+00 2.778705954551696777e-01 1.778819799423217773e+00
4.899000000000000000e+03 5.043501281738281250e+01 -1.041802406311035156e+01 -9.081586450338363647e-02 8.886712789535522461e-01 2.393566370010375977e-01 1.887432098388671875e+00
4.900000000000000000e+03 5.203921127319335938e+01 -1.069517707824707031e+01 -2.964321672916412354e-01 7.586005330085754395e-01 1.386505067348480225e-01 1.795399665832519531e+00
4.901000000000000000e+03 5.070812988281250000e+01 -9.609881401062011719e+00 -2.510275840759277344e-01 8.065539598464965820e-01 1.666579097509384155e-01 1.995868682861328125e+00
4.902000000000000000e+03 1.623639106750488281e+01 -6.989355564117431641e+00 1.618069112300872803e-01 1.103902101516723633e+00 3.797127008438110352e-01 6.708961725234985352e-01
4.903000000000000000e+03 3.563162612915039062e+01 -6.812691211700439453e+00 -2.819485664367675781e+00 8.682377815246582031e+00 1.758867740631103516e+00 -1.086190938949584961e+00
4.904000000000000000e+03 4.044044113159179688e+01 -1.341966056823730469e+01 2.416120469570159912e-01 7.709872245788574219e+00 2.385445356369018555e+00 -9.747757911682128906e-01
4.905000000000000000e+03 3.717670822143554688e+01 1.630255699157714844e+01 5.150673985481262207e-01 8.176776885986328125e+00 2.607553243637084961e+00 1.836764514446258545e-01
4.906000000000000000e+03 3.952680206298828125e+01 1.753339385986328125e+01 3.665710389614105225e-01 6.476259708404541016e+00 2.052849292755126953e+00 1.295431971549987793e+00
4.907000000000000000e+03 7.370314025878906250e+01 -1.200637817382812500e+01 -4.996336698532104492e-01 9.385407447814941406e+00 2.665731906890869141e+00 7.464523911476135254e-01
4.908000000000000000e+03 3.488483428955078125e+01 -1.873593688011169434e+00 6.749973893165588379e-01 9.411871910095214844e+00 3.026060581207275391e+00 5.644288286566734314e-02
4.909000000000000000e+03 3.574453735351562500e+01 1.726255989074707031e+01 5.684459805488586426e-01 8.086448669433593750e+00 2.596468448638916016e+00 -5.013538002967834473e-01
4.910000000000000000e+03 7.422840118408203125e+01 -2.230797576904296875e+01 6.067243814468383789e-01 9.417611122131347656e+00 3.007300615310668945e+00 -1.151785969734191895e+00
4.911000000000000000e+03 3.614237213134765625e+01 1.913585662841796875e+01 3.072600662708282471e-01 7.102617263793945312e+00 2.222963333129882812e+00 1.101095881313085556e-02
4.912000000000000000e+03 3.625637817382812500e+01 1.994631958007812500e+01 1.877643465995788574e-01 6.768698692321777344e+00 2.086938858032226562e+00 1.483728438615798950e-01
4.913000000000000000e+03 1.071226119995117188e+01 -7.211763381958007812e+00 7.557611167430877686e-02 5.728975534439086914e-01 1.945420950651168823e-01 -4.053352177143096924e-01
4.914000000000000000e+03 5.712825775146484375e+01 -7.893831729888916016e+00 -4.411934316158294678e-01 1.331810832023620605e+00 2.671852111816406250e-01 1.073603630065917969e+00
4.915000000000000000e+03 1.436186122894287109e+01 -7.283993244171142578e+00 1.559710502624511719e-01 1.111625432968139648e+00 3.802789747714996338e-01 2.522470951080322266e-01
4.916000000000000000e+03 5.268189239501953125e+01 -1.030927562713623047e+01 -4.349756240844726562e-01 8.018304109573364258e-01 1.100564375519752502e-01 1.755981326103210449e+00
4.917000000000000000e+03 4.098154067993164062e+01 -1.575704288482666016e+01 1.053892731666564941e+00 7.905069351196289062e+00 2.687688589096069336e+00 -1.015748977661132812e+00
4.918000000000000000e+03 4.224225234985351562e+01 -1.527341365814208984e+01 8.130850195884704590e-01 7.402421474456787109e+00 2.464652061462402344e+00 -6.775345206260681152e-01
4.919000000000000000e+03 5.357932281494140625e+01 -8.358175277709960938e+00 -5.542927980422973633e-01 1.237192273139953613e+00 2.048698365688323975e-01 1.761228680610656738e+00
4.920000000000000000e+03 5.296145248413085938e+01 -9.297080993652343750e+00 -5.254556536674499512e-01 1.002029418945312500e+00 1.429721415042877197e-01 1.849170565605163574e+00
4.921000000000000000e+03 5.919033813476562500e+01 -7.338849544525146484e+00 -2.717809379100799561e-01 1.410463333129882812e+00 3.416047394275665283e-01 6.603305339813232422e-01
4.922000000000000000e+03 3.446398925781250000e+01 -5.716681480407714844e+00 -2.161323785781860352e+00 7.609047889709472656e+00 1.634317278861999512e+00 -8.577114343643188477e-01
4.923000000000000000e+03 3.436143112182617188e+01 -4.493218898773193359e+00 -1.223283290863037109e+00 7.795328140258789062e+00 1.971613407135009766e+00 -4.388793706893920898e-01
4.924000000000000000e+03 8.716174125671386719e+00 -7.487639904022216797e+00 9.402120858430862427e-02 2.837779223918914795e-01 1.133397370576858521e-01 -5.829731225967407227e-01
4.925000000000000000e+03 7.715377807617187500e+00 -8.647478103637695312e+00 2.244195491075515747e-01 1.675714254379272461e-01 1.175972893834114075e-01 -5.924624204635620117e-01
4.926000000000000000e+03 3.900378799438476562e+01 -6.027716636657714844e+00 -2.582065582275390625e+00 9.095352172851562500e+00 1.953985810279846191e+00 -1.723196148872375488e+00
4.927000000000000000e+03 8.716288566589355469e+00 2.152840232849121094e+01 -1.004029661417007446e-01 3.714710474014282227e-02 -1.897675730288028717e-02 6.311818212270736694e-02
4.928000000000000000e+03 9.395842552185058594e+00 1.555624866485595703e+01 -2.384051866829395294e-02 -3.090080805122852325e-03 -8.079179562628269196e-03 -3.599552670493721962e-03
4.929000000000000000e+03 4.373072814941406250e+01 -9.615764617919921875e+00 -8.276800513267517090e-01 4.575526237487792969e+00 1.124353885650634766e+00 -6.229727268218994141e-01
4.930000000000000000e+03 7.082626342773437500e+01 -1.174285125732421875e+01 -1.279681563377380371e+00 9.823664665222167969e+00 2.563194990158081055e+00 -1.688930988311767578e-01
4.931000000000000000e+03 7.231398773193359375e+01 -2.350155258178710938e+01 2.792019546031951904e-01 1.001362419128417969e+01 3.087847948074340820e+00 -1.012861490249633789e+00
4.932000000000000000e+03 6.241768264770507812e+01 -8.134713768959045410e-01 5.031917691230773926e-01 4.130891799926757812e+00 1.390225052833557129e+00 3.238998055458068848e-01
4.933000000000000000e+03 6.112803649902343750e+01 -1.751684546470642090e+00 6.743350625038146973e-01 3.309864997863769531e+00 1.195260047912597656e+00 6.030170917510986328e-01
4.934000000000000000e+03 8.062679290771484375e+00 -7.705114841461181641e+00 1.114652901887893677e-01 1.939622908830642700e-01 9.162827581167221069e-02 -6.105881929397583008e-01
4.935000000000000000e+03 1.234517955780029297e+01 -1.062685489654541016e+01 8.804241418838500977e-01 1.426518559455871582e+00 6.920828223228454590e-01 2.808857942000031471e-03
4.936000000000000000e+03 6.123061370849609375e+01 -8.038316726684570312e+00 -5.285890102386474609e-01 1.292647600173950195e+00 2.292175590991973877e-01 9.180365502834320068e-02
4.937000000000000000e+03 5.517160415649414062e+01 -8.017470359802246094e+00 -4.641084671020507812e-01 1.349391818046569824e+00 2.655850052833557129e-01 1.410677671432495117e+00
4.938000000000000000e+03 5.481437683105468750e+01 -8.862483978271484375e+00 -6.242269277572631836e-01 1.171047449111938477e+00 1.640461534261703491e-01 1.494872570037841797e+00
4.939000000000000000e+03 6.747628021240234375e+01 2.161944389343261719e+01 2.412688881158828735e-01 7.361549854278564453e+00 2.280845642089843750e+00 2.709105908870697021e-01
4.940000000000000000e+03 7.335652923583984375e+01 2.151177978515625000e+01 1.491238325834274292e-01 6.666922092437744141e+00 2.044813871383666992e+00 4.328586757183074951e-01
4.941000000000000000e+03 4.285833358764648438e+01 -1.552266311645507812e+01 8.762069344520568848e-01 7.268988609313964844e+00 2.443558692932128906e+00 -4.804688394069671631e-01
4.942000000000000000e+03 4.268157577514648438e+01 -1.412825012207031250e+01 4.255428910255432129e-01 6.836953163146972656e+00 2.178748846054077148e+00 -4.786831438541412354e-01
4.943000000000000000e+03 6.884972095489501953e+00 2.243568038940429688e+01 -6.630142033100128174e-02 9.481170214712619781e-03 -1.704607531428337097e-02 8.183083683252334595e-02
4.944000000000000000e+03 7.332378387451171875e+01 2.436817169189453125e+01 -5.451489239931106567e-02 6.706804275512695312e+00 1.995686888694763184e+00 4.501219689846038818e-01
4.945000000000000000e+03 7.267735290527343750e+01 2.283400726318359375e+01 5.177237465977668762e-02 6.736238479614257812e+00 2.036403179168701172e+00 4.660339653491973877e-01
4.946000000000000000e+03 2.952382087707519531e+01 -4.286484718322753906e+00 9.128075838088989258e-01 1.267805099487304688e+00 6.541838049888610840e-01 1.661810517311096191e+00
4.947000000000000000e+03 6.946964740753173828e+00 -2.276678085327148438e+01 9.855943173170089722e-02 5.352168679237365723e-01 1.901328861713409424e-01 7.024635672569274902e-01
4.948000000000000000e+03 6.610739707946777344e+00 -2.203493118286132812e+01 1.603064686059951782e-01 3.992125093936920166e-01 1.678556948900222778e-01 6.712728142738342285e-01
4.949000000000000000e+03 4.226003265380859375e+01 -1.674346351623535156e+01 1.315611362457275391e+00 7.849506378173828125e+00 2.749535322189331055e+00 -7.526673078536987305e-01
4.950000000000000000e+03 3.251686859130859375e+01 -5.506425380706787109e+00 -1.378722906112670898e+00 4.853597640991210938e+00 1.042462468147277832e+00 -3.561715185642242432e-01
4.951000000000000000e+03 3.375895690917968750e+01 -5.139429092407226562e+00 -1.609313845634460449e+00 6.900369167327880859e+00 1.587316632270812988e+00 -5.487717390060424805e-01
4.952000000000000000e+03 7.240056610107421875e+01 -1.397291851043701172e+01 2.914333045482635498e-01 1.016176414489746094e+01 3.135959148406982422e+00 7.799700498580932617e-01
4.953000000000000000e+03 7.333000183105468750e+01 -1.368289566040039062e+01 1.510587483644485474e-01 9.698557853698730469e+00 2.954885005950927734e+00 8.824914693832397461e-01
4.954000000000000000e+03 7.344755554199218750e+01 1.580768203735351562e+01 4.678409099578857422e-01 6.645692825317382812e+00 2.134060144424438477e+00 -2.887178026139736176e-02
4.955000000000000000e+03 7.221540069580078125e+01 2.348719787597656250e+01 -1.364484615623950958e-02 6.775979042053222656e+00 2.028700351715087891e+00 4.584849178791046143e-01
4.956000000000000000e+03 7.331407165527343750e+01 2.005378532409667969e+01 2.610469460487365723e-01 6.654123783111572266e+00 2.074551105499267578e+00 3.656124770641326904e-01
4.957000000000000000e+03 6.872992706298828125e+01 2.041247177124023438e+01 4.882939755916595459e-01 7.225319862365722656e+00 2.314084053039550781e+00 3.238273262977600098e-01
4.958000000000000000e+03 6.369859218597412109e+00 2.351696968078613281e+01 -5.571971833705902100e-02 -4.354035016149282455e-03 -1.802212558686733246e-02 9.757041931152343750e-02
4.959000000000000000e+03 5.832611083984375000e+00 -1.786094856262207031e+01 3.928298354148864746e-01 -3.903055936098098755e-02 1.061397865414619446e-01 3.490809500217437744e-01
4.960000000000000000e+03 7.288681030273437500e+01 1.563515567779541016e+01 5.151980519294738770e-01 6.714351177215576172e+00 2.168864727020263672e+00 -5.750779807567596436e-02
4.961000000000000000e+03 5.995300292968750000e+00 -2.007153129577636719e+01 2.727539241313934326e-01 1.291009783744812012e-01 1.205564737319946289e-01 5.441205501556396484e-01
4.962000000000000000e+03 7.199625015258789062e+00 -2.160708045959472656e+01 2.109381407499313354e-01 5.493167042732238770e-01 2.280764579772949219e-01 6.776285171508789062e-01
4.963000000000000000e+03 7.330200195312500000e+01 7.184707164764404297e+00 2.687026858329772949e-01 6.926118373870849609e+00 2.158446311950683594e+00 -8.676880002021789551e-01
4.964000000000000000e+03 7.403268432617187500e+01 8.776296615600585938e+00 2.878282666206359863e-01 6.804417610168457031e+00 2.127673625946044922e+00 -7.212917804718017578e-01
4.965000000000000000e+03 6.720728874206542969e+00 -1.481808471679687500e+01 5.689788460731506348e-01 9.120099991559982300e-02 1.980539560317993164e-01 1.463139546103775501e-03
4.966000000000000000e+03 9.272837638854980469e+00 7.782775878906250000e+00 8.954500081017613411e-04 -2.755152992904186249e-03 -5.579108837991952896e-04 1.009263214655220509e-03
4.967000000000000000e+03 5.777931213378906250e+00 -1.861133956909179688e+01 3.438084721565246582e-01 -1.593059487640857697e-02 9.836336225271224976e-02 4.142062962055206299e-01
4.968000000000000000e+03 1.063512897491455078e+01 -1.727939796447753906e+01 9.216858744621276855e-01 1.728541970252990723e+00 7.950683832168579102e-01 5.401739478111267090e-01
4.969000000000000000e+03 7.390352630615234375e+01 1.043167781829833984e+01 3.552826642990112305e-01 6.735363483428955078e+00 2.127193927764892578e+00 -5.902053713798522949e-01
4.970000000000000000e+03 5.800270080566406250e+00 1.492022991180419922e+01 -1.183105073869228363e-02 -4.473790060728788376e-03 -4.891452379524707794e-03 3.604423021897673607e-03
4.971000000000000000e+03 8.050308227539062500e+00 1.494729137420654297e+01 -1.798348687589168549e-02 -3.603966208174824715e-03 -6.476236041635274887e-03 5.148024065420031548e-04
4.972000000000000000e+03 7.351848602294921875e+01 -1.462260437011718750e+01 6.292778253555297852e-01 9.684728622436523438e+00 3.094201803207397461e+00 8.759711384773254395e-01
4.973000000000000000e+03 6.882866668701171875e+01 1.006448459625244141e+01 7.613887190818786621e-01 7.418584346771240234e+00 2.453991889953613281e+00 -5.941364765167236328e-01
4.974000000000000000e+03 7.393402099609375000e+01 1.200092411041259766e+01 3.889976441860198975e-01 6.666587352752685547e+00 2.116675376892089844e+00 -4.364984333515167236e-01
4.975000000000000000e+03 6.771904754638671875e+01 1.284967231750488281e+01 9.867649078369140625e-01 7.871909141540527344e+00 2.657602310180664062e+00 -3.805039823055267334e-01
4.976000000000000000e+03 7.186666011810302734e+00 1.513717937469482422e+01 -1.802581734955310822e-02 -2.935301279649138451e-03 -6.288335192948579788e-03 2.553791040554642677e-03
4.977000000000000000e+03 7.342698669433593750e+01 1.742300605773925781e+01 4.144695997238159180e-01 6.625572681427001953e+00 2.112012863159179688e+00 1.436361670494079590e-01
4.978000000000000000e+03 7.300735473632812500e+01 1.801757049560546875e+01 4.287925958633422852e-01 6.683979988098144531e+00 2.133831739425659180e+00 2.024587392807006836e-01
4.979000000000000000e+03 6.537499427795410156e+00 -2.613949203491210938e+01 -1.279366165399551392e-01 5.070096850395202637e-01 1.137219220399856567e-01 6.344805359840393066e-01
4.980000000000000000e+03 7.408808231353759766e+00 -2.503422927856445312e+01 -9.214688837528228760e-02 6.768326163291931152e-01 1.754057258367538452e-01 6.871861219406127930e-01
4.981000000000000000e+03 7.359931945800781250e+01 -4.091709852218627930e-03 -1.650224477052688599e-01 7.363857746124267578e+00 2.159650564193725586e+00 -1.001916527748107910e+00
4.982000000000000000e+03 6.185659408569335938e+00 1.024839878082275391e+01 -1.086994016077369452e-04 -3.783731721341609955e-03 -1.167729380540549755e-03 -1.446455484256148338e-03
4.983000000000000000e+03 9.375969886779785156e+00 1.045482921600341797e+01 -4.467547987587749958e-04 -4.626829177141189575e-03 -1.522075152024626732e-03 1.149031799286603928e-03
4.984000000000000000e+03 7.330033874511718750e+01 -1.395052075386047363e+00 -2.970326542854309082e-01 7.447558879852294922e+00 2.145157814025878906e+00 -9.887293577194213867e-01
4.985000000000000000e+03 7.354472351074218750e+01 7.378798723220825195e-01 -1.188160479068756104e-01 7.292995929718017578e+00 2.152254104614257812e+00 -1.020235896110534668e+00
4.986000000000000000e+03 7.405299377441406250e+01 3.185426235198974609e+00 3.082643635571002960e-02 7.157089233398437500e+00 2.156374692916870117e+00 -9.808757305145263672e-01
4.987000000000000000e+03 7.248861694335937500e+01 -2.419120788574218750e+00 -4.478774964809417725e-01 7.390456199645996094e+00 2.082773685455322266e+00 -1.040312290191650391e+00
4.988000000000000000e+03 7.312461090087890625e+01 -1.170206069946289062e+01 -7.011960148811340332e-01 9.475054740905761719e+00 2.632157802581787109e+00 5.711462497711181641e-01
4.989000000000000000e+03 7.403258514404296875e+01 -9.876347541809082031e+00 -8.108714818954467773e-01 8.965898513793945312e+00 2.446508169174194336e+00 3.345306515693664551e-01
4.990000000000000000e+03 7.403541564941406250e+01 3.995548725128173828e+00 7.336651533842086792e-02 7.095832824707031250e+00 2.150759696960449219e+00 -9.656074047088623047e-01
4.991000000000000000e+03 7.370594024658203125e+01 -2.496091365814208984e+00 -3.875531554222106934e-01 7.650679111480712891e+00 2.178937673568725586e+00 -8.809964656829833984e-01
4.992000000000000000e+03 7.260656738281250000e+01 2.193758010864257812e+00 -9.029550477862358093e-03 7.092381000518798828e+00 2.125005483627319336e+00 -1.077903509140014648e+00
4.993000000000000000e+03 7.392708587646484375e+01 -9.216179847717285156e+00 -8.830767273902893066e-01 8.866729736328125000e+00 2.395095825195312500e+00 1.698770970106124878e-01
4.994000000000000000e+03 7.341641998291015625e+01 -9.262320518493652344e+00 -1.002436637878417969e+00 8.905598640441894531e+00 2.370948553085327148e+00 7.362793385982513428e-02
4.995000000000000000e+03 7.255087280273437500e+01 4.734515666961669922e+00 1.658964753150939941e-01 7.007901191711425781e+00 2.152139186859130859e+00 -1.011107325553894043e+00
4.996000000000000000e+03 7.329814910888671875e+01 4.770503044128417969e+00 1.381399035453796387e-01 7.024120330810546875e+00 2.148678064346313477e+00 -9.829308986663818359e-01
4.997000000000000000e+03 7.323947906494140625e+01 6.380395412445068359e+00 2.347873300313949585e-01 6.955761909484863281e+00 2.157164812088012695e+00 -9.148600697517395020e-01
4.998000000000000000e+03 7.276885223388671875e+01 -9.837180137634277344e+00 -1.128128170967102051e+00 9.071161270141601562e+00 2.382910013198852539e+00 4.004964232444763184e-02
4.999000000000000000e+03 7.343151855468750000e+01 -3.151981115341186523e+00 -4.725330471992492676e-01 7.675258636474609375e+00 2.160817623138427734e+00 -8.810973167419433594e-01
5.000000000000000000e+03 7.433617401123046875e+01 -3.832976579666137695e+00 -4.544508457183837891e-01 7.938596248626708984e+00 2.245243549346923828e+00 -6.852073073387145996e-01
5.001000000000000000e+03 7.388860321044921875e+01 -3.537618875503540039e+00 -4.758087992668151855e-01 7.814318180084228516e+00 2.201552867889404297e+00 -7.840595245361328125e-01
5.002000000000000000e+03 7.328094482421875000e+01 5.570888042449951172e+00 1.813902556896209717e-01 6.993195056915283203e+00 2.152375698089599609e+00 -9.564458727836608887e-01
5.003000000000000000e+03 7.399453735351562500e+01 -8.280255317687988281e+00 -8.663574457168579102e-01 8.670190811157226562e+00 2.341150045394897461e+00 -4.091973230242729187e-02
5.004000000000000000e+03 7.070460510253906250e+01 -1.045664691925048828e+01 -1.626288175582885742e+00 9.162657737731933594e+00 2.260910749435424805e+00 -6.155496835708618164e-01
5.005000000000000000e+03 7.496916961669921875e+01 -7.910199165344238281e+00 -6.761663556098937988e-01 8.649782180786132812e+00 2.392084598541259766e+00 6.584585458040237427e-02
5.006000000000000000e+03 7.338843536376953125e+01 -7.831902503967285156e+00 -9.959804415702819824e-01 8.564330101013183594e+00 2.270504951477050781e+00 -2.582095265388488770e-01
5.007000000000000000e+03 7.353576660156250000e+01 -4.158896446228027344e+00 -5.881897807121276855e-01 7.837611198425292969e+00 2.174826383590698242e+00 -7.855330705642700195e-01
5.008000000000000000e+03 7.365802001953125000e+01 -2.704547882080078125e+01 -5.706316828727722168e-01 9.178376197814941406e+00 2.582323312759399414e+00 -9.448877573013305664e-01
5.009000000000000000e+03 7.362271118164062500e+01 -6.206794261932373047e+00 -8.042849898338317871e-01 8.213912010192871094e+00 2.222888231277465820e+00 -5.176933407783508301e-01
5.010000000000000000e+03 7.408575439453125000e+01 -5.770330429077148438e+00 -6.622096896171569824e-01 8.196145057678222656e+00 2.260180711746215820e+00 -4.817073345184326172e-01
5.011000000000000000e+03 7.387286376953125000e+01 1.278987503051757812e+01 4.060083627700805664e-01 6.651784420013427734e+00 2.117337703704833984e+00 -3.495518267154693604e-01
5.012000000000000000e+03 7.187421417236328125e+01 9.588709831237792969e+00 4.990380704402923584e-01 6.976191997528076172e+00 2.242568969726562500e+00 -7.222912311553955078e-01
5.013000000000000000e+03 1.061360931396484375e+01 1.357194042205810547e+01 -6.141129415482282639e-03 -6.136451382189989090e-03 -3.683274146169424057e-03 -8.077998063527047634e-04
5.014000000000000000e+03 7.127632141113281250e+00 8.340616226196289062e+00 8.946464513428509235e-04 -3.217343706637620926e-03 -6.968092056922614574e-04 -5.409134901128709316e-04
5.015000000000000000e+03 6.000465869903564453e+00 1.664638328552246094e+01 -2.389930002391338348e-02 -2.632834017276763916e-03 -7.959639653563499451e-03 1.131995301693677902e-02
5.016000000000000000e+03 6.522074699401855469e+00 9.767090797424316406e+00 2.824421389959752560e-04 -3.584222402423620224e-03 -9.905340848490595818e-04 -1.146460301242768764e-03
5.017000000000000000e+03 6.919319152832031250e+01 1.211613082885742188e+01 8.649761676788330078e-01 7.438444614410400391e+00 2.491026163101196289e+00 -4.883213043212890625e-01
5.018000000000000000e+03 8.469252586364746094e+00 -1.564454460144042969e+01 8.160601854324340820e-01 7.054509520530700684e-01 4.564533531665802002e-01 2.044120579957962036e-01
5.019000000000000000e+03 6.090757369995117188e+00 1.302493286132812500e+01 -5.353107582777738571e-03 -4.325618036091327667e-03 -2.903617685660719872e-03 -2.712521236389875412e-04
5.020000000000000000e+03 5.986025810241699219e+00 -1.129717540740966797e+01 3.510023951530456543e-01 -1.692221462726593018e-01 5.453407391905784607e-02 -4.254769980907440186e-01
5.021000000000000000e+03 8.762773513793945312e+00 1.953252983093261719e+01 -8.215009421110153198e-02 2.380267903208732605e-02 -1.750422455370426178e-02 2.422611787915229797e-02
5.022000000000000000e+03 6.502826690673828125e+00 1.618261909484863281e+01 -2.321069501340389252e-02 -1.263369922526180744e-03 -7.342219818383455276e-03 7.432024460285902023e-03
5.023000000000000000e+03 8.745769500732421875e+00 1.693870735168457031e+01 -4.069123044610023499e-02 4.336246754974126816e-03 -1.090649515390396118e-02 1.676920684985816479e-03
5.024000000000000000e+03 6.606472492218017578e+00 -9.763106346130371094e+00 2.880097925662994385e-01 -2.969892881810665131e-02 7.749325782060623169e-02 -5.520440936088562012e-01
5.025000000000000000e+03 6.509667396545410156e+00 1.724557685852050781e+01 -3.146412968635559082e-02 1.040217815898358822e-03 -9.127173572778701782e-03 1.329069491475820541e-02
5.026000000000000000e+03 6.678497314453125000e+00 1.841081428527832031e+01 -4.303900152444839478e-02 4.852789454162120819e-03 -1.145586278289556503e-02 2.271084301173686981e-02
5.027000000000000000e+03 8.661566734313964844e+00 -1.992747306823730469e+01 4.647208750247955322e-01 9.725224971771240234e-01 4.311730265617370605e-01 6.346828937530517578e-01
5.028000000000000000e+03 7.360416412353515625e+01 1.847282600402832031e+01 3.371331095695495605e-01 6.602261066436767578e+00 2.081818342208862305e+00 2.481818050146102905e-01
5.029000000000000000e+03 7.242292785644531250e+01 1.755361747741699219e+01 5.109772682189941406e-01 6.756720542907714844e+00 2.180309295654296875e+00 1.513992100954055786e-01
5.030000000000000000e+03 6.615608692169189453e+00 -1.121924495697021484e+01 4.068630933761596680e-01 -2.065495774149894714e-02 1.158624440431594849e-01 -4.321734905242919922e-01
5.031000000000000000e+03 6.937282085418701172e+00 2.660365295410156250e+01 -3.077040426433086395e-02 -1.756550185382366180e-02 -1.450077164918184280e-02 1.390843987464904785e-01
5.032000000000000000e+03 7.279696464538574219e+00 -1.177748203277587891e+01 5.320646762847900391e-01 1.607869416475296021e-01 2.078554928302764893e-01 -3.613027632236480713e-01
5.033000000000000000e+03 7.558266162872314453e+00 -1.864549827575683594e+01 5.130649805068969727e-01 5.624645352363586426e-01 3.226588368415832520e-01 5.025148987770080566e-01
5.034000000000000000e+03 7.373234558105468750e+01 1.951664352416992188e+01 2.722667157649993896e-01 6.596117496490478516e+00 2.060515165328979492e+00 3.286014497280120850e-01
5.035000000000000000e+03 7.295890808105468750e+01 2.060558700561523438e+01 2.314704954624176025e-01 6.695699691772460938e+00 2.078151226043701172e+00 4.020238220691680908e-01
5.036000000000000000e+03 7.223075389862060547e+00 -1.934001922607421875e+01 4.156172573566436768e-01 4.649997353553771973e-01 2.641851007938385010e-01 5.469517707824707031e-01
5.037000000000000000e+03 6.319928741455078125e+01 -4.838889241218566895e-01 4.045962691307067871e-01 4.529271125793457031e+00 1.480160236358642578e+00 9.564399719238281250e-02
5.038000000000000000e+03 1.201074600219726562e+01 -8.066625595092773438e+00 2.738584280014038086e-01 9.120938777923583984e-01 3.557856976985931396e-01 -2.086499631404876709e-01
5.039000000000000000e+03 6.171401023864746094e+00 -1.388922500610351562e+01 4.970458745956420898e-01 -8.141946792602539062e-02 1.246879175305366516e-01 -1.336213499307632446e-01
5.040000000000000000e+03 1.167168617248535156e+01 -9.327669143676757812e+00 5.298004746437072754e-01 1.043290376663208008e+00 4.719272553920745850e-01 -2.145044803619384766e-01
5.041000000000000000e+03 7.388910293579101562e+00 -7.982584476470947266e+00 1.345293670892715454e-01 8.970208466053009033e-02 6.726943701505661011e-02 -6.253013014793395996e-01
5.042000000000000000e+03 1.046297836303710938e+01 -2.295277214050292969e+01 6.353696435689926147e-02 1.496851325035095215e+00 4.681164920330047607e-01 6.600644588470458984e-01
5.043000000000000000e+03 6.601641082763671875e+01 -8.715816497802734375e+00 -1.201233148574829102e+00 3.930890798568725586e+00 8.188973665237426758e-01 -2.214107513427734375e+00
5.044000000000000000e+03 7.295605468750000000e+01 -1.432137775421142578e+01 4.768057167530059814e-01 9.932434082031250000e+00 3.122771739959716797e+00 8.462157845497131348e-01
5.045000000000000000e+03 7.138513183593750000e+01 1.651836585998535156e+01 6.771624684333801270e-01 6.929511547088623047e+00 2.282002210617065430e+00 1.605554670095443726e-02
5.046000000000000000e+03 7.243288421630859375e+01 -2.543790626525878906e+01 -4.199993312358856201e-01 9.495105743408203125e+00 2.722531795501708984e+00 -9.039160609245300293e-01
5.047000000000000000e+03 8.313094139099121094e+00 2.288442802429199219e+01 -9.359925240278244019e-02 3.428301215171813965e-02 -1.779487170279026031e-02 9.326889365911483765e-02
5.048000000000000000e+03 1.241833400726318359e+01 2.593115997314453125e+01 -9.302577376365661621e-02 9.769287705421447754e-02 1.400132547132670879e-03 1.469323337078094482e-01
5.049000000000000000e+03 7.274005126953125000e+01 -2.428473854064941406e+01 -1.995459198951721191e-02 9.731686592102050781e+00 2.913519620895385742e+00 -1.076717019081115723e+00
5.050000000000000000e+03 7.203140258789062500e+01 -2.646024131774902344e+01 -7.069990038871765137e-01 9.210769653320312500e+00 2.551131248474121094e+00 -6.762425899505615234e-01
5.051000000000000000e+03 4.280507659912109375e+01 -8.908321380615234375e+00 -1.230061531066894531e+00 5.195517539978027344e+00 1.189636826515197754e+00 -1.096316814422607422e+00
5.052000000000000000e+03 6.733147144317626953e+00 2.299369239807128906e+01 -6.238989531993865967e-02 5.602014716714620590e-03 -1.703636348247528076e-02 9.128077328205108643e-02
5.053000000000000000e+03 1.905884361267089844e+01 -6.640227317810058594e+00 2.702115178108215332e-01 8.637317419052124023e-01 3.401829600334167480e-01 1.191202163696289062e+00
5.054000000000000000e+03 9.404244422912597656e+00 -2.377871704101562500e+01 -2.901324443519115448e-02 1.168929100036621094e+00 3.419747650623321533e-01 6.957950592041015625e-01
5.055000000000000000e+03 1.209564018249511719e+01 -2.616296386718750000e+01 -4.097853899002075195e-01 1.413399338722229004e+00 3.010841906070709229e-01 3.498065471649169922e-01
5.056000000000000000e+03 1.551297187805175781e+01 -7.168459892272949219e+00 1.714323014020919800e-01 1.145603775978088379e+00 3.951108455657958984e-01 5.090287327766418457e-01
5.057000000000000000e+03 6.136265945434570312e+01 -2.756227731704711914e+00 5.718584060668945312e-01 3.084461688995361328e+00 1.096896052360534668e+00 3.706821203231811523e-01
5.058000000000000000e+03 6.931871414184570312e+00 -2.553582763671875000e+01 -1.090009510517120361e-01 5.777876973152160645e-01 1.406360268592834473e-01 6.643770337104797363e-01
5.059000000000000000e+03 7.124502658843994141e+00 -2.660681152343750000e+01 -1.766612976789474487e-01 6.434500813484191895e-01 1.400366276502609253e-01 6.262579560279846191e-01
5.060000000000000000e+03 3.765601348876953125e+01 -4.937292575836181641e+00 -2.134405374526977539e+00 9.702908515930175781e+00 2.270550966262817383e+00 -1.312398195266723633e+00
5.061000000000000000e+03 7.004179382324218750e+01 2.309887886047363281e+01 -1.028830558061599731e-02 6.951825141906738281e+00 2.082461118698120117e+00 4.091657400131225586e-01
5.062000000000000000e+03 9.476975440979003906e+00 1.838314437866210938e+01 -6.994180381298065186e-02 1.613434031605720520e-02 -1.614223979413509369e-02 4.188290331512689590e-03
5.063000000000000000e+03 5.525910568237304688e+01 -9.374290466308593750e+00 -7.531161308288574219e-01 1.077663302421569824e+00 9.736414253711700439e-02 1.363754391670227051e+00
5.064000000000000000e+03 5.628557205200195312e+01 -7.404752254486083984e+00 -2.977461218833923340e-01 1.400073051452636719e+00 3.306980729103088379e-01 1.221318006515502930e+00
5.065000000000000000e+03 5.542143630981445312e+01 -8.591258049011230469e+00 -6.090744733810424805e-01 1.263796567916870117e+00 1.964166164398193359e-01 1.378147363662719727e+00
5.066000000000000000e+03 1.074287319183349609e+01 1.060268115997314453e+01 -2.998445415869355202e-04 -3.348919330164790154e-03 -1.094629173167049885e-03 2.153509994968771935e-03
5.067000000000000000e+03 1.070507335662841797e+01 1.280836391448974609e+01 -2.885895781219005585e-03 -5.462978966534137726e-03 -2.504662377759814262e-03 7.827217341400682926e-04
5.068000000000000000e+03 8.651360511779785156e+00 1.116970539093017578e+01 -1.424103043973445892e-03 -5.486504640430212021e-03 -2.073182258754968643e-03 4.120751982554793358e-04
5.069000000000000000e+03 6.623822784423828125e+01 2.273468208312988281e+01 -1.739305555820465088e-01 7.285114765167236328e+00 2.133355140686035156e+00 -6.220106966793537140e-03
5.070000000000000000e+03 1.821023559570312500e+01 -7.113695144653320312e+00 3.339415788650512695e-01 1.039654970169067383e+00 4.120789766311645508e-01 1.099677085876464844e+00
5.071000000000000000e+03 1.539494228363037109e+01 -8.526597023010253906e+00 5.156423449516296387e-01 1.469867110252380371e+00 5.956528782844543457e-01 5.546050667762756348e-01
5.072000000000000000e+03 6.172134399414062500e+01 -8.497670173645019531e+00 -7.120234370231628418e-01 1.160912632942199707e+00 1.346667557954788208e-01 -4.716183617711067200e-02
5.073000000000000000e+03 7.008356475830078125e+01 2.154537200927734375e+01 2.389843463897705078e-01 7.025380611419677734e+00 2.179309368133544922e+00 4.123854637145996094e-01
5.074000000000000000e+03 7.234554290771484375e+01 2.448742103576660156e+01 -8.035627007484436035e-02 6.762514114379882812e+00 2.004647254943847656e+00 4.438369274139404297e-01
5.075000000000000000e+03 4.806951904296875000e+01 -1.007943630218505859e+01 -6.077796593308448792e-02 1.471971511840820312e+00 4.233580529689788818e-01 1.371571421623229980e+00
5.076000000000000000e+03 6.706064701080322266e+00 7.805863380432128906e+00 1.169941970147192478e-03 -2.389595843851566315e-03 -3.658961504697799683e-04 -8.910495671443641186e-04
5.077000000000000000e+03 8.705596923828125000e+00 8.125741004943847656e+00 1.190747600048780441e-03 -2.826837822794914246e-03 -4.908270202577114105e-04 4.198802344035357237e-04
5.078000000000000000e+03 5.909057617187500000e+01 -8.005880355834960938e+00 -5.431324839591979980e-01 1.250792860984802246e+00 2.122981101274490356e-01 7.040166258811950684e-01
5.079000000000000000e+03 4.024531555175781250e+01 -7.788763999938964844e+00 -2.275895357131958008e+00 7.785985946655273438e+00 1.653027176856994629e+00 -1.636405467987060547e+00
5.080000000000000000e+03 3.948031997680664062e+01 -7.647544860839843750e+00 -2.500579595565795898e+00 8.431915283203125000e+00 1.779400587081909180e+00 -1.583700656890869141e+00
5.081000000000000000e+03 4.064754867553710938e+01 2.108462333679199219e+01 -8.113972842693328857e-02 5.072022438049316406e+00 1.497264862060546875e+00 1.396324992179870605e+00
5.082000000000000000e+03 1.012644290924072266e+01 -1.755545425415039062e+01 8.369516730308532715e-01 1.482559800148010254e+00 6.958534717559814453e-01 5.249001383781433105e-01
5.083000000000000000e+03 6.647343444824218750e+01 4.881351947784423828e+00 4.453853368759155273e-01 6.865921020507812500e+00 2.193391799926757812e+00 -4.694596827030181885e-01
5.084000000000000000e+03 6.655270385742187500e+01 6.198696136474609375e+00 5.576688647270202637e-01 7.134372711181640625e+00 2.307612419128417969e+00 -4.326277375221252441e-01
5.085000000000000000e+03 3.905416488647460938e+01 -1.068809700012207031e+01 -1.216757535934448242e+00 8.297734260559082031e+00 2.124293088912963867e+00 -1.008486747741699219e+00
5.086000000000000000e+03 3.826962661743164062e+01 -1.012328243255615234e+01 -1.646355152130126953e+00 8.709305763244628906e+00 2.118885040283203125e+00 -9.810797572135925293e-01
5.087000000000000000e+03 9.743814468383789062e+00 8.438814163208007812e+00 8.611819357611238956e-04 -2.612436888739466667e-03 -5.253764684312045574e-04 1.182030537165701389e-03
5.088000000000000000e+03 9.133987426757812500e+00 8.837549209594726562e+00 5.303825601004064083e-04 -3.440082073211669922e-03 -8.729098481126129627e-04 1.091378508135676384e-03
5.089000000000000000e+03 6.569567108154296875e+01 -8.145227432250976562e+00 -9.384683966636657715e-01 3.691394567489624023e+00 8.258778452873229980e-01 -2.046047449111938477e+00
5.090000000000000000e+03 6.934819030761718750e+01 -9.051156997680664062e+00 -1.738681197166442871e+00 7.763171672821044922e+00 1.807347178459167480e+00 -1.534307956695556641e+00
5.091000000000000000e+03 6.876087188720703125e+01 -8.471855163574218750e+00 -1.602340579032897949e+00 6.999433517456054688e+00 1.619127988815307617e+00 -1.802784681320190430e+00
5.092000000000000000e+03 3.960459518432617188e+01 -6.916777133941650391e+00 -2.564317226409912109e+00 8.464754104614257812e+00 1.770131111145019531e+00 -1.755124449729919434e+00
5.093000000000000000e+03 3.888852310180664062e+01 -6.730419635772705078e+00 -2.672602891921997070e+00 8.974208831787109375e+00 1.890481829643249512e+00 -1.620630383491516113e+00
5.094000000000000000e+03 1.078669738769531250e+01 8.246037483215332031e+00 4.610453615896403790e-04 -1.680789981037378311e-03 -3.659233625512570143e-04 1.707400544546544552e-03
5.095000000000000000e+03 3.919628143310546875e+01 -1.135960102081298828e+01 -7.999786138534545898e-01 8.208873748779296875e+00 2.222668409347534180e+00 -9.946178793907165527e-01
5.096000000000000000e+03 6.340067672729492188e+01 2.543556594848632812e+01 -6.433828473091125488e-01 6.115804195404052734e+00 1.641726374626159668e+00 -9.724084734916687012e-01
5.097000000000000000e+03 4.297212219238281250e+01 -1.356060123443603516e+01 2.148737609386444092e-01 6.465422153472900391e+00 2.004088640213012695e+00 -3.833788931369781494e-01
5.098000000000000000e+03 4.352107620239257812e+01 -1.015411758422851562e+01 -7.042395472526550293e-01 4.918352603912353516e+00 1.264233946800231934e+00 -5.861436724662780762e-01
5.099000000000000000e+03 7.148395061492919922e+00 2.833466529846191406e+01 -7.435325998812913895e-03 -2.755461819469928741e-02 -1.049698330461978912e-02 1.465776413679122925e-01
5.100000000000000000e+03 6.316429138183593750e+01 5.432366952300071716e-02 4.177405834197998047e-01 4.692014694213867188e+00 1.532926559448242188e+00 1.748017370700836182e-01
5.101000000000000000e+03 6.453063201904296875e+01 9.589905142784118652e-01 2.825638055801391602e-01 5.471935749053955078e+00 1.726349830627441406e+00 -1.613818705081939697e-01
5.102000000000000000e+03 4.093014526367187500e+01 -9.307800292968750000e+00 -1.604531049728393555e+00 7.120836734771728516e+00 1.654891729354858398e+00 -1.278373599052429199e+00
5.103000000000000000e+03 5.743618774414062500e+01 -9.220711708068847656e+00 -9.010105133056640625e-01 1.076354503631591797e+00 5.260320007801055908e-02 9.605627655982971191e-01
5.104000000000000000e+03 3.978650283813476562e+01 1.972221183776855469e+01 7.694484293460845947e-02 5.734021186828613281e+00 1.743289828300476074e+00 1.288133382797241211e+00
5.105000000000000000e+03 3.330303192138671875e+01 -2.977776527404785156e+00 4.061742424964904785e-01 7.087201595306396484e+00 2.248012781143188477e+00 5.342205166816711426e-01
5.106000000000000000e+03 3.560801696777343750e+01 -3.011516571044921875e+00 -4.000701308250427246e-01 9.432353973388671875e+00 2.709685087203979492e+00 -5.230920314788818359e-01
5.107000000000000000e+03 7.307517242431640625e+01 2.216957092285156250e+01 1.009205132722854614e-01 6.710021018981933594e+00 2.043282508850097656e+00 4.569788277149200439e-01
5.108000000000000000e+03 6.965502262115478516e+00 1.210063552856445312e+01 -3.522227983921766281e-03 -4.908089991658926010e-03 -2.529095392674207687e-03 -5.396661581471562386e-04
5.109000000000000000e+03 9.295207023620605469e+00 1.743451499938964844e+01 -5.056909471750259399e-02 6.858916953206062317e-03 -1.311305351555347443e-02 -6.476742419181391597e-05
5.110000000000000000e+03 3.773839187622070312e+01 1.513757228851318359e+01 5.902757048606872559e-01 8.548250198364257812e+00 2.741557836532592773e+00 4.685190916061401367e-01
5.111000000000000000e+03 3.829153823852539062e+01 1.580773830413818359e+01 5.083772540092468262e-01 7.938156127929687500e+00 2.533960103988647461e+00 8.159672617912292480e-01
5.112000000000000000e+03 3.726026916503906250e+01 1.442210197448730469e+01 6.426854133605957031e-01 9.336347579956054688e+00 2.993710041046142578e+00 1.219675391912460327e-01
5.113000000000000000e+03 6.045039749145507812e+01 -5.786892414093017578e+00 1.812631040811538696e-01 1.922979950904846191e+00 6.312729120254516602e-01 3.773209154605865479e-01
5.114000000000000000e+03 7.283800506591796875e+01 -3.059605598449707031e+01 -7.299810647964477539e-01 8.455173492431640625e+00 2.317557811737060547e+00 -3.187055289745330811e-01
5.115000000000000000e+03 7.283560180664062500e+01 -2.796452140808105469e+01 -7.582368254661560059e-01 8.933516502380371094e+00 2.452584028244018555e+00 -6.671297550201416016e-01
5.116000000000000000e+03 4.260836791992187500e+01 -1.613060569763183594e+01 1.085250139236450195e+00 7.556281566619873047e+00 2.592459440231323242e+00 -6.060500144958496094e-01
5.117000000000000000e+03 4.114637756347656250e+01 -1.648951911926269531e+01 1.279038310050964355e+00 8.027585029602050781e+00 2.791986942291259766e+00 -1.019771337509155273e+00
5.118000000000000000e+03 9.586276054382324219e+00 -1.938444328308105469e+01 5.863254666328430176e-01 1.302926898002624512e+00 5.667757391929626465e-01 6.182552576065063477e-01
5.119000000000000000e+03 6.847933959960937500e+01 1.676986694335937500e+01 1.010088443756103516e+00 7.517350673675537109e+00 2.558231830596923828e+00 -8.108424395322799683e-02
5.120000000000000000e+03 7.273178863525390625e+01 1.962963294982910156e+01 3.277385830879211426e-01 6.714136123657226562e+00 2.112562417984008789e+00 3.430193364620208740e-01
5.121000000000000000e+03 3.770681381225585938e+01 1.786234092712402344e+01 3.325641453266143799e-01 7.194205760955810547e+00 2.258030891418457031e+00 5.365409851074218750e-01
5.122000000000000000e+03 7.702773094177246094e+00 7.909849166870117188e+00 1.257698168046772480e-03 -2.785549964755773544e-03 -4.583555564749985933e-04 -2.306545793544501066e-04
5.123000000000000000e+03 6.785271453857421875e+01 1.051265144348144531e+01 8.340719938278198242e-01 7.666550159454345703e+00 2.550186634063720703e+00 -4.939926564693450928e-01
5.124000000000000000e+03 1.385108089447021484e+01 -8.506232261657714844e+00 4.429075717926025391e-01 1.326341152191162109e+00 5.307745933532714844e-01 1.670806109905242920e-01
5.125000000000000000e+03 1.288830375671386719e+01 -7.387187957763671875e+00 1.575177758932113647e-01 9.421491026878356934e-01 3.299000561237335205e-01 -7.559540867805480957e-02
5.126000000000000000e+03 4.357893371582031250e+01 -1.391207313537597656e+01 3.451504409313201904e-01 6.276273727416992188e+00 1.986427307128906250e+00 -1.095052063465118408e-01
5.127000000000000000e+03 4.205173492431640625e+01 -1.387593364715576172e+01 3.238203823566436768e-01 7.042613506317138672e+00 2.209930181503295898e+00 -6.752997040748596191e-01
5.128000000000000000e+03 7.007214355468750000e+01 -8.872376441955566406e+00 -1.690438866615295410e+00 8.109177589416503906e+00 1.925621628761291504e+00 -1.254588007926940918e+00
5.129000000000000000e+03 6.675205707550048828e+00 -8.186001777648925781e+00 1.380159258842468262e-01 -2.116678096354007721e-02 3.505474328994750977e-02 -6.288054585456848145e-01
5.130000000000000000e+03 4.324545288085937500e+01 -9.306806564331054688e+00 -1.041583061218261719e+00 4.882602214813232422e+00 1.152305722236633301e+00 -9.342437386512756348e-01
5.131000000000000000e+03 4.164369964599609375e+01 -8.695684432983398438e+00 -1.635066986083984375e+00 6.376063823699951172e+00 1.422299027442932129e+00 -1.427588701248168945e+00
5.132000000000000000e+03 4.290584564208984375e+01 2.431046867370605469e+01 -2.413950115442276001e-01 3.862840890884399414e+00 1.086433768272399902e+00 1.494647741317749023e+00
5.133000000000000000e+03 7.184339904785156250e+01 -3.073271751403808594e+01 -8.324347734451293945e-01 8.081561088562011719e+00 2.174737691879272461e+00 -1.267758458852767944e-01
5.134000000000000000e+03 7.074221038818359375e+01 -3.198115348815917969e+01 -7.830324172973632812e-01 7.317648410797119141e+00 1.960384845733642578e+00 1.806730329990386963e-01
5.135000000000000000e+03 6.674538421630859375e+01 6.920577049255371094e+00 6.125652790069580078e-01 7.285182476043701172e+00 2.369324445724487305e+00 -4.369020164012908936e-01
5.136000000000000000e+03 8.615796089172363281e+00 -3.256484985351562500e+01 -2.999454736709594727e-01 6.961936354637145996e-01 1.188744455575942993e-01 2.825119793415069580e-01
5.137000000000000000e+03 6.740322113037109375e+01 8.267748832702636719e+00 6.940084099769592285e-01 7.443996429443359375e+00 2.441401481628417969e+00 -5.183004140853881836e-01
5.138000000000000000e+03 7.263118743896484375e+01 9.182598114013671875e+00 4.234151840209960938e-01 6.911038398742675781e+00 2.200335979461669922e+00 -7.446816563606262207e-01
5.139000000000000000e+03 4.039103317260742188e+01 -1.586894512176513672e+01 1.113499641418457031e+00 8.120454788208007812e+00 2.770186185836791992e+00 -1.148476839065551758e+00
5.140000000000000000e+03 5.166595840454101562e+01 -9.942795753479003906e+00 -3.149995803833007812e-01 8.400316834449768066e-01 1.575096249580383301e-01 1.956422924995422363e+00
5.141000000000000000e+03 5.104058456420898438e+01 -1.023117828369140625e+01 -1.935474872589111328e-01 8.225378394126892090e-01 1.886970996856689453e-01 1.942742228507995605e+00
5.142000000000000000e+03 3.598546218872070312e+01 1.839030265808105469e+01 4.510701596736907959e-01 7.468432903289794922e+00 2.375850915908813477e+00 -1.847708970308303833e-01
5.143000000000000000e+03 3.658106613159179688e+01 1.728055572509765625e+01 4.615566730499267578e-01 7.811212062835693359e+00 2.481830596923828125e+00 -9.206230752170085907e-03
5.144000000000000000e+03 6.064847564697265625e+01 -5.156359195709228516e+00 2.810119092464447021e-01 2.137685537338256836e+00 7.256092429161071777e-01 3.473014533519744873e-01
5.145000000000000000e+03 1.140141487121582031e+01 -8.828727722167968750e+00 4.165881574153900146e-01 9.189057350158691406e-01 4.006481766700744629e-01 -2.641986310482025146e-01
5.146000000000000000e+03 7.389044952392578125e+01 1.357626438140869141e+01 4.108481407165527344e-01 6.623632431030273438e+00 2.110344171524047852e+00 -2.781365811824798584e-01
5.147000000000000000e+03 1.195197105407714844e+01 -2.838636207580566406e+01 -4.895551502704620361e-01 1.180924534797668457e+00 2.074108272790908813e-01 2.777781188488006592e-01
5.148000000000000000e+03 1.063187122344970703e+01 -1.490761756896972656e+01 1.124126076698303223e+00 1.498613595962524414e+00 7.868219017982482910e-01 3.134713768959045410e-01
5.149000000000000000e+03 1.375894641876220703e+01 -3.352625274658203125e+01 -4.504060149192810059e-01 7.890751361846923828e-01 1.016007363796234131e-01 -1.976970396935939789e-02
5.150000000000000000e+03 6.095069503784179688e+01 -4.491077423095703125e+00 4.157798886299133301e-01 2.444239854812622070e+00 8.580059409141540527e-01 3.027541935443878174e-01
5.151000000000000000e+03 6.035881423950195312e+01 -3.620248317718505859e+00 6.061868071556091309e-01 2.513672590255737305e+00 9.359578490257263184e-01 5.529450774192810059e-01
5.152000000000000000e+03 6.764725494384765625e+01 7.254255771636962891e+00 6.034232974052429199e-01 7.249982833862304688e+00 2.356021881103515625e+00 -6.032820343971252441e-01
5.153000000000000000e+03 6.742892456054687500e+01 6.646202087402343750e+00 5.569471120834350586e-01 7.175171852111816406e+00 2.319635629653930664e+00 -5.963180065155029297e-01
5.154000000000000000e+03 3.739357376098632812e+01 1.706478881835937500e+01 4.125716686248779297e-01 7.618498325347900391e+00 2.409321069717407227e+00 3.647132217884063721e-01
5.155000000000000000e+03 3.859198379516601562e+01 1.689245605468750000e+01 4.036176502704620361e-01 7.257733821868896484e+00 2.298405408859252930e+00 9.337862730026245117e-01
5.156000000000000000e+03 6.516931152343750000e+01 1.015447258949279785e+00 2.321848869323730469e-01 5.647744655609130859e+00 1.763978838920593262e+00 -3.788496553897857666e-01
5.157000000000000000e+03 6.507316589355468750e+01 1.748786926269531250e+00 2.841953337192535400e-01 5.856455802917480469e+00 1.842195391654968262e+00 -2.742478549480438232e-01
5.158000000000000000e+03 3.805445098876953125e+01 -7.210548400878906250e+00 -2.773181438446044922e+00 9.158301353454589844e+00 1.915535926818847656e+00 -1.372473955154418945e+00
5.159000000000000000e+03 7.191035461425781250e+01 1.608306884765625000e+01 6.275315880775451660e-01 6.866665840148925781e+00 2.248259305953979492e+00 -2.739474549889564514e-02
5.160000000000000000e+03 6.953759002685546875e+01 -3.206330490112304688e+01 -7.949998378753662109e-01 6.551966190338134766e+00 1.727090001106262207e+00 4.293486475944519043e-01
5.161000000000000000e+03 7.013727188110351562e+00 -1.649701118469238281e+01 5.936993360519409180e-01 2.649210691452026367e-01 2.575861215591430664e-01 2.424645274877548218e-01
5.162000000000000000e+03 2.588438606262207031e+01 3.036143493652343750e+01 -8.779540657997131348e-02 2.050616264343261719e+00 5.888462662696838379e-01 -8.379089236259460449e-01
5.163000000000000000e+03 7.826280117034912109e+00 3.108934020996093750e+01 3.158782422542572021e-02 -1.752508245408535004e-02 4.218823276460170746e-03 1.413906067609786987e-01
5.164000000000000000e+03 9.372667312622070312e+00 3.295165252685546875e+01 7.171665132045745850e-02 5.365581437945365906e-02 3.761173784732818604e-02 1.199995875358581543e-01
5.165000000000000000e+03 4.107171249389648438e+01 -2.085585784912109375e+01 1.847499132156372070e+00 8.656379699707031250e+00 3.151163578033447266e+00 -9.413313865661621094e-01
5.166000000000000000e+03 4.086487960815429688e+01 -2.010303306579589844e+01 1.814205527305603027e+00 8.644980430603027344e+00 3.137755870819091797e+00 -9.406760931015014648e-01
5.167000000000000000e+03 5.194269943237304688e+01 -8.892193794250488281e+00 -4.831677079200744629e-01 9.373657703399658203e-01 1.362594217061996460e-01 2.046106576919555664e+00
5.168000000000000000e+03 4.607011413574218750e+01 -1.249882984161376953e+01 2.551075220108032227e-01 3.795820474624633789e+00 1.215278387069702148e+00 8.492993712425231934e-01
5.169000000000000000e+03 4.737665176391601562e+01 -1.139200305938720703e+01 1.597238481044769287e-01 2.362392187118530273e+00 7.566347718238830566e-01 1.224416613578796387e+00
5.170000000000000000e+03 6.682212352752685547e+00 1.158372497558593750e+01 -2.305913018062710762e-03 -5.182029213756322861e-03 -2.246382646262645721e-03 -4.187411977909505367e-04
5.171000000000000000e+03 7.361879730224609375e+01 1.507458591461181641e+01 4.458952546119689941e-01 6.625916004180908203e+00 2.121543407440185547e+00 -1.160411536693572998e-01
5.172000000000000000e+03 3.688763809204101562e+01 -6.377773284912109375e+00 -2.720920085906982422e+00 9.279280662536621094e+00 1.967508316040039062e+00 -1.223927021026611328e+00
5.173000000000000000e+03 6.988027572631835938e+00 2.177791976928710938e+01 -6.858288496732711792e-02 1.352620869874954224e-02 -1.651700399816036224e-02 7.150305807590484619e-02
5.174000000000000000e+03 7.277281951904296875e+01 1.368789196014404297e+00 -7.849196344614028931e-02 7.152848720550537109e+00 2.122307062149047852e+00 -1.077295303344726562e+00
5.175000000000000000e+03 9.565461158752441406e+00 2.161404418945312500e+01 -1.234065592288970947e-01 5.219202116131782532e-02 -2.136436291038990021e-02 5.908636748790740967e-02
5.176000000000000000e+03 1.074129581451416016e+01 -1.407434749603271484e+01 1.157884001731872559e+00 1.444278359413146973e+00 7.806487083435058594e-01 2.016758024692535400e-01
5.177000000000000000e+03 7.850244522094726562e+00 -1.530840587615966797e+01 7.354238629341125488e-01 4.776601195335388184e-01 3.639251887798309326e-01 1.177603304386138916e-01
5.178000000000000000e+03 1.285236454010009766e+01 2.662505340576171875e+01 -6.116030365228652954e-02 1.106888875365257263e-01 1.485857553780078888e-02 1.445068120956420898e-01
5.179000000000000000e+03 7.782170772552490234e+00 2.807633972167968750e+01 -1.159019209444522858e-02 -3.427032381296157837e-03 -4.505167249590158463e-03 1.516604572534561157e-01
5.180000000000000000e+03 6.520621776580810547e+00 2.082665252685546875e+01 -5.792161449790000916e-02 7.183326408267021179e-03 -1.522148679941892624e-02 5.553507432341575623e-02
5.181000000000000000e+03 6.149625015258789062e+01 -1.089564561843872070e+00 6.477106809616088867e-01 3.660444498062133789e+00 1.292446494102478027e+00 5.957370996475219727e-01
5.182000000000000000e+03 9.601658821105957031e+00 1.485100078582763672e+01 -1.625755988061428070e-02 -5.288360640406608582e-03 -6.463775876909494400e-03 -3.004528349265456200e-03
5.183000000000000000e+03 6.572772502899169922e+00 1.259513950347900391e+01 -4.485458601266145706e-03 -5.529487505555152893e-03 -3.004483878612518311e-03 -4.937688354402780533e-04
5.184000000000000000e+03 6.816733551025390625e+01 1.955484580993652344e+01 7.032140493392944336e-01 7.371510982513427734e+00 2.422417402267456055e+00 2.416828721761703491e-01
5.185000000000000000e+03 7.202037811279296875e+01 -2.466489601135253906e+01 -2.173215895891189575e-01 9.741917610168457031e+00 2.857378959655761719e+00 -8.767594099044799805e-01
5.186000000000000000e+03 7.174179840087890625e+01 -2.576960563659667969e+01 -5.829895138740539551e-01 9.404111862182617188e+00 2.646336793899536133e+00 -6.760169863700866699e-01
5.187000000000000000e+03 6.573657226562500000e+01 1.845533132553100586e+00 2.429971694946289062e-01 6.013807773590087891e+00 1.877041459083557129e+00 -4.498710334300994873e-01
5.188000000000000000e+03 7.161202239990234375e+01 2.610185813903808594e+01 -1.973366290330886841e-01 6.743982315063476562e+00 1.963993668556213379e+00 3.547631204128265381e-01
5.189000000000000000e+03 4.085023880004882812e+01 -2.248616600036621094e+01 1.895038723945617676e+00 8.457253456115722656e+00 3.105687618255615234e+00 -9.084242582321166992e-01
5.190000000000000000e+03 3.928935623168945312e+01 -2.703928947448730469e+01 6.576693654060363770e-01 7.013061046600341797e+00 2.301219224929809570e+00 1.084070801734924316e-01
5.191000000000000000e+03 1.112713813781738281e+01 -2.400739860534667969e+01 -1.280905306339263916e-01 1.562982201576232910e+00 4.304674863815307617e-01 5.649526119232177734e-01
5.192000000000000000e+03 1.416383838653564453e+01 2.728367614746093750e+01 -2.228743769228458405e-02 1.348118185997009277e-01 3.375731408596038818e-02 1.210282966494560242e-01
5.193000000000000000e+03 7.239215087890625000e+01 1.573995304107666016e+01 5.731304287910461426e-01 6.793500423431396484e+00 2.209989309310913086e+00 -4.989821463823318481e-02
5.194000000000000000e+03 7.207095336914062500e+01 -3.292263031005859375e+01 -6.037279367446899414e-01 7.836314678192138672e+00 2.169775962829589844e+00 -9.564347565174102783e-03
5.195000000000000000e+03 7.113980865478515625e+01 2.821578788757324219e+01 -2.779031991958618164e-01 6.643178462982177734e+00 1.909582614898681641e+00 2.303222119808197021e-01
5.196000000000000000e+03 6.796956062316894531e+00 2.016137123107910156e+01 -5.848532170057296753e-02 9.101578034460544586e-03 -1.481512282043695450e-02 4.400087147951126099e-02
5.197000000000000000e+03 9.807415962219238281e+00 1.935473823547363281e+01 -9.425404667854309082e-02 2.837734855711460114e-02 -1.976300962269306183e-02 1.164781395345926285e-02
5.198000000000000000e+03 7.111808013916015625e+01 2.981583976745605469e+01 -2.716442942619323730e-01 6.533895492553710938e+00 1.878675341606140137e+00 1.522525846958160400e-01
5.199000000000000000e+03 4.183117675781250000e+01 2.296632194519042969e+01 -2.136054933071136475e-01 4.305955886840820312e+00 1.227705121040344238e+00 1.480146765708923340e+00
5.200000000000000000e+03 1.174184894561767578e+01 2.544696617126464844e+01 -1.068110615015029907e-01 8.995732665061950684e-02 -5.056119989603757858e-03 1.453523933887481689e-01
5.201000000000000000e+03 8.489410400390625000e+00 2.932558250427246094e+01 1.012490037828683853e-02 1.082089170813560486e-02 6.283737719058990479e-03 1.526632755994796753e-01
5.202000000000000000e+03 1.701828193664550781e+01 3.112619590759277344e+01 1.543474197387695312e-01 4.375504553318023682e-01 1.775693595409393311e-01 -1.008953675627708435e-01
5.203000000000000000e+03 4.663737487792968750e+01 2.535709381103515625e+01 -6.227368488907814026e-02 2.599169254302978516e+00 7.610687017440795898e-01 1.438635587692260742e+00
5.204000000000000000e+03 2.219939994812011719e+01 3.250207901000976562e+01 9.663935005664825439e-02 1.186945199966430664e+00 3.850753605365753174e-01 -4.487050771713256836e-01
5.205000000000000000e+03 1.779198646545410156e+01 3.242784881591796875e+01 1.560385078191757202e-01 6.014624834060668945e-01 2.272502928972244263e-01 -1.589784324169158936e-01
5.206000000000000000e+03 4.188587951660156250e+01 2.173264503479003906e+01 -9.603700786828994751e-02 4.408454895019531250e+00 1.293725371360778809e+00 1.543993115425109863e+00
5.207000000000000000e+03 2.005537605285644531e+01 2.870521926879882812e+01 1.845030486583709717e-01 5.087937116622924805e-01 2.079890221357345581e-01 -3.002004325389862061e-01
5.208000000000000000e+03 1.827812576293945312e+01 3.042919921875000000e+01 1.699270606040954590e-01 4.808082580566406250e-01 1.952206045389175415e-01 -1.702505499124526978e-01
5.209000000000000000e+03 7.196736907958984375e+01 -2.884647369384765625e+01 -8.951118588447570801e-01 8.532167434692382812e+00 2.291116714477539062e+00 -3.519195318222045898e-01
5.210000000000000000e+03 7.092047119140625000e+01 -2.974182510375976562e+01 -9.711208343505859375e-01 7.903829574584960938e+00 2.079812765121459961e+00 1.480333041399717331e-02
5.211000000000000000e+03 7.108431243896484375e+01 3.345764160156250000e+01 -1.908566206693649292e-01 6.280983924865722656e+00 1.827038168907165527e+00 2.066307328641414642e-02
5.212000000000000000e+03 7.034143066406250000e+01 3.119721412658691406e+01 -2.825144529342651367e-01 6.364215373992919922e+00 1.824510335922241211e+00 2.926486171782016754e-02
5.213000000000000000e+03 2.223471832275390625e+01 -4.102655029296875000e+01 -6.152425426989793777e-03 5.754786133766174316e-01 1.707978546619415283e-01 -2.789098583161830902e-02
5.214000000000000000e+03 6.801050567626953125e+01 -3.562487030029296875e+01 -1.862376928329467773e-01 5.156611919403076172e+00 1.491112351417541504e+00 5.290898680686950684e-01
5.215000000000000000e+03 3.452787399291992188e+01 2.585166740417480469e+01 -6.228613853454589844e-01 5.062377929687500000e+00 1.331854939460754395e+00 -2.804159559309482574e-02
5.216000000000000000e+03 9.794653892517089844e+00 3.642711639404296875e+01 9.448634833097457886e-02 8.875955641269683838e-02 5.497376993298530579e-02 7.489283382892608643e-02
5.217000000000000000e+03 1.554886722564697266e+01 -3.330974960327148438e+01 -4.829645156860351562e-01 7.360664010047912598e-01 7.593056559562683105e-02 -1.073056384921073914e-01
5.218000000000000000e+03 3.341606521606445312e+01 2.584766387939453125e+01 -6.000102758407592773e-01 5.006304264068603516e+00 1.321888208389282227e+00 -3.364310860633850098e-01
5.219000000000000000e+03 9.493435859680175781e+00 2.724262619018554688e+01 -2.844303660094738007e-02 4.480443522334098816e-02 4.908419214189052582e-03 1.582375317811965942e-01
5.220000000000000000e+03 2.760950469970703125e+01 3.073892402648925781e+01 -2.538284957408905029e-01 2.594171524047851562e+00 7.021028995513916016e-01 -8.088365793228149414e-01
5.221000000000000000e+03 7.084043884277343750e+01 -3.327709579467773438e+01 -5.940513014793395996e-01 7.117782115936279297e+00 1.957119345664978027e+00 2.072154879570007324e-01
5.222000000000000000e+03 5.214015960693359375e+01 2.588907241821289062e+01 2.332794070243835449e-01 1.253214716911315918e+00 4.459482431411743164e-01 6.083538532257080078e-01
5.223000000000000000e+03 3.147455787658691406e+01 2.953274917602539062e+01 -6.141408085823059082e-01 3.816068410873413086e+00 9.605782628059387207e-01 -5.083014369010925293e-01
5.224000000000000000e+03 5.604549789428710938e+01 3.016631317138671875e+01 5.082120895385742188e-01 2.561692714691162109e+00 9.209714531898498535e-01 -4.283680915832519531e-01
5.225000000000000000e+03 5.581682968139648438e+01 2.777987480163574219e+01 5.060107111930847168e-01 1.841987848281860352e+00 7.043995857238769531e-01 -4.568446576595306396e-01
5.226000000000000000e+03 4.156436920166015625e+01 -3.415729522705078125e+01 -1.198812246322631836e+00 5.855945587158203125e+00 1.397140026092529297e+00 -8.342743664979934692e-02
5.227000000000000000e+03 7.063996887207031250e+01 3.561089706420898438e+01 -1.330564171075820923e-01 6.107385635375976562e+00 1.792298674583435059e+00 -1.505256164819002151e-02
5.228000000000000000e+03 5.107402038574218750e+01 2.776077079772949219e+01 3.695015907287597656e-01 1.782247304916381836e+00 6.455246806144714355e-01 7.024518251419067383e-01
5.229000000000000000e+03 5.259502410888671875e+01 2.704113197326660156e+01 3.911235928535461426e-01 1.464145541191101074e+00 5.565807223320007324e-01 4.371776580810546875e-01
5.230000000000000000e+03 6.436477661132812500e+01 2.488129997253417969e+01 -6.165265440940856934e-01 6.514252185821533203e+00 1.769317626953125000e+00 -6.354890465736389160e-01
5.231000000000000000e+03 4.079036712646484375e+01 -3.213043594360351562e+01 -8.316019773483276367e-01 6.289741516113281250e+00 1.637441873550415039e+00 9.897517412900924683e-02
5.232000000000000000e+03 4.919609069824218750e+01 2.818309783935546875e+01 2.561555802822113037e-01 2.191154479980468750e+00 7.341930270195007324e-01 9.953283667564392090e-01
5.233000000000000000e+03 4.911607742309570312e+01 2.676320457458496094e+01 1.620092093944549561e-01 1.988775849342346191e+00 6.452355384826660156e-01 1.109412193298339844e+00
5.234000000000000000e+03 9.756595611572265625e+00 -3.485777664184570312e+01 -2.923789918422698975e-01 6.795680522918701172e-01 1.161567047238349915e-01 1.501640230417251587e-01
5.235000000000000000e+03 3.347581863403320312e+01 2.949412345886230469e+01 -7.135900259017944336e-01 4.178336620330810547e+00 1.039423942565917969e+00 -2.137789130210876465e-01
5.236000000000000000e+03 3.769075393676757812e+01 -4.094768905639648438e+01 -1.375847816467285156e+00 4.518320083618164062e+00 9.427417516708374023e-01 1.310026794672012329e-01
5.237000000000000000e+03 3.843945693969726562e+01 -3.805349731445312500e+01 -1.345808386802673340e+00 4.748861312866210938e+00 1.020915865898132324e+00 3.097892999649047852e-01
5.238000000000000000e+03 6.462140560150146484e+00 3.971836853027343750e+01 5.380937457084655762e-02 -8.541415631771087646e-02 -9.481433779001235962e-03 2.632861211895942688e-02
5.239000000000000000e+03 9.804085731506347656e+00 -4.003514862060546875e+01 -1.686298102140426636e-01 5.600817203521728516e-01 1.174355670809745789e-01 3.613378852605819702e-02
5.240000000000000000e+03 7.282839965820312500e+01 -1.331300354003906250e+01 -8.970544487237930298e-02 9.865127563476562500e+00 2.932626724243164062e+00 8.014315962791442871e-01
5.241000000000000000e+03 7.300669097900390625e+01 -4.925433546304702759e-02 -1.876449882984161377e-01 7.278675079345703125e+00 2.127309083938598633e+00 -1.050518989562988281e+00
5.242000000000000000e+03 3.067322349548339844e+01 -4.181081295013427734e+00 6.270309686660766602e-01 2.558461904525756836e+00 9.556478261947631836e-01 1.081381440162658691e+00
5.243000000000000000e+03 4.098660278320312500e+01 -7.905439376831054688e+00 -2.037797212600708008e+00 7.039145469665527344e+00 1.500404596328735352e+00 -1.666740298271179199e+00
5.244000000000000000e+03 3.852193069458007812e+01 -8.193320274353027344e+00 -2.543727159500122070e+00 8.842794418334960938e+00 1.889720082283020020e+00 -1.311858892440795898e+00
5.245000000000000000e+03 6.631251525878906250e+01 3.112241268157958984e+00 2.951899468898773193e-01 6.410893440246582031e+00 2.011825084686279297e+00 -5.137746930122375488e-01
5.246000000000000000e+03 3.938938903808593750e+01 -9.166352272033691406e+00 -2.005592823028564453e+00 8.280363082885742188e+00 1.882430911064147949e+00 -1.249349236488342285e+00
5.247000000000000000e+03 4.330916976928710938e+01 -1.297324371337890625e+01 6.377716362476348877e-02 6.067171573638916016e+00 1.839284539222717285e+00 -2.921175360679626465e-01
5.248000000000000000e+03 7.323905181884765625e+01 1.195585250854492188e+01 4.539941549301147461e-01 6.758564949035644531e+00 2.163767576217651367e+00 -4.613811969757080078e-01
5.249000000000000000e+03 3.828716278076171875e+01 -5.841643810272216797e+00 -2.559624433517456055e+00 9.444943428039550781e+00 2.065595626831054688e+00 -1.508306980133056641e+00
5.250000000000000000e+03 3.647583007812500000e+01 -4.981526851654052734e+00 -2.057564735412597656e+00 9.385564804077148438e+00 2.198400020599365234e+00 -1.057451009750366211e+00
5.251000000000000000e+03 7.231571197509765625e+01 -5.896625518798828125e+00 -9.360978603363037109e-01 7.945123672485351562e+00 2.102707624435424805e+00 -8.109556436538696289e-01
5.252000000000000000e+03 4.594199752807617188e+01 -9.885115623474121094e+00 -2.983769774436950684e-01 2.652704000473022461e+00 7.062981128692626953e-01 4.196597337722778320e-01
5.253000000000000000e+03 7.283868408203125000e+01 1.497453784942626953e+01 5.303644537925720215e-01 6.743512153625488281e+00 2.182163000106811523e+00 -1.356551200151443481e-01
5.254000000000000000e+03 4.244753646850585938e+01 -1.470047569274902344e+01 6.460617780685424805e-01 7.166638851165771484e+00 2.343810319900512695e+00 -5.792664885520935059e-01
5.255000000000000000e+03 6.659766387939453125e+01 -8.485785484313964844e+00 -1.284514427185058594e+00 4.803744792938232422e+00 1.055769205093383789e+00 -2.236903429031372070e+00
5.256000000000000000e+03 6.534947204589843750e+01 -7.493573188781738281e+00 -6.899629831314086914e-01 3.580636739730834961e+00 8.672021031379699707e-01 -1.751932978630065918e+00
5.257000000000000000e+03 3.646799087524414062e+01 1.650631523132324219e+01 5.180096626281738281e-01 8.377726554870605469e+00 2.668720722198486328e+00 -1.781460195779800415e-01
5.258000000000000000e+03 1.075204086303710938e+01 -7.811277389526367188e+00 1.846639961004257202e-01 6.440137624740600586e-01 2.486033141613006592e-01 -3.970338404178619385e-01
5.259000000000000000e+03 1.346699619293212891e+01 -9.797742843627929688e+00 7.809093594551086426e-01 1.564259886741638184e+00 7.035507559776306152e-01 1.631983518600463867e-01
5.260000000000000000e+03 5.321480178833007812e+01 -9.916020393371582031e+00 -5.630969405174255371e-01 9.110215306282043457e-01 1.043773666024208069e-01 1.730151414871215820e+00
5.261000000000000000e+03 5.974306869506835938e+01 -8.060437202453613281e+00 -5.289331674575805664e-01 1.263775825500488281e+00 2.204528152942657471e-01 5.529266595840454102e-01
5.262000000000000000e+03 6.036517715454101562e+01 -7.851178646087646484e+00 -4.854758679866790771e-01 1.295106768608093262e+00 2.428892701864242554e-01 3.705408573150634766e-01
5.263000000000000000e+03 5.968251037597656250e+01 -7.420433521270751953e+00 -3.372799754142761230e-01 1.406068563461303711e+00 3.206365704536437988e-01 5.514844059944152832e-01
5.264000000000000000e+03 7.213818359375000000e+01 -2.720057678222656250e+01 -7.985754609107971191e-01 8.998995780944824219e+00 2.460126161575317383e+00 -6.104896664619445801e-01
5.265000000000000000e+03 3.314551925659179688e+01 -5.261688232421875000e+00 -1.368845343589782715e+00 6.058796882629394531e+00 1.406985521316528320e+00 -4.466342329978942871e-01
5.266000000000000000e+03 3.371363830566406250e+01 -4.425823211669921875e+00 -9.480699896812438965e-01 7.101569175720214844e+00 1.846049785614013672e+00 -2.538823485374450684e-01
5.267000000000000000e+03 7.412616252899169922e+00 2.595690345764160156e+01 -4.327077791094779968e-02 -1.703576708678156137e-04 -1.303234137594699860e-02 1.375179588794708252e-01
5.268000000000000000e+03 7.314826202392578125e+01 -4.770467281341552734e+00 -6.911823749542236328e-01 7.869700431823730469e+00 2.153555393218994141e+00 -7.830676436424255371e-01
5.269000000000000000e+03 6.823617553710937500e+01 -8.236952781677246094e+00 -1.508996605873107910e+00 6.507787227630615234e+00 1.499637126922607422e+00 -1.907404661178588867e+00
5.270000000000000000e+03 8.942563056945800781e+00 -8.106939315795898438e+00 1.939560174942016602e-01 3.626619279384613037e-01 1.669853776693344116e-01 -5.526863932609558105e-01
5.271000000000000000e+03 9.188264846801757812e+00 -8.687950134277343750e+00 2.854181230068206787e-01 4.438346624374389648e-01 2.187758237123489380e-01 -5.158524513244628906e-01
5.272000000000000000e+03 5.020080566406250000e+01 -9.917916297912597656e+00 -1.596014350652694702e-01 8.482776284217834473e-01 2.066028565168380737e-01 1.916907787322998047e+00
5.273000000000000000e+03 6.585016727447509766e+00 -1.049955368041992188e+01 3.497813940048217773e-01 -3.471451997756958008e-02 9.452006220817565918e-02 -4.964084923267364502e-01
5.274000000000000000e+03 7.373562812805175781e+00 1.032792758941650391e+01 -1.511545415269210935e-04 -4.583324771374464035e-03 -1.420343760401010513e-03 -6.592246354557573795e-04
5.275000000000000000e+03 9.540757179260253906e+00 -7.948964118957519531e+00 1.817921400070190430e-01 4.498609304428100586e-01 1.894959211349487305e-01 -5.162150263786315918e-01
5.276000000000000000e+03 7.219776153564453125e+01 2.513582611083984375e+01 -1.265549957752227783e-01 6.765388011932373047e+00 1.991649985313415527e+00 4.185567498207092285e-01
5.277000000000000000e+03 7.146316528320312500e+01 2.530795478820800781e+01 -1.579625457525253296e-01 6.771414756774902344e+00 1.984035730361938477e+00 3.932082951068878174e-01
5.278000000000000000e+03 7.841468334197998047e+00 -9.895843505859375000e+00 3.887575566768646240e-01 2.423915863037109375e-01 1.893447339534759521e-01 -5.147916674613952637e-01
5.279000000000000000e+03 1.418182945251464844e+01 -8.872914314270019531e+00 5.650421977043151855e-01 1.475359797477722168e+00 6.121205687522888184e-01 2.527841031551361084e-01
5.280000000000000000e+03 7.752460956573486328e+00 1.347726535797119141e+01 -8.305660448968410492e-03 -5.830328445881605148e-03 -4.240796435624361038e-03 -3.259084478486329317e-04
5.281000000000000000e+03 7.146679687500000000e+01 2.312878417968750000e+01 1.627006195485591888e-02 6.837803840637207031e+00 2.056222200393676758e+00 4.517878890037536621e-01
5.282000000000000000e+03 3.519525146484375000e+01 -3.457713365554809570e+00 -6.132296919822692871e-01 8.891486167907714844e+00 2.483476877212524414e+00 -4.221195876598358154e-01
5.283000000000000000e+03 3.432706832885742188e+01 -5.090957164764404297e+00 -1.676379919052124023e+00 7.522994041442871094e+00 1.753984332084655762e+00 -6.616761684417724609e-01
5.284000000000000000e+03 8.131925582885742188e+00 -2.303992080688476562e+01 7.464796304702758789e-02 8.603542447090148926e-01 2.805006504058837891e-01 7.235577106475830078e-01
5.285000000000000000e+03 4.360800170898437500e+01 -1.233145523071289062e+01 -1.060693338513374329e-01 5.626741409301757812e+00 1.656201720237731934e+00 -2.307788431644439697e-01
5.286000000000000000e+03 4.484140396118164062e+01 -1.124736213684082031e+01 -2.123954147100448608e-01 4.205739498138427734e+00 1.198003172874450684e+00 1.264539211988449097e-01
5.287000000000000000e+03 6.884906005859375000e+01 1.564431190490722656e+01 9.998158812522888184e-01 7.482214450836181641e+00 2.544609069824218750e+00 -1.853780001401901245e-01
5.288000000000000000e+03 3.865161895751953125e+01 1.770015716552734375e+01 3.069784343242645264e-01 6.908878803253173828e+00 2.164757013320922852e+00 9.419571161270141602e-01
5.289000000000000000e+03 3.677256774902343750e+01 1.810515213012695312e+01 3.688080608844757080e-01 7.390784263610839844e+00 2.327877759933471680e+00 1.271077394485473633e-01
5.290000000000000000e+03 1.013640117645263672e+01 9.689084053039550781e+00 1.624424185138195753e-04 -3.294688649475574493e-03 -9.396738605573773384e-04 1.717662089504301548e-03
5.291000000000000000e+03 7.284472465515136719e+00 -1.497754955291748047e+01 6.693415641784667969e-01 2.898601293563842773e-01 2.877604961395263672e-01 5.389668419957160950e-02
5.292000000000000000e+03 6.640651226043701172e+00 -1.723126792907714844e+01 5.139729976654052734e-01 1.732673645019531250e-01 2.061720937490463257e-01 3.085041046142578125e-01
5.293000000000000000e+03 9.109449386596679688e+00 -1.597360229492187500e+01 8.969017863273620605e-01 9.777073264122009277e-01 5.623827576637268066e-01 3.021230995655059814e-01
5.294000000000000000e+03 7.169333648681640625e+01 -1.161264801025390625e+01 -1.104362607002258301e+00 9.687863349914550781e+00 2.575050115585327148e+00 1.373814046382904053e-01
5.295000000000000000e+03 7.340480804443359375e+01 -9.881373405456542969e+00 -9.754296541213989258e-01 9.036078453063964844e+00 2.418194532394409180e+00 2.102050185203552246e-01
5.296000000000000000e+03 7.285627746582031250e+01 1.701010131835937500e+01 4.939533770084381104e-01 6.711070537567138672e+00 2.161507129669189453e+00 9.615737199783325195e-02
5.297000000000000000e+03 7.214972686767578125e+01 1.517721557617187500e+01 6.213325858116149902e-01 6.848007678985595703e+00 2.240802049636840820e+00 -1.360440552234649658e-01
5.298000000000000000e+03 7.316672515869140625e+01 1.053792381286621094e+01 4.224388897418975830e-01 6.816416740417480469e+00 2.171656608581542969e+00 -6.088267564773559570e-01
5.299000000000000000e+03 6.847629547119140625e+01 9.157876968383789062e+00 7.224835753440856934e-01 7.406391620635986328e+00 2.438662528991699219e+00 -6.104412674903869629e-01
5.300000000000000000e+03 7.238699340820312500e+01 1.016389274597167969e+01 4.813168644905090332e-01 6.910092353820800781e+00 2.217422723770141602e+00 -6.555897593498229980e-01
5.301000000000000000e+03 6.700451374053955078e+00 1.094242286682128906e+01 -9.175370214506983757e-04 -4.538936540484428406e-03 -1.636942150071263313e-03 -1.211581751704216003e-03
5.302000000000000000e+03 7.338909149169921875e+01 8.692783355712890625e+00 3.293581306934356689e-01 6.857507705688476562e+00 2.156059741973876953e+00 -7.581720948219299316e-01
5.303000000000000000e+03 7.023853778839111328e+00 9.323158264160156250e+00 5.202536121942102909e-04 -3.907956182956695557e-03 -1.016310765407979488e-03 -6.885253242217004299e-04
5.304000000000000000e+03 9.831570625305175781e+00 -1.718286514282226562e+01 8.725554347038269043e-01 1.346559405326843262e+00 6.657344698905944824e-01 4.779846370220184326e-01
5.305000000000000000e+03 7.024196624755859375e+00 1.665970993041992188e+01 -2.938552945852279663e-02 -4.652276984415948391e-04 -8.955227211117744446e-03 8.308215998113155365e-03
5.306000000000000000e+03 6.874654769897460938e+00 1.566195583343505859e+01 -2.043880894780158997e-02 -3.251128830015659332e-03 -7.106981240212917328e-03 4.600263666361570358e-03
5.307000000000000000e+03 9.293718338012695312e+00 1.261924362182617188e+01 -4.048158414661884308e-03 -6.153384223580360413e-03 -3.060462884604930878e-03 7.005115912761539221e-05
5.308000000000000000e+03 7.286950683593750000e+01 -1.107305884361267090e+00 -2.831489145755767822e-01 7.336592674255371094e+00 2.116033077239990234e+00 -1.039610147476196289e+00
5.309000000000000000e+03 6.681769371032714844e+00 -1.985422134399414062e+01 3.368207216262817383e-01 3.192588090896606445e-01 1.968238651752471924e-01 5.643482804298400879e-01
5.310000000000000000e+03 6.940531253814697266e+00 -2.071358299255371094e+01 2.795529067516326904e-01 4.348564445972442627e-01 2.143228054046630859e-01 6.268321871757507324e-01
5.311000000000000000e+03 6.749724864959716797e+00 1.030458545684814453e+01 -4.107512359041720629e-04 -4.390252288430929184e-03 -1.440301071852445602e-03 -6.795343942940235138e-04
5.312000000000000000e+03 7.268886566162109375e+01 7.388865947723388672e+00 3.124208152294158936e-01 6.944081306457519531e+00 2.176950454711914062e+00 -8.754588365554809570e-01
5.313000000000000000e+03 7.207228851318359375e+01 -1.974147081375122070e+00 -3.971003293991088867e-01 7.258572578430175781e+00 2.058441638946533203e+00 -1.087067961692810059e+00
5.314000000000000000e+03 7.326600646972656250e+01 -2.270174741744995117e+00 -3.978714644908905029e-01 7.521132469177246094e+00 2.136978149414062500e+00 -9.648551940917968750e-01
5.315000000000000000e+03 7.332496643066406250e+01 3.127487659454345703e+00 3.797618672251701355e-02 7.112047195434570312e+00 2.145006895065307617e+00 -1.028691291809082031e+00
5.316000000000000000e+03 7.256318664550781250e+01 3.072723627090454102e+00 4.994277283549308777e-02 7.056202888488769531e+00 2.131843566894531250e+00 -1.065005421638488770e+00
5.317000000000000000e+03 7.318271636962890625e+01 1.265294551849365234e+01 4.823946356773376465e-01 6.738248348236083984e+00 2.166193008422851562e+00 -3.904299736022949219e-01
5.318000000000000000e+03 6.849010467529296875e+01 1.138751220703125000e+01 8.602136373519897461e-01 7.582282066345214844e+00 2.532748699188232422e+00 -5.034587383270263672e-01
5.319000000000000000e+03 7.335047912597656250e+01 -1.117050457000732422e+01 -7.841703891754150391e-01 9.298356056213378906e+00 2.554255723953247070e+00 5.027346014976501465e-01
5.320000000000000000e+03 7.216114044189453125e+01 -1.196313190460205078e+01 -8.078203797340393066e-01 9.743672370910644531e+00 2.680755615234375000e+00 4.175768494606018066e-01
5.321000000000000000e+03 7.339125823974609375e+01 -1.054049396514892578e+01 -8.781778812408447266e-01 9.172525405883789062e+00 2.488304376602172852e+00 3.704451620578765869e-01
5.322000000000000000e+03 7.331723022460937500e+01 3.954996824264526367e+00 9.015215933322906494e-02 7.065270423889160156e+00 2.146626710891723633e+00 -1.012989401817321777e+00
5.323000000000000000e+03 7.220890808105468750e+01 -1.131525039672851562e+01 -1.045312285423278809e+00 9.539802551269531250e+00 2.548346996307373047e+00 2.399365603923797607e-01
5.324000000000000000e+03 7.207390594482421875e+01 -2.948169946670532227e+00 -5.194431543350219727e-01 7.352710247039794922e+00 2.049980163574218750e+00 -1.065795779228210449e+00
5.325000000000000000e+03 6.646632385253906250e+01 2.282538414001464844e+00 2.265609651803970337e-01 6.241709232330322266e+00 1.940481066703796387e+00 -6.058785319328308105e-01
5.326000000000000000e+03 6.675138854980468750e+01 4.419824600219726562e+00 3.907892107963562012e-01 6.764841079711914062e+00 2.146688938140869141e+00 -5.517527461051940918e-01
5.327000000000000000e+03 7.359413909912109375e+01 -8.754687309265136719e+00 -9.721066355705261230e-01 8.784939765930175781e+00 2.343849897384643555e+00 -3.193458775058388710e-03
5.328000000000000000e+03 7.304309082031250000e+01 -8.460859298706054688e+00 -1.063498854637145996e+00 8.680852890014648438e+00 2.285206079483032227e+00 -2.067093402147293091e-01
5.329000000000000000e+03 7.186519622802734375e+01 5.740284442901611328e+00 2.619259655475616455e-01 6.988603115081787109e+00 2.175158739089965820e+00 -9.779498577117919922e-01
5.330000000000000000e+03 7.254325866699218750e+01 -3.376213312149047852e+00 -5.569629073143005371e-01 7.516257286071777344e+00 2.087788343429565430e+00 -9.916933774948120117e-01
5.331000000000000000e+03 6.716001129150390625e+01 5.390090465545654297e+00 4.556152224540710449e-01 6.971954345703125000e+00 2.228270769119262695e+00 -5.965742468833923340e-01
5.332000000000000000e+03 7.144678497314453125e+01 -9.724514007568359375e+00 -1.472215771675109863e+00 8.942763328552246094e+00 2.241164207458496094e+00 -4.482347667217254639e-01
5.333000000000000000e+03 7.303151702880859375e+01 -3.768511772155761719e+00 -5.839395523071289062e-01 7.683630943298339844e+00 2.129907369613647461e+00 -8.920905590057373047e-01
5.334000000000000000e+03 7.322401428222656250e+01 -6.801018714904785156e+00 -9.287491440773010254e-01 8.273738861083984375e+00 2.203496932983398438e+00 -5.102856159210205078e-01
5.335000000000000000e+03 7.319147491455078125e+01 -5.778627872467041016e+00 -8.108724355697631836e-01 8.078811645507812500e+00 2.180381774902343750e+00 -6.392250657081604004e-01
5.336000000000000000e+03 7.522768497467041016e+00 9.725199699401855469e+00 2.099257544614374638e-04 -4.147242289036512375e-03 -1.181194907985627651e-03 -3.221842634957283735e-04
5.337000000000000000e+03 8.694513320922851562e+00 1.525874710083007812e+01 -2.105159685015678406e-02 -3.543141763657331467e-03 -7.378421258181333542e-03 -1.154143130406737328e-03
5.338000000000000000e+03 7.113457679748535156e+00 1.309429931640625000e+01 -6.789494771510362625e-03 -5.104938056319952011e-03 -3.568329848349094391e-03 -5.787003465229645371e-05
5.339000000000000000e+03 7.230272293090820312e+00 2.489163208007812500e+01 -5.565869808197021484e-02 5.007069092243909836e-03 -1.519548892974853516e-02 1.239641457796096802e-01
5.340000000000000000e+03 6.982962131500244141e+00 2.388926315307617188e+01 -6.136577948927879333e-02 5.462669301778078079e-03 -1.677093282341957092e-02 1.071740612387657166e-01
5.341000000000000000e+03 7.179238128662109375e+01 1.132977867126464844e+01 5.909323096275329590e-01 6.962377071380615234e+00 2.265992879867553711e+00 -5.601849555969238281e-01
5.342000000000000000e+03 5.577487945556640625e+01 -9.131888389587402344e+00 -7.236064672470092773e-01 1.107930183410644531e+00 1.152971163392066956e-01 1.280197739601135254e+00
5.343000000000000000e+03 7.404723167419433594e+00 1.879781532287597656e+01 -5.522418394684791565e-02 9.697538800537586212e-03 -1.365799363702535629e-02 2.452979981899261475e-02
5.344000000000000000e+03 8.092014312744140625e+00 1.916616249084472656e+01 -6.747020035982131958e-02 1.780497655272483826e-02 -1.489956676959991455e-02 2.410756051540374756e-02
5.345000000000000000e+03 1.019650173187255859e+01 2.263998413085937500e+01 -1.387569308280944824e-01 6.704372167587280273e-02 -2.151396311819553375e-02 8.387352526187896729e-02
5.346000000000000000e+03 9.034556388854980469e+00 2.497561073303222656e+01 -8.234374225139617920e-02 4.414306581020355225e-02 -1.146020367741584778e-02 1.357247531414031982e-01
5.347000000000000000e+03 7.210611724853515625e+01 1.917402076721191406e+01 4.234781265258789062e-01 6.797082901000976562e+00 2.166168212890625000e+00 3.134825527667999268e-01
5.348000000000000000e+03 6.741014480590820312e+00 -1.191438484191894531e+01 4.737551510334014893e-01 1.931603811681270599e-02 1.479213535785675049e-01 -3.566179275512695312e-01
5.349000000000000000e+03 6.296435832977294922e+00 -1.864206504821777344e+01 3.870174586772918701e-01 1.360974013805389404e-01 1.569344699382781982e-01 4.428336620330810547e-01
5.350000000000000000e+03 7.276241779327392578e+00 -1.760177230834960938e+01 5.671154260635375977e-01 4.210490286350250244e-01 2.964493334293365479e-01 3.854355216026306152e-01
5.351000000000000000e+03 7.156453609466552734e+00 1.773224258422851562e+01 -4.113415256142616272e-02 3.685458330437541008e-03 -1.123460847884416580e-02 1.527152303606271744e-02
5.352000000000000000e+03 7.810387134552001953e+00 1.816012954711914062e+01 -5.095500126481056213e-02 9.459783323109149933e-03 -1.244856510311365128e-02 1.546032819896936417e-02
5.353000000000000000e+03 7.626706123352050781e+00 1.711070823669433594e+01 -3.728295862674713135e-02 3.512736642733216286e-03 -1.013106666505336761e-02 8.398925885558128357e-03
5.354000000000000000e+03 6.885055065155029297e+00 -1.411351585388183594e+01 5.776499509811401367e-01 1.112236008048057556e-01 2.066620588302612305e-01 -9.121179580688476562e-02
5.355000000000000000e+03 8.426003456115722656e+00 -9.328474998474121094e+00 3.558118343353271484e-01 3.311655223369598389e-01 2.060932070016860962e-01 -5.301370024681091309e-01
5.356000000000000000e+03 7.722152233123779297e+00 -2.413422012329101562e+01 -3.272006288170814514e-02 7.496106028556823730e-01 2.150671631097793579e-01 7.063277959823608398e-01
5.357000000000000000e+03 7.324219226837158203e+00 -9.125820159912109375e+00 2.597264349460601807e-01 1.003757864236831665e-01 1.080306693911552429e-01 -5.806341767311096191e-01
5.358000000000000000e+03 6.685805797576904297e+00 -8.987849235534667969e+00 2.148303687572479248e-01 -1.759055815637111664e-02 5.917194113135337830e-02 -5.955416560173034668e-01
5.359000000000000000e+03 7.215427875518798828e+00 -1.051119136810302734e+01 4.055993556976318359e-01 1.135931313037872314e-01 1.557577550411224365e-01 -4.858839809894561768e-01
5.360000000000000000e+03 6.369995117187500000e+00 -1.921266746520996094e+01 3.611902594566345215e-01 1.904508322477340698e-01 1.654923260211944580e-01 4.980922937393188477e-01
5.361000000000000000e+03 7.878919601440429688e+00 -1.972673606872558594e+01 4.281933307647705078e-01 6.889576315879821777e-01 3.351452946662902832e-01 6.008258461952209473e-01
5.362000000000000000e+03 7.273690032958984375e+01 -2.625460433959960938e+01 -5.800400972366333008e-01 9.290915489196777344e+00 2.613262653350830078e+00 -8.852858543395996094e-01
5.363000000000000000e+03 7.068622589111328125e+00 -1.297224807739257812e+01 5.751945972442626953e-01 1.294231265783309937e-01 2.113853245973587036e-01 -2.268173843622207642e-01
5.364000000000000000e+03 4.425604248046875000e+01 -1.037722301483154297e+01 -5.337173938751220703e-01 4.371953010559082031e+00 1.151470661163330078e+00 -2.790081501007080078e-01
5.365000000000000000e+03 7.274031829833984375e+01 2.661548995971679688e+01 -1.651863306760787964e-01 6.707415580749511719e+00 1.962668895721435547e+00 3.752132952213287354e-01
5.366000000000000000e+03 6.867204284667968750e+01 2.528041076660156250e+01 -3.083363175392150879e-01 6.842551231384277344e+00 1.960264563560485840e+00 1.913777440786361694e-01
5.367000000000000000e+03 6.165602874755859375e+01 -7.550817012786865234e+00 -3.558754026889801025e-01 1.535553336143493652e+00 3.539033830165863037e-01 -6.391575932502746582e-02
5.368000000000000000e+03 7.279903888702392578e+00 -1.361633968353271484e+01 6.085581183433532715e-01 2.007008939981460571e-01 2.427777051925659180e-01 -1.403815895318984985e-01
5.369000000000000000e+03 9.567174911499023438e+00 -9.894681930541992188e+00 5.156950950622558594e-01 6.276666522026062012e-01 3.430085182189941406e-01 -4.179577827453613281e-01
5.370000000000000000e+03 7.255546569824218750e+01 1.859529685974121094e+01 4.269829988479614258e-01 6.734052181243896484e+00 2.148310661315917969e+00 2.600313723087310791e-01
5.371000000000000000e+03 6.817362213134765625e+01 1.809131813049316406e+01 9.660048484802246094e-01 7.509860038757324219e+00 2.542759418487548828e+00 5.835652351379394531e-02
5.372000000000000000e+03 6.890602111816406250e+01 1.887405204772949219e+01 7.551035284996032715e-01 7.268224239349365234e+00 2.406998395919799805e+00 2.120826244354248047e-01
5.373000000000000000e+03 7.621609210968017578e+00 2.703374099731445312e+01 -2.838525548577308655e-02 -3.725652815774083138e-03 -9.633272886276245117e-03 1.469628959894180298e-01
5.374000000000000000e+03 1.690415573120117188e+01 -6.871343612670898438e+00 1.655281335115432739e-01 1.076830506324768066e+00 3.727076053619384766e-01 8.160609602928161621e-01
5.375000000000000000e+03 7.329163551330566406e+00 2.327250289916992188e+01 -7.207486033439636230e-02 1.470669452100992203e-02 -1.721044816076755524e-02 9.885511547327041626e-02
5.376000000000000000e+03 7.886674404144287109e+00 2.529052734375000000e+01 -5.993964523077011108e-02 1.667529530823230743e-02 -1.297930534929037094e-02 1.342644840478897095e-01
5.377000000000000000e+03 8.504385948181152344e+00 -2.384300231933593750e+01 -1.844960078597068787e-02 9.462062716484069824e-01 2.783269882202148438e-01 7.142683267593383789e-01
5.378000000000000000e+03 3.699161529541015625e+01 1.892551040649414062e+01 2.589754164218902588e-01 6.981107234954833984e+00 2.172024726867675781e+00 3.150458633899688721e-01
5.379000000000000000e+03 7.311071395874023438e+00 -2.782719612121582031e+01 -2.325286865234375000e-01 6.632562875747680664e-01 1.292182803153991699e-01 5.592477917671203613e-01
5.380000000000000000e+03 7.852524757385253906e+00 -2.535656166076660156e+01 -1.366250365972518921e-01 7.915117740631103516e-01 1.964660137891769409e-01 6.780949831008911133e-01
5.381000000000000000e+03 3.752904129028320312e+01 -5.679100513458251953e+00 -2.473925352096557617e+00 9.508681297302246094e+00 2.110426902770996094e+00 -1.328221797943115234e+00
5.382000000000000000e+03 6.448142242431640625e+01 2.595424652099609375e-01 2.596535682678222656e-01 5.236322402954101562e+00 1.648792743682861328e+00 -2.244968563318252563e-01
5.383000000000000000e+03 6.351507186889648438e+01 9.029065966606140137e-01 3.775744438171386719e-01 5.115262031555175781e+00 1.647850990295410156e+00 1.522115617990493774e-01
5.384000000000000000e+03 6.815402984619140625e+01 2.215755653381347656e+01 1.169227957725524902e-01 7.216929912567138672e+00 2.200155973434448242e+00 3.255645632743835449e-01
5.385000000000000000e+03 3.889841079711914062e+01 1.859261131286621094e+01 2.125983387231826782e-01 6.407413959503173828e+00 1.986003756523132324e+00 1.041129350662231445e+00
5.386000000000000000e+03 1.131043243408203125e+01 -8.375642776489257812e+00 3.183988332748413086e-01 8.216815590858459473e-01 3.420241177082061768e-01 -3.112732768058776855e-01
5.387000000000000000e+03 5.625204467773437500e+01 -7.972304344177246094e+00 -4.449850320816040039e-01 1.342210769653320312e+00 2.691677212715148926e-01 1.215271115303039551e+00
5.388000000000000000e+03 6.253273773193359375e+01 -3.554029226303100586e+00 3.377207517623901367e-01 3.259211540222167969e+00 1.079079747200012207e+00 -1.215692609548568726e-01
5.389000000000000000e+03 6.461462402343750000e+01 -7.872838020324707031e+00 -5.953547358512878418e-01 2.683652400970458984e+00 6.264893412590026855e-01 -1.533830285072326660e+00
5.390000000000000000e+03 7.281579589843750000e+01 1.316835594177246094e+01 5.261190533638000488e-01 6.787266254425048828e+00 2.194015502929687500e+00 -3.473175168037414551e-01
5.391000000000000000e+03 7.041703796386718750e+01 1.147146892547607422e+01 7.289569377899169922e-01 7.162978649139404297e+00 2.367580652236938477e+00 -5.495789647102355957e-01
5.392000000000000000e+03 4.181017303466796875e+01 -1.443785095214843750e+01 5.857338309288024902e-01 7.345978260040283203e+00 2.379513502120971680e+00 -7.661749124526977539e-01
5.393000000000000000e+03 6.379675674438476562e+01 -5.327682495117187500e-01 3.192456066608428955e-01 4.725774288177490234e+00 1.513505935668945312e+00 -1.238224282860755920e-01
5.394000000000000000e+03 3.640696334838867188e+01 -4.330368518829345703e+00 -1.625890851020812988e+00 9.488706588745117188e+00 2.358844518661499023e+00 -9.670534133911132812e-01
5.395000000000000000e+03 3.609129714965820312e+01 -3.437161207199096680e+00 -7.812948822975158691e-01 9.597472190856933594e+00 2.644853115081787109e+00 -7.196249365806579590e-01
5.396000000000000000e+03 3.474447250366210938e+01 -2.870224475860595703e+00 -9.119114279747009277e-02 8.780402183532714844e+00 2.606763124465942383e+00 -1.497642099857330322e-01
5.397000000000000000e+03 3.994559478759765625e+01 -1.909626388549804688e+01 1.674836754798889160e+00 8.632947921752929688e+00 3.092335224151611328e+00 -1.068014740943908691e+00
5.398000000000000000e+03 7.773375988006591797e+00 1.552414131164550781e+01 -2.205063961446285248e-02 -3.006134647876024246e-03 -7.517032325267791748e-03 1.943939016200602055e-03
5.399000000000000000e+03 7.764636516571044922e+00 2.198168373107910156e+01 -8.295145630836486816e-02 2.434376068413257599e-02 -1.758230850100517273e-02 7.498615980148315430e-02
5.400000000000000000e+03 7.134350585937500000e+01 -2.795356559753417969e+01 -9.567990899085998535e-01 8.595953941345214844e+00 2.291746377944946289e+00 -2.854475080966949463e-01
5.401000000000000000e+03 7.279077911376953125e+01 -2.881807327270507812e+01 -7.863675355911254883e-01 8.747447013854980469e+00 2.388323783874511719e+00 -5.347866415977478027e-01
5.402000000000000000e+03 4.042572021484375000e+01 -1.042038917541503906e+01 -1.223526120185852051e+00 7.497023582458496094e+00 1.882049202919006348e+00 -1.079753637313842773e+00
5.403000000000000000e+03 4.018663787841796875e+01 -8.500535011291503906e+00 -2.076381921768188477e+00 7.765871524810791016e+00 1.706846833229064941e+00 -1.465996861457824707e+00
5.404000000000000000e+03 4.150379562377929688e+01 -1.172664737701416016e+01 -5.020848512649536133e-01 6.933183670043945312e+00 1.929329633712768555e+00 -8.372734189033508301e-01
5.405000000000000000e+03 4.230805206298828125e+01 -1.326796245574951172e+01 1.226116046309471130e-01 6.772572994232177734e+00 2.068555355072021484e+00 -6.042277216911315918e-01
5.406000000000000000e+03 1.089774036407470703e+01 2.870357131958007812e+01 1.017651055008172989e-02 8.608505129814147949e-02 2.887846715748310089e-02 1.543263942003250122e-01
5.407000000000000000e+03 8.114727020263671875e+00 2.872298812866210938e+01 -2.293995581567287445e-03 1.509028370492160320e-03 -2.354901516810059547e-04 1.524886339902877808e-01
5.408000000000000000e+03 7.007505035400390625e+01 -9.685808181762695312e+00 -1.759567022323608398e+00 8.532370567321777344e+00 2.031841039657592773e+00 -1.104739189147949219e+00
5.409000000000000000e+03 7.211824035644531250e+01 -9.785545349121093750e+00 -1.318495035171508789e+00 9.053668022155761719e+00 2.320551872253417969e+00 -1.750557273626327515e-01
5.410000000000000000e+03 8.859116554260253906e+00 1.798221015930175781e+01 -5.676146224141120911e-02 1.202069036662578583e-02 -1.342223212122917175e-02 6.784280762076377869e-03
5.411000000000000000e+03 6.219173431396484375e+01 -7.949564933776855469e+00 -4.506461620330810547e-01 1.460405707359313965e+00 3.029278516769409180e-01 -2.917007505893707275e-01
5.412000000000000000e+03 5.730868911743164062e+01 -8.505816459655761719e+00 -6.359786987304687500e-01 1.186614871025085449e+00 1.651908606290817261e-01 1.016784548759460449e+00
5.413000000000000000e+03 1.075742244720458984e+01 -1.328945446014404297e+01 1.095086336135864258e+00 1.338236570358276367e+00 7.299968600273132324e-01 8.721435070037841797e-02
5.414000000000000000e+03 1.141967201232910156e+01 -1.248569393157958984e+01 1.104522824287414551e+00 1.469647407531738281e+00 7.722510695457458496e-01 6.375933438539505005e-02
5.415000000000000000e+03 4.027972793579101562e+01 2.035793685913085938e+01 -2.046600216999650002e-03 5.332199573516845703e+00 1.599045872688293457e+00 1.388166189193725586e+00
5.416000000000000000e+03 1.165884780883789062e+01 -2.701110649108886719e+01 -4.268444478511810303e-01 1.294987201690673828e+00 2.604428231716156006e-01 3.661283552646636963e-01
5.417000000000000000e+03 8.587978363037109375e+00 -2.471974372863769531e+01 -1.089632660150527954e-01 9.620885848999023438e-01 2.559376060962677002e-01 6.887286901473999023e-01
5.418000000000000000e+03 1.026933383941650391e+01 -1.567742919921875000e+01 1.052435636520385742e+00 1.433251023292541504e+00 7.457060217857360840e-01 3.673423826694488525e-01
5.419000000000000000e+03 5.953195571899414062e+01 -6.954723358154296875e+00 -1.432318985462188721e-01 1.516624093055725098e+00 4.120176434516906738e-01 6.130884289741516113e-01
5.420000000000000000e+03 9.867797851562500000e+00 -2.187060356140136719e+01 2.448924630880355835e-01 1.373385548591613770e+00 4.854834079742431641e-01 6.955304741859436035e-01
5.421000000000000000e+03 8.535122871398925781e+00 -2.066895484924316406e+01 3.771136701107025146e-01 9.509559869766235352e-01 3.984209001064300537e-01 6.761650443077087402e-01
5.422000000000000000e+03 7.257033538818359375e+01 1.259316730499267578e+01 5.513846874237060547e-01 6.844859123229980469e+00 2.218873262405395508e+00 -4.124085903167724609e-01
5.423000000000000000e+03 6.634525299072265625e+01 1.797939777374267578e+00 2.049930840730667114e-01 6.126940727233886719e+00 1.899580121040344238e+00 -6.076688766479492188e-01
5.424000000000000000e+03 6.627233123779296875e+01 4.055485725402832031e+00 3.713645339012145996e-01 6.622835636138916016e+00 2.098260164260864258e+00 -4.572221338748931885e-01
5.425000000000000000e+03 6.798783111572265625e+01 2.092953491210937500e+01 4.170479178428649902e-01 7.342661380767822266e+00 2.327912807464599609e+00 3.061786592006683350e-01
5.426000000000000000e+03 9.681636810302734375e+00 -1.813864326477050781e+01 7.400277256965637207e-01 1.303805470466613770e+00 6.131500005722045898e-01 5.443475246429443359e-01
5.427000000000000000e+03 5.824115371704101562e+01 -7.357344150543212891e+00 -3.051256835460662842e-01 1.395278215408325195e+00 3.270457684993743896e-01 8.827975392341613770e-01
5.428000000000000000e+03 5.850051498413085938e+01 -8.032925605773925781e+00 -5.086725950241088867e-01 1.283000230789184570e+00 2.322982698678970337e-01 8.267416357994079590e-01
5.429000000000000000e+03 8.550234794616699219e+00 -2.965327453613281250e+01 -3.296806216239929199e-01 7.912837862968444824e-01 1.384809464216232300e-01 4.269487857818603516e-01
5.430000000000000000e+03 4.283060073852539062e+01 -9.818346977233886719e+00 -1.001047492027282715e+00 5.523899078369140625e+00 1.356855392456054688e+00 -9.121499061584472656e-01
5.431000000000000000e+03 7.886993885040283203e+00 -9.248270034790039062e+00 3.161151707172393799e-01 2.296294867992401123e-01 1.637233942747116089e-01 -5.571122169494628906e-01
5.432000000000000000e+03 1.310224056243896484e+01 2.766789627075195312e+01 -1.327657233923673630e-02 1.247771307826042175e-01 3.345016762614250183e-02 1.354781538248062134e-01
5.433000000000000000e+03 4.006618118286132812e+01 -1.193064117431640625e+01 -4.849147498607635498e-01 7.757638454437255859e+00 2.181817054748535156e+00 -9.828488826751708984e-01
5.434000000000000000e+03 5.927051925659179688e+01 -6.440078258514404297e+00 1.730080880224704742e-02 1.651372551918029785e+00 5.006020069122314453e-01 6.557566523551940918e-01
5.435000000000000000e+03 6.765110778808593750e+01 -7.877000331878662109e+00 -1.335195302963256836e+00 5.869201183319091797e+00 1.360201835632324219e+00 -2.016746520996093750e+00
5.436000000000000000e+03 6.726498413085937500e+01 -8.628090858459472656e+00 -1.454485058784484863e+00 5.507626533508300781e+00 1.215942382812500000e+00 -2.188240289688110352e+00
5.437000000000000000e+03 1.002573013305664062e+01 1.199208354949951172e+01 -1.837860327214002609e-03 -5.431899335235357285e-03 -2.180927898734807968e-03 1.044609351083636284e-03
5.438000000000000000e+03 7.544435977935791016e+00 8.858800888061523438e+00 9.747819858603179455e-04 -3.480282844975590706e-03 -7.516502519138157368e-04 -3.165274974890053272e-04
5.439000000000000000e+03 3.952615356445312500e+01 2.043960762023925781e+01 -4.564962536096572876e-02 5.649630546569824219e+00 1.681194305419921875e+00 1.164847612380981445e+00
5.440000000000000000e+03 7.756690025329589844e+00 1.978863906860351562e+01 -7.057282328605651855e-02 1.765916869044303894e-02 -1.587409712374210358e-02 3.510848805308341980e-02
5.441000000000000000e+03 7.948630332946777344e+00 2.133587837219238281e+01 -8.509630709886550903e-02 2.744654193520545959e-02 -1.729493029415607452e-02 6.303209811449050903e-02
5.442000000000000000e+03 6.923420715332031250e+01 1.628044891357421875e+01 9.440928697586059570e-01 7.339522361755371094e+00 2.485084533691406250e+00 -7.637241482734680176e-02
5.443000000000000000e+03 6.715995788574218750e+01 2.243581962585449219e+01 -3.204634645953774452e-03 7.320207118988037109e+00 2.195100784301757812e+00 2.041047811508178711e-01
5.444000000000000000e+03 8.816270828247070312e+00 2.092451477050781250e+01 -1.013053134083747864e-01 3.779732063412666321e-02 -1.905239932239055634e-02 5.175753310322761536e-02
5.445000000000000000e+03 9.458855628967285156e+00 -2.009422492980957031e+01 4.910701513290405273e-01 1.270226359367370605e+00 5.283889174461364746e-01 6.624320149421691895e-01
5.446000000000000000e+03 9.661505699157714844e+00 -1.872948837280273438e+01 6.662234663963317871e-01 1.321026206016540527e+00 5.961748957633972168e-01 5.773190259933471680e-01
5.447000000000000000e+03 3.670047760009765625e+01 2.184178924560546875e+01 -1.510557681322097778e-01 6.028325080871582031e+00 1.763180851936340332e+00 4.635078012943267822e-01
5.448000000000000000e+03 3.894494247436523438e+01 1.945333862304687500e+01 8.996701240539550781e-02 6.087468624114990234e+00 1.853230714797973633e+00 1.058924913406372070e+00
5.449000000000000000e+03 8.254313468933105469e+00 1.754685592651367188e+01 -4.708768799901008606e-02 6.377200130373239517e-03 -1.221314631402492523e-02 8.368808776140213013e-03
5.450000000000000000e+03 7.029184722900390625e+01 2.922024345397949219e+01 -3.135630488395690918e-01 6.520546913146972656e+00 1.862095117568969727e+00 1.148612946271896362e-01
5.451000000000000000e+03 7.178506469726562500e+01 2.870245361328125000e+01 -2.508927881717681885e-01 6.617318630218505859e+00 1.909927725791931152e+00 2.343919128179550171e-01
5.452000000000000000e+03 4.206215667724609375e+01 -1.583915233612060547e+01 1.029451370239257812e+00 7.607069969177246094e+00 2.590956449508666992e+00 -7.510091662406921387e-01
5.453000000000000000e+03 7.255195617675781250e+01 1.421236324310302734e+01 5.806922316551208496e-01 6.802495479583740234e+00 2.214956283569335938e+00 -2.299745529890060425e-01
5.454000000000000000e+03 6.846207427978515625e+01 1.210195159912109375e+01 9.099620580673217773e-01 7.614541053771972656e+00 2.557350873947143555e+00 -4.506910741329193115e-01
5.455000000000000000e+03 4.777619552612304688e+01 -1.075984001159667969e+01 9.371776878833770752e-02 1.902551412582397461e+00 5.988807678222656250e-01 1.306084871292114258e+00
5.456000000000000000e+03 3.735193252563476562e+01 2.056677246093750000e+01 3.828017273917794228e-03 6.326832294464111328e+00 1.899198055267333984e+00 5.705575942993164062e-01
5.457000000000000000e+03 3.642345428466796875e+01 2.083602142333984375e+01 1.924626715481281281e-02 6.408304214477539062e+00 1.928265094757080078e+00 3.119108676910400391e-01
5.458000000000000000e+03 3.598406219482421875e+01 -7.283342361450195312e+00 -2.918183565139770508e+00 8.879860877990722656e+00 1.788503170013427734e+00 -1.151356697082519531e+00
5.459000000000000000e+03 3.421628189086914062e+01 -3.315978288650512695e+00 -2.593349814414978027e-01 8.030909538269042969e+00 2.331472158432006836e+00 -2.306369319558143616e-02
5.460000000000000000e+03 4.534020233154296875e+01 -1.222261714935302734e+01 8.464290201663970947e-02 4.258975028991699219e+00 1.303085327148437500e+00 5.003692507743835449e-01
5.461000000000000000e+03 7.128513336181640625e+01 2.202321624755859375e+01 1.481528729200363159e-01 6.866791248321533203e+00 2.104483127593994141e+00 4.518456161022186279e-01
5.462000000000000000e+03 6.119059371948242188e+01 -7.233180999755859375e+00 -2.385616451501846313e-01 1.588292002677917480e+00 4.049190878868103027e-01 9.144573658704757690e-02
5.463000000000000000e+03 1.195600891113281250e+01 -1.159592628479003906e+01 1.018916845321655273e+00 1.487429141998291016e+00 7.519037723541259766e-01 3.923358395695686340e-02
5.464000000000000000e+03 1.295183563232421875e+01 -1.029076766967773438e+01 8.471214175224304199e-01 1.528062582015991211e+00 7.125551700592041016e-01 8.988642692565917969e-02
5.465000000000000000e+03 7.044799041748046875e+01 9.919386863708496094e+00 6.322994232177734375e-01 7.146346569061279297e+00 2.333593845367431641e+00 -6.765865683555603027e-01
5.466000000000000000e+03 3.670395278930664062e+01 -8.313964843750000000e+00 -2.743793010711669922e+00 9.038343429565429688e+00 1.888365149497985840e+00 -1.099929690361022949e+00
5.467000000000000000e+03 3.531909942626953125e+01 -4.522695064544677734e+00 -1.557724952697753906e+00 8.727540016174316406e+00 2.150944471359252930e+00 -7.472602128982543945e-01
5.468000000000000000e+03 3.812523651123046875e+01 2.026082038879394531e+01 -5.753559060394763947e-03 6.137954711914062500e+00 1.839660286903381348e+00 8.183026909828186035e-01
5.469000000000000000e+03 8.118096351623535156e+00 8.478801727294921875e+00 7.876768941059708595e-04 -3.361686365678906441e-03 -7.722027949057519436e-04 2.064648433588445187e-04
5.470000000000000000e+03 1.168271350860595703e+01 -3.544526672363281250e+01 -3.222572505474090576e-01 6.985905170440673828e-01 1.128999814391136169e-01 5.806853994727134705e-02
5.471000000000000000e+03 7.647144794464111328e+00 -1.693402481079101562e+01 6.465096473693847656e-01 5.007690191268920898e-01 3.441835939884185791e-01 3.314230144023895264e-01
5.472000000000000000e+03 6.797082519531250000e+01 7.787329673767089844e+00 6.303932070732116699e-01 7.311903476715087891e+00 2.382688999176025391e+00 -6.161500215530395508e-01
5.473000000000000000e+03 6.623844146728515625e+01 -3.723367929458618164e+00 -2.162505239248275757e-01 4.951789379119873047e+00 1.420661687850952148e+00 -1.179231524467468262e+00
5.474000000000000000e+03 3.676089096069335938e+01 2.295393180847167969e+01 -2.943074107170104980e-01 5.702066421508789062e+00 1.622327685356140137e+00 5.128969550132751465e-01
5.475000000000000000e+03 3.613294601440429688e+01 2.380444526672363281e+01 -4.172784984111785889e-01 5.570774555206298828e+00 1.546048760414123535e+00 3.713230490684509277e-01
5.476000000000000000e+03 7.112001800537109375e+01 -2.879218864440917969e+01 -9.947510957717895508e-01 8.249662399291992188e+00 2.176473379135131836e+00 -1.200435236096382141e-01
5.477000000000000000e+03 8.305821418762207031e+00 2.751733016967773438e+01 -2.053399756550788879e-02 1.173394173383712769e-02 -2.640017075464129448e-03 1.535453498363494873e-01
5.478000000000000000e+03 6.173551177978515625e+01 -2.097754716873168945e+00 5.680165886878967285e-01 3.438280820846557617e+00 1.201889157295227051e+00 3.536402881145477295e-01
5.479000000000000000e+03 6.234988784790039062e+01 -2.449365377426147461e+00 4.490171968936920166e-01 3.558840751647949219e+00 1.202357411384582520e+00 9.449525177478790283e-02
5.480000000000000000e+03 1.429114246368408203e+01 -8.440793037414550781e+00 4.320509731769561768e-01 1.399898052215576172e+00 5.495846867561340332e-01 2.672204971313476562e-01
5.481000000000000000e+03 7.189540863037109375e+01 -3.179861831665039062e+01 -7.209016680717468262e-01 7.887197494506835938e+00 2.149888753890991211e+00 -4.259901493787765503e-02
5.482000000000000000e+03 1.342907238006591797e+01 -8.787794113159179688e+00 5.064120292663574219e-01 1.343026518821716309e+00 5.548315644264221191e-01 9.084305912256240845e-02
5.483000000000000000e+03 4.512599945068359375e+01 -9.846626281738281250e+00 -4.844819605350494385e-01 3.370796203613281250e+00 8.658942580223083496e-01 -2.422754094004631042e-02
5.484000000000000000e+03 4.385752868652343750e+01 -1.166909980773925781e+01 -2.626718878746032715e-01 5.165361881256103516e+00 1.470807075500488281e+00 -2.119807898998260498e-01
5.485000000000000000e+03 6.141587829589843750e+01 -3.824347019195556641e+00 4.484687745571136475e-01 2.770320653915405273e+00 9.656368494033813477e-01 2.368419021368026733e-01
5.486000000000000000e+03 6.366730499267578125e+01 -1.285701870918273926e+00 3.233137130737304688e-01 4.430525302886962891e+00 1.426151752471923828e+00 -1.689956784248352051e-01
5.487000000000000000e+03 7.047979354858398438e+00 1.422175979614257812e+01 -1.177291758358478546e-02 -4.144838079810142517e-03 -4.775326699018478394e-03 8.501954725943505764e-04
5.488000000000000000e+03 6.560548782348632812e+00 1.365674781799316406e+01 -8.259112015366554260e-03 -5.319790914654731750e-03 -4.073671065270900726e-03 7.175051141530275345e-04
5.489000000000000000e+03 4.665422821044921875e+01 -1.100265407562255859e+01 1.382278464734554291e-02 2.696977376937866211e+00 8.132400512695312500e-01 8.976052999496459961e-01
5.490000000000000000e+03 4.503021621704101562e+01 -1.054736900329589844e+01 -3.239678442478179932e-01 3.746261119842529297e+00 1.026687979698181152e+00 7.182136178016662598e-02
5.491000000000000000e+03 6.971025085449218750e+01 -3.518420410156250000e+01 -3.241538703441619873e-01 6.220352172851562500e+00 1.768859505653381348e+00 3.351424336433410645e-01
5.492000000000000000e+03 6.703166198730468750e+01 4.838079452514648438e+00 4.132881462574005127e-01 6.860275268554687500e+00 2.182069063186645508e+00 -5.922480821609497070e-01
5.493000000000000000e+03 8.424974441528320312e+00 1.373444366455078125e+01 -1.003758981823921204e-02 -5.753970704972743988e-03 -4.737467970699071884e-03 -5.143005400896072388e-04
5.494000000000000000e+03 7.528897762298583984e+00 -2.596239089965820312e+01 -1.628201454877853394e-01 7.229121923446655273e-01 1.680276244878768921e-01 6.515144109725952148e-01
5.495000000000000000e+03 6.850709533691406250e+01 1.508970260620117188e+01 1.030465602874755859e+00 7.585827827453613281e+00 2.584887981414794922e+00 -2.293648570775985718e-01
5.496000000000000000e+03 6.815926361083984375e+01 1.389728450775146484e+01 1.022657752037048340e+00 7.754168033599853516e+00 2.633047819137573242e+00 -3.385341763496398926e-01
5.497000000000000000e+03 6.581140899658203125e+01 1.104868054389953613e+00 1.936047375202178955e-01 5.822799205780029297e+00 1.804921150207519531e+00 -5.179893970489501953e-01
5.498000000000000000e+03 7.240041732788085938e+00 1.160482501983642578e+01 -2.366134664043784142e-03 -5.253312643617391586e-03 -2.285834169015288353e-03 -7.922547520138323307e-04
5.499000000000000000e+03 9.903656959533691406e+00 1.342944622039794922e+01 -6.441066972911357880e-03 -6.424020510166883469e-03 -3.859526244923472404e-03 -7.273983210325241089e-04
5.500000000000000000e+03 7.234086608886718750e+01 2.020878791809082031e+01 3.065686523914337158e-01 6.770894050598144531e+00 2.123238801956176758e+00 3.836516141891479492e-01
5.501000000000000000e+03 7.234310913085937500e+01 1.657842254638671875e+01 5.604417920112609863e-01 6.778737545013427734e+00 2.201753854751586914e+00 4.274680465459823608e-02
5.502000000000000000e+03 1.270563602447509766e+01 -2.924713134765625000e+01 -5.250408053398132324e-01 1.101742744445800781e+00 1.730105876922607422e-01 1.738545894622802734e-01
5.503000000000000000e+03 9.495835304260253906e+00 -3.004386329650878906e+01 -3.815563917160034180e-01 8.706728816032409668e-01 1.467349529266357422e-01 3.726413249969482422e-01
5.504000000000000000e+03 9.124506950378417969e+00 1.895942115783691406e+01 -7.671014964580535889e-02 2.205105870962142944e-02 -1.639772765338420868e-02 1.313723251223564148e-02
5.505000000000000000e+03 4.161829376220703125e+01 2.429428291320800781e+01 -3.144783377647399902e-01 4.261766910552978516e+00 1.184186577796936035e+00 1.394325733184814453e+00
5.506000000000000000e+03 4.067420959472656250e+01 2.289281845092773438e+01 -2.614988386631011963e-01 4.750641345977783203e+00 1.346742749214172363e+00 1.358106970787048340e+00
5.507000000000000000e+03 4.084194564819335938e+01 2.187772560119628906e+01 -1.487630605697631836e-01 4.836379528045654297e+00 1.406284928321838379e+00 1.407657623291015625e+00
5.508000000000000000e+03 8.555147171020507812e+00 3.050793266296386719e+01 2.879311144351959229e-02 1.096703950315713882e-02 1.192804519087076187e-02 1.464240252971649170e-01
5.509000000000000000e+03 7.135619354248046875e+01 1.758032989501953125e+01 6.263499259948730469e-01 6.911558151245117188e+00 2.261372566223144531e+00 1.385440677404403687e-01
5.510000000000000000e+03 7.145503234863281250e+01 1.868167495727539062e+01 5.275295376777648926e-01 6.878567218780517578e+00 2.221828937530517578e+00 2.613722980022430420e-01
5.511000000000000000e+03 1.469690322875976562e+01 2.867908287048339844e+01 5.247005820274353027e-02 1.891820281744003296e-01 7.249562442302703857e-02 8.168964087963104248e-02
5.512000000000000000e+03 1.305553817749023438e+01 3.507256698608398438e+01 1.228069886565208435e-01 2.966254949569702148e-01 1.258297413587570190e-01 4.400388523936271667e-02
5.513000000000000000e+03 8.634318351745605469e+00 3.189849853515625000e+01 5.165733397006988525e-02 1.485878881067037582e-02 1.995483599603176117e-02 1.342654824256896973e-01
5.514000000000000000e+03 2.519037818908691406e+01 3.214301681518554688e+01 -1.117747053503990173e-01 1.985090613365173340e+00 5.619947910308837891e-01 -6.378794312477111816e-01
5.515000000000000000e+03 3.226867675781250000e+01 3.508953857421875000e+01 -5.729900598526000977e-01 3.305243968963623047e+00 8.196761608123779297e-01 -1.772903203964233398e-01
5.516000000000000000e+03 1.103124237060546875e+01 -2.494529151916503906e+01 -2.469379156827926636e-01 1.439061164855957031e+00 3.576369881629943848e-01 5.353068113327026367e-01
5.517000000000000000e+03 1.029904651641845703e+01 -2.390368080139160156e+01 -7.910340279340744019e-02 1.397707343101501465e+00 3.955811858177185059e-01 6.529039740562438965e-01
5.518000000000000000e+03 7.717914104461669922e+00 -2.914780998229980469e+01 -2.822835445404052734e-01 7.105038762092590332e-01 1.284660995006561279e-01 4.805661737918853760e-01
5.519000000000000000e+03 8.894688606262207031e+00 -2.663537406921386719e+01 -2.697858810424804688e-01 9.637870788574218750e-01 2.082003504037857056e-01 5.899606347084045410e-01
5.520000000000000000e+03 6.519499969482421875e+01 2.547183227539062500e+01 -5.927692055702209473e-01 6.581316471099853516e+00 1.796564221382141113e+00 -4.803501963615417480e-01
5.521000000000000000e+03 4.719016265869140625e+01 2.853079605102539062e+01 1.034860759973526001e-01 2.611257791519165039e+00 8.144232034683227539e-01 1.157097578048706055e+00
5.522000000000000000e+03 5.371456909179687500e+01 2.795081329345703125e+01 4.952800571918487549e-01 1.658708810806274414e+00 6.461966633796691895e-01 1.272546947002410889e-01
5.523000000000000000e+03 7.589982509613037109e+00 3.313459396362304688e+01 6.029282510280609131e-02 -3.716339170932769775e-02 6.938830949366092682e-03 1.217661201953887939e-01
5.524000000000000000e+03 6.356133270263671875e+01 2.887831306457519531e+01 -3.628985285758972168e-01 5.376880645751953125e+00 1.504194617271423340e+00 -7.684780955314636230e-01
5.525000000000000000e+03 6.015887832641601562e+01 2.725302886962890625e+01 -7.263579964637756348e-02 3.773884534835815430e+00 1.110374569892883301e+00 -1.380013942718505859e+00
5.526000000000000000e+03 1.174912166595458984e+01 -3.001722717285156250e+01 -4.947202801704406738e-01 1.023789048194885254e+00 1.587206274271011353e-01 2.234665453433990479e-01
5.527000000000000000e+03 5.460271835327148438e+01 2.696957397460937500e+01 4.443859755992889404e-01 1.398744344711303711e+00 5.529391169548034668e-01 -8.054640889167785645e-02
5.528000000000000000e+03 1.057121276855468750e+01 -3.019570159912109375e+01 -4.383675456047058105e-01 9.452091455459594727e-01 1.520524770021438599e-01 2.973313927650451660e-01
5.529000000000000000e+03 7.189266204833984375e+01 2.732182502746582031e+01 -2.264905273914337158e-01 6.680705070495605469e+00 1.936264395713806152e+00 3.074918389320373535e-01
5.530000000000000000e+03 9.978876113891601562e+00 3.447467803955078125e+01 9.650315344333648682e-02 1.021427363157272339e-01 5.959376692771911621e-02 9.888928383588790894e-02
5.531000000000000000e+03 6.610926818847656250e+01 2.407910919189453125e+01 -4.070290625095367432e-01 7.054831981658935547e+00 1.994340896606445312e+00 -1.164816394448280334e-01
5.532000000000000000e+03 2.929968833923339844e+01 3.084675979614257812e+01 -4.165654480457305908e-01 3.078706741333007812e+00 7.986423969268798828e-01 -7.057792544364929199e-01
5.533000000000000000e+03 7.236915588378906250e+01 2.783262634277343750e+01 -2.101248502731323242e-01 6.672444343566894531e+00 1.938695788383483887e+00 3.108811974525451660e-01
5.534000000000000000e+03 3.356180572509765625e+01 2.403866195678710938e+01 -3.631834387779235840e-01 5.608296394348144531e+00 1.573533892631530762e+00 -3.356007039546966553e-01
5.535000000000000000e+03 3.511604309082031250e+01 2.434583473205566406e+01 -4.644525945186614990e-01 5.484647750854492188e+00 1.506058573722839355e+00 8.387816697359085083e-02
5.536000000000000000e+03 6.791713714599609375e+01 3.180403518676757812e+01 -3.073378503322601318e-01 6.029704570770263672e+00 1.716710090637207031e+00 -1.912912577390670776e-01
5.537000000000000000e+03 6.844676208496093750e+01 2.925504875183105469e+01 -3.868815302848815918e-01 6.381384849548339844e+00 1.798350930213928223e+00 -5.223359167575836182e-02
5.538000000000000000e+03 1.933936309814453125e+01 3.187088012695312500e+01 1.585156619548797607e-01 7.099467515945434570e-01 2.605387270450592041e-01 -2.556025385856628418e-01
5.539000000000000000e+03 2.413080978393554688e+01 3.420360565185546875e+01 -7.313641160726547241e-02 1.732405424118041992e+00 4.977806806564331055e-01 -4.137484431266784668e-01
5.540000000000000000e+03 3.934430694580078125e+01 -3.563236999511718750e+01 -1.279700279235839844e+00 5.276755809783935547e+00 1.199116706848144531e+00 3.228825032711029053e-01
5.541000000000000000e+03 4.453646850585937500e+01 2.545550727844238281e+01 -1.700052618980407715e-01 3.239690542221069336e+00 9.209055900573730469e-01 1.479989767074584961e+00
5.542000000000000000e+03 4.295325088500976562e+01 2.577302742004394531e+01 -2.839841544628143311e-01 3.746552467346191406e+00 1.038770556449890137e+00 1.397614121437072754e+00
5.543000000000000000e+03 6.842040252685546875e+01 3.503326416015625000e+01 -1.553676128387451172e-01 5.852913379669189453e+00 1.709263682365417480e+00 -1.495024412870407104e-01
5.544000000000000000e+03 4.205857467651367188e+01 -3.839487457275390625e+01 -1.448732614517211914e+00 5.066773414611816406e+00 1.085412263870239258e+00 -1.878689527511596680e-01
5.545000000000000000e+03 1.385901165008544922e+01 -3.571942138671875000e+01 -3.307783603668212891e-01 6.647530198097229004e-01 1.001923978328704834e-01 -4.327118024230003357e-02
5.546000000000000000e+03 1.023025131225585938e+01 -3.313087081909179688e+01 -3.613010942935943604e-01 7.717897295951843262e-01 1.231465861201286316e-01 1.915882229804992676e-01
5.547000000000000000e+03 1.374341773986816406e+01 -3.821708297729492188e+01 -2.303290218114852905e-01 5.946369767189025879e-01 1.092923879623413086e-01 -2.613433822989463806e-02
5.548000000000000000e+03 2.662759590148925781e+01 -4.104849243164062500e+01 -1.608762592077255249e-01 1.311499595642089844e+00 3.451870083808898926e-01 9.021416306495666504e-02
5.549000000000000000e+03 1.975729942321777344e+01 -3.667488861083984375e+01 -1.903523951768875122e-01 4.470025002956390381e-01 7.699503749608993530e-02 -1.675465106964111328e-01
5.550000000000000000e+03 4.515378952026367188e+01 2.895120429992675781e+01 -8.503043651580810547e-02 3.099242687225341797e+00 9.042636752128601074e-01 1.194535017013549805e+00
5.551000000000000000e+03 4.490246582031250000e+01 2.710641288757324219e+01 -1.349870562553405762e-01 3.144468545913696289e+00 9.028444290161132812e-01 1.356968045234680176e+00
5.552000000000000000e+03 3.575999069213867188e+01 -5.206718921661376953e+00 -2.133372783660888672e+00 8.956469535827636719e+00 2.046929121017456055e+00 -9.922383427619934082e-01
5.553000000000000000e+03 3.626079559326171875e+01 -6.529283523559570312e+00 -2.773854494094848633e+00 9.085956573486328125e+00 1.893630743026733398e+00 -1.154406905174255371e+00
5.554000000000000000e+03 8.695528984069824219e+00 1.045281887054443359e+01 -1.038419577525928617e-04 -4.778563510626554489e-03 -1.464721630327403545e-03 4.176315560471266508e-04
5.555000000000000000e+03 7.122268676757812500e+01 -1.124154758453369141e+01 -1.286693334579467773e+00 9.576910018920898438e+00 2.487065076828002930e+00 -1.226543486118316650e-01
5.556000000000000000e+03 7.470641613006591797e+00 2.043773078918457031e+01 -7.135939598083496094e-02 1.849337853491306305e-02 -1.585980504751205444e-02 4.726870730519294739e-02
5.557000000000000000e+03 1.080895900726318359e+01 -8.386655807495117188e+00 3.021195232868194580e-01 7.327233552932739258e-01 3.104528486728668213e-01 -3.642784357070922852e-01
5.558000000000000000e+03 1.144593429565429688e+01 -1.017017841339111328e+01 6.964426636695861816e-01 1.118009209632873535e+00 5.443355441093444824e-01 -1.897428780794143677e-01
5.559000000000000000e+03 3.873469924926757812e+01 -7.451727867126464844e+00 -2.662922859191894531e+00 8.873527526855468750e+00 1.863181352615356445e+00 -1.484843730926513672e+00
5.560000000000000000e+03 6.589563751220703125e+01 2.547590255737304688e+00 2.852633595466613770e-01 6.207436084747314453e+00 1.947809815406799316e+00 -4.506188035011291504e-01
5.561000000000000000e+03 7.743927478790283203e+00 -2.056785774230957031e+01 3.413304686546325684e-01 6.691298484802246094e-01 3.031381070613861084e-01 6.476312875747680664e-01
5.562000000000000000e+03 7.834634780883789062e+00 -2.134970664978027344e+01 2.527042031288146973e-01 7.221934795379638672e-01 2.924692928791046143e-01 6.916713118553161621e-01
5.563000000000000000e+03 7.871932029724121094e+00 -1.118479537963867188e+01 5.399933457374572754e-01 2.879541814327239990e-01 2.483842670917510986e-01 -4.018488526344299316e-01
5.564000000000000000e+03 7.194664764404296875e+01 2.244295310974121094e+01 9.487745165824890137e-02 6.813812255859375000e+00 2.072606801986694336e+00 4.622056484222412109e-01
5.565000000000000000e+03 3.482217407226562500e+01 -4.907361507415771484e+00 -1.713286995887756348e+00 8.225095748901367188e+00 1.953542470932006836e+00 -7.263051867485046387e-01
5.566000000000000000e+03 6.086227035522460938e+01 -7.593138694763183594e+00 -3.883788585662841797e-01 1.397659540176391602e+00 3.027842044830322266e-01 2.359702885150909424e-01
5.567000000000000000e+03 6.851118469238281250e+01 1.283716678619384766e+01 9.478812813758850098e-01 7.656041145324707031e+00 2.581176757812500000e+00 -4.176616668701171875e-01
5.568000000000000000e+03 9.364183425903320312e+00 2.240043830871582031e+01 -1.200670897960662842e-01 5.172085016965866089e-02 -2.050387300550937653e-02 8.093573898077011108e-02
5.569000000000000000e+03 3.714664077758789062e+01 1.973135948181152344e+01 1.203348115086555481e-01 6.633516311645507812e+00 2.026155471801757812e+00 4.567438662052154541e-01
5.570000000000000000e+03 8.153615951538085938e+00 -1.898311614990234375e+01 5.334113240242004395e-01 7.570412755012512207e-01 3.871357738971710205e-01 5.510062575340270996e-01
5.571000000000000000e+03 7.120285797119140625e+01 1.267885875701904297e+01 6.919137239456176758e-01 7.041932106018066406e+00 2.320153713226318359e+00 -4.317468702793121338e-01
5.572000000000000000e+03 1.027374649047851562e+01 -8.453826904296875000e+00 2.931694686412811279e-01 6.351280808448791504e-01 2.784892618656158447e-01 -4.310853183269500732e-01
5.573000000000000000e+03 8.032863616943359375e+00 1.042939472198486328e+01 -4.883375950157642365e-04 -4.972654860466718674e-03 -1.638297806493937969e-03 1.877889881143346429e-04
5.574000000000000000e+03 7.179456329345703125e+01 2.414720535278320312e+01 -6.522773951292037964e-02 6.788923740386962891e+00 2.017108678817749023e+00 4.420305192470550537e-01
5.575000000000000000e+03 7.233452606201171875e+01 2.180294418334960938e+01 1.537516266107559204e-01 6.766646862030029297e+00 2.076119422912597656e+00 4.501902163028717041e-01
5.576000000000000000e+03 7.164825439453125000e+01 2.140221405029296875e+01 2.117062807083129883e-01 6.845232486724853516e+00 2.117081642150878906e+00 4.432769715785980225e-01
5.577000000000000000e+03 7.846251964569091797e+00 -1.054454517364501953e+01 4.601187705993652344e-01 2.595859169960021973e-01 2.159114032983779907e-01 -4.605124890804290771e-01
5.578000000000000000e+03 6.019616699218750000e+01 -7.243111610412597656e+00 -2.471133172512054443e-01 1.489520430564880371e+00 3.727221190929412842e-01 4.375352859497070312e-01
5.579000000000000000e+03 1.480726623535156250e+01 -7.988016605377197266e+00 3.406591713428497314e-01 1.301408052444458008e+00 4.926201701164245605e-01 3.739364147186279297e-01
5.580000000000000000e+03 1.122229385375976562e+01 2.630497741699218750e+01 -6.634545326232910156e-02 8.710294216871261597e-02 6.227246951311826706e-03 1.547338515520095825e-01
5.581000000000000000e+03 1.022474002838134766e+01 2.459356307983398438e+01 -1.123124137520790100e-01 6.805161386728286743e-02 -1.327824033796787262e-02 1.315816342830657959e-01
5.582000000000000000e+03 7.578421115875244141e+00 2.263320159912109375e+01 -7.880619913339614868e-02 2.242697402834892273e-02 -1.691376790404319763e-02 8.629357069730758667e-02
5.583000000000000000e+03 4.250104904174804688e+01 -1.044331645965576172e+01 -8.557617068290710449e-01 5.923346042633056641e+00 1.520275235176086426e+00 -8.384705781936645508e-01
5.584000000000000000e+03 1.212166976928710938e+01 -9.003879547119140625e+00 4.721735119819641113e-01 1.084081768989562988e+00 4.668765664100646973e-01 -1.581636518239974976e-01
5.585000000000000000e+03 7.346160411834716797e+00 -2.347733879089355469e+01 2.478505857288837433e-02 6.449880599975585938e-01 2.009319514036178589e-01 7.069063782691955566e-01
5.586000000000000000e+03 7.272135162353515625e+01 1.613494873046875000e+01 5.385787487030029297e-01 6.736407756805419922e+00 2.182496070861816406e+00 5.334326415322721004e-04
5.587000000000000000e+03 7.868490219116210938e+00 -1.240202236175537109e+01 6.318357586860656738e-01 3.433865010738372803e-01 2.925666868686676025e-01 -2.601453065872192383e-01
5.588000000000000000e+03 7.089674377441406250e+01 2.634105682373046875e+01 -2.407693862915039062e-01 6.737573623657226562e+00 1.949041247367858887e+00 3.128218054771423340e-01
5.589000000000000000e+03 7.031728363037109375e+01 2.395603370666503906e+01 -9.787507355213165283e-02 6.891318321228027344e+00 2.038033008575439453e+00 3.881350457668304443e-01
5.590000000000000000e+03 3.510410308837890625e+01 -5.517642974853515625e+00 -2.168726444244384766e+00 8.316768646240234375e+00 1.844412684440612793e+00 -9.287593960762023926e-01
5.591000000000000000e+03 3.472104644775390625e+01 -3.942051172256469727e+00 -9.218860268592834473e-01 8.298266410827636719e+00 2.212913990020751953e+00 -4.191394150257110596e-01
5.592000000000000000e+03 7.323581218719482422e+00 1.099294090270996094e+01 -1.354746520519256592e-03 -5.226614419370889664e-03 -1.974408281967043877e-03 -3.098136221524327993e-04
5.593000000000000000e+03 7.244343566894531250e+01 9.699016571044921875e+00 4.513128697872161865e-01 6.914588928222656250e+00 2.209770679473876953e+00 -7.047401070594787598e-01
5.594000000000000000e+03 6.837694549560546875e+01 8.228068351745605469e+00 6.446443200111389160e-01 7.308168888092041016e+00 2.385843992233276367e+00 -6.481680870056152344e-01
5.595000000000000000e+03 7.277848052978515625e+01 8.582304954528808594e+00 3.741543889045715332e-01 6.908603191375732422e+00 2.184827327728271484e+00 -7.847236394882202148e-01
5.596000000000000000e+03 1.006832695007324219e+01 1.050424575805664062e+01 1.278865529457107186e-04 -4.120303317904472351e-03 -1.197725068777799606e-03 1.802336308173835278e-03
5.597000000000000000e+03 6.920958709716796875e+01 1.147840213775634766e+01 8.242667913436889648e-01 7.404496669769287109e+00 2.468629121780395508e+00 -5.174454450607299805e-01
5.598000000000000000e+03 9.227003097534179688e+00 1.328958702087402344e+01 -7.314697839319705963e-03 -6.336332298815250397e-03 -4.095308948308229446e-03 -6.843127775937318802e-04
5.599000000000000000e+03 7.249190521240234375e+01 -1.520941615104675293e+00 -3.356923460960388184e-01 7.305940151214599609e+00 2.091074466705322266e+00 -1.060463905334472656e+00
5.600000000000000000e+03 7.167602539062500000e+01 -1.463333368301391602e+00 -3.448444902896881104e-01 7.125668048858642578e+00 2.034246921539306641e+00 -1.130702137947082520e+00
5.601000000000000000e+03 8.061706542968750000e+00 9.833916664123535156e+00 4.026749520562589169e-04 -4.412992391735315323e-03 -1.203095191158354282e-03 -5.372049054130911827e-05
5.602000000000000000e+03 7.280752563476562500e+01 -1.120778465270996094e+01 -9.064757227897644043e-01 9.418964385986328125e+00 2.553746700286865234e+00 3.853215575218200684e-01
5.603000000000000000e+03 7.244387054443359375e+01 6.236701965332031250e+00 2.687803506851196289e-01 6.975488185882568359e+00 2.173280477523803711e+00 -9.425559043884277344e-01
5.604000000000000000e+03 7.437809944152832031e+00 1.608785438537597656e+01 -2.620801702141761780e-02 -5.156383849680423737e-04 -8.017096668481826782e-03 4.603317007422447205e-03
5.605000000000000000e+03 7.186416625976562500e+01 1.902192354202270508e+00 -2.379083074629306793e-02 7.018939018249511719e+00 2.098544359207153320e+00 -1.108322381973266602e+00
5.606000000000000000e+03 7.139028167724609375e+01 -1.053054809570312500e+01 -1.413281679153442383e+00 9.315003395080566406e+00 2.370516538619995117e+00 -2.344482243061065674e-01
5.607000000000000000e+03 7.163442993164062500e+01 -2.463794231414794922e+00 -4.717507958412170410e-01 7.195437908172607422e+00 2.017106294631958008e+00 -1.122183918952941895e+00
5.608000000000000000e+03 7.261820983886718750e+01 3.923230171203613281e+00 1.089054867625236511e-01 7.029489040374755859e+00 2.141518354415893555e+00 -1.040040254592895508e+00
5.609000000000000000e+03 7.284445190429687500e+01 -9.136675834655761719e+00 -1.153303146362304688e+00 8.867954254150390625e+00 2.314395189285278320e+00 -1.055502295494079590e-01
5.610000000000000000e+03 7.162315368652343750e+01 -3.507128715515136719e+00 -6.123912334442138672e-01 7.299449443817138672e+00 2.006117343902587891e+00 -1.104691863059997559e+00
5.611000000000000000e+03 7.263291168212890625e+01 -4.364593982696533203e+00 -6.910673975944519043e-01 7.691715717315673828e+00 2.100194454193115234e+00 -9.146975278854370117e-01
5.612000000000000000e+03 7.032328796386718750e+01 4.898883342742919922e+00 2.698680460453033447e-01 6.941907405853271484e+00 2.163532733917236328e+00 -9.843916296958923340e-01
5.613000000000000000e+03 7.183062744140625000e+01 3.214293718338012695e+00 7.913238555192947388e-02 6.995602607727050781e+00 2.122420549392700195e+00 -1.077863216400146484e+00
5.614000000000000000e+03 7.220964813232421875e+01 -9.002878189086914062e+00 -1.285156726837158203e+00 8.791221618652343750e+00 2.251819372177124023e+00 -3.408614695072174072e-01
5.615000000000000000e+03 7.115597534179687500e+01 -2.978675603866577148e+00 -5.435628294944763184e-01 7.120703697204589844e+00 1.973142266273498535e+00 -1.161860942840576172e+00
5.616000000000000000e+03 7.272624969482421875e+01 -5.350741386413574219e+00 -8.157176375389099121e-01 7.908539295196533203e+00 2.127846479415893555e+00 -7.904929518699645996e-01
5.617000000000000000e+03 7.166920471191406250e+01 -8.070071220397949219e+00 -1.321040749549865723e+00 8.394446372985839844e+00 2.122021675109863281e+00 -6.944843530654907227e-01
5.618000000000000000e+03 6.960997009277343750e+01 2.839420890808105469e+01 -3.543385267257690430e-01 6.571594715118408203e+00 1.865176796913146973e+00 9.662847220897674561e-02
5.619000000000000000e+03 7.853974819183349609e+00 -1.798466491699218750e+01 5.916293859481811523e-01 6.198000907897949219e-01 3.634288311004638672e-01 4.530286192893981934e-01
5.620000000000000000e+03 8.685811996459960938e+00 -1.666495132446289062e+01 7.819275856018066406e-01 8.609192967414855957e-01 4.928540587425231934e-01 3.619419038295745850e-01
5.621000000000000000e+03 7.254302215576171875e+01 1.194924068450927734e+01 5.400835871696472168e-01 6.852232933044433594e+00 2.217694997787475586e+00 -4.829381704330444336e-01
5.622000000000000000e+03 7.184442138671875000e+01 1.198379230499267578e+01 6.151024699211120605e-01 6.960409641265869141e+00 2.272653579711914062e+00 -4.934837222099304199e-01
5.623000000000000000e+03 7.839894294738769531e+00 -1.297957420349121094e+01 6.901290416717529297e-01 3.616756498813629150e-01 3.155414164066314697e-01 -1.932803094387054443e-01
5.624000000000000000e+03 6.896240234375000000e+01 1.749530029296875000e+01 9.139449596405029297e-01 7.336775302886962891e+00 2.475216150283813477e+00 4.564319550991058350e-02
5.625000000000000000e+03 8.463214874267578125e+00 1.856541442871093750e+01 -6.331495195627212524e-02 1.396674662828445435e-02 -1.480446103960275650e-02 1.520912535488605499e-02
5.626000000000000000e+03 7.235023021697998047e+00 -1.117409324645996094e+01 4.687940776348114014e-01 1.364553719758987427e-01 1.815748363733291626e-01 -4.205220043659210205e-01
5.627000000000000000e+03 8.401560783386230469e+00 -1.833285713195800781e+01 6.150720715522766113e-01 8.266444206237792969e-01 4.325149655342102051e-01 5.131177306175231934e-01
5.628000000000000000e+03 9.165815353393554688e+00 -1.754319572448730469e+01 7.493631839752197266e-01 1.074785113334655762e+00 5.472444891929626465e-01 4.711982607841491699e-01
5.629000000000000000e+03 8.555932998657226562e+00 -1.183815956115722656e+01 6.680138707160949707e-01 5.046002268791198730e-01 3.517842292785644531e-01 -2.998963296413421631e-01
5.630000000000000000e+03 8.829492568969726562e+00 -1.922620582580566406e+01 5.454868674278259277e-01 1.012530326843261719e+00 4.674051403999328613e-01 5.931018590927124023e-01
5.631000000000000000e+03 7.178257465362548828e+00 -1.231578826904296875e+01 5.262638330459594727e-01 1.341530978679656982e-01 1.981250792741775513e-01 -3.014127612113952637e-01
5.632000000000000000e+03 1.070265388488769531e+01 -1.253924655914306641e+01 1.020417809486389160e+00 1.222407341003417969e+00 6.728475689888000488e-01 -2.632346749305725098e-02
5.633000000000000000e+03 7.194486236572265625e+01 1.810619163513183594e+01 5.307813286781311035e-01 6.825659275054931641e+00 2.206932067871093750e+00 2.062721848487854004e-01
5.634000000000000000e+03 7.033891296386718750e+01 1.641931915283203125e+01 8.064306378364562988e-01 7.112311840057373047e+00 2.375622749328613281e+00 -2.237667329609394073e-02
5.635000000000000000e+03 7.514488697052001953e+00 -1.444672012329101562e+01 6.960555911064147949e-01 3.426826298236846924e-01 3.116214573383331299e-01 -8.099386468529701233e-03
5.636000000000000000e+03 9.999979019165039062e+00 -1.323549556732177734e+01 9.906480908393859863e-01 1.057768344879150391e+00 6.145249009132385254e-01 -1.269318908452987671e-02
5.637000000000000000e+03 9.470833778381347656e+00 2.422864723205566406e+01 -1.021932438015937805e-01 5.600228160619735718e-02 -1.385728921741247177e-02 1.225861608982086182e-01
5.638000000000000000e+03 6.979046630859375000e+01 2.092957878112792969e+01 3.415084779262542725e-01 7.073733329772949219e+00 2.224572658538818359e+00 3.949584066867828369e-01
5.639000000000000000e+03 6.644691467285156250e+01 1.205664157867431641e+00 1.547041833400726318e-01 6.016375064849853516e+00 1.851323843002319336e+00 -6.591175794601440430e-01
5.640000000000000000e+03 9.263406753540039062e+00 2.610270881652832031e+01 -5.852499604225158691e-02 4.423855245113372803e-02 -4.285932984203100204e-03 1.510646939277648926e-01
5.641000000000000000e+03 8.089713096618652344e+00 2.638230133056640625e+01 -4.220446199178695679e-02 1.346197538077831268e-02 -8.622745983302593231e-03 1.470716893672943115e-01
5.642000000000000000e+03 1.298462867736816406e+01 -9.187427520751953125e+00 5.643089413642883301e-01 1.304183363914489746e+00 5.605477094650268555e-01 6.978296674787998199e-03
5.643000000000000000e+03 1.387327671051025391e+01 -9.284307479858398438e+00 6.429753899574279785e-01 1.505162954330444336e+00 6.444414854049682617e-01 2.091125547885894775e-01
5.644000000000000000e+03 8.731039047241210938e+00 2.389033699035644531e+01 -9.423882514238357544e-02 4.109336808323860168e-02 -1.594363711774349213e-02 1.150705516338348389e-01
5.645000000000000000e+03 8.330204010009765625e+00 2.460292053222656250e+01 -7.560872286558151245e-02 3.104255720973014832e-02 -1.336985081434249878e-02 1.259535551071166992e-01
5.646000000000000000e+03 6.641053771972656250e+01 -7.794807434082031250e+00 -1.049451351165771484e+00 4.610586643218994141e+00 1.068340539932250977e+00 -2.035177230834960938e+00
5.647000000000000000e+03 3.603050231933593750e+01 -5.906772136688232422e+00 -2.513588428497314453e+00 9.027887344360351562e+00 1.954289793968200684e+00 -1.082983016967773438e+00
5.648000000000000000e+03 9.368220329284667969e+00 -2.478936004638671875e+01 -1.539447605609893799e-01 1.114261507987976074e+00 2.880949974060058594e-01 6.589052081108093262e-01
5.649000000000000000e+03 6.878852844238281250e+01 2.631740951538085938e+01 -3.658577799797058105e-01 6.752484798431396484e+00 1.915988206863403320e+00 1.397200077772140503e-01
5.650000000000000000e+03 4.168587112426757812e+01 -9.426565170288085938e+00 -1.376923799514770508e+00 6.416376113891601562e+00 1.511835694313049316e+00 -1.207248210906982422e+00
5.651000000000000000e+03 6.328308868408203125e+01 -7.767994880676269531e+00 -4.066250920295715332e-01 1.881152629852294922e+00 4.423582553863525391e-01 -8.398882746696472168e-01
5.652000000000000000e+03 8.254640579223632812e+00 1.434429836273193359e+01 -1.332728937268257141e-02 -5.166971124708652496e-03 -5.548277869820594788e-03 -5.384942051023244858e-04
5.653000000000000000e+03 7.027688598632812500e+01 -7.613233089447021484e+00 -1.428482532501220703e+00 7.710425376892089844e+00 1.884582877159118652e+00 -1.261763691902160645e+00
5.654000000000000000e+03 3.890039443969726562e+01 -1.001341724395751953e+01 -1.646043896675109863e+00 8.427024841308593750e+00 2.034294366836547852e+00 -1.076995849609375000e+00
5.655000000000000000e+03 4.018406295776367188e+01 -9.194955825805664062e+00 -1.828957319259643555e+00 7.735643863677978516e+00 1.772005915641784668e+00 -1.312698364257812500e+00
5.656000000000000000e+03 4.176105880737304688e+01 -1.289060592651367188e+01 -1.834090100601315498e-03 6.972943305969238281e+00 2.091332674026489258e+00 -7.316984534263610840e-01
5.657000000000000000e+03 3.973457717895507812e+01 -1.057979774475097656e+01 -1.209266424179077148e+00 7.946003437042236328e+00 2.021021127700805664e+00 -1.050240993499755859e+00
5.658000000000000000e+03 8.418904304504394531e+00 1.589532089233398438e+01 -2.714477106928825378e-02 -8.156364783644676208e-04 -8.388122543692588806e-03 7.907737744972109795e-04
5.659000000000000000e+03 9.571706771850585938e+00 -2.278351402282714844e+01 9.523933380842208862e-02 1.245173573493957520e+00 4.021238684654235840e-01 7.119570970535278320e-01
5.660000000000000000e+03 6.520849609375000000e+01 2.782767713069915771e-01 1.944688111543655396e-01 5.467315196990966797e+00 1.698535084724426270e+00 -4.366774559020996094e-01
5.661000000000000000e+03 7.142941284179687500e+01 8.236722946166992188e-01 -1.125096753239631653e-01 6.979476451873779297e+00 2.060090065002441406e+00 -1.132420420646667480e+00
5.662000000000000000e+03 7.226216888427734375e+01 4.231356382369995117e-01 -1.529404968023300171e-01 7.129078865051269531e+00 2.092841386795043945e+00 -1.102873802185058594e+00
5.663000000000000000e+03 7.209292602539062500e+01 1.133237838745117188e+00 -9.068933874368667603e-02 7.078536510467529297e+00 2.096354246139526367e+00 -1.106534004211425781e+00
5.664000000000000000e+03 8.439683914184570312e+00 -2.137478637695312500e+01 2.730531394481658936e-01 9.177318811416625977e-01 3.572354912757873535e-01 6.961880922317504883e-01
5.665000000000000000e+03 3.870214843750000000e+01 -9.328375816345214844e+00 -2.072116613388061523e+00 8.599260330200195312e+00 1.958143234252929688e+00 -1.152276277542114258e+00
5.666000000000000000e+03 3.809457778930664062e+01 -9.486390113830566406e+00 -2.075634241104125977e+00 8.851206779479980469e+00 2.032671689987182617e+00 -1.036227583885192871e+00
5.667000000000000000e+03 7.087614440917968750e+01 2.042577266693115234e+00 9.646981023252010345e-03 6.891832828521728516e+00 2.070443868637084961e+00 -1.107192039489746094e+00
5.668000000000000000e+03 7.010375976562500000e+01 1.339992332458496094e+01 8.310444951057434082e-01 7.231188297271728516e+00 2.418669939041137695e+00 -3.715597987174987793e-01
5.669000000000000000e+03 1.254920005798339844e+01 -8.542115211486816406e+00 3.999751508235931396e-01 1.093080639839172363e+00 4.479167461395263672e-01 -9.575019776821136475e-02
5.670000000000000000e+03 6.928683471679687500e+01 -8.458024978637695312e+00 -1.650950908660888672e+00 7.461164951324462891e+00 1.743064165115356445e+00 -1.589786410331726074e+00
5.671000000000000000e+03 3.819782257080078125e+01 -6.531050205230712891e+00 -2.713296413421630859e+00 9.267893791198730469e+00 1.966379165649414062e+00 -1.470475912094116211e+00
5.672000000000000000e+03 3.753215026855468750e+01 -6.382271289825439453e+00 -2.741082429885864258e+00 9.371632575988769531e+00 1.989165067672729492e+00 -1.321275234222412109e+00
5.673000000000000000e+03 6.177437973022460938e+01 -5.447005271911621094e+00 1.657027900218963623e-01 2.357254266738891602e+00 7.568871378898620605e-01 -5.079276487231254578e-02
5.674000000000000000e+03 7.222918701171875000e+01 -4.960136413574218750e+00 -8.103832006454467773e-01 7.697712898254394531e+00 2.066199064254760742e+00 -9.421657323837280273e-01
5.675000000000000000e+03 6.925501251220703125e+01 1.276676177978515625e+01 8.857878446578979492e-01 7.400869846343994141e+00 2.485997200012207031e+00 -4.277518689632415771e-01
5.676000000000000000e+03 6.873027038574218750e+01 1.354586601257324219e+01 9.672869443893432617e-01 7.569480419158935547e+00 2.561030387878417969e+00 -3.747594952583312988e-01
5.677000000000000000e+03 7.126521301269531250e+01 9.469826698303222656e+00 5.409598946571350098e-01 7.040139198303222656e+00 2.274329900741577148e+00 -7.277009487152099609e-01
5.678000000000000000e+03 3.935702896118164062e+01 -8.399565696716308594e+00 -2.308632135391235352e+00 8.390450477600097656e+00 1.824545502662658691e+00 -1.388209819793701172e+00
5.679000000000000000e+03 7.274726867675781250e+01 -7.438725471496582031e+00 -1.081025004386901855e+00 8.371637344360351562e+00 2.187183618545532227e+00 -5.156910419464111328e-01
5.680000000000000000e+03 7.272879791259765625e+01 -6.356496810913085938e+00 -9.419891834259033203e-01 8.110531806945800781e+00 2.150562763214111328e+00 -6.735285520553588867e-01
5.681000000000000000e+03 3.919173812866210938e+01 2.127126121520996094e+01 -1.276374012231826782e-01 5.589024066925048828e+00 1.638415932655334473e+00 1.103586077690124512e+00
5.682000000000000000e+03 9.737702369689941406e+00 -1.631909179687500000e+01 9.233080148696899414e-01 1.250024676322937012e+00 6.519998311996459961e-01 3.954977691173553467e-01
5.683000000000000000e+03 9.789047241210937500e+00 -1.464220905303955078e+01 1.003956913948059082e+00 1.095600843429565430e+00 6.298673152923583984e-01 1.701275557279586792e-01
5.684000000000000000e+03 6.728617095947265625e+01 6.010870456695556641e+00 5.043414831161499023e-01 7.071300506591796875e+00 2.272692680358886719e+00 -5.917739868164062500e-01
5.685000000000000000e+03 7.038309478759765625e+01 1.610621571540832520e+00 -6.185668520629405975e-03 6.812025547027587891e+00 2.041751861572265625e+00 -1.103330135345458984e+00
5.686000000000000000e+03 6.604325103759765625e+01 -7.107699394226074219e+00 -7.599082589149475098e-01 4.299118518829345703e+00 1.061763048171997070e+00 -1.832813978195190430e+00
5.687000000000000000e+03 7.278543853759765625e+01 -2.969413757324218750e+01 -7.846058011054992676e-01 8.598277091979980469e+00 2.344101428985595703e+00 -4.200392365455627441e-01
5.688000000000000000e+03 8.798729896545410156e+00 -1.501892185211181641e+01 8.668363690376281738e-01 7.794021368026733398e-01 4.938715398311614990e-01 1.403583586215972900e-01
5.689000000000000000e+03 3.790214538574218750e+01 1.872368431091308594e+01 2.005364149808883667e-01 6.768461227416992188e+00 2.090699195861816406e+00 6.565142869949340820e-01
5.690000000000000000e+03 7.784607887268066406e+00 -2.706378746032714844e+01 -2.304855138063430786e-01 7.583377957344055176e-01 1.583556830883026123e-01 5.983642339706420898e-01
5.691000000000000000e+03 8.509228706359863281e+00 -2.747349166870117188e+01 -2.894903719425201416e-01 8.664830923080444336e-01 1.730978190898895264e-01 5.523607730865478516e-01
5.692000000000000000e+03 9.309456825256347656e+00 -2.084622573852539062e+01 3.831156492233276367e-01 1.217265844345092773e+00 4.801144599914550781e-01 6.842009425163269043e-01
5.693000000000000000e+03 9.088679313659667969e+00 1.395193290710449219e+01 -1.044968049973249435e-02 -6.157336756587028503e-03 -4.982104990631341934e-03 -1.311601023189723492e-03
5.694000000000000000e+03 7.236167907714843750e+01 7.858892440795898438e+00 3.677819669246673584e-01 6.955738067626953125e+00 2.197056055068969727e+00 -8.505495190620422363e-01
5.695000000000000000e+03 7.202913665771484375e+01 9.021005630493164062e+00 4.582450389862060547e-01 6.963183403015136719e+00 2.226428508758544922e+00 -7.655857801437377930e-01
5.696000000000000000e+03 7.210781097412109375e+01 1.346575927734375000e+01 6.163005232810974121e-01 6.888252735137939453e+00 2.251365900039672852e+00 -3.250560462474822998e-01
5.697000000000000000e+03 6.897509765625000000e+01 1.462128353118896484e+01 9.657849669456481934e-01 7.476239681243896484e+00 2.532607316970825195e+00 -2.813491523265838623e-01
5.698000000000000000e+03 6.991016387939453125e+01 1.579678630828857422e+01 8.720152378082275391e-01 7.222528457641601562e+00 2.428363084793090820e+00 -1.181199252605438232e-01
5.699000000000000000e+03 7.014745330810546875e+01 1.474945259094238281e+01 8.580659031867980957e-01 7.207506179809570312e+00 2.419671535491943359e+00 -2.267957776784896851e-01
5.700000000000000000e+03 8.990467071533203125e+00 -1.859351539611816406e+01 6.435683965682983398e-01 1.055929899215698242e+00 5.098494887351989746e-01 5.480859875679016113e-01
5.701000000000000000e+03 8.159789085388183594e+00 -2.192502021789550781e+01 1.932882815599441528e-01 8.316478729248046875e-01 3.074808418750762939e-01 7.145397067070007324e-01
5.702000000000000000e+03 3.991263580322265625e+01 -1.123940086364746094e+01 -8.521012067794799805e-01 7.852591037750244141e+00 2.100147008895874023e+00 -9.919657111167907715e-01
5.703000000000000000e+03 4.067486572265625000e+01 -1.106656837463378906e+01 -8.816461563110351562e-01 7.366188049316406250e+00 1.945362567901611328e+00 -9.994835257530212402e-01
5.704000000000000000e+03 8.072814941406250000e+00 -1.628643035888671875e+01 7.323512434959411621e-01 6.065813302993774414e-01 4.016797542572021484e-01 2.724981009960174561e-01
5.705000000000000000e+03 8.142416954040527344e+00 -1.473891448974609375e+01 7.882694005966186523e-01 5.333956480026245117e-01 3.964995145797729492e-01 6.232945248484611511e-02
5.706000000000000000e+03 9.039444923400878906e+00 2.042657661437988281e+01 -1.017187088727951050e-01 3.524076566100120544e-02 -1.994338445365428925e-02 3.568605333566665649e-02
5.707000000000000000e+03 9.426368713378906250e+00 1.993360519409179688e+01 -9.736079722642898560e-02 3.365475311875343323e-02 -1.911181211471557617e-02 2.360208891332149506e-02
5.708000000000000000e+03 3.802082061767578125e+01 1.952347564697265625e+01 1.097273230552673340e-01 6.464141368865966797e+00 1.972160577774047852e+00 7.297995090484619141e-01
5.709000000000000000e+03 3.881143188476562500e+01 2.021256828308105469e+01 -9.481310844421386719e-03 5.922353744506835938e+00 1.773861765861511230e+00 1.010838627815246582e+00
5.710000000000000000e+03 1.085784339904785156e+01 -2.646437263488769531e+01 -3.661745786666870117e-01 1.271760821342468262e+00 2.716758847236633301e-01 4.741748571395874023e-01
5.711000000000000000e+03 8.888429641723632812e+00 -2.872357749938964844e+01 -3.463846147060394287e-01 8.716317415237426758e-01 1.575741320848464966e-01 4.660677909851074219e-01
5.712000000000000000e+03 7.475854873657226562e+00 1.464647579193115234e+01 -1.501152105629444122e-02 -4.798984155058860779e-03 -5.943151656538248062e-03 1.200444297865033150e-03
5.713000000000000000e+03 7.234022140502929688e+00 -9.823469161987304688e+00 3.329652249813079834e-01 9.383738040924072266e-02 1.280407905578613281e-01 -5.362203121185302734e-01
5.714000000000000000e+03 6.030115127563476562e+01 -6.364749908447265625e+00 1.883643679320812225e-02 1.736559987068176270e+00 5.266189575195312500e-01 4.102179408073425293e-01
5.715000000000000000e+03 8.108605384826660156e+00 -2.830360984802246094e+01 -2.891854941844940186e-01 7.822340726852416992e-01 1.479145735502243042e-01 5.174306035041809082e-01
5.716000000000000000e+03 6.933552551269531250e+01 1.087392520904541016e+01 7.749450802803039551e-01 7.364378452301025391e+00 2.441797018051147461e+00 -5.753396749496459961e-01
5.717000000000000000e+03 6.911096954345703125e+01 9.460606575012207031e+00 7.014394998550415039e-01 7.330118179321289062e+00 2.409467220306396484e+00 -6.450274586677551270e-01
5.718000000000000000e+03 1.099021434783935547e+01 2.499768257141113281e+01 -1.123570650815963745e-01 8.224020153284072876e-02 -9.035059250891208649e-03 1.410962641239166260e-01
5.719000000000000000e+03 1.202557849884033203e+01 2.669714927673339844e+01 -5.603715032339096069e-02 9.848956763744354248e-02 1.273572444915771484e-02 1.510564833879470825e-01
5.720000000000000000e+03 7.079074096679687500e+01 2.265097427368164062e+01 6.142168119549751282e-02 6.915143013000488281e+00 2.092969417572021484e+00 4.390522837638854980e-01
5.721000000000000000e+03 1.109097290039062500e+01 -1.101988506317138672e+01 8.269858956336975098e-01 1.141998291015625000e+00 5.906952619552612305e-01 -1.557799875736236572e-01
5.722000000000000000e+03 6.192636108398437500e+01 -3.148000478744506836e+00 4.641989767551422119e-01 3.178291559219360352e+00 1.092747211456298828e+00 1.395794302225112915e-01
5.723000000000000000e+03 6.444034576416015625e+01 -1.451524376869201660e+00 2.005442380905151367e-01 4.693201541900634766e+00 1.468123674392700195e+00 -4.303256273269653320e-01
5.724000000000000000e+03 8.470772743225097656e+00 9.089834213256835938e+00 9.488621726632118225e-04 -3.724243026226758957e-03 -8.326141978614032269e-04 3.653012972790747881e-04
5.725000000000000000e+03 3.847406005859375000e+01 2.084923934936523438e+01 -7.236167788505554199e-02 5.871146678924560547e+00 1.739635467529296875e+00 9.244539141654968262e-01
5.726000000000000000e+03 3.999890518188476562e+01 2.168332099914550781e+01 -1.547743678092956543e-01 5.224791526794433594e+00 1.521005153656005859e+00 1.262512564659118652e+00
5.727000000000000000e+03 6.342606353759765625e+01 -5.077517509460449219e+00 6.257241964340209961e-02 3.109144926071166992e+00 9.515152573585510254e-01 -6.326882839202880859e-01
5.728000000000000000e+03 6.102244949340820312e+01 -5.950618743896484375e+00 1.141817420721054077e-01 1.988248586654663086e+00 6.307290792465209961e-01 2.069939374923706055e-01
5.729000000000000000e+03 8.912329673767089844e+00 1.460585594177246094e+01 -1.534221321344375610e-02 -5.071807652711868286e-03 -6.124206352978944778e-03 -1.508678076788783073e-03
5.730000000000000000e+03 9.990800857543945312e+00 -2.829251289367675781e+01 -3.996926546096801758e-01 1.028797745704650879e+00 1.887315064668655396e-01 4.360649287700653076e-01
5.731000000000000000e+03 1.051983642578125000e+01 -3.156210517883300781e+01 -4.095082581043243408e-01 8.568213582038879395e-01 1.341939270496368408e-01 2.462292909622192383e-01
5.732000000000000000e+03 9.861192703247070312e+00 2.345087432861328125e+01 -1.247063949704170227e-01 6.175688654184341431e-02 -1.888485252857208252e-02 1.062222644686698914e-01
5.733000000000000000e+03 6.881624603271484375e+01 7.762232303619384766e+00 5.840206146240234375e-01 7.207866668701171875e+00 2.337566137313842773e+00 -7.207008600234985352e-01
5.734000000000000000e+03 7.002088928222656250e+01 9.120304107666015625e+00 6.150124669075012207e-01 7.177155017852783203e+00 2.337650299072265625e+00 -7.234268188476562500e-01
5.735000000000000000e+03 7.554196834564208984e+00 1.247093009948730469e+01 -4.629699978977441788e-03 -5.962426308542490005e-03 -3.177637932822108269e-03 -4.348859656602144241e-04
5.736000000000000000e+03 1.117445373535156250e+01 3.135827064514160156e+01 7.247348874807357788e-02 1.136762499809265137e-01 5.584492161870002747e-02 1.283311545848846436e-01
5.737000000000000000e+03 6.298571395874023438e+01 -2.800017356872558594e+00 3.403222262859344482e-01 3.716360330581665039e+00 1.217004776000976562e+00 -1.662055402994155884e-01
5.738000000000000000e+03 6.205114364624023438e+01 -4.297828197479248047e+00 3.223678171634674072e-01 2.817537069320678711e+00 9.419714808464050293e-01 -4.336795210838317871e-02
5.739000000000000000e+03 6.591018676757812500e+01 3.799284398555755615e-01 1.455081254243850708e-01 5.678769588470458984e+00 1.747283339500427246e+00 -6.040482521057128906e-01
5.740000000000000000e+03 9.077699661254882812e+00 2.798798370361328125e+01 -1.272395160049200058e-02 3.142030537128448486e-02 5.608906038105487823e-03 1.565690040588378906e-01
5.741000000000000000e+03 1.335277652740478516e+01 2.906089973449707031e+01 4.599321633577346802e-02 1.675540357828140259e-01 6.406417489051818848e-02 1.118598282337188721e-01
5.742000000000000000e+03 3.576516342163085938e+01 -4.001460552215576172e+00 -1.285543799400329590e+00 9.211806297302246094e+00 2.377878665924072266e+00 -7.711405158042907715e-01
5.743000000000000000e+03 9.502877235412597656e+00 -1.531530475616455078e+01 9.628483653068542480e-01 1.050756931304931641e+00 6.040816307067871094e-01 2.429400235414505005e-01
5.744000000000000000e+03 9.943618774414062500e+00 -1.394210433959960938e+01 1.018805384635925293e+00 1.098912954330444336e+00 6.353154778480529785e-01 8.573909848928451538e-02
5.745000000000000000e+03 4.560541915893554688e+01 -1.148161411285400391e+01 -2.411914616823196411e-02 3.712206125259399414e+00 1.106426119804382324e+00 5.125900506973266602e-01
5.746000000000000000e+03 9.664736747741699219e+00 -2.905348777770996094e+01 -3.871566653251647949e-01 9.320158958435058594e-01 1.634577810764312744e-01 4.110959172248840332e-01
5.747000000000000000e+03 6.811075592041015625e+01 6.434802055358886719e+00 5.011496543884277344e-01 7.101615428924560547e+00 2.280829429626464844e+00 -7.096068859100341797e-01
5.748000000000000000e+03 3.722694015502929688e+01 -7.465391159057617188e+00 -2.840960502624511719e+00 9.168597221374511719e+00 1.898290872573852539e+00 -1.206970453262329102e+00
5.749000000000000000e+03 6.949794006347656250e+01 1.514962196350097656e+01 9.276461005210876465e-01 7.321254253387451172e+00 2.474670171737670898e+00 -1.889572590589523315e-01
5.750000000000000000e+03 3.480202102661132812e+01 2.714393043518066406e+01 -6.824977397918701172e-01 4.786942958831787109e+00 1.231333613395690918e+00 5.665129050612449646e-02
5.751000000000000000e+03 6.681022644042968750e+01 2.335800743103027344e+01 -2.228394150733947754e-01 7.141582489013671875e+00 2.075623035430908203e+00 6.274722516536712646e-02
5.752000000000000000e+03 7.168594360351562500e+01 1.976673316955566406e+01 3.854912817478179932e-01 6.839580059051513672e+00 2.167521476745605469e+00 3.539196550846099854e-01
5.753000000000000000e+03 6.860351562500000000e+01 2.161535835266113281e+01 2.220053076744079590e-01 7.170395374298095703e+00 2.217720270156860352e+00 3.587070405483245850e-01
5.754000000000000000e+03 6.975257110595703125e+01 1.946927070617675781e+01 5.838776230812072754e-01 7.125634193420410156e+00 2.312853574752807617e+00 3.010223507881164551e-01
5.755000000000000000e+03 7.130712890625000000e+01 2.036953353881835938e+01 3.530426621437072754e-01 6.893868446350097656e+00 2.174073219299316406e+00 3.899173140525817871e-01
5.756000000000000000e+03 7.009080505371093750e+01 2.684383010864257812e+01 -3.026446998119354248e-01 6.719802379608154297e+00 1.925147294998168945e+00 2.317311316728591919e-01
5.757000000000000000e+03 3.919186019897460938e+01 2.377490043640136719e+01 -3.801107108592987061e-01 5.025856971740722656e+00 1.393723845481872559e+00 1.070845603942871094e+00
5.758000000000000000e+03 7.198686218261718750e+01 2.079893875122070312e+01 2.657948434352874756e-01 6.799718856811523438e+00 2.119653940200805664e+00 4.165972769260406494e-01
5.759000000000000000e+03 6.925265502929687500e+01 3.040008544921875000e+01 -3.387321233749389648e-01 6.364056587219238281e+00 1.807597279548645020e+00 -2.082161419093608856e-02
5.760000000000000000e+03 1.200639438629150391e+01 2.893440246582031250e+01 2.537634409964084625e-02 1.237090751528739929e-01 4.472562670707702637e-02 1.426933556795120239e-01
5.761000000000000000e+03 8.778008460998535156e+00 2.681759643554687500e+01 -3.737233579158782959e-02 2.949677407741546631e-02 -2.362669212743639946e-03 1.541781723499298096e-01
5.762000000000000000e+03 1.124510478973388672e+01 -2.788208389282226562e+01 -4.473662674427032471e-01 1.175950288772583008e+00 2.185751944780349731e-01 3.693072199821472168e-01
5.763000000000000000e+03 1.044592571258544922e+01 -2.746780014038085938e+01 -3.907377719879150391e-01 1.131866216659545898e+00 2.223385274410247803e-01 4.547863900661468506e-01
5.764000000000000000e+03 1.475759696960449219e+01 3.142116737365722656e+01 1.235541105270385742e-01 3.077148497104644775e-01 1.293806880712509155e-01 2.964251302182674408e-02
5.765000000000000000e+03 1.006899452209472656e+01 3.055592918395996094e+01 4.078318551182746887e-02 6.280069053173065186e-02 3.107516281306743622e-02 1.432389914989471436e-01
5.766000000000000000e+03 6.504558563232421875e+01 2.690542030334472656e+01 -5.569885969161987305e-01 6.245442867279052734e+00 1.706536173820495605e+00 -5.322376489639282227e-01
5.767000000000000000e+03 6.347154617309570312e+01 2.703432655334472656e+01 -5.411685705184936523e-01 5.732668399810791016e+00 1.557449936866760254e+00 -8.947605490684509277e-01
5.768000000000000000e+03 4.038528442382812500e+01 2.411209678649902344e+01 -3.603868186473846436e-01 4.672210216522216797e+00 1.293547034263610840e+00 1.261914134025573730e+00
5.769000000000000000e+03 6.640685272216796875e+01 2.531751632690429688e+01 -5.012973546981811523e-01 6.777151107788085938e+00 1.882756114006042480e+00 -1.655231416225433350e-01
5.770000000000000000e+03 2.040531539916992188e+01 3.364189910888671875e+01 1.130012124776840210e-01 9.943054318428039551e-01 3.321920037269592285e-01 -3.188103139400482178e-01
5.771000000000000000e+03 1.203191947937011719e+01 -3.158225440979003906e+01 -4.764037132263183594e-01 9.199361205101013184e-01 1.330597251653671265e-01 1.418754905462265015e-01
5.772000000000000000e+03 3.795682907104492188e+01 2.332928848266601562e+01 -3.481884896755218506e-01 5.431554317474365234e+00 1.525009870529174805e+00 8.017128109931945801e-01
5.773000000000000000e+03 3.569147491455078125e+01 2.296816062927246094e+01 -2.564129829406738281e-01 5.932471752166748047e+00 1.702817678451538086e+00 1.950713992118835449e-01
5.774000000000000000e+03 1.195550918579101562e+01 -3.345051574707031250e+01 -4.078308045864105225e-01 7.925415635108947754e-01 1.154132336378097534e-01 8.770838379859924316e-02
5.775000000000000000e+03 1.590253543853759766e+01 3.391679382324218750e+01 1.450101584196090698e-01 4.835730791091918945e-01 1.885749697685241699e-01 -3.772591426968574524e-02
5.776000000000000000e+03 1.143878459930419922e+01 3.373941040039062500e+01 1.012495905160903931e-01 1.706031411886215210e-01 8.155582100152969360e-02 8.945699036121368408e-02
5.777000000000000000e+03 5.957975006103515625e+01 2.922673988342285156e+01 1.388194561004638672e-01 3.604864358901977539e+00 1.123105168342590332e+00 -1.004600644111633301e+00
5.778000000000000000e+03 5.737755966186523438e+01 3.508895874023437500e+01 4.083362221717834473e-01 3.480381011962890625e+00 1.166615128517150879e+00 -2.664045989513397217e-01
5.779000000000000000e+03 3.613703536987304688e+01 2.646252441406250000e+01 -6.559560894966125488e-01 4.928234100341796875e+00 1.281683444976806641e+00 3.614022731781005859e-01
5.780000000000000000e+03 5.347045898437500000e+01 2.921601104736328125e+01 5.499304533004760742e-01 1.982275366783142090e+00 7.596617341041564941e-01 1.436942368745803833e-01
5.781000000000000000e+03 2.730852699279785156e+01 3.263851547241210938e+01 -2.694757580757141113e-01 2.448909521102905273e+00 6.538301110267639160e-01 -6.681978106498718262e-01
5.782000000000000000e+03 3.425735092163085938e+01 3.182982826232910156e+01 -6.954212188720703125e-01 3.896007537841796875e+00 9.601758718490600586e-01 -3.798531740903854370e-02
5.783000000000000000e+03 3.539697265625000000e+01 2.877227973937988281e+01 -7.204799056053161621e-01 4.475649833679199219e+00 1.126551032066345215e+00 1.774035394191741943e-01
5.784000000000000000e+03 4.313772583007812500e+01 2.927017021179199219e+01 -2.658852636814117432e-01 3.532807350158691406e+00 9.800766110420227051e-01 1.143945574760437012e+00
5.785000000000000000e+03 1.462785434722900391e+01 3.828520202636718750e+01 1.268484592437744141e-01 4.842263460159301758e-01 1.833224445581436157e-01 -5.366373807191848755e-03
5.786000000000000000e+03 6.174095916748046875e+01 2.919129753112792969e+01 -1.924588084220886230e-01 4.672466278076171875e+00 1.344002127647399902e+00 -9.723758101463317871e-01
5.787000000000000000e+03 4.324958419799804688e+01 3.134162902832031250e+01 -2.404159456491470337e-01 3.437449932098388672e+00 9.591102004051208496e-01 9.210862517356872559e-01
5.788000000000000000e+03 1.812753677368164062e+01 3.415776443481445312e+01 1.341892778873443604e-01 7.490282058715820312e-01 2.649652659893035889e-01 -1.571548134088516235e-01
5.789000000000000000e+03 2.169769668579101562e+01 3.578590774536132812e+01 8.522368967533111572e-03 1.336855649948120117e+00 4.036134183406829834e-01 -2.945129871368408203e-01
5.790000000000000000e+03 9.381778717041015625e+00 3.129719924926757812e+01 4.747428372502326965e-02 4.111225157976150513e-02 2.657596021890640259e-02 1.397538781166076660e-01
5.791000000000000000e+03 5.162513732910156250e+01 2.943729591369628906e+01 4.815112054347991943e-01 2.052704334259033203e+00 7.602646946907043457e-01 5.154426693916320801e-01
5.792000000000000000e+03 8.422027587890625000e+00 2.010552406311035156e+01 -8.458693325519561768e-02 2.732989937067031860e-02 -1.717711053788661957e-02 3.569034487009048462e-02
5.793000000000000000e+03 7.855544090270996094e+00 1.180140686035156250e+01 -2.799611305817961693e-03 -5.748068913817405701e-03 -2.564304042607545853e-03 -1.910505379782989621e-04
5.794000000000000000e+03 1.044489765167236328e+01 -9.064309120178222656e+00 4.224068820476531982e-01 7.427316308021545410e-01 3.495415449142456055e-01 -3.769980072975158691e-01
5.795000000000000000e+03 7.188391113281250000e+01 1.271426200866699219e+01 6.246542334556579590e-01 6.926683902740478516e+00 2.265401363372802734e+00 -4.149424433708190918e-01
5.796000000000000000e+03 6.071714019775390625e+01 -7.109835624694824219e+00 -2.140407711267471313e-01 1.557680130004882812e+00 4.030917882919311523e-01 2.700587809085845947e-01
5.797000000000000000e+03 8.429853439331054688e+00 -9.945276260375976562e+00 4.354140460491180420e-01 3.654964864253997803e-01 2.402731627225875854e-01 -4.871931672096252441e-01
5.798000000000000000e+03 1.065342521667480469e+01 -9.689719200134277344e+00 5.478525161743164062e-01 8.637294173240661621e-01 4.234745800495147705e-01 -3.226445913314819336e-01
5.799000000000000000e+03 7.208966827392578125e+01 -1.057160758972167969e+01 -1.204390406608581543e+00 9.298956871032714844e+00 2.428369760513305664e+00 1.815506257116794586e-02
5.800000000000000000e+03 8.912779808044433594e+00 -9.376676559448242188e+00 3.976884186267852783e-01 4.473685026168823242e-01 2.535170614719390869e-01 -4.971989691257476807e-01
5.801000000000000000e+03 6.711904144287109375e+01 -7.348693370819091797e+00 -1.070922970771789551e+00 5.297776699066162109e+00 1.268056154251098633e+00 -1.958120703697204590e+00
5.802000000000000000e+03 6.671477508544921875e+01 -6.708675384521484375e+00 -8.452097177505493164e-01 4.921696186065673828e+00 1.222945928573608398e+00 -1.801451921463012695e+00
5.803000000000000000e+03 9.347488403320312500e+00 1.121215629577636719e+01 -9.051725501194596291e-04 -5.266524385660886765e-03 -1.851509092375636101e-03 8.697155280970036983e-04
5.804000000000000000e+03 1.011497306823730469e+01 -9.804082870483398438e+00 5.406918525695800781e-01 7.485896944999694824e-01 3.867844641208648682e-01 -3.682660162448883057e-01
5.805000000000000000e+03 9.922954559326171875e+00 -9.168898582458496094e+00 4.097294509410858154e-01 6.394941806793212891e-01 3.147670924663543701e-01 -4.303689599037170410e-01
5.806000000000000000e+03 9.673388481140136719e+00 -1.762440681457519531e+01 7.841757535934448242e-01 1.306070327758789062e+00 6.270738244056701660e-01 5.013333559036254883e-01
5.807000000000000000e+03 7.176230621337890625e+01 1.072361946105957031e+01 5.675739049911499023e-01 6.978677272796630859e+00 2.263875484466552734e+00 -6.170347929000854492e-01
5.808000000000000000e+03 7.251569366455078125e+01 1.129973506927490234e+01 5.126414299011230469e-01 6.880180835723876953e+00 2.217846632003784180e+00 -5.536950826644897461e-01
5.809000000000000000e+03 7.212507629394531250e+01 -3.957738161087036133e+00 -6.663424372673034668e-01 7.497434616088867188e+00 2.049327611923217773e+00 -1.019509077072143555e+00
5.810000000000000000e+03 7.181784820556640625e+01 -6.252771854400634766e+00 -1.050384998321533203e+00 7.862781524658203125e+00 2.043719053268432617e+00 -9.142520427703857422e-01
5.811000000000000000e+03 9.138885498046875000e+00 -1.805359268188476562e+01 7.045506834983825684e-01 1.097461104393005371e+00 5.406035184860229492e-01 5.108426213264465332e-01
5.812000000000000000e+03 1.307599830627441406e+01 -8.146788597106933594e+00 3.236759603023529053e-01 1.110287547111511230e+00 4.301890730857849121e-01 -2.488489449024200439e-02
5.813000000000000000e+03 4.310530471801757812e+01 -1.139313983917236328e+01 -4.452246725559234619e-01 5.664810657501220703e+00 1.565875768661499023e+00 -5.222510695457458496e-01
5.814000000000000000e+03 7.184336853027343750e+01 7.623280525207519531e+00 3.927681744098663330e-01 6.985652446746826172e+00 2.213526248931884766e+00 -8.687503933906555176e-01
5.815000000000000000e+03 6.848477935791015625e+01 7.370670318603515625e+00 5.711259841918945312e-01 7.188183307647705078e+00 2.327792882919311523e+00 -7.070693969726562500e-01
5.816000000000000000e+03 1.171964073181152344e+01 -1.085917663574218750e+01 8.705604076385498047e-01 1.304278016090393066e+00 6.524515151977539062e-01 -7.656642794609069824e-02
5.817000000000000000e+03 9.264153480529785156e+00 -1.314582252502441406e+01 8.756407499313354492e-01 7.927786111831665039e-01 5.005258321762084961e-01 -8.819693326950073242e-02
5.818000000000000000e+03 1.251228713989257812e+01 -9.602336883544921875e+00 6.463007926940917969e-01 1.264815449714660645e+00 5.733348727226257324e-01 -5.180059745907783508e-02
5.819000000000000000e+03 7.187590789794921875e+01 1.705772972106933594e+01 5.985687971115112305e-01 6.851215362548828125e+00 2.234935283660888672e+00 8.906468003988265991e-02
5.820000000000000000e+03 6.976492309570312500e+01 2.237668418884277344e+01 9.989808499813079834e-02 7.015234947204589844e+00 2.134539842605590820e+00 4.054529666900634766e-01
5.821000000000000000e+03 7.123492431640625000e+01 2.458206176757812500e+01 -1.282843649387359619e-01 6.821630477905273438e+00 2.008003950119018555e+00 4.062804579734802246e-01
5.822000000000000000e+03 3.748438644409179688e+01 -6.990232944488525391e+00 -2.794056653976440430e+00 9.248607635498046875e+00 1.936365246772766113e+00 -1.303960919380187988e+00
5.823000000000000000e+03 3.675316238403320312e+01 -5.694337844848632812e+00 -2.488807678222656250e+00 9.372786521911621094e+00 2.065193653106689453e+00 -1.188251852989196777e+00
5.824000000000000000e+03 6.259379577636718750e+01 -7.333806514739990234e+00 -2.909535467624664307e-01 1.830696702003479004e+00 4.619229435920715332e-01 -4.579115808010101318e-01
5.825000000000000000e+03 6.161928176879882812e+01 -6.117924690246582031e+00 4.727053269743919373e-02 2.069713592529296875e+00 6.350952386856079102e-01 -2.934410981833934784e-02
5.826000000000000000e+03 4.460283279418945312e+01 -1.194818687438964844e+01 -7.190366089344024658e-02 4.704146862030029297e+00 1.389672994613647461e+00 1.376017779111862183e-01
5.827000000000000000e+03 6.907379913330078125e+01 -8.019540786743164062e+00 -1.484080672264099121e+00 7.072848320007324219e+00 1.676630258560180664e+00 -1.641346693038940430e+00
5.828000000000000000e+03 8.242212295532226562e+00 -1.734352111816406250e+01 6.868134737014770508e-01 7.360684275627136230e-01 4.268645644187927246e-01 4.077682197093963623e-01
5.829000000000000000e+03 7.971701622009277344e+00 1.109515666961669922e+01 -1.217914395965635777e-03 -5.197750404477119446e-03 -1.924699521623551846e-03 -2.499788533896207809e-04
5.830000000000000000e+03 8.090420722961425781e+00 1.286706256866455078e+01 -5.816820543259382248e-03 -5.669289734214544296e-03 -3.445833222940564156e-03 -3.182131040375679731e-04
5.831000000000000000e+03 7.026647949218750000e+01 1.053177833557128906e+01 6.909164786338806152e-01 7.189685344696044922e+00 2.364180564880371094e+00 -6.270877718925476074e-01
5.832000000000000000e+03 7.180998992919921875e+01 1.452807712554931641e+01 6.580468416213989258e-01 6.903095722198486328e+00 2.268342733383178711e+00 -2.049531340599060059e-01
5.833000000000000000e+03 6.928175354003906250e+01 1.400739765167236328e+01 9.389002323150634766e-01 7.416475772857666016e+00 2.506612777709960938e+00 -3.100059032440185547e-01
5.834000000000000000e+03 8.010936737060546875e+00 2.357239723205566406e+01 -8.188538998365402222e-02 2.830505184829235077e-02 -1.607410050928592682e-02 1.058228835463523865e-01
5.835000000000000000e+03 9.078918457031250000e+00 2.315518379211425781e+01 -1.077283173799514771e-01 4.978381469845771790e-02 -1.738335005939006805e-02 9.855791181325912476e-02
5.836000000000000000e+03 7.253394317626953125e+01 5.513510227203369141e+00 2.080069929361343384e-01 6.986057758331298828e+00 2.158219575881958008e+00 -9.818955063819885254e-01
5.837000000000000000e+03 7.105652618408203125e+01 1.134438037872314453e+01 6.621302962303161621e-01 7.081978797912597656e+00 2.323232650756835938e+00 -5.641049146652221680e-01
5.838000000000000000e+03 7.189318084716796875e+01 4.564436435699462891e+00 1.806764304637908936e-01 6.991462230682373047e+00 2.151641607284545898e+00 -1.027593255043029785e+00
5.839000000000000000e+03 6.819831848144531250e+01 -7.244875431060791016e+00 -1.221164226531982422e+00 6.248777866363525391e+00 1.508284091949462891e+00 -1.772842407226562500e+00
5.840000000000000000e+03 7.142681121826171875e+01 2.547555685043334961e+00 4.220937564969062805e-02 6.967289924621582031e+00 2.102849721908569336e+00 -1.094288110733032227e+00
5.841000000000000000e+03 7.148056030273437500e+01 4.139356136322021484e+00 1.642218828201293945e-01 6.969931125640869141e+00 2.140245914459228516e+00 -1.047703146934509277e+00
5.842000000000000000e+03 6.592279052734375000e+01 -3.020251750946044922e+00 -1.076079607009887695e-01 4.923086166381835938e+00 1.444643378257751465e+00 -1.001386404037475586e+00
5.843000000000000000e+03 7.170542144775390625e+01 -4.568909168243408203e+00 -7.744874954223632812e-01 7.487502098083496094e+00 2.013904333114624023e+00 -1.057379364967346191e+00
5.844000000000000000e+03 6.761568450927734375e+01 4.572006702423095703e+00 3.686471283435821533e-01 6.830762386322021484e+00 2.159822940826416016e+00 -7.126799821853637695e-01
5.845000000000000000e+03 6.682198333740234375e+01 1.924515128135681152e+00 1.849740296602249146e-01 6.238902568817138672e+00 1.927163004875183105e+00 -6.996507644653320312e-01
5.846000000000000000e+03 7.115524291992187500e+01 -6.561991214752197266e+00 -1.145873308181762695e+00 7.749924659729003906e+00 1.981215357780456543e+00 -1.044934272766113281e+00
5.847000000000000000e+03 7.185267639160156250e+01 -5.587885856628417969e+00 -9.326853156089782715e-01 7.723052501678466797e+00 2.037110328674316406e+00 -9.709863662719726562e-01
5.848000000000000000e+03 8.706973075866699219e+00 -1.776595115661621094e+01 7.057704329490661621e-01 9.197200536727905273e-01 4.876471459865570068e-01 4.695726633071899414e-01
5.849000000000000000e+03 7.098874664306640625e+01 1.928699302673339844e+01 5.039752125740051270e-01 6.944038391113281250e+00 2.234404087066650391e+00 3.156701326370239258e-01
5.850000000000000000e+03 7.080892181396484375e+01 1.814879226684570312e+01 6.500309705734252930e-01 6.993247985839843750e+00 2.292983531951904297e+00 1.913478672504425049e-01
5.851000000000000000e+03 9.918975830078125000e+00 -1.185704803466796875e+01 8.330280780792236328e-01 8.970709443092346191e-01 5.190297365188598633e-01 -1.977176964282989502e-01
5.852000000000000000e+03 8.568043708801269531e+00 2.569251823425292969e+01 -5.984659492969512939e-02 3.047802112996578217e-02 -8.810572326183319092e-03 1.433256417512893677e-01
5.853000000000000000e+03 9.967767715454101562e+00 2.652689743041992188e+01 -5.261210724711418152e-02 6.029860675334930420e-02 2.305949805304408073e-03 1.570781469345092773e-01
5.854000000000000000e+03 9.094099998474121094e+00 -1.057319164276123047e+01 5.746956467628479004e-01 5.615317821502685547e-01 3.408682346343994141e-01 -3.977206945419311523e-01
5.855000000000000000e+03 7.076334381103515625e+01 -9.674786567687988281e+00 -1.645271539688110352e+00 8.793585777282714844e+00 2.144494295120239258e+00 -7.667941451072692871e-01
5.856000000000000000e+03 4.221007156372070312e+01 -1.181515121459960938e+01 -4.080914258956909180e-01 6.449700355529785156e+00 1.812482595443725586e+00 -6.961779594421386719e-01
5.857000000000000000e+03 4.290440750122070312e+01 -1.203942871093750000e+01 -2.682028710842132568e-01 6.004255294799804688e+00 1.720815658569335938e+00 -5.127571225166320801e-01
5.858000000000000000e+03 7.020848846435546875e+01 1.756650924682617188e+01 7.586429715156555176e-01 7.098418235778808594e+00 2.357118368148803711e+00 1.068113818764686584e-01
5.859000000000000000e+03 3.699243164062500000e+01 -6.960175991058349609e+00 -2.859001398086547852e+00 9.237931251525878906e+00 1.913679003715515137e+00 -1.227765321731567383e+00
5.860000000000000000e+03 7.152989959716796875e+01 -8.900821685791015625e+00 -1.424747824668884277e+00 8.645940780639648438e+00 2.166357994079589844e+00 -5.836791992187500000e-01
5.861000000000000000e+03 9.752305030822753906e+00 2.536760711669921875e+01 -8.240265399217605591e-02 5.862047895789146423e-02 -7.134651765227317810e-03 1.443758159875869751e-01
5.862000000000000000e+03 8.548750877380371094e+00 2.219565200805664062e+01 -9.969116002321243286e-02 3.930559381842613220e-02 -1.811566948890686035e-02 7.713077962398529053e-02
5.863000000000000000e+03 8.473716735839843750e+00 -2.553978919982910156e+01 -1.801751554012298584e-01 9.151658415794372559e-01 2.204971909523010254e-01 6.539630293846130371e-01
5.864000000000000000e+03 4.330227279663085938e+01 -1.075316143035888672e+01 -6.075010299682617188e-01 5.292854785919189453e+00 1.405606150627136230e+00 -5.618418455123901367e-01
5.865000000000000000e+03 4.162329864501953125e+01 -1.021241188049316406e+01 -1.111943125724792480e+00 6.608533859252929688e+00 1.648977279663085938e+00 -1.045563340187072754e+00
5.866000000000000000e+03 4.150672912597656250e+01 -1.100193309783935547e+01 -8.151834011077880859e-01 6.817676544189453125e+00 1.800747990608215332e+00 -9.131128191947937012e-01
5.867000000000000000e+03 6.868855285644531250e+01 2.442273902893066406e+01 -2.576162815093994141e-01 6.942585945129394531e+00 2.005490779876708984e+00 2.351771146059036255e-01
5.868000000000000000e+03 7.242350006103515625e+01 -2.106257230043411255e-01 -2.070150673389434814e-01 7.191433906555175781e+00 2.095325708389282227e+00 -1.091565012931823730e+00
5.869000000000000000e+03 7.122734832763671875e+01 -1.931570768356323242e+00 -4.003311991691589355e-01 7.058387756347656250e+00 1.997416973114013672e+00 -1.154431581497192383e+00
5.870000000000000000e+03 7.076039123535156250e+01 5.251145362854003906e-01 -1.216160133481025696e-01 6.866725444793701172e+00 2.023532867431640625e+00 -1.141742110252380371e+00
5.871000000000000000e+03 7.219321441650390625e+01 8.436187744140625000e+00 4.150818288326263428e-01 6.960969924926757812e+00 2.212815523147583008e+00 -8.103884458541870117e-01
5.872000000000000000e+03 7.238388824462890625e+01 -8.187369346618652344e+00 -1.219956040382385254e+00 8.538621902465820312e+00 2.195599794387817383e+00 -4.654042422771453857e-01
5.873000000000000000e+03 3.853593063354492188e+01 2.219717216491699219e+01 -2.299554944038391113e-01 5.546782970428466797e+00 1.595048189163208008e+00 9.302291870117187500e-01
5.874000000000000000e+03 6.437187194824218750e+01 -7.099375247955322266e+00 -3.897452056407928467e-01 2.780177593231201172e+00 7.171297073364257812e-01 -1.291222214698791504e+00
5.875000000000000000e+03 6.412917327880859375e+01 -2.341905832290649414e+00 2.062725424766540527e-01 4.332255363464355469e+00 1.361558318138122559e+00 -4.616689980030059814e-01
5.876000000000000000e+03 9.485491752624511719e+00 2.090036010742187500e+01 -1.156027466058731079e-01 4.576214775443077087e-02 -2.095217816531658173e-02 4.317292571067810059e-02
5.877000000000000000e+03 9.316453933715820312e+00 1.193254375457763672e+01 -2.645073924213647842e-03 -5.984109826385974884e-03 -2.588754985481500626e-03 4.788505902979522943e-04
5.878000000000000000e+03 7.153982543945312500e+01 1.552332019805908203e+01 6.918307542800903320e-01 6.926057815551757812e+00 2.285366535186767578e+00 -9.649242460727691650e-02
5.879000000000000000e+03 9.109389305114746094e+00 -2.162791442871093750e+01 2.613470852375030518e-01 1.147312760353088379e+00 4.225979447364807129e-01 7.104722261428833008e-01
5.880000000000000000e+03 6.886575317382812500e+01 8.591176033020019531e+00 6.464334726333618164e-01 7.289327621459960938e+00 2.380728244781494141e+00 -6.789467930793762207e-01
5.881000000000000000e+03 6.922700500488281250e+01 8.084649085998535156e+00 5.870017409324645996e-01 7.197497367858886719e+00 2.335349798202514648e+00 -7.428180575370788574e-01
5.882000000000000000e+03 6.155275726318359375e+01 -4.872228622436523438e+00 2.846561968326568604e-01 2.473383665084838867e+00 8.274119496345520020e-01 6.403814256191253662e-02
5.883000000000000000e+03 6.140872192382812500e+01 -6.717445850372314453e+00 -1.139640212059020996e-01 1.786281228065490723e+00 5.016951560974121094e-01 2.408729493618011475e-02
5.884000000000000000e+03 7.005164337158203125e+01 1.074360847473144531e+00 -5.399842932820320129e-02 6.735056400299072266e+00 2.004317283630371094e+00 -1.112164616584777832e+00
5.885000000000000000e+03 6.602895355224609375e+01 -3.791772723197937012e-01 8.493971079587936401e-02 5.534558296203613281e+00 1.685849428176879883e+00 -7.069846391677856445e-01
5.886000000000000000e+03 7.060671997070312500e+01 1.264568901062011719e+01 7.781235575675964355e-01 7.149345874786376953e+00 2.378240823745727539e+00 -4.444680213928222656e-01
5.887000000000000000e+03 6.820641326904296875e+01 6.943604469299316406e+00 5.501692295074462891e-01 7.180097579956054688e+00 2.319080114364624023e+00 -6.903413534164428711e-01
5.888000000000000000e+03 6.786664581298828125e+01 5.176112174987792969e+00 4.045146405696868896e-01 6.924454212188720703e+00 2.198690652847290039e+00 -7.289353609085083008e-01
5.889000000000000000e+03 4.407324600219726562e+01 -1.101368331909179688e+01 -3.899012804031372070e-01 4.748765468597412109e+00 1.307659268379211426e+00 -2.293307334184646606e-01
5.890000000000000000e+03 8.664982795715332031e+00 9.751105308532714844e+00 1.181438201456330717e-04 -4.387825727462768555e-03 -1.280904514715075493e-03 6.916692364029586315e-04
5.891000000000000000e+03 8.182003021240234375e+00 -2.631300163269042969e+01 -2.108999490737915039e-01 8.439161181449890137e-01 1.899048537015914917e-01 6.274397969245910645e-01
5.892000000000000000e+03 4.084939193725585938e+01 -9.987406730651855469e+00 -1.340123534202575684e+00 7.219989299774169922e+00 1.763959765434265137e+00 -1.141595005989074707e+00
5.893000000000000000e+03 7.085171508789062500e+01 1.320697402954101562e+01 7.516021728515625000e-01 7.093679904937744141e+00 2.353584527969360352e+00 -3.725436627864837646e-01
5.894000000000000000e+03 6.936165618896484375e+01 1.339717578887939453e+01 8.919778466224670410e-01 7.408977031707763672e+00 2.490286588668823242e+00 -3.648525476455688477e-01
5.895000000000000000e+03 3.958756637573242188e+01 2.264705657958984375e+01 -2.671489715576171875e-01 5.163088798522949219e+00 1.468781948089599609e+00 1.163130640983581543e+00
5.896000000000000000e+03 7.133287048339843750e+01 1.383330154418945312e+01 7.073042392730712891e-01 7.001223564147949219e+00 2.312558412551879883e+00 -3.046867549419403076e-01
5.897000000000000000e+03 6.338558197021484375e+01 -2.042472362518310547e+00 3.193958699703216553e-01 4.108577251434326172e+00 1.328391909599304199e+00 -1.789568364620208740e-01
5.898000000000000000e+03 6.531446838378906250e+01 -1.413173079490661621e+00 1.001769825816154480e-01 5.031033039093017578e+00 1.539363026618957520e+00 -6.427010893821716309e-01
5.899000000000000000e+03 6.678553009033203125e+01 3.580829143524169922e+00 3.156797289848327637e-01 6.570564746856689453e+00 2.065873384475708008e+00 -5.971034169197082520e-01
5.900000000000000000e+03 3.700257492065429688e+01 -4.611703872680664062e+00 -1.912101030349731445e+00 9.670464515686035156e+00 2.327508926391601562e+00 -1.167920589447021484e+00
5.901000000000000000e+03 1.047887134552001953e+01 2.579598045349121094e+01 -7.939880341291427612e-02 7.014321535825729370e-02 -2.776676556095480919e-03 1.507690846920013428e-01
5.902000000000000000e+03 4.021826171875000000e+01 -9.842058181762695312e+00 -1.545907616615295410e+00 7.698782920837402344e+00 1.845862627029418945e+00 -1.186008810997009277e+00
5.903000000000000000e+03 7.054555511474609375e+01 1.535296058654785156e+01 8.168855905532836914e-01 7.111724376678466797e+00 2.378582954406738281e+00 -1.377585232257843018e-01
5.904000000000000000e+03 7.607931137084960938e+00 1.410801219940185547e+01 -1.166199892759323120e-02 -5.214167758822441101e-03 -5.062850192189216614e-03 5.231805262155830860e-04
5.905000000000000000e+03 3.774621200561523438e+01 2.146284866333007812e+01 -1.443906575441360474e-01 5.912690639495849609e+00 1.730489969253540039e+00 7.449102997779846191e-01
5.906000000000000000e+03 4.092018127441406250e+01 -1.250339221954345703e+01 -1.926818341016769409e-01 7.336501121520996094e+00 2.143145799636840820e+00 -8.900007009506225586e-01
5.907000000000000000e+03 6.954136657714843750e+01 2.179789924621582031e+01 1.900690197944641113e-01 7.078256130218505859e+00 2.180497646331787109e+00 4.056746959686279297e-01
5.908000000000000000e+03 7.142623901367187500e+01 6.781329631805419922e+00 3.473007977008819580e-01 7.001193046569824219e+00 2.204548120498657227e+00 -9.224740862846374512e-01
5.909000000000000000e+03 7.908538341522216797e+00 9.338257789611816406e+00 4.391879774630069733e-04 -4.042654298245906830e-03 -1.081039896234869957e-03 3.140704211546108127e-05
5.910000000000000000e+03 9.253072738647460938e+00 -2.786393737792968750e+01 -3.407858014106750488e-01 9.619373083114624023e-01 1.863454431295394897e-01 5.030052065849304199e-01
5.911000000000000000e+03 1.127524185180664062e+01 -1.173421764373779297e+01 9.677267670631408691e-01 1.302373766899108887e+00 6.810301542282104492e-01 -4.825732111930847168e-02
5.912000000000000000e+03 1.199739646911621094e+01 -9.931303024291992188e+00 6.844162344932556152e-01 1.217535614967346191e+00 5.705855488777160645e-01 -1.184182018041610718e-01
5.913000000000000000e+03 1.022220039367675781e+01 2.762335777282714844e+01 -2.031029388308525085e-02 6.433878093957901001e-02 1.320854574441909790e-02 1.586249023675918579e-01
5.914000000000000000e+03 6.683403778076171875e+01 2.703640937805175781e+00 2.433093786239624023e-01 6.383528232574462891e+00 1.988051295280456543e+00 -6.523948907852172852e-01
5.915000000000000000e+03 7.056012725830078125e+01 2.760160827636718750e+01 -2.983447909355163574e-01 6.656809329986572266e+00 1.907539367675781250e+00 2.216480970382690430e-01
5.916000000000000000e+03 8.808412551879882812e+00 2.872623062133789062e+01 -6.676338962279260159e-04 2.236098796129226685e-02 6.508006248623132706e-03 1.552021652460098267e-01
5.917000000000000000e+03 6.362598037719726562e+01 -3.159986495971679688e+00 2.167538255453109741e-01 3.835731744766235352e+00 1.215745687484741211e+00 -4.253812134265899658e-01
5.918000000000000000e+03 6.775593566894531250e+01 2.277780914306640625e+01 -2.826417237520217896e-02 7.203978061676025391e+00 2.152714252471923828e+00 2.415824383497238159e-01
5.919000000000000000e+03 6.916298675537109375e+01 2.220812797546386719e+01 1.131171882152557373e-01 7.078351497650146484e+00 2.157440662384033203e+00 3.744386136531829834e-01
5.920000000000000000e+03 7.033681488037109375e+01 2.209704208374023438e+01 1.251557767391204834e-01 6.959603786468505859e+00 2.125427722930908203e+00 4.313260614871978760e-01
5.921000000000000000e+03 4.153188705444335938e+01 -1.236062526702880859e+01 -2.407554835081100464e-01 7.022523880004882812e+00 2.034530401229858398e+00 -7.982109785079956055e-01
5.922000000000000000e+03 4.207655334472656250e+01 -1.241263389587402344e+01 -2.044251859188079834e-01 6.662846565246582031e+00 1.937526464462280273e+00 -6.744617819786071777e-01
5.923000000000000000e+03 6.316032791137695312e+01 -3.946024179458618164e+00 2.275539040565490723e-01 3.389219284057617188e+00 1.085031986236572266e+00 -3.820863068103790283e-01
5.924000000000000000e+03 6.953992462158203125e+01 2.023191833496093750e+01 4.887700080871582031e-01 7.132738113403320312e+00 2.286452531814575195e+00 3.423789441585540771e-01
5.925000000000000000e+03 6.273227310180664062e+01 -4.737281322479248047e+00 1.865055412054061890e-01 2.902464389801025391e+00 9.266909360885620117e-01 -3.295058012008666992e-01
5.926000000000000000e+03 6.244321060180664062e+01 -5.555960178375244141e+00 1.175777241587638855e-01 2.499150276184082031e+00 7.850183844566345215e-01 -2.994231283664703369e-01
5.927000000000000000e+03 8.151799201965332031e+00 2.070534896850585938e+01 -8.639461547136306763e-02 2.721253968775272369e-02 -1.775462180376052856e-02 4.916977137327194214e-02
5.928000000000000000e+03 7.105858612060546875e+01 8.089386940002441406e+00 4.769005477428436279e-01 7.039128303527832031e+00 2.254808664321899414e+00 -8.293101787567138672e-01
5.929000000000000000e+03 7.014554595947265625e+01 6.547554016113281250e+00 4.110291898250579834e-01 7.035210132598876953e+00 2.233871698379516602e+00 -8.916572928428649902e-01
5.930000000000000000e+03 7.218740844726562500e+01 -6.913078308105468750e+00 -1.110502243041992188e+00 8.130160331726074219e+00 2.105897426605224609e+00 -7.389501929283142090e-01
5.931000000000000000e+03 1.021957778930664062e+01 -2.494219398498535156e+01 -2.070955038070678711e-01 1.297630429267883301e+00 3.271604776382446289e-01 6.044171452522277832e-01
5.932000000000000000e+03 7.161729431152343750e+01 1.342184394598007202e-01 -1.748849302530288696e-01 7.039278507232666016e+00 2.059318065643310547e+00 -1.129822492599487305e+00
5.933000000000000000e+03 6.826781463623046875e+01 4.221642494201660156e+00 3.014520108699798584e-01 6.796691894531250000e+00 2.129443168640136719e+00 -8.300336599349975586e-01
5.934000000000000000e+03 6.729789733886718750e+01 3.135997056961059570e+00 2.495445162057876587e-01 6.528366565704345703e+00 2.033373355865478516e+00 -7.203083038330078125e-01
5.935000000000000000e+03 7.214054107666015625e+01 -1.055379629135131836e+00 -2.944638133049011230e-01 7.191477775573730469e+00 2.069104194641113281e+00 -1.101802468299865723e+00
5.936000000000000000e+03 7.184906768798828125e+01 -5.022284388542175293e-01 -2.399024069309234619e-01 7.100568294525146484e+00 2.058199644088745117e+00 -1.124294996261596680e+00
5.937000000000000000e+03 9.270931243896484375e+00 -1.250518321990966797e+01 8.264607787132263184e-01 7.520974278450012207e-01 4.735674560070037842e-01 -1.745407730340957642e-01
5.938000000000000000e+03 6.793786621093750000e+01 2.791988182067871094e+01 -4.339947700500488281e-01 6.483503818511962891e+00 1.814852714538574219e+00 -7.345060259103775024e-02
5.939000000000000000e+03 1.001988601684570312e+01 -2.600963020324707031e+01 -2.888142764568328857e-01 1.185938477516174316e+00 2.691372632980346680e-01 5.642304420471191406e-01
5.940000000000000000e+03 6.699913787841796875e+01 3.014259338378906250e+01 -3.951351344585418701e-01 6.079413414001464844e+00 1.705283522605895996e+00 -2.726446688175201416e-01
5.941000000000000000e+03 6.200072860717773438e+01 3.131276321411132812e+01 -7.418656349182128906e-02 4.621211528778076172e+00 1.364107489585876465e+00 -7.561327815055847168e-01
5.942000000000000000e+03 6.968224334716796875e+01 1.693660736083984375e+01 8.591133952140808105e-01 7.232407569885253906e+00 2.427456378936767578e+00 1.028211601078510284e-02
5.943000000000000000e+03 3.877753829956054688e+01 2.505680084228515625e+01 -4.795796275138854980e-01 4.918338298797607422e+00 1.331627726554870605e+00 9.556434750556945801e-01
5.944000000000000000e+03 9.621072769165039062e+00 2.915972518920898438e+01 1.147009618580341339e-02 4.501613974571228027e-02 1.694587059319019318e-02 1.545017510652542114e-01
5.945000000000000000e+03 4.302034759521484375e+01 2.744354820251464844e+01 -2.823022305965423584e-01 3.634571075439453125e+00 1.005680680274963379e+00 1.287010431289672852e+00
5.946000000000000000e+03 6.956605529785156250e+01 1.817675209045410156e+01 7.848227024078369141e-01 7.202610492706298828e+00 2.396229982376098633e+00 1.558339744806289673e-01
5.947000000000000000e+03 1.402455997467041016e+01 3.318445587158203125e+01 1.293411850929260254e-01 3.206826448440551758e-01 1.350071579217910767e-01 3.626189008355140686e-02
5.948000000000000000e+03 6.791673278808593750e+01 2.426411247253417969e+01 -2.865481376647949219e-01 7.007790088653564453e+00 2.016372680664062500e+00 1.610980927944183350e-01
5.949000000000000000e+03 4.000341415405273438e+01 2.554058647155761719e+01 -4.504401683807373047e-01 4.546093463897705078e+00 1.228695988655090332e+00 1.133739948272705078e+00
5.950000000000000000e+03 4.909148025512695312e+01 3.447808074951171875e+01 3.350656926631927490e-01 2.792296171188354492e+00 9.382085204124450684e-01 5.142190456390380859e-01
5.951000000000000000e+03 3.661617279052734375e+01 2.469779586791992188e+01 -5.011350512504577637e-01 5.297487735748291016e+00 1.438905835151672363e+00 4.791656434535980225e-01
5.952000000000000000e+03 9.650240898132324219e+00 -2.698989295959472656e+01 -3.328318297863006592e-01 1.059304952621459961e+00 2.179419249296188354e-01 5.293157696723937988e-01
5.953000000000000000e+03 3.697322082519531250e+01 2.771153259277343750e+01 -6.634653210639953613e-01 4.631575107574462891e+00 1.190432906150817871e+00 4.956680536270141602e-01
5.954000000000000000e+03 3.715167617797851562e+01 2.560470390319824219e+01 -5.777828097343444824e-01 5.014946460723876953e+00 1.331149101257324219e+00 5.899295210838317871e-01
5.955000000000000000e+03 3.810844421386718750e+01 2.642343711853027344e+01 -5.887496471405029297e-01 4.752455234527587891e+00 1.249111652374267578e+00 7.408117055892944336e-01
5.956000000000000000e+03 6.516893005371093750e+01 2.862506675720214844e+01 -4.818406105041503906e-01 5.952287673950195312e+00 1.641134142875671387e+00 -5.144162178039550781e-01
5.957000000000000000e+03 6.661832427978515625e+01 2.836093711853027344e+01 -4.876287579536437988e-01 6.276549339294433594e+00 1.736676216125488281e+00 -2.841254770755767822e-01
5.958000000000000000e+03 5.403959274291992188e+01 3.084688758850097656e+01 5.754664540290832520e-01 2.382164955139160156e+00 8.872894048690795898e-01 3.743419051170349121e-02
5.959000000000000000e+03 5.208142852783203125e+01 3.118099021911621094e+01 5.331183671951293945e-01 2.357732534408569336e+00 8.672552704811096191e-01 3.482241034507751465e-01
5.960000000000000000e+03 1.199295425415039062e+01 2.773105430603027344e+01 -1.471184752881526947e-02 1.120300367474555969e-01 2.919545769691467285e-02 1.516448110342025757e-01
5.961000000000000000e+03 1.175090312957763672e+01 3.017531967163085938e+01 5.109946429729461670e-02 1.276702284812927246e-01 5.363090708851814270e-02 1.352895349264144897e-01
5.962000000000000000e+03 3.950118255615234375e+01 3.047685050964355469e+01 -5.348383188247680664e-01 4.018743038177490234e+00 1.045171380043029785e+00 7.530255913734436035e-01
5.963000000000000000e+03 4.544894027709960938e+01 3.096693992614746094e+01 -1.117515098303556442e-02 3.043677091598510742e+00 9.097505807876586914e-01 9.977403879165649414e-01
5.964000000000000000e+03 2.735671615600585938e+01 3.799062347412109375e+01 -3.172318041324615479e-01 2.382478952407836914e+00 6.195741891860961914e-01 -2.404799014329910278e-01
5.965000000000000000e+03 5.698427581787109375e+01 3.231887435913085938e+01 4.505307376384735107e-01 3.102313041687011719e+00 1.065853118896484375e+00 -4.196353256702423096e-01
5.966000000000000000e+03 3.009446907043457031e+01 3.419394302368164062e+01 -4.649910330772399902e-01 2.962446451187133789e+00 7.492365837097167969e-01 -3.344886600971221924e-01
5.967000000000000000e+03 1.034444236755371094e+01 3.233133316040039062e+01 7.632094621658325195e-02 8.488099277019500732e-02 4.836058244109153748e-02 1.196495741605758667e-01
5.968000000000000000e+03 9.168753623962402344e+00 2.988322830200195312e+01 2.285880595445632935e-02 3.058274462819099426e-02 1.603246480226516724e-02 1.503861695528030396e-01
5.969000000000000000e+03 4.115720748901367188e+01 2.946489143371582031e+01 -4.329511523246765137e-01 3.907775878906250000e+00 1.042447447776794434e+00 9.816533923149108887e-01
5.970000000000000000e+03 6.540255737304687500e+01 3.047288894653320312e+01 -3.527323305606842041e-01 5.740201473236083984e+00 1.616240739822387695e+00 -4.302832782268524170e-01
5.971000000000000000e+03 6.967900085449218750e+01 3.715686321258544922e+00 1.952842026948928833e-01 6.843693733215332031e+00 2.111693382263183594e+00 -9.999095201492309570e-01
5.972000000000000000e+03 7.141288757324218750e+01 5.100186347961425781e+00 2.337580621242523193e-01 6.977607727050781250e+00 2.163409709930419922e+00 -1.007540464401245117e+00
5.973000000000000000e+03 7.089669799804687500e+01 -5.840543746948242188e+00 -1.025755167007446289e+00 7.442444324493408203e+00 1.925006747245788574e+00 -1.167023897171020508e+00
5.974000000000000000e+03 7.117070007324218750e+01 1.200609588623046875e+01 6.756069660186767578e-01 7.042319774627685547e+00 2.315377950668334961e+00 -5.042949914932250977e-01
5.975000000000000000e+03 1.117591094970703125e+01 -9.540137290954589844e+00 5.510309934616088867e-01 9.695588350296020508e-01 4.561769366264343262e-01 -2.623877823352813721e-01
5.976000000000000000e+03 3.648598480224609375e+01 -7.100021362304687500e+00 -2.891564607620239258e+00 9.087431907653808594e+00 1.858760237693786621e+00 -1.159462094306945801e+00
5.977000000000000000e+03 3.670161056518554688e+01 -7.684375762939453125e+00 -2.857831239700317383e+00 9.103775978088378906e+00 1.873783349990844727e+00 -1.158845424652099609e+00
5.978000000000000000e+03 7.058685302734375000e+01 1.991208267211914062e+01 4.408880770206451416e-01 6.968856334686279297e+00 2.222923278808593750e+00 3.505800664424896240e-01
5.979000000000000000e+03 7.026828002929687500e+01 2.053117752075195312e+01 3.927170038223266602e-01 7.020620346069335938e+00 2.224001169204711914e+00 3.871396481990814209e-01
5.980000000000000000e+03 7.026158142089843750e+01 1.877037429809570312e+01 6.419290304183959961e-01 7.052805900573730469e+00 2.308420419692993164e+00 2.473923116922378540e-01
5.981000000000000000e+03 9.823247909545898438e+00 -1.118844509124755859e+01 7.281010150909423828e-01 8.053197860717773438e-01 4.600262343883514404e-01 -2.803691327571868896e-01
5.982000000000000000e+03 9.004889488220214844e+00 -9.951421737670898438e+00 4.812599420547485352e-01 5.016593933105468750e-01 2.948758006095886230e-01 -4.500803947448730469e-01
5.983000000000000000e+03 8.519653320312500000e+00 -1.120726776123046875e+01 5.966337323188781738e-01 4.505881965160369873e-01 3.141665756702423096e-01 -3.734973669052124023e-01
5.984000000000000000e+03 1.100940608978271484e+01 2.774206542968750000e+01 -1.783221960067749023e-02 8.446455001831054688e-02 1.998969912528991699e-02 1.571785956621170044e-01
5.985000000000000000e+03 6.954010009765625000e+01 2.381236314773559570e+00 8.429172635078430176e-02 6.738653182983398438e+00 2.046883583068847656e+00 -1.040559053421020508e+00
5.986000000000000000e+03 6.725019073486328125e+01 4.041725635528564453e+00 3.294953703880310059e-01 6.707760810852050781e+00 2.111176967620849609e+00 -6.658962965011596680e-01
5.987000000000000000e+03 7.081145477294921875e+01 -8.809198379516601562e+00 -1.548378705978393555e+00 8.361671447753906250e+00 2.043987751007080078e+00 -9.266366362571716309e-01
5.988000000000000000e+03 8.566841125488281250e+00 -1.245429611206054688e+01 7.322758436203002930e-01 5.347806811332702637e-01 3.801169693470001221e-01 -2.201253175735473633e-01
5.989000000000000000e+03 6.805767822265625000e+01 5.817357540130615234e+00 4.559893310070037842e-01 7.027472496032714844e+00 2.245038509368896484e+00 -7.318047881126403809e-01
5.990000000000000000e+03 8.471860885620117188e+00 -1.057287883758544922e+01 5.239644646644592285e-01 4.104126393795013428e-01 2.803131341934204102e-01 -4.327319562435150146e-01
5.991000000000000000e+03 9.174083709716796875e+00 -1.121284866333007812e+01 6.665109395980834961e-01 6.335552334785461426e-01 3.900198638439178467e-01 -3.291884660720825195e-01
5.992000000000000000e+03 7.081702423095703125e+01 1.701543617248535156e+01 7.226024270057678223e-01 7.021937370300292969e+00 2.323361873626708984e+00 5.989610776305198669e-02
5.993000000000000000e+03 6.867663574218750000e+01 -7.648243427276611328e+00 -1.408829808235168457e+00 6.700942993164062500e+00 1.587633848190307617e+00 -1.765914559364318848e+00
5.994000000000000000e+03 7.112505340576171875e+01 1.007073211669921875e+01 5.915848016738891602e-01 7.063929557800292969e+00 2.296654462814331055e+00 -6.783583164215087891e-01
5.995000000000000000e+03 7.178102111816406250e+01 1.015072536468505859e+01 5.364289283752441406e-01 6.979116439819335938e+00 2.254663467407226562e+00 -6.669626832008361816e-01
5.996000000000000000e+03 6.985560607910156250e+01 1.155601692199707031e+01 7.838494777679443359e-01 7.292078971862792969e+00 2.422778606414794922e+00 -5.368928909301757812e-01
5.997000000000000000e+03 7.860381603240966797e+00 -1.351467227935791016e+01 6.865321993827819824e-01 3.831556737422943115e-01 3.209063708782196045e-01 -1.312566548585891724e-01
5.998000000000000000e+03 6.797679901123046875e+01 -4.456366539001464844e+00 -6.045862436294555664e-01 5.886075973510742188e+00 1.584447026252746582e+00 -1.451372861862182617e+00
5.999000000000000000e+03 6.773848724365234375e+01 -6.776840686798095703e+00 -1.070403814315795898e+00 5.848227500915527344e+00 1.433346986770629883e+00 -1.793107271194458008e+00
6.000000000000000000e+03 7.119360351562500000e+01 3.567743778228759766e+00 1.299960613250732422e-01 6.949098110198974609e+00 2.123728275299072266e+00 -1.063566803932189941e+00
6.001000000000000000e+03 7.061985015869140625e+01 -3.500904560089111328e+00 -6.307952404022216797e-01 6.990404605865478516e+00 1.907882690429687500e+00 -1.223658084869384766e+00
6.002000000000000000e+03 7.113648986816406250e+01 -4.110107421875000000e+00 -7.199021577835083008e-01 7.234300613403320312e+00 1.954319596290588379e+00 -1.156820297241210938e+00
6.003000000000000000e+03 7.084585571289062500e+01 3.001175403594970703e+00 9.830288589000701904e-02 6.908031940460205078e+00 2.101900577545166016e+00 -1.075472593307495117e+00
6.004000000000000000e+03 6.924130249023437500e+01 -7.148472309112548828e+00 -1.312319517135620117e+00 6.957021713256835938e+00 1.693410754203796387e+00 -1.556528329849243164e+00
6.005000000000000000e+03 7.131826782226562500e+01 -5.257632255554199219e+00 -9.127659201622009277e-01 7.504772186279296875e+00 1.977601885795593262e+00 -1.088142871856689453e+00
6.006000000000000000e+03 7.026985931396484375e+01 8.531902313232421875e+00 5.608149170875549316e-01 7.123534679412841797e+00 2.305304765701293945e+00 -7.764862775802612305e-01
6.007000000000000000e+03 7.143715667724609375e+01 8.869990348815917969e+00 4.986045360565185547e-01 7.019361495971679688e+00 2.255389690399169922e+00 -7.796119451522827148e-01
6.008000000000000000e+03 6.961013031005859375e+01 2.507760238647460938e+01 -2.482901662588119507e-01 6.855994224548339844e+00 1.982311248779296875e+00 2.834749817848205566e-01
6.009000000000000000e+03 6.947641754150390625e+01 2.422652816772460938e+01 -1.689326912164688110e-01 6.922342777252197266e+00 2.026022911071777344e+00 3.347943127155303955e-01
6.010000000000000000e+03 7.126729583740234375e+01 -8.945339322090148926e-01 -2.792486250400543213e-01 6.997768878936767578e+00 2.015556097030639648e+00 -1.153735637664794922e+00
6.011000000000000000e+03 7.021644592285156250e+01 -2.808394670486450195e+00 -5.023736953735351562e-01 6.789106845855712891e+00 1.886019945144653320e+00 -1.242962956428527832e+00
6.012000000000000000e+03 8.614949226379394531e+00 1.257978057861328125e+01 -4.820655100047588348e-03 -6.383548490703105927e-03 -3.361260984092950821e-03 -2.592642849776893854e-04
6.013000000000000000e+03 7.020030975341796875e+01 -4.793506860733032227e-01 -2.160583436489105225e-01 6.742405414581298828e+00 1.957904100418090820e+00 -1.167645335197448730e+00
6.014000000000000000e+03 7.121351623535156250e+01 1.488947629928588867e+00 -4.597591981291770935e-02 6.935122966766357422e+00 2.066744089126586914e+00 -1.123319983482360840e+00
6.015000000000000000e+03 1.066824150085449219e+01 2.700490379333496094e+01 -3.918877989053726196e-02 7.629960775375366211e-02 1.113324891775846481e-02 1.594759523868560791e-01
6.016000000000000000e+03 6.568597412109375000e+01 -6.393907546997070312e+00 -5.455687642097473145e-01 4.098067760467529297e+00 1.065749645233154297e+00 -1.584215402603149414e+00
6.017000000000000000e+03 6.479010009765625000e+01 -2.822652101516723633e+00 7.263457030057907104e-02 4.475462436676025391e+00 1.364428997039794922e+00 -6.996400356292724609e-01
6.018000000000000000e+03 6.362753295898437500e+01 -6.970011234283447266e+00 -2.824293673038482666e-01 2.434231042861938477e+00 6.455405354499816895e-01 -9.551163911819458008e-01
6.019000000000000000e+03 6.502729034423828125e+01 -6.804187297821044922e+00 -4.707031846046447754e-01 3.476287603378295898e+00 9.016753435134887695e-01 -1.515606522560119629e+00
6.020000000000000000e+03 4.116178131103515625e+01 -1.320945549011230469e+01 1.201267316937446594e-01 7.332821846008300781e+00 2.235884666442871094e+00 -8.482481837272644043e-01
6.021000000000000000e+03 6.198340988159179688e+01 -6.982750892639160156e+00 -1.669180989265441895e-01 1.820214986801147461e+00 4.959890842437744141e-01 -2.000623792409896851e-01
6.022000000000000000e+03 6.290537261962890625e+01 -6.626618862152099609e+00 -1.180311217904090881e-01 2.230315446853637695e+00 6.336852908134460449e-01 -5.618757605552673340e-01
6.023000000000000000e+03 6.987523651123046875e+01 -8.205697059631347656e+00 -1.557428717613220215e+00 7.771162986755371094e+00 1.864120244979858398e+00 -1.330256581306457520e+00
6.024000000000000000e+03 7.150320434570312500e+01 -7.332942962646484375e+00 -1.263901114463806152e+00 8.077551841735839844e+00 2.044095277786254883e+00 -8.881941437721252441e-01
6.025000000000000000e+03 7.213027954101562500e+01 6.941123962402343750e+00 3.203003108501434326e-01 6.976616382598876953e+00 2.189074993133544922e+00 -9.098644852638244629e-01
6.026000000000000000e+03 6.977144622802734375e+01 9.708961486816406250e+00 6.772681474685668945e-01 7.240521907806396484e+00 2.375337123870849609e+00 -6.724276542663574219e-01
6.027000000000000000e+03 6.875724792480468750e+01 2.273462295532226562e+01 1.540243718773126602e-02 7.089024066925048828e+00 2.131327867507934570e+00 3.485301136970520020e-01
6.028000000000000000e+03 6.821977233886718750e+01 4.432162046432495117e-01 -2.526924014091491699e-02 6.312957286834716797e+00 1.886306405067443848e+00 -1.013526678085327148e+00
6.029000000000000000e+03 7.067656707763671875e+01 2.161090087890625000e+01 2.187604159116744995e-01 6.947585105895996094e+00 2.149903774261474609e+00 4.390639364719390869e-01
6.030000000000000000e+03 7.116336059570312500e+01 1.492792129516601562e+01 7.374595999717712402e-01 7.007029533386230469e+00 2.323346614837646484e+00 -1.826864778995513916e-01
6.031000000000000000e+03 7.094953155517578125e+01 1.594760513305664062e+01 7.464413642883300781e-01 7.027098178863525391e+00 2.332061767578125000e+00 -6.491498649120330811e-02
6.032000000000000000e+03 6.988425445556640625e+01 1.211449432373046875e+01 8.166097998619079590e-01 7.268825531005859375e+00 2.425630569458007812e+00 -4.809746146202087402e-01
6.033000000000000000e+03 7.001572418212890625e+01 1.106772327423095703e+01 7.330736517906188965e-01 7.239953994750976562e+00 2.391908407211303711e+00 -5.760509371757507324e-01
6.034000000000000000e+03 6.422106933593750000e+01 -3.562626838684082031e+00 1.145327836275100708e-01 3.979925155639648438e+00 1.228337407112121582e+00 -6.579336524009704590e-01
6.035000000000000000e+03 6.554777526855468750e+01 -2.272797346115112305e+00 1.926175691187381744e-02 4.923998832702636719e+00 1.482978224754333496e+00 -8.087976574897766113e-01
6.036000000000000000e+03 7.094705963134765625e+01 2.098762512207031250e+01 2.943644821643829346e-01 6.915520668029785156e+00 2.162965536117553711e+00 4.159164130687713623e-01
6.037000000000000000e+03 6.224390029907226562e+01 -6.327717781066894531e+00 -4.509866610169410706e-02 2.123791694641113281e+00 6.236078739166259766e-01 -2.835249900817871094e-01
6.038000000000000000e+03 6.996614837646484375e+01 1.273115062713623047e+01 8.108280301094055176e-01 7.271278381347656250e+00 2.424632072448730469e+00 -4.304928183555603027e-01
6.039000000000000000e+03 6.924469757080078125e+01 9.561356157064437866e-02 -1.129528582096099854e-01 6.534372329711914062e+00 1.926425814628601074e+00 -1.119045019149780273e+00
6.040000000000000000e+03 6.733863067626953125e+01 -6.259957313537597656e+00 -8.578739166259765625e-01 5.477668762207031250e+00 1.385938525199890137e+00 -1.742056369781494141e+00
6.041000000000000000e+03 6.919963836669921875e+01 7.381903648376464844e+00 5.294232964515686035e-01 7.133072853088378906e+00 2.298748970031738281e+00 -7.838379144668579102e-01
6.042000000000000000e+03 7.067419433593750000e+01 7.299839496612548828e+00 4.394077062606811523e-01 7.045562267303466797e+00 2.245491027832031250e+00 -8.700599670410156250e-01
6.043000000000000000e+03 7.045423889160156250e+01 2.481374740600585938e+01 -1.771676242351531982e-01 6.827680587768554688e+00 1.995153903961181641e+00 3.638780713081359863e-01
6.044000000000000000e+03 6.766345214843750000e+01 2.658290290832519531e+01 -4.633107483386993408e-01 6.650875568389892578e+00 1.856269478797912598e+00 -5.078199505805969238e-02
6.045000000000000000e+03 6.525614166259765625e+01 -5.243771672248840332e-01 1.540347635746002197e-01 5.257063865661621094e+00 1.623329639434814453e+00 -5.198479294776916504e-01
6.046000000000000000e+03 7.072162628173828125e+01 1.434459590911865234e+01 7.931045293807983398e-01 7.089139461517333984e+00 2.364673137664794922e+00 -2.463960647583007812e-01
6.047000000000000000e+03 6.830481719970703125e+01 -6.220983505249023438e+00 -9.878799915313720703e-01 6.168365478515625000e+00 1.554145693778991699e+00 -1.644900441169738770e+00
6.048000000000000000e+03 6.914793395996093750e+01 2.119483757019042969e+01 3.136787116527557373e-01 7.128098487854003906e+00 2.232533216476440430e+00 3.807706832885742188e-01
6.049000000000000000e+03 9.950222969055175781e+00 2.837914276123046875e+01 -3.467553993687033653e-03 5.557894334197044373e-02 1.563341729342937469e-02 1.585094928741455078e-01
6.050000000000000000e+03 7.042694854736328125e+01 2.483588695526123047e+00 6.782215833663940430e-02 6.857264995574951172e+00 2.077526092529296875e+00 -1.075840234756469727e+00
6.051000000000000000e+03 7.081634521484375000e+01 -1.405015110969543457e+00 -3.310430347919464111e-01 6.909413337707519531e+00 1.973511099815368652e+00 -1.177825927734375000e+00
6.052000000000000000e+03 6.728058624267578125e+01 7.861808538436889648e-01 6.501633673906326294e-02 6.135988235473632812e+00 1.860301256179809570e+00 -8.571479320526123047e-01
6.053000000000000000e+03 7.162627410888671875e+01 8.259458541870117188e+00 4.455039203166961670e-01 6.997700214385986328e+00 2.232961177825927734e+00 -8.255933523178100586e-01
6.054000000000000000e+03 6.638259887695312500e+01 -6.056557178497314453e+00 -6.201957464218139648e-01 4.740931987762451172e+00 1.236220836639404297e+00 -1.633598566055297852e+00
6.055000000000000000e+03 6.829022979736328125e+01 3.060748100280761719e+00 1.999165117740631104e-01 6.647591114044189453e+00 2.054252147674560547e+00 -8.835836052894592285e-01
6.056000000000000000e+03 9.041892051696777344e+00 -1.440478706359863281e+01 8.961619734764099121e-01 8.093791007995605469e-01 5.116623044013977051e-01 7.905787229537963867e-02
6.057000000000000000e+03 8.499571800231933594e+00 -1.362850952148437500e+01 7.859764695167541504e-01 5.845529437065124512e-01 4.111588299274444580e-01 -7.421898841857910156e-02
6.058000000000000000e+03 3.765861129760742188e+01 2.456764411926269531e+01 -4.787777066230773926e-01 5.204290390014648438e+00 1.417653799057006836e+00 7.093489170074462891e-01
6.059000000000000000e+03 6.643201446533203125e+01 2.679640960693359375e+01 -5.104664564132690430e-01 6.506064891815185547e+00 1.798679590225219727e+00 -2.536143660545349121e-01
6.060000000000000000e+03 1.318502235412597656e+01 3.067893409729003906e+01 8.845138549804687500e-02 2.002542465925216675e-01 8.661169558763504028e-02 9.310235083103179932e-02
6.061000000000000000e+03 4.139984512329101562e+01 2.580241584777832031e+01 -3.833326697349548340e-01 4.205721378326416016e+00 1.146716713905334473e+00 1.284750819206237793e+00
6.062000000000000000e+03 3.939189529418945312e+01 2.724402999877929688e+01 -5.379337072372436523e-01 4.431003570556640625e+00 1.167920947074890137e+00 9.378181099891662598e-01
6.063000000000000000e+03 6.755010223388671875e+01 2.357336235046386719e+01 -2.206799089908599854e-01 7.091291904449462891e+00 2.061183691024780273e+00 1.557279527187347412e-01
6.064000000000000000e+03 6.820621490478515625e+01 2.321375274658203125e+01 -1.026018559932708740e-01 7.090304851531982422e+00 2.096310853958129883e+00 2.867280542850494385e-01
6.065000000000000000e+03 3.641656494140625000e+01 3.061304092407226562e+01 -6.929693818092346191e-01 4.154622077941894531e+00 1.038495779037475586e+00 2.917295396327972412e-01
6.066000000000000000e+03 1.058556461334228516e+01 2.966533279418945312e+01 3.036340139806270599e-02 7.847686856985092163e-02 3.265208005905151367e-02 1.491359472274780273e-01
6.067000000000000000e+03 1.248198699951171875e+01 3.227279281616210938e+01 1.063328459858894348e-01 2.106502205133438110e-01 9.509491920471191406e-02 8.640860021114349365e-02
6.068000000000000000e+03 6.978746032714843750e+01 2.597055244445800781e+01 -2.837584912776947021e-01 6.769223213195800781e+00 1.945639491081237793e+00 2.566399574279785156e-01
6.069000000000000000e+03 6.910146331787109375e+01 2.739160728454589844e+01 -3.823093175888061523e-01 6.636410236358642578e+00 1.876230359077453613e+00 1.034420654177665710e-01
6.070000000000000000e+03 6.287988662719726562e+01 3.357619476318359375e+01 -7.515808101743459702e-04 4.716878890991210938e+00 1.414838194847106934e+00 -4.906281232833862305e-01
6.071000000000000000e+03 6.474396514892578125e+01 3.220275497436523438e+01 -2.165537476539611816e-01 5.378680706024169922e+00 1.548638105392456055e+00 -4.405026733875274658e-01
6.072000000000000000e+03 5.962978744506835938e+01 3.177703666687011719e+01 2.154047489166259766e-01 3.755834102630615234e+00 1.191371679306030273e+00 -6.811859011650085449e-01
6.073000000000000000e+03 6.759653472900390625e+01 2.525509834289550781e+01 -3.951422274112701416e-01 6.873592853546142578e+00 1.943535208702087402e+00 3.951235488057136536e-02
6.074000000000000000e+03 5.248517227172851562e+01 3.289122772216796875e+01 5.297949314117431641e-01 2.609645843505859375e+00 9.418322443962097168e-01 2.514034807682037354e-01
6.075000000000000000e+03 3.553936004638671875e+01 3.440025329589843750e+01 -6.119001507759094238e-01 3.643366336822509766e+00 9.094398617744445801e-01 1.428357362747192383e-01
6.076000000000000000e+03 5.084862518310546875e+01 3.339130783081054688e+01 4.558910131454467773e-01 2.644870281219482422e+00 9.302284121513366699e-01 4.172414541244506836e-01
6.077000000000000000e+03 4.337378692626953125e+01 3.373669815063476562e+01 -1.683045476675033569e-01 3.310282707214355469e+00 9.425934553146362305e-01 7.101767659187316895e-01
6.078000000000000000e+03 1.823435974121093750e+01 3.866606903076171875e+01 8.564823865890502930e-02 8.661913275718688965e-01 2.855518758296966553e-01 -7.140407711267471313e-02
6.079000000000000000e+03 1.541207218170166016e+01 3.594032669067382812e+01 1.384251713752746582e-01 5.053154230117797852e-01 1.931221783161163330e-01 -2.685165405273437500e-02
6.080000000000000000e+03 6.883337402343750000e+01 -5.844411373138427734e+00 -9.798805713653564453e-01 6.441436767578125000e+00 1.638466835021972656e+00 -1.530385494232177734e+00
6.081000000000000000e+03 9.704947471618652344e+00 -1.053371047973632812e+01 6.226208209991455078e-01 7.199583053588867188e-01 4.027737379074096680e-01 -3.497285544872283936e-01
6.082000000000000000e+03 6.474178314208984375e+01 -4.000978946685791016e+00 -3.368416056036949158e-02 4.145305156707763672e+00 1.233486294746398926e+00 -8.655760288238525391e-01
6.083000000000000000e+03 7.097765350341796875e+01 -7.918109893798828125e+00 -1.417604207992553711e+00 8.085461616516113281e+00 2.000357151031494141e+00 -9.847001433372497559e-01
6.084000000000000000e+03 6.950942993164062500e+01 -4.630277633666992188e+00 -7.917621731758117676e-01 6.679638862609863281e+00 1.766363024711608887e+00 -1.387871503829956055e+00
6.085000000000000000e+03 9.236111640930175781e+00 -1.185927391052246094e+01 7.508836388587951660e-01 6.918641328811645508e-01 4.328243136405944824e-01 -2.525942325592041016e-01
6.086000000000000000e+03 6.918714904785156250e+01 6.164990425109863281e+00 4.323062300682067871e-01 7.040932655334472656e+00 2.241971492767333984e+00 -8.382539749145507812e-01
6.087000000000000000e+03 6.863934326171875000e+01 6.570693016052246094e+00 4.921860098838806152e-01 7.081697463989257812e+00 2.272165060043334961e+00 -7.731741666793823242e-01
6.088000000000000000e+03 1.029677581787109375e+01 -1.045561122894287109e+01 6.601675748825073242e-01 8.602100014686584473e-01 4.561132788658142090e-01 -3.033559322357177734e-01
6.089000000000000000e+03 8.365015029907226562e+00 -1.418693637847900391e+01 7.908354401588439941e-01 5.763164758682250977e-01 4.101455807685852051e-01 3.496523713693022728e-03
6.090000000000000000e+03 9.984077453613281250e+00 -1.253976535797119141e+01 9.172071218490600586e-01 9.806876182556152344e-01 5.693684220314025879e-01 -1.061044558882713318e-01
6.091000000000000000e+03 7.038426971435546875e+01 -6.755322456359863281e+00 -1.244638323783874512e+00 7.502360343933105469e+00 1.877316594123840332e+00 -1.247027635574340820e+00
6.092000000000000000e+03 7.048867797851562500e+01 -5.465304851531982422e+00 -9.512056112289428711e-01 7.216495037078857422e+00 1.879586815834045410e+00 -1.230861902236938477e+00
6.093000000000000000e+03 7.028045654296875000e+01 3.388891220092773438e+00 1.491292268037796021e-01 6.878803253173828125e+00 2.108379840850830078e+00 -1.042173743247985840e+00
6.094000000000000000e+03 7.064214324951171875e+01 9.314772605895996094e+00 5.868031978607177734e-01 7.108780860900878906e+00 2.308675289154052734e+00 -7.318075895309448242e-01
6.095000000000000000e+03 8.552009582519531250e+00 -1.304996585845947266e+01 7.745378613471984863e-01 5.625512003898620605e-01 4.011267125606536865e-01 -1.502487510442733765e-01
6.096000000000000000e+03 7.095282745361328125e+01 4.522875308990478516e+00 2.113056629896163940e-01 6.954931259155273438e+00 2.149871110916137695e+00 -1.026012659072875977e+00
6.097000000000000000e+03 7.121965026855468750e+01 6.159790515899658203e+00 3.231090307235717773e-01 6.993084430694580078e+00 2.194858074188232422e+00 -9.526080489158630371e-01
6.098000000000000000e+03 7.074973297119140625e+01 -2.398142814636230469e+00 -4.643416404724121094e-01 6.936019420623779297e+00 1.941503405570983887e+00 -1.199501752853393555e+00
6.099000000000000000e+03 6.994421386718750000e+01 2.870463132858276367e+00 1.145995110273361206e-01 6.821590900421142578e+00 2.080857276916503906e+00 -1.045021533966064453e+00
6.100000000000000000e+03 7.059918212890625000e+01 3.940995693206787109e+00 1.802132278680801392e-01 6.915485858917236328e+00 2.128709554672241211e+00 -1.035958886146545410e+00
6.101000000000000000e+03 7.011183166503906250e+01 -4.614464759826660156e+00 -8.079565763473510742e-01 6.953201293945312500e+00 1.843573331832885742e+00 -1.284995794296264648e+00
6.102000000000000000e+03 6.705097961425781250e+01 1.400167584419250488e+00 1.314230412244796753e-01 6.186775684356689453e+00 1.895459532737731934e+00 -7.795154452323913574e-01
6.103000000000000000e+03 6.997364044189453125e+01 1.974735736846923828e+00 3.161498904228210449e-02 6.781546115875244141e+00 2.043948411941528320e+00 -1.074966669082641602e+00
6.104000000000000000e+03 6.660475158691406250e+01 5.470108389854431152e-01 9.503780305385589600e-02 5.907812118530273438e+00 1.800855040550231934e+00 -7.452652454376220703e-01
6.105000000000000000e+03 6.960472869873046875e+01 7.192464351654052734e+00 4.873920977115631104e-01 7.097968578338623047e+00 2.275608301162719727e+00 -8.265708684921264648e-01
6.106000000000000000e+03 6.377502822875976562e+01 -4.313772201538085938e+00 9.434594959020614624e-02 3.517488956451416016e+00 1.083550453186035156e+00 -6.306728124618530273e-01
6.107000000000000000e+03 6.453149414062500000e+01 -6.361174583435058594e+00 -2.881533801555633545e-01 3.260879039764404297e+00 8.918176889419555664e-01 -1.210314393043518066e+00
6.108000000000000000e+03 6.384400177001953125e+01 -6.138184070587158203e+00 -1.305792033672332764e-01 2.972346305847167969e+00 8.525301218032836914e-01 -9.208848476409912109e-01
6.109000000000000000e+03 8.604522705078125000e+00 1.315412616729736328e+01 -6.781675387173891068e-03 -6.438613869249820709e-03 -3.966086544096469879e-03 -4.580643435474485159e-04
6.110000000000000000e+03 6.965139770507812500e+01 -3.165961503982543945e+00 -5.383810400962829590e-01 6.625741481781005859e+00 1.826208114624023438e+00 -1.276335954666137695e+00
6.111000000000000000e+03 6.782348632812500000e+01 3.616679430007934570e+00 2.689329385757446289e-01 6.682973384857177734e+00 2.085571765899658203e+00 -7.912471890449523926e-01
6.112000000000000000e+03 7.094230651855468750e+01 -2.121156752109527588e-01 -2.056971788406372070e-01 6.908151626586914062e+00 2.010736465454101562e+00 -1.157012581825256348e+00
6.113000000000000000e+03 6.824452209472656250e+01 -2.155849933624267578e+00 -2.931616902351379395e-01 6.082202434539794922e+00 1.736712217330932617e+00 -1.207351088523864746e+00
6.114000000000000000e+03 6.618270111083984375e+01 -1.167913913726806641e+00 1.273753400892019272e-02 5.440896511077880859e+00 1.636090278625488281e+00 -8.293167948722839355e-01
6.115000000000000000e+03 6.889057922363281250e+01 3.311135053634643555e+00 1.989446282386779785e-01 6.737478733062744141e+00 2.080927133560180664e+00 -9.377724528312683105e-01
6.116000000000000000e+03 6.892399597167968750e+01 8.379953503608703613e-01 -2.837180346250534058e-02 6.512096881866455078e+00 1.945117473602294922e+00 -1.058547973632812500e+00
6.117000000000000000e+03 6.962896728515625000e+01 -1.449050188064575195e+00 -2.953295707702636719e-01 6.585704326629638672e+00 1.887112379074096680e+00 -1.195920586585998535e+00
6.118000000000000000e+03 6.942189025878906250e+01 8.884149551391601562e+00 6.434731483459472656e-01 7.240777969360351562e+00 2.365275382995605469e+00 -7.091083526611328125e-01
6.119000000000000000e+03 6.951584625244140625e+01 7.632411956787109375e+00 5.315445065498352051e-01 7.135993003845214844e+00 2.300261259078979492e+00 -7.926265001296997070e-01
6.120000000000000000e+03 6.527462768554687500e+01 -3.447612047195434570e+00 -4.180354997515678406e-02 4.545683860778808594e+00 1.351164102554321289e+00 -9.300968050956726074e-01
6.121000000000000000e+03 7.080782318115234375e+01 6.647231578826904297e+00 3.837366700172424316e-01 7.009702205657958984e+00 2.218031644821166992e+00 -9.156154394149780273e-01
6.122000000000000000e+03 6.315407180786132812e+01 -5.853185653686523438e+00 -1.638623699545860291e-02 2.679422378540039062e+00 7.989107966423034668e-01 -6.303865909576416016e-01
6.123000000000000000e+03 6.435404968261718750e+01 -4.656861782073974609e+00 -1.818639598786830902e-02 3.708840608596801758e+00 1.107196331024169922e+00 -8.806610107421875000e-01
6.124000000000000000e+03 6.914640808105468750e+01 -6.272524356842041016e+00 -1.099184036254882812e+00 6.684644699096679688e+00 1.675638198852539062e+00 -1.525769829750061035e+00
6.125000000000000000e+03 7.757383823394775391e+00 -1.397122669219970703e+01 6.921638250350952148e-01 3.731000721454620361e-01 3.195791840553283691e-01 -5.791043490171432495e-02
6.126000000000000000e+03 4.109963607788085938e+01 2.759830093383789062e+01 -4.428377151489257812e-01 4.071914196014404297e+00 1.088722944259643555e+00 1.116050004959106445e+00
6.127000000000000000e+03 6.636888885498046875e+01 3.369304275512695312e+01 -1.983961313962936401e-01 5.635987758636474609e+00 1.631277561187744141e+00 -2.823728322982788086e-01
6.128000000000000000e+03 5.444952392578125000e+01 3.513286972045898438e+01 5.291987061500549316e-01 2.974789381027221680e+00 1.051196455955505371e+00 -4.288511350750923157e-03
6.129000000000000000e+03 5.451955795288085938e+01 3.279472732543945312e+01 5.606298446655273438e-01 2.701292276382446289e+00 9.785766005516052246e-01 -2.742862701416015625e-02
6.130000000000000000e+03 6.726499176025390625e+01 2.244711637496948242e+00 1.800883561372756958e-01 6.366648197174072266e+00 1.964020967483520508e+00 -7.653645277023315430e-01
6.131000000000000000e+03 6.928734588623046875e+01 4.598549365997314453e+00 2.931690216064453125e-01 6.891415119171142578e+00 2.155375242233276367e+00 -9.254289865493774414e-01
6.132000000000000000e+03 6.885634613037109375e+01 5.557081699371337891e+00 3.956675827503204346e-01 6.979551792144775391e+00 2.212565660476684570e+00 -8.375502228736877441e-01
6.133000000000000000e+03 6.857922363281250000e+01 4.896527290344238281e+00 3.523139357566833496e-01 6.907039165496826172e+00 2.177805900573730469e+00 -8.404238820075988770e-01
6.134000000000000000e+03 6.872631072998046875e+01 -6.715581417083740234e+00 -1.165668249130249023e+00 6.547784805297851562e+00 1.614634990692138672e+00 -1.637064933776855469e+00
6.135000000000000000e+03 6.947975158691406250e+01 6.703662872314453125e+00 4.557665884494781494e-01 7.065329551696777344e+00 2.256328821182250977e+00 -8.423216342926025391e-01
6.136000000000000000e+03 7.072961425781250000e+01 5.542141437530517578e+00 3.035240769386291504e-01 6.981103420257568359e+00 2.185388326644897461e+00 -9.674766659736633301e-01
6.137000000000000000e+03 6.996982574462890625e+01 4.289984703063964844e+00 2.335957437753677368e-01 6.898236751556396484e+00 2.139549732208251953e+00 -9.949396252632141113e-01
6.138000000000000000e+03 6.987452697753906250e+01 -2.140887022018432617e+00 -4.030265808105468750e-01 6.672500610351562500e+00 1.880842208862304688e+00 -1.224603176116943359e+00
6.139000000000000000e+03 6.906079101562500000e+01 1.907559156417846680e+00 6.178634613752365112e-02 6.613553047180175781e+00 2.002601861953735352e+00 -1.019086003303527832e+00
6.140000000000000000e+03 6.996818542480468750e+01 7.779006958007812500e+00 5.193236470222473145e-01 7.114930629730224609e+00 2.290276288986206055e+00 -8.110250234603881836e-01
6.141000000000000000e+03 7.038536071777343750e+01 -6.033125400543212891e+00 -1.053503751754760742e+00 7.294878482818603516e+00 1.872412443161010742e+00 -1.260596156120300293e+00
6.142000000000000000e+03 6.678446197509765625e+01 -1.593967825174331665e-01 2.874009869992733002e-02 5.833461284637451172e+00 1.758660316467285156e+00 -8.426400423049926758e-01
6.143000000000000000e+03 6.639967346191406250e+01 -1.947533845901489258e+00 -7.512273639440536499e-02 5.376080036163330078e+00 1.590287208557128906e+00 -9.467071890830993652e-01
6.144000000000000000e+03 6.546734619140625000e+01 -5.631669521331787109e+00 -3.552056550979614258e-01 4.102631092071533203e+00 1.124227643013000488e+00 -1.378071665763854980e+00
6.145000000000000000e+03 7.074790191650390625e+01 -4.810870647430419922e+00 -8.347405195236206055e-01 7.186811923980712891e+00 1.905621528625488281e+00 -1.214692592620849609e+00
6.146000000000000000e+03 6.814308166503906250e+01 2.068644762039184570e+00 1.172810494899749756e-01 6.496213912963867188e+00 1.984048485755920410e+00 -9.121517539024353027e-01
6.147000000000000000e+03 6.852233886718750000e+01 1.471627473831176758e+00 5.218463763594627380e-02 6.492746353149414062e+00 1.963479280471801758e+00 -9.878066182136535645e-01
6.148000000000000000e+03 7.102409362792968750e+01 1.069026279449462891e+01 6.347251534461975098e-01 7.076985359191894531e+00 2.313513040542602539e+00 -6.177116632461547852e-01
6.149000000000000000e+03 7.002680206298828125e+01 3.353390693664550781e-01 -1.190068349242210388e-01 6.716616630554199219e+00 1.979282855987548828e+00 -1.135008215904235840e+00
6.150000000000000000e+03 6.761228179931640625e+01 1.703526616096496582e+00 1.206643879413604736e-01 6.352097511291503906e+00 1.941828608512878418e+00 -8.522489070892333984e-01
6.151000000000000000e+03 6.950930023193359375e+01 1.384457230567932129e+00 -5.709553137421607971e-03 6.663110256195068359e+00 1.997220158576965332e+00 -1.078392982482910156e+00
6.152000000000000000e+03 6.687689971923828125e+01 -3.428119897842407227e+00 -2.922113239765167236e-01 5.343038082122802734e+00 1.515247941017150879e+00 -1.217082858085632324e+00
6.153000000000000000e+03 7.027719879150390625e+01 -1.228650093078613281e+00 -2.974128127098083496e-01 6.770148277282714844e+00 1.941820621490478516e+00 -1.186819672584533691e+00
6.154000000000000000e+03 6.700834655761718750e+01 -5.692016601562500000e+00 -6.782541871070861816e-01 5.215039253234863281e+00 1.361035585403442383e+00 -1.623081564903259277e+00
6.155000000000000000e+03 6.408390045166015625e+01 -5.379341602325439453e+00 -8.245000243186950684e-02 3.315898418426513672e+00 9.700345396995544434e-01 -8.860607147216796875e-01
6.156000000000000000e+03 6.488253784179687500e+01 -4.925370693206787109e+00 -1.579743176698684692e-01 3.963363409042358398e+00 1.141616702079772949e+00 -1.067391395568847656e+00
6.157000000000000000e+03 6.996775817871093750e+01 5.875463008880615234e+00 3.645201325416564941e-01 6.990995407104492188e+00 2.206654548645019531e+00 -9.186888337135314941e-01
6.158000000000000000e+03 6.453102111816406250e+01 3.599512863159179688e+01 6.959367543458938599e-03 5.059453010559082031e+00 1.519923686981201172e+00 -2.672672569751739502e-01
6.159000000000000000e+03 4.674127197265625000e+01 3.554875564575195312e+01 1.680265218019485474e-01 2.990043163299560547e+00 9.474208950996398926e-01 5.232337713241577148e-01
6.160000000000000000e+03 4.112631225585937500e+01 3.137031364440917969e+01 -4.172808229923248291e-01 3.720278739929199219e+00 9.908993840217590332e-01 8.208004832267761230e-01
6.161000000000000000e+03 5.015153121948242188e+01 3.169109725952148438e+01 4.183363914489746094e-01 2.486585855484008789e+00 8.714766502380371094e-01 6.080892086029052734e-01
6.162000000000000000e+03 4.048798751831054688e+01 3.381878280639648438e+01 -4.139504134654998779e-01 3.608270406723022461e+00 9.582960009574890137e-01 5.752740502357482910e-01
6.163000000000000000e+03 6.751232147216796875e+01 1.148650124669075012e-01 -9.586351923644542694e-03 6.086438179016113281e+00 1.823055624961853027e+00 -9.385653734207153320e-01
6.164000000000000000e+03 6.792411804199218750e+01 1.098842859268188477e+00 5.097773671150207520e-02 6.328433513641357422e+00 1.913823366165161133e+00 -9.360859394073486328e-01
6.165000000000000000e+03 6.898475646972656250e+01 3.944690942764282227e+00 2.481292188167572021e-01 6.809639930725097656e+00 2.117330789566040039e+00 -9.260373711585998535e-01
6.166000000000000000e+03 6.933689880371093750e+01 -5.807213306427001953e+00 -1.001820087432861328e+00 6.770157814025878906e+00 1.730501294136047363e+00 -1.465717077255249023e+00
6.167000000000000000e+03 6.984941101074218750e+01 -5.942446231842041016e+00 -1.052543640136718750e+00 7.085318565368652344e+00 1.809832453727722168e+00 -1.350983858108520508e+00
6.168000000000000000e+03 6.967391204833984375e+01 -6.581358432769775391e+00 -1.213660001754760742e+00 7.098537445068359375e+00 1.765463232994079590e+00 -1.451055407524108887e+00
6.169000000000000000e+03 6.961933898925781250e+01 5.233155727386474609e+00 3.295857012271881104e-01 6.955149650573730469e+00 2.185420513153076172e+00 -9.262239933013916016e-01
6.170000000000000000e+03 6.927761077880859375e+01 -2.486967325210571289e+00 -4.144097268581390381e-01 6.476976871490478516e+00 1.818770051002502441e+00 -1.249824762344360352e+00
6.171000000000000000e+03 6.665377807617187500e+01 -2.702018737792968750e+00 -1.718918681144714355e-01 5.325324535369873047e+00 1.546029686927795410e+00 -1.090702891349792480e+00
6.172000000000000000e+03 6.907817077636718750e+01 -3.540246725082397461e+00 -5.629654526710510254e-01 6.436498165130615234e+00 1.762059807777404785e+00 -1.329234242439270020e+00
6.173000000000000000e+03 6.940775299072265625e+01 -5.231626510620117188e+00 -8.785265684127807617e-01 6.754425048828125000e+00 1.762769579887390137e+00 -1.398100733757019043e+00
6.174000000000000000e+03 6.476188659667968750e+01 -5.627193927764892578e+00 -2.170796096324920654e-01 3.639482736587524414e+00 1.026721000671386719e+00 -1.164173603057861328e+00
6.175000000000000000e+03 6.613331604003906250e+01 -5.378355026245117188e+00 -4.641257524490356445e-01 4.630902290344238281e+00 1.250032901763916016e+00 -1.478894472122192383e+00
6.176000000000000000e+03 6.789658355712890625e+01 -5.779566287994384766e+00 -8.627721667289733887e-01 5.902664661407470703e+00 1.511967778205871582e+00 -1.618573069572448730e+00
6.177000000000000000e+03 6.592705535888671875e+01 -4.703601837158203125e+00 -3.036976158618927002e-01 4.588275432586669922e+00 1.285373330116271973e+00 -1.301606059074401855e+00
6.178000000000000000e+03 6.698284912109375000e+01 -9.002279043197631836e-01 -4.973822459578514099e-02 5.769893646240234375e+00 1.716046690940856934e+00 -9.391426444053649902e-01
6.179000000000000000e+03 6.944449615478515625e+01 -7.064633369445800781e-01 -2.133170068264007568e-01 6.548217296600341797e+00 1.900470018386840820e+00 -1.166266918182373047e+00
6.180000000000000000e+03 6.774080657958984375e+01 -6.014276742935180664e-01 -8.516072481870651245e-02 6.058449745178222656e+00 1.791986703872680664e+00 -1.025631785392761230e+00
6.181000000000000000e+03 6.650414276123046875e+01 -4.407393932342529297e+00 -3.820814490318298340e-01 5.000831604003906250e+00 1.385625004768371582e+00 -1.341750264167785645e+00
6.182000000000000000e+03 6.734921264648437500e+01 -4.749445915222167969e+00 -5.853500366210937500e-01 5.475448608398437500e+00 1.467029571533203125e+00 -1.493466615676879883e+00
6.183000000000000000e+03 6.720759582519531250e+01 -1.662140488624572754e+00 -1.319831013679504395e-01 5.741281986236572266e+00 1.682789683341979980e+00 -1.050415515899658203e+00
6.184000000000000000e+03 6.896124267578125000e+01 -1.771559715270996094e+00 -3.076612055301666260e-01 6.378188133239746094e+00 1.821158170700073242e+00 -1.208292841911315918e+00
6.185000000000000000e+03 6.674626922607421875e+01 -5.066770553588867188e+00 -5.259326100349426270e-01 5.087716579437255859e+00 1.368535161018371582e+00 -1.491813063621520996e+00
6.186000000000000000e+03 6.516671752929687500e+01 -4.429292678833007812e+00 -1.327444911003112793e-01 4.246108531951904297e+00 1.234009146690368652e+00 -1.059781074523925781e+00
6.187000000000000000e+03 6.997380828857421875e+01 -5.314397335052490234e+00 -9.140135049819946289e-01 7.004986763000488281e+00 1.827291965484619141e+00 -1.328132033348083496e+00
6.188000000000000000e+03 6.898678588867187500e+01 -4.495008468627929688e+00 -7.205098271369934082e-01 6.399085521697998047e+00 1.703572630882263184e+00 -1.415901184082031250e+00
6.189000000000000000e+03 6.941809844970703125e+01 -4.091330528259277344e+00 -6.863511800765991211e-01 6.584537982940673828e+00 1.769456148147583008e+00 -1.351404547691345215e+00
6.190000000000000000e+03 6.812992858886718750e+01 -3.433321475982666016e+00 -4.553927481174468994e-01 5.976465702056884766e+00 1.656322002410888672e+00 -1.320890903472900391e+00
6.191000000000000000e+03 6.797587585449218750e+01 -1.355974793434143066e+00 -1.784732490777969360e-01 6.043141841888427734e+00 1.759400606155395508e+00 -1.110550284385681152e+00
6.192000000000000000e+03 6.848236846923828125e+01 -2.669833004474639893e-01 -1.080543026328086853e-01 6.301798820495605469e+00 1.858123421669006348e+00 -1.080083489418029785e+00
6.193000000000000000e+03 6.863726043701171875e+01 -2.903715848922729492e+00 -4.336415231227874756e-01 6.215538024902343750e+00 1.734568953514099121e+00 -1.290356278419494629e+00
6.194000000000000000e+03 6.854801177978515625e+01 -4.032492637634277344e+00 -6.160359382629394531e-01 6.200607299804687500e+00 1.675371408462524414e+00 -1.387256383895874023e+00
6.195000000000000000e+03 6.871395111083984375e+01 -1.020058751106262207e+00 -1.990269571542739868e-01 6.320321559906005859e+00 1.836388468742370605e+00 -1.150787115097045898e+00
6.196000000000000000e+03 6.755612945556640625e+01 -3.221955537796020508e+00 -3.549519777297973633e-01 5.718207359313964844e+00 1.608976602554321289e+00 -1.270089149475097656e+00
6.197000000000000000e+03 6.878135681152343750e+01 -5.173773288726806641e+00 -8.189609050750732422e-01 6.348162651062011719e+00 1.658760428428649902e+00 -1.492541313171386719e+00
6.198000000000000000e+03 6.745284271240234375e+01 -2.461237907409667969e+00 -2.567746341228485107e-01 5.740625858306884766e+00 1.645155429840087891e+00 -1.170675635337829590e+00
6.199000000000000000e+03 6.710076141357421875e+01 -4.112015247344970703e+00 -4.248231351375579834e-01 5.406112194061279297e+00 1.494386672973632812e+00 -1.367884039878845215e+00
6.200000000000000000e+03 6.757175445556640625e+01 -5.334829330444335938e+00 -7.044444084167480469e-01 5.600851535797119141e+00 1.468922257423400879e+00 -1.579396009445190430e+00
6.201000000000000000e+03 6.814479064941406250e+01 -5.156399250030517578e+00 -7.681202292442321777e-01 6.006079196929931641e+00 1.571387767791748047e+00 -1.524651288986206055e+00
6.202000000000000000e+03 6.767733001708984375e+01 -3.850792646408081055e+00 -4.781795144081115723e-01 5.715485572814941406e+00 1.571191787719726562e+00 -1.367692470550537109e+00
6.203000000000000000e+03 5.070639038085937500e+01 3.653532028198242188e+01 4.106256663799285889e-01 2.904346942901611328e+00 9.944918155670166016e-01 2.662934660911560059e-01
6.204000000000000000e+03 6.694084930419921875e+01 -4.110247039794921875e+01 3.790273666381835938e-01 4.543031692504882812e+00 1.476617693901062012e+00 1.245743483304977417e-01
6.205000000000000000e+03 6.036452484130859375e+01 3.455221176147460938e+01 2.154660373926162720e-01 4.101514339447021484e+00 1.295094132423400879e+00 -4.528316557407379150e-01
6.206000000000000000e+03 4.723892211914062500e+01 -3.883364105224609375e+01 -8.822328448295593262e-01 3.941102027893066406e+00 9.176607131958007812e-01 -7.199954986572265625e-01
6.207000000000000000e+03 4.475289535522460938e+01 -3.750296020507812500e+01 -1.252009153366088867e+00 4.860863208770751953e+00 1.082656264305114746e+00 -5.547415018081665039e-01
6.208000000000000000e+03 2.252363395690917969e+01 3.837480545043945312e+01 -6.052596122026443481e-02 1.534256577491760254e+00 4.421191811561584473e-01 -2.081967145204544067e-01
6.209000000000000000e+03 1.332308197021484375e+01 4.102617263793945312e+01 1.186316236853599548e-01 3.713395297527313232e-01 1.469913423061370850e-01 6.901007611304521561e-03
6.210000000000000000e+03 3.654119873046875000e+01 3.747923660278320312e+01 -5.224783420562744141e-01 3.472276926040649414e+00 8.849396109580993652e-01 1.502519994974136353e-01
6.211000000000000000e+03 6.718988800048828125e+01 4.082970428466796875e+01 1.562762819230556488e-02 5.437382221221923828e+00 1.635903000831604004e+00 -5.591891333460807800e-02
6.212000000000000000e+03 4.392074203491210938e+01 3.645929336547851562e+01 -9.304048120975494385e-02 3.254038810729980469e+00 9.482995271682739258e-01 4.784504771232604980e-01
6.213000000000000000e+03 4.809645843505859375e+01 3.803200149536132812e+01 2.796443402767181396e-01 3.009392023086547852e+00 9.867109060287475586e-01 3.124639093875885010e-01
6.214000000000000000e+03 5.364042663574218750e+01 3.785614776611328125e+01 4.686838388442993164e-01 3.116575002670288086e+00 1.075577616691589355e+00 4.584585875272750854e-02
6.215000000000000000e+03 4.760634994506835938e+01 -3.544436645507812500e+01 -8.223572373390197754e-01 4.141566276550292969e+00 9.957626461982727051e-01 -1.391639113426208496e+00
6.216000000000000000e+03 5.754180145263671875e+01 3.804869079589843750e+01 4.071800708770751953e-01 3.639793634414672852e+00 1.214092135429382324e+00 -1.393235772848129272e-01
6.217000000000000000e+03 1.427525329589843750e+01 1.934504890441894531e+01 -1.144846454262733459e-01 -5.079584941267967224e-02 -4.958414658904075623e-02 -8.174805343151092529e-02
6.218000000000000000e+03 7.572532653808593750e+01 -4.021720123291015625e+01 -2.466895058751106262e-02 8.996579170227050781e+00 2.691573143005371094e+00 -4.177786409854888916e-02
6.219000000000000000e+03 1.502588748931884766e+01 2.074175071716308594e+01 -3.569434881210327148e-01 -3.154629468917846680e-02 -1.165469363331794739e-01 -1.211914569139480591e-01
6.220000000000000000e+03 6.329726409912109375e+01 -1.176745128631591797e+01 -3.641441583633422852e+00 -8.152469396591186523e-01 -1.337006568908691406e+00 -4.805573225021362305e-01
6.221000000000000000e+03 2.630513572692871094e+01 -3.187965011596679688e+01 -6.019862294197082520e-01 9.660831093788146973e-02 -1.516133844852447510e-01 3.228467106819152832e-01
6.222000000000000000e+03 1.965911102294921875e+01 -2.924320030212402344e+01 -7.208284139633178711e-01 3.481426537036895752e-01 -1.118057221174240112e-01 -5.481469258666038513e-02
6.223000000000000000e+03 4.553076934814453125e+01 -1.634421539306640625e+01 1.136825084686279297e+00 6.632504940032958984e+00 2.330799102783203125e+00 1.396957278251647949e+00
6.224000000000000000e+03 1.725472927093505859e+00 4.182305526733398438e+01 -3.427522024139761925e-04 -4.562233388423919678e-01 -1.369698345661163330e-01 -2.962973085232079029e-04
6.225000000000000000e+03 3.047619438171386719e+01 -9.098793268203735352e-01 4.028470993041992188e+00 2.510997295379638672e+00 1.961840510368347168e+00 2.028158187866210938e+00
6.226000000000000000e+03 3.431595230102539062e+01 3.827800273895263672e+00 2.284505367279052734e+00 1.630197715759277344e+01 5.575944900512695312e+00 2.192845344543457031e+00
6.227000000000000000e+03 2.098979234695434570e+00 3.853558349609375000e+01 1.379851810634136200e-02 -3.754890859127044678e-01 -1.085071712732315063e-01 3.400351479649543762e-02
6.228000000000000000e+03 4.310137557983398438e+01 -4.772979259490966797e+00 -1.621256828308105469e+00 2.751503229141235352e+00 3.390739560127258301e-01 -1.697464704513549805e+00
6.229000000000000000e+03 5.192964935302734375e+01 -5.970524787902832031e+00 -4.166382551193237305e-01 1.371649146080017090e+00 2.865032553672790527e-01 1.840673446655273438e+00
6.230000000000000000e+03 3.061445474624633789e+00 -3.696530151367187500e+01 -3.884410858154296875e-02 4.772477149963378906e-01 1.315210759639739990e-01 1.051341518759727478e-01
6.231000000000000000e+03 5.179384994506835938e+01 2.277723884582519531e+01 -5.606089830398559570e-01 5.727547407150268555e-01 3.643723437562584877e-03 5.789247155189514160e-01
6.232000000000000000e+03 5.197817230224609375e+01 -6.583847999572753906e+00 -6.054847836494445801e-01 1.224170088768005371e+00 1.856056004762649536e-01 1.878041028976440430e+00
6.233000000000000000e+03 7.623805236816406250e+01 -4.173035430908203125e+01 -1.059710420668125153e-02 9.527892112731933594e+00 2.855188369750976562e+00 -6.357190757989883423e-02
6.234000000000000000e+03 3.043622207641601562e+01 -1.795857667922973633e+00 2.860124111175537109e+00 2.698416709899902344e+00 1.667562246322631836e+00 1.964668512344360352e+00
6.235000000000000000e+03 1.732439756393432617e+00 3.971247100830078125e+01 1.418167538940906525e-02 -4.413990676403045654e-01 -1.281652152538299561e-01 2.001613751053810120e-02
6.236000000000000000e+03 3.308536529541015625e+01 1.818499183654785156e+01 1.160565495491027832e+00 7.845797061920166016e+00 2.701908826828002930e+00 -1.716965556144714355e+00
6.237000000000000000e+03 2.516112327575683594e+01 -7.548009872436523438e+00 -4.701202809810638428e-01 6.215558052062988281e-01 4.543065652251243591e-02 1.182509541511535645e+00
6.238000000000000000e+03 5.433431243896484375e+01 -1.275856685638427734e+01 -9.296374917030334473e-01 3.425401747226715088e-01 -1.761292070150375366e-01 8.365653753280639648e-01
6.239000000000000000e+03 2.380567550659179688e+01 -3.285208511352539062e+01 -4.951316714286804199e-01 2.446717955172061920e-02 -1.411993503570556641e-01 -9.157943422906100750e-04
6.240000000000000000e+03 5.171039962768554688e+01 -8.217657089233398438e+00 -5.653977394104003906e-01 9.555554389953613281e-01 1.170473098754882812e-01 2.106300354003906250e+00
6.241000000000000000e+03 2.795788764953613281e+01 -3.542400836944580078e+00 1.387253999710083008e+00 3.929364383220672607e-01 5.340571403503417969e-01 1.872877359390258789e+00
6.242000000000000000e+03 5.216057205200195312e+01 3.459721374511718750e+01 5.094103217124938965e-01 2.780357122421264648e+00 9.869302511215209961e-01 2.306940257549285889e-01
6.243000000000000000e+03 4.252136230468750000e+01 -2.306366348266601562e+01 1.905433893203735352e+00 9.148844718933105469e+00 3.316283702850341797e+00 -1.245850205421447754e+00
6.244000000000000000e+03 4.205944061279296875e+01 -2.335458183288574219e+01 1.980387210845947266e+00 8.752072334289550781e+00 3.219738006591796875e+00 -1.137037158012390137e+00
6.245000000000000000e+03 4.323754882812500000e+01 -2.578166389465332031e+01 1.854602932929992676e+00 8.628738403320312500e+00 3.145002365112304688e+00 -1.165966749191284180e+00
6.246000000000000000e+03 2.242717933654785156e+01 -3.363817596435546875e+01 -3.834793567657470703e-01 2.018722295761108398e-01 -5.448213964700698853e-02 -1.175196543335914612e-01
6.247000000000000000e+03 1.733631706237792969e+01 2.542434883117675781e+01 -1.217882484197616577e-01 7.848979532718658447e-02 -1.298953592777252197e-02 2.927191741764545441e-02
6.248000000000000000e+03 2.932066917419433594e+01 3.238793945312500000e+01 -4.073667228221893311e-01 2.884969949722290039e+00 7.432809472084045410e-01 -5.084151625633239746e-01
6.249000000000000000e+03 3.201105499267578125e+01 3.284317779541015625e+01 -6.100531220436096191e-01 3.542557001113891602e+00 8.797512054443359375e-01 -2.829790115356445312e-01
6.250000000000000000e+03 4.806999206542968750e+01 -7.854273796081542969e+00 -7.577927708625793457e-01 4.180917739868164062e-01 -1.019103080034255981e-01 1.246236443519592285e+00
6.251000000000000000e+03 6.540903472900390625e+01 1.650889205932617188e+01 1.280132293701171875e+00 8.787428855895996094e+00 3.020268201828002930e+00 -4.793440103530883789e-01
6.252000000000000000e+03 3.547807693481445312e+01 -2.911398315429687500e+01 -1.452316939830780029e-01 5.066442012786865234e+00 1.476363062858581543e+00 1.201261281967163086e+00
6.253000000000000000e+03 4.346318817138671875e+01 -2.841528892517089844e+01 6.519695520401000977e-01 7.680984973907470703e+00 2.499886274337768555e+00 -8.060466647148132324e-01
6.254000000000000000e+03 3.937733459472656250e+01 -4.037065505981445312e+00 -1.483383655548095703e+00 9.706253051757812500e+00 2.466860771179199219e+00 -1.914809584617614746e+00
6.255000000000000000e+03 1.583106422424316406e+01 -1.053728866577148438e+01 1.357684135437011719e+00 2.052439689636230469e+00 1.023037195205688477e+00 8.989216089248657227e-01
6.256000000000000000e+03 3.606417083740234375e+01 4.567282676696777344e+00 1.983235239982604980e+00 1.466955089569091797e+01 4.995835781097412109e+00 9.060289263725280762e-01
6.257000000000000000e+03 4.148679351806640625e+01 -2.276433753967285156e+01 1.899730682373046875e+00 8.621445655822753906e+00 3.156352996826171875e+00 -1.015230894088745117e+00
6.258000000000000000e+03 3.054787063598632812e+01 -3.207561492919921875e+00 1.567418456077575684e+00 2.777067422866821289e+00 1.303345799446105957e+00 1.477340459823608398e+00
6.259000000000000000e+03 2.486674308776855469e+01 -3.390612030029296875e+01 -2.766393125057220459e-01 2.841266095638275146e-01 2.246195217594504356e-03 1.432682275772094727e-01
6.260000000000000000e+03 3.655691146850585938e+01 1.150284957885742188e+01 9.691967368125915527e-01 1.150891017913818359e+01 3.743432044982910156e+00 -3.105277419090270996e-01
6.261000000000000000e+03 3.714353942871093750e+01 -1.013835620880126953e+01 -1.705143094062805176e+00 8.974801063537597656e+00 2.180897474288940430e+00 -8.988885879516601562e-01
6.262000000000000000e+03 1.304532623291015625e+01 2.262165260314941406e+01 -2.348059564828872681e-01 8.445145934820175171e-02 -4.510635137557983398e-02 6.577961146831512451e-02
6.263000000000000000e+03 3.250557327270507812e+01 -2.640063524246215820e+00 1.139009475708007812e+00 5.922347545623779297e+00 2.118407249450683594e+00 1.047674298286437988e+00
6.264000000000000000e+03 3.272154235839843750e+01 -1.838939309120178223e+00 1.759645938873291016e+00 6.815172195434570312e+00 2.572445392608642578e+00 1.418354272842407227e+00
6.265000000000000000e+03 1.571638679504394531e+01 3.001500129699707031e+01 1.156447678804397583e-01 2.904715836048126221e-01 1.218349039554595947e-01 3.924550022929906845e-03
6.266000000000000000e+03 6.181256103515625000e+01 2.730944442749023438e+01 -3.584587872028350830e-01 4.860629081726074219e+00 1.350651144981384277e+00 -1.200347304344177246e+00
6.267000000000000000e+03 4.623256301879882812e+01 -3.350015640258789062e+01 -8.695287704467773438e-01 5.105768203735351562e+00 1.270871877670288086e+00 -1.376111984252929688e+00
6.268000000000000000e+03 4.203264236450195312e+01 -3.289879989624023438e+01 -1.021128296852111816e+00 6.195901870727539062e+00 1.552432060241699219e+00 -2.112374007701873779e-01
6.269000000000000000e+03 1.888396835327148438e+01 -3.003906059265136719e+01 -6.905459761619567871e-01 5.244461297988891602e-01 -4.982995241880416870e-02 -1.451644599437713623e-01
6.270000000000000000e+03 1.120651435852050781e+01 1.450846195220947266e+01 -9.288609959185123444e-03 -6.110950838774442673e-03 -4.619868006557226181e-03 -3.350373823195695877e-03
6.271000000000000000e+03 7.737601470947265625e+01 3.234127807617187500e+01 -3.543227165937423706e-02 6.911918163299560547e+00 2.062945842742919922e+00 1.250054836273193359e-01
6.272000000000000000e+03 6.127595901489257812e+01 -1.057412719726562500e+01 -2.075793027877807617e+00 5.265777707099914551e-01 -4.647645652294158936e-01 1.507271975278854370e-01
6.273000000000000000e+03 1.162093162536621094e+01 -1.828038978576660156e+01 7.842139005661010742e-01 2.366872787475585938e+00 9.453259706497192383e-01 5.910876393318176270e-01
6.274000000000000000e+03 4.037408828735351562e+01 -1.966810798645019531e+01 1.774822950363159180e+00 8.594883918762207031e+00 3.110912084579467773e+00 -9.936286807060241699e-01
6.275000000000000000e+03 1.244886302947998047e+01 -2.754541015625000000e+01 -4.852361679077148438e-01 1.263483166694641113e+00 2.334740906953811646e-01 2.565586268901824951e-01
6.276000000000000000e+03 1.026762294769287109e+01 -1.808409118652343750e+01 7.867437005043029785e-01 1.594238638877868652e+00 7.142947316169738770e-01 5.662018060684204102e-01
6.277000000000000000e+03 9.194109916687011719e+00 -1.378177547454833984e+01 8.994100689888000488e-01 8.140456676483154297e-01 5.140367150306701660e-01 -1.229783520102500916e-03
6.278000000000000000e+03 4.348131179809570312e+01 -6.313166618347167969e+00 -1.627846598625183105e+00 3.308390378952026367e+00 5.041630864143371582e-01 -1.483925938606262207e+00
6.279000000000000000e+03 4.260268402099609375e+01 -6.793138027191162109e+00 -1.771872401237487793e+00 4.878026962280273438e+00 9.318463802337646484e-01 -1.782924652099609375e+00
6.280000000000000000e+03 1.445300197601318359e+01 -1.048871421813964844e+01 1.109186530113220215e+00 1.964499711990356445e+00 9.221058487892150879e-01 4.959122240543365479e-01
6.281000000000000000e+03 7.486571502685546875e+01 3.090584754943847656e+01 -1.127695068717002869e-01 6.687341690063476562e+00 1.972371697425842285e+00 2.231347858905792236e-01
6.282000000000000000e+03 5.237712383270263672e+00 -6.067848682403564453e+00 -7.424397021532058716e-02 -1.964368522167205811e-01 -8.120425045490264893e-02 -6.204296350479125977e-01
6.283000000000000000e+03 5.586309909820556641e+00 -6.381669521331787109e+00 -5.809009820222854614e-02 -1.684499979019165039e-01 -6.796202808618545532e-02 -6.341325640678405762e-01
6.284000000000000000e+03 5.155932426452636719e+00 -6.527353286743164062e+00 -4.116118326783180237e-02 -2.242341488599777222e-01 -7.961860299110412598e-02 -6.224850416183471680e-01
6.285000000000000000e+03 3.396421909332275391e+00 5.362277507781982422e+00 4.914361634291708469e-04 2.595790720079094172e-04 2.253045677207410336e-04 -1.367517863400280476e-03
6.286000000000000000e+03 6.229062652587890625e+01 2.356487464904785156e+01 -6.292295455932617188e-01 6.302610397338867188e+00 1.702014207839965820e+00 -1.396669149398803711e+00
6.287000000000000000e+03 4.511550903320312500e+01 -8.118429183959960938e+00 -9.234228730201721191e-01 2.434054851531982422e+00 4.531895816326141357e-01 -3.232302367687225342e-01
6.288000000000000000e+03 7.719039154052734375e+01 -3.510856628417968750e+01 -6.154807657003402710e-02 9.803095817565917969e+00 2.922464370727539062e+00 -1.310137659311294556e-01
6.289000000000000000e+03 7.543092346191406250e+01 -3.493585586547851562e+01 -1.854412853717803955e-01 9.073657035827636719e+00 2.666464567184448242e+00 -9.696784615516662598e-02
6.290000000000000000e+03 4.052719116210937500e+01 -2.061220359802246094e+01 1.838125348091125488e+00 8.585898399353027344e+00 3.127207279205322266e+00 -9.173983931541442871e-01
6.291000000000000000e+03 6.984856414794921875e+01 -1.278487586975097656e+01 -9.890267252922058105e-01 1.041708755493164062e+01 2.828418016433715820e+00 -5.095047950744628906e-01
6.292000000000000000e+03 8.432370185852050781e+00 3.324170684814453125e+01 7.127480953931808472e-02 1.600819453597068787e-02 2.618490159511566162e-02 1.225968375802040100e-01
6.293000000000000000e+03 1.059920406341552734e+01 -1.181908798217773438e+01 9.019084572792053223e-01 1.100820541381835938e+00 6.008186936378479004e-01 -1.330843269824981689e-01
6.294000000000000000e+03 1.046064472198486328e+01 -1.112601089477539062e+01 7.835757732391357422e-01 9.824065566062927246e-01 5.297946929931640625e-01 -2.195132076740264893e-01
6.295000000000000000e+03 3.522362899780273438e+01 -2.475100040435791016e+00 2.021992653608322144e-01 9.297914505004882812e+00 2.850034236907958984e+00 -2.301598787307739258e-01
6.296000000000000000e+03 4.243947982788085938e+01 -1.832807731628417969e+01 1.702588915824890137e+00 8.329954147338867188e+00 3.009763002395629883e+00 -6.822168827056884766e-01
6.297000000000000000e+03 6.521084594726562500e+01 2.167313385009765625e+01 1.066223755478858948e-01 7.622133255004882812e+00 2.318626642227172852e+00 -9.593308717012405396e-02
6.298000000000000000e+03 9.789623260498046875e+00 1.783092498779296875e+01 -6.161623448133468628e-02 1.205425895750522614e-02 -1.486859284341335297e-02 -3.260892350226640701e-03
6.299000000000000000e+03 1.795884132385253906e+01 4.936857223510742188e+00 -4.097891360288485885e-05 2.563323942013084888e-04 6.460604345193132758e-05 1.289495703531429172e-04
6.300000000000000000e+03 3.613950729370117188e+01 -7.721402645111083984e+00 -2.868595123291015625e+00 8.941700935363769531e+00 1.821931838989257812e+00 -1.099002480506896973e+00
6.301000000000000000e+03 2.327327346801757812e+01 2.562288284301757812e+01 2.033757865428924561e-01 5.990662574768066406e-01 2.407326102256774902e-01 -6.840384602546691895e-01
6.302000000000000000e+03 6.700356292724609375e+01 1.486788558959960938e+01 1.122782707214355469e+00 8.136580467224121094e+00 2.777809143066406250e+00 -3.430015146732330322e-01
6.303000000000000000e+03 5.574689102172851562e+01 -7.906558036804199219e+00 -4.283808767795562744e-01 1.385786652565002441e+00 2.872217297554016113e-01 1.324869513511657715e+00
6.304000000000000000e+03 4.044310760498046875e+01 -1.874603271484375000e+01 1.679332852363586426e+00 8.526325225830078125e+00 3.061697483062744141e+00 -1.074253320693969727e+00
6.305000000000000000e+03 6.401046752929687500e+01 -3.141781806945800781e+01 -8.049754500389099121e-01 2.428405761718750000e+00 4.870290756225585938e-01 8.631085157394409180e-01
6.306000000000000000e+03 1.532989597320556641e+01 -2.786151695251464844e+01 -5.244631767272949219e-01 1.086651325225830078e+00 1.686564385890960693e-01 -4.020970314741134644e-02
6.307000000000000000e+03 1.419642925262451172e+01 -2.857248878479003906e+01 -5.583870410919189453e-01 1.151816964149475098e+00 1.780289709568023682e-01 5.913718044757843018e-02
6.308000000000000000e+03 5.420081329345703125e+01 -9.789525032043457031e+00 -6.550743579864501953e-01 9.433720111846923828e-01 8.648928999900817871e-02 1.564549803733825684e+00
6.309000000000000000e+03 1.044550609588623047e+01 -2.905230140686035156e+01 -4.334130883216857910e-01 1.022032022476196289e+00 1.765856742858886719e-01 3.646230995655059814e-01
6.310000000000000000e+03 6.693560791015625000e+01 1.418656253814697266e+01 1.071277379989624023e+00 8.218872070312500000e+00 2.787044763565063477e+00 -3.506024479866027832e-01
6.311000000000000000e+03 3.819214248657226562e+01 -8.870035171508789062e+00 -2.343664407730102539e+00 8.843624114990234375e+00 1.949987769126892090e+00 -1.153014540672302246e+00
6.312000000000000000e+03 4.895882034301757812e+01 -1.091323947906494141e+01 1.262159049510955811e-01 1.333079218864440918e+00 4.377885460853576660e-01 1.637214303016662598e+00
6.313000000000000000e+03 4.121973419189453125e+01 -2.540195655822753906e+01 1.567058920860290527e+00 7.916538715362548828e+00 2.845079421997070312e+00 -6.453414559364318848e-01
6.314000000000000000e+03 5.483859252929687500e+01 -1.061568355560302734e+01 -8.203469514846801758e-01 8.041577935218811035e-01 -4.856746178120374680e-03 1.275622010231018066e+00
6.315000000000000000e+03 1.087643051147460938e+01 -1.033827114105224609e+01 6.919212937355041504e-01 1.000045180320739746e+00 5.075899362564086914e-01 -2.448969036340713501e-01
6.316000000000000000e+03 1.073909187316894531e+01 1.131903839111328125e+01 -4.410743713378906250e-04 -3.880441654473543167e-03 -1.296454807743430138e-03 2.168280305340886116e-03
6.317000000000000000e+03 4.669660568237304688e+00 -6.512324333190917969e+00 -3.208831697702407837e-02 -2.844437360763549805e-01 -9.495961666107177734e-02 -6.014019250869750977e-01
6.318000000000000000e+03 5.204881191253662109e+00 -7.055555820465087891e+00 4.866231698542833328e-03 -2.381067126989364624e-01 -6.997214257717132568e-02 -6.274912953376770020e-01
6.319000000000000000e+03 3.888201904296875000e+01 1.630540275573730469e+01 4.965200722217559814e-01 7.378980159759521484e+00 2.362650156021118164e+00 1.072559714317321777e+00
6.320000000000000000e+03 2.039930725097656250e+01 2.777183723449707031e+01 1.749932765960693359e-01 4.187401831150054932e-01 1.781200319528579712e-01 -3.309656977653503418e-01
6.321000000000000000e+03 4.102492523193359375e+01 -2.141440391540527344e+01 1.875637650489807129e+00 8.588450431823730469e+00 3.139226436614990234e+00 -9.350184202194213867e-01
6.322000000000000000e+03 3.955778884887695312e+01 -9.903447151184082031e+00 -1.620958685874938965e+00 8.075531005859375000e+00 1.936371684074401855e+00 -1.124127268791198730e+00
6.323000000000000000e+03 3.597890853881835938e+01 -2.644041776657104492e+00 -8.064248412847518921e-02 9.795608520507812500e+00 2.914489746093750000e+00 -5.802243947982788086e-01
6.324000000000000000e+03 1.427824401855468750e+01 -7.907181739807128906e+00 3.172188997268676758e-01 1.268457770347595215e+00 4.757030010223388672e-01 2.493823915719985962e-01
6.325000000000000000e+03 4.478086471557617188e+01 2.232841873168945312e+01 -5.895803123712539673e-02 3.144798517227172852e+00 9.257521629333496094e-01 1.586050033569335938e+00
6.326000000000000000e+03 4.340930557250976562e+01 2.226724052429199219e+01 -7.810782641172409058e-02 3.771387100219726562e+00 1.107983827590942383e+00 1.617423892021179199e+00
6.327000000000000000e+03 3.903873443603515625e+01 -2.362726211547851562e+01 1.636670231819152832e+00 7.935729980468750000e+00 2.871720075607299805e+00 -3.698772192001342773e-01
6.328000000000000000e+03 5.431083297729492188e+01 -1.048227596282958984e+01 -6.974235177040100098e-01 7.641258239746093750e-01 2.001069672405719757e-02 1.420366168022155762e+00
6.329000000000000000e+03 7.617657184600830078e+00 -2.234885406494140625e+01 1.493608802556991577e-01 7.080910801887512207e-01 2.572355866432189941e-01 7.093414664268493652e-01
6.330000000000000000e+03 7.892216682434082031e+00 -1.180710601806640625e+01 5.820806026458740234e-01 3.088174164295196533e-01 2.672694027423858643e-01 -3.412929177284240723e-01
6.331000000000000000e+03 7.133335113525390625e+01 2.686009788513183594e+01 -2.359880059957504272e-01 6.717166423797607422e+00 1.944353580474853516e+00 3.132390677928924561e-01
6.332000000000000000e+03 3.956159973144531250e+01 -2.090160560607910156e+01 1.766912102699279785e+00 8.582491874694824219e+00 3.104821205139160156e+00 -8.090130686759948730e-01
6.333000000000000000e+03 6.538831329345703125e+01 -4.938877105712890625e+00 -2.420512437820434570e-01 4.231938362121582031e+00 1.196966171264648438e+00 -1.204313397407531738e+00
6.334000000000000000e+03 4.303712844848632812e+01 -8.309256553649902344e+00 -1.329481363296508789e+00 4.796234130859375000e+00 1.040025830268859863e+00 -1.207769989967346191e+00
6.335000000000000000e+03 6.778661346435546875e+01 -2.777201843261718750e+01 -9.525651335716247559e-01 6.275381088256835938e+00 1.596844792366027832e+00 9.876069426536560059e-01
6.336000000000000000e+03 5.463844680786132812e+01 -1.011882877349853516e+01 -7.687937617301940918e-01 9.268954992294311523e-01 4.743051901459693909e-02 1.415906786918640137e+00
6.337000000000000000e+03 7.966089248657226562e+00 3.243995666503906250e+01 5.145791545510292053e-02 -9.285301901400089264e-03 1.265178434550762177e-02 1.312654912471771240e-01
6.338000000000000000e+03 7.644709587097167969e+00 2.424317741394042969e+01 -7.030803710222244263e-02 1.731090620160102844e-02 -1.589914038777351379e-02 1.175006479024887085e-01
6.339000000000000000e+03 5.598783493041992188e+00 -2.458543968200683594e+01 -3.147599101066589355e-02 2.610578238964080811e-01 6.887454539537429810e-02 6.430968642234802246e-01
6.340000000000000000e+03 4.375631332397460938e+01 -9.080744743347167969e+00 -9.673932790756225586e-01 4.314670085906982422e+00 1.004182934761047363e+00 -7.773962616920471191e-01
6.341000000000000000e+03 1.887943267822265625e+01 -7.176057815551757812e+00 3.718829452991485596e-01 9.569821953773498535e-01 3.986595273017883301e-01 1.187887549400329590e+00
6.342000000000000000e+03 6.834171295166015625e+01 1.453146648406982422e+01 1.020665645599365234e+00 7.641751766204833984e+00 2.598725318908691406e+00 -2.963759005069732666e-01
6.343000000000000000e+03 1.587707138061523438e+01 5.155644893646240234e+00 -2.823989198077470064e-04 6.892782403156161308e-04 1.220638005179353058e-04 6.226007244549691677e-04
6.344000000000000000e+03 5.791128158569335938e+01 -6.800288200378417969e+00 -9.485223144292831421e-02 1.507190465927124023e+00 4.237014949321746826e-01 9.613633155822753906e-01
6.345000000000000000e+03 5.767069244384765625e+01 -7.656631469726562500e+00 -3.694075942039489746e-01 1.348538398742675781e+00 2.937392294406890869e-01 9.880355000495910645e-01
6.346000000000000000e+03 5.936253738403320312e+01 -1.586598157882690430e+00 9.933228492736816406e-01 2.761415958404541016e+00 1.126421689987182617e+00 1.094897270202636719e+00
6.347000000000000000e+03 4.637254238128662109e+00 2.939328765869140625e+01 4.727585241198539734e-03 -1.250054836273193359e-01 -3.608337044715881348e-02 1.166307479143142700e-01
6.348000000000000000e+03 5.252062320709228516e+00 2.966744232177734375e+01 8.737000636756420135e-03 -1.024376451969146729e-01 -2.811019308865070343e-02 1.301020085811614990e-01
6.349000000000000000e+03 6.923110961914062500e+01 2.342816734313964844e+01 -7.629846036434173584e-02 7.001408100128173828e+00 2.077532768249511719e+00 3.435928821563720703e-01
6.350000000000000000e+03 6.960603332519531250e+01 -7.662086486816406250e+00 -1.438722252845764160e+00 7.287299156188964844e+00 1.754573106765747070e+00 -1.498422741889953613e+00
6.351000000000000000e+03 6.861363983154296875e+01 1.070428276062011719e+01 8.070930242538452148e-01 7.507637023925781250e+00 2.494419097900390625e+00 -5.372697114944458008e-01
6.352000000000000000e+03 6.854595947265625000e+01 2.378166770935058594e+01 -1.417665779590606689e-01 7.046333789825439453e+00 2.071370124816894531e+00 2.831558585166931152e-01
6.353000000000000000e+03 4.226650238037109375e+01 -8.733631134033203125e+00 -1.475169181823730469e+00 5.807491779327392578e+00 1.299696803092956543e+00 -1.322071433067321777e+00
6.354000000000000000e+03 7.065610504150390625e+01 2.561039733886718750e+01 -2.242729067802429199e-01 6.792467594146728516e+00 1.970458388328552246e+00 3.275703787803649902e-01
6.355000000000000000e+03 7.417787933349609375e+01 -1.346571254730224609e+01 1.064562574028968811e-01 9.335669517517089844e+00 2.832637786865234375e+00 9.521947503089904785e-01
6.356000000000000000e+03 7.462184143066406250e+01 -1.376361846923828125e+01 1.757170706987380981e-01 9.184847831726074219e+00 2.808169603347778320e+00 9.448560476303100586e-01
6.357000000000000000e+03 7.375757598876953125e+01 -1.310679244995117188e+01 -1.100155189633369446e-01 9.482103347778320312e+00 2.811626195907592773e+00 8.875862360000610352e-01
6.358000000000000000e+03 7.114628601074218750e+01 2.387095451354980469e+01 -6.567695736885070801e-02 6.851696968078613281e+00 2.035805940628051758e+00 4.333268105983734131e-01
6.359000000000000000e+03 5.791977310180664062e+01 -8.315749168395996094e+00 -6.053585410118103027e-01 1.229018330574035645e+00 1.870979517698287964e-01 9.189029335975646973e-01
6.360000000000000000e+03 6.120882797241210938e+01 -5.366323471069335938e+00 2.275282591581344604e-01 2.196136951446533203e+00 7.270995378494262695e-01 1.726966351270675659e-01
6.361000000000000000e+03 9.403500556945800781e+00 -9.274520874023437500e+00 4.066048562526702881e-01 5.382573604583740234e-01 2.834586501121520996e-01 -4.640095531940460205e-01
6.362000000000000000e+03 6.768469238281250000e+01 1.472974586486816406e+01 1.072010278701782227e+00 7.930114746093750000e+00 2.700637578964233398e+00 -3.094520568847656250e-01
6.363000000000000000e+03 7.462003231048583984e+00 2.906452369689941406e+01 1.871522981673479080e-03 -2.148267813026905060e-02 -5.883346777409315109e-03 1.482659876346588135e-01
6.364000000000000000e+03 5.999215698242187500e+01 -6.744568824768066406e+00 -8.426649868488311768e-02 1.618837118148803711e+00 4.603711962699890137e-01 4.707725346088409424e-01
6.365000000000000000e+03 9.728156089782714844e+00 -8.554002761840820312e+00 2.926140725612640381e-01 5.429021716117858887e-01 2.506548762321472168e-01 -4.746363461017608643e-01
6.366000000000000000e+03 6.565618896484375000e+01 -4.061537265777587891e+00 -1.797395944595336914e-01 4.579899311065673828e+00 1.320047974586486816e+00 -1.107616186141967773e+00
6.367000000000000000e+03 7.617566680908203125e+01 -1.726421737670898438e+01 6.482301950454711914e-01 8.321064949035644531e+00 2.690788745880126953e+00 2.422993779182434082e-01
6.368000000000000000e+03 7.150735473632812500e+01 -2.725341987609863281e+01 -8.864432573318481445e-01 8.860004425048828125e+00 2.392068386077880859e+00 -4.185782968997955322e-01
6.369000000000000000e+03 7.481568908691406250e+01 -2.079052734375000000e+01 8.549082279205322266e-01 9.107172012329101562e+00 2.988624095916748047e+00 -8.336460590362548828e-01
6.370000000000000000e+03 6.208643341064453125e+01 -1.438387274742126465e+00 5.337015390396118164e-01 3.781158924102783203e+00 1.294458150863647461e+00 3.408722281455993652e-01
6.371000000000000000e+03 1.018104553222656250e+01 7.933902263641357422e+00 8.002353133633732796e-04 -2.211408922448754311e-03 -4.233520885463804007e-04 1.612321939319372177e-03
6.372000000000000000e+03 7.559855651855468750e+01 -1.342701244354248047e+01 6.454199552536010742e-02 8.773480415344238281e+00 2.651406764984130859e+00 9.277164936065673828e-01
6.373000000000000000e+03 7.311273956298828125e+01 2.541293907165527344e+01 -1.065671890974044800e-01 6.711917400360107422e+00 1.981605052947998047e+00 4.246108829975128174e-01
6.374000000000000000e+03 7.906744480133056641e+00 2.979130935668945312e+01 1.518127974122762680e-02 -8.861705660820007324e-03 1.895872410386800766e-03 1.488062888383865356e-01
6.375000000000000000e+03 6.082556152343750000e+01 -6.545150756835937500e+00 -2.722646296024322510e-02 1.757727384567260742e+00 5.191502571105957031e-01 2.523131370544433594e-01
6.376000000000000000e+03 6.746694087982177734e+00 -1.886613082885742188e+01 4.128676950931549072e-01 2.805803418159484863e-01 2.080343961715698242e-01 4.859465360641479492e-01
6.377000000000000000e+03 5.539273738861083984e+00 2.750855255126953125e+01 -1.367033086717128754e-02 -6.419388949871063232e-02 -2.335926517844200134e-02 1.286576092243194580e-01
6.378000000000000000e+03 5.985488891601562500e+01 -5.696467399597167969e+00 1.900993138551712036e-01 1.870608091354370117e+00 6.182122230529785156e-01 5.452432036399841309e-01
6.379000000000000000e+03 7.006655120849609375e+01 1.409951400756835938e+01 8.587195873260498047e-01 7.240054130554199219e+00 2.429632186889648438e+00 -2.941333353519439697e-01
6.380000000000000000e+03 4.158132171630859375e+01 -1.504254913330078125e+01 7.770820260047912598e-01 7.565584659576416016e+00 2.502799987792968750e+00 -8.441541194915771484e-01
6.381000000000000000e+03 7.547180938720703125e+01 -1.276310443878173828e+01 -8.829081803560256958e-02 8.850903511047363281e+00 2.628783941268920898e+00 9.020564556121826172e-01
6.382000000000000000e+03 4.078608703613281250e+01 -1.179331684112548828e+01 -5.166313648223876953e-01 7.340145111083984375e+00 2.047054290771484375e+00 -9.234112501144409180e-01
6.383000000000000000e+03 5.982266235351562500e+01 -6.285417556762695312e+00 7.873871177434921265e-02 1.741709470748901367e+00 5.461344718933105469e-01 5.475926995277404785e-01
6.384000000000000000e+03 7.100246429443359375e+01 -2.709999275207519531e+01 -9.186668395996093750e-01 8.793486595153808594e+00 2.362446069717407227e+00 -2.556006014347076416e-01
6.385000000000000000e+03 6.188949203491210938e+01 -4.525861740112304688e-01 5.833224058151245117e-01 4.027022838592529297e+00 1.383103489875793457e+00 5.694202184677124023e-01
6.386000000000000000e+03 5.955267333984375000e+01 -2.695226669311523438e+00 8.217684626579284668e-01 2.562404632568359375e+00 1.015251994132995605e+00 8.516054749488830566e-01
6.387000000000000000e+03 6.050450515747070312e+01 -3.030467987060546875e+00 6.638812422752380371e-01 2.752933502197265625e+00 1.025044441223144531e+00 6.163389086723327637e-01
6.388000000000000000e+03 7.143445587158203125e+01 -2.669038009643554688e+01 -8.064569830894470215e-01 9.048993110656738281e+00 2.472760915756225586e+00 -4.586284458637237549e-01
6.389000000000000000e+03 5.315356254577636719e+00 2.190081787109375000e+01 -4.099847003817558289e-02 -1.417022477835416794e-02 -1.655060797929763794e-02 6.711445003747940063e-02
6.390000000000000000e+03 7.480034637451171875e+01 2.268252182006835938e+01 3.973177447915077209e-02 6.559410572052001953e+00 1.979742646217346191e+00 4.338560998439788818e-01
6.391000000000000000e+03 5.919327926635742188e+01 -2.455990314483642578e+00 9.428763389587402344e-01 2.507145166397094727e+00 1.035006523132324219e+00 1.028710126876831055e+00
6.392000000000000000e+03 6.273981857299804688e+01 -2.750024795532226562e-01 4.651877582073211670e-01 4.414837360382080078e+00 1.464007496833801270e+00 2.794775962829589844e-01
6.393000000000000000e+03 7.053092956542968750e+01 1.205893230438232422e+01 7.314338684082031250e-01 7.171154022216796875e+00 2.370776414871215820e+00 -4.907028377056121826e-01
6.394000000000000000e+03 5.640792369842529297e+00 1.550430870056152344e+01 -1.507267355918884277e-02 -3.222319297492504120e-03 -5.488498136401176453e-03 5.585521925240755081e-03
6.395000000000000000e+03 7.354265594482421875e+01 2.091625976562500000e+01 1.822978407144546509e-01 6.643726825714111328e+00 2.047807455062866211e+00 4.120953977108001709e-01
6.396000000000000000e+03 7.567168426513671875e+01 -1.920422363281250000e+01 7.812622785568237305e-01 8.580665588378906250e+00 2.808578252792358398e+00 -3.833340704441070557e-01
6.397000000000000000e+03 7.448664093017578125e+01 -2.729540061950683594e+01 -4.718052446842193604e-01 9.161918640136718750e+00 2.607034206390380859e+00 -9.922404289245605469e-01
6.398000000000000000e+03 7.000946807861328125e+01 -3.865970611572265625e+00 -6.654399633407592773e-01 6.813014984130859375e+00 1.844272613525390625e+00 -1.290967106819152832e+00
6.399000000000000000e+03 7.084887695312500000e+01 8.708841323852539062e+00 5.278615951538085938e-01 7.071099758148193359e+00 2.279688358306884766e+00 -7.812616825103759766e-01
6.400000000000000000e+03 7.293348693847656250e+01 -2.811027526855468750e+00 -4.658692479133605957e-01 7.523373603820800781e+00 2.117251396179199219e+00 -9.705693125724792480e-01
6.401000000000000000e+03 6.972068786621093750e+01 8.331063270568847656e+00 5.741094946861267090e-01 7.169425964355468750e+00 2.323060512542724609e+00 -7.615625858306884766e-01
6.402000000000000000e+03 6.424308776855468750e+01 1.994036674499511719e+00 3.527407944202423096e-01 5.708906173706054688e+00 1.818494081497192383e+00 -2.304266393184661865e-02
6.403000000000000000e+03 6.376710510253906250e+01 2.093951553106307983e-01 3.465864658355712891e-01 4.982390403747558594e+00 1.598693132400512695e+00 -2.169980667531490326e-03
6.404000000000000000e+03 7.041074371337890625e+01 -1.837820291519165039e+00 -3.796965479850769043e-01 6.808982372283935547e+00 1.928785800933837891e+00 -1.205248355865478516e+00
6.405000000000000000e+03 7.246399688720703125e+01 1.069017601013183594e+01 5.061152577400207520e-01 6.888357639312744141e+00 2.218341827392578125e+00 -6.112557649612426758e-01
6.406000000000000000e+03 7.010951232910156250e+01 7.195729732513427734e+00 4.608361124992370605e-01 7.071455478668212891e+00 2.259687423706054688e+00 -8.539772033691406250e-01
6.407000000000000000e+03 7.049580383300781250e+01 7.929442882537841797e+00 4.944342076778411865e-01 7.078635215759277344e+00 2.271920919418334961e+00 -8.229825496673583984e-01
6.408000000000000000e+03 7.126031494140625000e+01 7.445335865020751953e+00 4.083248078823089600e-01 7.009801387786865234e+00 2.225437879562377930e+00 -8.745067715644836426e-01
6.409000000000000000e+03 6.895494079589843750e+01 6.995370388031005859e+00 5.101293921470642090e-01 7.118254184722900391e+00 2.288515090942382812e+00 -7.796097993850708008e-01
6.410000000000000000e+03 7.304442596435546875e+01 -6.400300264358520508e-01 -2.370942980051040649e-01 7.327343463897705078e+00 2.127074718475341797e+00 -1.040015935897827148e+00
6.411000000000000000e+03 7.063129425048828125e+01 1.159935593605041504e+00 -6.884215027093887329e-02 6.842270374298095703e+00 2.032028436660766602e+00 -1.131346821784973145e+00
6.412000000000000000e+03 7.259151458740234375e+01 -7.402820587158203125e-01 -2.580755949020385742e-01 7.254318237304687500e+00 2.098872900009155273e+00 -1.075239896774291992e+00
6.413000000000000000e+03 7.285186767578125000e+01 7.968435764312744141e+00 3.325576186180114746e-01 6.920440673828125000e+00 2.175899505615234375e+00 -8.291251063346862793e-01
6.414000000000000000e+03 6.913061523437500000e+01 2.802011966705322266e+00 1.369409710168838501e-01 6.704745769500732422e+00 2.052505970001220703e+00 -9.853288531303405762e-01
6.415000000000000000e+03 6.774954223632812500e+01 2.632643461227416992e+00 1.882854253053665161e-01 6.515146732330322266e+00 2.011029720306396484e+00 -8.192006349563598633e-01
6.416000000000000000e+03 6.865647125244140625e+01 2.455708742141723633e+00 1.289261728525161743e-01 6.615337848663330078e+00 2.023279190063476562e+00 -9.581099748611450195e-01
6.417000000000000000e+03 7.290554046630859375e+01 6.248600482940673828e-01 -1.301400512456893921e-01 7.217294216156005859e+00 2.126146316528320312e+00 -1.065844058990478516e+00
6.418000000000000000e+03 6.945086669921875000e+01 3.196546792984008789e+00 1.644325703382492065e-01 6.799263954162597656e+00 2.089108943939208984e+00 -1.004177808761596680e+00
6.419000000000000000e+03 7.199699401855468750e+01 3.931809425354003906e+00 1.262844949960708618e-01 7.005358219146728516e+00 2.139492750167846680e+00 -1.049390673637390137e+00
6.420000000000000000e+03 1.037684440612792969e+01 -3.884835243225097656e-01 -1.633718609809875488e+00 -1.245108433067798615e-04 -4.901529252529144287e-01 -7.638505846261978149e-02
6.421000000000000000e+03 1.189073276519775391e+01 -1.121461629867553711e+00 -1.534282207489013672e+00 1.937482692301273346e-02 -4.544721841812133789e-01 -1.429023593664169312e-01
6.422000000000000000e+03 1.038032817840576172e+01 -1.128475308418273926e+00 -1.361315250396728516e+00 1.561257895082235336e-02 -4.037107825279235840e-01 -1.920915395021438599e-01
6.423000000000000000e+03 1.264584636688232422e+01 -1.117530822753906250e+00 -1.573041558265686035e+00 1.289915759116411209e-02 -4.680427312850952148e-01 -1.080005168914794922e-01
6.424000000000000000e+03 1.188046455383300781e+01 -3.815026283264160156e-01 -1.865698099136352539e+00 2.059378894045948982e-03 -5.590916275978088379e-01 -6.228871643543243408e-02
6.425000000000000000e+03 1.263218593597412109e+01 -3.775882422924041748e-01 -1.962705731391906738e+00 -2.793154912069439888e-03 -5.896496772766113281e-01 -6.213690713047981262e-02
6.426000000000000000e+03 1.112868118286132812e+01 -3.851337432861328125e-01 -1.757621765136718750e+00 5.011194385588169098e-03 -5.257831811904907227e-01 -7.054176181554794312e-02
6.427000000000000000e+03 1.113555717468261719e+01 -1.125109195709228516e+00 -1.457624912261962891e+00 1.826446503400802612e-02 -4.318081438541412354e-01 -1.669408828020095825e-01
6.428000000000000000e+03 8.846968650817871094e+00 -3.897767066955566406e-01 -1.324380159378051758e+00 -3.193042648490518332e-04 -3.974098265171051025e-01 -8.333877474069595337e-02
6.429000000000000000e+03 8.848549842834472656e+00 -1.129776716232299805e+00 -1.127489447593688965e+00 8.789564482867717743e-03 -3.356099724769592285e-01 -2.262136638164520264e-01
6.430000000000000000e+03 9.616287231445312500e+00 -3.899540305137634277e-01 -1.487946748733520508e+00 3.047907724976539612e-03 -4.454696476459503174e-01 -8.025114238262176514e-02
6.431000000000000000e+03 8.077320098876953125e+00 -3.895331025123596191e-01 -1.153855323791503906e+00 2.153646200895309448e-03 -3.455105125904083252e-01 -8.569160103797912598e-02
6.432000000000000000e+03 7.307513236999511719e+00 -3.895078003406524658e-01 -9.796394109725952148e-01 -1.963847549632191658e-03 -2.944809794425964355e-01 -8.615955710411071777e-02
6.433000000000000000e+03 6.538012981414794922e+00 -3.896191120147705078e-01 -8.056538105010986328e-01 5.669261736329644918e-05 -2.416791468858718872e-01 -8.459157496690750122e-02
6.434000000000000000e+03 5.768679141998291016e+00 -3.896506428718566895e-01 -6.365588903427124023e-01 -3.872349625453352928e-03 -1.921293735504150391e-01 -8.088719844818115234e-02
6.435000000000000000e+03 4.999370574951171875e+00 -3.896599709987640381e-01 -4.769168496131896973e-01 -2.404071157798171043e-03 -1.437962800264358521e-01 -7.472716271877288818e-02
6.436000000000000000e+03 4.230067253112792969e+00 -3.896633982658386230e-01 -3.319607973098754883e-01 -5.961563903838396072e-03 -1.013767123222351074e-01 -6.624922901391983032e-02
6.437000000000000000e+03 3.460767269134521484e+00 -3.896674811840057373e-01 -2.072363048791885376e-01 -5.435574799776077271e-03 -6.380156427621841431e-02 -5.468425527215003967e-02
6.438000000000000000e+03 2.691480636596679688e+00 -3.896792829036712646e-01 -1.085285246372222900e-01 -8.007123135030269623e-03 -3.496069461107254028e-02 -4.084160923957824707e-02
6.439000000000000000e+03 1.922263860702514648e+00 -3.897165060043334961e-01 -4.129380732774734497e-02 -8.278174325823783875e-03 -1.487159449607133865e-02 -2.407445758581161499e-02
6.440000000000000000e+03 1.153409719467163086e+00 -3.898416459560394287e-01 -8.250361308455467224e-03 -7.399019319564104080e-03 -4.694814328104257584e-03 -7.780137937515974045e-03
6.441000000000000000e+03 3.845674097537994385e-01 -3.899692595005035400e-01 -1.033281660056672990e-04 -6.681335798930376768e-05 -5.104245792608708143e-05 -8.691012772032991052e-05
6.442000000000000000e+03 3.846361637115478516e-01 -1.129969239234924316e+00 -7.416776381433010101e-03 -7.328446954488754272e-03 -4.423567093908786774e-03 -7.376716006547212601e-03
6.443000000000000000e+03 9.618005752563476562e+00 -1.129953980445861816e+00 -1.250535011291503906e+00 9.907507337629795074e-03 -3.721882402896881104e-01 -2.121066600084304810e-01
6.444000000000000000e+03 8.078763961791992188e+00 -1.129533052444458008e+00 -9.948316812515258789e-01 2.480742055922746658e-03 -2.977052927017211914e-01 -2.339383512735366821e-01
6.445000000000000000e+03 7.308819293975830078e+00 -1.129507780075073242e+00 -8.573869466781616211e-01 6.535898864967748523e-05 -2.571964859962463379e-01 -2.366299778223037720e-01
6.446000000000000000e+03 6.539181709289550781e+00 -1.129619121551513672e+00 -7.198026180267333984e-01 -7.100662682205438614e-03 -2.180709689855575562e-01 -2.334068864583969116e-01
6.447000000000000000e+03 5.769710540771484375e+00 -1.129650592803955078e+00 -5.851731300354003906e-01 -1.011730264872312546e-02 -1.785871237516403198e-01 -2.238906919956207275e-01
6.448000000000000000e+03 5.000264644622802734e+00 -1.129660010337829590e+00 -4.575045108795166016e-01 -1.763410866260528564e-02 -1.425415873527526855e-01 -2.081485092639923096e-01
6.449000000000000000e+03 4.230823516845703125e+00 -1.129663348197937012e+00 -3.403402864933013916e-01 -2.172501385211944580e-02 -1.086195930838584900e-01 -1.850026100873947144e-01
6.450000000000000000e+03 3.461385965347290039e+00 -1.129667520523071289e+00 -2.369793802499771118e-01 -2.938845381140708923e-02 -7.991034537553787231e-02 -1.556089371442794800e-01
6.451000000000000000e+03 2.691961765289306641e+00 -1.129679322242736816e+00 -1.508026123046875000e-01 -3.391606733202934265e-02 -5.541560426354408264e-02 -1.180686429142951965e-01
6.452000000000000000e+03 1.922607541084289551e+00 -1.129716515541076660e+00 -8.347290009260177612e-02 -3.847900778055191040e-02 -3.658557310700416565e-02 -7.671245932579040527e-02
6.453000000000000000e+03 1.153616070747375488e+00 -1.129841685295104980e+00 -3.444178029894828796e-02 -3.379685431718826294e-02 -2.047159150242805481e-02 -3.453669324517250061e-02
