# el_label, x, y, sXX, sYY, sZZ, sXY
1.000000000000000000e+00 7.592540740966796875e+01 -1.639742660522460938e+01 -8.266034126281738281e+00 -2.309749364852905273e+00 -3.172734975814819336e+00 -2.643979549407958984e+00
2.000000000000000000e+00 7.572682189941406250e+01 -1.641084480285644531e+01 -3.618851184844970703e+00 8.550848960876464844e-01 -8.291298747062683105e-01 7.852456569671630859e-01
3.000000000000000000e+00 7.552822875976562500e+01 -1.642426300048828125e+01 -4.697108745574951172e+00 -3.396514356136322021e-01 -1.511028051376342773e+00 -3.789824259001761675e-04
4.000000000000000000e+00 7.532964324951171875e+01 -1.643768310546875000e+01 -4.749002456665039062e+00 1.654016524553298950e-01 -1.375080227851867676e+00 1.724683195352554321e-01
5.000000000000000000e+00 7.593502807617187500e+01 -1.645503425598144531e+01 7.238601207733154297e+00 -2.612470865249633789e+00 1.387839198112487793e+00 1.434405684471130371e+00
6.000000000000000000e+00 7.574285125732421875e+01 -1.650685691833496094e+01 3.813825249671936035e-01 3.292939960956573486e-01 2.132029533386230469e-01 1.145159721374511719e+00
7.000000000000000000e+00 7.555067443847656250e+01 -1.655868148803710938e+01 4.197556376457214355e-01 6.521992087364196777e-01 3.215864598751068115e-01 1.860917210578918457e+00
8.000000000000000000e+00 7.535849761962890625e+01 -1.661050415039062500e+01 -6.791109442710876465e-01 2.270808815956115723e-01 -1.356090307235717773e-01 1.047651052474975586e+00
9.000000000000000000e+00 7.595567321777343750e+01 -1.650966644287109375e+01 1.278465557098388672e+01 2.111207246780395508e+00 4.468759059906005859e+00 8.365880966186523438e+00
1.000000000000000000e+01 7.577726745605468750e+01 -1.659791183471679688e+01 6.415007591247558594e+00 1.166024684906005859e+00 2.274309635162353516e+00 4.753334522247314453e+00
1.100000000000000000e+01 7.559885406494140625e+01 -1.668615722656250000e+01 3.384823083877563477e+00 1.884312033653259277e+00 1.580740571022033691e+00 3.700768709182739258e+00
1.200000000000000000e+01 7.542044830322265625e+01 -1.677440452575683594e+01 2.637436866760253906e+00 1.692733883857727051e+00 1.299051165580749512e+00 3.428817987442016602e+00
1.300000000000000000e+01 7.598656463623046875e+01 -1.655923461914062500e+01 1.461948204040527344e+01 8.616491317749023438e+00 6.970791816711425781e+00 1.385256958007812500e+01
1.400000000000000000e+01 7.582875061035156250e+01 -1.668052482604980469e+01 8.280838012695312500e+00 5.361999511718750000e+00 4.092851161956787109e+00 8.827280044555664062e+00
1.500000000000000000e+01 7.567093658447265625e+01 -1.680181503295898438e+01 5.911254405975341797e+00 4.315083980560302734e+00 3.067901611328125000e+00 6.830857276916503906e+00
1.600000000000000000e+01 7.551311492919921875e+01 -1.692310523986816406e+01 4.155309677124023438e+00 4.040106773376464844e+00 2.458625078201293945e+00 5.616259098052978516e+00
1.700000000000000000e+01 7.602651214599609375e+01 -1.660183906555175781e+01 1.290670204162597656e+01 1.704947280883789062e+01 8.986852645874023438e+00 1.736266136169433594e+01
1.800000000000000000e+01 7.589533233642578125e+01 -1.675153350830078125e+01 8.401242256164550781e+00 1.100259590148925781e+01 5.821151256561279297e+00 1.193898296356201172e+01
1.900000000000000000e+01 7.576415252685546875e+01 -1.690122604370117188e+01 5.888775348663330078e+00 8.688950538635253906e+00 4.373317718505859375e+00 9.285267829895019531e+00
2.000000000000000000e+01 7.563296508789062500e+01 -1.705092048645019531e+01 4.583355903625488281e+00 7.445175170898437500e+00 3.608559370040893555e+00 7.903903484344482422e+00
2.100000000000000000e+01 7.607399749755859375e+01 -1.663585090637207031e+01 1.011453628540039062e+01 2.592040634155273438e+01 1.081048297882080078e+01 1.827560806274414062e+01
2.200000000000000000e+01 7.597446441650390625e+01 -1.680821990966796875e+01 6.573965072631835938e+00 1.753854751586914062e+01 7.233754158020019531e+00 1.326372623443603516e+01
2.300000000000000000e+01 7.587493133544921875e+01 -1.698058891296386719e+01 4.933316230773925781e+00 1.405217266082763672e+01 5.695646286010742188e+00 1.073195266723632812e+01
2.400000000000000000e+01 7.577540588378906250e+01 -1.715295791625976562e+01 3.405912399291992188e+00 1.192330360412597656e+01 4.598764896392822266e+00 9.018115997314453125e+00
2.500000000000000000e+01 7.612718963623046875e+01 -1.665996932983398438e+01 6.675275325775146484e+00 3.403031158447265625e+01 1.221167659759521484e+01 1.659271621704101562e+01
2.600000000000000000e+01 7.606311798095703125e+01 -1.684841728210449219e+01 4.714177608489990234e+00 2.409528160095214844e+01 8.642837524414062500e+00 1.275200271606445312e+01
2.700000000000000000e+01 7.599904632568359375e+01 -1.703686332702636719e+01 2.910897731781005859e+00 1.946532440185546875e+01 6.712866783142089844e+00 1.055518722534179688e+01
2.800000000000000000e+01 7.593498229980468750e+01 -1.722531127929687500e+01 2.157940864562988281e+00 1.696836280822753906e+01 5.737890720367431641e+00 9.127088546752929688e+00
2.900000000000000000e+01 7.618405914306640625e+01 -1.667327117919921875e+01 4.752533435821533203e+00 4.063196945190429688e+01 1.361535072326660156e+01 1.282901382446289062e+01
3.000000000000000000e+01 7.615789794921875000e+01 -1.687058448791503906e+01 2.665014743804931641e+00 2.959059906005859375e+01 9.676684379577636719e+00 1.055611324310302734e+01
3.100000000000000000e+01 7.613174438476562500e+01 -1.706789970397949219e+01 1.549006819725036621e+00 2.452192878723144531e+01 7.821280479431152344e+00 8.981383323669433594e+00
3.200000000000000000e+01 7.610559082031250000e+01 -1.726521492004394531e+01 5.659630298614501953e-01 2.116775321960449219e+01 6.520114898681640625e+00 7.779438018798828125e+00
3.300000000000000000e+01 7.624242401123046875e+01 -1.667524528503417969e+01 4.027740001678466797e+00 4.470780563354492188e+01 1.462066364288330078e+01 7.841290473937988281e+00
3.400000000000000000e+01 7.625518798828125000e+01 -1.687387657165527344e+01 2.068253278732299805e+00 3.379838562011718750e+01 1.075999164581298828e+01 7.238059520721435547e+00
3.500000000000000000e+01 7.626795196533203125e+01 -1.707250785827636719e+01 5.194365382194519043e-01 2.816940116882324219e+01 8.606651306152343750e+00 6.259959697723388672e+00
3.600000000000000000e+01 7.628070831298828125e+01 -1.727113914489746094e+01 -1.651105880737304688e-01 2.474717140197753906e+01 7.374618530273437500e+00 5.407375335693359375e+00
3.700000000000000000e+01 7.630006408691406250e+01 -1.666581726074218750e+01 5.642334461212158203e+00 4.650594329833984375e+01 1.564448261260986328e+01 2.764243125915527344e+00
3.800000000000000000e+01 7.635124969482421875e+01 -1.685816574096679688e+01 2.394671678543090820e+00 3.599657821655273438e+01 1.151737499237060547e+01 3.367329597473144531e+00
3.900000000000000000e+01 7.640244293212890625e+01 -1.705051231384277344e+01 9.459587335586547852e-01 3.048370170593261719e+01 9.428898811340332031e+00 3.033957004547119141e+00
4.000000000000000000e+01 7.645362854003906250e+01 -1.724285888671875000e+01 -2.559696137905120850e-01 2.689152908325195312e+01 7.990667819976806641e+00 2.617573976516723633e+00
4.100000000000000000e+01 7.635476684570312500e+01 -1.664534950256347656e+01 8.474915504455566406e+00 4.593979263305664062e+01 1.632441139221191406e+01 -1.586368083953857422e+00
4.200000000000000000e+01 7.644242095947265625e+01 -1.682405090332031250e+01 4.455374717712402344e+00 3.658321762084960938e+01 1.231157779693603516e+01 -2.435399144887924194e-01
4.300000000000000000e+01 7.653007507324218750e+01 -1.700275421142578125e+01 2.200604200363159180e+00 3.106753921508789062e+01 9.980443000793457031e+00 -1.323282569646835327e-01
4.400000000000000000e+01 7.661772918701171875e+01 -1.718145561218261719e+01 1.101702809333801270e+00 2.756615829467773438e+01 8.600358963012695312e+00 -8.058238774538040161e-02
4.500000000000000000e+01 7.640444183349609375e+01 -1.661462402343750000e+01 1.276036453247070312e+01 4.408938980102539062e+01 1.705492591857910156e+01 -4.433969020843505859e+00
4.600000000000000000e+01 7.652520751953125000e+01 -1.677284240722656250e+01 7.173626422882080078e+00 3.545327377319335938e+01 1.278806972503662109e+01 -3.106175899505615234e+00
4.700000000000000000e+01 7.664597320556640625e+01 -1.693106079101562500e+01 4.833947658538818359e+00 3.044871520996093750e+01 1.058479881286621094e+01 -2.536642551422119141e+00
4.800000000000000000e+01 7.676673889160156250e+01 -1.708927917480468750e+01 3.025271654129028320e+00 2.687006187438964844e+01 8.968600273132324219e+00 -2.400298118591308594e+00
4.900000000000000000e+01 7.644717407226562500e+01 -1.657481765747070312e+01 1.687621307373046875e+01 4.120436096191406250e+01 1.742417144775390625e+01 -5.763678073883056641e+00
5.000000000000000000e+01 7.659643554687500000e+01 -1.670649719238281250e+01 1.088955879211425781e+01 3.360244369506835938e+01 1.334760093688964844e+01 -4.538168907165527344e+00
5.100000000000000000e+01 7.674568939208984375e+01 -1.683817672729492188e+01 7.616127014160156250e+00 2.866474723815917969e+01 1.088426208496093750e+01 -4.028513431549072266e+00
5.200000000000000000e+01 7.689495086669921875e+01 -1.696985626220703125e+01 5.819743633270263672e+00 2.561764526367187500e+01 9.431216239929199219e+00 -3.621503591537475586e+00
5.300000000000000000e+01 7.648134613037109375e+01 -1.652745056152343750e+01 2.091337776184082031e+01 3.866334915161132812e+01 1.787301826477050781e+01 -5.353834152221679688e+00
5.400000000000000000e+01 7.665338134765625000e+01 -1.662755393981933594e+01 1.421428298950195312e+01 3.108138275146484375e+01 1.358869934082031250e+01 -4.721827030181884766e+00
5.500000000000000000e+01 7.682541656494140625e+01 -1.672765541076660156e+01 1.076569938659667969e+01 2.681810951232910156e+01 1.127514266967773438e+01 -4.077536582946777344e+00
5.600000000000000000e+01 7.699745941162109375e+01 -1.682775688171386719e+01 8.258066177368164062e+00 2.367877388000488281e+01 9.581051826477050781e+00 -3.798504590988159180e+00
5.700000000000000000e+01 7.650563812255859375e+01 -1.647433853149414062e+01 2.382889175415039062e+01 3.635612106323242188e+01 1.805550384521484375e+01 -3.772539377212524414e+00
5.800000000000000000e+01 7.669387817382812500e+01 -1.653903388977050781e+01 1.703884124755859375e+01 2.913039970397949219e+01 1.385077285766601562e+01 -3.466940879821777344e+00
5.900000000000000000e+01 7.688211059570312500e+01 -1.660372734069824219e+01 1.313167095184326172e+01 2.492331504821777344e+01 1.141649627685546875e+01 -3.090490102767944336e+00
6.000000000000000000e+01 7.707034301757812500e+01 -1.666842079162597656e+01 1.061856937408447266e+01 2.214250373840332031e+01 9.828322410583496094e+00 -2.820572376251220703e+00
6.100000000000000000e+01 7.651912689208984375e+01 -1.641751289367675781e+01 2.544040489196777344e+01 3.501689529418945312e+01 1.813718986511230469e+01 -1.387270092964172363e+00
6.200000000000000000e+01 7.671636199951171875e+01 -1.644432449340820312e+01 1.868416023254394531e+01 2.792729568481445312e+01 1.398343658447265625e+01 -1.281401515007019043e+00
6.300000000000000000e+01 7.691358184814453125e+01 -1.647113418579101562e+01 1.453060436248779297e+01 2.373993873596191406e+01 1.148116302490234375e+01 -1.184480071067810059e+00
6.400000000000000000e+01 7.711080932617187500e+01 -1.649794387817382812e+01 1.178675842285156250e+01 2.126470756530761719e+01 9.915440559387207031e+00 -1.146680116653442383e+00
6.500000000000000000e+01 7.652130126953125000e+01 -1.635914802551269531e+01 2.570720863342285156e+01 3.506637191772460938e+01 1.823207283020019531e+01 1.400505542755126953e+00
6.600000000000000000e+01 7.671997070312500000e+01 -1.634704971313476562e+01 1.877705574035644531e+01 2.750673866271972656e+01 1.388513851165771484e+01 1.276095509529113770e+00
6.700000000000000000e+01 7.691864013671875000e+01 -1.633494949340820312e+01 1.471310615539550781e+01 2.385290718078613281e+01 1.156980323791503906e+01 1.080335140228271484e+00
6.800000000000000000e+01 7.711731719970703125e+01 -1.632284927368164062e+01 1.170096778869628906e+01 2.083946037292480469e+01 9.762128829956054688e+00 1.090579748153686523e+00
6.900000000000000000e+01 7.651206207275390625e+01 -1.630147933959960938e+01 2.426417732238769531e+01 3.569681167602539062e+01 1.798829650878906250e+01 4.053055286407470703e+00
7.000000000000000000e+01 7.670458221435546875e+01 -1.625093269348144531e+01 1.752611351013183594e+01 2.877936553955078125e+01 1.389164352416992188e+01 3.581739425659179688e+00
7.100000000000000000e+01 7.689709472656250000e+01 -1.620038604736328125e+01 1.337118625640869141e+01 2.440499305725097656e+01 1.133285427093505859e+01 3.233286619186401367e+00
7.200000000000000000e+01 7.708960723876953125e+01 -1.614983940124511719e+01 1.094613552093505859e+01 2.182796669006347656e+01 9.832230567932128906e+00 2.918567419052124023e+00
7.300000000000000000e+01 7.649177551269531250e+01 -1.624670982360839844e+01 2.167436599731445312e+01 3.789173889160156250e+01 1.786983108520507812e+01 5.951190471649169922e+00
7.400000000000000000e+01 7.667076873779296875e+01 -1.615965080261230469e+01 1.475102901458740234e+01 3.043367767333984375e+01 1.355541133880615234e+01 5.209686279296875000e+00
7.500000000000000000e+01 7.684976196289062500e+01 -1.607259178161621094e+01 1.118989753723144531e+01 2.625609397888183594e+01 1.123379707336425781e+01 4.535667419433593750e+00
7.600000000000000000e+01 7.702875518798828125e+01 -1.598553276062011719e+01 8.634235382080078125e+00 2.315827751159667969e+01 9.537754058837890625e+00 4.069067955017089844e+00
7.700000000000000000e+01 7.646121978759765625e+01 -1.619693756103515625e+01 1.771813011169433594e+01 4.042678451538085938e+01 1.744347381591796875e+01 6.816437244415283203e+00
7.800000000000000000e+01 7.661983489990234375e+01 -1.607669830322265625e+01 1.134488201141357422e+01 3.293454742431640625e+01 1.328382873535156250e+01 5.526865482330322266e+00
7.900000000000000000e+01 7.677845001220703125e+01 -1.595645809173583984e+01 8.061199188232421875e+00 2.814386749267578125e+01 1.086152076721191406e+01 4.742706775665283203e+00
8.000000000000000000e+01 7.693707275390625000e+01 -1.583621788024902344e+01 5.902015209197998047e+00 2.513326644897460938e+01 9.310585021972656250e+00 4.356367111206054688e+00
8.100000000000000000e+01 7.642155456542968750e+01 -1.615406799316406250e+01 1.324418354034423828e+01 4.335303497314453125e+01 1.697916603088378906e+01 6.099080085754394531e+00
8.200000000000000000e+01 7.655372619628906250e+01 -1.600524902343750000e+01 7.591665267944335938e+00 3.508847427368164062e+01 1.280404186248779297e+01 4.427116870880126953e+00
8.300000000000000000e+01 7.668589782714843750e+01 -1.585642910003662109e+01 4.792595863342285156e+00 3.012142753601074219e+01 1.047420692443847656e+01 3.723697900772094727e+00
8.400000000000000000e+01 7.681806945800781250e+01 -1.570760917663574219e+01 3.153625488281250000e+00 2.658060455322265625e+01 8.920269012451171875e+00 3.348170280456542969e+00
8.500000000000000000e+01 7.637429809570312500e+01 -1.611974143981933594e+01 8.867816925048828125e+00 4.575714874267578125e+01 1.638748931884765625e+01 3.655051946640014648e+00
8.600000000000000000e+01 7.647497558593750000e+01 -1.594803714752197266e+01 4.121222496032714844e+00 3.652440261840820312e+01 1.219368743896484375e+01 1.982532858848571777e+00
8.700000000000000000e+01 7.657564544677734375e+01 -1.577633285522460938e+01 2.090802431106567383e+00 3.117446899414062500e+01 9.979580879211425781e+00 1.503282308578491211e+00
8.800000000000000000e+01 7.667631530761718750e+01 -1.560462856292724609e+01 5.756414532661437988e-01 2.764080810546875000e+01 8.464934349060058594e+00 1.341818451881408691e+00
8.900000000000000000e+01 7.632126617431640625e+01 -1.609527015686035156e+01 5.012357711791992188e+00 4.679021835327148438e+01 1.554077339172363281e+01 -3.229626417160034180e-01
9.000000000000000000e+01 7.638658905029296875e+01 -1.590725231170654297e+01 1.903838157653808594e+00 3.660195159912109375e+01 1.155173683166503906e+01 -1.523248076438903809e+00
9.100000000000000000e+01 7.645190429687500000e+01 -1.571923351287841797e+01 -7.595153152942657471e-02 3.099510383605957031e+01 9.275745391845703125e+00 -1.512212395668029785e+00
9.200000000000000000e+01 7.651722717285156250e+01 -1.553121566772460938e+01 -7.450292110443115234e-01 2.739660263061523438e+01 7.995471954345703125e+00 -1.347929239273071289e+00
9.300000000000000000e+01 7.626448822021484375e+01 -1.608159255981445312e+01 3.109668254852294922e+00 4.592367553710937500e+01 1.471000289916992188e+01 -5.347423553466796875e+00
9.400000000000000000e+01 7.629195404052734375e+01 -1.588445472717285156e+01 5.175700783729553223e-01 3.484562301635742188e+01 1.060895824432373047e+01 -5.470937728881835938e+00
9.500000000000000000e+01 7.631941986083984375e+01 -1.568731784820556641e+01 -5.624732971191406250e-01 2.926069450378417969e+01 8.609466552734375000e+00 -4.805315494537353516e+00
9.600000000000000000e+01 7.634688568115234375e+01 -1.549018096923828125e+01 -1.635225772857666016e+00 2.564385414123535156e+01 7.202588558197021484e+00 -4.361717224121093750e+00
9.700000000000000000e+01 7.620613098144531250e+01 -1.607922935485839844e+01 2.574431180953979492e+00 4.241863250732421875e+01 1.349791908264160156e+01 -1.061936187744140625e+01
9.800000000000000000e+01 7.619468688964843750e+01 -1.588051795959472656e+01 1.050138711929321289e+00 3.133633041381835938e+01 9.715940475463867188e+00 -9.061389923095703125e+00
9.900000000000000000e+01 7.618325042724609375e+01 -1.568180561065673828e+01 -4.039301276206970215e-01 2.584955215454101562e+01 7.633686542510986328e+00 -7.891819953918457031e+00
1.000000000000000000e+02 7.617180633544921875e+01 -1.548309326171875000e+01 -1.010947823524475098e+00 2.257466506958007812e+01 6.469115257263183594e+00 -6.859676837921142578e+00
1.010000000000000000e+02 7.614842987060546875e+01 -1.608827400207519531e+01 4.367058753967285156e+00 3.663683700561523438e+01 1.230116844177246094e+01 -1.485282897949218750e+01
1.020000000000000000e+02 7.609851837158203125e+01 -1.589559078216552734e+01 2.245190382003784180e+00 2.601325416564941406e+01 8.477533340454101562e+00 -1.183208179473876953e+01
1.030000000000000000e+02 7.604861450195312500e+01 -1.570290756225585938e+01 1.102878332138061523e+00 2.125613784790039062e+01 6.707705020904541016e+00 -9.870129585266113281e+00
1.040000000000000000e+02 7.599871063232421875e+01 -1.551022529602050781e+01 9.806910529732704163e-03 1.827904319763183594e+01 5.486654758453369141e+00 -8.641604423522949219e+00
1.050000000000000000e+02 7.609359741210937500e+01 -1.610837745666503906e+01 7.139827251434326172e+00 2.863213920593261719e+01 1.073159027099609375e+01 -1.744180870056152344e+01
1.060000000000000000e+02 7.600712585449218750e+01 -1.592909812927246094e+01 4.326158523559570312e+00 1.973976325988769531e+01 7.219776153564453125e+00 -1.281214523315429688e+01
1.070000000000000000e+02 7.592066192626953125e+01 -1.574981784820556641e+01 2.633445739746093750e+00 1.573819446563720703e+01 5.511492252349853516e+00 -1.063341808319091797e+01
1.080000000000000000e+02 7.583419799804687500e+01 -1.557053852081298828e+01 1.636018395423889160e+00 1.362664127349853516e+01 4.578797817230224609e+00 -9.008423805236816406e+00
1.090000000000000000e+02 7.604372406005859375e+01 -1.613877296447753906e+01 1.015666675567626953e+01 1.983199119567871094e+01 8.996597290039062500e+00 -1.729173660278320312e+01
1.100000000000000000e+02 7.592401123046875000e+01 -1.597975730895996094e+01 6.145873546600341797e+00 1.288745307922363281e+01 5.709998130798339844e+00 -1.211188793182373047e+01
1.110000000000000000e+02 7.580429077148437500e+01 -1.582074069976806641e+01 3.872217655181884766e+00 1.030625629425048828e+01 4.253541946411132812e+00 -9.549170494079589844e+00
1.120000000000000000e+02 7.568457794189453125e+01 -1.566172409057617188e+01 2.630622863769531250e+00 8.957147598266601562e+00 3.476331233978271484e+00 -8.156561851501464844e+00
1.130000000000000000e+02 7.600072479248046875e+01 -1.617829513549804688e+01 1.238579750061035156e+01 1.087555122375488281e+01 6.978404521942138672e+00 -1.451277828216552734e+01
1.140000000000000000e+02 7.585234069824218750e+01 -1.604562950134277344e+01 6.458396434783935547e+00 6.776450634002685547e+00 3.970454216003417969e+00 -9.385090827941894531e+00
1.150000000000000000e+02 7.570396423339843750e+01 -1.591296100616455078e+01 4.174673557281494141e+00 5.600362300872802734e+00 2.932510852813720703e+00 -7.260124206542968750e+00
1.160000000000000000e+02 7.555558013916015625e+01 -1.578029346466064453e+01 2.476774692535400391e+00 4.856784343719482422e+00 2.200067758560180664e+00 -6.018843173980712891e+00
1.170000000000000000e+02 7.596623992919921875e+01 -1.622543334960937500e+01 1.129303646087646484e+01 3.371321201324462891e+00 4.399307250976562500e+00 -9.419509887695312500e+00
1.180000000000000000e+02 7.579486846923828125e+01 -1.612419319152832031e+01 5.241220951080322266e+00 2.124313831329345703e+00 2.209660530090332031e+00 -5.347075462341308594e+00
1.190000000000000000e+02 7.562349700927734375e+01 -1.602295112609863281e+01 2.096329927444458008e+00 2.413451910018920898e+00 1.352934598922729492e+00 -4.091735363006591797e+00
1.200000000000000000e+02 7.545212554931640625e+01 -1.592170906066894531e+01 1.240516424179077148e+00 2.293413400650024414e+00 1.060178875923156738e+00 -3.790959596633911133e+00
1.210000000000000000e+02 7.594158935546875000e+01 -1.627838516235351562e+01 6.944056034088134766e+00 -2.149061918258666992e+00 1.438498258590698242e+00 -2.342031955718994141e+00
1.220000000000000000e+02 7.575378417968750000e+01 -1.621244239807128906e+01 -2.996282875537872314e-01 3.883920907974243164e-01 2.662914618849754333e-02 -1.330782651901245117e+00
1.230000000000000000e+02 7.556598663330078125e+01 -1.614650154113769531e+01 -5.371205210685729980e-01 1.121224999427795410e+00 1.752313524484634399e-01 -1.965219020843505859e+00
1.240000000000000000e+02 7.537818908691406250e+01 -1.608055877685546875e+01 -1.748658299446105957e+00 1.958912461996078491e-01 -4.658300876617431641e-01 -1.241451859474182129e+00
1.250000000000000000e+02 7.592772674560546875e+01 -1.633511924743652344e+01 -7.959269523620605469e+00 -2.994423151016235352e+00 -3.286107778549194336e+00 2.976058244705200195e+00
1.260000000000000000e+02 7.573067474365234375e+01 -1.630700111389160156e+01 -4.138195037841796875e+00 1.206820249557495117e+00 -8.794124126434326172e-01 -4.882233738899230957e-01
1.270000000000000000e+02 7.553363037109375000e+01 -1.627888298034667969e+01 -5.370972633361816406e+00 -5.892968773841857910e-01 -1.788080930709838867e+00 2.568625807762145996e-01
1.280000000000000000e+02 7.533659362792968750e+01 -1.625076293945312500e+01 -5.668072223663330078e+00 3.652369678020477295e-01 -1.590850591659545898e+00 1.494850665330886841e-01
1.290000000000000000e+02 7.214754486083984375e+01 -1.693214416503906250e+01 -1.942427635192871094e+00 -6.920403242111206055e-02 -6.034894585609436035e-01 -5.705561041831970215e-01
1.300000000000000000e+02 7.276124572753906250e+01 -1.692143440246582031e+01 -2.152968883514404297e+00 1.059917211532592773e-01 -6.140931248664855957e-01 -4.303181171417236328e-01
1.310000000000000000e+02 7.073133850097656250e+01 -1.753543853759765625e+01 -7.661170363426208496e-01 -1.686315983533859253e-01 -2.804245948791503906e-01 -8.982994556427001953e-01
1.320000000000000000e+02 7.315299987792968750e+01 -1.762200355529785156e+01 -3.373202979564666748e-01 7.728777527809143066e-01 1.306672245264053345e-01 -3.240763023495674133e-02
1.330000000000000000e+02 7.239167785644531250e+01 -1.646594238281250000e+01 -3.257067680358886719e+00 -9.159656614065170288e-02 -1.004599332809448242e+00 -3.117146492004394531e-01
1.340000000000000000e+02 7.207193756103515625e+01 -1.759453582763671875e+01 -8.319239020347595215e-01 8.560356497764587402e-02 -2.238961160182952881e-01 -6.677758693695068359e-01
1.350000000000000000e+02 7.311673736572265625e+01 -1.729910659790039062e+01 -1.210643053054809570e+00 3.645213842391967773e-01 -2.538364827632904053e-01 -4.343588948249816895e-01
1.360000000000000000e+02 7.255139923095703125e+01 -1.672254943847656250e+01 -2.637473821640014648e+00 6.245057098567485809e-03 -7.893686294555664062e-01 -4.410398900508880615e-01
1.370000000000000000e+02 7.294704437255859375e+01 -1.641011810302734375e+01 -3.695902824401855469e+00 1.005743741989135742e-01 -1.078598499298095703e+00 -2.617089450359344482e-01
1.380000000000000000e+02 7.255982208251953125e+01 -1.747598838806152344e+01 -9.612254500389099121e-01 3.499034047126770020e-01 -1.833966225385665894e-01 -5.242247581481933594e-01
1.390000000000000000e+02 7.127288055419921875e+01 -1.670514869689941406e+01 -1.762251377105712891e+00 -1.040921270032413304e-04 -5.287066698074340820e-01 -4.708770215511322021e-01
1.400000000000000000e+02 7.144530487060546875e+01 -1.758674240112304688e+01 -8.833367228507995605e-01 1.176045909523963928e-01 -2.297196388244628906e-01 -8.041572570800781250e-01
1.410000000000000000e+02 7.062309265136718750e+01 -1.680009269714355469e+01 -1.187940955162048340e+00 -6.052426621317863464e-02 -3.745395839214324951e-01 -4.402414262294769287e-01
1.420000000000000000e+02 7.305341339111328125e+01 -1.701167488098144531e+01 -1.863065361976623535e+00 1.763466596603393555e-01 -5.060155987739562988e-01 -4.059126079082489014e-01
1.430000000000000000e+02 7.299682617187500000e+01 -1.662582778930664062e+01 -3.152730703353881836e+00 1.079256534576416016e-01 -9.134415388107299805e-01 -3.047370612621307373e-01
1.440000000000000000e+02 7.299002075195312500e+01 -1.753126907348632812e+01 -8.523845672607421875e-01 1.447168290615081787e-01 -2.123003304004669189e-01 -3.524380922317504883e-01
1.450000000000000000e+02 7.314538574218750000e+01 -1.746649742126464844e+01 -8.947997093200683594e-01 5.067775845527648926e-01 -1.164066419005393982e-01 -2.038096040487289429e-01
1.460000000000000000e+02 7.255181121826171875e+01 -1.714325904846191406e+01 -1.641766428947448730e+00 1.068839877843856812e-01 -4.604647159576416016e-01 -5.559455156326293945e-01
1.470000000000000000e+02 7.184342193603515625e+01 -1.656228828430175781e+01 -2.554098129272460938e+00 4.554268345236778259e-02 -7.525666356086730957e-01 -3.764281868934631348e-01
1.480000000000000000e+02 7.169494628906250000e+01 -1.719025611877441406e+01 -1.419705033302307129e+00 2.566651999950408936e-02 -4.182115495204925537e-01 -7.353639006614685059e-01
1.490000000000000000e+02 7.305259704589843750e+01 -1.682605743408203125e+01 -2.507108449935913086e+00 1.426315158605575562e-01 -7.093430757522583008e-01 -3.809471130371093750e-01
1.500000000000000000e+02 7.290237426757812500e+01 -1.768271255493164062e+01 -4.814327955245971680e-01 4.271045029163360596e-01 -1.629848778247833252e-02 -1.736832708120346069e-01
1.510000000000000000e+02 7.287814331054687500e+01 -1.738667869567871094e+01 -1.057823300361633301e+00 7.400951534509658813e-02 -2.951441407203674316e-01 -2.676965594291687012e-01
1.520000000000000000e+02 7.293680572509765625e+01 -1.719876480102539062e+01 -1.324449062347412109e+00 2.690807282924652100e-01 -3.166104853153228760e-01 -3.298229575157165527e-01
1.530000000000000000e+02 7.332364654541015625e+01 -1.639389991760253906e+01 -3.941160440444946289e+00 -1.208433061838150024e-01 -1.218601107597351074e+00 -5.014521628618240356e-02
1.540000000000000000e+02 7.453523254394531250e+01 -1.769466972351074219e+01 1.378479242324829102e+00 2.589086771011352539e+00 1.190269708633422852e+00 2.504675388336181641e+00
1.550000000000000000e+02 7.569923400878906250e+01 -1.775172042846679688e+01 9.091902375221252441e-01 1.203770446777343750e+01 3.884068489074707031e+00 6.607755184173583984e+00
1.560000000000000000e+02 7.758379364013671875e+01 -1.668602752685546875e+01 7.400933265686035156e+00 1.715178871154785156e+01 7.365816593170166016e+00 -1.753574132919311523e+00
1.570000000000000000e+02 7.636969757080078125e+01 -1.501933670043945312e+01 -2.473981857299804688e+00 2.038854217529296875e+01 5.374368190765380859e+00 -3.679839372634887695e+00
1.580000000000000000e+02 7.373307800292968750e+01 -1.615365791320800781e+01 -6.917175292968750000e+00 9.198682755231857300e-02 -2.047556638717651367e+00 2.759198546409606934e-01
1.590000000000000000e+02 7.589105224609375000e+01 -1.775358009338378906e+01 1.982760988175868988e-02 1.514006042480468750e+01 4.547966480255126953e+00 6.290554523468017578e+00
1.600000000000000000e+02 7.333599090576171875e+01 -1.766346359252929688e+01 -2.339297980070114136e-01 7.738977074623107910e-01 1.619903743267059326e-01 1.805301308631896973e-01
1.610000000000000000e+02 7.334000396728515625e+01 -1.744880676269531250e+01 -6.497666835784912109e-01 5.733467340469360352e-01 -2.292598038911819458e-02 -4.321561381220817566e-02
1.620000000000000000e+02 7.472319030761718750e+01 -1.771598434448242188e+01 1.689664721488952637e+00 3.433619737625122070e+00 1.536985397338867188e+00 3.090278387069702148e+00
1.630000000000000000e+02 7.609233856201171875e+01 -1.749493980407714844e+01 2.181877382099628448e-03 1.915582275390625000e+01 5.747401714324951172e+00 6.644139766693115234e+00
1.640000000000000000e+02 7.532003021240234375e+01 -1.707322502136230469e+01 3.184089422225952148e+00 3.488229751586914062e+00 2.001695871353149414e+00 4.841614723205566406e+00
1.650000000000000000e+02 7.491320800781250000e+01 -1.772016716003417969e+01 1.996195912361145020e+00 4.288153648376464844e+00 1.885304808616638184e+00 4.050108432769775391e+00
1.660000000000000000e+02 7.506620025634765625e+01 -1.721582603454589844e+01 2.187460422515869141e+00 2.822050571441650391e+00 1.502853274345397949e+00 3.641180276870727539e+00
1.670000000000000000e+02 7.353444671630859375e+01 -1.766824913024902344e+01 -6.858536601066589355e-02 8.501557707786560059e-01 2.344711273908615112e-01 3.487305343151092529e-01
1.680000000000000000e+02 7.636170959472656250e+01 -1.527095317840576172e+01 -1.920672535896301270e+00 2.289215660095214844e+01 6.291444778442382812e+00 -3.948331594467163086e+00
1.690000000000000000e+02 7.701571655273437500e+01 -1.525650978088378906e+01 -3.042993545532226562e-01 2.188950157165527344e+01 6.475560188293457031e+00 1.998202800750732422e+00
1.700000000000000000e+02 7.720867919921875000e+01 -1.584910392761230469e+01 6.443316936492919922e+00 2.124604606628417969e+01 8.306808471679687500e+00 3.976392507553100586e+00
1.710000000000000000e+02 7.756780242919921875e+01 -1.599289226531982422e+01 6.372263431549072266e+00 1.774668312072753906e+01 7.235683441162109375e+00 2.725479125976562500e+00
1.720000000000000000e+02 7.729544830322265625e+01 -1.629675102233886719e+01 1.013269519805908203e+01 1.945996856689453125e+01 8.877799034118652344e+00 1.051450729370117188e+00
1.730000000000000000e+02 7.725630950927734375e+01 -1.680600547790527344e+01 8.063414573669433594e+00 2.028868865966796875e+01 8.505631446838378906e+00 -3.026934385299682617e+00
1.740000000000000000e+02 7.692843627929687500e+01 -1.744395065307617188e+01 4.393464326858520508e-01 2.305236053466796875e+01 7.047512054443359375e+00 -1.672528505325317383e+00
1.750000000000000000e+02 7.331671905517578125e+01 -1.487549209594726562e+01 -1.841887474060058594e+00 1.092239379882812500e+00 -2.248944342136383057e-01 -6.295019984245300293e-01
1.760000000000000000e+02 7.393029785156250000e+01 -1.616263961791992188e+01 -6.830125808715820312e+00 -1.743256002664566040e-01 -2.101335525512695312e+00 3.093903660774230957e-01
1.770000000000000000e+02 7.392665100097656250e+01 -1.492264556884765625e+01 -1.278396725654602051e+00 1.173614621162414551e+00 -3.143462911248207092e-02 -1.469404339790344238e+00
1.780000000000000000e+02 7.538851928710937500e+01 -1.565220355987548828e+01 1.508471488952636719e+00 4.266880035400390625e+00 1.732605338096618652e+00 -5.340763092041015625e+00
1.790000000000000000e+02 7.552883148193359375e+01 -1.549924087524414062e+01 1.677771806716918945e+00 7.317816257476806641e+00 2.698676347732543945e+00 -6.915907859802246094e+00
1.800000000000000000e+02 7.569163513183593750e+01 -1.539315509796142578e+01 9.318972826004028320e-01 1.123531627655029297e+01 3.650164127349853516e+00 -7.800424098968505859e+00
1.810000000000000000e+02 7.332809448242187500e+01 -1.614118766784667969e+01 -7.314030170440673828e+00 -1.409084945917129517e-01 -2.236481666564941406e+00 9.850897639989852905e-02
1.820000000000000000e+02 7.372278594970703125e+01 -1.490316104888916016e+01 -1.542874217033386230e+00 1.117017388343811035e+00 -1.277570277452468872e-01 -1.074391484260559082e+00
1.830000000000000000e+02 7.432221984863281250e+01 -1.616124343872070312e+01 -6.671644210815429688e+00 -1.334393024444580078e-01 -2.041525125503540039e+00 2.582799196243286133e-01
1.840000000000000000e+02 7.513895416259765625e+01 -1.622325897216796875e+01 -5.969781875610351562e+00 -2.515151798725128174e-01 -1.866389155387878418e+00 1.897777318954467773e-01
1.850000000000000000e+02 7.726078033447265625e+01 -1.612497329711914062e+01 9.089015007019042969e+00 1.986392021179199219e+01 8.685880661010742188e+00 2.802559852600097656e+00
1.860000000000000000e+02 7.710151672363281250e+01 -1.569495964050292969e+01 4.355898857116699219e+00 2.258028030395507812e+01 8.080853462219238281e+00 3.956215381622314453e+00
1.870000000000000000e+02 7.654644012451171875e+01 -1.530428314208984375e+01 -1.826525688171386719e+00 2.443816757202148438e+01 6.783492565155029297e+00 -1.613066434860229492e+00
1.880000000000000000e+02 7.616690063476562500e+01 -1.525974941253662109e+01 -1.624426364898681641e+00 2.027771186828613281e+01 5.595985889434814453e+00 -6.082330226898193359e+00
1.890000000000000000e+02 7.597419738769531250e+01 -1.499631214141845703e+01 -1.491450309753417969e+00 1.566346073150634766e+01 4.251603126525878906e+00 -6.074042797088623047e+00
1.900000000000000000e+02 7.512834167480468750e+01 -1.645258522033691406e+01 -4.800982952117919922e+00 -3.264617547392845154e-02 -1.450088739395141602e+00 5.186112597584724426e-02
1.910000000000000000e+02 7.476861572265625000e+01 -1.751817321777343750e+01 1.555487751960754395e+00 2.737040996551513672e+00 1.287758588790893555e+00 2.911898136138916016e+00
1.920000000000000000e+02 7.648461151123046875e+01 -1.746017456054687500e+01 -7.467826604843139648e-01 2.399790382385253906e+01 6.975336074829101562e+00 2.461661815643310547e+00
1.930000000000000000e+02 7.410542297363281250e+01 -1.644951820373535156e+01 -4.640795707702636719e+00 -5.571533367037773132e-02 -1.408953309059143066e+00 1.432919222861528397e-02
1.940000000000000000e+02 7.351857757568359375e+01 -1.639974594116210938e+01 -4.188547611236572266e+00 1.294767260551452637e-01 -1.217721223831176758e+00 -3.117424435913562775e-02
1.950000000000000000e+02 7.331960296630859375e+01 -1.660213851928710938e+01 -3.336526632308959961e+00 9.532734751701354980e-02 -9.723597764968872070e-01 -2.829937040805816650e-01
1.960000000000000000e+02 7.547796630859375000e+01 -1.722620964050292969e+01 3.342713594436645508e+00 6.588850975036621094e+00 2.979469537734985352e+00 6.515155315399169922e+00
1.970000000000000000e+02 7.511053466796875000e+01 -1.771387672424316406e+01 2.028301000595092773e+00 5.798078060150146484e+00 2.347913742065429688e+00 4.867175579071044922e+00
1.980000000000000000e+02 7.434443664550781250e+01 -1.765524482727050781e+01 1.000527381896972656e+00 1.916481614112854004e+00 8.751026988029479980e-01 1.868750810623168945e+00
1.990000000000000000e+02 7.373131561279296875e+01 -1.767128372192382812e+01 1.226101666688919067e-01 9.794503450393676758e-01 3.306181430816650391e-01 6.853553652763366699e-01
2.000000000000000000e+02 7.550596618652343750e+01 -1.773611640930175781e+01 1.407058715820312500e+00 9.625746726989746094e+00 3.309841871261596680e+00 6.180644989013671875e+00
2.010000000000000000e+02 7.377506256103515625e+01 -1.687265586853027344e+01 -2.323471784591674805e+00 1.700316667556762695e-01 -6.460320353507995605e-01 -1.601246446371078491e-01
2.020000000000000000e+02 7.583110046386718750e+01 -1.739199829101562500e+01 1.611086964607238770e+00 1.455918598175048828e+01 4.851081848144531250e+00 8.045588493347167969e+00
2.030000000000000000e+02 7.566285705566406250e+01 -1.732347106933593750e+01 2.951797008514404297e+00 1.071096324920654297e+01 4.098828315734863281e+00 7.957472324371337891e+00
2.040000000000000000e+02 7.733983612060546875e+01 -1.715801811218261719e+01 4.218430042266845703e+00 1.988501930236816406e+01 7.231035232543945312e+00 -3.455747127532958984e+00
2.050000000000000000e+02 7.704061889648437500e+01 -1.713264274597167969e+01 3.915554285049438477e+00 2.299694633483886719e+01 8.073750495910644531e+00 -3.312954664230346680e+00
2.060000000000000000e+02 7.716352844238281250e+01 -1.696966743469238281e+01 6.399226188659667969e+00 2.160783386230468750e+01 8.402118682861328125e+00 -3.646717071533203125e+00
2.070000000000000000e+02 7.665762329101562500e+01 -1.770433616638183594e+01 -1.191859364509582520e+00 2.206495857238769531e+01 6.261929512023925781e+00 1.089900732040405273e+00
2.080000000000000000e+02 7.668286895751953125e+01 -1.737761878967285156e+01 -1.843912154436111450e-01 2.486559104919433594e+01 7.404359817504882812e+00 1.051189824938774109e-01
2.090000000000000000e+02 7.590894317626953125e+01 -1.753050613403320312e+01 7.296359539031982422e-01 1.579039478302001953e+01 4.956009387969970703e+00 7.337693214416503906e+00
2.100000000000000000e+02 7.515501403808593750e+01 -1.666800308227539062e+01 -1.036205530166625977e+00 3.460066020488739014e-01 -2.070596814155578613e-01 1.055832266807556152e+00
2.110000000000000000e+02 7.451155853271484375e+01 -1.646810340881347656e+01 -4.786873817443847656e+00 2.013610862195491791e-02 -1.430021286010742188e+00 8.475084602832794189e-02
2.120000000000000000e+02 7.628498840332031250e+01 -1.749096488952636719e+01 -8.047564625740051270e-01 2.199987030029296875e+01 6.358533859252929688e+00 4.880324840545654297e+00
2.130000000000000000e+02 7.682878875732421875e+01 -1.543364810943603516e+01 6.131293997168540955e-02 2.478846168518066406e+01 7.454932212829589844e+00 1.536086916923522949e+00
2.140000000000000000e+02 7.456670379638671875e+01 -1.524869346618652344e+01 -9.196432828903198242e-01 1.689060330390930176e+00 2.308250963687896729e-01 -2.286978244781494141e+00
2.150000000000000000e+02 7.475488281250000000e+01 -1.495499038696289062e+01 -1.975480020046234131e-01 3.478260517120361328e+00 9.842137098312377930e-01 -3.585450410842895508e+00
2.160000000000000000e+02 7.715525817871093750e+01 -1.538153362274169922e+01 1.240731954574584961e+00 2.113136863708496094e+01 6.711630344390869141e+00 3.043372392654418945e+00
2.170000000000000000e+02 7.731910705566406250e+01 -1.596820354461669922e+01 7.504727840423583984e+00 1.987032508850097656e+01 8.212515830993652344e+00 3.258229970932006836e+00
2.180000000000000000e+02 7.496271514892578125e+01 -1.495521259307861328e+01 1.256330907344818115e-01 4.825648784637451172e+00 1.485384583473205566e+00 -4.386556148529052734e+00
2.190000000000000000e+02 7.597483825683593750e+01 -1.526978302001953125e+01 -5.523476600646972656e-01 1.674613571166992188e+01 4.858136653900146484e+00 -7.336528778076171875e+00
2.200000000000000000e+02 7.493752288818359375e+01 -1.619750976562500000e+01 -6.196557998657226562e+00 1.707956343889236450e-01 -1.807728648185729980e+00 1.988388448953628540e-01
2.210000000000000000e+02 7.518616485595703125e+01 -1.601641082763671875e+01 -2.278566360473632812e+00 6.526259779930114746e-01 -4.877821207046508789e-01 -1.150624632835388184e+00
2.220000000000000000e+02 7.519854736328125000e+01 -1.518430233001708984e+01 5.842940807342529297e-01 5.275419235229492188e+00 1.757914066314697266e+00 -5.136821269989013672e+00
2.230000000000000000e+02 7.745145416259765625e+01 -1.623900413513183594e+01 8.359407424926757812e+00 1.798983955383300781e+01 7.904773712158203125e+00 1.587590694427490234e+00
2.240000000000000000e+02 7.617226409912109375e+01 -1.500514793395996094e+01 -1.970493793487548828e+00 1.833191871643066406e+01 4.908427238464355469e+00 -5.095515727996826172e+00
2.250000000000000000e+02 7.655630493164062500e+01 -1.504624176025390625e+01 -2.290967941284179688e+00 2.137253379821777344e+01 5.724469661712646484e+00 -2.006830453872680664e+00
2.260000000000000000e+02 7.697053527832031250e+01 -1.758856010437011719e+01 -1.946908682584762573e-01 2.144364929199218750e+01 6.374687671661376953e+00 -1.086274504661560059e+00
2.270000000000000000e+02 7.709338378906250000e+01 -1.747229194641113281e+01 9.710558652877807617e-01 2.128640747070312500e+01 6.677238941192626953e+00 -2.512941122055053711e+00
2.280000000000000000e+02 7.721144104003906250e+01 -1.731744766235351562e+01 2.541717052459716797e+00 2.100723266601562500e+01 7.064684867858886719e+00 -3.096405982971191406e+00
2.290000000000000000e+02 7.740688323974609375e+01 -1.608101654052734375e+01 7.902634620666503906e+00 1.870216751098632812e+01 7.981441020965576172e+00 2.473581075668334961e+00
2.300000000000000000e+02 7.744418334960937500e+01 -1.699997138977050781e+01 5.552523612976074219e+00 1.853166580200195312e+01 7.225256919860839844e+00 -3.344285964965820312e+00
2.310000000000000000e+02 7.672924804687500000e+01 -1.527803230285644531e+01 -1.157520055770874023e+00 2.389612579345703125e+01 6.821581840515136719e+00 1.718869805335998535e-01
2.320000000000000000e+02 7.681622314453125000e+01 -1.766895484924316406e+01 -7.798821330070495605e-01 2.183044052124023438e+01 6.315167427062988281e+00 -3.773790597915649414e-01
2.330000000000000000e+02 7.762142181396484375e+01 -1.650926780700683594e+01 6.646196842193603516e+00 1.655709457397460938e+01 6.960987567901611328e+00 -1.214633703231811523e+00
2.340000000000000000e+02 7.750111389160156250e+01 -1.640620994567871094e+01 8.139217376708984375e+00 1.781638336181640625e+01 7.786680221557617188e+00 1.709572374820709229e-01
2.350000000000000000e+02 7.749412536621093750e+01 -1.582828330993652344e+01 5.305134773254394531e+00 1.843001747131347656e+01 7.120545864105224609e+00 3.868858098983764648e+00
2.360000000000000000e+02 7.647528839111328125e+01 -1.771823692321777344e+01 -1.380820035934448242e+00 2.120331573486328125e+01 5.946748733520507812e+00 2.660896778106689453e+00
2.370000000000000000e+02 7.672978973388671875e+01 -1.507740974426269531e+01 -2.125757694244384766e+00 2.220241355895996094e+01 6.022996902465820312e+00 -7.957133650779724121e-01
2.380000000000000000e+02 7.728557586669921875e+01 -1.552334308624267578e+01 2.769873619079589844e+00 2.040329742431640625e+01 6.951951026916503906e+00 3.888574838638305664e+00
2.390000000000000000e+02 7.697168731689453125e+01 -1.555344581604003906e+01 1.985854983329772949e+00 2.414772415161132812e+01 7.840073585510253906e+00 3.172152042388916016e+00
2.400000000000000000e+02 7.608103179931640625e+01 -1.774932098388671875e+01 -7.235182523727416992e-01 1.737044334411621094e+01 4.994077682495117188e+00 5.552384853363037109e+00
2.410000000000000000e+02 7.627426910400390625e+01 -1.774247932434082031e+01 -1.138962149620056152e+00 1.959503364562988281e+01 5.536821842193603516e+00 4.383246898651123047e+00
2.420000000000000000e+02 7.430676269531250000e+01 -1.646283721923828125e+01 -4.739157199859619141e+00 5.888094753026962280e-02 -1.404082775115966797e+00 3.423595055937767029e-02
2.430000000000000000e+02 7.334995269775390625e+01 -1.722957992553710938e+01 -1.212958574295043945e+00 2.368372827768325806e-01 -2.928363680839538574e-01 -1.899948418140411377e-01
2.440000000000000000e+02 7.471714782714843750e+01 -1.647008514404296875e+01 -4.784893989562988281e+00 1.258855685591697693e-03 -1.435090541839599609e+00 1.034897789359092712e-01
2.450000000000000000e+02 7.349632263183593750e+01 -1.530361461639404297e+01 -3.051234960556030273e+00 3.520925343036651611e-01 -8.097426891326904297e-01 -3.456739187240600586e-01
2.460000000000000000e+02 7.413326263427734375e+01 -1.494153499603271484e+01 -9.406284689903259277e-01 1.627313971519470215e+00 2.060056328773498535e-01 -1.869541168212890625e+00
2.470000000000000000e+02 7.384665679931640625e+01 -1.544149017333984375e+01 -3.016749620437622070e+00 2.943864166736602783e-01 -8.167089819908142090e-01 -5.482288002967834473e-01
2.480000000000000000e+02 7.434029388427734375e+01 -1.495476531982421875e+01 -8.383013606071472168e-01 1.895589113235473633e+00 3.171863257884979248e-01 -2.252214431762695312e+00
2.490000000000000000e+02 7.537058258056640625e+01 -1.495739078521728516e+01 1.702136844396591187e-01 8.016954421997070312e+00 2.456150293350219727e+00 -5.844108581542968750e+00
2.500000000000000000e+02 7.557363128662109375e+01 -1.496678256988525391e+01 -1.526749432086944580e-01 1.022235012054443359e+01 3.020902633666992188e+00 -6.402450084686279297e+00
2.510000000000000000e+02 7.578052520751953125e+01 -1.523105239868164062e+01 5.903999786823987961e-03 1.329940509796142578e+01 3.991592884063720703e+00 -7.462707042694091797e+00
2.520000000000000000e+02 7.412110900878906250e+01 -1.522948837280273438e+01 -1.762915968894958496e+00 8.205219507217407227e-01 -2.827182114124298096e-01 -1.308084130287170410e+00
2.530000000000000000e+02 7.430461120605468750e+01 -1.588382530212402344e+01 -4.539332389831542969e+00 2.294363528490066528e-01 -1.292968869209289551e+00 -1.203889027237892151e-01
2.540000000000000000e+02 7.539267730712890625e+01 -1.517983818054199219e+01 6.513994336128234863e-01 7.581983089447021484e+00 2.470014810562133789e+00 -6.122516632080078125e+00
2.550000000000000000e+02 7.350205993652343750e+01 -1.660303497314453125e+01 -3.434504270553588867e+00 2.656763233244419098e-02 -1.022381067276000977e+00 -2.069400250911712646e-01
2.560000000000000000e+02 7.348631286621093750e+01 -1.678826904296875000e+01 -2.701225280761718750e+00 1.943529844284057617e-01 -7.520617246627807617e-01 -2.544578015804290771e-01
2.570000000000000000e+02 7.333061218261718750e+01 -1.570953750610351562e+01 -4.614777565002441406e+00 9.178588539361953735e-02 -1.356897592544555664e+00 2.325094342231750488e-01
2.580000000000000000e+02 7.354740142822265625e+01 -1.591679286956787109e+01 -5.639965534210205078e+00 4.908975679427385330e-03 -1.690516948699951172e+00 1.028721109032630920e-01
2.590000000000000000e+02 7.351364898681640625e+01 -1.510496711730957031e+01 -2.279098272323608398e+00 6.738558411598205566e-01 -4.815727770328521729e-01 -5.473403930664062500e-01
2.600000000000000000e+02 7.392908477783203125e+01 -1.743059730529785156e+01 -7.136158645153045654e-02 7.557516098022460938e-01 2.053170204162597656e-01 6.737948060035705566e-01
2.610000000000000000e+02 7.413891601562500000e+01 -1.764427566528320312e+01 6.862828135490417480e-01 1.437165498733520508e+00 6.370344758033752441e-01 1.398515462875366211e+00
2.620000000000000000e+02 7.513225555419921875e+01 -1.745828819274902344e+01 2.411915779113769531e+00 4.622050285339355469e+00 2.110189676284790039e+00 4.731148242950439453e+00
2.630000000000000000e+02 7.373744964599609375e+01 -1.745637702941894531e+01 -2.835644781589508057e-01 7.334328293800354004e-01 1.349605023860931396e-01 3.799733221530914307e-01
2.640000000000000000e+02 7.492317199707031250e+01 -1.646542549133300781e+01 -4.777221679687500000e+00 -1.962012983858585358e-02 -1.439052462577819824e+00 9.018125385046005249e-02
2.650000000000000000e+02 7.390827941894531250e+01 -1.642867469787597656e+01 -4.519369125366210938e+00 6.329271197319030762e-02 -1.336822867393493652e+00 2.653524838387966156e-02
2.660000000000000000e+02 7.371330261230468750e+01 -1.641065025329589844e+01 -4.385632991790771484e+00 -6.602913886308670044e-02 -1.335498690605163574e+00 9.729094803333282471e-03
2.670000000000000000e+02 7.386051177978515625e+01 -1.666452026367187500e+01 -3.246728897094726562e+00 -8.500604890286922455e-03 -9.765688776969909668e-01 -1.272285431623458862e-01
2.680000000000000000e+02 7.412612915039062500e+01 -1.616288948059082031e+01 -6.763129234313964844e+00 1.663781404495239258e-01 -1.979025363922119141e+00 3.014367520809173584e-01
2.690000000000000000e+02 7.490266418457031250e+01 -1.559711647033691406e+01 -7.537121772766113281e-01 1.529201865196228027e+00 2.326469123363494873e-01 -2.369846582412719727e+00
2.700000000000000000e+02 7.353324127197265625e+01 -1.614525604248046875e+01 -7.026757717132568359e+00 -8.778920024633407593e-02 -2.134364128112792969e+00 2.918246984481811523e-01
2.710000000000000000e+02 7.452407073974609375e+01 -1.616819763183593750e+01 -6.536513805389404297e+00 1.245166361331939697e-01 -1.923599243164062500e+00 2.399865984916687012e-01
2.720000000000000000e+02 7.481875610351562500e+01 -1.542433547973632812e+01 -6.976563334465026855e-01 1.985150098800659180e+00 3.862481117248535156e-01 -2.704487085342407227e+00
2.730000000000000000e+02 7.352012634277343750e+01 -1.488731956481933594e+01 -1.781686305999755859e+00 6.779320836067199707e-01 -3.311262726783752441e-01 -8.341346979141235352e-01
2.740000000000000000e+02 7.355644226074218750e+01 -1.568453979492187500e+01 -4.328543186187744141e+00 -1.641950458288192749e-01 -1.347821474075317383e+00 1.232873275876045227e-02
2.750000000000000000e+02 7.499642181396484375e+01 -1.520649051666259766e+01 2.130989432334899902e-01 3.801551342010498047e+00 1.204395174980163574e+00 -4.141488552093505859e+00
2.760000000000000000e+02 7.492787170410156250e+01 -1.751271057128906250e+01 2.022911548614501953e+00 3.379133701324462891e+00 1.620613574981689453e+00 3.731273889541625977e+00
2.770000000000000000e+02 7.485978698730468750e+01 -1.734757041931152344e+01 1.559753656387329102e+00 2.372411727905273438e+00 1.179649591445922852e+00 2.981823444366455078e+00
2.780000000000000000e+02 7.497074127197265625e+01 -1.697751808166503906e+01 1.005448341369628906e+00 1.142050623893737793e+00 6.442496776580810547e-01 2.142806291580200195e+00
2.790000000000000000e+02 7.521754455566406250e+01 -1.687539672851562500e+01 1.624759078025817871e+00 1.296989679336547852e+00 8.765246272087097168e-01 2.659321069717407227e+00
2.800000000000000000e+02 7.426792144775390625e+01 -1.675347709655761719e+01 -2.493635654449462891e+00 9.878700226545333862e-02 -7.184545993804931641e-01 8.334271609783172607e-02
2.810000000000000000e+02 7.365139770507812500e+01 -1.705109786987304688e+01 -1.582823157310485840e+00 2.097331434488296509e-01 -4.119270145893096924e-01 -1.264927834272384644e-01
2.820000000000000000e+02 7.470004272460937500e+01 -1.703226661682128906e+01 2.463359385728836060e-01 8.578451871871948242e-01 3.312543332576751709e-01 1.416585803031921387e+00
2.830000000000000000e+02 7.473101043701171875e+01 -1.617932319641113281e+01 -6.381872177124023438e+00 -1.294990777969360352e-01 -1.953411340713500977e+00 2.206643819808959961e-01
2.840000000000000000e+02 7.497690582275390625e+01 -1.595083141326904297e+01 -2.763076305389404297e+00 1.929436773061752319e-01 -7.710397839546203613e-01 -9.114623665809631348e-01
2.850000000000000000e+02 7.431793975830078125e+01 -1.558197402954101562e+01 -2.662750959396362305e+00 3.837636709213256836e-01 -6.836962103843688965e-01 -8.495664000511169434e-01
2.860000000000000000e+02 7.527154541015625000e+01 -1.582440567016601562e+01 1.633761674165725708e-01 1.592118620872497559e+00 5.266484618186950684e-01 -3.007501125335693359e+00
2.870000000000000000e+02 7.407752227783203125e+01 -1.551965999603271484e+01 -2.952240467071533203e+00 4.779282510280609131e-01 -7.422936558723449707e-01 -6.488502621650695801e-01
2.880000000000000000e+02 7.453591918945312500e+01 -1.564648437500000000e+01 -2.382905244827270508e+00 6.825512647628784180e-01 -5.101061463356018066e-01 -1.017705917358398438e+00
2.890000000000000000e+02 7.375112915039062500e+01 -1.592346477508544922e+01 -5.636968612670898438e+00 -1.044909730553627014e-01 -1.722437858581542969e+00 2.193602621555328369e-01
2.900000000000000000e+02 7.406570434570312500e+01 -1.712894439697265625e+01 -9.200849533081054688e-01 4.195162951946258545e-01 -1.501705944538116455e-01 3.873215019702911377e-01
2.910000000000000000e+02 7.467754364013671875e+01 -1.727989578247070312e+01 9.942781329154968262e-01 1.614947319030761719e+00 7.827676534652709961e-01 2.181536197662353516e+00
2.920000000000000000e+02 7.411041259765625000e+01 -1.591716098785400391e+01 -5.037286758422851562e+00 -5.715773627161979675e-02 -1.528333306312561035e+00 1.039888244122266769e-02
2.930000000000000000e+02 7.331581878662109375e+01 -1.508805465698242188e+01 -2.715141296386718750e+00 5.205804705619812012e-01 -6.583682298660278320e-01 -2.660006880760192871e-01
2.940000000000000000e+02 7.331391906738281250e+01 -1.529753684997558594e+01 -2.883427381515502930e+00 1.808142215013504028e-01 -8.107839226722717285e-01 -5.183261260390281677e-02
2.950000000000000000e+02 7.332081604003906250e+01 -1.550283241271972656e+01 -3.859386205673217773e+00 -1.045245453715324402e-01 -1.189173221588134766e+00 1.769738271832466125e-02
2.960000000000000000e+02 7.370770263671875000e+01 -1.513801002502441406e+01 -2.152348756790161133e+00 5.220919251441955566e-01 -4.890770614147186279e-01 -7.951712012290954590e-01
2.970000000000000000e+02 7.434460449218750000e+01 -1.526399326324462891e+01 -1.297897696495056152e+00 1.291658997535705566e+00 -1.871587592177093029e-03 -1.807668328285217285e+00
2.980000000000000000e+02 7.331935882568359375e+01 -1.680784034729003906e+01 -2.690259695053100586e+00 9.398791193962097168e-02 -7.788815498352050781e-01 -3.246633708477020264e-01
2.990000000000000000e+02 7.333941650390625000e+01 -1.701387977600097656e+01 -1.774026989936828613e+00 2.409898638725280762e-01 -4.599111080169677734e-01 -2.838278412818908691e-01
3.000000000000000000e+02 7.368104553222656250e+01 -1.662198066711425781e+01 -3.413861751556396484e+00 1.464553773403167725e-01 -9.802219271659851074e-01 -1.621196120977401733e-01
3.010000000000000000e+02 7.352285766601562500e+01 -1.694520759582519531e+01 -2.010219097137451172e+00 1.882383227348327637e-01 -5.465942621231079102e-01 -2.287483215332031250e-01
3.020000000000000000e+02 7.354374694824218750e+01 -1.745324897766113281e+01 -4.835295379161834717e-01 5.696527361869812012e-01 2.583695389330387115e-02 2.400391101837158203e-01
3.030000000000000000e+02 7.374172210693359375e+01 -1.727305984497070312e+01 -7.062739133834838867e-01 4.338226616382598877e-01 -8.173537254333496094e-02 2.528575658798217773e-01
3.040000000000000000e+02 7.405298614501953125e+01 -1.672560882568359375e+01 -2.826642751693725586e+00 1.177224889397621155e-01 -8.126760721206665039e-01 -3.455866873264312744e-02
3.050000000000000000e+02 7.448906707763671875e+01 -1.674894714355468750e+01 -2.216111660003662109e+00 2.551519274711608887e-01 -5.882879495620727539e-01 2.553267478942871094e-01
3.060000000000000000e+02 7.454691314697265625e+01 -1.495755672454833984e+01 -5.078842043876647949e-01 2.652148246765136719e+00 6.432792544364929199e-01 -2.858127355575561523e+00
3.070000000000000000e+02 7.470833587646484375e+01 -1.674702835083007812e+01 -1.856799483299255371e+00 1.729519814252853394e-01 -5.051542520523071289e-01 5.204145908355712891e-01
3.080000000000000000e+02 7.493389892578125000e+01 -1.672086524963378906e+01 -1.449214696884155273e+00 2.066814750432968140e-01 -3.727599680423736572e-01 7.644853591918945312e-01
3.090000000000000000e+02 7.516706085205078125e+01 -1.495404434204101562e+01 2.610473334789276123e-01 5.988588333129882812e+00 1.874890685081481934e+00 -5.196974277496337891e+00
3.100000000000000000e+02 7.577545928955078125e+01 -1.498128700256347656e+01 -7.217695713043212891e-01 1.315025615692138672e+01 3.728545904159545898e+00 -6.581061840057373047e+00
3.110000000000000000e+02 7.558787536621093750e+01 -1.519360923767089844e+01 5.304148197174072266e-01 9.577850341796875000e+00 3.032479524612426758e+00 -6.859745025634765625e+00
3.120000000000000000e+02 7.687920379638671875e+01 -1.514515209197998047e+01 -1.034030318260192871e+00 2.253264999389648438e+01 6.449585914611816406e+00 1.019152760505676270e+00
3.130000000000000000e+02 7.739847564697265625e+01 -1.567435836791992188e+01 4.103640079498291016e+00 1.925532531738281250e+01 7.007689952850341797e+00 3.975842237472534180e+00
3.140000000000000000e+02 7.761491394042968750e+01 -1.617065429687500000e+01 7.253546237945556641e+00 1.750295639038085938e+01 7.426950931549072266e+00 1.721396565437316895e+00
3.150000000000000000e+02 7.764344024658203125e+01 -1.634440994262695312e+01 6.646489143371582031e+00 1.669764518737792969e+01 7.003240585327148438e+00 5.191090703010559082e-01
3.160000000000000000e+02 7.392988586425781250e+01 -1.766513252258300781e+01 3.876530528068542480e-01 1.185533523559570312e+00 4.719559550285339355e-01 9.764479994773864746e-01
3.170000000000000000e+02 7.461262512207031250e+01 -1.747774696350097656e+01 1.365424513816833496e+00 2.446752309799194336e+00 1.143653035163879395e+00 2.461043596267700195e+00
3.180000000000000000e+02 7.426540374755859375e+01 -1.702409172058105469e+01 -1.070437669754028320e+00 3.623005747795104980e-01 -2.124411463737487793e-01 4.462792277336120605e-01
3.190000000000000000e+02 7.446994018554687500e+01 -1.739100456237792969e+01 8.660554885864257812e-01 1.371296048164367676e+00 6.712054610252380371e-01 1.658654928207397461e+00
3.200000000000000000e+02 7.531036376953125000e+01 -1.771840667724609375e+01 1.688018679618835449e+00 7.401432037353515625e+00 2.726835250854492188e+00 5.408692359924316406e+00
3.210000000000000000e+02 7.556413269042968750e+01 -1.751459121704101562e+01 2.107319831848144531e+00 9.744142532348632812e+00 3.555438756942749023e+00 6.909118175506591797e+00
3.220000000000000000e+02 7.536046600341796875e+01 -1.745993614196777344e+01 2.613812446594238281e+00 6.678806304931640625e+00 2.787785530090332031e+00 5.955726623535156250e+00
3.230000000000000000e+02 7.675081634521484375e+01 -1.753948020935058594e+01 -4.660870134830474854e-01 2.320337677001953125e+01 6.821187019348144531e+00 1.024525314569473267e-01
3.240000000000000000e+02 7.687550354003906250e+01 -1.726551055908203125e+01 1.916120171546936035e+00 2.442741775512695312e+01 7.903061389923095703e+00 -2.110096931457519531e+00
3.250000000000000000e+02 7.753504180908203125e+01 -1.685154724121093750e+01 6.453269004821777344e+00 1.807101249694824219e+01 7.357284545898437500e+00 -2.873785018920898438e+00
3.260000000000000000e+02 7.739193725585937500e+01 -1.668663215637207031e+01 8.207745552062988281e+00 1.877187538146972656e+01 8.093886375427246094e+00 -2.231970548629760742e+00
3.270000000000000000e+02 7.333206176757812500e+01 -1.592357635498046875e+01 -5.489482879638671875e+00 -3.660334646701812744e-01 -1.756654858589172363e+00 1.560251116752624512e-01
3.280000000000000000e+02 7.393729400634765625e+01 -1.594383144378662109e+01 -5.607987880706787109e+00 1.454007029533386230e-01 -1.638776183128356934e+00 9.030682593584060669e-02
3.290000000000000000e+02 7.452193450927734375e+01 -1.590243911743164062e+01 -4.109748840332031250e+00 8.438919484615325928e-02 -1.207607865333557129e+00 -3.007877171039581299e-01
3.300000000000000000e+02 7.474771881103515625e+01 -1.591615962982177734e+01 -3.377504348754882812e+00 4.531316757202148438e-01 -8.773117661476135254e-01 -6.699492335319519043e-01
3.310000000000000000e+02 7.507093811035156250e+01 -1.572737789154052734e+01 -6.458653807640075684e-01 1.526800274848937988e+00 2.642804682254791260e-01 -2.538147687911987305e+00
3.320000000000000000e+02 7.519304656982421875e+01 -1.552600574493408203e+01 8.503631949424743652e-01 3.384101867675781250e+00 1.270339488983154297e+00 -4.332946300506591797e+00
3.330000000000000000e+02 7.573931121826171875e+01 -1.755489540100097656e+01 1.431731462478637695e+00 1.247618675231933594e+01 4.172375679016113281e+00 7.188116550445556641e+00
3.340000000000000000e+02 7.732212829589843750e+01 -1.648493957519531250e+01 9.619733810424804688e+00 1.908835983276367188e+01 8.612428665161132812e+00 -7.962181568145751953e-01
3.350000000000000000e+02 7.378213500976562500e+01 -1.568837165832519531e+01 -4.078711032867431641e+00 1.768336743116378784e-01 -1.170563220977783203e+00 -1.235257536172866821e-01
3.360000000000000000e+02 7.365861511230468750e+01 -1.535783386230468750e+01 -2.987606048583984375e+00 3.761617541313171387e-01 -7.834333181381225586e-01 -3.708634078502655029e-01
3.370000000000000000e+02 7.394180297851562500e+01 -1.696053504943847656e+01 -1.781544685363769531e+00 1.877612918615341187e-01 -4.781350195407867432e-01 3.438682854175567627e-02
3.380000000000000000e+02 7.434652709960937500e+01 -1.723556518554687500e+01 1.475166380405426025e-01 8.745499849319458008e-01 3.066200017929077148e-01 1.112179040908813477e+00
3.390000000000000000e+02 7.390713500976562500e+01 -1.518399333953857422e+01 -2.005334854125976562e+00 8.635005950927734375e-01 -3.425502777099609375e-01 -9.767668843269348145e-01
3.400000000000000000e+02 7.478035736083984375e+01 -1.521003246307373047e+01 -2.447916418313980103e-01 2.725074291229248047e+00 7.440847754478454590e-01 -3.149416685104370117e+00
3.410000000000000000e+02 7.499651336669921875e+01 -1.543073844909667969e+01 1.566810607910156250e-01 2.920867443084716797e+00 9.232645630836486816e-01 -3.647850751876831055e+00
3.420000000000000000e+02 7.532552337646484375e+01 -1.535667705535888672e+01 9.728413820266723633e-01 5.947418212890625000e+00 2.076077938079833984e+00 -5.676566600799560547e+00
3.430000000000000000e+02 7.362928771972656250e+01 -1.680651855468750000e+01 -2.603157758712768555e+00 8.195742964744567871e-02 -7.563601136207580566e-01 -2.155691087245941162e-01
3.440000000000000000e+02 7.399237823486328125e+01 -1.575190258026123047e+01 -4.121970653533935547e+00 7.686317712068557739e-02 -1.213532209396362305e+00 -1.136913448572158813e-01
3.450000000000000000e+02 7.356523132324218750e+01 -1.724200248718261719e+01 -9.695608615875244141e-01 4.668383598327636719e-01 -1.508167535066604614e-01 -1.918722316622734070e-02
3.460000000000000000e+02 7.352231597900390625e+01 -1.548150539398193359e+01 -3.421341419219970703e+00 2.178008258342742920e-01 -9.610621929168701172e-01 -1.055406332015991211e-01
3.470000000000000000e+02 7.464323425292968750e+01 -1.548517990112304688e+01 -1.089940190315246582e+00 1.364022493362426758e+00 8.222468197345733643e-02 -2.075861454010009766e+00
3.480000000000000000e+02 7.473132324218750000e+01 -1.567980289459228516e+01 -1.853747129440307617e+00 6.874886155128479004e-01 -3.498775660991668701e-01 -1.406345009803771973e+00
3.490000000000000000e+02 7.413230133056640625e+01 -1.736673736572265625e+01 1.806915253400802612e-01 9.309893846511840820e-01 3.335042893886566162e-01 8.713625669479370117e-01
3.500000000000000000e+02 7.380484771728515625e+01 -1.712301826477050781e+01 -1.091148734092712402e+00 4.199188351631164551e-01 -2.013689875602722168e-01 9.162763506174087524e-02
3.510000000000000000e+02 7.446646118164062500e+01 -1.701601982116699219e+01 -5.942215919494628906e-01 6.171396970748901367e-01 6.875422317534685135e-03 8.556358218193054199e-01
3.520000000000000000e+02 7.389559936523437500e+01 -1.724149322509765625e+01 -6.296694874763488770e-01 5.518033504486083984e-01 -2.335984073579311371e-02 2.787431180477142334e-01
3.530000000000000000e+02 7.270565795898437500e+01 -1.596478843688964844e+01 -5.796431541442871094e+00 -2.666437327861785889e-01 -1.818922519683837891e+00 6.233193725347518921e-02
3.540000000000000000e+02 7.259341430664062500e+01 -1.549289226531982422e+01 -3.838082551956176758e+00 4.295647442340850830e-01 -1.022555351257324219e+00 3.491043746471405029e-01
3.550000000000000000e+02 7.204357910156250000e+01 -1.512834262847900391e+01 -3.041375875473022461e+00 1.185068115592002869e-01 -8.768607378005981445e-01 4.920723736286163330e-01
3.560000000000000000e+02 7.129060363769531250e+01 -1.516578674316406250e+01 -2.874331235885620117e+00 2.935123443603515625e-01 -7.742456793785095215e-01 9.014790058135986328e-01
3.570000000000000000e+02 7.307054138183593750e+01 -1.570939826965332031e+01 -4.823420047760009766e+00 -9.853612631559371948e-02 -1.476586818695068359e+00 4.650907963514328003e-02
3.580000000000000000e+02 7.306439971923828125e+01 -1.511679649353027344e+01 -2.687480926513671875e+00 1.751514077186584473e-01 -7.536988258361816406e-01 5.316812172532081604e-02
3.590000000000000000e+02 7.257634735107421875e+01 -1.514091014862060547e+01 -3.119327306747436523e+00 3.429850637912750244e-01 -8.329026699066162109e-01 1.757800728082656860e-01
3.600000000000000000e+02 7.292146301269531250e+01 -1.490644168853759766e+01 -2.538229465484619141e+00 3.004170060157775879e-01 -6.713437438011169434e-01 -1.065528914332389832e-01
3.610000000000000000e+02 7.048613739013671875e+01 -1.516209316253662109e+01 -2.895626068115234375e+00 3.359926640987396240e-01 -7.678900361061096191e-01 1.043777585029602051e+00
3.620000000000000000e+02 7.187076568603515625e+01 -1.600712776184082031e+01 -4.712496280670166016e+00 6.500592827796936035e-02 -1.394247174263000488e+00 -6.521430611610412598e-02
3.630000000000000000e+02 7.057009124755859375e+01 -1.614170646667480469e+01 -3.417406082153320312e+00 1.953430026769638062e-01 -9.666188955307006836e-01 1.026521399617195129e-01
3.640000000000000000e+02 7.052501678466796875e+01 -1.565788173675537109e+01 -2.784486770629882812e+00 1.983754932880401611e-01 -7.758333683013916016e-01 8.383609652519226074e-01
3.650000000000000000e+02 7.294895172119140625e+01 -1.614799690246582031e+01 -6.480870723724365234e+00 5.887726321816444397e-03 -1.942494869232177734e+00 -3.077930537983775139e-03
3.660000000000000000e+02 7.279108428955078125e+01 -1.567426681518554688e+01 -4.425961971282958984e+00 -3.396067395806312561e-02 -1.337976813316345215e+00 1.944786459207534790e-01
3.670000000000000000e+02 7.308797454833984375e+01 -1.549857711791992188e+01 -3.664785146713256836e+00 1.398470252752304077e-02 -1.095240116119384766e+00 1.629184484481811523e-01
3.680000000000000000e+02 7.309912872314453125e+01 -1.529985904693603516e+01 -3.199038028717041016e+00 3.048680722713470459e-02 -9.505653381347656250e-01 7.807992398738861084e-02
3.690000000000000000e+02 7.287424468994140625e+01 -1.525674915313720703e+01 -3.120057344436645508e+00 9.423431754112243652e-02 -9.077469110488891602e-01 2.270449995994567871e-01
3.700000000000000000e+02 7.229153442382812500e+01 -1.572123050689697266e+01 -4.901276588439941406e+00 -1.273130327463150024e-01 -1.508576869964599609e+00 4.769313633441925049e-01
3.710000000000000000e+02 7.127171325683593750e+01 -1.567962837219238281e+01 -3.932107210159301758e+00 2.312043011188507080e-01 -1.110270857810974121e+00 5.993594527244567871e-01
3.720000000000000000e+02 7.128042602539062500e+01 -1.611954116821289062e+01 -4.127976894378662109e+00 -8.564765751361846924e-02 -1.264087319374084473e+00 -1.849194988608360291e-02
3.730000000000000000e+02 7.305217742919921875e+01 -1.592303466796875000e+01 -5.669013977050781250e+00 1.965170055627822876e-01 -1.641749143600463867e+00 3.448793590068817139e-01
3.740000000000000000e+02 7.284020233154296875e+01 -1.546831130981445312e+01 -3.613276720046997070e+00 -2.199150994420051575e-02 -1.090580463409423828e+00 2.078146487474441528e-01
3.750000000000000000e+02 6.852304077148437500e+01 -1.556117630004882812e+01 -1.383985996246337891e+00 -6.091665029525756836e-01 -5.979457497596740723e-01 1.314347863197326660e+00
3.760000000000000000e+02 6.985109710693359375e+01 -1.572831630706787109e+01 -2.558461904525756836e+00 2.199935466051101685e-01 -7.015404701232910156e-01 8.216806650161743164e-01
3.770000000000000000e+02 6.811945343017578125e+01 -1.582420539855957031e+01 -3.766716271638870239e-02 -2.881430983543395996e-01 -9.774307906627655029e-02 2.585745751857757568e-01
3.780000000000000000e+02 6.976244354248046875e+01 -1.524429702758789062e+01 -2.424177646636962891e+00 2.028629779815673828e-01 -6.663944125175476074e-01 1.158624291419982910e+00
3.790000000000000000e+02 6.912391662597656250e+01 -1.540415477752685547e+01 -1.940562963485717773e+00 1.272912770509719849e-01 -5.439814925193786621e-01 1.244833707809448242e+00
3.800000000000000000e+02 6.982009124755859375e+01 -1.621899986267089844e+01 -1.863553643226623535e+00 -2.160378172993659973e-02 -5.655472278594970703e-01 2.830445468425750732e-01
3.810000000000000000e+02 6.872669982910156250e+01 -1.627750587463378906e+01 -4.054087698459625244e-01 -4.624462872743606567e-02 -1.354960203170776367e-01 1.075548231601715088e-01
3.820000000000000000e+02 6.932421112060546875e+01 -1.599467468261718750e+01 -1.645462036132812500e+00 -1.103330850601196289e-01 -5.267385244369506836e-01 6.162385344505310059e-01
3.830000000000000000e+02 6.846734619140625000e+01 -1.765766716003417969e+01 -3.487988933920860291e-02 -3.535358309745788574e-01 -1.165247112512588501e-01 -6.880983710289001465e-02
3.840000000000000000e+02 6.902794647216796875e+01 -1.774423980712890625e+01 -2.284227907657623291e-01 -4.466602206230163574e-01 -2.025249004364013672e-01 -4.229714572429656982e-01
3.850000000000000000e+02 6.989218139648437500e+01 -1.761616897583007812e+01 -4.035375714302062988e-01 -3.024256825447082520e-01 -2.117889672517776489e-01 -7.030292153358459473e-01
3.860000000000000000e+02 6.980416870117187500e+01 -1.688065528869628906e+01 -5.931634306907653809e-01 -1.131560280919075012e-01 -2.118958383798599243e-01 -3.345803916454315186e-01
3.870000000000000000e+02 6.892420196533203125e+01 -1.701133537292480469e+01 -1.005093976855278015e-01 -9.599877893924713135e-02 -5.895245447754859924e-02 -1.626904159784317017e-01
3.880000000000000000e+02 6.992929077148437500e+01 -1.830353546142578125e+01 -3.195285201072692871e-01 -6.835061311721801758e-01 -3.009104132652282715e-01 -9.986820816993713379e-01
3.890000000000000000e+02 7.076948547363281250e+01 -1.821937370300292969e+01 -4.114871621131896973e-01 1.360236555337905884e-01 -8.263904601335525513e-02 -9.480271339416503906e-01
3.900000000000000000e+02 7.484559631347656250e+01 -2.501002883911132812e+01 -3.443567454814910889e-01 7.424431324005126953e+00 2.124022483825683594e+00 9.588773250579833984e-01
3.910000000000000000e+02 7.945683288574218750e+01 -2.370572853088378906e+01 -2.592602930963039398e-02 1.369291496276855469e+01 4.100096702575683594e+00 -4.714457318186759949e-03
3.920000000000000000e+02 7.836979675292968750e+01 -2.507219886779785156e+01 -9.869442135095596313e-02 1.185614013671875000e+01 3.527233600616455078e+00 3.795787990093231201e-01
3.930000000000000000e+02 7.947048950195312500e+01 -2.232387542724609375e+01 -3.408100455999374390e-02 1.375549507141113281e+01 4.116424083709716797e+00 -8.362099528312683105e-02
3.940000000000000000e+02 7.852791595458984375e+01 -2.103046798706054688e+01 -7.176343798637390137e-01 1.262170886993408203e+01 3.571222305297851562e+00 -7.283282279968261719e-01
3.950000000000000000e+02 7.326758575439453125e+01 -1.794943428039550781e+01 1.287613064050674438e-01 9.624300599098205566e-01 3.273574113845825195e-01 3.292286694049835205e-01
3.960000000000000000e+02 7.149755859375000000e+01 -1.816028213500976562e+01 -3.811594843864440918e-01 5.627934634685516357e-02 -9.746403992176055908e-02 -7.729212641716003418e-01
3.970000000000000000e+02 7.087728118896484375e+01 -2.210853958129882812e+01 -5.461648106575012207e-01 1.371739387512207031e+00 2.476723790168762207e-01 -4.131991788744926453e-02
3.980000000000000000e+02 6.823490905761718750e+01 -2.187222290039062500e+01 -1.070467710494995117e+00 -3.110837936401367188e+00 -1.254391670227050781e+00 -1.537210941314697266e+00
3.990000000000000000e+02 7.146556854248046875e+01 -2.578657531738281250e+01 -4.625850319862365723e-01 3.158185720443725586e+00 8.086802363395690918e-01 6.768038868904113770e-01
4.000000000000000000e+02 7.519267272949218750e+01 -3.008573341369628906e+01 5.409849435091018677e-02 7.534547805786132812e+00 2.276593923568725586e+00 1.027401089668273926e+00
4.010000000000000000e+02 7.935128021240234375e+01 -3.059135627746582031e+01 -2.884572895709425211e-04 1.145905971527099609e+01 3.437631130218505859e+00 1.929075270891189575e-01
4.020000000000000000e+02 7.806359863281250000e+01 -3.187656402587890625e+01 4.139647632837295532e-02 9.949388504028320312e+00 2.997235536575317383e+00 5.309058427810668945e-01
4.030000000000000000e+02 7.936605834960937500e+01 -2.920137596130371094e+01 -2.431608038023114204e-03 1.193473815917968750e+01 3.579691886901855469e+00 1.918307840824127197e-01
4.040000000000000000e+02 7.817094421386718750e+01 -2.768670272827148438e+01 1.058880146592855453e-02 1.106517314910888672e+01 3.322728633880615234e+00 5.489257574081420898e-01
4.050000000000000000e+02 7.592198944091796875e+01 -2.430782508850097656e+01 -3.708169758319854736e-01 8.923403739929199219e+00 2.565776109695434570e+00 7.676606774330139160e-01
4.060000000000000000e+02 7.228851318359375000e+01 -1.856609916687011719e+01 1.212441325187683105e-01 7.885471582412719727e-01 2.729373872280120850e-01 -2.105415016412734985e-01
4.070000000000000000e+02 6.917664337158203125e+01 -2.423550605773925781e+01 -1.057601094245910645e+00 1.611678302288055420e-01 -2.689299881458282471e-01 -2.388509958982467651e-01
4.080000000000000000e+02 6.846601104736328125e+01 -2.687678718566894531e+01 -7.437182068824768066e-01 6.444607973098754883e-01 -2.977721951901912689e-02 -6.180799566209316254e-03
4.090000000000000000e+02 6.874047088623046875e+01 -3.565503311157226562e+01 8.009038567543029785e-01 2.582652807235717773e+00 1.015066981315612793e+00 6.672286987304687500e-01
4.100000000000000000e+02 6.845644378662109375e+01 -3.802775192260742188e+01 1.041387081146240234e+00 2.467436075210571289e+00 1.052646994590759277e+00 4.746275246143341064e-01
4.110000000000000000e+02 6.786468505859375000e+01 -4.093704986572265625e+01 1.268600344657897949e+00 2.154403924942016602e+00 1.026901245117187500e+00 1.371264457702636719e-01
4.120000000000000000e+02 7.204150390625000000e+01 -4.105288314819335938e+01 7.365574240684509277e-01 4.879558086395263672e+00 1.684834718704223633e+00 1.604346334934234619e-01
4.130000000000000000e+02 7.140968322753906250e+01 -3.815544891357421875e+01 7.494356632232666016e-01 4.371264457702636719e+00 1.536210060119628906e+00 5.580865144729614258e-01
4.140000000000000000e+02 7.267691040039062500e+01 -3.463444900512695312e+01 4.158921241760253906e-01 5.141799926757812500e+00 1.667307615280151367e+00 8.833598494529724121e-01
4.150000000000000000e+02 7.182982635498046875e+01 -2.895736122131347656e+01 -1.502825319766998291e-01 4.251091480255126953e+00 1.230242729187011719e+00 9.770942330360412598e-01
4.160000000000000000e+02 7.006677246093750000e+01 -2.680792999267578125e+01 -4.949592649936676025e-01 2.001967906951904297e+00 4.521026015281677246e-01 5.592658519744873047e-01
4.170000000000000000e+02 6.919173431396484375e+01 -2.598768997192382812e+01 -7.129343152046203613e-01 8.617636561393737793e-01 4.464880749583244324e-02 3.206731006503105164e-02
4.180000000000000000e+02 6.650523376464843750e+01 -2.456556320190429688e+01 -1.844659686088562012e+00 -2.009996891021728516e+00 -1.156396985054016113e+00 -1.879138708114624023e+00
4.190000000000000000e+02 6.554811096191406250e+01 -2.556391143798828125e+01 -1.904399991035461426e+00 -1.948638081550598145e+00 -1.155911445617675781e+00 -1.911775588989257812e+00
4.200000000000000000e+02 6.562449645996093750e+01 -2.781208610534667969e+01 -1.497924447059631348e+00 -8.920541405677795410e-01 -7.169935703277587891e-01 -1.003653407096862793e+00
4.210000000000000000e+02 6.457078552246093750e+01 -3.100765037536621094e+01 -5.887725353240966797e-01 -4.030758440494537354e-01 -2.975545227527618408e-01 -2.724351882934570312e-01
4.220000000000000000e+02 6.581256866455078125e+01 -3.696037673950195312e+01 1.076836943626403809e+00 1.073342680931091309e+00 6.450539231300354004e-01 2.980716824531555176e-01
4.230000000000000000e+02 6.434333801269531250e+01 -3.936219787597656250e+01 1.431296229362487793e+00 6.102132797241210938e-01 6.124528646469116211e-01 7.403237372636795044e-02
4.240000000000000000e+02 6.138132476806640625e+01 -4.082781982421875000e+01 1.477233290672302246e+00 1.202074512839317322e-01 4.792322218418121338e-01 -4.240902513265609741e-02
4.250000000000000000e+02 6.356095123291015625e+01 -2.756333732604980469e+01 -2.509764194488525391e+00 -1.942663550376892090e+00 -1.335728287696838379e+00 -2.067162513732910156e+00
4.260000000000000000e+02 6.224005126953125000e+01 -3.076297950744628906e+01 -1.250658035278320312e+00 -1.118120670318603516e+00 -7.106335759162902832e-01 -7.936162352561950684e-01
4.270000000000000000e+02 6.216040420532226562e+01 -3.346010971069335938e+01 1.372974961996078491e-01 -6.755701899528503418e-01 -1.614818125963211060e-01 -2.995716631412506104e-01
4.280000000000000000e+02 6.121558380126953125e+01 -2.927152824401855469e+01 -2.966094493865966797e+00 -1.118419766426086426e+00 -1.225354194641113281e+00 -1.621161103248596191e+00
4.290000000000000000e+02 5.849945449829101562e+01 -3.044108009338378906e+01 -2.528192043304443359e+00 -4.804616272449493408e-01 -9.025960564613342285e-01 -9.370098114013671875e-01
4.300000000000000000e+02 5.938327407836914062e+01 -3.242391204833984375e+01 -7.852147817611694336e-01 -7.767564058303833008e-01 -4.685913324356079102e-01 -7.283944487571716309e-01
4.310000000000000000e+02 5.844619750976562500e+01 -3.526021575927734375e+01 4.542815387248992920e-01 -4.476486742496490479e-01 1.989859621971845627e-03 -5.827972888946533203e-01
4.320000000000000000e+02 5.624736404418945312e+01 -3.817535781860351562e+01 8.455155491828918457e-01 3.015838563442230225e-01 3.441298305988311768e-01 -5.793065428733825684e-01
4.330000000000000000e+02 5.699781417846679688e+01 -4.103506469726562500e+01 1.137567520141601562e+00 1.995675116777420044e-01 4.011405110359191895e-01 -2.054390311241149902e-01
4.340000000000000000e+02 6.203254699707031250e+01 -3.676958084106445312e+01 1.033480525016784668e+00 -2.776987850666046143e-01 2.267345190048217773e-01 -1.056111901998519897e-01
4.350000000000000000e+02 5.702236175537109375e+01 -3.080054092407226562e+01 -2.198292016983032227e+00 -3.227737247943878174e-01 -7.563197016716003418e-01 -6.900561451911926270e-01
4.360000000000000000e+02 5.384917831420898438e+01 -3.289688110351562500e+01 -1.353524327278137207e-01 3.526080846786499023e-01 6.517669558525085449e-02 -1.247169733047485352e+00
4.370000000000000000e+02 5.592175674438476562e+01 -3.553498077392578125e+01 3.810323178768157959e-01 2.254492938518524170e-01 1.819444894790649414e-01 -9.367138743400573730e-01
4.380000000000000000e+02 5.236915206909179688e+01 -3.776608276367187500e+01 1.441514641046524048e-01 1.875255227088928223e+00 6.058219671249389648e-01 -1.073323726654052734e+00
4.390000000000000000e+02 5.222174835205078125e+01 -4.089977645874023438e+01 1.548452377319335938e-01 2.046870946884155273e+00 6.605148911476135254e-01 -3.839773535728454590e-01
4.400000000000000000e+02 5.247304534912109375e+01 -3.061440658569335938e+01 -3.233871757984161377e-01 3.174118399620056152e-01 -1.792602124623954296e-03 -5.156537890434265137e-01
4.410000000000000000e+02 5.107541656494140625e+01 -3.032561874389648438e+01 8.150043487548828125e-01 8.473914265632629395e-01 4.987187385559082031e-01 -1.108659267425537109e+00
4.420000000000000000e+02 5.325995635986328125e+01 -3.509775543212890625e+01 1.563601046800613403e-01 1.151037573814392090e+00 3.922193050384521484e-01 -1.461112380027770996e+00
4.430000000000000000e+02 4.738739776611328125e+01 -4.079181671142578125e+01 -8.664948940277099609e-01 4.087864875793457031e+00 9.664109945297241211e-01 -3.283545672893524170e-01
4.440000000000000000e+02 4.642565536499023438e+01 -3.088606262207031250e+01 1.523667275905609131e-01 6.468378067016601562e+00 1.986223459243774414e+00 -1.974698185920715332e+00
4.450000000000000000e+02 4.976330566406250000e+01 -2.997580909729003906e+01 2.026904344558715820e+00 2.549685955047607422e+00 1.372977137565612793e+00 -2.192404270172119141e+00
4.460000000000000000e+02 4.286437988281250000e+01 -3.057171249389648438e+01 -2.211476266384124756e-01 7.561786651611328125e+00 2.202191829681396484e+00 -3.978931307792663574e-01
4.470000000000000000e+02 4.051779174804687500e+01 -3.021384239196777344e+01 -9.475250542163848877e-02 7.089272022247314453e+00 2.098355770111083984e+00 2.737634479999542236e-01
4.480000000000000000e+02 3.667245483398437500e+01 -3.274916076660156250e+01 -6.489386558532714844e-01 5.265002250671386719e+00 1.384819030761718750e+00 1.005444407463073730e+00
4.490000000000000000e+02 3.420074844360351562e+01 -3.039926528930664062e+01 -1.433900892734527588e-01 4.189876079559326172e+00 1.213945746421813965e+00 1.440079450607299805e+00
4.500000000000000000e+02 2.654312133789062500e+01 -3.176062583923339844e+01 -3.295173048973083496e-01 2.665242850780487061e-01 -1.889790967106819153e-02 3.021904528141021729e-01
4.510000000000000000e+02 2.461851692199707031e+01 -2.997559547424316406e+01 -1.168392419815063477e+00 -4.675216600298881531e-02 -3.645433783531188965e-01 6.913594156503677368e-02
4.520000000000000000e+02 2.319138908386230469e+01 -3.056346130371093750e+01 -7.834028601646423340e-01 5.530698224902153015e-02 -2.184287607669830322e-01 -6.371685117483139038e-02
4.530000000000000000e+02 2.232254028320312500e+01 -2.923383712768554688e+01 -8.004671335220336914e-01 -9.440207853913307190e-03 -2.429722100496292114e-01 4.160842671990394592e-02
4.540000000000000000e+02 2.130841827392578125e+01 -2.836475181579589844e+01 -2.878073453903198242e-01 1.517572999000549316e-01 -4.081501811742782593e-02 2.878146246075630188e-02
4.550000000000000000e+02 2.028714942932128906e+01 -2.747137069702148438e+01 -5.238369852304458618e-02 2.547225058078765869e-01 6.070164218544960022e-02 -1.675411313772201538e-01
4.560000000000000000e+02 1.710970878601074219e+01 -2.471588134765625000e+01 4.285554587841033936e-01 1.039122819900512695e+00 4.403035044670104980e-01 -6.467900872230529785e-01
4.570000000000000000e+02 1.529545974731445312e+01 -2.242276382446289062e+01 6.616032123565673828e-01 2.258079528808593750e+00 8.759047985076904297e-01 -1.088651657104492188e+00
4.580000000000000000e+02 1.449684143066406250e+01 -2.114854240417480469e+01 7.231293320655822754e-01 3.790150165557861328e+00 1.353983759880065918e+00 -8.520098924636840820e-01
4.590000000000000000e+02 1.417536640167236328e+01 -1.965585517883300781e+01 4.614758491516113281e-01 4.267675399780273438e+00 1.418745398521423340e+00 -2.381586283445358276e-01
4.600000000000000000e+02 1.297498607635498047e+01 -1.666279220581054688e+01 7.907993197441101074e-01 3.120839834213256836e+00 1.173491716384887695e+00 6.013489365577697754e-01
4.610000000000000000e+02 9.823430061340332031e+00 -1.473206520080566406e+01 8.267897963523864746e-01 1.094955086708068848e+00 5.765234231948852539e-01 -3.136680275201797485e-02
4.620000000000000000e+02 4.348382472991943359e+00 -1.104841709136962891e+01 1.419119536876678467e-01 -5.744966864585876465e-01 -1.297754198312759399e-01 -4.813350439071655273e-01
4.630000000000000000e+02 6.228416562080383301e-01 -1.072220993041992188e+01 9.150516241788864136e-03 -1.500135064125061035e+00 -4.472953677177429199e-01 -1.043320223689079285e-01
4.640000000000000000e+02 1.873819708824157715e+00 -1.078972911834716797e+01 3.259739652276039124e-02 -1.154375076293945312e+00 -3.365333080291748047e-01 -2.913247346878051758e-01
4.650000000000000000e+02 6.154364943504333496e-01 -1.212652492523193359e+01 7.253165356814861298e-03 -1.726598024368286133e+00 -5.158034563064575195e-01 -8.605396002531051636e-02
4.660000000000000000e+02 1.838872790336608887e+00 -1.354190540313720703e+01 4.849817231297492981e-02 -1.444384574890136719e+00 -4.187659323215484619e-01 -1.777408421039581299e-01
4.670000000000000000e+02 4.421589374542236328e+00 -1.740413665771484375e+01 2.421071678400039673e-01 -6.614596247673034668e-01 -1.258057355880737305e-01 5.234307795763015747e-02
4.680000000000000000e+02 9.842112541198730469e+00 -1.944033241271972656e+01 6.295622587203979492e-01 1.292157649993896484e+00 5.765159726142883301e-01 3.271366059780120850e-01
4.690000000000000000e+02 1.411569786071777344e+01 -2.340036010742187500e+01 9.789746999740600586e-02 2.397599935531616211e+00 7.486492395401000977e-01 -3.042700290679931641e-01
4.700000000000000000e+02 4.626398468017578125e+01 -2.619717979431152344e+01 3.138682126998901367e+00 1.128060054779052734e+01 4.325784683227539062e+00 -4.898202896118164062e+00
4.710000000000000000e+02 4.573968124389648438e+01 -2.486316490173339844e+01 2.142030715942382812e+00 1.458055496215820312e+01 5.016775608062744141e+00 -4.140641212463378906e+00
4.720000000000000000e+02 4.387104034423828125e+01 -2.249301528930664062e+01 1.674477100372314453e+00 1.224392700195312500e+01 4.175521373748779297e+00 -1.387814164161682129e+00
4.730000000000000000e+02 4.526861572265625000e+01 -2.208749961853027344e+01 1.918881386518478394e-01 1.350186061859130859e+01 4.108124732971191406e+00 -7.480395436286926270e-01
4.740000000000000000e+02 4.112719345092773438e+01 -1.867828178405761719e+01 2.071953535079956055e+00 9.160641670227050781e+00 3.369778633117675781e+00 -1.093261241912841797e+00
4.750000000000000000e+02 3.522634124755859375e+01 -1.496572017669677734e+01 1.020431518554687500e+00 1.283368873596191406e+01 4.156236171722412109e+00 -2.700759887695312500e+00
4.760000000000000000e+02 3.477339935302734375e+01 -1.094330787658691406e+01 3.155728876590728760e-01 8.928960800170898438e+00 2.773360252380371094e+00 -2.262978076934814453e+00
4.770000000000000000e+02 3.463849258422851562e+01 -1.234185028076171875e+01 1.481608510017395020e+00 1.042118167877197266e+01 3.570837020874023438e+00 -3.421156644821166992e+00
4.780000000000000000e+02 4.213463973999023438e+01 -2.160169792175292969e+01 2.121358156204223633e+00 1.003369617462158203e+01 3.646516323089599609e+00 -1.058852910995483398e+00
4.790000000000000000e+02 4.486858367919921875e+01 -1.571328067779541016e+01 1.321200013160705566e+00 7.835789680480957031e+00 2.747096776962280273e+00 9.164612889289855957e-01
4.800000000000000000e+02 3.868161773681640625e+01 -1.483968353271484375e+01 1.124571084976196289e+00 8.923077583312988281e+00 3.014294624328613281e+00 -1.654353260993957520e+00
4.810000000000000000e+02 3.654068756103515625e+01 -9.878705024719238281e+00 -1.530385494232177734e+00 9.221737861633300781e+00 2.307405710220336914e+00 -1.213959217071533203e+00
4.820000000000000000e+02 3.321944808959960938e+01 -8.274348258972167969e+00 -2.986218929290771484e+00 6.250507831573486328e+00 9.792867302894592285e-01 -1.449712514877319336e+00
4.830000000000000000e+02 3.131823921203613281e+01 -8.640923500061035156e+00 -3.259478569030761719e+00 6.653034090995788574e-01 -7.782525420188903809e-01 4.990870058536529541e-01
4.840000000000000000e+02 3.248850250244140625e+01 -9.543514251708984375e+00 -7.842219471931457520e-01 2.926578283309936523e+00 6.427068710327148438e-01 -9.510173797607421875e-01
4.850000000000000000e+02 4.546433258056640625e+01 -1.864432144165039062e+01 1.937108635902404785e+00 1.297580146789550781e+01 4.473873138427734375e+00 2.536798954010009766e+00
4.860000000000000000e+02 4.620308685302734375e+01 -1.609999275207519531e+01 2.384142875671386719e+00 6.420941352844238281e+00 2.641525268554687500e+00 2.608796596527099609e+00
4.870000000000000000e+02 4.861884307861328125e+01 -1.538717555999755859e+01 2.840987920761108398e+00 1.494363903999328613e+00 1.300605535507202148e+00 1.979038476943969727e+00
4.880000000000000000e+02 5.002437973022460938e+01 -1.506157207489013672e+01 1.362077236175537109e+00 5.732935667037963867e-01 5.806112289428710938e-01 1.024208068847656250e+00
4.890000000000000000e+02 5.273818969726562500e+01 -1.360845088958740234e+01 -7.570880651473999023e-01 3.982966244220733643e-01 -1.076374202966690063e-01 1.049036383628845215e+00
4.900000000000000000e+02 5.534183502197265625e+01 -1.340023899078369141e+01 -2.008745670318603516e+00 3.466597199440002441e-01 -4.986257553100585938e-01 4.788970649242401123e-01
4.910000000000000000e+02 5.421261596679687500e+01 -1.049835300445556641e+01 -1.476437449455261230e+00 1.298498630523681641e+00 -5.338165536522865295e-02 1.855797171592712402e+00
4.920000000000000000e+02 5.336262512207031250e+01 -6.353595256805419922e+00 -8.429944515228271484e-01 2.690253019332885742e+00 5.541775226593017578e-01 2.232524871826171875e+00
4.930000000000000000e+02 5.476549911499023438e+01 -2.392559528350830078e+00 2.721322774887084961e+00 3.234907150268554688e+00 1.786868929862976074e+00 2.907105684280395508e+00
4.940000000000000000e+02 5.653942108154296875e+01 -4.866603314876556396e-01 2.442842245101928711e+00 3.678598880767822266e+00 1.836432337760925293e+00 2.826477766036987305e+00
4.950000000000000000e+02 6.188529586791992188e+01 -1.147927880287170410e+00 1.547074794769287109e+00 1.962847113609313965e+00 1.052976608276367188e+00 1.009169936180114746e+00
4.960000000000000000e+02 6.308650588989257812e+01 2.907907217741012573e-02 1.491288661956787109e+00 2.424674272537231445e+00 1.174788832664489746e+00 6.443341970443725586e-01
4.970000000000000000e+02 6.752447509765625000e+01 6.544567942619323730e-01 1.149034738540649414e+00 3.126121044158935547e+00 1.282546758651733398e+00 -8.715089559555053711e-01
4.980000000000000000e+02 7.318748474121093750e+01 5.621228814125061035e-01 5.438900589942932129e-01 4.932623386383056641e+00 1.642954111099243164e+00 -1.669990301132202148e+00
4.990000000000000000e+02 7.561315155029296875e+01 -1.081632971763610840e+00 2.779516577720642090e-01 6.168895721435546875e+00 1.934054255485534668e+00 -1.618795394897460938e+00
5.000000000000000000e+02 7.811619567871093750e+01 1.484890460968017578e+00 7.534069567918777466e-02 6.446467876434326172e+00 1.956542611122131348e+00 -7.341483831405639648e-01
5.010000000000000000e+02 7.936894226074218750e+01 2.812214851379394531e+00 2.290015108883380890e-02 6.183068275451660156e+00 1.861790537834167480e+00 -2.371193319559097290e-01
5.020000000000000000e+02 7.810746765136718750e+01 4.259720325469970703e+00 7.101453840732574463e-02 5.627466201782226562e+00 1.709544181823730469e+00 -5.715314745903015137e-01
5.030000000000000000e+02 7.936808776855468750e+01 4.203691482543945312e+00 4.468264523893594742e-03 5.700103759765625000e+00 1.711371660232543945e+00 -2.069429606199264526e-01
5.040000000000000000e+02 7.811471557617187500e+01 7.064402103424072266e+00 6.259955465793609619e-02 4.996846199035644531e+00 1.517833709716796875e+00 -4.180592596530914307e-01
5.050000000000000000e+02 7.554762268066406250e+01 1.139351081848144531e+01 2.137743383646011353e-01 4.629225730895996094e+00 1.452900052070617676e+00 -4.190518558025360107e-01
5.060000000000000000e+02 7.287880706787109375e+01 1.274384117126464844e+01 4.352334439754486084e-01 4.754416465759277344e+00 1.556895017623901367e+00 -4.074699878692626953e-01
5.070000000000000000e+02 6.862046813964843750e+01 1.398184967041015625e+01 7.330649495124816895e-01 5.207454204559326172e+00 1.782155752182006836e+00 -3.472225964069366455e-01
5.080000000000000000e+02 6.269697189331054688e+01 2.140486907958984375e+01 1.281646192073822021e-01 5.371655464172363281e+00 1.649946093559265137e+00 -7.433715462684631348e-01
5.090000000000000000e+02 6.042900085449218750e+01 2.119687652587890625e+01 9.259749054908752441e-01 3.070351123809814453e+00 1.198897838592529297e+00 -1.830341815948486328e+00
5.100000000000000000e+02 5.900607299804687500e+01 2.191863632202148438e+01 -1.980357468128204346e-01 1.006864309310913086e+00 2.426485717296600342e-01 -1.026612877845764160e+00
5.110000000000000000e+02 5.559283065795898438e+01 -1.454818248748779297e+01 -2.537808895111083984e+00 2.802936593070626259e-03 -7.605018019676208496e-01 -1.227638684213161469e-02
5.120000000000000000e+02 5.661569595336914062e+01 -1.319825935363769531e+01 -2.443504095077514648e+00 2.726429700851440430e-01 -6.512583494186401367e-01 2.502589225769042969e-01
5.130000000000000000e+02 5.981392288208007812e+01 -9.283175468444824219e+00 -2.416188478469848633e+00 6.796847581863403320e-01 -5.209510922431945801e-01 9.287025332450866699e-01
5.140000000000000000e+02 5.671104049682617188e+01 -5.246632575988769531e+00 4.868785738945007324e-01 2.132577419281005859e+00 7.858368158340454102e-01 1.588366985321044922e+00
5.150000000000000000e+02 5.577579498291015625e+01 -2.946950197219848633e+00 1.927115678787231445e+00 2.933128833770751953e+00 1.458073377609252930e+00 2.434096336364746094e+00
5.160000000000000000e+02 5.961721420288085938e+01 -1.385117149353027344e+01 -2.968380928039550781e+00 1.154325157403945923e-01 -8.558845520019531250e-01 -8.412230610847473145e-01
5.170000000000000000e+02 6.087439727783203125e+01 -1.334413242340087891e+01 -3.693434953689575195e+00 -4.303106665611267090e-01 -1.237123727798461914e+00 -1.115611195564270020e+00
5.180000000000000000e+02 5.954983520507812500e+01 -1.093592453002929688e+01 -3.651016235351562500e+00 7.893531322479248047e-01 -8.584989905357360840e-01 5.314463376998901367e-01
5.190000000000000000e+02 6.046118545532226562e+01 -6.226341724395751953e+00 -3.427224755287170410e-01 8.548805117607116699e-01 1.536474227905273438e-01 1.119693636894226074e+00
5.200000000000000000e+02 5.840428161621093750e+01 -3.756811857223510742e+00 1.219326257705688477e+00 1.797512769699096680e+00 9.050517082214355469e-01 1.602571964263916016e+00
5.210000000000000000e+02 6.161903762817382812e+01 -3.494672060012817383e+00 1.057851433753967285e+00 1.178692936897277832e+00 6.709633469581604004e-01 8.806341290473937988e-01
5.220000000000000000e+02 5.906155776977539062e+01 -1.257904624938964844e+01 -3.433432579040527344e+00 4.116871356964111328e-01 -9.065235853195190430e-01 -2.470198124647140503e-01
5.230000000000000000e+02 6.330036163330078125e+01 -1.210153198242187500e+01 -8.784571647644042969e+00 -1.338814973831176758e+00 -3.037015914916992188e+00 -8.668506741523742676e-01
5.240000000000000000e+02 6.627211761474609375e+01 -1.128114891052246094e+01 -4.724221229553222656e+00 -1.072246074676513672e+00 -1.738940238952636719e+00 -2.899185121059417725e-01
5.250000000000000000e+02 6.545927429199218750e+01 -1.232060813903808594e+01 -8.658052444458007812e+00 -2.022475719451904297e+00 -3.204158544540405273e+00 2.385742664337158203e+00
5.260000000000000000e+02 6.480885314941406250e+01 -7.341162681579589844e+00 -7.253335118293762207e-01 -5.891865491867065430e-01 -3.943560123443603516e-01 -2.178388535976409912e-01
5.270000000000000000e+02 6.356882858276367188e+01 -3.380072116851806641e+00 1.018126368522644043e+00 1.136403679847717285e+00 6.463590264320373535e-01 2.464238554239273071e-01
5.280000000000000000e+02 6.222171783447265625e+01 -2.277939319610595703e+00 1.337170600891113281e+00 1.542161107063293457e+00 8.637995123863220215e-01 7.384755611419677734e-01
5.290000000000000000e+02 6.659686279296875000e+01 -1.309743690490722656e+01 -4.829572677612304688e+00 -1.990228176116943359e+00 -2.045940399169921875e+00 3.034774065017700195e+00
5.300000000000000000e+02 6.768202209472656250e+01 -9.440647125244140625e+00 -2.037516117095947266e+00 3.980178833007812500e-01 -4.918494820594787598e-01 -1.089645743370056152e+00
5.310000000000000000e+02 6.680807495117187500e+01 -6.156695842742919922e+00 -4.805367812514305115e-02 6.504661440849304199e-01 1.807237267494201660e-01 -1.032418847084045410e+00
5.320000000000000000e+02 6.791967773437500000e+01 -2.324356317520141602e+00 9.422236680984497070e-01 2.403490543365478516e+00 1.003714203834533691e+00 -1.233671426773071289e+00
5.330000000000000000e+02 6.611814117431640625e+01 -4.001015186309814453e+00 7.310883998870849609e-01 1.216568589210510254e+00 5.842971205711364746e-01 -7.599083185195922852e-01
5.340000000000000000e+02 6.836288452148437500e+01 -1.395668792724609375e+01 -2.989262104034423828e+00 -2.794125489890575409e-02 -9.051610231399536133e-01 1.603975176811218262e+00
5.350000000000000000e+02 6.898208618164062500e+01 -1.401124572753906250e+01 -2.603657484054565430e+00 1.239578276872634888e-01 -7.439098954200744629e-01 1.503937840461730957e+00
5.360000000000000000e+02 7.044178771972656250e+01 -1.457266807556152344e+01 -2.517681121826171875e+00 4.368908703327178955e-01 -6.242370605468750000e-01 1.199058175086975098e+00
5.370000000000000000e+02 7.121905517578125000e+01 -1.456100463867187500e+01 -2.609184503555297852e+00 5.572438836097717285e-01 -6.155822277069091797e-01 8.747202157974243164e-01
5.380000000000000000e+02 7.456777191162109375e+01 -9.066830635070800781e+00 -4.166117012500762939e-01 6.598928451538085938e+00 1.854695081710815430e+00 -2.136278152465820312e+00
5.390000000000000000e+02 7.473011779785156250e+01 -8.246399879455566406e+00 -3.190687596797943115e-01 6.678318500518798828e+00 1.907774925231933594e+00 -2.097710847854614258e+00
5.400000000000000000e+02 7.563416290283203125e+01 -3.762879133224487305e+00 2.004928737878799438e-01 6.772712230682373047e+00 2.091961383819580078e+00 -1.837505817413330078e+00
5.410000000000000000e+02 7.573161315917968750e+01 -5.048305511474609375e+00 9.876919537782669067e-02 7.093396186828613281e+00 2.157649755477905273e+00 -1.877528786659240723e+00
5.420000000000000000e+02 7.050532531738281250e+01 -3.195194721221923828e+00 6.305770277976989746e-01 3.415404558181762695e+00 1.213794469833374023e+00 -1.848103404045104980e+00
5.430000000000000000e+02 7.278849792480468750e+01 -3.568183898925781250e+00 4.122616350650787354e-01 4.734846115112304688e+00 1.544132232666015625e+00 -2.098436832427978516e+00
5.440000000000000000e+02 7.291052246093750000e+01 -6.740479946136474609e+00 -8.525457233190536499e-02 4.705180644989013672e+00 1.385977864265441895e+00 -2.217855691909790039e+00
5.450000000000000000e+02 7.111515045166015625e+01 -1.152522373199462891e+01 -1.395566582679748535e+00 2.149700403213500977e+00 2.262401729822158813e-01 -7.822270989418029785e-01
5.460000000000000000e+02 7.631661224365234375e+01 -1.092766094207763672e+01 -1.108052849769592285e+00 9.678447723388671875e+00 2.571118593215942383e+00 -1.666686177253723145e+00
5.470000000000000000e+02 7.743139648437500000e+01 -1.755382919311523438e+01 1.047140002250671387e+00 1.884953498840332031e+01 5.969002246856689453e+00 -2.903509616851806641e+00
5.480000000000000000e+02 7.727280426025390625e+01 -1.767556381225585938e+01 2.000512331724166870e-01 2.002318382263183594e+01 6.066970825195312500e+00 -2.627338171005249023e+00
5.490000000000000000e+02 6.153228759765625000e+01 1.994716072082519531e+01 1.358047008514404297e+00 5.713005542755126953e+00 2.121315717697143555e+00 -2.226095199584960938e+00
5.500000000000000000e+02 6.256668853759765625e+01 1.684896278381347656e+01 6.612614989280700684e-01 8.149067878723144531e+00 2.643098831176757812e+00 -8.280217051506042480e-01
5.510000000000000000e+02 6.236173248291015625e+01 1.242260646820068359e+01 1.753230988979339600e-01 7.311050415039062500e+00 2.245912075042724609e+00 4.231484234333038330e-01
5.520000000000000000e+02 6.178088760375976562e+01 8.089794158935546875e+00 6.424697637557983398e-01 5.881901264190673828e+00 1.957311272621154785e+00 1.406807184219360352e+00
5.530000000000000000e+02 6.052733993530273438e+01 5.441043853759765625e+00 1.451289653778076172e+00 4.743338584899902344e+00 1.858388423919677734e+00 2.228367090225219727e+00
5.540000000000000000e+02 6.046356964111328125e+01 2.556684970855712891e+00 1.546899437904357910e+00 3.348557472229003906e+00 1.468637108802795410e+00 1.868709564208984375e+00
5.550000000000000000e+02 6.163338470458984375e+01 1.131562232971191406e+00 1.611147761344909668e+00 2.775512695312500000e+00 1.315998196601867676e+00 1.287423014640808105e+00
5.560000000000000000e+02 5.836302947998046875e+01 1.799666285514831543e+00 1.721923232078552246e+00 3.068906784057617188e+00 1.437248945236206055e+00 2.229846239089965820e+00
5.570000000000000000e+02 5.751416778564453125e+01 -1.309128522872924805e+00 2.114320516586303711e+00 2.675756692886352539e+00 1.437023162841796875e+00 2.184923648834228516e+00
5.580000000000000000e+02 5.561376953125000000e+01 -1.491603732109069824e+00 2.704375982284545898e+00 3.529948949813842773e+00 1.870297431945800781e+00 3.038505792617797852e+00
5.590000000000000000e+02 5.374298858642578125e+01 -4.049856662750244141e+00 2.173939466476440430e+00 2.991747856140136719e+00 1.549706220626831055e+00 2.639683723449707031e+00
5.600000000000000000e+02 5.265078735351562500e+01 -4.929002285003662109e+00 1.844786405563354492e+00 2.682715654373168945e+00 1.358250617980957031e+00 2.219398975372314453e+00
5.610000000000000000e+02 5.382394409179687500e+01 -7.535173892974853516e+00 -9.878232479095458984e-01 2.192218065261840820e+00 3.613184690475463867e-01 2.478336572647094727e+00
5.620000000000000000e+02 4.911572265625000000e+01 -5.584292411804199219e+00 -3.714026927947998047e+00 -1.545075923204421997e-01 -1.160560369491577148e+00 1.512545347213745117e+00
5.630000000000000000e+02 4.826456069946289062e+01 -6.963982105255126953e+00 -1.779830574989318848e+00 -2.950919605791568756e-02 -5.428019165992736816e-01 1.973886132240295410e+00
5.640000000000000000e+02 4.392245483398437500e+01 -3.943120479583740234e+00 -4.246131896972656250e+00 1.951088160276412964e-01 -1.215306878089904785e+00 6.352782249450683594e-01
5.650000000000000000e+02 4.538888931274414062e+01 -7.075763225555419922e+00 -1.965499758720397949e+00 1.528427600860595703e+00 -1.311216503381729126e-01 1.296948343515396118e-01
5.660000000000000000e+02 4.471567535400390625e+01 -9.715499877929687500e+00 -8.167915940284729004e-01 3.680460453033447266e+00 8.591006994247436523e-01 -3.064625896513462067e-02
5.670000000000000000e+02 4.495740890502929688e+01 -1.278444194793701172e+01 2.178499102592468262e-01 5.261218547821044922e+00 1.643720507621765137e+00 5.368617177009582520e-01
5.680000000000000000e+02 4.295183181762695312e+01 -1.753192520141601562e+01 1.914123058319091797e+00 8.814787864685058594e+00 3.218673229217529297e+00 -6.361599564552307129e-01
5.690000000000000000e+02 4.475371170043945312e+01 -1.695215797424316406e+01 1.688049554824829102e+00 8.810593605041503906e+00 3.149593114852905273e+00 3.900544345378875732e-01
5.700000000000000000e+02 4.003033447265625000e+01 -2.424522399902343750e+00 4.897153377532958984e-01 9.478412628173828125e+00 2.990438461303710938e+00 -2.659698009490966797e+00
5.710000000000000000e+02 3.965328979492187500e+01 -3.855938196182250977e+00 -2.304508924484252930e+00 9.001861572265625000e+00 2.009205818176269531e+00 -1.593363046646118164e+00
5.720000000000000000e+02 3.545950317382812500e+01 -3.259906291961669922e+00 -1.159126520156860352e+00 9.384352684020996094e+00 2.467567682266235352e+00 -5.013618469238281250e-01
5.730000000000000000e+02 3.110256958007812500e+01 -4.807061672210693359e+00 -4.582953751087188721e-01 2.807041168212890625e+00 7.046237587928771973e-01 3.119143545627593994e-01
5.740000000000000000e+02 2.992448806762695312e+01 -4.288127422332763672e+00 4.078673124313354492e-01 1.828386306762695312e+00 6.708760857582092285e-01 1.196881413459777832e+00
5.750000000000000000e+02 2.833683586120605469e+01 -3.536898374557495117e+00 1.254279971122741699e+00 6.557703614234924316e-01 5.730150938034057617e-01 1.506221055984497070e+00
5.760000000000000000e+02 2.335053634643554688e+01 -2.361241340637207031e+00 3.307931125164031982e-01 1.064416989684104919e-01 1.311704367399215698e-01 9.182893037796020508e-01
5.770000000000000000e+02 1.818376159667968750e+01 -2.363801240921020508e+00 -6.279916167259216309e-01 2.141121178865432739e-01 -1.241638436913490295e-01 5.211755037307739258e-01
5.780000000000000000e+02 1.497669029235839844e+01 -1.772525906562805176e+00 -1.163742184638977051e+00 8.580037206411361694e-02 -3.233825564384460449e-01 8.050941675901412964e-02
5.790000000000000000e+02 1.192133903503417969e+01 -1.838049411773681641e+00 -1.168114900588989258e+00 5.442581698298454285e-02 -3.341067135334014893e-01 -1.743063777685165405e-01
5.800000000000000000e+02 8.240760803222656250e+00 -1.851359844207763672e+00 -8.048816323280334473e-01 1.009719632565975189e-02 -2.384353280067443848e-01 -3.221452236175537109e-01
5.810000000000000000e+02 3.966639757156372070e+00 -2.679635047912597656e+00 -2.414082288742065430e-01 -9.700055420398712158e-02 -1.015226393938064575e-01 -3.192510008811950684e-01
5.820000000000000000e+02 1.839643716812133789e+00 -1.953881263732910156e+00 -7.793378829956054688e-02 -9.683725237846374512e-02 -5.243131518363952637e-02 -1.233360767364501953e-01
5.830000000000000000e+02 2.035480499267578125e+00 -2.781253576278686523e+00 -9.140747040510177612e-02 -1.489350944757461548e-01 -7.210277020931243896e-02 -1.974263191223144531e-01
5.840000000000000000e+02 4.005596160888671875e+01 -1.062091231346130371e+00 1.985935926437377930e+00 1.132710075378417969e+01 3.993911027908325195e+00 -4.005284786224365234e+00
5.850000000000000000e+02 3.857667541503906250e+01 -1.100397706031799316e+00 7.964537143707275391e-01 1.107979869842529297e+01 3.562875747680664062e+00 -1.641197800636291504e+00
5.860000000000000000e+02 3.561291122436523438e+01 1.627650618553161621e+00 2.770960569381713867e+00 1.261964607238769531e+01 4.617181777954101562e+00 4.959775805473327637e-01
5.870000000000000000e+02 3.374954986572265625e+01 3.117636442184448242e+00 2.724498748779296875e+00 1.747046852111816406e+01 6.058490276336669922e+00 3.611489534378051758e+00
5.880000000000000000e+02 3.391701126098632812e+01 1.975217103958129883e+00 3.360919713973999023e+00 1.460933208465576172e+01 5.391075611114501953e+00 3.392224311828613281e+00
5.890000000000000000e+02 3.293231582641601562e+01 1.304902553558349609e+00 4.456666946411132812e+00 1.077333831787109375e+01 4.569001674652099609e+00 5.430623054504394531e+00
5.900000000000000000e+02 3.125849533081054688e+01 -5.971919298171997070e-01 4.242317199707031250e+00 3.798738002777099609e+00 2.412316560745239258e+00 2.435856580734252930e+00
5.910000000000000000e+02 3.005002784729003906e+01 -2.116169035434722900e-01 4.657704830169677734e+00 1.043675541877746582e+00 1.710414052009582520e+00 1.256899833679199219e+00
5.920000000000000000e+02 2.690243911743164062e+01 6.271318197250366211e-01 1.345865726470947266e+00 7.818200439214706421e-02 4.272143244743347168e-01 -1.761015355587005615e-01
5.930000000000000000e+02 2.594046592712402344e+01 1.987100243568420410e-01 1.176357030868530273e+00 -2.077186554670333862e-01 2.905915081501007080e-01 2.013268023729324341e-01
5.940000000000000000e+02 3.938390731811523438e+01 1.578816175460815430e+00 1.258049488067626953e+00 1.519149398803710938e+01 4.934863090515136719e+00 -2.724642276763916016e+00
5.950000000000000000e+02 3.816992568969726562e+01 7.700686931610107422e+00 1.684344410896301270e+00 1.447259426116943359e+01 4.847081661224365234e+00 1.316777586936950684e+00
5.960000000000000000e+02 3.325607299804687500e+01 1.040779018402099609e+01 4.627014994621276855e-01 1.215390110015869141e+01 3.784981012344360352e+00 -2.222514390945434570e+00
5.970000000000000000e+02 3.382263183593750000e+01 7.424643039703369141e+00 4.299865365028381348e-01 1.429107189178466797e+01 4.416317462921142578e+00 -9.892406463623046875e-01
5.980000000000000000e+02 3.906055450439453125e+01 4.407359123229980469e+00 3.850980103015899658e-01 1.531183147430419922e+01 4.709078788757324219e+00 -1.454057544469833374e-01
5.990000000000000000e+02 3.891808700561523438e+01 8.381198883056640625e+00 1.683910369873046875e+00 1.554973030090332031e+01 5.170092105865478516e+00 2.489567756652832031e+00
6.000000000000000000e+02 3.668299102783203125e+01 7.868669986724853516e+00 1.412039160728454590e+00 1.395461559295654297e+01 4.609996318817138672e+00 6.240471601486206055e-01
6.010000000000000000e+02 3.261201858520507812e+01 1.319025421142578125e+01 8.747847676277160645e-01 1.114603042602539062e+01 3.606244564056396484e+00 -2.785294771194458008e+00
6.020000000000000000e+02 3.222165298461914062e+01 1.457153797149658203e+01 1.037296891212463379e+00 1.018225097656250000e+01 3.365864276885986328e+00 -2.911941051483154297e+00
6.030000000000000000e+02 3.075857162475585938e+01 1.865804481506347656e+01 1.926951289176940918e+00 7.742300033569335938e+00 2.900775432586669922e+00 -3.450414657592773438e+00
6.040000000000000000e+02 3.307114028930664062e+01 1.653683853149414062e+01 1.155115246772766113e+00 8.885822296142578125e+00 3.012281179428100586e+00 -2.232191562652587891e+00
6.050000000000000000e+02 4.732706832885742188e+01 4.079909896850585938e+01 1.394171081483364105e-02 2.847237348556518555e+00 8.583536744117736816e-01 1.018854975700378418e-01
6.060000000000000000e+02 5.099610137939453125e+01 3.948476409912109375e+01 2.297805398702621460e-01 2.649986743927001953e+00 8.639301657676696777e-01 1.237488240003585815e-01
6.070000000000000000e+02 5.371439743041992188e+01 3.518645095825195312e+01 3.803992271423339844e-01 2.438906908035278320e+00 8.457918763160705566e-01 1.317433863878250122e-01
6.080000000000000000e+02 5.713871765136718750e+01 3.133050346374511719e+01 4.119270443916320801e-01 2.280300617218017578e+00 8.076682686805725098e-01 -2.156683057546615601e-01
6.090000000000000000e+02 5.951195526123046875e+01 3.030532264709472656e+01 1.992330104112625122e-01 2.702584028244018555e+00 8.705451488494873047e-01 -5.578691363334655762e-01
6.100000000000000000e+02 6.703978729248046875e+01 2.021138381958007812e+01 4.595432579517364502e-01 5.161882400512695312e+00 1.686427712440490723e+00 5.685401335358619690e-02
6.110000000000000000e+02 7.108819580078125000e+01 1.655287361145019531e+01 5.387584567070007324e-01 4.848718166351318359e+00 1.616242885589599609e+00 -1.053348779678344727e-01
6.120000000000000000e+02 7.542922210693359375e+01 1.548937320709228516e+01 2.028695046901702881e-01 4.464874744415283203e+00 1.400323271751403809e+00 -1.124166473746299744e-01
6.130000000000000000e+02 7.937023162841796875e+01 1.256736755371093750e+01 5.371325649321079254e-03 4.034109592437744141e+00 1.211844325065612793e+00 -5.362563580274581909e-02
6.140000000000000000e+02 7.936275482177734375e+01 1.395647048950195312e+01 1.276429649442434311e-02 3.939541339874267578e+00 1.185691714286804199e+00 -3.367022797465324402e-02
6.150000000000000000e+02 7.935525512695312500e+01 1.534725570678710938e+01 5.666957236826419830e-03 3.888740777969360352e+00 1.168322324752807617e+00 -1.365526765584945679e-02
6.160000000000000000e+02 7.934671020507812500e+01 1.674131774902343750e+01 1.203882135450839996e-02 3.879858970642089844e+00 1.167569398880004883e+00 5.466105416417121887e-03
6.170000000000000000e+02 7.479858398437500000e+01 2.049200439453125000e+01 1.017086207866668701e-01 4.500630855560302734e+00 1.380701899528503418e+00 1.826809793710708618e-01
6.180000000000000000e+02 7.261233520507812500e+01 2.244115257263183594e+01 5.283835157752037048e-02 4.659964561462402344e+00 1.413840889930725098e+00 2.358955293893814087e-01
6.190000000000000000e+02 6.785576629638671875e+01 2.729604721069335938e+01 -2.813594341278076172e-01 4.548859119415283203e+00 1.280249953269958496e+00 -9.507320076227188110e-02
6.200000000000000000e+02 6.341428375244140625e+01 2.857782745361328125e+01 -2.069964557886123657e-01 3.818146705627441406e+00 1.083345055580139160e+00 -5.712260603904724121e-01
6.210000000000000000e+02 6.060700607299804688e+01 3.285278701782226562e+01 1.834526062011718750e-01 2.967392444610595703e+00 9.452534914016723633e-01 -4.133695662021636963e-01
6.220000000000000000e+02 5.801810836791992188e+01 3.740236282348632812e+01 3.062653243541717529e-01 2.815607070922851562e+00 9.365617036819458008e-01 -9.998369216918945312e-02
6.230000000000000000e+02 5.346007537841796875e+01 4.097233200073242188e+01 2.783901393413543701e-01 2.683823108673095703e+00 8.886640071868896484e-01 3.612636402249336243e-02
6.240000000000000000e+02 4.693522644042968750e+01 3.753148651123046875e+01 -9.421708993613719940e-03 2.856141805648803711e+00 8.540160059928894043e-01 3.635871708393096924e-01
6.250000000000000000e+02 4.962188339233398438e+01 3.366130065917968750e+01 2.361008524894714355e-01 2.486548662185668945e+00 8.167948722839355469e-01 5.409739613533020020e-01
6.260000000000000000e+02 5.273662948608398438e+01 3.248107147216796875e+01 4.212045669555664062e-01 2.162595033645629883e+00 7.751398682594299316e-01 2.610075473785400391e-01
6.270000000000000000e+02 5.590020751953125000e+01 2.855000114440917969e+01 4.678546786308288574e-01 1.689961791038513184e+00 6.473449468612670898e-01 -2.496903240680694580e-01
6.280000000000000000e+02 5.884395980834960938e+01 2.670701217651367188e+01 1.630080044269561768e-01 2.162315368652343750e+00 6.975970268249511719e-01 -9.364520907402038574e-01
6.290000000000000000e+02 6.386566162109375000e+01 2.426356887817382812e+01 -4.632300138473510742e-01 4.665488719940185547e+00 1.260677695274353027e+00 -6.780759096145629883e-01
6.300000000000000000e+02 6.686158752441406250e+01 1.894042778015136719e+01 7.723797559738159180e-01 5.279273509979248047e+00 1.815495967864990234e+00 -8.777909725904464722e-02
6.310000000000000000e+02 7.547827148437500000e+01 1.275209903717041016e+01 2.185327559709548950e-01 4.558537483215332031e+00 1.433120965957641602e+00 -3.108187615871429443e-01
6.320000000000000000e+02 7.937519836425781250e+01 8.392108917236328125e+00 1.849500276148319244e-02 4.620070457458496094e+00 1.391569614410400391e+00 -1.256151944398880005e-01
6.330000000000000000e+02 7.812026977539062500e+01 1.124481868743896484e+01 4.402444139122962952e-02 4.381068229675292969e+00 1.327527761459350586e+00 -2.134447991847991943e-01
6.340000000000000000e+02 5.451180648803710938e+01 2.143610000610351562e+01 -1.338702559471130371e+00 3.019806230440735817e-03 -4.007048308849334717e-01 -1.761125475168228149e-01
6.350000000000000000e+02 5.745088195800781250e+01 2.201280403137207031e+01 -1.146867275238037109e+00 6.898146867752075195e-02 -3.233657479286193848e-01 -3.983513712882995605e-01
6.360000000000000000e+02 5.595083999633789062e+01 2.177698707580566406e+01 -1.371765136718750000e+00 1.796515844762325287e-02 -4.061399996280670166e-01 -2.578238844871520996e-01
6.370000000000000000e+02 5.313176345825195312e+01 2.724396324157714844e+01 4.260714352130889893e-01 1.277844071388244629e+00 5.111746788024902344e-01 3.559824526309967041e-01
6.380000000000000000e+02 4.904123687744140625e+01 3.105469322204589844e+01 2.377800345420837402e-01 2.325357437133789062e+00 7.689412236213684082e-01 7.447031140327453613e-01
6.390000000000000000e+02 4.645565795898437500e+01 3.449090576171875000e+01 -1.253152918070554733e-02 2.849625110626220703e+00 8.511280417442321777e-01 5.920127630233764648e-01
6.400000000000000000e+02 4.369406509399414062e+01 3.816651916503906250e+01 -2.203400433063507080e-01 3.096036672592163086e+00 8.627089858055114746e-01 3.142737150192260742e-01
6.410000000000000000e+02 4.076188659667968750e+01 3.948280334472656250e+01 -4.392050802707672119e-01 3.275099277496337891e+00 8.507682681083679199e-01 1.532541364431381226e-01
6.420000000000000000e+02 3.725122833251953125e+01 4.073675537109375000e+01 -5.789237022399902344e-01 3.312087535858154297e+00 8.199491500854492188e-01 4.675910621881484985e-02
6.430000000000000000e+02 3.314325332641601562e+01 4.096173477172851562e+01 -6.024180054664611816e-01 3.083161354064941406e+00 7.442229986190795898e-01 -2.796277590095996857e-02
6.440000000000000000e+02 3.351411056518554688e+01 3.800426864624023438e+01 -6.198363900184631348e-01 3.250376224517822266e+00 7.891619801521301270e-01 -9.352943301200866699e-02
6.450000000000000000e+02 3.300217437744140625e+01 3.504696273803710938e+01 -6.553221940994262695e-01 3.383198499679565430e+00 8.183628916740417480e-01 -1.518697291612625122e-01
6.460000000000000000e+02 3.259991073608398438e+01 3.188215255737304688e+01 -6.670652031898498535e-01 3.675141811370849609e+00 9.024229645729064941e-01 -3.217144012451171875e-01
6.470000000000000000e+02 3.140290832519531250e+01 2.532305908203125000e+01 -3.894846439361572266e-01 4.616159439086914062e+00 1.268002390861511230e+00 -8.745740652084350586e-01
6.480000000000000000e+02 3.241086578369140625e+01 2.337325859069824219e+01 -1.182375568896532059e-02 5.483753681182861328e+00 1.641578912734985352e+00 -7.934442162513732910e-01
6.490000000000000000e+02 3.363162612915039062e+01 2.008473014831542969e+01 7.191470265388488770e-01 6.719182491302490234e+00 2.231498718261718750e+00 -8.462798595428466797e-01
6.500000000000000000e+02 3.179322624206542969e+01 1.594599628448486328e+01 1.072538137435913086e+00 9.454222679138183594e+00 3.158028125762939453e+00 -3.032329559326171875e+00
6.510000000000000000e+02 3.744081878662109375e+01 1.511549949645996094e+01 6.273752450942993164e-01 8.651144981384277344e+00 2.783555984497070312e+00 3.033815324306488037e-01
6.520000000000000000e+02 3.629048538208007812e+01 1.456408405303955078e+01 7.179161310195922852e-01 9.374962806701660156e+00 3.027863502502441406e+00 -4.222448170185089111e-01
6.530000000000000000e+02 3.501676940917968750e+01 1.417823123931884766e+01 7.522345185279846191e-01 9.917994499206542969e+00 3.201068639755249023e+00 -1.265288114547729492e+00
6.540000000000000000e+02 3.590755844116210938e+01 1.038465976715087891e+01 1.065816879272460938e+00 1.226543426513671875e+01 3.999375343322753906e+00 -4.906386733055114746e-01
6.550000000000000000e+02 3.964352416992187500e+01 9.179485321044921875e+00 1.984873652458190918e+00 1.448271942138671875e+01 4.940278053283691406e+00 3.972366571426391602e+00
6.560000000000000000e+02 3.877807235717773438e+01 1.024805355072021484e+01 1.461129546165466309e+00 1.195421314239501953e+01 4.024602890014648438e+00 1.678338646888732910e+00
6.570000000000000000e+02 4.181813812255859375e+01 1.267874431610107422e+01 2.418408393859863281e+00 5.491590499877929688e+00 2.372999668121337891e+00 3.418454885482788086e+00
6.580000000000000000e+02 4.007509613037109375e+01 1.458059787750244141e+01 9.962226748466491699e-01 7.186593055725097656e+00 2.454844713211059570e+00 1.872087001800537109e+00
6.590000000000000000e+02 3.910488510131835938e+01 1.544558048248291016e+01 6.432091593742370605e-01 7.513253211975097656e+00 2.446938753128051758e+00 1.234958767890930176e+00
6.600000000000000000e+02 3.580976867675781250e+01 1.751807785034179688e+01 6.523172855377197266e-01 7.731081008911132812e+00 2.515019416809082031e+00 -4.541442394256591797e-01
6.610000000000000000e+02 3.310160446166992188e+01 2.166071510314941406e+01 3.140919208526611328e-01 6.238293647766113281e+00 1.965715765953063965e+00 -7.761883735656738281e-01
6.620000000000000000e+02 5.173668289184570312e+01 2.055410766601562500e+01 -6.958193182945251465e-01 1.264587342739105225e-01 -1.708081811666488647e-01 6.978049129247665405e-02
6.630000000000000000e+02 5.243033218383789062e+01 2.252057647705078125e+01 -3.892573118209838867e-01 4.463718831539154053e-01 1.713437028229236603e-02 4.704634547233581543e-01
6.640000000000000000e+02 5.073142242431640625e+01 2.664994812011718750e+01 2.967751920223236084e-01 1.528882503509521484e+00 5.476973056793212891e-01 8.306229710578918457e-01
6.650000000000000000e+02 4.599614715576171875e+01 3.149697303771972656e+01 -2.633532509207725525e-02 2.859408617019653320e+00 8.499220013618469238e-01 8.732771873474121094e-01
6.660000000000000000e+02 4.323415756225585938e+01 3.530662918090820312e+01 -2.611332237720489502e-01 3.177633285522460938e+00 8.749500513076782227e-01 5.172093510627746582e-01
6.670000000000000000e+02 4.003916168212890625e+01 3.636496734619140625e+01 -5.110845565795898438e-01 3.432784318923950195e+00 8.765099048614501953e-01 3.274489343166351318e-01
6.680000000000000000e+02 3.677268218994140625e+01 3.735969161987304688e+01 -6.201908588409423828e-01 3.418096065521240234e+00 8.393715620040893555e-01 1.161389276385307312e-01
6.690000000000000000e+02 3.505355072021484375e+01 -7.653627395629882812e+00 -3.084889650344848633e+00 8.422692298889160156e+00 1.601340770721435547e+00 -1.276546835899353027e+00
6.700000000000000000e+02 4.052190017700195312e+01 -6.384875774383544922e+00 -3.009315967559814453e+00 7.587955474853515625e+00 1.373591780662536621e+00 -1.999948978424072266e+00
6.710000000000000000e+02 4.185459518432617188e+01 -5.711471557617187500e+00 -2.939579725265502930e+00 5.723689079284667969e+00 8.352328538894653320e-01 -1.925859570503234863e+00
6.720000000000000000e+02 3.849023437500000000e+01 -2.345207691192626953e+00 -5.368625521659851074e-01 1.067206382751464844e+01 3.040560483932495117e+00 -1.494658946990966797e+00
6.730000000000000000e+02 3.654013824462890625e+01 -1.623063850402832031e+01 1.163978219032287598e+00 1.081035995483398438e+01 3.592301368713378906e+00 -2.065975189208984375e+00
6.740000000000000000e+02 3.565381622314453125e+01 -1.915990829467773438e+01 2.451221644878387451e-01 1.074430751800537109e+01 3.296828985214233398e+00 -4.441773593425750732e-01
6.750000000000000000e+02 3.566855621337890625e+01 -2.058248519897460938e+01 5.248979926109313965e-01 1.052333831787109375e+01 3.314470767974853516e+00 3.764023184776306152e-01
6.760000000000000000e+02 3.528596496582031250e+01 -2.330295562744140625e+01 1.336431860923767090e+00 8.168326377868652344e+00 2.851427555084228516e+00 2.211247205734252930e+00
6.770000000000000000e+02 3.568421554565429688e+01 -2.853291320800781250e+01 2.519653439521789551e-01 5.258037090301513672e+00 1.653000831604003906e+00 1.312218308448791504e+00
6.780000000000000000e+02 3.698966598510742188e+01 -2.799486160278320312e+01 3.236042857170104980e-01 6.292987823486328125e+00 1.984977602958679199e+00 1.023736596107482910e+00
6.790000000000000000e+02 4.038206100463867188e+01 -2.719971275329589844e+01 9.379062056541442871e-01 7.687173843383789062e+00 2.587523937225341797e+00 6.845395267009735107e-02
6.800000000000000000e+02 3.934404754638671875e+01 -2.859572410583496094e+01 3.237685263156890869e-01 7.094314098358154297e+00 2.225424766540527344e+00 4.520027339458465576e-01
6.810000000000000000e+02 4.006484985351562500e+01 -2.265093612670898438e+01 2.013512849807739258e+00 8.841296195983886719e+00 3.256442546844482422e+00 -6.386379003524780273e-01
6.820000000000000000e+02 3.956696319580078125e+01 -2.061656761169433594e+01 1.936823010444641113e+00 9.075577735900878906e+00 3.303720235824584961e+00 -9.493967294692993164e-01
6.830000000000000000e+02 3.820209884643554688e+01 -1.887468147277832031e+01 1.452717185020446777e+00 9.549399375915527344e+00 3.300635099411010742e+00 -1.154516100883483887e+00
6.840000000000000000e+02 3.424411773681640625e+01 -2.530197906494140625e+01 1.661575078964233398e+00 5.113987445831298828e+00 2.032668828964233398e+00 2.439476251602172852e+00
6.850000000000000000e+02 3.407352066040039062e+01 -2.742450141906738281e+01 7.048310041427612305e-01 4.488978385925292969e+00 1.558142781257629395e+00 1.934676766395568848e+00
6.860000000000000000e+02 3.328675842285156250e+01 -2.616889381408691406e+01 1.367125272750854492e+00 3.013914346694946289e+00 1.314311861991882324e+00 2.026090621948242188e+00
6.870000000000000000e+02 3.233333587646484375e+01 -2.712960624694824219e+01 1.054818153381347656e+00 2.173955440521240234e+00 9.686321020126342773e-01 1.460210919380187988e+00
6.880000000000000000e+02 2.958784294128417969e+01 -3.113937187194824219e+01 -1.848458200693130493e-01 1.156880617141723633e+00 2.916104197502136230e-01 9.089558720588684082e-01
6.890000000000000000e+02 1.811883163452148438e+01 -2.572751808166503906e+01 3.019069433212280273e-01 7.343998551368713379e-01 3.108920454978942871e-01 -4.857409596443176270e-01
6.900000000000000000e+02 1.424136829376220703e+01 -1.811906623840332031e+01 9.253759682178497314e-02 4.324744224548339844e+00 1.325184583663940430e+00 2.348539829254150391e-01
6.910000000000000000e+02 1.466836452484130859e+01 -1.528405475616455078e+01 9.581373333930969238e-01 4.521292686462402344e+00 1.643828988075256348e+00 1.507672071456909180e+00
6.920000000000000000e+02 1.514459991455078125e+01 -1.138387393951416016e+01 1.222361326217651367e+00 1.887696146965026855e+00 9.330172538757324219e-01 6.733633279800415039e-01
6.930000000000000000e+02 1.537813472747802734e+01 -1.272278594970703125e+01 1.788598537445068359e+00 2.636382818222045898e+00 1.327494382858276367e+00 1.419367194175720215e+00
6.940000000000000000e+02 1.662006568908691406e+01 -5.746946811676025391e+00 -2.327244877815246582e-01 7.201513648033142090e-01 1.462280601263046265e-01 5.700182914733886719e-01
6.950000000000000000e+02 1.584282684326171875e+01 -1.007102012634277344e+01 7.493315935134887695e-01 1.603788495063781738e+00 7.059360146522521973e-01 6.494534611701965332e-01
6.960000000000000000e+02 1.957969093322753906e+01 -7.818596839904785156e+00 2.910916209220886230e-01 7.682529687881469727e-01 3.178033828735351562e-01 1.045967459678649902e+00
6.970000000000000000e+02 1.935146522521972656e+01 -1.005324935913085938e+01 1.112483859062194824e+00 7.665801048278808594e-01 5.637192130088806152e-01 1.086928009986877441e+00
6.980000000000000000e+02 2.339678382873535156e+01 -1.058698558807373047e+01 4.956166148185729980e-01 1.373537331819534302e-01 1.898910999298095703e-01 3.188517391681671143e-01
6.990000000000000000e+02 2.374079895019531250e+01 -7.987807273864746094e+00 -2.477816045284271240e-01 4.691801667213439941e-01 6.641957163810729980e-02 8.823533654212951660e-01
7.000000000000000000e+02 2.306602478027343750e+01 -1.564328432083129883e+00 3.219895362854003906e-01 4.016313329339027405e-02 1.086457967758178711e-01 7.135943770408630371e-01
7.010000000000000000e+02 2.412105178833007812e+01 -9.070592880249023438e+00 -2.551953867077827454e-02 3.397409319877624512e-01 9.426642209291458130e-02 4.969699978828430176e-01
7.020000000000000000e+02 2.571500015258789062e+01 -9.454071044921875000e+00 -1.391911357641220093e-01 1.640453040599822998e-01 7.456250488758087158e-03 8.666846156120300293e-02
7.030000000000000000e+02 2.740202522277832031e+01 -6.777819633483886719e+00 -1.751765489578247070e+00 2.680804431438446045e-01 -4.451055228710174561e-01 1.543794870376586914e+00
7.040000000000000000e+02 2.854596328735351562e+01 -6.838943004608154297e+00 -1.831462144851684570e+00 -4.069171249866485596e-01 -6.715137958526611328e-01 1.632270097732543945e+00
7.050000000000000000e+02 3.068857383728027344e+01 -2.929836988449096680e+00 1.289328098297119141e+00 2.902225494384765625e+00 1.257466077804565430e+00 1.437872409820556641e+00
7.060000000000000000e+02 1.116498661041259766e+01 -1.844251036643981934e+00 -1.119371175765991211e+00 4.332693666219711304e-02 -3.228132426738739014e-01 -2.195013165473937988e-01
7.070000000000000000e+02 1.197202110290527344e+01 -2.534219980239868164e+00 -9.685345888137817383e-01 1.031060591340065002e-01 -2.596285641193389893e-01 -1.971871107816696167e-01
7.080000000000000000e+02 1.344166564941406250e+01 -1.816839456558227539e+00 -1.211412191390991211e+00 7.051503658294677734e-02 -3.422691524028778076e-01 -5.742850154638290405e-02
7.090000000000000000e+02 1.503251075744628906e+01 -2.491641044616699219e+00 -9.446849822998046875e-01 1.622298508882522583e-01 -2.347365319728851318e-01 1.410498023033142090e-01
7.100000000000000000e+02 1.808329200744628906e+01 -1.585642457008361816e+00 -7.933694124221801758e-01 1.392409801483154297e-01 -1.962385326623916626e-01 3.731657266616821289e-01
7.110000000000000000e+02 2.124462127685546875e+01 -1.155482292175292969e+00 -1.405638009309768677e-01 1.620855182409286499e-01 6.456516217440366745e-03 5.321870446205139160e-01
7.120000000000000000e+02 2.510776710510253906e+01 -5.560867860913276672e-02 8.170859217643737793e-01 -1.282977461814880371e-01 2.066364586353302002e-01 3.064261972904205322e-01
7.130000000000000000e+02 3.238728046417236328e+00 -1.881009459495544434e+00 -1.995489299297332764e-01 -6.013803184032440186e-02 -7.790608704090118408e-02 -2.063596546649932861e-01
7.140000000000000000e+02 3.946094274520874023e+00 -1.884732365608215332e+00 -2.667987644672393799e-01 -5.174946039915084839e-02 -9.556446969509124756e-02 -2.435456663370132446e-01
7.150000000000000000e+02 6.806045532226562500e+00 -1.858214020729064941e+00 -6.151389479637145996e-01 -1.150368247181177139e-02 -1.879927963018417358e-01 -3.276811242103576660e-01
7.160000000000000000e+02 1.883946776390075684e+00 -8.003044128417968750e+00 5.711426492780447006e-03 -7.940669059753417969e-01 -2.365066409111022949e-01 -3.362398743629455566e-01
7.170000000000000000e+02 6.332241058349609375e+00 -6.862226486206054688e+00 -6.539159268140792847e-02 -8.557016402482986450e-02 -4.528852924704551697e-02 -6.397026181221008301e-01
7.180000000000000000e+02 4.558204174041748047e+00 -9.785037994384765625e+00 1.006554588675498962e-01 -4.639587402343750000e-01 -1.089909896254539490e-01 -5.502651333808898926e-01
7.190000000000000000e+02 8.226033210754394531e+00 -1.104835700988769531e+01 3.833652734756469727e-01 3.228494524955749512e-01 2.118644118309020996e-01 -5.082717537879943848e-01
7.200000000000000000e+02 1.392137527465820312e+01 -1.024345684051513672e+01 6.200627088546752930e-01 1.547622323036193848e+00 6.503055095672607422e-01 2.003771662712097168e-01
7.210000000000000000e+02 1.799330139160156250e+01 -1.177095413208007812e+01 2.582518100738525391e+00 1.029288411140441895e+00 1.083541989326477051e+00 1.375828981399536133e+00
7.220000000000000000e+02 1.073156166076660156e+01 -1.125872135162353516e+01 6.076844930648803711e-01 9.470437765121459961e-01 4.664184749126434326e-01 -3.013292849063873291e-01
7.230000000000000000e+02 1.142712593078613281e+01 -5.992431640625000000e+00 -2.731275260448455811e-01 4.640988409519195557e-01 5.729139596223831177e-02 -3.451211154460906982e-01
7.240000000000000000e+02 1.156359958648681641e+01 -5.378366947174072266e+00 -3.678517043590545654e-01 4.203873276710510254e-01 1.576068624854087830e-02 -3.099054098129272461e-01
7.250000000000000000e+02 1.547820663452148438e+01 -8.569505691528320312e+00 2.635682523250579834e-01 1.244341731071472168e+00 4.523729979991912842e-01 4.162293076515197754e-01
7.260000000000000000e+02 6.225264072418212891e-01 -1.632657623291015625e+01 1.605988107621669769e-02 -2.087690114974975586e+00 -6.214890480041503906e-01 -9.114783257246017456e-03
7.270000000000000000e+02 3.154320240020751953e+00 -1.754149246215820312e+01 1.331464499235153198e-01 -1.082511782646179199e+00 -2.848095893859863281e-01 4.698739573359489441e-02
7.280000000000000000e+02 4.491100311279296875e+00 -1.869657516479492188e+01 2.209596782922744751e-01 -6.077346801757812500e-01 -1.160324960947036743e-01 1.658550947904586792e-01
7.290000000000000000e+02 1.037320709228515625e+01 -2.346446037292480469e+01 9.812115132808685303e-02 1.301550865173339844e+00 4.199016094207763672e-01 4.340254664421081543e-01
7.300000000000000000e+02 1.269969940185546875e+01 -2.642885971069335938e+01 -2.214531898498535156e-01 1.436450958251953125e+00 3.644993305206298828e-01 1.442760974168777466e-01
7.310000000000000000e+02 1.487164497375488281e+01 -3.095040130615234375e+01 -4.214240312576293945e-01 9.881030917167663574e-01 1.700037121772766113e-01 -1.496304720640182495e-01
7.320000000000000000e+02 1.846697998046875000e+01 -3.475244903564453125e+01 -2.294634282588958740e-01 6.668019294738769531e-01 1.312015652656555176e-01 -2.837550938129425049e-01
7.330000000000000000e+02 2.054413986206054688e+01 -3.672704696655273438e+01 -3.696500137448310852e-02 6.055529713630676270e-01 1.705763936042785645e-01 -2.113538086414337158e-01
7.340000000000000000e+02 2.295180130004882812e+01 -4.079878616333007812e+01 1.107627078890800476e-01 7.904520630836486816e-01 2.703644335269927979e-01 -3.264957293868064880e-02
7.350000000000000000e+02 2.756974983215332031e+01 -4.081046295166015625e+01 -6.676143407821655273e-02 1.734757184982299805e+00 5.003987550735473633e-01 1.559694260358810425e-01
7.360000000000000000e+02 3.235678482055664062e+01 -4.089128494262695312e+01 -6.036463379859924316e-01 3.186911582946777344e+00 7.749795913696289062e-01 2.333402186632156372e-01
7.370000000000000000e+02 2.994389724731445312e+01 -3.616164779663085938e+01 -1.830500960350036621e-01 2.115097522735595703e+00 5.796142220497131348e-01 7.016315460205078125e-01
7.380000000000000000e+02 3.021199798583984375e+01 -2.897963905334472656e+01 1.506663858890533447e-01 8.710716962814331055e-01 3.065214157104492188e-01 6.842128634452819824e-01
7.390000000000000000e+02 6.373829841613769531e-01 -1.912612724304199219e+01 1.365974824875593185e-02 -2.024281263351440430e+00 -6.031864881515502930e-01 4.073701053857803345e-02
7.400000000000000000e+02 1.942258834838867188e+00 -2.038807868957519531e+01 4.311459511518478394e-02 -1.417590141296386719e+00 -4.123426675796508789e-01 1.594780385494232178e-01
7.410000000000000000e+02 4.763629913330078125e+00 -2.405563354492187500e+01 5.623421818017959595e-02 -2.883863747119903564e-01 -6.964564323425292969e-02 4.611089229583740234e-01
7.420000000000000000e+02 8.391989707946777344e+00 -2.909354972839355469e+01 -2.260867208242416382e-01 5.597436428070068359e-01 1.000970676541328430e-01 3.752104043960571289e-01
7.430000000000000000e+02 1.314884662628173828e+01 -2.911037445068359375e+01 -3.878082334995269775e-01 1.177658677101135254e+00 2.369551509618759155e-01 2.689129672944545746e-02
7.440000000000000000e+02 1.298656749725341797e+01 -3.108639335632324219e+01 -4.019301831722259521e-01 9.667422175407409668e-01 1.694436073303222656e-01 1.768405176699161530e-02
7.450000000000000000e+02 1.616802215576171875e+01 -3.852408599853515625e+01 -1.473166495561599731e-01 6.098129749298095703e-01 1.387488991022109985e-01 -1.259543299674987793e-01
7.460000000000000000e+02 1.930862045288085938e+01 -3.952437210083007812e+01 -2.434358745813369751e-02 6.288051605224609375e-01 1.813384741544723511e-01 -1.044578552246093750e-01
7.470000000000000000e+02 6.564593315124511719e-01 -2.192831230163574219e+01 8.229824714362621307e-03 -1.759696245193481445e+00 -5.254399180412292480e-01 7.956017553806304932e-02
7.480000000000000000e+02 2.011948108673095703e+00 -2.315156555175781250e+01 2.176148258149623871e-02 -1.166774392127990723e+00 -3.435038924217224121e-01 2.440713047981262207e-01
7.490000000000000000e+02 6.327198505401611328e+00 -2.803948974609375000e+01 -1.215616464614868164e-01 1.957660168409347534e-01 2.226131036877632141e-02 4.547592699527740479e-01
7.500000000000000000e+02 7.333534240722656250e+00 -3.040048980712890625e+01 -1.932982504367828369e-01 3.435546457767486572e-01 4.507692530751228333e-02 3.617586791515350342e-01
7.510000000000000000e+02 1.260691833496093750e+01 -3.865715408325195312e+01 -1.961167454719543457e-01 5.393712520599365234e-01 1.029763445258140564e-01 -2.316222712397575378e-02
7.520000000000000000e+02 1.677414131164550781e+01 -4.118852233886718750e+01 -6.495465338230133057e-02 5.959005951881408691e-01 1.592837870121002197e-01 -3.361773863434791565e-02
7.530000000000000000e+02 7.372352480888366699e-01 -2.756546211242675781e+01 -5.051580723375082016e-03 -9.693765044212341309e-01 -2.923284173011779785e-01 1.006524562835693359e-01
7.540000000000000000e+02 2.289119720458984375e+00 -2.879306983947753906e+01 -3.033587522804737091e-02 -5.496279001235961914e-01 -1.739891320466995239e-01 2.531436979770660400e-01
7.550000000000000000e+02 5.875159263610839844e+00 -3.125393867492675781e+01 -1.609937846660614014e-01 1.481734514236450195e-01 -3.846099600195884705e-03 3.331409692764282227e-01
7.560000000000000000e+02 6.546914100646972656e+00 -3.313800048828125000e+01 -1.621059477329254150e-01 2.358487844467163086e-01 2.212285250425338745e-02 2.511180639266967773e-01
7.570000000000000000e+02 9.126233100891113281e+00 -3.846668243408203125e+01 -1.649687290191650391e-01 3.566037714481353760e-01 5.749050900340080261e-02 6.922635436058044434e-02
7.580000000000000000e+02 1.250470256805419922e+01 -4.126566314697265625e+01 -1.518851220607757568e-01 4.855492711067199707e-01 1.000992432236671448e-01 -6.919749081134796143e-03
7.590000000000000000e+02 7.705309987068176270e-01 -2.898709106445312500e+01 -1.908484497107565403e-03 -7.871553897857666016e-01 -2.367191612720489502e-01 9.450804442167282104e-02
7.600000000000000000e+02 2.403135776519775391e+00 -3.026221275329589844e+01 -3.002007305622100830e-02 -4.159926772117614746e-01 -1.338038295507431030e-01 2.267974764108657837e-01
7.610000000000000000e+02 7.713831663131713867e-01 -3.466149520874023438e+01 -3.503354731947183609e-03 -2.839367389678955078e-01 -8.623202890157699585e-02 4.721407219767570496e-02
7.620000000000000000e+02 7.345300316810607910e-01 -3.604662322998046875e+01 -8.531055413186550140e-03 -2.068288177251815796e-01 -6.460796296596527100e-02 3.535318002104759216e-02
7.630000000000000000e+02 1.288162350654602051e+00 -4.009143447875976562e+01 1.023675221949815750e-02 -4.573004692792892456e-02 -1.064798887819051743e-02 3.341883420944213867e-02
7.640000000000000000e+02 4.969780921936035156e+00 -4.036049652099609375e+01 -6.734640896320343018e-02 8.517855405807495117e-02 5.349642597138881683e-03 3.298204019665718079e-02
7.650000000000000000e+02 8.124506950378417969e+00 -4.117040634155273438e+01 -1.233625635504722595e-01 2.778963744640350342e-01 4.636014625430107117e-02 1.845275424420833588e-02
7.660000000000000000e+02 6.385168075561523438e+00 -3.804035186767578125e+01 -1.191818863153457642e-01 2.147328704595565796e-01 2.866529487073421478e-02 8.763576298952102661e-02
7.670000000000000000e+02 3.977589368820190430e+00 -3.479835510253906250e+01 -7.203757762908935547e-02 -2.927640266716480255e-02 -3.039419464766979218e-02 1.706308424472808838e-01
7.680000000000000000e+02 2.342282772064208984e+00 -3.460033035278320312e+01 -2.833136543631553650e-02 -1.851793527603149414e-01 -6.405321508646011353e-02 1.298857927322387695e-01
7.690000000000000000e+02 2.013430118560791016e+00 -4.164019775390625000e+01 -3.827866166830062866e-02 -2.943490445613861084e-02 -2.031406946480274200e-02 1.088649407029151917e-02
7.700000000000000000e+02 3.283824157714843750e+01 -3.785980224609375000e+01 -5.952991247177124023e-01 3.347552299499511719e+00 8.256759643554687500e-01 6.804518103599548340e-01
7.710000000000000000e+02 3.381172943115234375e+01 -3.515564346313476562e+01 -5.817252397537231445e-01 3.693357467651367188e+00 9.334896802902221680e-01 1.054629564285278320e+00
7.720000000000000000e+02 3.676371002197265625e+01 -4.110577011108398438e+01 -1.231739759445190430e+00 4.683449268341064453e+00 1.035512804985046387e+00 1.310283690690994263e-01
7.730000000000000000e+02 3.630988311767578125e+01 -3.841662979125976562e+01 -1.064355492591857910e+00 4.569107532501220703e+00 1.051425695419311523e+00 4.554427564144134521e-01
7.740000000000000000e+02 3.680465698242187500e+01 -3.560496902465820312e+01 -9.642317295074462891e-01 4.920571804046630859e+00 1.186901926994323730e+00 7.494089007377624512e-01
7.750000000000000000e+02 3.888164901733398438e+01 -3.182438087463378906e+01 -6.100831627845764160e-01 6.184517860412597656e+00 1.672330379486083984e+00 6.881088018417358398e-01
7.760000000000000000e+02 3.927582168579101562e+01 -3.955125427246093750e+01 -1.404721617698669434e+00 5.248756408691406250e+00 1.153210401535034180e+00 1.641999334096908569e-01
7.770000000000000000e+02 3.997177886962890625e+01 -3.636545181274414062e+01 -1.291306138038635254e+00 5.748568058013916016e+00 1.337178587913513184e+00 2.834267318248748779e-01
7.780000000000000000e+02 4.073400497436523438e+01 -3.356121826171875000e+01 -9.598648548126220703e-01 6.277637004852294922e+00 1.595331668853759766e+00 2.708776891231536865e-01
7.790000000000000000e+02 4.284273910522460938e+01 -4.069136047363281250e+01 -1.458579182624816895e+00 5.285834312438964844e+00 1.148176550865173340e+00 -6.970694661140441895e-02
7.800000000000000000e+02 4.329145431518554688e+01 -3.722318649291992188e+01 -1.330418348312377930e+00 5.591378211975097656e+00 1.278288006782531738e+00 -2.837192416191101074e-01
7.810000000000000000e+02 4.329609680175781250e+01 -3.422877502441406250e+01 -1.064487338066101074e+00 6.221009731292724609e+00 1.546956777572631836e+00 -4.913843870162963867e-01
7.820000000000000000e+02 4.433313751220703125e+01 -3.000345802307128906e+01 1.506076008081436157e-01 7.751171588897705078e+00 2.370533704757690430e+00 -1.027984261512756348e+00
7.830000000000000000e+02 4.684107589721679688e+01 -3.759703063964843750e+01 -9.275776743888854980e-01 4.518308639526367188e+00 1.077219247817993164e+00 -9.274320006370544434e-01
7.840000000000000000e+02 4.805308151245117188e+01 -3.358539581298828125e+01 -5.543901324272155762e-01 4.686208724975585938e+00 1.239545583724975586e+00 -1.707048654556274414e+00
7.850000000000000000e+02 4.819099807739257812e+01 -3.013582038879394531e+01 1.550181627273559570e+00 4.664885997772216797e+00 1.864520192146301270e+00 -2.549339056015014648e+00
7.860000000000000000e+02 7.509263610839843750e+01 -4.029543685913085938e+01 3.927467763423919678e-01 6.951959133148193359e+00 2.203411817550659180e+00 9.776902943849563599e-02
7.870000000000000000e+02 7.385347747802734375e+01 -3.795792388916015625e+01 4.466231167316436768e-01 5.801735877990722656e+00 1.874507665634155273e+00 5.107463598251342773e-01
7.880000000000000000e+02 7.531395721435546875e+01 -3.244434738159179688e+01 1.391566693782806396e-01 7.396845340728759766e+00 2.260800600051879883e+00 9.161643981933593750e-01
7.890000000000000000e+02 7.798347473144531250e+01 -4.163427352905273438e+01 3.288968801498413086e-01 8.511165618896484375e+00 2.652018785476684570e+00 9.230456501245498657e-02
7.900000000000000000e+02 7.927073669433593750e+01 -3.743008041381835938e+01 -5.737265199422836304e-02 9.407555580139160156e+00 2.805054664611816406e+00 1.962345838546752930e-01
7.910000000000000000e+02 7.752731323242187500e+01 -3.803082656860351562e+01 -1.558906212449073792e-02 8.454493522644042969e+00 2.531671285629272461e+00 4.877569675445556641e-01
7.920000000000000000e+02 7.938407897949218750e+01 -3.473689270019531250e+01 -2.939578518271446228e-02 1.019734096527099609e+01 3.050383567810058594e+00 1.886657178401947021e-01
7.930000000000000000e+02 7.701065063476562500e+01 -3.320988464355468750e+01 9.396059066057205200e-02 8.707696914672851562e+00 2.640497207641601562e+00 7.067936062812805176e-01
7.940000000000000000e+02 7.791943359375000000e+01 -1.581602191925048828e+01 4.297973155975341797e+00 1.537587070465087891e+01 5.902153015136718750e+00 2.929436922073364258e+00
7.950000000000000000e+02 7.705002593994140625e+01 -1.485789299011230469e+01 -1.838410973548889160e+00 1.975747871398925781e+01 5.375720024108886719e+00 1.058696389198303223e+00
7.960000000000000000e+02 7.804331970214843750e+01 -1.447619438171386719e+01 -1.007007241249084473e+00 1.505881309509277344e+01 4.215541839599609375e+00 2.949723958969116211e+00
7.970000000000000000e+02 7.809926605224609375e+01 -9.369343757629394531e+00 -2.125873267650604248e-01 1.105811023712158203e+01 3.253656864166259766e+00 -8.512655496597290039e-01
7.980000000000000000e+02 7.821328735351562500e+01 -5.318345069885253906e+00 7.057344540953636169e-03 9.323465347290039062e+00 2.799156665802001953e+00 -1.023305416107177734e+00
7.990000000000000000e+02 7.693896484375000000e+01 -3.858201026916503906e+00 9.343812614679336548e-02 7.720818996429443359e+00 2.344277143478393555e+00 -1.482869386672973633e+00
8.000000000000000000e+02 7.816153717041015625e+01 -2.626853942871093750e+00 4.423221573233604431e-02 8.049966812133789062e+00 2.428259611129760742e+00 -9.482381939888000488e-01
8.010000000000000000e+02 7.806270599365234375e+01 1.538358497619628906e+01 4.529057070612907410e-02 4.129832267761230469e+00 1.252536892890930176e+00 -4.358910024166107178e-02
8.020000000000000000e+02 7.786454772949218750e+01 2.093665122985839844e+01 2.114209160208702087e-02 4.223234176635742188e+00 1.273312807083129883e+00 1.245150640606880188e-01
8.030000000000000000e+02 7.438886260986328125e+01 2.520683860778808594e+01 -4.129248112440109253e-02 4.548327445983886719e+00 1.352110505104064941e+00 2.205825001001358032e-01
8.040000000000000000e+02 7.169902801513671875e+01 2.751250648498535156e+01 -1.376682668924331665e-01 4.608024120330810547e+00 1.341106772422790527e+00 1.524305790662765503e-01
8.050000000000000000e+02 6.867496490478515625e+01 2.902393341064453125e+01 -2.245579361915588379e-01 4.440193176269531250e+00 1.264690637588500977e+00 -8.727666735649108887e-02
8.060000000000000000e+02 6.445614624023437500e+01 3.489876174926757812e+01 1.772223785519599915e-02 3.628076314926147461e+00 1.093739509582519531e+00 -2.533784806728363037e-01
8.070000000000000000e+02 6.148200607299804688e+01 3.601124191284179688e+01 1.675852537155151367e-01 3.196622610092163086e+00 1.009262323379516602e+00 -2.311945557594299316e-01
8.080000000000000000e+02 5.794591140747070312e+01 4.081144332885742188e+01 2.936539649963378906e-01 2.901480197906494141e+00 9.585402607917785645e-01 -4.259635135531425476e-02
8.090000000000000000e+02 7.930422973632812500e+01 2.091860580444335938e+01 -6.727007566951215267e-04 4.053117752075195312e+00 1.215733528137207031e+00 4.737562686204910278e-02
8.100000000000000000e+02 7.932633972167968750e+01 2.368173599243164062e+01 -5.722633562982082367e-03 4.253497123718261719e+00 1.274332284927368164e+00 5.200399085879325867e-02
8.110000000000000000e+02 7.116117858886718750e+01 2.884146499633789062e+01 -1.786504387855529785e-01 4.527917385101318359e+00 1.304780006408691406e+00 5.457633733749389648e-02
8.120000000000000000e+02 6.377822494506835938e+01 3.786009597778320312e+01 1.258220672607421875e-01 3.453391075134277344e+00 1.073763966560363770e+00 -1.436589211225509644e-01
8.130000000000000000e+02 6.275909805297851562e+01 4.088850784301757812e+01 1.750606447458267212e-01 3.333415985107421875e+00 1.052543044090270996e+00 -4.445731639862060547e-02
8.140000000000000000e+02 7.785689544677734375e+01 2.232924270629882812e+01 4.331852775067090988e-03 4.280564785003662109e+00 1.285468935966491699e+00 1.378582864999771118e-01
8.150000000000000000e+02 7.932067871093750000e+01 2.780768775939941406e+01 3.426872426643967628e-03 4.557603836059570312e+00 1.368309259414672852e+00 4.311762005090713501e-02
8.160000000000000000e+02 7.376692962646484375e+01 3.325717926025390625e+01 -8.273850381374359131e-02 4.480031013488769531e+00 1.319187760353088379e+00 5.726794525980949402e-02
8.170000000000000000e+02 6.775397491455078125e+01 3.517244338989257812e+01 -5.583842471241950989e-02 3.974223136901855469e+00 1.175515413284301758e+00 -1.543367207050323486e-01
8.180000000000000000e+02 6.749230957031250000e+01 3.829094696044921875e+01 2.552772499620914459e-02 3.860935449600219727e+00 1.165938973426818848e+00 -7.578858733177185059e-02
8.190000000000000000e+02 6.743872070312500000e+01 4.115131378173828125e+01 4.911979287862777710e-02 3.851343631744384766e+00 1.170139074325561523e+00 -2.494388818740844727e-02
8.200000000000000000e+02 7.794113159179687500e+01 2.766389083862304688e+01 -1.973091065883636475e-02 4.532534122467041016e+00 1.353840947151184082e+00 1.135403215885162354e-01
8.210000000000000000e+02 7.921790313720703125e+01 3.193817138671875000e+01 -7.804497145116329193e-03 4.743957996368408203e+00 1.420845985412597656e+00 2.554309368133544922e-02
8.220000000000000000e+02 7.423686218261718750e+01 3.479337692260742188e+01 -5.730556696653366089e-02 4.481266498565673828e+00 1.327188253402709961e+00 3.447371721267700195e-02
8.230000000000000000e+02 7.924057006835937500e+01 3.056094551086425781e+01 2.056525554507970810e-03 4.695060253143310547e+00 1.409134984016418457e+00 3.212396800518035889e-02
8.240000000000000000e+02 7.921409606933593750e+01 3.332055282592773438e+01 5.213365657255053520e-04 4.781503677368164062e+00 1.434607505798339844e+00 2.035953290760517120e-02
8.250000000000000000e+02 7.482017517089843750e+01 3.611317825317382812e+01 -3.001050837337970734e-02 4.510273456573486328e+00 1.344078898429870605e+00 4.981853812932968140e-02
8.260000000000000000e+02 7.187607574462890625e+01 4.113531494140625000e+01 -4.041873384267091751e-03 4.267839908599853516e+00 1.279139399528503418e+00 -4.886058624833822250e-03
8.270000000000000000e+02 7.765558624267578125e+01 3.450212097167968750e+01 -1.490531768649816513e-02 4.703771591186523438e+00 1.406659841537475586e+00 3.670673072338104248e-02
8.280000000000000000e+02 7.921424865722656250e+01 3.744247436523437500e+01 -1.584555953741073608e-02 4.812279701232910156e+00 1.438930153846740723e+00 -6.450634449720382690e-03
8.290000000000000000e+02 7.659524536132812500e+01 3.711774826049804688e+01 -2.258236892521381378e-02 4.668810844421386719e+00 1.393868565559387207e+00 9.717578068375587463e-03
8.300000000000000000e+02 7.797038269042968750e+01 4.164320755004882812e+01 2.902835421264171600e-02 4.762386322021484375e+00 1.437424302101135254e+00 -8.165699429810047150e-03
8.310000000000000000e+02 4.320995712280273438e+01 4.101407623291015625e+01 -2.951502799987792969e-01 3.127897977828979492e+00 8.498243093490600586e-01 8.716212958097457886e-02
8.320000000000000000e+02 5.170728302001953125e+01 3.021092796325683594e+01 4.230789542198181152e-01 1.888442635536193848e+00 6.934564709663391113e-01 5.160874724388122559e-01
8.330000000000000000e+02 5.653913879394531250e+01 2.629086875915527344e+01 3.682368993759155273e-01 1.219273567199707031e+00 4.762531220912933350e-01 -5.076738595962524414e-01
8.340000000000000000e+02 5.920498657226562500e+01 2.410384559631347656e+01 -1.321202795952558517e-02 1.975631594657897949e+00 5.887258648872375488e-01 -1.376988649368286133e+00
8.350000000000000000e+02 3.058873939514160156e+01 3.933509826660156250e+01 -5.419337153434753418e-01 2.885458469390869141e+00 7.030574083328247070e-01 -1.108423545956611633e-01
8.360000000000000000e+02 2.973700523376464844e+01 3.600797271728515625e+01 -5.030057430267333984e-01 2.834988594055175781e+00 6.995948553085327148e-01 -2.998005747795104980e-01
8.370000000000000000e+02 2.922409248352050781e+01 3.263612747192382812e+01 -4.427003562450408936e-01 2.934605598449707031e+00 7.475715279579162598e-01 -5.878370404243469238e-01
8.380000000000000000e+02 2.744014167785644531e+01 2.836955642700195312e+01 -1.508684605360031128e-01 2.688236951828002930e+00 7.612105607986450195e-01 -1.095202922821044922e+00
8.390000000000000000e+02 2.988852691650390625e+01 2.385983467102050781e+01 1.862495094537734985e-01 4.193924903869628906e+00 1.314052343368530273e+00 -1.537261843681335449e+00
8.400000000000000000e+02 2.837717437744140625e+01 2.109325599670410156e+01 2.960747957229614258e+00 2.841784477233886719e+00 1.740759730339050293e+00 -2.564775466918945312e+00
8.410000000000000000e+02 2.956619453430175781e+01 2.129875373840332031e+01 2.107657432556152344e+00 4.627603530883789062e+00 2.020578384399414062e+00 -2.308626651763916016e+00
8.420000000000000000e+02 3.008687210083007812e+01 1.993947219848632812e+01 2.637571573257446289e+00 6.136023521423339844e+00 2.632078647613525391e+00 -3.252120256423950195e+00
8.430000000000000000e+02 3.158910942077636719e+01 2.085338973999023438e+01 1.058654665946960449e+00 6.082118988037109375e+00 2.142232179641723633e+00 -1.412391781806945801e+00
8.440000000000000000e+02 2.705249023437500000e+01 4.063911437988281250e+01 -3.846124708652496338e-01 2.367564678192138672e+00 5.948857069015502930e-01 -9.706500172615051270e-02
8.450000000000000000e+02 2.632615852355957031e+01 3.706540679931640625e+01 -3.011901676654815674e-01 2.238153219223022461e+00 5.810889005661010742e-01 -3.399686515331268311e-01
8.460000000000000000e+02 2.574524307250976562e+01 3.375397491455078125e+01 -1.906297504901885986e-01 2.047619581222534180e+00 5.570969581604003906e-01 -5.536010861396789551e-01
8.470000000000000000e+02 2.323650932312011719e+01 2.297927093505859375e+01 -2.288286089897155762e-01 1.403754353523254395e-01 -2.653595246374607086e-02 -2.990393936634063721e-01
8.480000000000000000e+02 2.552853012084960938e+01 2.443748092651367188e+01 3.689221441745758057e-01 1.239053368568420410e+00 4.823926687240600586e-01 -1.217621684074401855e+00
8.490000000000000000e+02 2.721010208129882812e+01 2.160651779174804688e+01 1.645076036453247070e+00 8.783087730407714844e-01 7.570154070854187012e-01 -1.278058648109436035e+00
8.500000000000000000e+02 2.262582206726074219e+01 4.098057937622070312e+01 -1.298139989376068115e-01 1.607051134109497070e+00 4.431711435317993164e-01 -6.883010268211364746e-02
8.510000000000000000e+02 2.261886787414550781e+01 3.788904190063476562e+01 -9.672965109348297119e-02 1.562195420265197754e+00 4.396397173404693604e-01 -2.336095869541168213e-01
8.520000000000000000e+02 2.219910240173339844e+01 3.486301803588867188e+01 -4.898206796497106552e-03 1.400073051452636719e+00 4.185524284839630127e-01 -3.899759650230407715e-01
8.530000000000000000e+02 2.321669197082519531e+01 3.078517150878906250e+01 8.752405643463134766e-02 1.381176114082336426e+00 4.406100511550903320e-01 -6.259840130805969238e-01
8.540000000000000000e+02 2.382952499389648438e+01 2.844633483886718750e+01 1.838632822036743164e-01 1.374925971031188965e+00 4.676367938518524170e-01 -8.589806556701660156e-01
8.550000000000000000e+02 2.182142448425292969e+01 2.402757453918457031e+01 -2.092456370592117310e-01 1.354045718908309937e-01 -2.215231768786907196e-02 -2.728258371353149414e-01
8.560000000000000000e+02 1.836453247070312500e+01 4.111490249633789062e+01 4.524151980876922607e-02 9.336229562759399414e-01 2.936593294143676758e-01 -3.444138541817665100e-02
8.570000000000000000e+02 1.909650993347167969e+01 3.847054290771484375e+01 4.502264410257339478e-02 1.040147304534912109e+00 3.255509734153747559e-01 -1.259255409240722656e-01
8.580000000000000000e+02 1.876337432861328125e+01 3.591102981567382812e+01 8.540067821741104126e-02 9.007816910743713379e-01 2.958547174930572510e-01 -1.510919481515884399e-01
8.590000000000000000e+02 1.848349571228027344e+01 2.618031883239746094e+01 1.314691361039876938e-02 1.694291234016418457e-01 5.477281287312507629e-02 -1.063298285007476807e-01
8.600000000000000000e+02 1.961462402343750000e+01 2.253948211669921875e+01 -6.874987483024597168e-01 -2.171226777136325836e-02 -2.127633094787597656e-01 -1.527262926101684570e-01
8.610000000000000000e+02 1.706809616088867188e+01 2.164251327514648438e+01 -6.173723936080932617e-01 -8.553916960954666138e-02 -2.108734697103500366e-01 -1.775372475385665894e-01
8.620000000000000000e+02 2.081428909301757812e+01 2.292298316955566406e+01 -5.808410048484802246e-01 -2.019228972494602203e-02 -1.803099811077117920e-01 -1.521644294261932373e-01
8.630000000000000000e+02 1.599918651580810547e+01 3.969489669799804688e+01 1.016552299261093140e-01 6.401548981666564941e-01 2.225430458784103394e-01 -1.464966032654047012e-02
8.640000000000000000e+02 1.551459407806396484e+01 3.685538482666015625e+01 1.111348271369934082e-01 5.421767830848693848e-01 1.959934830665588379e-01 -3.197887912392616272e-02
8.650000000000000000e+02 1.532885265350341797e+01 3.415597534179687500e+01 1.360425651073455811e-01 4.536418318748474121e-01 1.769053190946578979e-01 -3.246254846453666687e-02
8.660000000000000000e+02 1.526191329956054688e+01 3.168380165100097656e+01 1.312618404626846313e-01 3.518593013286590576e-01 1.449363529682159424e-01 -1.013648044317960739e-02
8.670000000000000000e+02 1.544972515106201172e+01 2.751326751708984375e+01 4.760930314660072327e-02 1.783876866102218628e-01 6.779909133911132812e-02 4.809382930397987366e-02
8.680000000000000000e+02 1.629691696166992188e+01 2.278994178771972656e+01 -3.787518441677093506e-01 -2.110052108764648438e-02 -1.199557110667228699e-01 6.136869080364704132e-03
8.690000000000000000e+02 1.586098957061767578e+01 2.098939132690429688e+01 -4.168929755687713623e-01 -1.212269216775894165e-01 -1.614359617233276367e-01 -1.715887337923049927e-01
8.700000000000000000e+02 1.235352420806884766e+01 4.081172943115234375e+01 9.977287054061889648e-02 3.449262976646423340e-01 1.334097534418106079e-01 -3.567768260836601257e-03
8.710000000000000000e+02 1.222197437286376953e+01 3.753414535522460938e+01 1.041346266865730286e-01 2.862159013748168945e-01 1.171051636338233948e-01 2.109264209866523743e-02
8.720000000000000000e+02 1.232881259918212891e+01 3.445093536376953125e+01 1.105852276086807251e-01 2.381583303213119507e-01 1.046230718493461609e-01 4.645230248570442200e-02
8.730000000000000000e+02 1.113066577911376953e+01 3.088604927062988281e+01 6.274880468845367432e-02 1.256249397993087769e-01 5.651212483644485474e-02 1.129735931754112244e-01
8.740000000000000000e+02 1.167174243927001953e+01 2.614733505249023438e+01 -7.318326085805892944e-02 8.919296413660049438e-02 4.802909214049577713e-03 1.363808363676071167e-01
8.750000000000000000e+02 1.302887153625488281e+01 2.272535133361816406e+01 -2.169302403926849365e-01 8.687106519937515259e-02 -3.901775181293487549e-02 6.604854762554168701e-02
8.760000000000000000e+02 1.365008163452148438e+01 1.930177116394042969e+01 -1.157739311456680298e-01 -2.007268741726875305e-02 -4.075398668646812439e-02 -5.536610260605812073e-02
8.770000000000000000e+02 1.295825386047363281e+01 1.624145126342773438e+01 -1.207463722676038742e-02 -1.605567894876003265e-02 -8.439094759523868561e-03 -1.470005325973033905e-02
8.780000000000000000e+02 1.353058242797851562e+01 1.213913822174072266e+01 4.273454193025827408e-03 5.723475944250822067e-03 2.999078948050737381e-03 3.257673233747482300e-03
8.790000000000000000e+02 1.343641090393066406e+01 1.074177360534667969e+01 -4.827238153666257858e-03 2.345201792195439339e-03 -7.446109084412455559e-04 2.664601197466254234e-03
8.800000000000000000e+02 1.311410236358642578e+01 5.461901664733886719e+00 -1.504725194536149502e-03 3.513834381010383368e-04 -3.460025181993842125e-04 1.468129688873887062e-03
8.810000000000000000e+02 1.109212017059326172e+01 1.864863038063049316e+00 6.941531901247799397e-04 -4.650704504456371069e-04 6.872481753816828132e-05 5.731189739890396595e-04
8.820000000000000000e+02 1.405229759216308594e+01 1.907945632934570312e+00 1.751764793880283833e-04 -4.301948356442153454e-04 -7.650550833204761147e-05 5.877912626601755619e-04
8.830000000000000000e+02 1.183651828765869141e+01 1.869759202003479004e+00 1.354238251224160194e-03 3.396583488211035728e-04 5.081690032966434956e-04 2.921172708738595247e-04
8.840000000000000000e+02 8.060749053955078125e+00 4.091127395629882812e+01 6.130445748567581177e-02 1.356000825762748718e-02 2.245933935046195984e-02 2.539466880261898041e-02
8.850000000000000000e+02 8.844668388366699219e+00 3.770246505737304688e+01 7.672096788883209229e-02 6.709273904561996460e-02 4.314411431550979614e-02 5.420767143368721008e-02
8.860000000000000000e+02 9.290522575378417969e+00 3.202947235107421875e+01 5.685766041278839111e-02 5.882115662097930908e-02 3.470364585518836975e-02 1.105651706457138062e-01
8.870000000000000000e+02 8.770873069763183594e+00 3.028409194946289062e+01 3.553849086165428162e-02 3.755370900034904480e-02 2.192766033113002777e-02 1.307315677404403687e-01
8.880000000000000000e+02 7.874893665313720703e+00 2.711961174011230469e+01 -2.081373892724514008e-02 1.174963079392910004e-02 -2.719232346862554550e-03 1.352108269929885864e-01
8.890000000000000000e+02 8.991499900817871094e+00 2.340848922729492188e+01 -9.708386659622192383e-02 5.330277606844902039e-02 -1.313432771712541580e-02 9.806915372610092163e-02
8.900000000000000000e+02 1.081795310974121094e+01 2.108110618591308594e+01 -1.473733186721801758e-01 6.261884421110153198e-02 -2.542634122073650360e-02 2.398990653455257416e-02
8.910000000000000000e+02 9.426739692687988281e+00 1.493637561798095703e+01 -1.662743650376796722e-02 -3.612108528614044189e-03 -6.071863695979118347e-03 -4.047945607453584671e-03
8.920000000000000000e+02 9.636836051940917969e+00 1.388015747070312500e+01 -1.125934906303882599e-02 -7.563274353742599487e-03 -5.646787118166685104e-03 -7.621673285029828548e-04
8.930000000000000000e+02 9.812249183654785156e+00 1.168885612487792969e+01 -3.441502572968602180e-03 -7.484761998057365417e-03 -3.277879208326339722e-03 1.278424519114196301e-03
8.940000000000000000e+02 8.892404556274414062e+00 5.633435249328613281e+00 -2.378167991992086172e-04 -1.947673619724810123e-03 -6.556471344083547592e-04 8.264625794254243374e-04
8.950000000000000000e+02 8.059093475341796875e+00 1.863685846328735352e+00 9.972134139388799667e-04 -4.865683440584689379e-04 1.531935122329741716e-04 5.721119305235333741e-05
8.960000000000000000e+02 7.290618419647216797e+00 1.870486736297607422e+00 1.680301385931670666e-03 5.949486512690782547e-05 5.219388986006379128e-04 -3.916377318091690540e-04
8.970000000000000000e+02 4.928061485290527344e+00 4.019440841674804688e+01 2.426478080451488495e-02 -2.140932828187942505e-01 -5.694855377078056335e-02 4.015357792377471924e-02
8.980000000000000000e+02 6.148684024810791016e+00 3.771201705932617188e+01 5.857411772012710571e-02 -8.890803158283233643e-02 -9.100175462663173676e-03 6.994447857141494751e-02
8.990000000000000000e+02 5.682745933532714844e+00 3.590865325927734375e+01 4.304080456495285034e-02 -1.162140071392059326e-01 -2.195196039974689484e-02 8.571615070104598999e-02
9.000000000000000000e+02 7.206462860107421875e+00 3.033619689941406250e+01 2.056420780718326569e-02 -1.933388039469718933e-02 3.690981830004602671e-04 1.307326853275299072e-01
9.010000000000000000e+02 7.290872097015380859e+00 2.863959884643554688e+01 4.039249906782060862e-04 -1.222912780940532684e-02 -3.547560656443238258e-03 1.384108364582061768e-01
9.020000000000000000e+02 5.144304752349853516e+00 2.324389076232910156e+01 -3.867481276392936707e-02 -2.301979251205921173e-02 -1.850838214159011841e-02 8.767596632242202759e-02
9.030000000000000000e+02 5.500009059906005859e+00 2.194686317443847656e+01 -4.634126648306846619e-02 -4.359598271548748016e-03 -1.521025877445936203e-02 6.438265740871429443e-02
9.040000000000000000e+02 6.084381580352783203e+00 1.666378211975097656e+01 -2.378798089921474457e-02 1.796156633645296097e-03 -6.597547326236963272e-03 9.090335108339786530e-03
9.050000000000000000e+02 5.141478061676025391e+00 1.347188282012939453e+01 -8.118838071823120117e-03 -4.269192460924386978e-03 -3.716408973559737206e-03 3.327556420117616653e-03
9.060000000000000000e+02 5.167272567749023438e+00 1.100078868865966797e+01 -2.836734754964709282e-03 -3.582328557968139648e-03 -1.925718970596790314e-03 -1.128897129092365503e-04
9.070000000000000000e+02 4.811371326446533203e+00 7.670555114746093750e+00 2.228966681286692619e-03 -6.620892672799527645e-04 4.700632416643202305e-04 -2.535261679440736771e-03
9.080000000000000000e+02 4.223674297332763672e+00 1.941579937934875488e+00 1.197648816742002964e-03 7.649624603800475597e-05 3.822435101028531790e-04 -6.688997382298111916e-04
9.090000000000000000e+02 3.453303813934326172e+00 1.984231710433959961e+00 2.067983296001330018e-04 1.353783500235294923e-05 6.610085256397724152e-05 -5.585243925452232361e-04
9.100000000000000000e+02 4.988854408264160156e+00 2.751995086669921875e+00 1.501846010796725750e-03 3.055497290915809572e-05 4.597202932927757502e-04 -9.183972142636775970e-04
9.110000000000000000e+02 2.013983011245727539e+00 4.161951065063476562e+01 -2.051145397126674652e-02 -4.047290086746215820e-01 -1.275721341371536255e-01 -5.895520560443401337e-03
9.120000000000000000e+02 2.388334274291992188e+00 3.799177932739257812e+01 2.156475558876991272e-02 -3.463396131992340088e-01 -9.743245691061019897e-02 2.836807863786816597e-03
9.130000000000000000e+02 2.273103952407836914e+00 3.336951828002929688e+01 1.052568200975656509e-02 -2.814181149005889893e-01 -8.126772940158843994e-02 5.005159229040145874e-02
9.140000000000000000e+02 2.301082134246826172e+00 3.182933235168457031e+01 1.698240521363914013e-03 -2.516156136989593506e-01 -7.497520744800567627e-02 6.195724755525588989e-02
9.150000000000000000e+02 2.209405660629272461e+00 2.743260002136230469e+01 -8.596215047873556614e-05 -1.531476080417633057e-01 -4.597007110714912415e-02 6.593484431505203247e-02
9.160000000000000000e+02 1.948624730110168457e+00 2.461612701416015625e+01 -3.260013880208134651e-03 -9.261121600866317749e-02 -2.876137010753154755e-02 5.143682286143302917e-02
9.170000000000000000e+02 1.800266981124877930e+00 2.045654487609863281e+01 -1.003302168101072311e-02 -2.452123537659645081e-02 -1.036627683788537979e-02 2.132093347609043121e-02
9.180000000000000000e+02 1.817076802253723145e+00 1.768139076232910156e+01 -7.412143982946872711e-03 -3.871673252433538437e-03 -3.385145217180252075e-03 8.909194730222225189e-03
9.190000000000000000e+02 1.764141440391540527e+00 1.487120151519775391e+01 -4.571001511067152023e-03 3.639645641669631004e-03 -2.794067841023206711e-04 1.783733139745891094e-03
9.200000000000000000e+02 1.734280109405517578e+00 1.072242641448974609e+01 1.725414884276688099e-03 4.158474039286375046e-03 1.765166642144322395e-03 -2.251807134598493576e-03
9.210000000000000000e+02 1.843754053115844727e+00 7.932473659515380859e+00 1.374756917357444763e-03 2.365555614233016968e-03 1.122093759477138519e-03 -1.786284614354372025e-03
9.220000000000000000e+02 3.482192039489746094e+00 2.901440858840942383e+00 1.211508642882108688e-03 2.242264454253017902e-04 4.307205381337553263e-04 -8.433457696810364723e-04
9.230000000000000000e+02 5.223936438560485840e-01 3.514060258865356445e+00 4.886233364231884480e-04 6.458223797380924225e-04 3.403337323106825352e-04 -2.748183906078338623e-04
9.240000000000000000e+02 1.669803237915039062e+01 3.384990692138671875e+00 -2.353134768782183528e-04 -4.844748182222247124e-04 -2.159364958060905337e-04 6.816547247581183910e-04
9.250000000000000000e+02 1.629698562622070312e+01 1.008637332916259766e+01 -1.622371259145438671e-03 7.734710816293954849e-04 -2.546700416132807732e-04 -2.866255352273583412e-03
9.260000000000000000e+02 1.715298652648925781e+01 9.043704032897949219e+00 2.335099503397941589e-03 2.519905567169189453e-03 1.456501544453203678e-03 8.240533643402159214e-04
9.270000000000000000e+02 1.543830871582031250e+01 1.119293022155761719e+01 3.279466647654771805e-03 7.100409362465143204e-03 3.113962709903717041e-03 8.967434987425804138e-04
9.280000000000000000e+02 1.221864128112792969e+01 1.199911499023437500e+01 -3.293374786153435707e-03 -2.981377067044377327e-03 -1.882425509393215179e-03 2.480053342878818512e-03
9.290000000000000000e+02 2.118479728698730469e+01 4.448213100433349609e+00 2.449331805109977722e-04 2.372054877923801541e-04 1.446415990358218551e-04 -2.765766694210469723e-04
9.300000000000000000e+02 2.193899536132812500e+01 3.974840164184570312e+00 1.215533848153427243e-04 1.295232068514451385e-04 7.532297604484483600e-05 -2.078390971291810274e-04
9.310000000000000000e+02 1.969747734069824219e+01 2.455378532409667969e+00 -3.435011021792888641e-04 -2.591614902485162020e-04 -1.807987864594906569e-04 7.285283936653286219e-05
9.320000000000000000e+02 1.692189598083496094e+01 2.052644968032836914e+00 -1.695617393124848604e-04 -4.730662622023373842e-04 -1.927884004544466734e-04 2.145063190255314112e-04
9.330000000000000000e+02 2.137053108215332031e+01 5.191664695739746094e+00 2.006069844355806708e-04 3.970149555243551731e-04 1.792865805327892303e-04 4.027182585559785366e-04
9.340000000000000000e+02 2.036608886718750000e+01 5.940206050872802734e+00 -2.673416165634989738e-04 -5.042859356763074175e-06 -8.171534136636182666e-05 -3.207914123777300119e-04
9.350000000000000000e+02 1.802807044982910156e+01 8.060990333557128906e+00 -1.878755749203264713e-03 -4.366564680822193623e-04 -6.946236826479434967e-04 -1.400224165990948677e-03
9.360000000000000000e+02 1.483572387695312500e+01 1.249397850036621094e+01 -2.962911035865545273e-03 9.428177960216999054e-03 1.939580077305436134e-03 -2.742420183494687080e-03
9.370000000000000000e+02 1.335411739349365234e+01 1.357055950164794922e+01 -4.512832034379243851e-03 3.252728609368205070e-03 -3.780310216825455427e-04 4.183287674095481634e-04
9.380000000000000000e+02 1.213689708709716797e+01 1.328719711303710938e+01 1.280682510696351528e-03 -6.444571190513670444e-04 1.908676058519631624e-04 2.315854653716087341e-03
9.390000000000000000e+02 1.436943626403808594e+01 1.529676723480224609e+01 -6.147040054202079773e-03 1.697593182325363159e-02 3.248667577281594276e-03 -3.328389022499322891e-03
9.400000000000000000e+02 1.427792263031005859e+01 1.665431785583496094e+01 6.666464265435934067e-03 1.504439301788806915e-02 6.513257045298814774e-03 4.620509862434118986e-04
9.410000000000000000e+02 1.139222145080566406e+01 1.695570755004882812e+01 -4.373962059617042542e-02 3.407470881938934326e-03 -1.209964510053396225e-02 -1.508806739002466202e-02
9.420000000000000000e+02 1.415961074829101562e+01 1.797460556030273438e+01 -3.178654611110687256e-02 -2.407594770193099976e-02 -1.675874739885330200e-02 -3.286546841263771057e-02
9.430000000000000000e+02 1.485146141052246094e+01 2.010581970214843750e+01 -1.878739595413208008e-01 -6.949976086616516113e-02 -7.721211761236190796e-02 -1.188640892505645752e-01
9.440000000000000000e+02 1.392656993865966797e+01 2.140362930297851562e+01 -2.907285690307617188e-01 5.706648901104927063e-02 -7.009863108396530151e-02 -1.217702124267816544e-02
9.450000000000000000e+02 2.459920692443847656e+01 -1.052025794982910156e+00 7.528622746467590332e-01 -1.329111158847808838e-01 1.859853416681289673e-01 6.275444626808166504e-01
9.460000000000000000e+02 2.690542411804199219e+01 -3.373996353149414062e+01 -2.835137210786342621e-02 7.264207005500793457e-01 2.094208002090454102e-01 4.045872390270233154e-01
9.470000000000000000e+02 7.008415985107421875e+01 -2.361400985717773438e+01 -8.971524238586425781e-01 9.188888072967529297e-01 6.520929746329784393e-03 -1.029716357588768005e-01
9.480000000000000000e+02 6.352971267700195312e+01 -3.223900604248046875e+01 -2.437515854835510254e-01 -5.621401667594909668e-01 -2.417675256729125977e-01 -2.695754170417785645e-01
9.490000000000000000e+02 7.169614410400390625e+01 -3.270277023315429688e+01 3.425382077693939209e-01 4.245827198028564453e+00 1.376509666442871094e+00 1.030127048492431641e+00
9.500000000000000000e+02 6.779618072509765625e+01 -3.191334342956542969e+01 1.390082389116287231e-01 1.434523940086364746e+00 4.720596671104431152e-01 5.135152935981750488e-01
9.510000000000000000e+02 6.457491302490234375e+01 -2.657134628295898438e+01 -2.097118854522705078e+00 -1.967297077178955078e+00 -1.219324827194213867e+00 -1.943088650703430176e+00
9.520000000000000000e+02 5.364249706268310547e+00 -2.969579887390136719e+01 -1.191099956631660461e-01 4.683139547705650330e-02 -2.168358117341995239e-02 3.847890496253967285e-01
9.530000000000000000e+02 1.522993659973144531e+01 -3.319781875610351562e+01 -3.641122877597808838e-01 8.326417207717895508e-01 1.405588239431381226e-01 -1.641868948936462402e-01
9.540000000000000000e+02 2.025068855285644531e+01 -3.319363403320312500e+01 -2.957003712654113770e-01 5.992455482482910156e-01 9.106355905532836914e-02 -3.461472392082214355e-01
9.550000000000000000e+02 1.920793151855468750e+01 -2.661408042907714844e+01 1.739763021469116211e-01 4.704126715660095215e-01 1.933166980743408203e-01 -2.939741015434265137e-01
9.560000000000000000e+02 1.892566299438476562e+01 -2.986196327209472656e+01 -4.512903690338134766e-01 7.668418288230895996e-01 9.466543793678283691e-02 -3.568399846553802490e-01
9.570000000000000000e+02 2.356245803833007812e+01 -3.771231842041015625e+01 5.979947000741958618e-02 7.980036735534667969e-01 2.573409378528594971e-01 -6.168770045042037964e-02
9.580000000000000000e+02 2.704882240295410156e+01 -3.753649139404296875e+01 -1.960989832878112793e-02 1.402866959571838379e+00 4.149771332740783691e-01 3.516966700553894043e-01
9.590000000000000000e+02 2.178165054321289062e+01 -3.460774993896484375e+01 -1.220241934061050415e-01 5.220531821250915527e-01 1.200086921453475952e-01 -2.856404781341552734e-01
9.600000000000000000e+02 5.229618453979492188e+01 -3.233278274536132812e+01 2.152304053306579590e-01 7.901638150215148926e-01 3.016182780265808105e-01 -1.397789001464843750e+00
9.610000000000000000e+02 5.574176788330078125e+01 -3.314156341552734375e+01 -3.610220551490783691e-01 -1.282570958137512207e-01 -1.467837393283843994e-01 -9.753688573837280273e-01
9.620000000000000000e+02 6.517432403564453125e+01 -3.356612014770507812e+01 4.084789752960205078e-01 4.249614775180816650e-01 2.500321269035339355e-01 2.002444863319396973e-01
9.630000000000000000e+02 1.448190784454345703e+01 -2.705832672119140625e+01 -2.569386363029479980e-01 1.391442656517028809e+00 3.403512239456176758e-01 -1.606349349021911621e-01
9.640000000000000000e+02 1.633602333068847656e+01 -2.881054878234863281e+01 -3.376742303371429443e-01 1.085409641265869141e+00 2.243206202983856201e-01 -2.655185461044311523e-01
9.650000000000000000e+02 1.166648101806640625e+01 -2.892581748962402344e+01 -3.463125824928283691e-01 1.075553178787231445e+00 2.187721729278564453e-01 1.945724338293075562e-01
9.660000000000000000e+02 1.034500885009765625e+01 -2.834634590148925781e+01 -2.895804345607757568e-01 9.413718581199645996e-01 1.955374330282211304e-01 3.095141351222991943e-01
9.670000000000000000e+02 5.103834629058837891e+00 -2.825709342956542969e+01 -9.610271453857421875e-02 -3.093187510967254639e-02 -3.811037912964820862e-02 4.321291148662567139e-01
9.680000000000000000e+02 4.774372863769531250e+01 -2.856345939636230469e+01 2.781230449676513672e+00 5.395952701568603516e+00 2.453154802322387695e+00 -3.547638177871704102e+00
9.690000000000000000e+02 4.455368041992187500e+01 -2.522594070434570312e+01 2.540578842163085938e+00 1.122609710693359375e+01 4.130002975463867188e+00 -2.037858963012695312e+00
9.700000000000000000e+02 4.338109207153320312e+01 -2.698708534240722656e+01 1.596482396125793457e+00 9.053425788879394531e+00 3.194972515106201172e+00 -8.467148542404174805e-01
9.710000000000000000e+02 4.381055450439453125e+01 -2.853665733337402344e+01 7.142267227172851562e-01 8.580883026123046875e+00 2.788532972335815430e+00 -9.335725903511047363e-01
9.720000000000000000e+02 3.798266220092773438e+01 -2.268053245544433594e+01 1.652376532554626465e+00 8.424547195434570312e+00 3.023077249526977539e+00 -3.939880803227424622e-02
9.730000000000000000e+02 3.687511062622070312e+01 -2.204401016235351562e+01 1.517891407012939453e+00 8.829184532165527344e+00 3.104122638702392578e+00 4.133810400962829590e-01
9.740000000000000000e+02 4.421937179565429688e+01 -2.382676506042480469e+01 2.190656661987304688e+00 1.164729690551757812e+01 4.151385784149169922e+00 -2.001957654953002930e+00
9.750000000000000000e+02 4.681353378295898438e+01 -9.663637161254882812e+00 -5.910220742225646973e-01 2.149946928024291992e+00 4.676774442195892334e-01 1.275497436523437500e+00
9.760000000000000000e+02 4.348922348022460938e+01 -1.126387405395507812e+01 -4.441329538822174072e-01 5.623553752899169922e+00 1.553826212882995605e+00 -3.560594618320465088e-01
9.770000000000000000e+02 4.885630035400390625e+01 -1.320406150817871094e+01 8.143593072891235352e-01 2.172836303710937500e+00 8.961586952209472656e-01 2.226547479629516602e+00
9.780000000000000000e+02 4.716864776611328125e+01 -1.460133361816406250e+01 1.228671431541442871e+00 4.400218963623046875e+00 1.688667058944702148e+00 1.934537529945373535e+00
9.790000000000000000e+02 4.282619857788085938e+01 -1.525048542022705078e+01 1.107559561729431152e+00 7.692644596099853516e+00 2.640061378479003906e+00 -5.418402552604675293e-01
9.800000000000000000e+02 3.950174331665039062e+01 -1.542676258087158203e+01 1.239706873893737793e+00 8.671525955200195312e+00 2.973369836807250977e+00 -1.546169161796569824e+00
9.810000000000000000e+02 3.626921463012695312e+01 -1.355026531219482422e+01 1.327767133712768555e+00 1.011092472076416016e+01 3.431607723236083984e+00 -2.212054967880249023e+00
9.820000000000000000e+02 6.729396820068359375e+01 -1.203454971313476562e+01 -5.253367424011230469e+00 -1.881381422281265259e-01 -1.632451653480529785e+00 7.611857652664184570e-01
9.830000000000000000e+02 6.439973449707031250e+01 -1.131383705139160156e+01 -7.451179504394531250e+00 -2.570848703384399414e+00 -3.006608486175537109e+00 5.054687857627868652e-01
9.840000000000000000e+02 6.136845397949218750e+01 -1.151767349243164062e+01 -5.364381790161132812e+00 3.176371157169342041e-01 -1.514023423194885254e+00 1.388923525810241699e-01
9.850000000000000000e+02 5.737069702148437500e+01 -1.175693511962890625e+01 -2.620427131652832031e+00 7.495439648628234863e-01 -5.612649321556091309e-01 5.659959912300109863e-01
9.860000000000000000e+02 5.143150711059570312e+01 -1.364567089080810547e+01 5.347155779600143433e-02 5.441125035285949707e-01 1.792752146720886230e-01 1.476835370063781738e+00
9.870000000000000000e+02 5.051411056518554688e+01 -1.110911750793457031e+01 -2.932907640933990479e-01 1.297393560409545898e+00 3.012308478355407715e-01 2.603366851806640625e+00
9.880000000000000000e+02 4.596527481079101562e+01 -5.915176391601562500e+00 -3.368046522140502930e+00 3.753706514835357666e-01 -8.978027105331420898e-01 5.868405103683471680e-01
9.890000000000000000e+02 5.118695831298828125e+01 -9.664901733398437500e+00 -7.208828926086425781e-01 1.368124127388000488e+00 1.941723674535751343e-01 2.867329359054565430e+00
9.900000000000000000e+02 5.025905227661132812e+01 -6.410409927368164062e+00 -1.900765895843505859e+00 3.531616032123565674e-01 -4.642812907695770264e-01 2.161067485809326172e+00
9.910000000000000000e+02 4.716304397583007812e+01 -6.375185012817382812e+00 -2.639987945556640625e+00 -3.920888900756835938e-02 -8.037590384483337402e-01 1.122800230979919434e+00
9.920000000000000000e+02 4.008961105346679688e+01 -1.353687286376953125e+01 5.035535693168640137e-01 8.133064270019531250e+00 2.590985536575317383e+00 -1.324268698692321777e+00
9.930000000000000000e+02 3.887018203735351562e+01 -1.118430709838867188e+01 -8.329148888587951660e-01 8.537830352783203125e+00 2.311474561691284180e+00 -1.314965963363647461e+00
9.940000000000000000e+02 3.761791992187500000e+01 -1.116336059570312500e+01 -6.727401018142700195e-01 8.957570075988769531e+00 2.485449075698852539e+00 -1.278972864151000977e+00
9.950000000000000000e+02 7.402732086181640625e+01 2.158557319641113281e+01 9.242632240056991577e-02 4.545988082885742188e+00 1.391524434089660645e+00 2.139653265476226807e-01
9.960000000000000000e+02 7.167006683349609375e+01 1.958950424194335938e+01 3.025024831295013428e-01 4.743817329406738281e+00 1.513895869255065918e+00 1.363637745380401611e-01
9.970000000000000000e+02 6.789686584472656250e+01 2.241310501098632812e+01 4.586797580122947693e-02 4.932115077972412109e+00 1.493394851684570312e+00 9.213121235370635986e-02
9.980000000000000000e+02 4.708823394775390625e+01 1.980031585693359375e+01 4.688361585140228271e-01 1.655118346214294434e+00 6.371863484382629395e-01 1.189044713973999023e+00
9.990000000000000000e+02 4.914043045043945312e+01 1.933484268188476562e+01 3.402833342552185059e-01 5.930866003036499023e-01 2.800109684467315674e-01 5.552850961685180664e-01
1.000000000000000000e+03 4.495730209350585938e+01 2.015809822082519531e+01 4.325599074363708496e-01 2.757138967514038086e+00 9.569096565246582031e-01 1.549986720085144043e+00
1.001000000000000000e+03 4.160995483398437500e+01 2.094689941406250000e+01 1.304409801959991455e-01 4.579114437103271484e+00 1.412866592407226562e+00 1.501520991325378418e+00
1.002000000000000000e+03 3.734717941284179688e+01 1.953691482543945312e+01 2.137287408113479614e-01 6.528583526611328125e+00 2.022693634033203125e+00 4.730879366397857666e-01
1.003000000000000000e+03 4.178300476074218750e+01 1.939388656616210938e+01 3.832565546035766602e-01 4.620177745819091797e+00 1.501030325889587402e+00 1.590439677238464355e+00
1.004000000000000000e+03 4.066071701049804688e+01 1.833711242675781250e+01 4.227254390716552734e-01 5.393421173095703125e+00 1.744843959808349609e+00 1.538894176483154297e+00
1.005000000000000000e+03 4.379342651367187500e+01 1.693391609191894531e+01 1.194293975830078125e+00 3.200100183486938477e+00 1.318318247795104980e+00 1.924016952514648438e+00
1.006000000000000000e+03 4.384706878662109375e+01 2.143693923950195312e+01 2.161513268947601318e-01 3.421058416366577148e+00 1.091162919998168945e+00 1.567717432975769043e+00
1.007000000000000000e+03 5.096570205688476562e+01 2.529188919067382812e+01 1.754399985074996948e-01 1.251083612442016602e+00 4.279570877552032471e-01 8.804004788398742676e-01
1.008000000000000000e+03 5.023423767089843750e+01 2.337004470825195312e+01 -1.157903298735618591e-02 1.142100095748901367e+00 3.391562998294830322e-01 9.726073145866394043e-01
1.009000000000000000e+03 4.963381958007812500e+01 2.133037376403808594e+01 -5.858458951115608215e-02 9.612030982971191406e-01 2.707855403423309326e-01 8.440167903900146484e-01
1.010000000000000000e+03 4.227180480957031250e+01 2.565577316284179688e+01 -2.580532431602478027e-01 3.855858802795410156e+00 1.079341650009155273e+00 1.257936358451843262e+00
1.011000000000000000e+03 3.887027740478515625e+01 3.060681343078613281e+01 -5.891206860542297363e-01 3.970704793930053711e+00 1.014475226402282715e+00 5.579251050949096680e-01
1.012000000000000000e+03 3.629717254638671875e+01 3.426988601684570312e+01 -6.759464740753173828e-01 3.685327768325805664e+00 9.028143882751464844e-01 1.175658553838729858e-01
1.013000000000000000e+03 4.532615280151367188e+01 2.540906143188476562e+01 -1.445825491100549698e-02 2.875021696090698242e+00 8.581690192222595215e-01 1.382900834083557129e+00
1.014000000000000000e+03 3.915480422973632812e+01 2.480347251892089844e+01 -3.875253200531005859e-01 4.734210968017578125e+00 1.304005622863769531e+00 9.570475816726684570e-01
1.015000000000000000e+03 3.820409774780273438e+01 2.262703323364257812e+01 -1.823300868272781372e-01 5.463263511657714844e+00 1.584280014038085938e+00 7.807936668395996094e-01
1.016000000000000000e+03 3.649657440185546875e+01 2.294412231445312500e+01 -2.284703850746154785e-01 5.605356693267822266e+00 1.613065958023071289e+00 3.781052827835083008e-01
1.017000000000000000e+03 3.993132019042968750e+01 2.156191253662109375e+01 -3.289355710148811340e-02 5.096376895904541016e+00 1.519044995307922363e+00 1.195019602775573730e+00
1.018000000000000000e+03 8.652910232543945312e+00 1.959527778625488281e+01 -7.672706991434097290e-02 2.773169055581092834e-02 -1.469861343502998352e-02 2.206565253436565399e-02
1.019000000000000000e+03 4.169711112976074219e+00 2.297114753723144531e+01 -3.209357708692550659e-02 -3.378449752926826477e-02 -1.976342126727104187e-02 6.875429302453994751e-02
1.020000000000000000e+03 6.714869022369384766e+00 1.578866577148437500e+01 -1.886104792356491089e-02 -5.805589724332094193e-03 -7.399991620332002640e-03 6.186496000736951828e-03
1.021000000000000000e+03 8.694776535034179688e+00 1.694496345520019531e+01 -3.794285655021667480e-02 6.958078010939061642e-04 -1.117411442101001740e-02 3.963633440434932709e-03
1.022000000000000000e+03 3.598274993896484375e+01 1.602576637268066406e+01 6.671978831291198730e-01 8.440056800842285156e+00 2.732176303863525391e+00 -4.776759445667266846e-01
1.023000000000000000e+03 4.614246368408203125e+01 2.114994239807128906e+01 2.824785113334655762e-01 2.336672544479370117e+00 7.857452630996704102e-01 1.403932094573974609e+00
1.024000000000000000e+03 4.573425674438476562e+01 1.676534843444824219e+01 1.382759094238281250e+00 1.651339411735534668e+00 9.102295637130737305e-01 1.473472952842712402e+00
1.025000000000000000e+03 4.681869125366210938e+01 1.768225860595703125e+01 1.091115117073059082e+00 1.234012007713317871e+00 6.975381374359130859e-01 1.165487885475158691e+00
1.026000000000000000e+03 6.480268859863281250e+01 1.844008636474609375e+01 1.032506823539733887e+00 5.889365196228027344e+00 2.076561689376831055e+00 -4.630775153636932373e-01
1.027000000000000000e+03 6.547223663330078125e+01 1.649015808105468750e+01 8.944690227508544922e-01 5.927098274230957031e+00 2.046470165252685547e+00 -3.938404321670532227e-01
1.028000000000000000e+03 6.505216217041015625e+01 1.385369968414306641e+01 5.873221755027770996e-01 6.406142234802246094e+00 2.098039388656616211e+00 -3.269813060760498047e-01
1.029000000000000000e+03 6.429798889160156250e+01 8.444874763488769531e+00 7.957391738891601562e-01 5.478067874908447266e+00 1.882142186164855957e+00 4.028996229171752930e-01
1.030000000000000000e+03 6.426686859130859375e+01 6.600190162658691406e+00 1.034329414367675781e+00 4.784708976745605469e+00 1.745711445808410645e+00 4.244029521942138672e-01
1.031000000000000000e+03 6.348218917846679688e+01 2.999848365783691406e+00 1.335442900657653809e+00 3.548617839813232422e+00 1.465218186378479004e+00 6.851689815521240234e-01
1.032000000000000000e+03 6.400775146484375000e+01 1.416374564170837402e+00 1.388515233993530273e+00 2.954028844833374023e+00 1.302763223648071289e+00 3.712514638900756836e-01
1.033000000000000000e+03 7.305606842041015625e+01 1.643758201599121094e+01 3.642822802066802979e-01 4.660329341888427734e+00 1.507383465766906738e+00 -8.589933812618255615e-02
1.034000000000000000e+03 5.984584689140319824e-01 2.053906631469726562e+01 2.642331412062048912e-03 -2.111446857452392578e-02 -5.541641265153884888e-03 7.673829793930053711e-03
1.035000000000000000e+03 6.387629699707031250e+01 1.528803253173828125e+01 5.165734887123107910e-01 7.189735412597656250e+00 2.311892509460449219e+00 -5.175418257713317871e-01
1.036000000000000000e+03 6.639054107666015625e+01 1.376267910003662109e+01 7.712246179580688477e-01 5.720097541809082031e+00 1.947396755218505859e+00 -3.363012373447418213e-01
1.037000000000000000e+03 6.625177764892578125e+01 1.270166683197021484e+01 7.212162017822265625e-01 5.785659313201904297e+00 1.952062726020812988e+00 -3.094432055950164795e-01
1.038000000000000000e+03 7.065135192871093750e+01 1.521871376037597656e+01 5.900775194168090820e-01 4.917768955230712891e+00 1.652354001998901367e+00 -2.337251901626586914e-01
1.039000000000000000e+03 6.229804992675781250e+01 1.846408271789550781e+01 1.160490512847900391e+00 7.862351417541503906e+00 2.706852674484252930e+00 -1.666424036026000977e+00
1.040000000000000000e+03 6.376602554321289062e+01 9.712532997131347656e+00 6.745890974998474121e-01 5.915411949157714844e+00 1.977000236511230469e+00 5.003903508186340332e-01
1.041000000000000000e+03 6.654139709472656250e+01 1.042529869079589844e+01 7.705184817314147949e-01 5.396243095397949219e+00 1.850028514862060547e+00 -2.335066199302673340e-01
1.042000000000000000e+03 7.142148590087890625e+01 1.023934650421142578e+01 5.812964439392089844e-01 4.828969478607177734e+00 1.623079776763916016e+00 -6.301229596138000488e-01
1.043000000000000000e+03 6.640087890625000000e+01 1.159672927856445312e+01 7.249860167503356934e-01 5.639163017272949219e+00 1.909244656562805176e+00 -2.198712825775146484e-01
1.044000000000000000e+03 7.541621398925781250e+01 1.412934970855712891e+01 1.972635090351104736e-01 4.506986141204833984e+00 1.411274909973144531e+00 -2.058659940958023071e-01
1.045000000000000000e+03 6.244078445434570312e+01 1.383286476135253906e+01 1.782695651054382324e-01 7.611264705657958984e+00 2.336860179901123047e+00 7.898188382387161255e-02
1.046000000000000000e+03 6.625218200683593750e+01 8.243625640869140625e+00 8.645704388618469238e-01 5.064628601074218750e+00 1.778759717941284180e+00 -1.143388226628303528e-01
1.047000000000000000e+03 6.989429473876953125e+01 5.913161754608154297e+00 8.106518983840942383e-01 4.539329051971435547e+00 1.604994297027587891e+00 -8.844809532165527344e-01
1.048000000000000000e+03 7.559928894042968750e+01 5.823968887329101562e+00 2.464401274919509888e-01 5.113790512084960938e+00 1.608069181442260742e+00 -9.023290872573852539e-01
1.049000000000000000e+03 7.561109161376953125e+01 8.680379867553710938e+00 2.241248786449432373e-01 4.825642585754394531e+00 1.514930248260498047e+00 -6.362056732177734375e-01
1.050000000000000000e+03 6.718394470214843750e+01 7.354598999023437500e+00 9.350340366363525391e-01 4.766004085540771484e+00 1.710311412811279297e+00 -3.146834373474121094e-01
1.051000000000000000e+03 7.001599884033203125e+01 7.636050701141357422e+00 7.452993392944335938e-01 4.731922626495361328e+00 1.643166661262512207e+00 -7.530195713043212891e-01
1.052000000000000000e+03 6.226936340332031250e+01 1.101025772094726562e+01 1.923181563615798950e-01 6.983337879180908203e+00 2.152696847915649414e+00 6.931692361831665039e-01
1.053000000000000000e+03 6.387667846679687500e+01 4.038661479949951172e+00 1.261942028999328613e+00 3.947750329971313477e+00 1.562907695770263672e+00 5.317412614822387695e-01
1.054000000000000000e+03 6.791599273681640625e+01 4.205890178680419922e+00 1.050624847412109375e+00 4.047186851501464844e+00 1.529343605041503906e+00 -6.835580468177795410e-01
1.055000000000000000e+03 7.327157592773437500e+01 3.225012540817260742e+00 5.238606929779052734e-01 4.903003692626953125e+00 1.628059267997741699e+00 -1.355493187904357910e+00
1.056000000000000000e+03 7.563507843017578125e+01 4.401357173919677734e+00 2.726802229881286621e-01 5.290755748748779297e+00 1.669030785560607910e+00 -1.044028282165527344e+00
1.057000000000000000e+03 6.555245971679687500e+01 2.775320768356323242e+00 1.251837611198425293e+00 3.496393918991088867e+00 1.424469470977783203e+00 -1.536071449518203735e-01
1.058000000000000000e+03 7.089498901367187500e+01 2.290877342224121094e+00 8.293843269348144531e-01 4.245918273925781250e+00 1.522590756416320801e+00 -1.359347343444824219e+00
1.059000000000000000e+03 6.117073440551757812e+01 6.719912528991699219e+00 9.493567943572998047e-01 5.397533416748046875e+00 1.904067039489746094e+00 1.843728780746459961e+00
1.060000000000000000e+03 6.656755065917968750e+01 2.096693515777587891e+00 1.218036174774169922e+00 3.420748949050903320e+00 1.391635537147521973e+00 -4.580037593841552734e-01
1.061000000000000000e+03 7.564128875732421875e+01 1.637228846549987793e+00 2.862681448459625244e-01 5.705323219299316406e+00 1.797477483749389648e+00 -1.327009558677673340e+00
1.062000000000000000e+03 6.101114273071289062e+01 3.770102024078369141e+00 1.368575930595397949e+00 3.935260057449340820e+00 1.591150760650634766e+00 1.708922266960144043e+00
1.063000000000000000e+03 4.658314228057861328e+00 -1.885560274124145508e+00 -3.440031707286834717e-01 -4.255371540784835815e-02 -1.159670650959014893e-01 -2.753968536853790283e-01
1.064000000000000000e+03 4.099191188812255859e+00 -6.569926738739013672e+00 -5.619190633296966553e-02 -3.570481836795806885e-01 -1.239720284938812256e-01 -5.459302663803100586e-01
1.065000000000000000e+03 6.723420619964599609e+00 -1.051317405700683594e+01 2.453870326280593872e-01 -3.341379016637802124e-02 6.359197199344635010e-02 -5.593387484550476074e-01
1.066000000000000000e+03 8.099615097045898438e+00 -5.293766498565673828e+00 -2.808288037776947021e-01 9.078536927700042725e-02 -5.701303109526634216e-02 -5.855631232261657715e-01
1.067000000000000000e+03 9.793422698974609375e+00 -5.496334075927734375e+00 -3.170071244239807129e-01 2.610337138175964355e-01 -1.679202169179916382e-02 -4.879390299320220947e-01
1.068000000000000000e+03 1.966532325744628906e+01 -1.425222396850585938e+00 -4.852170050144195557e-01 1.615947186946868896e-01 -9.708668291568756104e-02 4.852021634578704834e-01
1.069000000000000000e+03 2.271651649475097656e+01 -8.295591354370117188e+00 1.176377907395362854e-01 4.390097558498382568e-01 1.669942736625671387e-01 8.733419179916381836e-01
1.070000000000000000e+03 2.645234298706054688e+01 -2.358215332031250000e+00 1.270939588546752930e+00 -8.259563893079757690e-02 3.565031886100769043e-01 1.115588784217834473e+00
1.071000000000000000e+03 2.634853172302246094e+01 -7.539060115814208984e+00 -1.175909996032714844e+00 5.088288187980651855e-01 -2.001243680715560913e-01 1.080304145812988281e+00
1.072000000000000000e+03 3.395999145507812500e+01 -7.037225246429443359e+00 -3.040074348449707031e+00 7.287181377410888672e+00 1.274132132530212402e+00 -1.160825729370117188e+00
1.073000000000000000e+03 3.287577819824218750e+01 -1.982886195182800293e+00 7.130946516990661621e-01 7.229079723358154297e+00 2.382652282714843750e+00 1.324272155761718750e+00
1.074000000000000000e+03 3.589644241333007812e+01 -6.372916698455810547e+00 -3.104031562805175781e+00 9.086710929870605469e+00 1.794803738594055176e+00 -1.203258037567138672e+00
1.075000000000000000e+03 3.680145263671875000e+01 -3.442246913909912109e+00 -1.479423522949218750e+00 1.000025749206542969e+01 2.556250333786010742e+00 -8.343561291694641113e-01
1.076000000000000000e+03 7.571413421630859375e+01 -8.471559524536132812e+00 -3.274617791175842285e-01 7.833805084228515625e+00 2.251903057098388672e+00 -1.920549511909484863e+00
1.077000000000000000e+03 7.177011871337890625e+01 -7.360291481018066406e+00 -2.052170783281326294e-01 3.697895288467407227e+00 1.047803521156311035e+00 -2.159261703491210938e+00
1.078000000000000000e+03 3.624273300170898438e+01 -1.367476582527160645e+00 2.855992615222930908e-01 1.047655200958251953e+01 3.228645563125610352e+00 -4.795022010803222656e-01
1.079000000000000000e+03 3.729474639892578125e+01 -1.017270207405090332e+00 7.147171497344970703e-01 1.126022243499755859e+01 3.592481851577758789e+00 -1.071794986724853516e+00
1.080000000000000000e+03 3.379641723632812500e+01 2.312668561935424805e-01 2.145994663238525391e+00 1.045097064971923828e+01 3.779089450836181641e+00 1.585464119911193848e+00
1.081000000000000000e+03 3.199848365783691406e+01 4.334225058555603027e-01 5.405381679534912109e+00 5.324333190917968750e+00 3.218914508819580078e+00 4.270351409912109375e+00
1.082000000000000000e+03 6.089363574981689453e+00 -1.867472887039184570e+00 -5.216131210327148438e-01 -1.987498626112937927e-02 -1.624464392662048340e-01 -3.179791271686553955e-01
1.083000000000000000e+03 3.517251205444335938e+01 4.548800468444824219e+00 2.065397024154663086e+00 1.491733169555664062e+01 5.094818592071533203e+00 1.525957942008972168e+00
1.084000000000000000e+03 3.385146331787109375e+01 5.923672199249267578e+00 2.323514372110366821e-01 1.532843589782714844e+01 4.668236255645751953e+00 -4.043400585651397705e-01
1.085000000000000000e+03 4.098958206176757812e+01 1.362731838226318359e+01 1.508857011795043945e+00 6.566994667053222656e+00 2.422755479812622070e+00 2.641858816146850586e+00
1.086000000000000000e+03 4.271912384033203125e+01 1.378069591522216797e+01 2.213358640670776367e+00 3.934384107589721680e+00 1.844322800636291504e+00 2.820129871368408203e+00
1.087000000000000000e+03 4.186997604370117188e+01 1.479637241363525391e+01 1.486276865005493164e+00 5.095754146575927734e+00 1.974609375000000000e+00 2.456466197967529297e+00
1.088000000000000000e+03 2.733395767211914062e+01 -7.897907733917236328e+00 -2.239981889724731445e+00 1.225356832146644592e-01 -6.352338194847106934e-01 5.054634809494018555e-01
1.089000000000000000e+03 3.894494628906250000e+01 -1.005653762817382812e+01 -1.458366632461547852e+00 8.458172798156738281e+00 2.099941968917846680e+00 -1.248659133911132812e+00
1.090000000000000000e+03 4.843423843383789062e+01 -9.797152519226074219e+00 -4.818380773067474365e-01 1.469298958778381348e+00 2.962382733821868896e-01 2.167799949645996094e+00
1.091000000000000000e+03 6.168473052978515625e+01 -7.895394802093505859e+00 -1.145957708358764648e+00 7.702059298753738403e-02 -3.206811249256134033e-01 9.877176284790039062e-01
1.092000000000000000e+03 6.372204208374023438e+01 -7.992231369018554688e+00 -1.088268756866455078e+00 -6.432825922966003418e-01 -5.194653868675231934e-01 4.272739887237548828e-01
1.093000000000000000e+03 6.634805297851562500e+01 -7.767166137695312500e+00 -9.861019849777221680e-01 -1.106344908475875854e-01 -3.290209472179412842e-01 -8.238524794578552246e-01
1.094000000000000000e+03 3.627842712402343750e+01 -1.108535957336425781e+01 -5.978394150733947754e-01 9.547709465026855469e+00 2.684961080551147461e+00 -1.459722876548767090e+00
1.095000000000000000e+03 5.155613708496093750e+01 -1.096809005737304688e+01 -7.247484922409057617e-01 1.316115498542785645e+00 1.774100959300994873e-01 2.556104183197021484e+00
1.096000000000000000e+03 1.296887874603271484e+01 -2.445005226135253906e+01 -1.645376160740852356e-02 1.825935602188110352e+00 5.428445339202880859e-01 1.220326945185661316e-01
1.097000000000000000e+03 1.099833679199218750e+01 -2.683034706115722656e+01 -2.269522696733474731e-01 1.164864897727966309e+00 2.813737988471984863e-01 3.211229741573333740e-01
1.098000000000000000e+03 4.912237167358398438e+00 -2.544819831848144531e+01 -1.087517291307449341e-02 -1.981178969144821167e-01 -6.269791722297668457e-02 4.669449329376220703e-01
1.099000000000000000e+03 1.264017677307128906e+01 -1.972021675109863281e+01 6.717208027839660645e-01 2.828673362731933594e+00 1.050118207931518555e+00 -5.774582386948168278e-04
1.100000000000000000e+03 1.212940502166748047e+01 -2.127843856811523438e+01 5.684177875518798828e-01 2.187867164611816406e+00 8.268855214118957520e-01 2.024702131748199463e-01
1.101000000000000000e+03 8.394561767578125000e+00 -2.077282142639160156e+01 4.221775829792022705e-01 7.431140542030334473e-01 3.495875000953674316e-01 4.087635278701782227e-01
1.102000000000000000e+03 4.658004283905029297e+00 -2.267799186706542969e+01 1.011992320418357849e-01 -3.910913169384002686e-01 -8.696763217449188232e-02 4.158177673816680908e-01
1.103000000000000000e+03 8.760298728942871094e+00 -1.516208744049072266e+01 7.143225073814392090e-01 7.260264754295349121e-01 4.321047067642211914e-01 -9.205611795186996460e-02
1.104000000000000000e+03 7.006304740905761719e+00 -1.697035598754882812e+01 5.137603878974914551e-01 1.555310785770416260e-01 2.007874399423599243e-01 6.242500245571136475e-02
1.105000000000000000e+03 1.437023639678955078e+01 -1.667041015625000000e+01 5.313045382499694824e-01 4.744352817535400391e+00 1.582697153091430664e+00 7.746090292930603027e-01
1.106000000000000000e+03 1.310822296142578125e+01 -1.517397212982177734e+01 1.178158879280090332e+00 2.778617620468139648e+00 1.187032938003540039e+00 5.827084779739379883e-01
1.107000000000000000e+03 1.019644546508789062e+01 -1.323202514648437500e+01 7.738838791847229004e-01 1.058423519134521484e+00 5.496922135353088379e-01 -1.494688987731933594e-01
1.108000000000000000e+03 4.272847175598144531e+00 -1.229330158233642578e+01 1.848970055580139160e-01 -6.462697386741638184e-01 -1.384118199348449707e-01 -3.959822058677673340e-01
1.109000000000000000e+03 5.458472251892089844e+00 -1.352329635620117188e+01 3.201547861099243164e-01 -3.601261675357818604e-01 -1.199141331017017365e-02 -3.236942291259765625e-01
1.110000000000000000e+03 1.518465709686279297e+01 -1.403317260742187500e+01 1.651399970054626465e+00 3.593619346618652344e+00 1.573505759239196777e+00 1.862348914146423340e+00
1.111000000000000000e+03 9.672074317932128906e+00 -3.566955566406250000e+01 -2.301245182752609253e-01 4.781850278377532959e-01 7.441815733909606934e-02 1.094482615590095520e-01
1.112000000000000000e+03 1.271950435638427734e+01 -3.595445632934570312e+01 -2.715379893779754639e-01 6.449073553085327148e-01 1.120108067989349365e-01 -1.749624498188495636e-02
1.113000000000000000e+03 1.587617111206054688e+01 -3.578372192382812500e+01 -2.585054934024810791e-01 6.877080202102661133e-01 1.287607550621032715e-01 -1.701461821794509888e-01
1.114000000000000000e+03 4.705753707885742188e+01 -3.522584533691406250e+01 -8.645451664924621582e-01 5.008601188659667969e+00 1.243216753005981445e+00 -1.323899507522583008e+00
1.115000000000000000e+03 4.927025985717773438e+01 -3.650455856323242188e+01 -5.120740532875061035e-01 3.424827814102172852e+00 8.738261461257934570e-01 -1.215674400329589844e+00
1.116000000000000000e+03 5.957782363891601562e+01 -3.780604171752929688e+01 1.110001325607299805e+00 -2.386615127325057983e-01 2.614019513130187988e-01 -3.252436816692352295e-01
1.117000000000000000e+03 7.519473266601562500e+01 -3.477037429809570312e+01 1.786425113677978516e-01 7.055430412292480469e+00 2.170221805572509766e+00 7.837551236152648926e-01
1.118000000000000000e+03 7.531532645225524902e-01 -3.741531372070312500e+01 3.966154530644416809e-03 -1.408785432577133179e-01 -4.107371717691421509e-02 3.268854320049285889e-02
1.119000000000000000e+03 4.545622825622558594e+00 -3.758634185791015625e+01 -6.156029552221298218e-02 4.185430333018302917e-02 -5.911796819418668747e-03 1.064571216702461243e-01
1.120000000000000000e+03 7.565594482421875000e+01 2.582002639770507812e+01 -2.868334203958511353e-02 4.516808509826660156e+00 1.346437454223632812e+00 2.091279029846191406e-01
1.121000000000000000e+03 7.290556335449218750e+01 2.460103225708007812e+01 -3.377741202712059021e-02 4.624323368072509766e+00 1.377163767814636230e+00 2.336172312498092651e-01
1.122000000000000000e+03 6.584758758544921875e+01 2.815818595886230469e+01 -2.619352340698242188e-01 4.230081081390380859e+00 1.190443754196166992e+00 -3.354693055152893066e-01
1.123000000000000000e+03 6.559325408935546875e+01 2.601295280456542969e+01 -3.760636150836944580e-01 4.509112834930419922e+00 1.239914774894714355e+00 -3.775584399700164795e-01
1.124000000000000000e+03 5.389839553833007812e+01 2.309683036804199219e+01 -3.622989058494567871e-01 3.631201684474945068e-01 2.463744312990456820e-04 2.464874684810638428e-01
1.125000000000000000e+03 4.880077743530273438e+01 2.275735092163085938e+01 4.822941869497299194e-02 1.510789990425109863e+00 4.677058160305023193e-01 1.126561284065246582e+00
1.126000000000000000e+03 4.273808288574218750e+01 3.223184204101562500e+01 -3.088387846946716309e-01 3.347577095031738281e+00 9.116215109825134277e-01 7.631552219390869141e-01
1.127000000000000000e+03 3.951475906372070312e+01 3.335261917114257812e+01 -5.527752637863159180e-01 3.659364700317382812e+00 9.319768548011779785e-01 4.831832051277160645e-01
1.128000000000000000e+03 3.812816619873046875e+01 2.813787651062011719e+01 -6.000120043754577637e-01 4.362064361572265625e+00 1.128615617752075195e+00 6.397933363914489746e-01
1.129000000000000000e+03 3.557682800292968750e+01 2.877039909362792969e+01 -6.929715275764465332e-01 4.416333198547363281e+00 1.117008566856384277e+00 1.270818859338760376e-01
1.130000000000000000e+03 3.276496505737304688e+01 2.880105400085449219e+01 -6.499736905097961426e-01 4.121312618255615234e+00 1.041401624679565430e+00 -3.905133605003356934e-01
1.131000000000000000e+03 3.549690628051757812e+01 2.652396011352539062e+01 -6.006024479866027832e-01 4.780855178833007812e+00 1.254075765609741211e+00 1.319294571876525879e-01
1.132000000000000000e+03 1.422307395935058594e+01 2.360079383850097656e+01 -2.286929190158843994e-01 7.916218787431716919e-02 -4.485921934247016907e-02 9.012769907712936401e-02
1.133000000000000000e+03 1.310664844512939453e+01 2.505829238891601562e+01 -1.164685785770416260e-01 9.862826019525527954e-02 -5.352096166461706161e-03 1.240181326866149902e-01
1.134000000000000000e+03 1.000840759277343750e+01 2.419455337524414062e+01 -1.124975308775901794e-01 6.277110427618026733e-02 -1.491792686283588409e-02 1.216754540801048279e-01
1.135000000000000000e+03 4.424311637878417969e+00 2.408637428283691406e+01 -1.958105899393558502e-02 -4.384671524167060852e-02 -1.902833208441734314e-02 8.673265576362609863e-02
1.136000000000000000e+03 6.214630603790283203e-01 2.335043525695800781e+01 9.058228461071848869e-04 -7.363092899322509766e-02 -2.181753329932689667e-02 1.504404842853546143e-02
1.137000000000000000e+03 5.500031280517578125e+01 3.070625305175781250e+01 4.561076760292053223e-01 2.057300329208374023e+00 7.540224194526672363e-01 -2.280001342296600342e-02
1.138000000000000000e+03 4.622978210449218750e+01 2.865850639343261719e+01 -2.552400575950741768e-03 2.749166250228881836e+00 8.239841461181640625e-01 1.101044416427612305e+00
1.139000000000000000e+03 4.172736740112304688e+01 2.942029190063476562e+01 -3.724942803382873535e-01 3.642702579498291016e+00 9.810625314712524414e-01 9.462013244628906250e-01
1.140000000000000000e+03 3.585234451293945312e+01 3.140977096557617188e+01 -7.144503593444824219e-01 4.015252113342285156e+00 9.902404546737670898e-01 1.589782238006591797e-01
1.141000000000000000e+03 2.858364105224609375e+01 2.985445213317871094e+01 -3.474558591842651367e-01 2.879094362258911133e+00 7.594915032386779785e-01 -8.348907828330993652e-01
1.142000000000000000e+03 2.609515762329101562e+01 2.779605865478515625e+01 7.374014705419540405e-02 2.091577291488647461e+00 6.495952010154724121e-01 -1.105239510536193848e+00
1.143000000000000000e+03 2.254453277587890625e+01 2.881597709655761719e+01 2.059104293584823608e-01 9.471297860145568848e-01 3.459120690822601318e-01 -6.134254336357116699e-01
1.144000000000000000e+03 1.964419746398925781e+01 2.681696510314941406e+01 1.134544014930725098e-01 3.125164508819580078e-01 1.277912557125091553e-01 -2.067189216613769531e-01
1.145000000000000000e+03 1.755960464477539062e+01 2.527299690246582031e+01 -5.645169690251350403e-02 5.992938578128814697e-02 1.043306663632392883e-03 -5.040638614445924759e-03
1.146000000000000000e+03 9.667346000671386719e+00 2.549427986145019531e+01 -7.077395915985107422e-02 5.655025690793991089e-02 -4.267110023647546768e-03 1.347811371088027954e-01
1.147000000000000000e+03 5.380081653594970703e+00 2.688464164733886719e+01 -1.241155620664358139e-02 -5.142720416188240051e-02 -1.915162801742553711e-02 1.193372383713722229e-01
1.148000000000000000e+03 7.283284664154052734e-01 2.758929634094238281e+01 -1.329639810137450695e-03 -1.980732977390289307e-01 -5.982088297605514526e-02 2.339766733348369598e-02
1.149000000000000000e+03 7.134995269775390625e+01 3.320626449584960938e+01 -9.350494295358657837e-02 4.337364196777343750e+00 1.273157835006713867e+00 2.736232476308941841e-03
1.150000000000000000e+03 6.867552947998046875e+01 3.239757156372070312e+01 -1.531077176332473755e-01 4.196255207061767578e+00 1.212944269180297852e+00 -1.341754049062728882e-01
1.151000000000000000e+03 6.381887435913085938e+01 3.172074890136718750e+01 -8.218623697757720947e-02 3.659227609634399414e+00 1.073112487792968750e+00 -4.336523115634918213e-01
1.152000000000000000e+03 5.730675125122070312e+01 3.411709976196289062e+01 3.631944358348846436e-01 2.534758329391479492e+00 8.693858385086059570e-01 -1.556498706340789795e-01
1.153000000000000000e+03 2.120140647888183594e+01 3.222761535644531250e+01 9.145198017358779907e-02 1.070813655853271484e+00 3.486796915531158447e-01 -4.199768900871276855e-01
1.154000000000000000e+03 1.827659606933593750e+01 3.343556213378906250e+01 1.281260102987289429e-01 7.355429530143737793e-01 2.591006755828857422e-01 -1.716506034135818481e-01
1.155000000000000000e+03 1.774489021301269531e+01 3.117620849609375000e+01 1.556051373481750488e-01 5.327973961830139160e-01 2.065207660198211670e-01 -1.595513969659805298e-01
1.156000000000000000e+03 1.293636703491210938e+01 2.968409156799316406e+01 6.376733630895614624e-02 1.735761463642120361e-01 7.120304554700851440e-02 9.067699313163757324e-02
1.157000000000000000e+03 5.503531455993652344e+00 3.192741966247558594e+01 2.488163113594055176e-02 -1.089510768651962280e-01 -2.522083558142185211e-02 1.130213737487792969e-01
1.158000000000000000e+03 7.666673064231872559e-01 3.043271064758300781e+01 -1.171036274172365665e-03 -2.881412804126739502e-01 -8.679369837045669556e-02 2.438769489526748657e-02
1.159000000000000000e+03 7.093489074707031250e+01 3.567826461791992188e+01 -7.647477090358734131e-02 4.270387172698974609e+00 1.258173704147338867e+00 -1.619834266602993011e-02
1.160000000000000000e+03 5.422362899780273438e+01 3.806832122802734375e+01 3.377258777618408203e-01 2.610658168792724609e+00 8.845152258872985840e-01 8.660981804132461548e-02
1.161000000000000000e+03 5.027652740478515625e+01 3.649652099609375000e+01 2.174071967601776123e-01 2.586805343627929688e+00 8.412637710571289062e-01 3.186598420143127441e-01
1.162000000000000000e+03 6.910473823547363281e+00 3.423932266235351562e+01 4.353793337941169739e-02 -4.703465104103088379e-02 -1.049014739692211151e-03 9.813655912876129150e-02
1.163000000000000000e+03 6.644004583358764648e-01 3.468580627441406250e+01 1.356786303222179413e-02 -4.064714014530181885e-01 -1.178710609674453735e-01 1.109392102807760239e-02
1.164000000000000000e+03 7.362861633300781250e+01 3.814639282226562500e+01 -3.571419045329093933e-02 4.405963897705078125e+00 1.311074852943420410e+00 2.564514242112636566e-02
1.165000000000000000e+03 7.100648498535156250e+01 3.839688110351562500e+01 -2.745401114225387573e-02 4.224836349487304688e+00 1.259214758872985840e+00 -3.248897939920425415e-02
1.166000000000000000e+03 6.929444670677185059e-01 3.738690185546875000e+01 1.386199519038200378e-02 -4.316710531711578369e-01 -1.253427118062973022e-01 -2.281358931213617325e-03
1.167000000000000000e+03 3.995288610458374023e+00 1.343613338470458984e+01 -4.960132646374404430e-04 -1.636465429328382015e-03 -6.397435790859162807e-04 -1.550030079670250416e-03
1.168000000000000000e+03 5.988186597824096680e-01 1.632232093811035156e+01 -3.906733822077512741e-03 8.311171084642410278e-03 1.321331132203340530e-03 1.645323936827480793e-03
1.169000000000000000e+03 4.019415855407714844e+00 1.087901878356933594e+01 1.358377514407038689e-03 -4.002168134320527315e-04 2.874482015613466501e-04 -3.072475548833608627e-03
1.170000000000000000e+03 5.798383355140686035e-01 1.350263309478759766e+01 -2.571598626673221588e-03 9.992711246013641357e-03 2.226333832368254662e-03 -1.005919475574046373e-04
1.171000000000000000e+03 3.379482984542846680e+00 5.482882022857666016e+00 -4.740742733702063560e-04 6.895526312291622162e-04 6.464351463364437222e-05 -1.776043907739222050e-03
1.172000000000000000e+03 1.659579849243164062e+01 6.281143665313720703e+00 1.097778673283755779e-03 1.841572578996419907e-03 8.818053756840527058e-04 6.503357435576617718e-04
1.173000000000000000e+03 5.946162939071655273e-01 9.289586067199707031e+00 1.113133737817406654e-03 5.285691935569047928e-03 1.919647678732872009e-03 -8.430718444287776947e-04
1.174000000000000000e+03 5.755067825317382812e+00 1.896330595016479492e+00 1.495769014582037926e-03 4.659674959839321673e-05 4.627097223419696093e-04 -6.470271619036793709e-04
1.175000000000000000e+03 8.801885604858398438e+00 2.583662509918212891e+00 7.072578882798552513e-04 -7.356058340519666672e-04 -8.504381185048259795e-06 2.483679272700101137e-04
1.176000000000000000e+03 6.321283578872680664e-01 6.443564891815185547e+00 5.489925970323383808e-04 2.485507633537054062e-03 9.103500633500516415e-04 -5.726044182665646076e-04
1.177000000000000000e+03 1.977753639221191406e+01 4.101238727569580078e+00 4.002209461759775877e-04 6.376571836881339550e-04 3.113634302280843258e-04 8.141915895976126194e-05
1.178000000000000000e+03 3.294391632080078125e+01 1.180380249023437500e+01 7.526346445083618164e-01 1.173438167572021484e+01 3.746104955673217773e+00 -2.409430265426635742e+00
1.179000000000000000e+03 6.901502227783203125e+01 -1.472262763977050781e+01 -2.478818655014038086e+00 1.604145020246505737e-01 -6.955212354660034180e-01 1.403454065322875977e+00
1.180000000000000000e+03 6.864974212646484375e+01 -2.081309890747070312e+01 -4.738160967826843262e-01 -2.487494468688964844e+00 -8.883932232856750488e-01 -9.687587618827819824e-01
1.181000000000000000e+03 6.742227172851562500e+01 -2.361009025573730469e+01 -1.668953180313110352e+00 -2.366011381149291992e+00 -1.210489392280578613e+00 -1.772078394889831543e+00
1.182000000000000000e+03 6.244873809814453125e+01 -2.848648262023925781e+01 -2.993991136550903320e+00 -1.697433471679687500e+00 -1.407427430152893066e+00 -1.953231334686279297e+00
1.183000000000000000e+03 5.548149871826171875e+01 -3.094260978698730469e+01 -1.705956697463989258e+00 -1.313158273696899414e-01 -5.511817336082458496e-01 -5.153301358222961426e-01
1.184000000000000000e+03 5.394309997558593750e+01 -3.084860229492187500e+01 -1.082949638366699219e+00 -5.360372364521026611e-02 -3.409659862518310547e-01 -3.886207938194274902e-01
1.185000000000000000e+03 4.695235824584960938e+01 -2.743397521972656250e+01 3.242284774780273438e+00 8.020688056945800781e+00 3.378891944885253906e+00 -4.554512023925781250e+00
1.186000000000000000e+03 4.365044403076171875e+01 -1.849164009094238281e+01 2.439492940902709961e+00 9.541572570800781250e+00 3.594319581985473633e+00 3.043394386768341064e-01
1.187000000000000000e+03 4.456160354614257812e+01 -1.954788970947265625e+01 1.749453067779541016e+00 1.222532176971435547e+01 4.192432403564453125e+00 7.659417986869812012e-01
1.188000000000000000e+03 5.830609893798828125e+01 -1.418326091766357422e+01 -2.953270435333251953e+00 -1.525965612381696701e-02 -8.905590176582336426e-01 -3.620407581329345703e-01
1.189000000000000000e+03 6.209177017211914062e+01 -1.271447086334228516e+01 -4.958482742309570312e+00 -4.323684573173522949e-01 -1.617255330085754395e+00 -1.905380010604858398e+00
1.190000000000000000e+03 6.831354522705078125e+01 -1.476425457000732422e+01 -2.305778264999389648e+00 -4.476360380649566650e-01 -8.260242938995361328e-01 1.697369933128356934e+00
1.191000000000000000e+03 6.970652008056640625e+01 -1.463142585754394531e+01 -2.508598804473876953e+00 3.379947841167449951e-01 -6.511812210083007812e-01 1.339377403259277344e+00
1.192000000000000000e+03 7.192997741699218750e+01 -1.400690937042236328e+01 -1.807171940803527832e+00 9.361503720283508301e-01 -2.613064646720886230e-01 1.579972803592681885e-01
1.193000000000000000e+03 7.198797607421875000e+01 -1.456373023986816406e+01 -2.265406608581542969e+00 4.797852039337158203e-01 -5.356864333152770996e-01 5.461102724075317383e-01
1.194000000000000000e+03 7.320685577392578125e+01 -1.456840515136718750e+01 -1.591006278991699219e+00 8.203179836273193359e-01 -2.312065064907073975e-01 -7.273035049438476562e-01
1.195000000000000000e+03 7.436961364746093750e+01 -1.454159545898437500e+01 -3.701162934303283691e-01 3.215562343597412109e+00 8.536338210105895996e-01 -2.888274908065795898e+00
1.196000000000000000e+03 7.413264465332031250e+01 -1.453337478637695312e+01 -6.740880012512207031e-01 2.523839235305786133e+00 5.549253821372985840e-01 -2.367953062057495117e+00
1.197000000000000000e+03 7.496852874755859375e+01 -1.472066783905029297e+01 -1.562437973916530609e-03 5.432606697082519531e+00 1.629313349723815918e+00 -4.546782493591308594e+00
1.198000000000000000e+03 7.745964813232421875e+01 -1.534087562561035156e+01 1.944383978843688965e+00 1.864349365234375000e+01 6.176363468170166016e+00 3.548128128051757812e+00
1.199000000000000000e+03 7.760073089599609375e+01 -1.546757602691650391e+01 2.874872446060180664e+00 1.787838172912597656e+01 6.225976467132568359e+00 3.822337865829467773e+00
1.200000000000000000e+03 7.790933990478515625e+01 -1.678313636779785156e+01 5.409133434295654297e+00 1.491528511047363281e+01 6.097325801849365234e+00 -2.085274696350097656e+00
1.201000000000000000e+03 7.833337402343750000e+01 -1.730271148681640625e+01 2.328242301940917969e+00 1.362464141845703125e+01 4.785864830017089844e+00 -2.738271951675415039e+00
1.202000000000000000e+03 7.960391235351562500e+01 -1.801511001586914062e+01 9.602665901184082031e-02 7.705519199371337891e+00 2.340463638305664062e+00 -1.308114409446716309e+00
1.203000000000000000e+03 7.531536102294921875e+01 -1.804950904846191406e+01 1.088926792144775391e+00 8.432512283325195312e+00 2.856431722640991211e+00 5.045542240142822266e+00
1.204000000000000000e+03 7.488309478759765625e+01 -1.803628730773925781e+01 1.377690792083740234e+00 5.412125587463378906e+00 2.036944866180419922e+00 3.884136676788330078e+00
1.205000000000000000e+03 7.551759338378906250e+01 -1.802488517761230469e+01 7.024947404861450195e-01 1.045502662658691406e+01 3.347256183624267578e+00 5.557208538055419922e+00
1.206000000000000000e+03 7.468106842041015625e+01 -1.799768447875976562e+01 1.399486660957336426e+00 4.097946166992187500e+00 1.649229764938354492e+00 3.272896528244018555e+00
1.207000000000000000e+03 7.409928894042968750e+01 -1.795316314697265625e+01 9.494106173515319824e-01 2.110831737518310547e+00 9.180727601051330566e-01 1.699543118476867676e+00
1.208000000000000000e+03 7.349723052978515625e+01 -1.794233512878417969e+01 3.304959237575531006e-01 1.211540102958679199e+00 4.626108109951019287e-01 6.006755828857421875e-01
1.209000000000000000e+03 7.283609771728515625e+01 -1.798637580871582031e+01 -1.103490367531776428e-01 7.123118638992309570e-01 1.805888414382934570e-01 -7.378864288330078125e-02
1.210000000000000000e+03 7.219002532958984375e+01 -1.806684494018554688e+01 -3.484145104885101318e-01 4.366365075111389160e-01 2.646659500896930695e-02 -5.506385564804077148e-01
1.211000000000000000e+03 6.249948120117187500e+01 1.527385044097900391e+01 1.085184887051582336e-01 7.724320888519287109e+00 2.349851846694946289e+00 -2.228018194437026978e-01
1.212000000000000000e+03 6.216869354248046875e+01 9.547009468078613281e+00 5.234294533729553223e-01 6.615681648254394531e+00 2.141733407974243164e+00 1.076372742652893066e+00
1.213000000000000000e+03 5.979887008666992188e+01 4.235753536224365234e+00 1.589530467987060547e+00 3.700649261474609375e+00 1.587053894996643066e+00 2.274059057235717773e+00
1.214000000000000000e+03 4.654241943359375000e+01 -4.785747051239013672e+00 -5.418873310089111328e+00 -3.909149169921875000e-01 -1.742936372756958008e+00 1.545817136764526367e+00
1.215000000000000000e+03 4.524014663696289062e+01 -4.351263999938964844e+00 -4.904461383819580078e+00 -1.382532566785812378e-01 -1.512814283370971680e+00 1.224858283996582031e+00
1.216000000000000000e+03 4.262236785888671875e+01 -3.447641372680664062e+00 -2.029098272323608398e+00 1.264598011970520020e+00 -2.293500900268554688e-01 -5.922991037368774414e-01
1.217000000000000000e+03 3.969722366333007812e+01 2.189140021800994873e-01 1.554952383041381836e+00 1.380839252471923828e+01 4.609003543853759766e+00 -3.879111766815185547e+00
1.218000000000000000e+03 3.915314865112304688e+01 2.979874610900878906e+00 6.872482299804687500e-01 1.567125606536865234e+01 4.907551288604736328e+00 -1.203130602836608887e+00
1.219000000000000000e+03 3.903712844848632812e+01 5.865429878234863281e+00 5.470205545425415039e-01 1.594282627105712891e+01 4.946954250335693359e+00 8.307596445083618164e-01
1.220000000000000000e+03 3.918481063842773438e+01 7.215683460235595703e+00 1.112935185432434082e+00 1.686001396179199219e+01 5.391884326934814453e+00 2.175995588302612305e+00
1.221000000000000000e+03 4.367760467529296875e+01 1.482475471496582031e+01 1.994606137275695801e+00 2.913049697875976562e+00 1.472296714782714844e+00 2.300019025802612305e+00
1.222000000000000000e+03 4.469053649902343750e+01 1.580980396270751953e+01 1.651677727699279785e+00 2.111832141876220703e+00 1.129052996635437012e+00 1.847565412521362305e+00
1.223000000000000000e+03 4.795061874389648438e+01 1.854566955566406250e+01 7.571604847908020020e-01 9.042089581489562988e-01 4.984108507633209229e-01 8.530452251434326172e-01
1.224000000000000000e+03 5.040362548828125000e+01 2.001602745056152344e+01 -1.907580792903900146e-01 3.228213191032409668e-01 3.961897268891334534e-02 2.684864103794097900e-01
1.225000000000000000e+03 5.311132049560546875e+01 2.101068496704101562e+01 -1.067379593849182129e+00 6.741388142108917236e-02 -2.999897301197052002e-01 -8.608827739953994751e-02
1.226000000000000000e+03 3.495880889892578125e+01 -1.361788845062255859e+01 1.268523454666137695e+00 1.224295139312744141e+01 4.053442478179931641e+00 -3.409518718719482422e+00
1.227000000000000000e+03 3.542385482788085938e+01 -1.634716606140136719e+01 5.161802768707275391e-01 1.235775375366210938e+01 3.862180233001708984e+00 -1.786461234092712402e+00
1.228000000000000000e+03 3.556093978881835938e+01 -1.774702835083007812e+01 3.458253443241119385e-01 1.138165760040283203e+01 3.518244981765747070e+00 -1.041390299797058105e+00
1.229000000000000000e+03 3.553052520751953125e+01 -2.198045158386230469e+01 7.379344701766967773e-01 9.861408233642578125e+00 3.179802656173706055e+00 1.389649987220764160e+00
1.230000000000000000e+03 3.550526428222656250e+01 -2.478892517089843750e+01 1.484458923339843750e+00 6.858317375183105469e+00 2.502832889556884766e+00 1.831347823143005371e+00
1.231000000000000000e+03 2.883792495727539062e+01 -2.949122810363769531e+01 -5.401561856269836426e-01 3.080626726150512695e-01 -6.962805241346359253e-02 2.773100137710571289e-01
1.232000000000000000e+03 2.741635894775390625e+01 -2.980817031860351562e+01 -1.028044939041137695e+00 8.512862771749496460e-02 -2.828749120235443115e-01 1.126372814178466797e-01
1.233000000000000000e+03 1.618764114379882812e+01 -2.358987998962402344e+01 5.259190201759338379e-01 1.428059935569763184e+00 5.861936807632446289e-01 -8.282861113548278809e-01
1.234000000000000000e+03 1.939291954040527344e+01 -1.141433715820312500e+01 1.894006729125976562e+00 4.343512058258056641e-01 6.985073685646057129e-01 7.633621692657470703e-01
1.235000000000000000e+03 2.212507438659667969e+01 -1.096734714508056641e+01 8.101060390472412109e-01 1.454019099473953247e-01 2.866523861885070801e-01 3.835717141628265381e-01
1.236000000000000000e+03 2.460144996643066406e+01 -1.009006023406982422e+01 1.858914196491241455e-01 1.624231040477752686e-01 1.044943630695343018e-01 2.483683079481124878e-01
1.237000000000000000e+03 9.010920524597167969e+00 -2.551291465759277344e+00 -7.630079388618469238e-01 4.019144549965858459e-02 -2.168449461460113525e-01 -3.800161182880401611e-01
1.238000000000000000e+03 7.568492412567138672e+00 -2.557471036911010742e+00 -6.163673400878906250e-01 3.305307589471340179e-03 -1.839186102151870728e-01 -4.121228456497192383e-01
1.239000000000000000e+03 2.537012338638305664e+00 -1.888928651809692383e+00 -1.384087204933166504e-01 -7.270362228155136108e-02 -6.333370506763458252e-02 -1.694519221782684326e-01
1.240000000000000000e+03 1.130745887756347656e+00 -2.077847003936767578e+00 -3.134671226143836975e-02 -9.387791156768798828e-02 -3.756738826632499695e-02 -6.502440571784973145e-02
1.241000000000000000e+03 3.847611248493194580e-01 -2.176769018173217773e+00 -7.882667705416679382e-03 -4.463292285799980164e-02 -1.575467735528945923e-02 -1.995879225432872772e-02
1.242000000000000000e+03 9.163787961006164551e-01 -3.874793624877929688e+01 -7.544370833784341812e-03 -8.791541308164596558e-02 -2.863793447613716125e-02 2.711288444697856903e-02
1.243000000000000000e+03 8.125078082084655762e-01 -3.326454925537109375e+01 -1.042249146848917007e-02 -3.774442672729492188e-01 -1.163600310683250427e-01 5.916875228285789490e-02
1.244000000000000000e+03 8.249184489250183105e-01 -3.184827995300292969e+01 -6.624106783419847488e-03 -4.901850521564483643e-01 -1.490427553653717041e-01 7.387094199657440186e-02
1.245000000000000000e+03 7.099092602729797363e-01 -2.615150451660156250e+01 2.416310599073767662e-03 -1.168640136718750000e+00 -3.498671352863311768e-01 1.041007116436958313e-01
1.246000000000000000e+03 1.972194433212280273e+00 -2.176475524902343750e+01 3.309644386172294617e-02 -1.303681850433349609e+00 -3.811756372451782227e-01 2.103819698095321655e-01
1.247000000000000000e+03 1.915534496307373047e+00 -1.901687240600585938e+01 4.798883572220802307e-02 -1.501407265663146973e+00 -4.360255300998687744e-01 1.045068427920341492e-01
1.248000000000000000e+03 1.845844745635986328e+00 -1.217204952239990234e+01 4.588254541158676147e-02 -1.319259643554687500e+00 -3.820131421089172363e-01 -2.365588098764419556e-01
1.249000000000000000e+03 6.291830539703369141e-01 -9.317414283752441406e+00 3.717128653079271317e-03 -1.242233633995056152e+00 -3.715549707412719727e-01 -1.180229634046554565e-01
1.250000000000000000e+03 1.821622848510742188e+00 -6.613021850585937500e+00 -8.360590785741806030e-03 -6.042000651359558105e-01 -1.837681978940963745e-01 -3.199603557586669922e-01
1.251000000000000000e+03 1.824462652206420898e+00 -5.210167407989501953e+00 -3.571365401148796082e-02 -4.119092226028442383e-01 -1.342868655920028687e-01 -2.818199992179870605e-01
1.252000000000000000e+03 7.499467468261718750e+01 4.036337661743164062e+01 -4.490395076572895050e-03 4.556758403778076172e+00 1.365680336952209473e+00 2.790444344282150269e-02
1.253000000000000000e+03 7.867751312255859375e+01 4.009996032714843750e+01 -1.847412809729576111e-02 4.774051189422607422e+00 1.426673054695129395e+00 -2.249608933925628662e-02
1.254000000000000000e+03 7.654310607910156250e+01 3.910837554931640625e+01 -1.507406681776046753e-02 4.701217651367187500e+00 1.405843138694763184e+00 7.769962772727012634e-03
1.255000000000000000e+03 7.924231719970703125e+01 3.608380508422851562e+01 6.451987661421298981e-03 4.815522193908691406e+00 1.446592211723327637e+00 6.871298421174287796e-03
1.256000000000000000e+03 7.779710388183593750e+01 2.900226211547851562e+01 -1.130563020706176758e-02 4.580879688262939453e+00 1.370872259140014648e+00 1.035519763827323914e-01
1.257000000000000000e+03 7.804268646240234375e+01 2.633558845520019531e+01 -6.051629316061735153e-03 4.475201606750488281e+00 1.340744972229003906e+00 1.247213110327720642e-01
1.258000000000000000e+03 7.792552185058593750e+01 2.370115280151367188e+01 9.101179428398609161e-03 4.343393802642822266e+00 1.305748462677001953e+00 1.455441266298294067e-01
1.259000000000000000e+03 7.793565368652343750e+01 1.954858970642089844e+01 2.654207870364189148e-02 4.168062686920166016e+00 1.258381485939025879e+00 9.467534720897674561e-02
1.260000000000000000e+03 7.804215240478515625e+01 1.677132797241210938e+01 3.725240752100944519e-02 4.111978054046630859e+00 1.244769096374511719e+00 6.283157970756292343e-03
1.261000000000000000e+03 7.808042144775390625e+01 1.400172519683837891e+01 4.209363460540771484e-02 4.176553726196289062e+00 1.265594124794006348e+00 -9.738528728485107422e-02
1.262000000000000000e+03 7.937595367431640625e+01 1.117779064178466797e+01 1.552227232605218887e-02 4.177547931671142578e+00 1.257920980453491211e+00 -7.702682912349700928e-02
1.263000000000000000e+03 7.812820434570312500e+01 9.861338615417480469e+00 5.636557191610336304e-02 4.542738437652587891e+00 1.379731297492980957e+00 -2.790602147579193115e-01
1.264000000000000000e+03 7.810763549804687500e+01 5.659064292907714844e+00 5.199533700942993164e-02 5.289787292480468750e+00 1.602534770965576172e+00 -4.919121861457824707e-01
1.265000000000000000e+03 7.937136077880859375e+01 1.422868728637695312e+00 4.943987820297479630e-03 6.732757091522216797e+00 2.021310329437255859e+00 -2.673333287239074707e-01
1.266000000000000000e+03 7.812649536132812500e+01 1.082226783037185669e-01 5.396399646997451782e-02 6.933456420898437500e+00 2.096226215362548828e+00 -8.160516619682312012e-01
1.267000000000000000e+03 7.818747711181640625e+01 -3.978303909301757812e+00 4.871182143688201904e-02 8.675554275512695312e+00 2.617279767990112305e+00 -9.981195330619812012e-01
1.268000000000000000e+03 7.940855407714843750e+01 -5.488084793090820312e+00 6.584422197192907333e-03 1.044524097442626953e+01 3.135547637939453125e+00 -3.667434453964233398e-01
1.269000000000000000e+03 7.822350311279296875e+01 -6.656702518463134766e+00 4.362523090094327927e-03 9.980918884277343750e+00 2.995584487915039062e+00 -1.034482479095458984e+00
1.270000000000000000e+03 7.807548522949218750e+01 -1.077708053588867188e+01 -5.916947126388549805e-01 1.168611335754394531e+01 3.328325510025024414e+00 -4.281710982322692871e-01
1.271000000000000000e+03 7.854981994628906250e+01 -1.275656032562255859e+01 -9.979850649833679199e-01 1.259658145904541016e+01 3.479578971862792969e+00 1.136022210121154785e+00
1.272000000000000000e+03 7.858220672607421875e+01 -1.616623115539550781e+01 2.234856128692626953e+00 1.115712642669677734e+01 4.017594814300537109e+00 8.543928265571594238e-01
1.273000000000000000e+03 7.758695220947265625e+01 -1.740840911865234375e+01 2.308639764785766602e+00 1.767958831787109375e+01 5.996468067169189453e+00 -3.040095806121826172e+00
1.274000000000000000e+03 7.787656402587890625e+01 -2.085313796997070312e+01 -1.086166262626647949e+00 1.258492469787597656e+01 3.449627637863159180e+00 -5.080401897430419922e-01
1.275000000000000000e+03 7.838218688964843750e+01 -2.237214279174804688e+01 -2.899948358535766602e-01 1.240182113647460938e+01 3.633547782897949219e+00 -1.513528674840927124e-01
1.276000000000000000e+03 7.943804168701171875e+01 -2.644919586181640625e+01 5.633888300508260727e-03 1.293778705596923828e+01 3.883026361465454102e+00 1.666100174188613892e-01
1.277000000000000000e+03 7.806511688232421875e+01 -2.906251907348632812e+01 -2.005425840616226196e-02 1.060610008239746094e+01 3.175813913345336914e+00 5.652628540992736816e-01
1.278000000000000000e+03 7.938653564453125000e+01 -3.336265563964843750e+01 7.261310820467770100e-04 1.062422370910644531e+01 3.187484979629516602e+00 1.507073640823364258e-01
1.279000000000000000e+03 7.934568023681640625e+01 -3.609210586547851562e+01 4.421738907694816589e-02 9.793193817138671875e+00 2.951223134994506836e+00 1.579924225807189941e-01
1.280000000000000000e+03 7.870618438720703125e+01 -4.007866287231445312e+01 -8.328262716531753540e-02 8.650174140930175781e+00 2.570067405700683594e+00 2.950659692287445068e-01
1.281000000000000000e+03 3.989114463329315186e-01 2.164404869079589844e+00 -3.243716200813651085e-04 1.615521468920633197e-04 -4.884584268438629806e-05 1.523555420135380700e-05
1.282000000000000000e+03 6.334669589996337891e-01 4.960552692413330078e+00 -3.196313627995550632e-04 1.423453562892973423e-03 3.311466425657272339e-04 -3.886812191922217607e-04
1.283000000000000000e+03 1.900097370147705078e+00 6.460408210754394531e+00 -6.685980479232966900e-04 1.484486972913146019e-03 2.447666774969547987e-04 -1.167688169516623020e-03
1.284000000000000000e+03 1.774694442749023438e+00 9.342370986938476562e+00 -1.304495497606694698e-03 3.159725340083241463e-03 5.565689643844962120e-04 -1.394512946717441082e-03
1.285000000000000000e+03 5.764510631561279297e-01 1.209753990173339844e+01 1.888392260298132896e-03 8.719664067029953003e-03 3.182416781783103943e-03 -8.983787847682833672e-04
1.286000000000000000e+03 1.723215699195861816e+00 1.209485435485839844e+01 -2.437228104099631310e-03 4.611046984791755676e-03 6.521455943584442139e-04 -8.496282389387488365e-04
1.287000000000000000e+03 1.800971150398254395e+00 1.627926254272460938e+01 7.151463069021701813e-04 6.753994384780526161e-04 4.171637119725346565e-04 3.398532979190349579e-03
1.288000000000000000e+03 1.804978013038635254e+00 1.907486724853515625e+01 -1.135651255026459694e-03 -1.325705088675022125e-02 -4.317810758948326111e-03 1.426613610237836838e-02
1.289000000000000000e+03 6.049780845642089844e-01 2.194230079650878906e+01 -4.887393675744533539e-03 -4.307981207966804504e-02 -1.439016126096248627e-02 1.081162970513105392e-02
1.290000000000000000e+03 6.513639092445373535e-01 2.476345443725585938e+01 -3.279957687482237816e-03 -1.107083633542060852e-01 -3.419649600982666016e-02 1.794075965881347656e-02
1.291000000000000000e+03 6.913088560104370117e-01 2.617706108093261719e+01 -4.023800429422408342e-04 -1.531680971384048462e-01 -4.607114195823669434e-02 2.175932005047798157e-02
1.292000000000000000e+03 7.540041208267211914e-01 2.900615692138671875e+01 7.192394114099442959e-04 -2.434076517820358276e-01 -7.280652225017547607e-02 2.398189716041088104e-02
1.293000000000000000e+03 2.290929317474365234e+00 2.887202072143554688e+01 -1.166070811450481415e-03 -1.859346777200698853e-01 -5.613022297620773315e-02 6.844949722290039062e-02
1.294000000000000000e+03 7.327587008476257324e-01 3.329747390747070312e+01 -2.583563327789306641e-03 -3.731722533702850342e-01 -1.127267479896545410e-01 2.203231677412986755e-02
1.295000000000000000e+03 6.300717592239379883e-01 3.604168319702148438e+01 -8.619124069809913635e-03 -4.271524250507354736e-01 -1.307314634323120117e-01 7.581177167594432831e-03
1.296000000000000000e+03 3.186234951019287109e+00 3.683647155761718750e+01 3.266552090644836426e-02 -2.930462360382080078e-01 -7.811421900987625122e-02 3.210408240556716919e-02
1.297000000000000000e+03 1.278905034065246582e+00 4.004370880126953125e+01 1.800077222287654877e-02 -4.129493534564971924e-01 -1.184845715761184692e-01 -1.548529416322708130e-02
1.298000000000000000e+03 9.592456817626953125e+00 1.858986377716064453e+00 9.101679897867143154e-04 -4.847561649512499571e-04 1.276235416298732162e-04 3.412135120015591383e-04
1.299000000000000000e+03 8.826705932617187500e+00 1.860019803047180176e+00 1.742260763421654701e-03 9.057047282112762332e-05 5.498494138009846210e-04 -6.316877261269837618e-05
1.300000000000000000e+03 6.522493362426757812e+00 1.881791114807128906e+00 8.698935853317379951e-04 -3.984046634286642075e-04 1.414466823916882277e-04 -2.055998484138399363e-04
1.301000000000000000e+03 4.988959789276123047e+00 1.915365099906921387e+00 5.480999825522303581e-04 -1.995930651901289821e-04 1.045520766638219357e-04 -4.371566465124487877e-04
1.302000000000000000e+03 2.644878864288330078e+00 2.084866762161254883e+00 8.065837319009006023e-04 2.065650478471070528e-04 3.039446310140192509e-04 -4.877930914517492056e-04
1.303000000000000000e+03 1.159263849258422852e+00 2.040446281433105469e+00 1.449794217478483915e-04 4.053982556797564030e-04 1.651133061386644840e-04 -3.499683225527405739e-04
1.304000000000000000e+03 1.034735679626464844e+01 1.860992431640625000e+00 1.632312778383493423e-03 1.970698649529367685e-04 5.488147726282477379e-04 1.754425902618095279e-04
1.305000000000000000e+03 1.105799961090087891e+01 2.582768678665161133e+00 1.560554956085979939e-03 2.557332045398652554e-04 5.448864540085196495e-04 3.211695002391934395e-04
1.306000000000000000e+03 1.331830120086669922e+01 1.888478159904479980e+00 1.008964376524090767e-03 5.182558670639991760e-04 4.581660614348948002e-04 3.119513858109712601e-04
1.307000000000000000e+03 1.550876617431640625e+01 1.950995683670043945e+00 -7.258752884808927774e-05 -4.418177413754165173e-04 -1.543215767014771700e-04 4.224348231218755245e-04
1.308000000000000000e+03 1.621953392028808594e+01 1.991481900215148926e+00 5.165474722161889076e-04 7.106039556674659252e-04 3.681454400066286325e-04 1.695631799520924687e-04
1.309000000000000000e+03 1.762392807006835938e+01 2.129781723022460938e+00 3.887248167302459478e-04 6.228674901649355888e-04 3.034776891581714153e-04 1.611649058759212494e-04
1.310000000000000000e+03 1.901049804687500000e+01 2.328448057174682617e+00 4.545686533674597740e-04 3.675988118629902601e-04 2.466502483002841473e-04 5.552764378080610186e-06
1.311000000000000000e+03 2.073368835449218750e+01 3.549091815948486328e+00 6.567550008185207844e-04 1.716596598271280527e-04 2.485243894625455141e-04 1.507126216893084347e-05
1.312000000000000000e+03 2.106434249877929688e+01 2.732856750488281250e+00 -4.048820701427757740e-04 -1.525108382338657975e-04 -1.672178768785670400e-04 1.124406335293315351e-04
1.313000000000000000e+03 2.324027824401855469e+01 3.530067920684814453e+00 2.891597978305071592e-04 3.175537276547402143e-04 1.820140605559572577e-04 1.624767901375889778e-04
1.314000000000000000e+03 1.978827857971191406e+01 5.220188140869140625e+00 1.342027680948376656e-03 -6.021337321726605296e-05 3.845443134196102619e-04 7.450022967532277107e-04
1.315000000000000000e+03 1.930152130126953125e+01 6.098135948181152344e+00 -2.046447480097413063e-03 -3.010146028827875853e-04 -7.042386569082736969e-04 -6.275844061747193336e-04
1.316000000000000000e+03 1.835135269165039062e+01 2.211595344543457031e+01 -6.948823928833007812e-01 -5.442849174141883850e-02 -2.247932702302932739e-01 -1.456488817930221558e-01
1.317000000000000000e+03 2.593309402465820312e+01 2.209222030639648438e+01 7.439550757408142090e-01 5.043638944625854492e-01 3.744956851005554199e-01 -6.102042198181152344e-01
1.318000000000000000e+03 3.132359313964843750e+01 1.731534957885742188e+01 1.623232245445251465e+00 8.942791938781738281e+00 3.169807195663452148e+00 -3.212811470031738281e+00
1.319000000000000000e+03 3.409807586669921875e+01 1.232230377197265625e+01 7.994176149368286133e-01 1.113400077819824219e+01 3.580025672912597656e+00 -1.954501390457153320e+00
1.320000000000000000e+03 3.362298583984375000e+01 8.955933570861816406e+00 7.024034261703491211e-01 1.341318607330322266e+01 4.234676837921142578e+00 -1.629146695137023926e+00
1.321000000000000000e+03 3.392607116699218750e+01 4.462226867675781250e+00 9.925830960273742676e-01 1.738646888732910156e+01 5.513715744018554688e+00 9.625857472419738770e-01
1.322000000000000000e+03 2.876114845275878906e+01 -9.633383154869079590e-02 2.757019758224487305e+00 -5.353963375091552734e-02 8.110440373420715332e-01 2.546910382807254791e-02
1.323000000000000000e+03 2.432826614379882812e+01 -2.967598438262939453e-01 7.102218866348266602e-01 -1.097085997462272644e-01 1.801539957523345947e-01 3.743260204792022705e-01
1.324000000000000000e+03 2.280577278137207031e+01 -7.876577377319335938e-01 2.563726007938385010e-01 7.510308176279067993e-02 9.944270551204681396e-02 4.888347685337066650e-01
1.325000000000000000e+03 2.202849388122558594e+01 -9.931940436363220215e-01 5.722302943468093872e-02 1.136496290564537048e-01 5.126179754734039307e-02 5.251004695892333984e-01
1.326000000000000000e+03 1.887065124511718750e+01 -1.519576668739318848e+00 -6.430678367614746094e-01 1.478598713874816895e-01 -1.485623866319656372e-01 4.432162046432495117e-01
1.327000000000000000e+03 2.045931053161621094e+01 -1.298918962478637695e+00 -3.134441375732421875e-01 1.572407335042953491e-01 -4.686102271080017090e-02 5.241923332214355469e-01
1.328000000000000000e+03 1.652125930786132812e+01 -1.706426024436950684e+00 -1.021949052810668945e+00 1.096348315477371216e-01 -2.736942470073699951e-01 2.324800342321395874e-01
1.329000000000000000e+03 1.574654579162597656e+01 -1.747906446456909180e+00 -1.102150321006774902e+00 9.278208017349243164e-02 -3.028104901313781738e-01 1.606810688972473145e-01
1.330000000000000000e+03 1.267918682098388672e+01 -1.831119418144226074e+00 -1.196959257125854492e+00 5.621889978647232056e-02 -3.422220945358276367e-01 -1.166199073195457458e-01
1.331000000000000000e+03 1.041166877746582031e+01 -1.849360823631286621e+00 -1.054243683815002441e+00 4.133807495236396790e-02 -3.038716912269592285e-01 -2.561870515346527100e-01
1.332000000000000000e+03 9.676411628723144531e+00 -1.852005124092102051e+00 -9.757918715476989746e-01 2.730078808963298798e-02 -2.845473289489746094e-01 -2.852543592453002930e-01
1.333000000000000000e+03 4.026148986816406250e+01 1.033954906463623047e+01 2.337718963623046875e+00 1.064600276947021484e+01 3.895116567611694336e+00 4.488105297088623047e+00
1.334000000000000000e+03 4.099440765380859375e+01 1.152440261840820312e+01 2.468109846115112305e+00 7.679498672485351562e+00 3.044282436370849609e+00 3.999218463897705078e+00
1.335000000000000000e+03 7.408187103271484375e+01 -1.824887275695800781e+01 1.026290416717529297e+00 2.639538288116455078e+00 1.099748611450195312e+00 1.928181648254394531e+00
1.336000000000000000e+03 7.370295715332031250e+01 -1.794738769531250000e+01 5.595105290412902832e-01 1.426313996315002441e+00 5.957473516464233398e-01 9.090782999992370605e-01
1.337000000000000000e+03 7.510366821289062500e+01 -1.807433128356933594e+01 1.203609943389892578e+00 6.910140514373779297e+00 2.434125185012817383e+00 4.558553218841552734e+00
1.338000000000000000e+03 7.390141296386718750e+01 -1.795476341247558594e+01 7.504653930664062500e-01 1.656462073326110840e+00 7.220782637596130371e-01 1.283984303474426270e+00
1.339000000000000000e+03 7.427084350585937500e+01 -1.821577835083007812e+01 1.124107956886291504e+00 3.078448295593261719e+00 1.260766863822937012e+00 2.250225305557250977e+00
1.340000000000000000e+03 7.723377990722656250e+01 -1.501590251922607422e+01 -7.084771394729614258e-01 1.967470932006835938e+01 5.689869880676269531e+00 2.278336048126220703e+00
1.341000000000000000e+03 7.741661071777343750e+01 -1.797934532165527344e+01 -6.180636286735534668e-01 1.817487907409667969e+01 5.267044544219970703e+00 -2.285697460174560547e+00
1.342000000000000000e+03 7.860337829589843750e+01 -1.924794197082519531e+01 -7.684727311134338379e-01 1.274760627746582031e+01 3.593739986419677734e+00 -2.158025026321411133e+00
1.343000000000000000e+03 7.773468017578125000e+01 -1.724349212646484375e+01 3.609981775283813477e+00 1.666204643249511719e+01 6.081608295440673828e+00 -2.944046258926391602e+00
1.344000000000000000e+03 7.789243316650390625e+01 -1.488719844818115234e+01 -5.882469415664672852e-01 1.580794048309326172e+01 4.565907955169677734e+00 2.938233375549316406e+00
1.345000000000000000e+03 7.790132141113281250e+01 -1.654717636108398438e+01 5.678322792053222656e+00 1.473361015319824219e+01 6.123579502105712891e+00 -9.674354195594787598e-01
1.346000000000000000e+03 7.792015838623046875e+01 -1.633980369567871094e+01 4.662915706634521484e+00 1.454531764984130859e+01 5.762469768524169922e+00 1.686336994171142578e-01
1.347000000000000000e+03 7.824278259277343750e+01 -1.544071865081787109e+01 2.713704586029052734e+00 1.426126384735107422e+01 5.092490673065185547e+00 3.336456298828125000e+00
1.348000000000000000e+03 7.798791503906250000e+01 -1.607817649841308594e+01 4.257635116577148438e+00 1.468436241149902344e+01 5.682599067687988281e+00 1.843094706535339355e+00
1.349000000000000000e+03 7.811225891113281250e+01 -1.761416435241699219e+01 1.256660699844360352e+00 1.442337036132812500e+01 4.704009532928466797e+00 -3.212285041809082031e+00
1.350000000000000000e+03 7.696607971191406250e+01 -1.797410774230957031e+01 -1.321236371994018555e+00 1.974695587158203125e+01 5.527716159820556641e+00 -6.563282012939453125e-01
1.351000000000000000e+03 7.787166595458984375e+01 -1.915290260314941406e+01 -1.528421044349670410e+00 1.451808738708496094e+01 3.896899938583374023e+00 -1.972881913185119629e+00
1.352000000000000000e+03 7.682024383544921875e+01 -1.476410961151123047e+01 -2.500726461410522461e+00 1.968131637573242188e+01 5.154176712036132812e+00 -5.532602071762084961e-01
1.353000000000000000e+03 7.788118743896484375e+01 -1.190625572204589844e+01 -1.112610816955566406e+00 1.230391883850097656e+01 3.357392311096191406e+00 3.048867732286453247e-02
1.354000000000000000e+03 7.587068939208984375e+01 -1.823360633850097656e+01 -7.429091930389404297e-01 1.340798377990722656e+01 3.799522399902343750e+00 4.624817848205566406e+00
1.355000000000000000e+03 7.390405273437500000e+01 -1.456801605224609375e+01 -8.695296049118041992e-01 2.001412391662597656e+00 3.395648300647735596e-01 -1.843720912933349609e+00
1.356000000000000000e+03 7.494966125488281250e+01 -1.451857185363769531e+01 -2.323201447725296021e-01 5.869081497192382812e+00 1.691028356552124023e+00 -4.325195312500000000e+00
1.357000000000000000e+03 7.574182891845703125e+01 -1.443464183807373047e+01 -1.541274785995483398e+00 1.210513019561767578e+01 3.169156551361083984e+00 -4.931410312652587891e+00
1.358000000000000000e+03 7.556458282470703125e+01 -1.472272682189941406e+01 -6.858558654785156250e-01 1.048453807830810547e+01 2.939604520797729492e+00 -5.808553218841552734e+00
1.359000000000000000e+03 7.345770263671875000e+01 -1.457718753814697266e+01 -1.345428824424743652e+00 1.383018732070922852e+00 1.127695012837648392e-02 -1.051650047302246094e+00
1.360000000000000000e+03 7.459854125976562500e+01 -1.460454463958740234e+01 -1.722643375396728516e-01 3.874484539031982422e+00 1.110666036605834961e+00 -3.455538034439086914e+00
1.361000000000000000e+03 7.516359710693359375e+01 -1.471828556060791016e+01 -1.138468608260154724e-01 6.858292579650878906e+00 2.023333549499511719e+00 -4.993261814117431641e+00
1.362000000000000000e+03 7.536454772949218750e+01 -1.471968746185302734e+01 -3.737491071224212646e-01 8.458756446838378906e+00 2.425502300262451172e+00 -5.577898025512695312e+00
1.363000000000000000e+03 7.596504974365234375e+01 -1.471348857879638672e+01 -1.794720292091369629e+00 1.466243648529052734e+01 3.860314846038818359e+00 -5.298749923706054688e+00
1.364000000000000000e+03 7.613652038574218750e+01 -1.438078975677490234e+01 -2.433261394500732422e+00 1.506282615661621094e+01 3.788869380950927734e+00 -3.919253110885620117e+00
1.365000000000000000e+03 6.876317596435546875e+01 -1.339263916015625000e+01 -3.476019382476806641e+00 1.810895651578903198e-01 -9.884788990020751953e-01 1.314139008522033691e+00
1.366000000000000000e+03 6.763195037841796875e+01 -1.473880004882812500e+01 -1.967108488082885742e+00 -2.272168159484863281e+00 -1.271782994270324707e+00 1.976680994033813477e+00
1.367000000000000000e+03 2.178978729248046875e+01 2.927059888839721680e+00 2.648629306349903345e-04 1.375219435431063175e-04 1.207154637086205184e-04 -1.779653684934601188e-04
1.368000000000000000e+03 1.741793632507324219e+01 4.505202770233154297e+00 9.397866087965667248e-04 1.098417793400585651e-03 6.114613497629761696e-04 8.261554758064448833e-04
1.369000000000000000e+03 1.810162162780761719e+01 2.960170269012451172e+00 6.382939172908663750e-04 5.603267927654087543e-04 3.595862071961164474e-04 3.087020886596292257e-04
1.370000000000000000e+03 2.038400650024414062e+01 2.590539455413818359e+00 4.058147897012531757e-04 2.564217138569802046e-04 1.986709539778530598e-04 -3.912032843800261617e-05
1.371000000000000000e+03 2.139142036437988281e+01 3.697486877441406250e+00 -4.823489580303430557e-04 4.184094905212987214e-06 -1.434494624845683575e-04 2.157503040507435799e-04
1.372000000000000000e+03 7.083773803710937500e+01 -1.887301445007324219e+01 -1.783504337072372437e-01 1.013728901743888855e-01 -2.309326454997062683e-02 -7.550687789916992188e-01
1.373000000000000000e+03 7.282199096679687500e+01 -1.839532089233398438e+01 2.113984227180480957e-01 1.123139500617980957e+00 4.003613591194152832e-01 5.945207923650741577e-02
1.374000000000000000e+03 7.060975646972656250e+01 -1.948736763000488281e+01 -6.604510545730590820e-02 1.383556872606277466e-01 2.169317752122879028e-02 -8.096460103988647461e-01
1.375000000000000000e+03 8.958045005798339844e+00 -1.851686000823974609e+00 -8.935193419456481934e-01 2.410962246358394623e-02 -2.608229219913482666e-01 -3.075153231620788574e-01
1.376000000000000000e+03 8.344491958618164062e+00 -3.236292362213134766e+00 -5.867071747779846191e-01 4.011206701397895813e-02 -1.639785319566726685e-01 -4.618357717990875244e-01
1.377000000000000000e+03 7.523257732391357422e+00 -1.853319168090820312e+00 -7.119271755218505859e-01 4.091405309736728668e-03 -2.123507261276245117e-01 -3.284011185169219971e-01
1.378000000000000000e+03 6.195617675781250000e+00 -3.386554956436157227e+00 -3.934921026229858398e-01 -4.510379582643508911e-02 -1.315787583589553833e-01 -4.804433882236480713e-01
1.379000000000000000e+03 4.684895515441894531e+00 -2.678284883499145508e+00 -3.072243034839630127e-01 -8.153369277715682983e-02 -1.166274026036262512e-01 -3.625997602939605713e-01
1.380000000000000000e+03 5.373149394989013672e+00 -1.878978610038757324e+00 -4.287057816982269287e-01 -3.422932699322700500e-02 -1.388805359601974487e-01 -3.017367422580718994e-01
1.381000000000000000e+03 6.849029064178466797e+00 -2.578767776489257812e+00 -5.391650199890136719e-01 -1.139079686254262924e-02 -1.651667505502700806e-01 -4.130850434303283691e-01
1.382000000000000000e+03 5.407727718353271484e+00 -2.653559446334838867e+00 -3.815096318721771240e-01 -5.621237307786941528e-02 -1.313166022300720215e-01 -3.897650539875030518e-01
1.383000000000000000e+03 2.614936590194702148e+00 -2.623893499374389648e+00 -1.387445330619812012e-01 -1.181339472532272339e-01 -7.706354558467864990e-02 -2.262389361858367920e-01
1.384000000000000000e+03 5.192775726318359375e-01 -3.569824457168579102e+00 -2.130765840411186218e-02 -2.123185545206069946e-01 -7.008786499500274658e-02 -7.263850420713424683e-02
1.385000000000000000e+03 6.137435436248779297e-01 -5.037715911865234375e+00 -1.056031696498394012e-02 -4.208238124847412109e-01 -1.294152289628982544e-01 -1.083308756351470947e-01
1.386000000000000000e+03 1.613652801513671875e+01 2.676127433776855469e+00 -3.282497928012162447e-04 -4.111903836019337177e-04 -2.218320441897958517e-04 4.742355085909366608e-04
1.387000000000000000e+03 1.832196807861328125e+01 2.219560146331787109e+00 -3.514417039696127176e-04 -3.194463788531720638e-04 -2.012664335779845715e-04 3.232364178984425962e-05
1.388000000000000000e+03 1.876139450073242188e+01 3.093761682510375977e+00 -6.569509860128164291e-04 -1.175802681245841086e-04 -2.323593653272837400e-04 7.906944665592163801e-05
1.389000000000000000e+03 1.679900169372558594e+01 2.721089363098144531e+00 4.065000102855265141e-04 9.063488105311989784e-04 3.938546578865498304e-04 1.649392506806179881e-04
1.390000000000000000e+03 1.399490070343017578e+01 3.301120996475219727e+00 -1.767907087923958898e-04 -5.017902585677802563e-04 -2.035742800217121840e-04 1.071141916327178478e-03
1.391000000000000000e+03 1.180285549163818359e+01 2.587898492813110352e+00 2.918489044532179832e-04 -5.625224439427256584e-04 -8.120205893646925688e-05 8.268801029771566391e-04
1.392000000000000000e+03 1.478419113159179688e+01 1.927742958068847656e+00 7.122575771063566208e-04 6.394661613740026951e-04 4.055171448271721601e-04 2.699499018490314484e-04
1.393000000000000000e+03 1.545688629150390625e+01 2.641914606094360352e+00 7.301741279661655426e-04 7.691787905059754848e-04 4.498058697208762169e-04 3.176184254698455334e-04
1.394000000000000000e+03 1.474934673309326172e+01 2.619167327880859375e+00 -1.186754234367981553e-04 -4.320044245105236769e-04 -1.652039500186219811e-04 6.024880567565560341e-04
1.395000000000000000e+03 1.399112606048583984e+01 3.987415552139282227e+00 1.024771016091108322e-03 8.487390005029737949e-04 5.620529991574585438e-04 3.432453377172350883e-04
1.396000000000000000e+03 1.257988548278808594e+01 1.875503182411193848e+00 4.402847844175994396e-04 -4.386091022752225399e-04 5.027014253755623940e-07 6.718505173921585083e-04
1.397000000000000000e+03 1.254728126525878906e+01 2.595216035842895508e+00 1.243458245880901814e-03 4.739977302961051464e-04 5.152368103154003620e-04 3.945861826650798321e-04
1.398000000000000000e+03 1.328694725036621094e+01 2.603080511093139648e+00 7.363145414274185896e-05 -4.817305307369679213e-04 -1.224297302542254329e-04 8.737434400245547295e-04
1.399000000000000000e+03 1.126902866363525391e+01 -3.250547647476196289e+00 -7.674275636672973633e-01 1.473677903413772583e-01 -1.860179305076599121e-01 -2.902438640594482422e-01
1.400000000000000000e+03 1.046810626983642578e+01 -2.553601980209350586e+00 -8.834084272384643555e-01 7.160143554210662842e-02 -2.435420900583267212e-01 -3.119090795516967773e-01
1.401000000000000000e+03 1.272995185852050781e+01 -2.522824525833129883e+00 -9.931956529617309570e-01 1.262438744306564331e-01 -2.600855231285095215e-01 -1.266176104545593262e-01
1.402000000000000000e+03 9.733757972717285156e+00 -2.555423259735107422e+00 -8.276824355125427246e-01 6.321058422327041626e-02 -2.293415516614913940e-01 -3.507918119430541992e-01
1.403000000000000000e+03 1.420857429504394531e+01 -1.794964075088500977e+00 -1.199574470520019531e+00 7.344125211238861084e-02 -3.378399610519409180e-01 1.255788933485746384e-02
1.404000000000000000e+03 1.429467201232910156e+01 -3.213099241256713867e+00 -7.922278642654418945e-01 2.383549958467483521e-01 -1.661618649959564209e-01 7.388640195131301880e-02
1.405000000000000000e+03 1.349210166931152344e+01 -2.511984586715698242e+00 -9.929531216621398926e-01 1.310714632272720337e-01 -2.585645020008087158e-01 -4.290633276104927063e-02
1.406000000000000000e+03 1.581072807312011719e+01 -2.478327035903930664e+00 -8.922381401062011719e-01 1.864117681980133057e-01 -2.117479145526885986e-01 2.347241789102554321e-01
1.407000000000000000e+03 7.273862838745117188e+00 2.616972923278808594e+00 7.529253489337861538e-04 -7.305976469069719315e-04 6.698300694552017376e-06 -1.040434945025481284e-04
1.408000000000000000e+03 8.038640022277832031e+00 2.595565795898437500e+00 1.752655487507581711e-03 -1.280548303839168511e-06 5.254124989733099937e-04 -2.587797644082456827e-04
1.409000000000000000e+03 2.723056554794311523e+00 3.047075986862182617e+00 -4.159290692768990993e-04 3.588127146940678358e-04 -1.713490019028540701e-05 -6.069463561289012432e-04
1.410000000000000000e+03 2.783027172088623047e+00 3.862135648727416992e+00 1.226461376063525677e-03 5.025548161938786507e-04 5.187048227526247501e-04 -1.363443909212946892e-03
1.411000000000000000e+03 4.234800338745117188e+00 2.816771030426025391e+00 1.333413820248097181e-04 -1.413880527252331376e-04 -2.414003802186925896e-06 -6.760497344657778740e-04
1.412000000000000000e+03 6.509707450866699219e+00 2.651359558105468750e+00 1.635628519579768181e-03 1.302251621382310987e-05 4.945953260175883770e-04 -7.070440333336591721e-04
1.413000000000000000e+03 5.747871398925781250e+00 2.697868108749389648e+00 5.024769343435764313e-04 -4.962555831298232079e-04 1.866422053353744559e-06 -3.865004982799291611e-04
1.414000000000000000e+03 1.433599829673767090e+00 3.012089729309082031e+00 -7.105714030331000686e-05 4.269762430340051651e-04 1.067757330019958317e-04 -2.659067395143210888e-04
1.415000000000000000e+03 1.872396230697631836e+00 2.058374404907226562e+00 1.607472659088671207e-04 1.294964022235944867e-04 8.707309461897239089e-05 -5.167670315131545067e-04
1.416000000000000000e+03 1.031267642974853516e+01 2.579634666442871094e+00 5.169583600945770741e-04 -6.669252761639654636e-04 -4.499007627600803971e-05 6.062701577320694923e-04
1.417000000000000000e+03 9.561353683471679688e+00 2.579317569732666016e+00 1.749318907968699932e-03 6.956211291253566742e-05 5.456642829813063145e-04 1.031827196129597723e-04
1.418000000000000000e+03 1.745194816589355469e+01 -3.184201240539550781e+00 -5.796855092048645020e-01 3.013546168804168701e-01 -8.349927514791488647e-02 5.275244712829589844e-01
1.419000000000000000e+03 1.730072212219238281e+01 -1.647895812988281250e+00 -9.149953126907348633e-01 1.183151751756668091e-01 -2.390040308237075806e-01 3.089271187782287598e-01
1.420000000000000000e+03 1.659478759765625000e+01 -2.451734066009521484e+00 -8.193618059158325195e-01 1.898742169141769409e-01 -1.888462752103805542e-01 3.361134231090545654e-01
1.421000000000000000e+03 7.040740966796875000e+01 -1.385693073272705078e+01 -2.526308774948120117e+00 6.974480748176574707e-01 -5.486582517623901367e-01 1.029361128807067871e+00
1.422000000000000000e+03 7.272027587890625000e+01 -1.456498146057128906e+01 -1.908487081527709961e+00 7.317749857902526855e-01 -3.530136346817016602e-01 -2.312828898429870605e-01
1.423000000000000000e+03 7.118710327148437500e+01 -1.391783905029296875e+01 -2.107806921005249023e+00 8.663606643676757812e-01 -3.724338710308074951e-01 7.171501517295837402e-01
1.424000000000000000e+03 2.147393798828125000e+01 -2.013370513916015625e+00 -7.370530813932418823e-02 1.791521161794662476e-01 3.163404390215873718e-02 7.377257943153381348e-01
1.425000000000000000e+03 2.066057968139648438e+01 -2.166162729263305664e+00 -2.260712683200836182e-01 2.339569479227066040e-01 2.365706488490104675e-03 7.156268358230590820e-01
1.426000000000000000e+03 2.227211952209472656e+01 -1.799239039421081543e+00 9.604078531265258789e-02 1.618846058845520020e-01 7.737761735916137695e-02 7.309112548828125000e-01
1.427000000000000000e+03 1.982498168945312500e+01 -2.252401590347290039e+00 -3.721527755260467529e-01 2.242742776870727539e-01 -4.436355084180831909e-02 6.763706207275390625e-01
1.428000000000000000e+03 2.356893157958984375e+01 -5.433662533760070801e-01 4.555332064628601074e-01 -1.678766682744026184e-02 1.316236704587936401e-01 4.340115189552307129e-01
1.429000000000000000e+03 2.539265251159667969e+01 -8.120448589324951172e-01 1.108409047126770020e+00 -1.371469199657440186e-01 2.913786470890045166e-01 5.159552693367004395e-01
1.430000000000000000e+03 2.384374427795410156e+01 -1.315306067466735840e+00 5.497968196868896484e-01 -6.509467493742704391e-03 1.629862040281295776e-01 6.502197384834289551e-01
1.431000000000000000e+03 2.630998992919921875e+01 -5.867874026298522949e-01 1.281652092933654785e+00 -2.171768844127655029e-01 3.193425834178924561e-01 4.919580519199371338e-01
1.432000000000000000e+03 2.253750038146972656e+01 3.209240913391113281e+00 -9.389007027493789792e-05 -3.467146307229995728e-04 -1.321814052062109113e-04 8.414865442318841815e-05
1.433000000000000000e+03 2.237225151062011719e+01 4.417203426361083984e+00 -3.204782842658460140e-04 -5.554048111662268639e-04 -2.627649228088557720e-04 -2.361752412980422378e-04
1.434000000000000000e+03 1.885626411437988281e+01 7.109272480010986328e+00 2.004452282562851906e-03 7.993833278305828571e-04 8.411507005803287029e-04 7.683428702875971794e-04
1.435000000000000000e+03 1.923174285888671875e+01 4.647282600402832031e+00 3.109116223640739918e-04 5.865062848897650838e-05 1.108686701627448201e-04 -5.268897511996328831e-04
1.436000000000000000e+03 7.009764862060546875e+01 -2.086010169982910156e+01 -5.012798309326171875e-01 -2.445653676986694336e-01 -2.237535566091537476e-01 -7.456097006797790527e-01
1.437000000000000000e+03 5.661717224121093750e+01 -3.733659267425537109e+00 1.513267159461975098e+00 2.461812973022460938e+00 1.192524075508117676e+00 2.001599311828613281e+00
1.438000000000000000e+03 4.597598266601562500e+01 -1.752044296264648438e+01 2.806930541992187500e+00 9.117921829223632812e+00 3.577455759048461914e+00 3.768365621566772461e+00
1.439000000000000000e+03 4.378734207153320312e+01 -1.699642562866210938e+01 1.736548542976379395e+00 8.723163604736328125e+00 3.137913703918457031e+00 1.673243343830108643e-01
1.440000000000000000e+03 5.717708206176757812e+01 2.404271507263183594e+01 1.807806044816970825e-01 5.898949503898620605e-01 2.312026619911193848e-01 -6.648998856544494629e-01
1.441000000000000000e+03 3.430122375488281250e+01 -8.961320877075195312e+00 -2.712932586669921875e+00 7.945734500885009766e+00 1.569840550422668457e+00 -1.083182811737060547e+00
1.442000000000000000e+03 3.350170135498046875e+01 -1.042119407653808594e+01 6.230779886245727539e-01 6.627909660339355469e+00 2.175296306610107422e+00 -2.467090606689453125e+00
1.443000000000000000e+03 4.492071533203125000e+01 -2.664337921142578125e+01 2.069314718246459961e+00 1.021957969665527344e+01 3.686668395996093750e+00 -2.195942401885986328e+00
1.444000000000000000e+03 1.278557491302490234e+01 2.062201690673828125e+01 -1.967294514179229736e-01 5.020947381854057312e-02 -4.395599663257598877e-02 -3.032090514898300171e-02
1.445000000000000000e+03 6.818808746337890625e+01 -1.274323654174804688e+01 -3.667576074600219727e+00 -3.820241615176200867e-02 -1.111733555793762207e+00 1.222649216651916504e+00
1.446000000000000000e+03 1.267465019226074219e+01 1.747484588623046875e+01 -4.381297156214714050e-02 -7.033016066998243332e-03 -1.525379624217748642e-02 -3.414751216769218445e-02
1.447000000000000000e+03 1.506907653808593750e+01 2.216413688659667969e+01 -3.438553214073181152e-01 3.224823996424674988e-02 -9.348212927579879761e-02 6.220864597707986832e-03
1.448000000000000000e+03 5.543845748901367188e+01 2.365332984924316406e+01 -1.851918101310729980e-01 3.200011551380157471e-01 4.044280573725700378e-02 -7.308018207550048828e-02
1.449000000000000000e+03 1.460556983947753906e+01 1.031723690032958984e+01 2.341276849620044231e-04 5.186338443309068680e-03 1.626139739528298378e-03 3.269957378506660461e-04
1.450000000000000000e+03 1.961593437194824219e+01 2.463841819763183594e+01 -5.594743788242340088e-02 9.297204017639160156e-02 1.110737957060337067e-02 -1.282087266445159912e-01
1.451000000000000000e+03 1.454010581970214844e+01 1.391717720031738281e+01 4.701997619122266769e-03 1.644060201942920685e-02 6.342779844999313354e-03 1.312685664743185043e-03
1.452000000000000000e+03 1.316895294189453125e+01 1.493616867065429688e+01 2.268154872581362724e-03 3.281861776486039162e-03 1.665004994720220566e-03 2.359037520363926888e-03
1.453000000000000000e+03 1.607801628112792969e+01 7.170974254608154297e+00 -1.810307148844003677e-03 9.361865813843905926e-04 -2.622361935209482908e-04 9.409952326677739620e-05
1.454000000000000000e+03 1.862924575805664062e+01 2.398681259155273438e+01 -2.767148017883300781e-01 2.117026038467884064e-02 -7.666336745023727417e-02 -2.289878018200397491e-02
1.455000000000000000e+03 1.811049842834472656e+01 5.707335472106933594e+00 1.637369277887046337e-03 1.125223818235099316e-03 8.287779637612402439e-04 4.928794805891811848e-04
1.456000000000000000e+03 1.705293083190917969e+01 7.594281673431396484e+00 1.198344514705240726e-03 1.959768822416663170e-03 9.474339894950389862e-04 5.282375495880842209e-04
1.457000000000000000e+03 1.765460968017578125e+01 6.657337665557861328e+00 -1.870621577836573124e-03 -2.913517819251865149e-04 -6.485920166596770287e-04 -6.885284092277288437e-04
1.458000000000000000e+03 1.554417324066162109e+01 9.472796440124511719e+00 -9.195588791044428945e-05 4.380268976092338562e-03 1.286493963561952114e-03 -2.060313418041914701e-04
1.459000000000000000e+03 3.100857734680175781e+01 -6.398907184600830078e+00 -1.720928072929382324e+00 1.877017021179199219e+00 4.682670161128044128e-02 -3.225001990795135498e-01
1.460000000000000000e+03 2.995940208435058594e+01 -8.073200225830078125e+00 -5.401279926300048828e+00 -4.129198491573333740e-01 -1.744259953498840332e+00 9.151785373687744141e-01
1.461000000000000000e+03 6.380026245117187500e+01 2.611137390136718750e+01 -3.259116709232330322e-01 4.080820560455322266e+00 1.126472711563110352e+00 -6.543818712234497070e-01
1.462000000000000000e+03 3.251290130615234375e+01 -2.951897239685058594e+01 1.064640060067176819e-01 2.939826250076293945e+00 9.138870835304260254e-01 1.397453069686889648e+00
1.463000000000000000e+03 2.856639671325683594e+01 -8.046449661254882812e+00 -4.309589862823486328e+00 -2.223603278398513794e-01 -1.359585165977478027e+00 3.217899203300476074e-01
1.464000000000000000e+03 3.699406051635742188e+01 -2.459022903442382812e+01 1.284697532653808594e+00 7.585043907165527344e+00 2.660922527313232422e+00 7.213483452796936035e-01
1.465000000000000000e+03 1.282112979888916016e+01 -1.815289306640625000e+01 6.023741960525512695e-01 3.356206178665161133e+00 1.187574148178100586e+00 2.571325302124023438e-01
1.466000000000000000e+03 2.599648857116699219e+01 -2.994919395446777344e+01 -1.222309827804565430e+00 3.269396349787712097e-02 -3.568847477436065674e-01 4.583892598748207092e-02
1.467000000000000000e+03 5.139302062988281250e+01 -5.511055946350097656e+00 -6.258479356765747070e-01 9.791788458824157715e-01 1.059992834925651550e-01 1.904335856437683105e+00
1.468000000000000000e+03 1.677945709228515625e+01 -1.243067550659179688e+01 2.510948657989501953e+00 2.238074541091918945e+00 1.424706935882568359e+00 1.913345932960510254e+00
1.469000000000000000e+03 1.383126258850097656e+01 -1.253493118286132812e+01 1.070315837860107422e+00 2.283443927764892578e+00 1.006127953529357910e+00 5.090571045875549316e-01
1.470000000000000000e+03 2.187138557434082031e+01 -9.772699356079101562e+00 6.322222352027893066e-01 2.695878148078918457e-01 2.705430388450622559e-01 6.568946838378906250e-01
1.471000000000000000e+03 1.815707015991210938e+01 -9.673170089721679688e+00 8.928492069244384766e-01 1.153088092803955078e+00 6.137812137603759766e-01 1.097789525985717773e+00
1.472000000000000000e+03 1.628739547729492188e+01 -1.113110446929931641e+01 1.249658942222595215e+00 1.914627194404602051e+00 9.492858648300170898e-01 8.645046353340148926e-01
1.473000000000000000e+03 2.891001129150390625e+01 2.240605926513671875e+01 5.854563713073730469e-01 3.628062248229980469e+00 1.264055609703063965e+00 -1.873908400535583496e+00
1.474000000000000000e+03 2.804253005981445312e+01 -3.157354354858398438e+01 -2.434353232383728027e-01 5.130739808082580566e-01 8.089160174131393433e-02 5.693466067314147949e-01
1.475000000000000000e+03 3.690779495239257812e+01 -1.907557487487792969e+01 9.311881065368652344e-01 1.024698925018310547e+01 3.353453159332275391e+00 -7.848715186119079590e-01
1.476000000000000000e+03 2.594492340087890625e+01 -8.160320281982421875e+00 -1.133918285369873047e+00 5.707107782363891602e-01 -1.689622551202774048e-01 7.876679301261901855e-01
1.477000000000000000e+03 2.674590301513671875e+01 -8.788308143615722656e+00 -1.468776345252990723e+00 3.298782929778099060e-02 -4.307365417480468750e-01 -9.204969555139541626e-02
1.478000000000000000e+03 2.088384246826171875e+01 -3.051729202270507812e+01 -5.034265518188476562e-01 5.027827024459838867e-01 -1.931558799697086215e-04 -3.449542820453643799e-01
1.479000000000000000e+03 2.173204612731933594e+01 -3.181241035461425781e+01 -3.644549548625946045e-01 3.878264725208282471e-01 7.011457346379756927e-03 -3.312512636184692383e-01
1.480000000000000000e+03 2.065036201477050781e+01 -9.994521141052246094e+00 1.027694702148437500e+00 3.646738231182098389e-01 4.177105724811553955e-01 8.672089576721191406e-01
1.481000000000000000e+03 3.620018005371093750e+01 -1.230886650085449219e+01 4.627893865108489990e-01 9.575199127197265625e+00 3.011396408081054688e+00 -1.598172426223754883e+00
1.482000000000000000e+03 3.638920593261718750e+01 -1.486726284027099609e+01 1.311697244644165039e+00 1.069843387603759766e+01 3.603039503097534180e+00 -2.305095195770263672e+00
1.483000000000000000e+03 2.080331611633300781e+01 -1.125312805175781250e+01 1.179766178131103516e+00 1.060495749115943909e-01 3.857447206974029541e-01 4.443813562393188477e-01
1.484000000000000000e+03 3.202009582519531250e+01 -7.449448108673095703e+00 -2.728889942169189453e+00 3.484800577163696289e+00 2.267732024192810059e-01 -1.046077609062194824e+00
1.485000000000000000e+03 3.137210464477539062e+01 -2.816016197204589844e+01 7.339919805526733398e-01 1.521421670913696289e+00 6.766241192817687988e-01 1.109679341316223145e+00
1.486000000000000000e+03 3.672359466552734375e+01 -1.763078689575195312e+01 8.515913486480712891e-01 1.061583995819091797e+01 3.440229415893554688e+00 -1.525591611862182617e+00
1.487000000000000000e+03 1.497894287109375000e+01 -2.467638397216796875e+01 5.943683534860610962e-02 1.750478744506835938e+00 5.429746508598327637e-01 -4.683241546154022217e-01
1.488000000000000000e+03 7.830702209472656250e+01 -2.637165641784667969e+01 -6.610330194234848022e-02 1.150829505920410156e+01 3.432657718658447266e+00 4.712349176406860352e-01
1.489000000000000000e+03 7.945691680908203125e+01 -2.507907867431640625e+01 -5.752984434366226196e-02 1.341314125061035156e+01 4.006683349609375000e+00 1.016306281089782715e-01
1.490000000000000000e+03 7.948395538330078125e+01 -2.090827560424804688e+01 -2.632471621036529541e-01 1.313721179962158203e+01 3.862189531326293945e+00 -5.080575346946716309e-01
1.491000000000000000e+03 7.834709930419921875e+01 -2.374802589416503906e+01 -1.707945317029953003e-01 1.221986484527587891e+01 3.614721059799194336e+00 2.555576860904693604e-01
1.492000000000000000e+03 7.698017883300781250e+01 -3.430428314208984375e+01 4.283710196614265442e-02 8.488672256469726562e+00 2.559452772140502930e+00 6.365646123886108398e-01
1.493000000000000000e+03 7.936324310302734375e+01 -3.198012161254882812e+01 1.838243193924427032e-02 1.102310180664062500e+01 3.312445163726806641e+00 1.715490370988845825e-01
1.494000000000000000e+03 7.939984893798828125e+01 -2.781981658935546875e+01 -1.349210925400257111e-02 1.242465114593505859e+01 3.723347663879394531e+00 1.752835810184478760e-01
1.495000000000000000e+03 7.801462554931640625e+01 -3.047323989868164062e+01 2.047534286975860596e-02 1.023794841766357422e+01 3.077527046203613281e+00 5.726188421249389648e-01
1.496000000000000000e+03 7.662147521972656250e+01 -3.902603149414062500e+01 7.284913957118988037e-02 8.337229728698730469e+00 2.523023605346679688e+00 3.670779168605804443e-01
1.497000000000000000e+03 7.908377075195312500e+01 -3.874312973022460938e+01 1.085893809795379639e-02 9.017452239990234375e+00 2.708493232727050781e+00 2.179488241672515869e-01
1.498000000000000000e+03 7.802593994140625000e+01 -3.579234695434570312e+01 1.676821149885654449e-02 9.129144668579101562e+00 2.743773937225341797e+00 4.706249535083770752e-01
1.499000000000000000e+03 7.774332427978515625e+01 3.584558105468750000e+01 -2.375392243266105652e-02 4.722116470336914062e+00 1.409508824348449707e+00 1.046082563698291779e-02
1.500000000000000000e+03 7.688011169433593750e+01 -2.744313049316406250e+01 -5.907502025365829468e-02 9.658265113830566406e+00 2.879756927490234375e+00 7.759942412376403809e-01
1.501000000000000000e+03 7.816499328613281250e+01 -3.323262786865234375e+01 -4.637235775589942932e-03 9.645103454589843750e+00 2.892139911651611328e+00 5.098304152488708496e-01
1.502000000000000000e+03 7.791748046875000000e+01 -3.700242233276367188e+01 4.822419211268424988e-02 8.869159698486328125e+00 2.675215244293212891e+00 4.311750829219818115e-01
1.503000000000000000e+03 7.684725189208984375e+01 1.131844043731689453e+01 1.247398331761360168e-01 4.526174068450927734e+00 1.395274162292480469e+00 -3.302924036979675293e-01
1.504000000000000000e+03 7.810134124755859375e+01 1.262408351898193359e+01 5.139911174774169922e-02 4.261046886444091797e+00 1.293733835220336914e+00 -1.566199064254760742e-01
1.505000000000000000e+03 7.933403015136718750e+01 1.813637351989746094e+01 4.055198747664690018e-03 3.908753156661987305e+00 1.173842549324035645e+00 2.255610562860965729e-02
1.506000000000000000e+03 7.800361633300781250e+01 1.816085815429687500e+01 3.904507681727409363e-02 4.126029014587402344e+00 1.249522209167480469e+00 5.495179072022438049e-02
1.507000000000000000e+03 7.930569458007812500e+01 2.230312919616699219e+01 5.576626397669315338e-03 4.150307178497314453e+00 1.246765255928039551e+00 5.229957029223442078e-02
1.508000000000000000e+03 7.630778503417968750e+01 2.088820648193359375e+01 4.592759907245635986e-02 4.372406482696533203e+00 1.325500249862670898e+00 1.682870537042617798e-01
1.509000000000000000e+03 7.934976959228515625e+01 2.505397987365722656e+01 5.254596006125211716e-03 4.360568523406982422e+00 1.309746980667114258e+00 5.189378932118415833e-02
1.510000000000000000e+03 7.802114105224609375e+01 2.502520561218261719e+01 -1.277159992605447769e-02 4.410086631774902344e+00 1.319194555282592773e+00 1.373540759086608887e-01
1.511000000000000000e+03 7.935070800781250000e+01 2.642849349975585938e+01 -8.452647365629673004e-03 4.465092658996582031e+00 1.336992025375366211e+00 4.740101471543312073e-02
1.512000000000000000e+03 7.759211730957031250e+01 3.174108505249023438e+01 -1.233215350657701492e-02 4.650277137756347656e+00 1.391383528709411621e+00 7.152643054723739624e-02
1.513000000000000000e+03 7.767123413085937500e+01 3.036141204833984375e+01 -2.431846037507057190e-02 4.620214462280273438e+00 1.378768801689147949e+00 8.754433691501617432e-02
1.514000000000000000e+03 7.931703186035156250e+01 1.952975654602050781e+01 1.035824324935674667e-02 3.969377040863037109e+00 1.193920612335205078e+00 3.748530149459838867e-02
1.515000000000000000e+03 7.936847686767578125e+01 5.598263263702392578e+00 2.105897478759288788e-02 5.281592369079589844e+00 1.590795278549194336e+00 -1.791988909244537354e-01
1.516000000000000000e+03 7.686695098876953125e+01 2.936168909072875977e+00 1.650297939777374268e-01 5.771014690399169922e+00 1.780813336372375488e+00 -9.664048552513122559e-01
1.517000000000000000e+03 7.957819366455078125e+01 -1.535887241363525391e+01 2.817924022674560547e-01 6.420450687408447266e+00 2.010672807693481445e+00 1.172641992568969727e+00
1.518000000000000000e+03 7.955979156494140625e+01 -1.395900344848632812e+01 -2.237714529037475586e-01 1.015227603912353516e+01 2.978551387786865234e+00 1.220399618148803711e+00
1.519000000000000000e+03 7.937149810791015625e+01 6.995181560516357422e+00 4.524039570242166519e-03 4.922592639923095703e+00 1.478134989738464355e+00 -1.508170217275619507e-01
1.520000000000000000e+03 7.945671081542968750e+01 -1.253322124481201172e+01 -2.363066673278808594e-01 1.269154548645019531e+01 3.736571550369262695e+00 4.781812131404876709e-01
1.521000000000000000e+03 7.936002349853515625e+01 -1.107594490051269531e+01 -1.678093373775482178e-01 1.318650627136230469e+01 3.905609130859375000e+00 3.408007696270942688e-02
1.522000000000000000e+03 7.937811279296875000e+01 -9.642609596252441406e+00 -7.733298093080520630e-02 1.292754936218261719e+01 3.855065107345581055e+00 -2.532961666584014893e-01
1.523000000000000000e+03 7.939928436279296875e+01 -8.249924659729003906e+00 -1.892198779387399554e-04 1.220179939270019531e+01 3.660482883453369141e+00 -3.551823794841766357e-01
1.524000000000000000e+03 7.940061950683593750e+01 -4.111407279968261719e+00 9.950079256668686867e-04 9.589249610900878906e+00 2.877073287963867188e+00 -3.576195240020751953e-01
1.525000000000000000e+03 7.939107513427734375e+01 -2.731916904449462891e+00 1.336654741317033768e-02 8.781736373901367188e+00 2.638530969619750977e+00 -3.417526483535766602e-01
1.526000000000000000e+03 7.938286590576171875e+01 -1.348947048187255859e+00 5.669579841196537018e-03 8.033289909362792969e+00 2.411687850952148438e+00 -3.203178346157073975e-01
1.527000000000000000e+03 7.922797393798828125e+01 3.470500564575195312e+01 -1.164072938263416290e-02 4.803703308105468750e+00 1.437618851661682129e+00 8.421411737799644470e-03
1.528000000000000000e+03 7.758889770507812500e+01 3.312334823608398438e+01 -2.571286074817180634e-02 4.675136566162109375e+00 1.394827008247375488e+00 5.187349021434783936e-02
1.529000000000000000e+03 7.951406097412109375e+01 -1.943158721923828125e+01 -1.647304296493530273e-01 1.117826366424560547e+01 3.304059982299804688e+00 -1.105097770690917969e+00
1.530000000000000000e+03 7.745002746582031250e+01 3.811704254150390625e+01 -2.335508354008197784e-02 4.711435317993164062e+00 1.406424045562744141e+00 -7.208884693682193756e-03
1.531000000000000000e+03 7.904811859130859375e+01 3.876441955566406250e+01 7.111300248652696609e-03 4.797878265380859375e+00 1.441496849060058594e+00 -8.221238851547241211e-03
1.532000000000000000e+03 7.927673339843750000e+01 2.918606376647949219e+01 -8.438028395175933838e-03 4.633700847625732422e+00 1.387578845024108887e+00 3.687583282589912415e-02
1.533000000000000000e+03 7.812408447265625000e+01 8.467428207397460938e+00 4.687310010194778442e-02 4.747961521148681641e+00 1.438450336456298828e+00 -3.442936837673187256e-01
1.534000000000000000e+03 7.937731170654296875e+01 9.787035942077636719e+00 4.688990302383899689e-03 4.372108936309814453e+00 1.313039422035217285e+00 -9.938564151525497437e-02
1.535000000000000000e+03 7.814141082763671875e+01 -1.263133049011230469e+00 6.708996742963790894e-02 7.470532894134521484e+00 2.261286973953247070e+00 -8.833381533622741699e-01
1.536000000000000000e+03 7.937658691406250000e+01 3.626005351543426514e-02 1.869876682758331299e-02 7.349628448486328125e+00 2.210498094558715820e+00 -2.934980690479278564e-01
1.537000000000000000e+03 7.819512176513671875e+01 -8.003956794738769531e+00 -6.842012703418731689e-02 1.055383491516113281e+01 3.145624399185180664e+00 -9.899714589118957520e-01
1.538000000000000000e+03 7.941011047363281250e+01 -6.865903854370117188e+00 -8.234447799623012543e-03 1.132604408264160156e+01 3.395342826843261719e+00 -3.634831905364990234e-01
1.539000000000000000e+03 7.962899017333984375e+01 -1.670527648925781250e+01 5.036437511444091797e-01 4.574957847595214844e+00 1.523580551147460938e+00 -1.632174104452133179e-01
1.540000000000000000e+03 1.940229797363281250e+01 -2.856401443481445312e+01 -2.526599466800689697e-01 5.815455913543701172e-01 9.866569191217422485e-02 -1.984389275312423706e-01
1.541000000000000000e+03 1.587240982055664062e+01 -2.604043579101562500e+01 -6.017840653657913208e-02 1.321112036705017090e+00 3.782800734043121338e-01 -3.869667947292327881e-01
1.542000000000000000e+03 3.030317306518554688e+01 -3.290035247802734375e+01 -1.761921495199203491e-01 1.859708666801452637e+00 5.050549507141113281e-01 9.598684906959533691e-01
1.543000000000000000e+03 2.512283706665039062e+01 -8.630676269531250000e+00 -7.167794108390808105e-01 4.423927962779998779e-01 -8.231598883867263794e-02 4.512407481670379639e-01
1.544000000000000000e+03 3.755187606811523438e+01 -1.481089687347412109e+01 1.335109472274780273e+00 9.539228439331054688e+00 3.262301206588745117e+00 -1.954482913017272949e+00
1.545000000000000000e+03 3.509552001953125000e+01 -2.691992759704589844e+01 4.752200543880462646e-01 5.575376033782958984e+00 1.815178751945495605e+00 1.488275527954101562e+00
1.546000000000000000e+03 1.701744079589843750e+01 -2.713886260986328125e+01 -1.136253252625465393e-01 1.030716657638549805e+00 2.751274108886718750e-01 -3.348161280155181885e-01
1.547000000000000000e+03 5.495656585693359375e+01 -5.237701892852783203e+00 8.020293712615966797e-01 2.459872245788574219e+00 9.785704612731933594e-01 1.795727372169494629e+00
1.548000000000000000e+03 4.729685592651367188e+01 -1.354833030700683594e+01 7.085509896278381348e-01 3.687928676605224609e+00 1.318943977355957031e+00 1.810701370239257812e+00
1.549000000000000000e+03 4.222558975219726562e+01 -4.573379039764404297e+00 -2.409129858016967773e+00 4.410132884979248047e+00 6.003009080886840820e-01 -2.343599319458007812e+00
1.550000000000000000e+03 4.142442321777343750e+01 -2.800676822662353516e+00 7.285270690917968750e-01 5.892699241638183594e+00 1.986367940902709961e+00 -2.723248243331909180e+00
1.551000000000000000e+03 6.370632934570312500e+01 1.963307189941406250e+01 9.457231760025024414e-01 5.910673141479492188e+00 2.056918859481811523e+00 -4.962880313396453857e-01
1.552000000000000000e+03 4.784363937377929688e+01 -5.211443901062011719e+00 -5.361495494842529297e+00 -4.570920765399932861e-01 -1.745576262474060059e+00 1.515169382095336914e+00
1.553000000000000000e+03 4.348866271972656250e+01 -5.049038410186767578e+00 -2.764726638793945312e+00 1.701808214187622070e+00 -3.188754916191101074e-01 -8.476573824882507324e-01
1.554000000000000000e+03 6.164850616455078125e+01 4.980137825012207031e+00 1.283043980598449707e+00 4.373606681823730469e+00 1.696995258331298828e+00 1.468575954437255859e+00
1.555000000000000000e+03 5.906506729125976562e+01 3.047858715057373047e+00 1.623779296875000000e+00 3.215757608413696289e+00 1.451861143112182617e+00 2.204994916915893555e+00
1.556000000000000000e+03 5.657674407958984375e+01 -2.168458461761474609e+00 2.104380369186401367e+00 2.921661376953125000e+00 1.507812500000000000e+00 2.295106172561645508e+00
1.557000000000000000e+03 5.863764572143554688e+01 -4.964154064655303955e-01 2.030146837234497070e+00 2.481800317764282227e+00 1.353584170341491699e+00 2.053926467895507812e+00
1.558000000000000000e+03 3.576048660278320312e+01 3.455293893814086914e+00 2.653368711471557617e+00 1.389719295501708984e+01 4.965168476104736328e+00 8.961068987846374512e-01
1.559000000000000000e+03 3.571106338500976562e+01 8.544092178344726562e+00 1.172208905220031738e+00 1.340316200256347656e+01 4.372611045837402344e+00 -1.610483378171920776e-01
1.560000000000000000e+03 2.978502273559570312e+01 -1.511549592018127441e+00 2.536942958831787109e+00 1.831819653511047363e+00 1.310628771781921387e+00 1.774792671203613281e+00
1.561000000000000000e+03 6.235743713378906250e+01 6.208743572235107422e+00 1.097886323928833008e+00 4.911534786224365234e+00 1.802826285362243652e+00 1.297583699226379395e+00
1.562000000000000000e+03 4.483278274536132812e+01 1.792771530151367188e+01 9.992523789405822754e-01 2.518439531326293945e+00 1.055307626724243164e+00 1.661757707595825195e+00
1.563000000000000000e+03 5.574817657470703125e+01 -4.447610378265380859e+00 1.329195737838745117e+00 2.472693681716918945e+00 1.140566825866699219e+00 2.039138317108154297e+00
1.564000000000000000e+03 5.480697631835937500e+01 -3.420859813690185547e+00 2.094704389572143555e+00 3.023352622985839844e+00 1.535417079925537109e+00 2.620082855224609375e+00
1.565000000000000000e+03 5.100876235961914062e+01 2.194953918457031250e+01 -2.535101473331451416e-01 6.691637039184570312e-01 1.246960535645484924e-01 6.414999365806579590e-01
1.566000000000000000e+03 4.592756652832031250e+01 1.889561462402343750e+01 7.451793551445007324e-01 2.067027807235717773e+00 8.436622023582458496e-01 1.403770685195922852e+00
1.567000000000000000e+03 3.944380187988281250e+01 1.127757644653320312e+01 1.345440626144409180e+00 1.068951797485351562e+01 3.610487699508666992e+00 2.456984996795654297e+00
1.568000000000000000e+03 4.832257080078125000e+01 2.061593437194824219e+01 1.896676272153854370e-01 1.314532756805419922e+00 4.512601196765899658e-01 9.862602353096008301e-01
1.569000000000000000e+03 4.934067153930664062e+01 -7.687801837921142578e+00 -1.381427526473999023e+00 5.240333080291748047e-01 -2.572182714939117432e-01 2.596595764160156250e+00
1.570000000000000000e+03 3.847518157958984375e+01 1.338948309421539307e-01 1.801609754562377930e+00 1.220098590850830078e+01 4.200778484344482422e+00 -2.193886280059814453e+00
1.571000000000000000e+03 6.004430007934570312e+01 1.282295584678649902e+00 1.672562122344970703e+00 2.894141912460327148e+00 1.370011210441589355e+00 1.908801913261413574e+00
1.572000000000000000e+03 5.751611328125000000e+01 5.926040410995483398e-01 1.877437710762023926e+00 3.288494110107421875e+00 1.549779534339904785e+00 2.482866525650024414e+00
1.573000000000000000e+03 6.411400604248046875e+01 1.688053894042968750e+01 9.828503131866455078e-01 6.637087345123291016e+00 2.285981178283691406e+00 -7.816322445869445801e-01
1.574000000000000000e+03 6.366944503784179688e+01 1.248592185974121094e+01 3.968577384948730469e-01 6.758891105651855469e+00 2.146724700927734375e+00 8.922418206930160522e-02
1.575000000000000000e+03 4.280441665649414062e+01 1.590284729003906250e+01 1.312847137451171875e+00 3.996773242950439453e+00 1.592886090278625488e+00 2.186569213867187500e+00
1.576000000000000000e+03 3.482579040527343750e+01 2.642022371292114258e+00 2.904222488403320312e+00 1.380550575256347656e+01 5.012918472290039062e+00 9.876284599304199219e-01
1.577000000000000000e+03 4.742536926269531250e+01 -1.599890232086181641e+01 3.410014629364013672e+00 4.217727661132812500e+00 2.288322687149047852e+00 3.115546941757202148e+00
1.578000000000000000e+03 5.989569854736328125e+01 -2.992168807983398438e+01 -2.768392562866210938e+00 -7.777758836746215820e-01 -1.063850522041320801e+00 -1.218559384346008301e+00
1.579000000000000000e+03 6.089695739746093750e+01 -3.167107582092285156e+01 -1.050271868705749512e+00 -9.188969135284423828e-01 -5.907506346702575684e-01 -7.942308783531188965e-01
1.580000000000000000e+03 5.765987396240234375e+01 -3.295220565795898438e+01 -5.461927652359008789e-01 -4.627899229526519775e-01 -3.026947975158691406e-01 -7.909342646598815918e-01
1.581000000000000000e+03 4.481436538696289062e+01 -3.162294578552246094e+01 -4.589996933937072754e-01 6.990774154663085938e+00 1.959532380104064941e+00 -1.035357713699340820e+00
1.582000000000000000e+03 5.101563262939453125e+01 -3.205392074584960938e+01 4.198617935180664062e-01 2.117423295974731445e+00 7.611855268478393555e-01 -1.924898862838745117e+00
1.583000000000000000e+03 4.244072723388671875e+01 -2.296789169311523438e+01 2.258231878280639648e+00 9.898756027221679688e+00 3.647096395492553711e+00 -1.060505151748657227e+00
1.584000000000000000e+03 4.542237091064453125e+01 -2.347272109985351562e+01 1.326528310775756836e+00 1.532488059997558594e+01 4.995422840118408203e+00 -2.030915498733520508e+00
1.585000000000000000e+03 4.970870208740234375e+01 -3.203853988647460938e+01 -1.401236373931169510e-02 3.456210374832153320e+00 1.032659411430358887e+00 -2.266961097717285156e+00
1.586000000000000000e+03 6.837923431396484375e+01 -2.302239227294921875e+01 -1.248027205467224121e+00 -1.970864772796630859e+00 -9.656676054000854492e-01 -1.103877782821655273e+00
1.587000000000000000e+03 3.294937896728515625e+01 -4.743924140930175781e-01 2.092737197875976562e+00 8.471886634826660156e+00 3.169387340545654297e+00 2.424776077270507812e+00
1.588000000000000000e+03 5.785497665405273438e+01 -1.293367195129394531e+01 -2.779078006744384766e+00 4.720539748668670654e-01 -6.921072006225585938e-01 -1.845007389783859253e-01
1.589000000000000000e+03 6.344542694091796875e+01 -2.976642990112304688e+01 -1.391593694686889648e+00 -1.062810301780700684e+00 -7.363212108612060547e-01 -8.491081595420837402e-01
1.590000000000000000e+03 5.145657348632812500e+01 -1.495773029327392578e+01 2.710225991904735565e-02 1.794412583112716675e-01 6.196305528283119202e-02 4.899513125419616699e-01
1.591000000000000000e+03 5.008819580078125000e+01 -1.360323143005371094e+01 6.920993328094482422e-01 1.136933922767639160e+00 5.487099885940551758e-01 1.923347473144531250e+00
1.592000000000000000e+03 4.540785980224609375e+01 -2.803081512451171875e+01 1.466039776802062988e+00 8.716513633728027344e+00 3.054765939712524414e+00 -2.052118778228759766e+00
1.593000000000000000e+03 4.594232940673828125e+01 -2.938183212280273438e+01 6.192413568496704102e-01 7.708370208740234375e+00 2.498283386230468750e+00 -1.995589613914489746e+00
1.594000000000000000e+03 5.695870208740234375e+01 -1.438182830810546875e+01 -2.918463706970214844e+00 1.172402203083038330e-01 -8.403670787811279297e-01 -2.108890116214752197e-01
1.595000000000000000e+03 5.404162597656250000e+01 -1.353314399719238281e+01 -1.472283840179443359e+00 3.232531547546386719e-01 -3.447091877460479736e-01 8.307881951332092285e-01
1.596000000000000000e+03 7.031143188476562500e+01 -2.015557670593261719e+01 -3.096664845943450928e-01 1.042639650404453278e-02 -8.977203071117401123e-02 -6.780296564102172852e-01
1.597000000000000000e+03 5.283938598632812500e+01 -1.481687259674072266e+01 -1.012868642807006836e+00 1.002400368452072144e-01 -2.737886011600494385e-01 3.205807507038116455e-01
1.598000000000000000e+03 5.421787643432617188e+01 -1.469309806823730469e+01 -1.853078246116638184e+00 1.212887167930603027e-01 -5.195368528366088867e-01 1.065565869212150574e-01
1.599000000000000000e+03 4.359216308593750000e+01 -2.125474739074707031e+01 1.559566497802734375e+00 1.135253143310546875e+01 3.873629331588745117e+00 -4.746679365634918213e-01
1.600000000000000000e+03 4.513821792602539062e+01 -2.076327705383300781e+01 6.780381202697753906e-01 1.328800201416015625e+01 4.189812183380126953e+00 1.939541101455688477e-01
1.601000000000000000e+03 2.082747936248779297e+00 2.601856803894042969e+01 -7.101404480636119843e-03 -1.224682480096817017e-01 -3.887089714407920837e-02 5.871314555406570435e-02
1.602000000000000000e+03 7.622203230857849121e-01 3.186783981323242188e+01 3.101808950304985046e-03 -3.315394520759582520e-01 -9.853129833936691284e-02 2.256883680820465088e-02
1.603000000000000000e+03 3.038309097290039062e+00 3.547400283813476562e+01 2.460224926471710205e-02 -2.909987866878509521e-01 -7.991895824670791626e-02 5.363574251532554626e-02
1.604000000000000000e+03 3.334282159805297852e+00 3.895529556274414062e+01 1.465940382331609726e-02 -3.449047207832336426e-01 -9.907358884811401367e-02 2.663547731935977936e-02
1.605000000000000000e+03 8.869829773902893066e-01 3.870132064819335938e+01 -8.876489475369453430e-03 -4.284546673297882080e-01 -1.311993449926376343e-01 -1.079050824046134949e-03
1.606000000000000000e+03 3.279478788375854492e+00 -3.718426513671875000e+01 -2.853133715689182281e-02 -6.885115057229995728e-02 -2.921474538743495941e-02 1.144056618213653564e-01
1.607000000000000000e+03 1.856237649917602539e+00 2.321807479858398438e+01 -1.027816440910100937e-02 -6.450886279344558716e-02 -2.243610844016075134e-02 3.880370408296585083e-02
1.608000000000000000e+03 2.316605329513549805e+00 3.033837890625000000e+01 5.044783465564250946e-03 -2.188929617404937744e-01 -6.415445357561111450e-02 6.551498919725418091e-02
1.609000000000000000e+03 8.050525188446044922e-01 -3.041749572753906250e+01 -7.286007981747388840e-03 -6.266252994537353516e-01 -1.901734024286270142e-01 8.580540120601654053e-02
1.610000000000000000e+03 2.195495128631591797e+00 -2.735904121398925781e+01 -1.256650593131780624e-02 -7.016289830207824707e-01 -2.142586410045623779e-01 2.695932388305664062e-01
1.611000000000000000e+03 1.906847000122070312e+00 -9.397231101989746094e+00 1.815642602741718292e-02 -9.750308990478515625e-01 -2.870623469352722168e-01 -3.206750452518463135e-01
1.612000000000000000e+03 6.128796935081481934e-01 -1.352752017974853516e+01 1.406360790133476257e-02 -1.906138420104980469e+00 -5.676224231719970703e-01 -6.194700673222541809e-02
1.613000000000000000e+03 6.076837182044982910e-01 -6.499713420867919922e+00 2.436959650367498398e-03 -6.911510229110717773e-01 -2.066142112016677856e-01 -1.196433082222938538e-01
1.614000000000000000e+03 6.294462680816650391e-01 -1.772603034973144531e+01 7.294195704162120819e-03 -2.084407329559326172e+00 -6.231339573860168457e-01 1.680566556751728058e-02
1.615000000000000000e+03 1.866551280021667480e+00 -1.627815246582031250e+01 5.478375032544136047e-02 -1.559658885002136230e+00 -4.514625370502471924e-01 -3.661080077290534973e-02
1.616000000000000000e+03 6.462405920028686523e-01 -2.052637100219726562e+01 6.883718539029359818e-03 -1.912749528884887695e+00 -5.717597603797912598e-01 6.285303086042404175e-02
1.617000000000000000e+03 1.888886094093322754e+00 -1.764683151245117188e+01 5.740186944603919983e-02 -1.554031491279602051e+00 -4.489888846874237061e-01 3.555655106902122498e-02
1.618000000000000000e+03 6.704384684562683105e-01 -2.333328819274902344e+01 5.151271820068359375e-03 -1.575762271881103516e+00 -4.711833000183105469e-01 9.357953071594238281e-02
1.619000000000000000e+03 2.122177124023437500e+00 -2.594950675964355469e+01 -7.181182503700256348e-03 -8.556837439537048340e-01 -2.588594853878021240e-01 2.719305157661437988e-01
1.620000000000000000e+03 2.494383811950683594e+00 -3.321537017822265625e+01 -3.271365910768508911e-02 -2.390421926975250244e-01 -8.152675628662109375e-02 1.648878157138824463e-01
1.621000000000000000e+03 2.177868366241455078e+00 -3.591489028930664062e+01 -1.911183446645736694e-02 -1.375914365053176880e-01 -4.701098054647445679e-02 1.010812222957611084e-01
1.622000000000000000e+03 1.849848985671997070e+00 4.957013607025146484e+00 9.457670967094600201e-04 1.116456813178956509e-03 6.186671671457588673e-04 -9.391455096192657948e-04
1.623000000000000000e+03 1.816586256027221680e+00 2.183182525634765625e+01 -2.877767430618405342e-03 -4.338979348540306091e-02 -1.388026867061853409e-02 3.138632327318191528e-02
1.624000000000000000e+03 5.993473529815673828e-01 1.913534164428710938e+01 -5.082000512629747391e-03 -5.653520114719867706e-03 -3.220656421035528183e-03 5.133679602295160294e-03
1.625000000000000000e+03 6.019346714019775391e-01 1.772990226745605469e+01 3.079432295635342598e-03 3.342190291732549667e-03 1.926486846059560776e-03 2.484259428456425667e-03
1.626000000000000000e+03 5.893588662147521973e-01 1.491146469116210938e+01 2.530028577893972397e-03 1.014630682766437531e-02 3.802900435402989388e-03 -7.876127347117289901e-05
1.627000000000000000e+03 5.803836584091186523e-01 1.069511127471923828e+01 -1.502140075899660587e-03 7.000238634645938873e-03 1.649429555982351303e-03 -5.368767306208610535e-04
1.628000000000000000e+03 6.169250011444091797e-01 7.874979496002197266e+00 -7.043880177661776543e-04 3.729380900040268898e-03 9.074978297576308250e-04 -5.155383842065930367e-04
1.629000000000000000e+03 3.372882366180419922e+00 -3.912436294555664062e+01 -2.946831844747066498e-02 -3.054468147456645966e-02 -1.800389960408210754e-02 6.705521792173385620e-02
1.630000000000000000e+03 2.458470106124877930e+00 -3.815496444702148438e+01 -7.935672067105770111e-03 -5.940540879964828491e-02 -2.020232379436492920e-02 8.085276931524276733e-02
1.631000000000000000e+03 2.499313354492187500e+00 -3.175133514404296875e+01 -3.784266114234924316e-02 -3.128531873226165771e-01 -1.052087545394897461e-01 1.973322331905364990e-01
1.632000000000000000e+03 2.061562776565551758e+00 -2.454725456237792969e+01 9.505020454525947571e-03 -1.012189626693725586e+00 -3.008053898811340332e-01 2.692205011844635010e-01
1.633000000000000000e+03 6.879326105117797852e-01 -2.474082565307617188e+01 1.391742029227316380e-03 -1.374905347824096680e+00 -4.120540916919708252e-01 1.000385507941246033e-01
1.634000000000000000e+03 1.847351789474487305e+00 -1.490841865539550781e+01 5.866783484816551208e-02 -1.526319980621337891e+00 -4.402956366539001465e-01 -1.076458618044853210e-01
1.635000000000000000e+03 6.154219508171081543e-01 -1.492657184600830078e+01 8.018410764634609222e-03 -2.028129339218139648e+00 -6.060332655906677246e-01 -3.675381839275360107e-02
1.636000000000000000e+03 3.004556894302368164e+00 -6.674059391021728516e+00 -3.335380181670188904e-02 -4.760624766349792480e-01 -1.528248786926269531e-01 -4.593967497348785400e-01
1.637000000000000000e+03 6.221597194671630859e-01 -7.912538051605224609e+00 -1.765046617947518826e-03 -9.704490900039672852e-01 -2.916642427444458008e-01 -1.190790385007858276e-01
1.638000000000000000e+03 2.102168798446655273e+00 -4.052988052368164062e+00 -6.948499381542205811e-02 -2.692390978336334229e-01 -1.016172319650650024e-01 -2.643166780471801758e-01
1.639000000000000000e+03 1.734128236770629883e+00 1.347490978240966797e+01 1.769215683452785015e-03 4.663319792598485947e-03 1.929760561324656010e-03 -1.401296001859009266e-03
1.640000000000000000e+03 3.091505813598632812e+01 2.235438728332519531e+01 3.793388605117797852e-01 5.520789623260498047e+00 1.770038485527038574e+00 -1.370329499244689941e+00
1.641000000000000000e+03 2.745891761779785156e+01 -2.466479986906051636e-01 1.919507980346679688e+00 1.343062520027160645e-01 6.161442399024963379e-01 1.877997219562530518e-01
1.642000000000000000e+03 3.512145614624023438e+01 5.885789871215820312e+00 9.191438555717468262e-01 1.534376430511474609e+01 4.878872394561767578e+00 6.511698961257934570e-01
1.643000000000000000e+03 3.264628219604492188e+01 1.796531486511230469e+01 1.289411067962646484e+00 7.908299446105957031e+00 2.759313106536865234e+00 -2.127140998840332031e+00
1.644000000000000000e+03 3.379181289672851562e+01 1.370302963256835938e+01 9.231464862823486328e-01 1.039802646636962891e+01 3.396352052688598633e+00 -1.962574005126953125e+00
1.645000000000000000e+03 2.677900886535644531e+01 2.368846511840820312e+01 6.886363029479980469e-01 1.607576370239257812e+00 6.888638138771057129e-01 -1.510386347770690918e+00
1.646000000000000000e+03 3.635705947875976562e+01 6.959233283996582031e+00 1.272995829582214355e+00 1.448093318939208984e+01 4.726178646087646484e+00 8.110868334770202637e-01
1.647000000000000000e+03 2.461019706726074219e+01 2.255833435058593750e+01 2.125347852706909180e-01 1.727077215909957886e-01 1.155727505683898926e-01 -4.089492559432983398e-01
1.648000000000000000e+03 2.323571205139160156e+01 2.728643226623535156e+01 2.253924310207366943e-01 8.767859935760498047e-01 3.306535482406616211e-01 -7.264738082885742188e-01
1.649000000000000000e+03 2.400638580322265625e+01 2.497353363037109375e+01 3.292090892791748047e-01 6.790643930435180664e-01 3.024820387363433838e-01 -8.250227570533752441e-01
1.650000000000000000e+03 3.441919326782226562e+01 1.096837139129638672e+01 7.273187637329101562e-01 1.211863994598388672e+01 3.853787660598754883e+00 -1.598667740821838379e+00
1.651000000000000000e+03 3.344880294799804688e+01 1.511581707000732422e+01 8.404986262321472168e-01 9.708915710449218750e+00 3.164824247360229492e+00 -2.118896007537841797e+00
1.652000000000000000e+03 6.745046997070312500e+01 -2.578011322021484375e+01 -1.063566446304321289e+00 -8.943524956703186035e-01 -5.873757004737854004e-01 -8.363281488418579102e-01
1.653000000000000000e+03 4.473402786254882812e+01 -5.489653110504150391e+00 -3.317203521728515625e+00 9.747967123985290527e-01 -7.027220129966735840e-01 5.164017900824546814e-02
1.654000000000000000e+03 1.119645023345947266e+01 -1.952336311340332031e+01 6.773763298988342285e-01 1.928640484809875488e+00 7.818050384521484375e-01 3.460023105144500732e-01
1.655000000000000000e+03 6.533807373046875000e+01 -1.035133647918701172e+01 -3.463664770126342773e+00 -1.635369181632995605e+00 -1.529710173606872559e+00 -1.041300296783447266e-01
1.656000000000000000e+03 6.366805648803710938e+01 1.111355113983154297e+01 4.898857474327087402e-01 6.493648052215576172e+00 2.095060110092163086e+00 4.038228988647460938e-01
1.657000000000000000e+03 7.448796081542968750e+01 -1.796653938293457031e+01 1.257081270217895508e+00 3.222905874252319336e+00 1.343996167182922363e+00 2.650906801223754883e+00
1.658000000000000000e+03 7.658334350585937500e+01 -2.071742057800292969e+01 -1.374485373497009277e+00 1.189979457855224609e+01 3.157592773437500000e+00 5.582169890403747559e-01
1.659000000000000000e+03 7.572047424316406250e+01 -1.800874328613281250e+01 2.023958712816238403e-01 1.245034503936767578e+01 3.795822381973266602e+00 5.732319355010986328e+00
1.660000000000000000e+03 7.504750823974609375e+01 -1.854943084716796875e+01 5.880051851272583008e-01 7.656128883361816406e+00 2.473240375518798828e+00 3.965808868408203125e+00
1.661000000000000000e+03 7.388166809082031250e+01 -1.858398818969726562e+01 8.608136177062988281e-01 2.849419593811035156e+00 1.113069891929626465e+00 1.735034823417663574e+00
1.662000000000000000e+03 7.386475372314453125e+01 -1.828244972229003906e+01 8.798301219940185547e-01 2.343201637268066406e+00 9.669095873832702637e-01 1.532032728195190430e+00
1.663000000000000000e+03 7.672698974609375000e+01 -1.803015708923339844e+01 -1.822129726409912109e+00 1.936080741882324219e+01 5.261603355407714844e+00 8.158771395683288574e-01
1.664000000000000000e+03 7.617290496826171875e+01 -1.470285224914550781e+01 -2.388600826263427734e+00 1.646110534667968750e+01 4.221751213073730469e+00 -4.330801963806152344e+00
1.665000000000000000e+03 7.515502166748046875e+01 -1.425934219360351562e+01 -5.825787186622619629e-01 7.679343223571777344e+00 2.129029512405395508e+00 -4.582033634185791016e+00
1.666000000000000000e+03 7.576404571533203125e+01 -1.471943950653076172e+01 -1.303196072578430176e+00 1.260830974578857422e+01 3.391534090042114258e+00 -5.669868469238281250e+00
1.667000000000000000e+03 7.472987365722656250e+01 -1.421236991882324219e+01 -4.195806384086608887e-01 5.422297000885009766e+00 1.500814914703369141e+00 -3.816483497619628906e+00
1.668000000000000000e+03 7.621484375000000000e+01 -1.796390914916992188e+01 -1.401500940322875977e+00 1.765764045715332031e+01 4.876842021942138672e+00 4.181564807891845703e+00
1.669000000000000000e+03 7.754801177978515625e+01 -1.485058116912841797e+01 -7.792396545410156250e-01 1.788572692871093750e+01 5.131946086883544922e+00 2.712648630142211914e+00
1.670000000000000000e+03 7.797653961181640625e+01 -1.533341217041015625e+01 2.369417667388916016e+00 1.575332069396972656e+01 5.436821460723876953e+00 3.363258600234985352e+00
1.671000000000000000e+03 7.838880157470703125e+01 -1.684860610961914062e+01 3.668157815933227539e+00 1.286094188690185547e+01 4.958729743957519531e+00 -1.500431180000305176e+00
1.672000000000000000e+03 7.717646789550781250e+01 -1.852956771850585938e+01 -1.955511689186096191e+00 1.690352821350097656e+01 4.484405040740966797e+00 -7.843109369277954102e-01
1.673000000000000000e+03 7.878230285644531250e+01 -1.542919158935546875e+01 1.321485161781311035e+00 1.083629989624023438e+01 3.647335529327392578e+00 2.435536623001098633e+00
1.674000000000000000e+03 7.660167694091796875e+01 -1.470165729522705078e+01 -2.829963445663452148e+00 1.916508865356445312e+01 4.900537490844726562e+00 -2.001919269561767578e+00
1.675000000000000000e+03 7.738105010986328125e+01 -1.982314300537109375e+01 -1.863001704216003418e+00 1.372491741180419922e+01 3.558574676513671875e+00 -6.056968569755554199e-01
1.676000000000000000e+03 7.764424896240234375e+01 -1.786450576782226562e+01 -4.613118991255760193e-02 1.731168556213378906e+01 5.179666519165039062e+00 -2.662027120590209961e+00
1.677000000000000000e+03 2.291336631774902344e+01 -3.446322917938232422e+00 1.811908483505249023e-01 2.074504494667053223e-01 1.165923923254013062e-01 1.121213197708129883e+00
1.678000000000000000e+03 1.943513679504394531e+01 3.213139057159423828e+00 5.227382062003016472e-04 3.796241362579166889e-04 2.707086969166994095e-04 -1.206890447065234184e-04
1.679000000000000000e+03 1.724140930175781250e+01 3.482975482940673828e+00 3.836841642623767257e-05 1.396027626469731331e-03 4.303188179619610310e-04 4.261237336322665215e-04
1.680000000000000000e+03 1.607044219970703125e+01 3.400622844696044922e+00 9.158187895081937313e-04 6.889338255859911442e-04 4.814257845282554626e-04 2.758748887572437525e-04
1.681000000000000000e+03 1.540092277526855469e+01 3.344899654388427734e+00 -4.820611211471259594e-04 -4.534346226137131453e-04 -2.806487318594008684e-04 3.171048301737755537e-04
1.682000000000000000e+03 6.965288543701171875e+01 -1.389141464233398438e+01 -2.698972225189208984e+00 5.470246672630310059e-01 -6.455842256546020508e-01 1.353464961051940918e+00
1.683000000000000000e+03 6.759747314453125000e+01 -1.366926574707031250e+01 -3.800835371017456055e+00 -1.687209963798522949e+00 -1.646413564682006836e+00 1.961905479431152344e+00
1.684000000000000000e+03 2.009258842468261719e+01 3.367642879486083984e+00 -4.337971622589975595e-04 -3.457640996202826500e-04 -2.338683843845501542e-04 1.085748499463079497e-05
1.685000000000000000e+03 2.038856315612792969e+01 4.415469646453857422e+00 -9.329513995908200741e-04 -2.137471601599827409e-04 -3.440095752011984587e-04 -1.166387519333511591e-04
1.686000000000000000e+03 7.119281768798828125e+01 -2.050484275817871094e+01 -1.568634063005447388e-01 9.744189381599426270e-01 2.452666610479354858e-01 -4.485918283462524414e-01
1.687000000000000000e+03 7.003069305419921875e+01 -1.896645545959472656e+01 -2.935906648635864258e-01 -3.626313209533691406e-01 -1.968666017055511475e-01 -1.116060018539428711e+00
1.688000000000000000e+03 6.129751205444335938e+00 -2.613994359970092773e+00 -4.577434360980987549e-01 -3.809890151023864746e-02 -1.487527042627334595e-01 -4.073575437068939209e-01
1.689000000000000000e+03 7.628191947937011719e+00 -3.259151697158813477e+00 -5.268643498420715332e-01 1.875486038625240326e-02 -1.524328440427780151e-01 -4.763745367527008057e-01
1.690000000000000000e+03 6.914761543273925781e+00 -3.312177658081054688e+00 -4.588796496391296387e-01 -1.965220272541046143e-02 -1.435595601797103882e-01 -4.838085174560546875e-01
1.691000000000000000e+03 3.265070438385009766e+00 -2.658391475677490234e+00 -1.848334223031997681e-01 -1.084343343973159790e-01 -8.798032999038696289e-02 -2.725604474544525146e-01
1.692000000000000000e+03 5.461863040924072266e+00 -3.464121818542480469e+00 -3.236364424228668213e-01 -8.719165623188018799e-02 -1.232484281063079834e-01 -4.684746265411376953e-01
1.693000000000000000e+03 3.201422929763793945e+00 -3.472198009490966797e+00 -1.466235667467117310e-01 -1.797698140144348145e-01 -9.791801869869232178e-02 -3.273411691188812256e-01
1.694000000000000000e+03 8.289815902709960938e+00 -2.549578428268432617e+00 -6.934915781021118164e-01 2.936595678329467773e-02 -1.992376744747161865e-01 -4.004568457603454590e-01
1.695000000000000000e+03 9.062196731567382812e+00 -3.243828296661376953e+00 -6.435439586639404297e-01 7.838836312294006348e-02 -1.695466786623001099e-01 -4.349361062049865723e-01
1.696000000000000000e+03 3.954430103302001953e+00 -3.532191276550292969e+00 -1.997956931591033936e-01 -1.602226048707962036e-01 -1.080054864287376404e-01 -3.940654397010803223e-01
1.697000000000000000e+03 5.709100246429443359e+00 -5.178296566009521484e+00 -1.985530108213424683e-01 -1.245949938893318176e-01 -9.694439917802810669e-02 -5.872873663902282715e-01
1.698000000000000000e+03 1.402123832702636719e+01 2.609665155410766602e+00 8.447931031696498394e-04 7.524444372393190861e-04 4.791712563019245863e-04 3.776034573093056679e-04
1.699000000000000000e+03 1.251975345611572266e+01 3.303745985031127930e+00 -9.542026964481920004e-05 -5.793780437670648098e-04 -2.024394925683736801e-04 1.025788020342588425e-03
1.700000000000000000e+03 7.255728149414062500e+01 -1.906288719177246094e+01 3.646565973758697510e-01 1.423052906990051270e+00 5.363128781318664551e-01 1.774007976055145264e-01
1.701000000000000000e+03 1.745235061645507812e+01 2.817371606826782227e+00 -2.597401908133178949e-04 -4.909404087811708450e-04 -2.252041886094957590e-04 1.387256179441465065e-05
1.702000000000000000e+03 1.920607948303222656e+01 3.944019079208374023e+00 -5.915538640692830086e-04 -1.817757292883470654e-04 -2.319988707313314080e-04 4.724446043837815523e-04
1.703000000000000000e+03 1.121668529510498047e+01 -2.545510530471801758e+00 -9.337667226791381836e-01 9.593687951564788818e-02 -2.513489425182342529e-01 -2.613212764263153076e-01
1.704000000000000000e+03 1.103445625305175781e+01 3.298285007476806641e+00 1.348358200630173087e-04 -8.036226499825716019e-04 -2.006360591622069478e-04 9.164154762402176857e-04
1.705000000000000000e+03 1.326260852813720703e+01 3.307929039001464844e+00 1.156230922788381577e-03 6.511260289698839188e-04 5.422070971690118313e-04 4.430093395058065653e-04
1.706000000000000000e+03 8.040060997009277344e+00 3.336988449096679688e+00 5.679771420545876026e-04 -1.062037539668381214e-03 -1.482181105529889464e-04 5.902762131881900132e-05
1.707000000000000000e+03 1.202213001251220703e+01 -3.232727766036987305e+00 -7.999514341354370117e-01 1.855839192867279053e-01 -1.843102425336837769e-01 -2.130861878395080566e-01
1.708000000000000000e+03 1.425971698760986328e+01 -2.501292705535888672e+00 -9.813516139984130859e-01 1.560241580009460449e-01 -2.475982308387756348e-01 4.066921770572662354e-02
1.709000000000000000e+03 9.784736633300781250e+00 -3.262359380722045898e+00 -6.873649358749389648e-01 9.152104705572128296e-02 -1.787531524896621704e-01 -3.989036381244659424e-01
1.710000000000000000e+03 1.052091598510742188e+01 -3.264684438705444336e+00 -7.309938073158264160e-01 1.292536109685897827e-01 -1.805220693349838257e-01 -3.526225090026855469e-01
1.711000000000000000e+03 6.974851226806640625e+01 -2.166580772399902344e+01 -8.253184556961059570e-01 -7.040025293827056885e-02 -2.687156200408935547e-01 -7.096804976463317871e-01
1.712000000000000000e+03 1.507073307037353516e+01 -3.219648122787475586e+00 -7.624354958534240723e-01 2.758988440036773682e-01 -1.459610015153884888e-01 1.822896897792816162e-01
1.713000000000000000e+03 1.738512039184570312e+01 -2.410822391510009766e+00 -7.383598089218139648e-01 2.179197669029235840e-01 -1.561320126056671143e-01 4.277924597263336182e-01
1.714000000000000000e+03 7.284952163696289062e+00 3.375016689300537109e+00 1.741155982017517090e-03 -8.435836207354441285e-05 4.970392910763621330e-04 -5.288830143399536610e-04
1.715000000000000000e+03 8.795118331909179688e+00 3.316687822341918945e+00 1.860806252807378769e-03 -1.025555611704476178e-04 5.274752038531005383e-04 -2.232841325167100877e-05
1.716000000000000000e+03 5.019797325134277344e+00 3.607113838195800781e+00 6.756149377906695008e-05 -4.270457138773053885e-04 -1.078452623914927244e-04 -5.855912459082901478e-04
1.717000000000000000e+03 2.807684898376464844e+00 4.830203533172607422e+00 1.880266609077807516e-05 -5.174928446649573743e-05 -9.883985512715298682e-06 -8.230572566390037537e-04
1.718000000000000000e+03 5.079666137695312500e+00 4.495286941528320312e+00 1.918593421578407288e-03 -1.196492303279228508e-04 5.396832711994647980e-04 -1.581479562446475029e-03
1.719000000000000000e+03 6.529980182647705078e+00 3.437347412109375000e+00 5.718891625292599201e-04 -9.887188207358121872e-04 -1.250488858204334974e-04 -2.707352978177368641e-04
1.720000000000000000e+03 6.589676856994628906e+00 4.234437942504882812e+00 1.687610754743218422e-03 -1.048716439981944859e-04 4.748217470478266478e-04 -9.343301644548773766e-04
1.721000000000000000e+03 1.029381752014160156e+01 3.300015211105346680e+00 1.774806994944810867e-03 7.907920371508225799e-05 5.561658763326704502e-04 2.931582857854664326e-04
1.722000000000000000e+03 9.547654151916503906e+00 3.305725097656250000e+00 3.725345595739781857e-04 -9.479249711148440838e-04 -1.726171176414936781e-04 5.271880654618144035e-04
1.723000000000000000e+03 1.750856590270996094e+01 -3.980403184890747070e+00 -4.579987823963165283e-01 4.489451050758361816e-01 -2.716096583753824234e-03 6.069228649139404297e-01
1.724000000000000000e+03 1.825793647766113281e+01 -3.147176980972290039e+00 -5.078646540641784668e-01 3.336540460586547852e-01 -5.226317793130874634e-02 6.305425763130187988e-01
1.725000000000000000e+03 1.899474143981933594e+01 -2.313756942749023438e+00 -5.181233882904052734e-01 2.440495342016220093e-01 -8.222216367721557617e-02 5.951962471008300781e-01
1.726000000000000000e+03 1.277580070495605469e+01 -3.219753742218017578e+00 -8.076854944229125977e-01 1.921736598014831543e-01 -1.846535503864288330e-01 -1.237453892827033997e-01
1.727000000000000000e+03 7.195499420166015625e+01 -1.341030502319335938e+01 -1.406188249588012695e+00 1.502074956893920898e+00 2.876602858304977417e-02 -1.267742961645126343e-01
1.728000000000000000e+03 7.122464752197265625e+01 -1.323541259765625000e+01 -1.867295622825622559e+00 1.246970534324645996e+00 -1.860975474119186401e-01 1.998795568943023682e-01
1.729000000000000000e+03 7.039259338378906250e+01 -1.303910541534423828e+01 -2.333267688751220703e+00 1.139591574668884277e+00 -3.581028282642364502e-01 6.251697540283203125e-01
1.730000000000000000e+03 2.559139060974121094e+01 -1.537736296653747559e+00 1.087069511413574219e+00 -2.150903642177581787e-01 2.615937292575836182e-01 7.947053909301757812e-01
1.731000000000000000e+03 2.647219276428222656e+01 -1.445352077484130859e+00 1.533271312713623047e+00 -5.326625332236289978e-02 4.440015256404876709e-01 8.003086447715759277e-01
1.732000000000000000e+03 7.376234436035156250e+01 -1.354243946075439453e+01 -4.739707112312316895e-01 3.415079355239868164e+00 8.823326230049133301e-01 -2.144631385803222656e+00
1.733000000000000000e+03 1.585905742645263672e+01 -3.226653575897216797e+00 -7.127134203910827637e-01 2.791952788829803467e-01 -1.300554424524307251e-01 3.044165074825286865e-01
1.734000000000000000e+03 2.174073982238769531e+01 -2.947152853012084961e+00 -2.759754471480846405e-02 2.661686539649963379e-01 7.157132774591445923e-02 9.343528151512145996e-01
1.735000000000000000e+03 2.256007003784179688e+01 -2.628082752227783203e+00 1.593582779169082642e-01 1.379044204950332642e-01 8.917880803346633911e-02 9.393987655639648438e-01
1.736000000000000000e+03 6.932455444335937500e+01 -2.010694122314453125e+01 -3.098664581775665283e-01 -1.352279782295227051e+00 -4.986438751220703125e-01 -8.279767632484436035e-01
1.737000000000000000e+03 1.907552146911621094e+01 -3.118026494979858398e+00 -3.966851532459259033e-01 3.009667694568634033e-01 -2.871551550924777985e-02 7.257269024848937988e-01
1.738000000000000000e+03 1.992690467834472656e+01 -3.103497505187988281e+00 -2.990013360977172852e-01 3.379306197166442871e-01 1.167878042906522751e-02 8.086254000663757324e-01
1.739000000000000000e+03 2.752614212036132812e+01 -1.343799591064453125e+00 1.988321065902709961e+00 -5.782856047153472900e-02 5.791477560997009277e-01 7.423843145370483398e-01
1.740000000000000000e+03 3.518783569335937500e+01 7.298178195953369141e+00 9.657101035118103027e-01 1.424643516540527344e+01 4.563643455505371094e+00 -2.100236713886260986e-01
1.741000000000000000e+03 3.809052276611328125e+01 9.396380424499511719e+00 1.786651492118835449e+00 1.283943271636962891e+01 4.387825489044189453e+00 1.286660671234130859e+00
1.742000000000000000e+03 6.009613800048828125e+01 -6.448335945606231689e-02 1.852017521858215332e+00 2.449838638305664062e+00 1.290556907653808594e+00 1.771409630775451660e+00
1.743000000000000000e+03 3.636688613891601562e+01 4.474122524261474609e+00 1.924498796463012695e+00 1.423854446411132812e+01 4.848912715911865234e+00 6.043663024902343750e-01
1.744000000000000000e+03 3.767755508422851562e+01 5.806153297424316406e+00 1.278273224830627441e+00 1.501838302612304688e+01 4.888997077941894531e+00 1.116293907165527344e+00
1.745000000000000000e+03 3.634909057617187500e+01 6.051738262176513672e-01 1.719597101211547852e+00 1.170068836212158203e+01 4.026085376739501953e+00 -4.579066038131713867e-01
1.746000000000000000e+03 1.213940048217773438e+01 -2.342674827575683594e+01 1.205660104751586914e-01 1.831745982170104980e+00 5.856935977935791016e-01 2.319936901330947876e-01
1.747000000000000000e+03 1.377604103088378906e+01 -2.562598419189453125e+01 -2.026805132627487183e-01 1.715126633644104004e+00 4.537338316440582275e-01 -6.899535655975341797e-02
1.748000000000000000e+03 2.303080368041992188e+01 -9.453271865844726562e+00 3.008331954479217529e-01 2.909968495368957520e-01 1.775490045547485352e-01 5.897710323333740234e-01
1.749000000000000000e+03 2.057181358337402344e+01 -8.821043968200683594e+00 5.321406126022338867e-01 6.177612543106079102e-01 3.449705839157104492e-01 1.030618071556091309e+00
1.750000000000000000e+03 1.950986862182617188e+01 -8.840686798095703125e+00 5.640506744384765625e-01 7.808414697647094727e-01 4.034676551818847656e-01 1.037158608436584473e+00
1.751000000000000000e+03 4.091086196899414062e+01 1.584226799011230469e+01 8.971319198608398438e-01 5.838519573211669922e+00 2.020695447921752930e+00 1.937389612197875977e+00
1.752000000000000000e+03 3.927879333496093750e+01 1.334239292144775391e+01 9.313874840736389160e-01 8.817104339599609375e+00 2.924547672271728516e+00 1.678851366043090820e+00
1.753000000000000000e+03 1.344421100616455078e+01 -1.378378009796142578e+01 1.168871998786926270e+00 2.455768585205078125e+00 1.087392210960388184e+00 4.897817075252532959e-01
1.754000000000000000e+03 1.018469524383544922e+01 -1.690925979614257812e+01 8.574223518371582031e-01 1.314433693885803223e+00 6.515568494796752930e-01 1.633454859256744385e-01
1.755000000000000000e+03 5.311961746215820312e+01 2.467396545410156250e+01 1.081676781177520752e-01 7.319577932357788086e-01 2.520376443862915039e-01 4.863960742950439453e-01
1.756000000000000000e+03 5.150402069091796875e+01 -1.232812118530273438e+01 -2.681155800819396973e-01 9.506053924560546875e-01 2.047469466924667358e-01 2.059362411499023438e+00
1.757000000000000000e+03 5.035050964355468750e+01 -1.225774478912353516e+01 -1.524730678647756577e-02 1.349998950958251953e+00 4.004254937171936035e-01 2.343199253082275391e+00
1.758000000000000000e+03 4.440374374389648438e+01 -1.783721351623535156e+01 2.394822597503662109e+00 9.010506629943847656e+00 3.421598672866821289e+00 2.730965018272399902e-01
1.759000000000000000e+03 6.790032196044921875e+01 -1.100561332702636719e+01 -3.083418607711791992e+00 2.353858202695846558e-01 -8.544098138809204102e-01 -4.991060793399810791e-01
1.760000000000000000e+03 4.650851821899414062e+01 -7.440377235412597656e+00 -1.703557729721069336e+00 9.065361618995666504e-01 -2.391064763069152832e-01 9.617904424667358398e-01
1.761000000000000000e+03 2.165424156188964844e+01 -8.608240127563476562e+00 4.065960943698883057e-01 4.355890154838562012e-01 2.526555359363555908e-01 9.571402668952941895e-01
1.762000000000000000e+03 2.826917457580566406e+01 2.453643798828125000e+01 5.815032497048377991e-02 3.138169050216674805e+00 9.588958024978637695e-01 -1.516791343688964844e+00
1.763000000000000000e+03 2.782092475891113281e+01 2.297602844238281250e+01 9.060393571853637695e-01 2.798941135406494141e+00 1.111494183540344238e+00 -1.949547171592712402e+00
1.764000000000000000e+03 3.326721572875976562e+01 -2.823087692260742188e+01 6.204872131347656250e-01 3.392797231674194336e+00 1.203985333442687988e+00 1.708642363548278809e+00
1.765000000000000000e+03 5.848528289794921875e+01 -1.140990829467773438e+01 -2.851527214050292969e+00 8.411329984664916992e-01 -6.031183004379272461e-01 2.989467680454254150e-01
1.766000000000000000e+03 5.623196792602539062e+01 -1.203202247619628906e+01 -2.118285179138183594e+00 7.223520278930664062e-01 -4.187799692153930664e-01 6.533598303794860840e-01
1.767000000000000000e+03 5.508543014526367188e+01 -1.227661418914794922e+01 -1.787789821624755859e+00 6.592646837234497070e-01 -3.385575413703918457e-01 1.052721858024597168e+00
1.768000000000000000e+03 5.390234375000000000e+01 -1.238582515716552734e+01 -1.267008662223815918e+00 6.887743473052978516e-01 -1.734702885150909424e-01 1.340152978897094727e+00
1.769000000000000000e+03 6.501274108886718750e+01 2.078612136840820312e+01 3.701170980930328369e-01 5.403954029083251953e+00 1.732221364974975586e+00 -1.285141259431838989e-01
1.770000000000000000e+03 3.823777389526367188e+01 1.436648845672607422e+00 1.842873334884643555e+00 1.339858627319335938e+01 4.572437763214111328e+00 -1.750204086303710938e+00
1.771000000000000000e+03 3.786646270751953125e+01 2.835684061050415039e+00 1.848269939422607422e+00 1.402598381042480469e+01 4.762276172637939453e+00 -8.486253619194030762e-01
1.772000000000000000e+03 1.413502311706542969e+01 9.327446937561035156e+00 -2.707124222069978714e-03 1.747735892422497272e-03 -2.878165105357766151e-04 3.083623712882399559e-03
1.773000000000000000e+03 1.158688545227050781e+01 1.989207839965820312e+01 -1.304627656936645508e-01 3.267249092459678650e-02 -2.933708205819129944e-02 -8.909326046705245972e-03
1.774000000000000000e+03 1.222891044616699219e+01 1.867912864685058594e+01 -8.895113319158554077e-02 2.155964635312557220e-02 -2.021744474768638611e-02 -3.233314678072929382e-02
1.775000000000000000e+03 1.078390502929687500e+01 1.420913219451904297e+01 -8.043097332119941711e-03 -3.829395398497581482e-03 -3.561747958883643150e-03 -4.183616954833269119e-03
1.776000000000000000e+03 7.713984680175781250e+01 -2.385689735412597656e+01 -3.111262917518615723e-01 1.059136390686035156e+01 3.084071159362792969e+00 4.923497438430786133e-01
1.777000000000000000e+03 7.731982421875000000e+01 -2.509487915039062500e+01 -1.412918120622634888e-01 1.058456134796142578e+01 3.132981061935424805e+00 5.927786231040954590e-01
1.778000000000000000e+03 7.657536315917968750e+01 -3.038392448425292969e+01 4.767502844333648682e-02 8.837342262268066406e+00 2.665505170822143555e+00 8.542038798332214355e-01
1.779000000000000000e+03 7.668029022216796875e+01 -3.190575790405273438e+01 3.774934634566307068e-02 8.686362266540527344e+00 2.617233514785766602e+00 8.388432264328002930e-01
1.780000000000000000e+03 7.672101593017578125e+01 -2.887613868713378906e+01 -1.600288413465023041e-02 9.231168746948242188e+00 2.764549732208251953e+00 8.781667947769165039e-01
1.781000000000000000e+03 7.719075775146484375e+01 -2.247900581359863281e+01 -6.547482609748840332e-01 1.108004188537597656e+01 3.127588033676147461e+00 2.488143444061279297e-01
1.782000000000000000e+03 7.718865966796875000e+01 -2.619721794128417969e+01 -1.365221291780471802e-01 1.012454319000244141e+01 2.996406316757202148e+00 6.805271506309509277e-01
1.783000000000000000e+03 7.664913177490234375e+01 -3.686943435668945312e+01 5.608052387833595276e-02 8.177955627441406250e+00 2.470211029052734375e+00 5.869451165199279785e-01
1.784000000000000000e+03 7.665211486816406250e+01 2.511948585510253906e+01 -1.288466807454824448e-02 4.464952468872070312e+00 1.335620284080505371e+00 1.866119205951690674e-01
1.785000000000000000e+03 7.640230560302734375e+01 2.384507179260253906e+01 -1.039178855717182159e-02 4.448288917541503906e+00 1.331369042396545410e+00 2.032191306352615356e-01
1.786000000000000000e+03 7.674351501464843750e+01 1.678624534606933594e+01 9.553674608469009399e-02 4.293659210205078125e+00 1.316758871078491211e+00 3.377665998414158821e-04
1.787000000000000000e+03 7.675725555419921875e+01 1.542251777648925781e+01 1.041793003678321838e-01 4.311498641967773438e+00 1.324703454971313477e+00 -7.475519180297851562e-02
1.788000000000000000e+03 7.677196502685546875e+01 1.405605030059814453e+01 1.170098334550857544e-01 4.362141609191894531e+00 1.343745350837707520e+00 -1.595289111137390137e-01
1.789000000000000000e+03 7.513052368164062500e+01 2.707229423522949219e+01 -5.711117759346961975e-02 4.540240764617919922e+00 1.344938874244689941e+00 1.913194805383682251e-01
1.790000000000000000e+03 7.677342224121093750e+01 2.624027824401855469e+01 -2.917306870222091675e-02 4.492250442504882812e+00 1.338923215866088867e+00 1.708047091960906982e-01
1.791000000000000000e+03 7.680784606933593750e+01 1.268683910369873047e+01 1.120622754096984863e-01 4.430231571197509766e+00 1.362688183784484863e+00 -2.400791198015213013e-01
1.792000000000000000e+03 7.582327270507812500e+01 3.160611152648925781e+01 -5.587958544492721558e-02 4.577066898345947266e+00 1.356356263160705566e+00 9.563405066728591919e-02
1.793000000000000000e+03 7.687103271484375000e+01 9.949496269226074219e+00 1.180218607187271118e-01 4.651468276977539062e+00 1.430847048759460449e+00 -4.182525575160980225e-01
1.794000000000000000e+03 7.687396240234375000e+01 1.831428706645965576e-01 1.680167615413665771e-01 6.446035861968994141e+00 1.984215855598449707e+00 -1.206583380699157715e+00
1.795000000000000000e+03 7.687004852294921875e+01 1.554616928100585938e+00 1.511304229497909546e-01 6.094396591186523438e+00 1.873658061027526855e+00 -1.087252020835876465e+00
1.796000000000000000e+03 7.811103820800781250e+01 2.868793010711669922e+00 5.782857164740562439e-02 6.012828350067138672e+00 1.821197032928466797e+00 -6.529685258865356445e-01
1.797000000000000000e+03 7.685741424560546875e+01 4.328153133392333984e+00 1.438490301370620728e-01 5.481958866119384766e+00 1.687742471694946289e+00 -8.494711518287658691e-01
1.798000000000000000e+03 7.699029541015625000e+01 -5.160398006439208984e+00 7.055126875638961792e-02 8.210624694824218750e+00 2.484352827072143555e+00 -1.535433769226074219e+00
1.799000000000000000e+03 7.654604339599609375e+01 1.948309135437011719e+01 7.449905574321746826e-02 4.324956893920898438e+00 1.319836854934692383e+00 1.269199401140213013e-01
1.800000000000000000e+03 7.702687835693359375e+01 -6.446413040161132812e+00 -2.884738519787788391e-02 8.687766075134277344e+00 2.597675561904907227e+00 -1.529708743095397949e+00
1.801000000000000000e+03 7.628249359130859375e+01 2.237597465515136719e+01 3.616815432906150818e-02 4.412871360778808594e+00 1.334711909294128418e+00 2.022651284933090210e-01
1.802000000000000000e+03 7.687152099609375000e+01 8.563569068908691406e+00 1.334548294544219971e-01 4.810175895690917969e+00 1.483089208602905273e+00 -5.195134282112121582e-01
1.803000000000000000e+03 7.685659027099609375e+01 7.157247066497802734e+00 1.290645599365234375e-01 5.001191139221191406e+00 1.539076685905456543e+00 -6.219168305397033691e-01
1.804000000000000000e+03 7.685011291503906250e+01 5.738311290740966797e+00 1.507314741611480713e-01 5.223597049713134766e+00 1.612298607826232910e+00 -7.358263134956359863e-01
1.805000000000000000e+03 7.688378906250000000e+01 -1.179105520248413086e+00 1.327938288450241089e-01 6.842924594879150391e+00 2.092715501785278320e+00 -1.322865247726440430e+00
1.806000000000000000e+03 7.690222167968750000e+01 -2.530478239059448242e+00 1.392513364553451538e-01 7.277313709259033203e+00 2.224969625473022461e+00 -1.410884976387023926e+00
1.807000000000000000e+03 7.699829864501953125e+01 -7.711680412292480469e+00 -1.026045456528663635e-01 9.135046958923339844e+00 2.709732770919799805e+00 -1.498135328292846680e+00
1.808000000000000000e+03 7.684009552001953125e+01 -8.919577598571777344e+00 -3.664494454860687256e-01 9.414747238159179688e+00 2.714489221572875977e+00 -1.451115012168884277e+00
1.809000000000000000e+03 7.700386047363281250e+01 -1.067085075378417969e+01 -9.359406828880310059e-01 1.046049880981445312e+01 2.857367277145385742e+00 -1.137921929359436035e+00
1.810000000000000000e+03 7.833340454101562500e+01 -2.017556571960449219e+01 -8.742428421974182129e-01 1.285419082641601562e+01 3.593984365463256836e+00 -1.227405309677124023e+00
1.811000000000000000e+03 7.752739715576171875e+01 -2.033090209960937500e+01 -1.337675809860229492e+00 1.273672866821289062e+01 3.419715881347656250e+00 -4.564065039157867432e-01
1.812000000000000000e+03 7.580970001220703125e+01 3.306326675415039062e+01 -3.564938157796859741e-02 4.586403846740722656e+00 1.365226387977600098e+00 7.326274365186691284e-02
1.813000000000000000e+03 7.669500732421875000e+01 1.814249420166015625e+01 8.561401069164276123e-02 4.296239852905273438e+00 1.314556121826171875e+00 6.342373043298721313e-02
1.814000000000000000e+03 3.822733688354492188e+01 -2.716104507446289062e+01 6.417948007583618164e-01 6.936138153076171875e+00 2.273379802703857422e+00 6.259955763816833496e-01
1.815000000000000000e+03 3.215249252319335938e+01 1.940724563598632812e+01 1.509413361549377441e+00 7.011876583099365234e+00 2.556386947631835938e+00 -1.901337742805480957e+00
1.816000000000000000e+03 6.830693817138671875e+01 -2.492031478881835938e+01 -9.440676569938659668e-01 -4.379922747611999512e-01 -4.146179854869842529e-01 -4.427422881126403809e-01
1.817000000000000000e+03 6.022555160522460938e+01 -1.210451602935791016e+01 -3.831156253814697266e+00 5.322679877281188965e-01 -9.896664619445800781e-01 -4.943524897098541260e-01
1.818000000000000000e+03 4.281365585327148438e+01 1.810424804687500000e+01 7.517504692077636719e-01 4.029986381530761719e+00 1.434520959854125977e+00 1.823325514793395996e+00
1.819000000000000000e+03 3.194061279296875000e+01 -3.243950271606445312e+01 -2.698373794555664062e-01 2.842926025390625000e+00 7.719265818595886230e-01 1.301156640052795410e+00
1.820000000000000000e+03 3.913756608963012695e+00 3.026426887512207031e+01 6.432468537241220474e-03 -1.537427455186843872e-01 -4.419308155775070190e-02 9.933841228485107422e-02
1.821000000000000000e+03 3.875793695449829102e+00 3.181796264648437500e+01 1.561303436756134033e-02 -1.806070059537887573e-01 -4.949818924069404602e-02 8.798494935035705566e-02
1.822000000000000000e+03 3.060171842575073242e+00 2.307881927490234375e+01 -1.209425274282693863e-02 -5.150632187724113464e-02 -1.908017136156558990e-02 5.901862308382987976e-02
1.823000000000000000e+03 3.220679044723510742e+00 2.441421318054199219e+01 -1.994001492857933044e-02 -6.817160546779632568e-02 -2.643348649144172668e-02 7.162420451641082764e-02
1.824000000000000000e+03 3.495848894119262695e+00 2.577270317077636719e+01 -8.140102960169315338e-03 -8.600682020187377930e-02 -2.824407629668712616e-02 8.800215274095535278e-02
1.825000000000000000e+03 3.752177476882934570e+00 2.721009063720703125e+01 -9.582333266735076904e-03 -1.058361977338790894e-01 -3.462556004524230957e-02 9.716445207595825195e-02
1.826000000000000000e+03 3.892813920974731445e+00 2.871594238281250000e+01 3.472916316241025925e-03 -1.265855729579925537e-01 -3.693379834294319153e-02 1.019607558846473694e-01
1.827000000000000000e+03 3.619072437286376953e+00 -2.710822486877441406e+01 -4.018836468458175659e-02 -4.113976061344146729e-01 -1.354757994413375854e-01 3.819039165973663330e-01
1.828000000000000000e+03 3.519776344299316406e+00 -2.571100234985351562e+01 -5.798061843961477280e-03 -5.299533605575561523e-01 -1.607254147529602051e-01 3.975809514522552490e-01
1.829000000000000000e+03 3.946073770523071289e+00 -3.003516197204589844e+01 -8.475264161825180054e-02 -1.766081154346466064e-01 -7.840823382139205933e-02 3.303728401660919189e-01
1.830000000000000000e+03 3.743631601333618164e+00 -2.853946685791015625e+01 -5.060365796089172363e-02 -3.012377321720123291e-01 -1.055524125695228577e-01 3.641723692417144775e-01
1.831000000000000000e+03 3.124511718750000000e+00 -1.088200187683105469e+01 8.486928790807723999e-02 -8.515022397041320801e-01 -2.299898862838745117e-01 -4.109949767589569092e-01
1.832000000000000000e+03 3.247915983200073242e+00 -9.478310585021972656e+00 4.722289368510246277e-02 -6.986190080642700195e-01 -1.954188346862792969e-01 -4.763604104518890381e-01
1.833000000000000000e+03 3.058548688888549805e+00 -1.354518508911132812e+01 1.247500404715538025e-01 -1.045079469680786133e+00 -2.760988473892211914e-01 -2.533005177974700928e-01
1.834000000000000000e+03 3.067455530166625977e+00 -1.222408676147460938e+01 1.006986573338508606e-01 -9.635779261589050293e-01 -2.588637769222259521e-01 -3.411733806133270264e-01
1.835000000000000000e+03 2.949945688247680664e+00 -5.433316230773925781e+00 -7.132129371166229248e-02 -3.692739307880401611e-01 -1.321785598993301392e-01 -4.215438067913055420e-01
1.836000000000000000e+03 3.240806818008422852e+00 -2.021153450012207031e+01 1.042430177330970764e-01 -9.694011211395263672e-01 -2.595474421977996826e-01 2.296027094125747681e-01
1.837000000000000000e+03 3.199331998825073242e+00 -1.887461471557617188e+01 1.252549439668655396e-01 -1.041769504547119141e+00 -2.749543488025665283e-01 1.397047340869903564e-01
1.838000000000000000e+03 3.347978591918945312e+00 -2.293168258666992188e+01 5.909496918320655823e-02 -7.705935239791870117e-01 -2.134495675563812256e-01 3.518004119396209717e-01
1.839000000000000000e+03 3.288821697235107422e+00 -2.156363868713378906e+01 8.233399689197540283e-02 -8.798120021820068359e-01 -2.392433881759643555e-01 2.936240732669830322e-01
1.840000000000000000e+03 4.207489013671875000e+00 -3.161743545532226562e+01 -8.789813518524169922e-02 -7.246451079845428467e-02 -4.810879379510879517e-02 2.760659754276275635e-01
1.841000000000000000e+03 3.523312807083129883e+00 -3.598500442504882812e+01 -3.982423245906829834e-02 -7.007618993520736694e-02 -3.297012671828269958e-02 1.171352565288543701e-01
1.842000000000000000e+03 4.231504917144775391e+00 1.614844512939453125e+01 -7.482547778636217117e-03 -4.087199922651052475e-03 -3.470924450084567070e-03 6.665628869086503983e-03
1.843000000000000000e+03 3.061643362045288086e+00 1.765891456604003906e+01 -5.049557425081729889e-03 -8.193425834178924561e-03 -3.972894977778196335e-03 1.255059894174337387e-02
1.844000000000000000e+03 2.873061656951904297e+00 1.344876098632812500e+01 -4.687888082116842270e-03 8.228265796788036823e-04 -1.159518491476774216e-03 8.894632919691503048e-04
1.845000000000000000e+03 2.923103094100952148e+00 1.482011318206787109e+01 -7.030315464362502098e-04 -5.621528835035860538e-04 -3.795553348027169704e-04 1.040456583723425865e-03
1.846000000000000000e+03 3.189042568206787109e+00 6.636857986450195312e+00 1.593710854649543762e-03 7.083320524543523788e-04 6.906128837727010250e-04 -1.651578349992632866e-03
1.847000000000000000e+03 3.087683916091918945e+00 8.078669548034667969e+00 -7.761298329569399357e-04 6.348417373374104500e-04 -4.238642213749699295e-05 -1.829403336159884930e-03
1.848000000000000000e+03 3.425226926803588867e+00 -2.431748580932617188e+01 2.229505032300949097e-02 -6.547194719314575195e-01 -1.897273212671279907e-01 3.801874518394470215e-01
1.849000000000000000e+03 3.108413219451904297e+00 -1.620561599731445312e+01 1.414051502943038940e-01 -1.106488227844238281e+00 -2.895249128341674805e-01 -5.529650673270225525e-02
1.850000000000000000e+03 2.877409934997558594e+00 1.078384971618652344e+01 -2.006904920563101768e-03 1.092543476261198521e-03 -2.743084623944014311e-04 -1.287319348193705082e-03
1.851000000000000000e+03 3.013872146606445312e+00 1.623070335388183594e+01 -1.000058557838201523e-02 -2.877073129639029503e-03 -3.863297402858734131e-03 7.972540333867073059e-03
1.852000000000000000e+03 3.199842929840087891e+00 -8.039773941040039062e+00 1.156377978622913361e-02 -5.808928608894348145e-01 -1.707987338304519653e-01 -4.867128729820251465e-01
1.853000000000000000e+03 3.075467348098754883e+00 -1.487082767486572266e+01 1.323273777961730957e-01 -1.089820861816406250e+00 -2.872480452060699463e-01 -1.595057249069213867e-01
1.854000000000000000e+03 3.007649660110473633e+00 2.039546966552734375e+01 -1.057636085897684097e-02 -2.421922422945499420e-02 -1.043867506086826324e-02 3.452833741903305054e-02
1.855000000000000000e+03 3.033366680145263672e+00 2.173442459106445312e+01 -1.957256905734539032e-02 -3.422603011131286621e-02 -1.613957993686199188e-02 4.351522028446197510e-02
1.856000000000000000e+03 3.017422914505004883e+00 1.904826736450195312e+01 -1.724749617278575897e-02 -1.086476165801286697e-02 -8.433677256107330322e-03 2.148370444774627686e-02
1.857000000000000000e+03 2.859866380691528320e+00 1.210821151733398438e+01 1.445123925805091858e-03 1.538266311399638653e-03 8.950170595198869705e-04 -2.604378154501318932e-03
1.858000000000000000e+03 2.937611341476440430e+00 9.454160690307617188e+00 1.665059826336801052e-03 1.436670776456594467e-03 9.305191924795508385e-04 -2.604555804282426834e-03
1.859000000000000000e+03 5.747844314575195312e+01 -2.961424589157104492e+00 1.617428183555603027e+00 2.322460889816284180e+00 1.181966781616210938e+00 1.925642967224121094e+00
1.860000000000000000e+03 2.865661430358886719e+01 -1.348690152168273926e+00 2.881787538528442383e+00 4.428387582302093506e-01 9.973878860473632812e-01 1.271845817565917969e+00
1.861000000000000000e+03 3.488827896118164062e+01 9.604771614074707031e+00 8.541842699050903320e-01 1.278733062744140625e+01 4.092454433441162109e+00 -9.643636941909790039e-01
1.862000000000000000e+03 2.253215789794921875e+01 2.587913894653320312e+01 2.289142906665802002e-01 5.115056037902832031e-01 2.221259623765945435e-01 -5.699974298477172852e-01
1.863000000000000000e+03 3.440745162963867188e+01 1.707653808593750000e+01 8.520656228065490723e-01 8.225209236145019531e+00 2.723182439804077148e+00 -1.237700700759887695e+00
1.864000000000000000e+03 3.471560287475585938e+01 1.561455821990966797e+01 8.528618812561035156e-01 9.077836990356445312e+00 2.979209661483764648e+00 -1.315998673439025879e+00
1.865000000000000000e+03 3.284635162353515625e+01 -6.356986045837402344e+00 -2.275854587554931641e+00 5.727025032043457031e+00 1.035351037979125977e+00 -9.567260742187500000e-01
1.866000000000000000e+03 3.763636016845703125e+01 -1.609074783325195312e+01 1.330941557884216309e+00 9.807512283325195312e+00 3.341536283493041992e+00 -1.930448889732360840e+00
1.867000000000000000e+03 5.269870376586914062e+01 -1.236031818389892578e+01 -7.169080376625061035e-01 7.188611626625061035e-01 5.859262892045080662e-04 1.788893103599548340e+00
1.868000000000000000e+03 3.717024612426757812e+01 1.196211576461791992e+00 2.300581455230712891e+00 1.244477653503417969e+01 4.423607349395751953e+00 -1.027390003204345703e+00
1.869000000000000000e+03 3.470104217529296875e+01 9.062308073043823242e-01 2.445777654647827148e+00 1.145055675506591797e+01 4.168900489807128906e+00 1.049892783164978027e+00
1.870000000000000000e+03 3.089665794372558594e+01 -1.799776554107666016e+00 2.086625814437866211e+00 3.229174375534057617e+00 1.594740033149719238e+00 1.633514881134033203e+00
1.871000000000000000e+03 2.850079727172851562e+01 -2.487059354782104492e+00 1.654820919036865234e+00 8.043227791786193848e-01 7.377431392669677734e-01 1.522230148315429688e+00
1.872000000000000000e+03 3.406092071533203125e+01 1.856528472900390625e+01 9.482281208038330078e-01 7.476330280303955078e+00 2.527367591857910156e+00 -1.132875800132751465e+00
1.873000000000000000e+03 1.835503387451171875e+01 4.762479305267333984e+00 -1.610806677490472794e-03 1.937725755851715803e-04 -4.251102509442716837e-04 -1.185393120977096260e-04
1.874000000000000000e+03 5.461944580078125000e+01 2.559854888916015625e+01 3.410844206809997559e-01 8.475235700607299805e-01 3.565824031829833984e-01 7.397200912237167358e-02
1.875000000000000000e+03 3.786823654174804688e+01 -1.742773818969726562e+01 1.373376727104187012e+00 9.846090316772460938e+00 3.365839958190917969e+00 -1.627915740013122559e+00
1.876000000000000000e+03 1.172066402435302734e+01 1.579019355773925781e+01 -1.817813701927661896e-02 -3.768417518585920334e-03 -6.583966314792633057e-03 -1.323238294571638107e-02
1.877000000000000000e+03 4.300880050659179688e+01 -6.231884479522705078e+00 -2.460120439529418945e+00 3.799494266510009766e+00 4.018122255802154541e-01 -1.664503097534179688e+00
1.878000000000000000e+03 2.021486854553222656e+01 -2.938205337524414062e+01 -5.121842026710510254e-01 4.855393767356872559e-01 -7.993445731699466705e-03 -2.177239507436752319e-01
1.879000000000000000e+03 4.303564453125000000e+01 -2.423405265808105469e+01 2.336152315139770508e+00 1.034243106842041016e+01 3.803575038909912109e+00 -1.307342529296875000e+00
1.880000000000000000e+03 2.051734924316406250e+01 2.542141532897949219e+01 1.316605322062969208e-02 1.920186132192611694e-01 6.155540049076080322e-02 -2.672055065631866455e-01
1.881000000000000000e+03 1.633901405334472656e+01 8.543760299682617188e+00 -1.261888653971254826e-03 7.661589188501238823e-04 -1.487189292674884200e-04 -5.837139324285089970e-04
1.882000000000000000e+03 1.547061634063720703e+01 8.036272048950195312e+00 7.415836444124579430e-04 2.285205991938710213e-03 9.080368326976895332e-04 1.295196998398751020e-04
1.883000000000000000e+03 1.084895992279052734e+01 -2.090572929382324219e+01 5.134959816932678223e-01 1.718973636627197266e+00 6.697409152984619141e-01 3.462560176849365234e-01
1.884000000000000000e+03 1.408000469207763672e+01 8.433320999145507812e+00 2.326095243915915489e-03 1.848690910264849663e-03 1.252435846254229546e-03 6.029586074873805046e-04
1.885000000000000000e+03 6.449745178222656250e+01 -9.239688873291015625e+00 -2.652358055114746094e+00 -1.717187762260437012e+00 -1.310863733291625977e+00 9.848959743976593018e-02
1.886000000000000000e+03 3.755091094970703125e+01 -1.355975246429443359e+01 8.690750598907470703e-01 9.264885902404785156e+00 3.040188312530517578e+00 -1.636546611785888672e+00
1.887000000000000000e+03 6.924196624755859375e+01 -2.252500915527343750e+01 -8.813833594322204590e-01 -3.851926624774932861e-01 -3.799728155136108398e-01 -4.805749356746673584e-01
1.888000000000000000e+03 7.209472656250000000e+01 -2.019679832458496094e+01 1.094884201884269714e-01 1.917339920997619629e+00 6.080484986305236816e-01 7.510311156511306763e-02
1.889000000000000000e+03 4.017462921142578125e+01 1.243401145935058594e+01 1.496959447860717773e+00 8.433750152587890625e+00 2.979212760925292969e+00 2.748524188995361328e+00
1.890000000000000000e+03 4.875202941894531250e+01 -8.834562301635742188e+00 -8.336483240127563477e-01 9.450022578239440918e-01 3.340616449713706970e-02 2.299797296524047852e+00
1.891000000000000000e+03 5.464355087280273438e+01 -6.322249412536621094e+00 -3.681639730930328369e-01 2.480968713760375977e+00 6.338414549827575684e-01 1.894561409950256348e+00
1.892000000000000000e+03 2.470778274536132812e+01 -7.720475196838378906e+00 -4.583789408206939697e-01 5.000017285346984863e-01 1.248683594167232513e-02 1.010862112045288086e+00
1.893000000000000000e+03 6.457677459716796875e+01 -2.879010009765625000e+01 -1.597984313964843750e+00 -9.440798163414001465e-01 -7.626192569732666016e-01 -9.256190061569213867e-01
1.894000000000000000e+03 6.278328323364257812e+01 4.498423576354980469e+00 1.245974898338317871e+00 4.161227226257324219e+00 1.622160673141479492e+00 1.029149055480957031e+00
1.895000000000000000e+03 3.838134765625000000e+01 -2.041367721557617188e+01 1.691542506217956543e+00 9.124752998352050781e+00 3.244888544082641602e+00 -6.605523228645324707e-01
1.896000000000000000e+03 3.702968978881835938e+01 -2.060407829284667969e+01 1.160091161727905273e+00 9.570014953613281250e+00 3.219031810760498047e+00 -1.261278390884399414e-01
1.897000000000000000e+03 3.755994796752929688e+01 -1.233710765838623047e+01 1.503719240427017212e-01 9.212007522583007812e+00 2.808713912963867188e+00 -1.528671026229858398e+00
1.898000000000000000e+03 2.061826467514038086e+00 3.677737712860107422e+00 1.284026257053483278e-05 7.349837105721235275e-04 2.243471972178667784e-04 -9.490333613939583302e-04
1.899000000000000000e+03 2.610853004455566406e+01 -4.290712833404541016e+00 3.947170078754425049e-01 9.461138397455215454e-02 1.467985212802886963e-01 1.642312884330749512e+00
1.900000000000000000e+03 4.546762466430664062e+01 -3.364574432373046875e+01 -8.773242235183715820e-01 5.961273193359375000e+00 1.525184750556945801e+00 -1.169066309928894043e+00
1.901000000000000000e+03 4.831748580932617188e+01 -3.199775886535644531e+01 -1.216625049710273743e-01 4.398345470428466797e+00 1.283004879951477051e+00 -1.852524399757385254e+00
1.902000000000000000e+03 1.737131309509277344e+01 -1.058251190185546875e+01 1.179975509643554688e+00 1.595396280288696289e+00 8.326115608215332031e-01 1.110350847244262695e+00
1.903000000000000000e+03 4.778730773925781250e+01 -1.259325408935546875e+01 3.969870805740356445e-01 3.129050254821777344e+00 1.057811141014099121e+00 2.005817651748657227e+00
1.904000000000000000e+03 4.325280380249023438e+01 -2.010007095336914062e+01 1.917223811149597168e+00 1.041179943084716797e+01 3.698706865310668945e+00 -3.146057426929473877e-01
1.905000000000000000e+03 5.035533142089843750e+01 -8.565091133117675781e+00 -1.043807744979858398e+00 9.805421829223632812e-01 -1.897968724370002747e-02 2.861031055450439453e+00
1.906000000000000000e+03 5.222531890869140625e+01 -6.912497043609619141e+00 -1.055138826370239258e+00 2.402461767196655273e+00 4.041968882083892822e-01 3.059215784072875977e+00
1.907000000000000000e+03 5.926626205444335938e+01 -1.702947258949279785e+00 1.769129753112792969e+00 2.041906356811523438e+00 1.143310785293579102e+00 1.699562788009643555e+00
1.908000000000000000e+03 4.068273925781250000e+01 -5.336298465728759766e+00 -2.865826368331909180e+00 7.425121784210205078e+00 1.367788672447204590e+00 -2.081000804901123047e+00
1.909000000000000000e+03 2.613271331787109375e+01 2.624402427673339844e+01 2.124807089567184448e-01 1.851926922798156738e+00 6.193222999572753906e-01 -1.265033483505249023e+00
1.910000000000000000e+03 2.458654022216796875e+01 2.655429649353027344e+01 2.550668716430664062e-01 1.179450511932373047e+00 4.303552210330963135e-01 -9.701674580574035645e-01
1.911000000000000000e+03 3.622439575195312500e+01 -2.640972328186035156e+01 7.532643675804138184e-01 6.117942333221435547e+00 2.061362028121948242e+00 1.093592762947082520e+00
1.912000000000000000e+03 3.684162139892578125e+01 -2.330202484130859375e+01 1.484598875045776367e+00 8.073843002319335938e+00 2.867532491683959961e+00 6.079860925674438477e-01
1.913000000000000000e+03 6.316682815551757812e+01 7.454161643981933594e+00 8.689784407615661621e-01 5.441804409027099609e+00 1.893234848976135254e+00 8.651536107063293457e-01
1.914000000000000000e+03 6.345776748657226562e+01 5.598455429077148438e+00 1.110456347465515137e+00 4.603874206542968750e+00 1.714299201965332031e+00 7.190382480621337891e-01
1.915000000000000000e+03 3.734262847900390625e+01 1.024410343170166016e+01 1.223891973495483398e+00 1.227318763732910156e+01 4.049123764038085938e+00 4.201690256595611572e-01
1.916000000000000000e+03 3.225527572631835938e+01 -1.228658080101013184e+00 2.176383256912231445e+00 6.252967834472656250e+00 2.528805255889892578e+00 2.369178533554077148e+00
1.917000000000000000e+03 3.458259201049804688e+01 -8.153949975967407227e-01 1.049692034721374512e+00 9.890016555786132812e+00 3.281912326812744141e+00 6.647152304649353027e-01
1.918000000000000000e+03 6.060448455810546875e+01 -1.036815261840820312e+01 -3.164689540863037109e+00 3.448959290981292725e-01 -8.459380865097045898e-01 9.475748538970947266e-01
1.919000000000000000e+03 3.196933174133300781e+01 -2.137240886688232422e+00 1.425823688507080078e+00 5.409614562988281250e+00 2.050631523132324219e+00 1.545469522476196289e+00
1.920000000000000000e+03 3.369110107421875000e+01 -1.385576844215393066e+00 7.829995751380920410e-01 8.836565971374511719e+00 2.885869503021240234e+00 8.421585559844970703e-01
1.921000000000000000e+03 3.122446632385253906e+01 -3.055901527404785156e+01 -1.379297971725463867e-01 2.211353540420532227e+00 6.220270991325378418e-01 1.206264376640319824e+00
1.922000000000000000e+03 3.409939956665039062e+01 -3.261928176879882812e+01 -4.616976082324981689e-01 3.968351602554321289e+00 1.051996231079101562e+00 1.282683730125427246e+00
1.923000000000000000e+03 6.050535583496093750e+01 -3.451106262207031250e+01 3.759109079837799072e-01 -6.136258244514465332e-01 -7.131447643041610718e-02 -4.416508972644805908e-01
1.924000000000000000e+03 2.984029197692871094e+01 -6.812269210815429688e+00 -1.683603882789611816e+00 1.388504952192306519e-01 -4.634260237216949463e-01 4.835982024669647217e-01
1.925000000000000000e+03 6.247755432128906250e+01 -1.084474182128906250e+01 -4.428828239440917969e+00 -5.967299342155456543e-01 -1.507667422294616699e+00 1.094995737075805664e+00
1.926000000000000000e+03 4.610325622558593750e+01 -1.451454448699951172e+01 1.131785154342651367e+00 5.346405982971191406e+00 1.943457365036010742e+00 1.330111503601074219e+00
1.927000000000000000e+03 2.838955307006835938e+01 -5.677694320678710938e+00 -3.190647959709167480e-01 1.525653749704360962e-01 -4.994982481002807617e-02 1.394383907318115234e+00
1.928000000000000000e+03 6.522447204589843750e+01 1.014242649078369141e+01 7.197297811508178711e-01 5.691728591918945312e+00 1.923437476158142090e+00 4.163096100091934204e-02
1.929000000000000000e+03 1.096167373657226562e+01 1.808497810363769531e+01 -6.647137552499771118e-02 7.218963932245969772e-03 -1.777572184801101685e-02 -1.267966628074645996e-02
1.930000000000000000e+03 5.123715209960937500e+01 -7.677110671997070312e+00 -7.400695085525512695e-01 1.398237586021423340e+00 1.974504142999649048e-01 3.141883850097656250e+00
1.931000000000000000e+03 7.574439239501953125e+01 -1.846765136718750000e+01 -6.786701679229736328e-01 1.215093421936035156e+01 3.441679000854492188e+00 4.235753059387207031e+00
1.932000000000000000e+03 7.601027679443359375e+01 -1.857079887390136719e+01 -1.290208697319030762e+00 1.392356204986572266e+01 3.790005922317504883e+00 3.531888008117675781e+00
1.933000000000000000e+03 7.365734100341796875e+01 -1.826143455505371094e+01 6.883584260940551758e-01 1.937894225120544434e+00 7.878757715225219727e-01 1.102915287017822266e+00
1.934000000000000000e+03 7.480434417724609375e+01 -1.843529319763183594e+01 9.667112827301025391e-01 5.858705043792724609e+00 2.047624826431274414e+00 3.535573005676269531e+00
1.935000000000000000e+03 7.533438110351562500e+01 -1.868710708618164062e+01 -2.932286076247692108e-02 9.344735145568847656e+00 2.794623613357543945e+00 3.972398519515991211e+00
1.936000000000000000e+03 7.460248565673828125e+01 -1.832641983032226562e+01 1.165422081947326660e+00 4.632685184478759766e+00 1.739432215690612793e+00 3.126591920852661133e+00
1.937000000000000000e+03 7.494630432128906250e+01 -1.428763008117675781e+01 -4.390067756175994873e-01 6.312525749206542969e+00 1.762055635452270508e+00 -4.259568214416503906e+00
1.938000000000000000e+03 7.537119293212890625e+01 -1.446539402008056641e+01 -6.990458369255065918e-01 9.125595092773437500e+00 2.527964830398559570e+00 -5.192216396331787109e+00
1.939000000000000000e+03 7.449819183349609375e+01 -1.406731605529785156e+01 -4.156939387321472168e-01 4.650977611541748047e+00 1.270585179328918457e+00 -3.311180591583251953e+00
1.940000000000000000e+03 7.258432006835937500e+01 -1.409400939941406250e+01 -1.442436337471008301e+00 1.150093197822570801e+00 -8.770295977592468262e-02 -2.726956605911254883e-01
1.941000000000000000e+03 7.680792999267578125e+01 -1.850691223144531250e+01 -2.122821092605590820e+00 1.699078750610351562e+01 4.460389614105224609e+00 6.357229351997375488e-01
1.942000000000000000e+03 7.650621795654296875e+01 -1.804919815063476562e+01 -1.788884401321411133e+00 1.850454902648925781e+01 5.014699459075927734e+00 2.326766729354858398e+00
1.943000000000000000e+03 7.576538085937500000e+01 -1.395036697387695312e+01 -1.823570251464843750e+00 1.148909091949462891e+01 2.899656295776367188e+00 -3.934501409530639648e+00
1.944000000000000000e+03 7.721257019042968750e+01 -1.444771289825439453e+01 -2.290048360824584961e+00 1.792689895629882812e+01 4.691055297851562500e+00 1.070071816444396973e+00
1.945000000000000000e+03 7.759693908691406250e+01 -1.395972251892089844e+01 -2.182615518569946289e+00 1.544441509246826172e+01 3.978539943695068359e+00 1.349574446678161621e+00
1.946000000000000000e+03 7.714054870605468750e+01 -1.782927894592285156e+01 -7.779377102851867676e-01 1.986135292053222656e+01 5.725024700164794922e+00 -1.661322474479675293e+00
1.947000000000000000e+03 7.345724487304687500e+01 -1.824647140502929688e+01 5.774137973785400391e-01 1.442714810371398926e+00 6.060385704040527344e-01 7.781038880348205566e-01
1.948000000000000000e+03 7.298133087158203125e+01 -1.878775787353515625e+01 5.273138284683227539e-01 1.753930091857910156e+00 6.843731999397277832e-01 4.815042614936828613e-01
1.949000000000000000e+03 7.853665161132812500e+01 -1.472143840789794922e+01 -5.887731313705444336e-01 1.245168590545654297e+01 3.558873891830444336e+00 2.920166254043579102e+00
1.950000000000000000e+03 7.846307373046875000e+01 -1.821358680725097656e+01 -3.115444481372833252e-01 1.279074096679687500e+01 3.743759155273437500e+00 -2.946999311447143555e+00
1.951000000000000000e+03 7.145526123046875000e+01 -1.986526679992675781e+01 -3.419993678107857704e-03 8.806201219558715820e-01 2.631600499153137207e-01 -3.784080743789672852e-01
1.952000000000000000e+03 7.194911193847656250e+01 -1.938065910339355469e+01 1.861847639083862305e-01 1.120939254760742188e+00 3.921371996402740479e-01 -2.403822690248489380e-01
1.953000000000000000e+03 1.594815349578857422e+01 5.100454807281494141e+00 1.115183113142848015e-03 1.679755980148911476e-03 8.384817629121243954e-04 8.801963995210826397e-04
1.954000000000000000e+03 1.604409408569335938e+01 4.210987567901611328e+00 -1.162474043667316437e-03 -1.708940108073875308e-04 -4.000104090664535761e-04 1.122464236686937511e-04
1.955000000000000000e+03 1.468018817901611328e+01 3.927577733993530273e+00 -1.909108977997675538e-04 -5.829195142723619938e-04 -2.321491338079795241e-04 1.327900332398712635e-03
1.956000000000000000e+03 8.407151222229003906e+00 -3.905146837234497070e+00 -4.896512627601623535e-01 7.275526225566864014e-02 -1.250687986612319946e-01 -5.066314935684204102e-01
1.957000000000000000e+03 9.101563453674316406e+00 -3.930086374282836914e+00 -5.269373059272766113e-01 1.030255407094955444e-01 -1.271735429763793945e-01 -4.780391156673431396e-01
1.958000000000000000e+03 1.325451374053955078e+01 4.743453979492187500e+00 1.265194267034530640e-03 1.083415118046104908e-03 7.045828388072550297e-04 8.033009362407028675e-04
1.959000000000000000e+03 3.048419237136840820e+00 -4.366277217864990234e+00 -1.082795411348342896e-01 -2.740630805492401123e-01 -1.147027909755706787e-01 -3.797685503959655762e-01
1.960000000000000000e+03 7.191452026367187500e+00 -4.803551673889160156e+00 -3.044150173664093018e-01 1.854471745900809765e-03 -9.076816588640213013e-02 -5.831757783889770508e-01
1.961000000000000000e+03 6.304704666137695312e+00 -4.183698177337646484e+00 -3.217844665050506592e-01 -5.847396701574325562e-02 -1.140775308012962341e-01 -5.451585650444030762e-01
1.962000000000000000e+03 7.021532058715820312e+00 -4.058246135711669922e+00 -3.866897821426391602e-01 -3.702708752825856209e-03 -1.171177476644515991e-01 -5.376669168472290039e-01
1.963000000000000000e+03 4.712373256683349609e+00 -3.520435333251953125e+00 -2.608759999275207520e-01 -1.209675744175910950e-01 -1.145530715584754944e-01 -4.373957514762878418e-01
1.964000000000000000e+03 3.927556991577148438e+00 -4.450348854064941406e+00 -1.566536724567413330e-01 -2.224316447973251343e-01 -1.137255951762199402e-01 -4.536534845829010010e-01
1.965000000000000000e+03 9.824562072753906250e+00 -3.987320423126220703e+00 -5.587267279624938965e-01 1.489685177803039551e-01 -1.229274570941925049e-01 -4.359229803085327148e-01
1.966000000000000000e+03 1.175583267211914062e+01 4.003000259399414062e+00 -1.888478727778419852e-04 -8.992324583232402802e-04 -3.264241095166653395e-04 1.242000958882272243e-03
1.967000000000000000e+03 1.852034187316894531e+01 3.890712261199951172e+00 1.131253899075090885e-03 1.532845199108123779e-04 3.853615489788353443e-04 5.061690899310633540e-05
1.968000000000000000e+03 1.471376514434814453e+01 3.298405885696411133e+00 5.671461112797260284e-04 1.168711227364838123e-03 5.207571666687726974e-04 4.393329436425119638e-04
1.969000000000000000e+03 1.325018596649169922e+01 4.014411926269531250e+00 -5.330535932444036007e-04 -4.741583834402263165e-04 -3.021635930053889751e-04 1.109550008550286293e-03
1.970000000000000000e+03 1.528954029083251953e+01 4.041676044464111328e+00 2.416936622466892004e-04 1.955867512151598930e-03 6.592684076167643070e-04 6.525862845592200756e-04
1.971000000000000000e+03 1.177482414245605469e+01 3.298737049102783203e+00 1.466263784095644951e-03 4.036905884277075529e-04 5.609862855635583401e-04 4.651567724067717791e-04
1.972000000000000000e+03 1.102793216705322266e+01 4.015429019927978516e+00 1.773688592948019505e-03 1.903163647511973977e-04 5.892014596611261368e-04 4.532554885372519493e-04
1.973000000000000000e+03 2.551574325561523438e+01 -2.251826763153076172e+00 1.091265797615051270e+00 -1.005558446049690247e-01 2.972129881381988525e-01 1.069821953773498535e+00
1.974000000000000000e+03 1.029551506042480469e+01 4.027565956115722656e+00 -7.997603574949607719e-07 -1.094435574486851692e-03 -3.285706043243408203e-04 8.816408226266503334e-04
1.975000000000000000e+03 1.249727535247802734e+01 4.003924369812011719e+00 1.302844146266579628e-03 6.676398334093391895e-04 5.911451880820095539e-04 6.540955509990453720e-04
1.976000000000000000e+03 3.520675182342529297e+00 3.774102687835693359e+00 -1.465070236008614302e-04 1.460198564018355682e-05 -3.957151056965813041e-05 -9.333270136266946793e-04
1.977000000000000000e+03 3.549252033233642578e+00 4.639465332031250000e+00 1.393386162817478180e-03 2.598477003630250692e-04 4.959701909683644772e-04 -1.014621346257627010e-03
1.978000000000000000e+03 1.133078956604003906e+01 -3.958274364471435547e+00 -6.227293610572814941e-01 2.374115288257598877e-01 -1.155953556299209595e-01 -3.077907860279083252e-01
1.979000000000000000e+03 1.207507896423339844e+01 -3.930124998092651367e+00 -6.396384835243225098e-01 2.533343732357025146e-01 -1.158912330865859985e-01 -2.189280837774276733e-01
1.980000000000000000e+03 1.057789134979248047e+01 -3.991041421890258789e+00 -5.880155563354492188e-01 1.765425503253936768e-01 -1.234418898820877075e-01 -3.823828101158142090e-01
1.981000000000000000e+03 6.950997161865234375e+01 -1.306167888641357422e+01 -2.854757547378540039e+00 6.799119114875793457e-01 -6.524537205696105957e-01 8.931630253791809082e-01
1.982000000000000000e+03 1.430782699584960938e+01 -4.642571926116943359e+00 -4.940580427646636963e-01 4.537763595581054688e-01 -1.208450552076101303e-02 1.035147234797477722e-01
1.983000000000000000e+03 9.553263664245605469e+00 4.042147159576416016e+00 1.965585630387067795e-03 -1.929619611473754048e-04 5.317870527505874634e-04 2.261733170598745346e-04
1.984000000000000000e+03 1.353163719177246094e+01 -3.213631153106689453e+00 -8.130627274513244629e-01 2.269634753465652466e-01 -1.758297681808471680e-01 -3.410952538251876831e-02
1.985000000000000000e+03 1.355979061126708984e+01 -3.920905113220214844e+00 -6.458367109298706055e-01 3.102210760116577148e-01 -1.006846874952316284e-01 -1.420741155743598938e-02
1.986000000000000000e+03 6.697305202484130859e+00 5.022146701812744141e+00 7.132794125936925411e-04 -2.058022655546665192e-03 -4.034230078104883432e-04 -3.263877588324248791e-04
1.987000000000000000e+03 7.329655647277832031e+00 4.144068241119384766e+00 5.532596260309219360e-04 -1.469930633902549744e-03 -2.750012790784239769e-04 -1.879901683423668146e-04
1.988000000000000000e+03 4.304551601409912109e+00 4.604221820831298828e+00 -4.700198769569396973e-04 -4.848925527767278254e-05 -1.555527414893731475e-04 -9.755458449944853783e-04
1.989000000000000000e+03 5.774856567382812500e+00 3.518639326095581055e+00 1.674291095696389675e-03 -3.329466926516033709e-05 4.922989173792302608e-04 -1.107581309042870998e-03
1.990000000000000000e+03 4.269823551177978516e+00 3.694230079650878906e+00 1.600919757038354874e-03 4.110615191166289151e-05 4.926077672280371189e-04 -1.084898947738111019e-03
1.991000000000000000e+03 1.831063079833984375e+01 -3.945317983627319336e+00 -3.761322498321533203e-01 4.095187485218048096e-01 1.001595053821802139e-02 7.264596819877624512e-01
1.992000000000000000e+03 8.808742523193359375e+00 4.063858985900878906e+00 2.576096449047327042e-04 -1.297022332437336445e-03 -3.118238237220793962e-04 3.374357766006141901e-04
1.993000000000000000e+03 1.665345954895019531e+01 -3.216972351074218750e+00 -6.546018719673156738e-01 3.118906915187835693e-01 -1.028133481740951538e-01 4.182782173156738281e-01
1.994000000000000000e+03 1.281675529479980469e+01 -3.918513298034667969e+00 -6.595439314842224121e-01 2.981589436531066895e-01 -1.084154993295669556e-01 -1.244655251502990723e-01
1.995000000000000000e+03 6.909906768798828125e+01 -1.217099380493164062e+01 -3.283324718475341797e+00 8.698536753654479980e-01 -7.240413427352905273e-01 4.778512120246887207e-01
1.996000000000000000e+03 1.430954360961914062e+01 -3.927632331848144531e+00 -6.348246335983276367e-01 3.557430505752563477e-01 -8.372447639703750610e-02 9.011849761009216309e-02
1.997000000000000000e+03 7.240579223632812500e+01 -1.982849884033203125e+01 2.326039820909500122e-01 1.982678651809692383e+00 6.645848155021667480e-01 2.510885596275329590e-01
1.998000000000000000e+03 1.508324050903320312e+01 -3.951280593872070312e+00 -6.039999723434448242e-01 3.768891394138336182e-01 -6.813324987888336182e-02 2.185566276311874390e-01
1.999000000000000000e+03 1.588472175598144531e+01 -3.992821931838989258e+00 -5.566783547401428223e-01 4.235859513282775879e-01 -3.992772102355957031e-02 3.590443432331085205e-01
2.000000000000000000e+03 7.138861846923828125e+01 -1.256177043914794922e+01 -1.504262924194335938e+00 1.787852883338928223e+00 8.507698029279708862e-02 -1.867299824953079224e-01
2.001000000000000000e+03 7.063346099853515625e+01 -1.222387313842773438e+01 -2.194463729858398438e+00 1.531377792358398438e+00 -1.989257782697677612e-01 -1.245101839303970337e-01
2.002000000000000000e+03 1.911077308654785156e+01 -3.929314851760864258e+00 -3.133241534233093262e-01 4.201425611972808838e-01 3.204552084207534790e-02 8.224762082099914551e-01
2.003000000000000000e+03 2.364195251464843750e+01 -3.166694402694702148e+00 3.487742543220520020e-01 7.126767188310623169e-02 1.260125786066055298e-01 1.122892856597900391e+00
2.004000000000000000e+03 7.169165802001953125e+01 -2.429562950134277344e+01 -5.873642563819885254e-01 3.156549215316772461e+00 7.707554697990417480e-01 5.885253548622131348e-01
2.005000000000000000e+03 2.383605575561523438e+01 -4.550834178924560547e+00 1.816430538892745972e-01 2.536595165729522705e-01 1.305907666683197021e-01 1.383548974990844727e+00
2.006000000000000000e+03 2.417267608642578125e+01 -2.123633623123168945e+00 5.866560935974121094e-01 -5.604185536503791809e-02 1.591842770576477051e-01 9.210837483406066895e-01
2.007000000000000000e+03 7.259967041015625000e+01 -1.357181549072265625e+01 -1.167383670806884766e+00 1.641416430473327637e+00 1.422098129987716675e-01 -7.142441272735595703e-01
2.008000000000000000e+03 7.206903839111328125e+01 -1.281251335144042969e+01 -1.294061541557312012e+00 1.953989267349243164e+00 1.979783028364181519e-01 -6.274628639221191406e-01
2.009000000000000000e+03 2.084340095520019531e+01 -3.117911100387573242e+00 -1.588982343673706055e-01 2.753100693225860596e-01 3.492354601621627808e-02 9.011342525482177734e-01
2.010000000000000000e+03 2.293726730346679688e+01 -4.273087024688720703e+00 5.364715307950973511e-02 2.598074078559875488e-01 9.403637051582336426e-02 1.210278272628784180e+00
2.011000000000000000e+03 5.829590606689453125e+01 -2.182554721832275391e+00 1.805913567543029785e+00 2.224624872207641602e+00 1.209161520004272461e+00 1.895135521888732910e+00
2.012000000000000000e+03 2.080386161804199219e+01 -4.059898853302001953e+00 -1.067352294921875000e-01 4.021504223346710205e-01 8.862455934286117554e-02 1.023202300071716309e+00
2.013000000000000000e+03 3.889612960815429688e+01 -2.168116950988769531e+01 1.854518532752990723e+00 8.791723251342773438e+00 3.193872690200805664e+00 -5.220063924789428711e-01
2.014000000000000000e+03 3.857923889160156250e+01 -7.776912689208984375e+00 -2.915043830871582031e+00 8.840717315673828125e+00 1.777701854705810547e+00 -1.429174423217773438e+00
2.015000000000000000e+03 1.257536315917968750e+01 -1.218815040588378906e+01 9.204526543617248535e-01 1.730855107307434082e+00 7.953923344612121582e-01 1.071800589561462402e-01
2.016000000000000000e+03 1.103921222686767578e+01 -1.416324424743652344e+01 9.317651987075805664e-01 1.494511008262634277e+00 7.278828620910644531e-01 3.840963542461395264e-02
2.017000000000000000e+03 7.604731750488281250e+01 -3.366820144653320312e+01 1.311510354280471802e-01 7.998393535614013672e+00 2.438863277435302734e+00 8.145721554756164551e-01
2.018000000000000000e+03 1.503082275390625000e+01 5.065939426422119141e+00 -1.118474057875573635e-03 -3.528572560753673315e-04 -4.413994029164314270e-04 2.381204103585332632e-04
2.019000000000000000e+03 1.699537658691406250e+01 5.364136219024658203e+00 -1.334796543233096600e-03 -5.205706693232059479e-04 -5.566101754084229469e-04 -3.396714164409786463e-04
2.020000000000000000e+03 7.811223602294921875e+01 -1.387428569793701172e+01 -1.415494084358215332e+00 1.428464984893798828e+01 3.860746622085571289e+00 2.202110767364501953e+00
2.021000000000000000e+03 7.705897521972656250e+01 -1.157512378692626953e+01 -1.192142486572265625e+00 1.137106990814208984e+01 3.053678035736083984e+00 -8.372764587402343750e-01
2.022000000000000000e+03 1.477322483062744141e+01 -2.887950325012207031e+01 -3.785818517208099365e-01 1.178321123123168945e+00 2.399217784404754639e-01 -1.338292658329010010e-01
2.023000000000000000e+03 3.526135635375976562e+01 1.279808998107910156e+01 8.089796304702758789e-01 1.072920036315917969e+01 3.461453914642333984e+00 -1.140927910804748535e+00
2.024000000000000000e+03 3.643447494506835938e+01 1.187330627441406250e+01 9.059575796127319336e-01 1.118047428131103516e+01 3.625929594039916992e+00 -3.021686375141143799e-01
2.025000000000000000e+03 1.203953647613525391e+01 9.553210258483886719e+00 -3.289444372057914734e-03 -8.463136036880314350e-04 -1.240727375261485577e-03 2.486613579094409943e-03
2.026000000000000000e+03 1.486641407012939453e+01 8.830430030822753906e+00 -2.022752771154046059e-03 3.145541762933135033e-03 3.368367033544927835e-04 1.879196031950414181e-03
2.027000000000000000e+03 7.560515594482421875e+01 -2.435167789459228516e+00 2.155859619379043579e-01 6.440880775451660156e+00 1.996940016746520996e+00 -1.752781391143798828e+00
2.028000000000000000e+03 5.168738174438476562e+01 2.395432662963867188e+01 1.008641906082630157e-02 8.767784833908081055e-01 2.660594582557678223e-01 7.352302074432373047e-01
2.029000000000000000e+03 6.351277160644531250e+01 -1.006217861175537109e+01 -3.169352054595947266e+00 -1.454653024673461914e+00 -1.387201547622680664e+00 6.627901196479797363e-01
2.030000000000000000e+03 6.164060592651367188e+01 -9.694408416748046875e+00 -2.945642232894897461e+00 -1.629550158977508545e-01 -9.325792193412780762e-01 7.653430700302124023e-01
2.031000000000000000e+03 5.139150142669677734e+00 -8.754666328430175781e+00 5.561362951993942261e-02 -3.145862519741058350e-01 -7.769179344177246094e-02 -5.970543622970581055e-01
2.032000000000000000e+03 4.084537982940673828e+00 9.630925178527832031e+00 -1.081491122022271156e-03 -1.322833704762160778e-03 -7.212974596768617630e-04 -1.256705028936266899e-03
2.033000000000000000e+03 6.035219669342041016e+00 -2.376116561889648438e+01 8.418570458889007568e-02 5.185558274388313293e-02 4.081238806247711182e-02 5.040375590324401855e-01
2.034000000000000000e+03 4.206676101684570312e+01 -1.806988716125488281e+01 2.074036836624145508e+00 8.923469543457031250e+00 3.299251794815063477e+00 -7.703283429145812988e-01
2.035000000000000000e+03 1.762723350524902344e+01 -2.941364288330078125e+01 -3.389911055564880371e-01 8.880705237388610840e-01 1.647238284349441528e-01 -3.213799595832824707e-01
2.036000000000000000e+03 5.275400543212890625e+01 -1.104400253295898438e+01 -9.806374311447143555e-01 1.164747357368469238e+00 5.523296818137168884e-02 2.165993690490722656e+00
2.037000000000000000e+03 5.480677032470703125e+01 -1.125489330291748047e+01 -1.495745182037353516e+00 9.805971384048461914e-01 -1.545444130897521973e-01 1.425920009613037109e+00
2.038000000000000000e+03 1.751580047607421875e+01 2.335967445373535156e+01 -3.646127879619598389e-01 -9.782739914953708649e-03 -1.123186573386192322e-01 -1.758778467774391174e-02
2.039000000000000000e+03 4.766716384887695312e+01 -9.671836853027343750e+00 -5.463953614234924316e-01 1.622658491134643555e+00 3.228789269924163818e-01 1.874871850013732910e+00
2.040000000000000000e+03 4.604058074951171875e+01 -8.523408889770507812e+00 -1.095302581787109375e+00 2.010601758956909180e+00 2.745897173881530762e-01 6.744588613510131836e-01
2.041000000000000000e+03 7.544236755371093750e+01 -9.317852020263671875e+00 -4.907018840312957764e-01 7.750621318817138672e+00 2.177975893020629883e+00 -1.949606299400329590e+00
2.042000000000000000e+03 6.996181488037109375e+01 -2.529579353332519531e+01 -5.980868339538574219e-01 1.392394781112670898e+00 2.382923811674118042e-01 2.689841985702514648e-01
2.043000000000000000e+03 7.545688629150390625e+01 1.808171272277832031e+01 1.381228417158126831e-01 4.423781394958496094e+00 1.368571281433105469e+00 6.021499261260032654e-02
2.044000000000000000e+03 7.101492309570312500e+01 -2.122437858581542969e+01 -4.956136643886566162e-01 1.175308823585510254e+00 2.039085477590560913e-01 -2.677998542785644531e-01
2.045000000000000000e+03 1.054447269439697266e+01 1.534944534301757812e+01 -2.158818952739238739e-02 -4.751256667077541351e-03 -7.901834324002265930e-03 -5.220169667154550552e-03
2.046000000000000000e+03 5.848814964294433594e+00 -1.977448463439941406e+01 3.092417418956756592e-01 -1.413904875516891479e-01 5.035537481307983398e-02 3.007096350193023682e-01
2.047000000000000000e+03 4.215195178985595703e+00 2.034402084350585938e+01 -3.133806958794593811e-02 -1.335843838751316071e-02 -1.340895239263772964e-02 4.080545529723167419e-02
2.048000000000000000e+03 4.315030097961425781e+00 5.559557914733886719e+00 2.432777080684900284e-03 -2.215244458056986332e-04 6.633757730014622211e-04 -1.899764989502727985e-03
2.049000000000000000e+03 2.957198333740234375e+01 -2.702119827270507812e+00 1.686256885528564453e+00 1.591588377952575684e+00 9.833535552024841309e-01 1.422029137611389160e+00
2.050000000000000000e+03 7.724149322509765625e+01 -2.135699081420898438e+01 -1.042565941810607910e+00 1.180438137054443359e+01 3.228544712066650391e+00 3.956263884902000427e-02
2.051000000000000000e+03 5.562572002410888672e+00 3.026026535034179688e+01 1.931608840823173523e-02 -8.228986710309982300e-02 -1.889213547110557556e-02 1.247911602258682251e-01
2.052000000000000000e+03 6.880753326416015625e+01 -1.126889038085937500e+01 -3.223388433456420898e+00 7.865263223648071289e-01 -7.310586571693420410e-01 -3.806039094924926758e-01
2.053000000000000000e+03 7.434880828857421875e+01 5.886582374572753906e+00 3.912028372287750244e-01 4.972422122955322266e+00 1.609087467193603516e+00 -1.008020520210266113e+00
2.054000000000000000e+03 7.559271240234375000e+01 7.266284465789794922e+00 2.468126267194747925e-01 4.959506988525390625e+00 1.561895847320556641e+00 -7.734204530715942383e-01
2.055000000000000000e+03 3.738420486450195312e+01 7.040854930877685547e+00 1.634906291961669922e+00 1.434886550903320312e+01 4.795131683349609375e+00 1.299344658851623535e+00
2.056000000000000000e+03 3.656804656982421875e+01 9.454113960266113281e+00 1.320333600044250488e+00 1.272180652618408203e+01 4.212642192840576172e+00 1.205002306960523129e-03
2.057000000000000000e+03 3.736575698852539062e+01 8.625270843505859375e+00 1.653329133987426758e+00 1.367712593078613281e+01 4.599136352539062500e+00 9.374818205833435059e-01
2.058000000000000000e+03 3.662765502929687500e+01 2.377519130706787109e+00 2.304182291030883789e+00 1.322396087646484375e+01 4.658442974090576172e+00 -2.729263305664062500e-01
2.059000000000000000e+03 4.289244174957275391e+00 -1.481046581268310547e+01 2.394518554210662842e-01 -7.052249908447265625e-01 -1.397319287061691284e-01 -1.910646259784698486e-01
2.060000000000000000e+03 3.185849952697753906e+01 -5.584049701690673828e+00 -1.285217642784118652e+00 4.005480766296386719e+00 8.160789012908935547e-01 -3.914557099342346191e-01
2.061000000000000000e+03 5.719620132446289062e+01 -7.632463455200195312e+00 -9.555103778839111328e-01 1.627991795539855957e+00 2.017444372177124023e-01 1.585420489311218262e+00
2.062000000000000000e+03 5.606330108642578125e+01 -5.894892692565917969e+00 -1.005660891532897949e-01 2.262399911880493164e+00 6.485501527786254883e-01 1.786883831024169922e+00
2.063000000000000000e+03 4.237938308715820312e+01 -1.657656860351562500e+01 1.637665510177612305e+00 8.425020217895507812e+00 3.018805742263793945e+00 -6.867111921310424805e-01
2.064000000000000000e+03 1.323420619964599609e+01 -2.216258811950683594e+01 3.955698609352111816e-01 2.508673667907714844e+00 8.712731003761291504e-01 8.117470145225524902e-02
2.065000000000000000e+03 3.991253137588500977e+00 1.214760208129882812e+01 -4.028618801385164261e-03 -1.710867509245872498e-03 -1.721845823340117931e-03 2.247174561489373446e-04
2.066000000000000000e+03 7.815329742431640625e+01 -3.453507995605468750e+01 8.400081656873226166e-03 9.385905265808105469e+00 2.818291664123535156e+00 4.317547380924224854e-01
2.067000000000000000e+03 7.875978088378906250e+01 -1.391403579711914062e+01 -6.949365139007568359e-01 1.227698707580566406e+01 3.474615097045898438e+00 2.435202121734619141e+00
2.068000000000000000e+03 7.397241210937500000e+01 1.425065994262695312e+01 3.077650964260101318e-01 4.637034893035888672e+00 1.483439922332763672e+00 -2.378067374229431152e-01
2.069000000000000000e+03 7.427320861816406250e+01 1.015343093872070312e+01 3.164381682872772217e-01 4.762687683105468750e+00 1.523737668991088867e+00 -5.912796258926391602e-01
2.070000000000000000e+03 7.370081329345703125e+01 2.341838836669921875e+01 1.114912144839763641e-02 4.585691928863525391e+00 1.379052281379699707e+00 2.331718355417251587e-01
2.071000000000000000e+03 7.490685272216796875e+01 2.389539337158203125e+01 -4.082622006535530090e-03 4.520070075988769531e+00 1.354796171188354492e+00 2.305023968219757080e-01
2.072000000000000000e+03 7.583949279785156250e+01 -6.285258769989013672e+00 1.505321450531482697e-02 7.466266155242919922e+00 2.244395732879638672e+00 -1.904315829277038574e+00
2.073000000000000000e+03 4.181365585327148438e+01 1.705027389526367188e+01 8.467684984207153320e-01 4.838246822357177734e+00 1.705504536628723145e+00 1.925366163253784180e+00
2.074000000000000000e+03 1.442175388336181641e+01 6.337391376495361328e+00 -1.586753176525235176e-03 1.518281991593539715e-03 -2.054136348306201398e-05 1.440139370970427990e-03
2.075000000000000000e+03 3.768642425537109375e+01 4.330898284912109375e+00 1.288654685020446777e+00 1.493153762817382812e+01 4.866057872772216797e+00 2.216688096523284912e-01
2.076000000000000000e+03 7.314006805419921875e+01 -3.195224571228027344e+01 2.046211808919906616e-01 5.560920715332031250e+00 1.729662537574768066e+00 1.018910169601440430e+00
2.077000000000000000e+03 6.618393707275390625e+01 -9.480447769165039062e+00 -2.584313154220581055e+00 -7.260223627090454102e-01 -9.931006431579589844e-01 -6.339107751846313477e-01
2.078000000000000000e+03 6.544670867919921875e+01 -8.479284286499023438e+00 -1.413093686103820801e+00 -6.969717741012573242e-01 -6.330196261405944824e-01 -5.427626967430114746e-01
2.079000000000000000e+03 1.491866207122802734e+01 -1.024988555908203125e+01 7.137401103973388672e-01 1.694464802742004395e+00 7.224614620208740234e-01 4.614522159099578857e-01
2.080000000000000000e+03 4.644437408447265625e+01 2.360054206848144531e+01 8.227231353521347046e-02 2.444558858871459961e+00 7.580493688583374023e-01 1.403474926948547363e+00
2.081000000000000000e+03 3.809891939163208008e+00 3.333266830444335938e+01 1.187236700206995010e-02 -2.142985016107559204e-01 -6.072784215211868286e-02 8.462136238813400269e-02
2.082000000000000000e+03 4.335793972015380859e+00 3.470515823364257812e+01 3.638568520545959473e-02 -1.877810657024383545e-01 -4.541861265897750854e-02 7.918438315391540527e-02
2.083000000000000000e+03 6.656539916992187500e+01 -2.677877616882324219e+01 -1.283119320869445801e+00 -8.574919700622558594e-01 -6.421833634376525879e-01 -9.512286782264709473e-01
2.084000000000000000e+03 4.419198989868164062e+01 -6.704127311706542969e+00 -2.250070333480834961e+00 2.317765712738037109e+00 2.030857652425765991e-02 -7.354856729507446289e-01
2.085000000000000000e+03 4.506544113159179688e+01 2.260053825378417969e+01 1.253177821636199951e-01 2.901849031448364258e+00 9.081500172615051270e-01 1.509092450141906738e+00
2.086000000000000000e+03 4.285620498657226562e+01 2.024617767333984375e+01 3.069209754467010498e-01 3.850690603256225586e+00 1.247283458709716797e+00 1.626433014869689941e+00
2.087000000000000000e+03 2.726962471008300781e+01 -5.654537200927734375e+00 -4.132166504859924316e-01 5.436284840106964111e-02 -1.076561436057090759e-01 1.830053329467773438e+00
2.088000000000000000e+03 5.300557327270507812e+01 -8.099555015563964844e+00 -1.001302957534790039e+00 1.918809771537780762e+00 2.752520442008972168e-01 2.491091728210449219e+00
2.089000000000000000e+03 4.326046752929687500e+01 -2.549373054504394531e+01 2.113082170486450195e+00 9.677485466003417969e+00 3.537170171737670898e+00 -1.249292254447937012e+00
2.090000000000000000e+03 3.773125076293945312e+01 -1.004585647583007812e+01 -1.552819848060607910e+00 9.024301528930664062e+00 2.241444587707519531e+00 -1.241256833076477051e+00
2.091000000000000000e+03 6.505123901367187500e+01 1.134067916870117188e+01 6.791673898696899414e-01 5.923773288726806641e+00 1.980882167816162109e+00 -7.097109686583280563e-03
2.092000000000000000e+03 7.610099029541015625e+01 -2.228347969055175781e+01 -7.420706152915954590e-01 9.765705108642578125e+00 2.707090139389038086e+00 7.510965466499328613e-01
2.093000000000000000e+03 3.549269485473632812e+01 1.151863193511962891e+01 8.679385185241699219e-01 1.143068695068359375e+01 3.689587593078613281e+00 -9.388363957405090332e-01
2.094000000000000000e+03 1.663711166381835938e+01 -9.652777671813964844e+00 6.195836067199707031e-01 1.472313404083251953e+00 6.275690793991088867e-01 7.408947944641113281e-01
2.095000000000000000e+03 6.583602905273437500e+01 1.961579704284667969e+01 7.257488369941711426e-01 5.386653423309326172e+00 1.833720684051513672e+00 -1.055579409003257751e-01
2.096000000000000000e+03 2.241030693054199219e+01 -7.098299980163574219e+00 -3.340063383802771568e-03 4.827860295772552490e-01 1.438338011503219604e-01 1.133365869522094727e+00
2.097000000000000000e+03 1.829167747497558594e+01 -2.790353393554687500e+01 -2.135843783617019653e-01 7.571799755096435547e-01 1.630786806344985962e-01 -3.068439364433288574e-01
2.098000000000000000e+03 6.603731536865234375e+01 4.960017204284667969e+00 1.124053835868835449e+00 4.162755012512207031e+00 1.586042761802673340e+00 -1.533630788326263428e-01
2.099000000000000000e+03 3.942373275756835938e+01 -5.171399593353271484e+00 -3.007592439651489258e+00 8.959643363952636719e+00 1.785615444183349609e+00 -1.916338086128234863e+00
2.100000000000000000e+03 4.097167968750000000e+01 -4.136945247650146484e+00 -2.882930755615234375e+00 7.625164031982421875e+00 1.422669887542724609e+00 -2.241478919982910156e+00
2.101000000000000000e+03 4.321021652221679688e+01 -3.205347442626953125e+01 -6.486367583274841309e-01 6.984277248382568359e+00 1.900692224502563477e+00 -5.068528056144714355e-01
2.102000000000000000e+03 5.880003356933593750e+01 -9.826855659484863281e+00 -2.319593906402587891e+00 8.845809698104858398e-01 -4.305039048194885254e-01 1.059457659721374512e+00
2.103000000000000000e+03 3.645987319946289062e+01 1.311106872558593750e+01 7.689113616943359375e-01 1.018292999267578125e+01 3.285552263259887695e+00 -3.349505066871643066e-01
2.104000000000000000e+03 3.036308288574218750e+01 -5.282606601715087891e+00 -2.829596400260925293e-01 1.728793144226074219e+00 4.337500631809234619e-01 6.992852091789245605e-01
2.105000000000000000e+03 6.184472274780273438e+01 2.248431921005249023e+00 1.460692882537841797e+00 3.294934749603271484e+00 1.426688194274902344e+00 1.276530146598815918e+00
2.106000000000000000e+03 2.047077941894531250e+01 -7.781347751617431641e+00 2.676485776901245117e-01 6.310440897941589355e-01 2.696077823638916016e-01 1.061036467552185059e+00
2.107000000000000000e+03 4.361057281494140625e+01 -8.083741188049316406e+00 -1.633634805679321289e+00 4.049469947814941406e+00 7.247505784034729004e-01 -9.683690071105957031e-01
2.108000000000000000e+03 4.492157745361328125e+01 -8.331913948059082031e+00 -1.317181825637817383e+00 2.725198268890380859e+00 4.224049448966979980e-01 -3.323122113943099976e-02
2.109000000000000000e+03 6.225020599365234375e+01 3.371878147125244141e+00 1.392249584197998047e+00 3.695801258087158203e+00 1.526415348052978516e+00 1.172257423400878906e+00
2.110000000000000000e+03 6.311833572387695312e+01 1.998750090599060059e+00 1.451693654060363770e+00 3.161828041076660156e+00 1.384056448936462402e+00 7.483932971954345703e-01
2.111000000000000000e+03 6.554257965087890625e+01 9.062549591064453125e+00 8.062646389007568359e-01 5.392977237701416016e+00 1.859772562980651855e+00 4.550560936331748962e-02
2.112000000000000000e+03 3.439059829711914062e+01 -2.872974586486816406e+01 8.920399844646453857e-02 4.636840820312500000e+00 1.417813539505004883e+00 1.466236829757690430e+00
2.113000000000000000e+03 3.651993942260742188e+01 -4.960121631622314453e+00 -2.582059860229492188e+00 9.508146286010742188e+00 2.077825784683227539e+00 -1.059705615043640137e+00
2.114000000000000000e+03 3.715076065063476562e+01 -2.145545721054077148e+00 -4.145383834838867188e-01 1.044466590881347656e+01 3.009038209915161133e+00 -9.637486934661865234e-01
2.115000000000000000e+03 5.689378738403320312e+01 -1.060018062591552734e+01 -2.101328611373901367e+00 1.169330000877380371e+00 -2.795996069908142090e-01 9.991377592086791992e-01
2.116000000000000000e+03 4.386476898193359375e+01 1.910949897766113281e+01 6.077100634574890137e-01 3.333982467651367188e+00 1.182507753372192383e+00 1.686431765556335449e+00
2.117000000000000000e+03 6.697261810302734375e+01 -8.674125671386718750e+00 -1.414453148841857910e+00 2.604238456115126610e-03 -4.235546588897705078e-01 -1.010109663009643555e+00
2.118000000000000000e+03 2.383072090148925781e+01 -3.217142868041992188e+01 -3.681265413761138916e-01 1.816307753324508667e-01 -5.594873055815696716e-02 -1.403276175260543823e-01
2.119000000000000000e+03 2.274539756774902344e+01 -3.304124450683593750e+01 -2.918688952922821045e-01 3.621683716773986816e-01 2.108983881771564484e-02 -2.286645621061325073e-01
2.120000000000000000e+03 4.362336635589599609e+00 -3.332417678833007812e+01 -8.981082588434219360e-02 -2.885807491838932037e-02 -3.560066968202590942e-02 2.223674505949020386e-01
2.121000000000000000e+03 4.455318927764892578e+00 3.731805038452148438e+01 3.750355914235115051e-02 -2.394145429134368896e-01 -6.057329475879669189e-02 6.953381001949310303e-02
2.122000000000000000e+03 3.864780044555664062e+01 -1.591527271270751953e+01 1.474177122116088867e+00 9.203486442565917969e+00 3.203299283981323242e+00 -1.749613404273986816e+00
2.123000000000000000e+03 3.882813262939453125e+01 -1.363346862792968750e+01 7.244873642921447754e-01 8.741095542907714844e+00 2.839674949645996094e+00 -1.533775925636291504e+00
2.124000000000000000e+03 7.541595458984375000e+01 -3.743757629394531250e+01 1.758511364459991455e-01 7.379756450653076172e+00 2.266682147979736328e+00 3.464336991310119629e-01
2.125000000000000000e+03 4.493466567993164062e+01 -1.429054546356201172e+01 7.964035272598266602e-01 6.286873340606689453e+00 2.124983072280883789e+00 7.970336675643920898e-01
2.126000000000000000e+03 3.828207397460937500e+01 1.418069171905517578e+01 7.728237509727478027e-01 8.790375709533691406e+00 2.868959665298461914e+00 7.952992916107177734e-01
2.127000000000000000e+03 4.745791244506835938e+01 -7.916352272033691406e+00 -1.337019205093383789e+00 8.637175559997558594e-01 -1.419904977083206177e-01 1.578545212745666504e+00
2.128000000000000000e+03 6.884620189666748047e+00 -3.552129745483398438e+01 -1.615328639745712280e-01 2.495807409286499023e-01 2.641436085104942322e-02 1.730427742004394531e-01
2.129000000000000000e+03 3.604204940795898438e+01 -8.271624565124511719e+00 -2.924060583114624023e+00 9.120425224304199219e+00 1.858909368515014648e+00 -1.215312838554382324e+00
2.130000000000000000e+03 3.466047668457031250e+01 -5.815154552459716797e+00 -2.550327301025390625e+00 8.191865921020507812e+00 1.692461490631103516e+00 -9.987528324127197266e-01
2.131000000000000000e+03 4.926999282836914062e+01 -1.195494270324707031e+01 1.018414571881294250e-01 1.698719978332519531e+00 5.401684045791625977e-01 2.344925642013549805e+00
2.132000000000000000e+03 6.565719604492187500e+01 -3.011344528198242188e+01 -6.094851493835449219e-01 -1.055759191513061523e-02 -1.860128194093704224e-01 -1.746083050966262817e-01
2.133000000000000000e+03 3.904071044921875000e+01 -2.381809425354003906e+01 1.799602985382080078e+00 8.198529243469238281e+00 2.999439477920532227e+00 -1.841718107461929321e-01
2.134000000000000000e+03 4.118158340454101562e+01 -2.378937530517578125e+01 2.139503002166748047e+00 8.998111724853515625e+00 3.341284513473510742e+00 -7.792887687683105469e-01
2.135000000000000000e+03 3.422631835937500000e+01 -2.287482738494873047e+00 -3.311422839760780334e-02 8.705978393554687500e+00 2.601859092712402344e+00 4.397934079170227051e-01
2.136000000000000000e+03 3.858720016479492188e+01 1.216572570800781250e+01 1.083176612854003906e+00 1.001604080200195312e+01 3.329765081405639648e+00 1.282374978065490723e+00
2.137000000000000000e+03 4.050325775146484375e+01 -1.766950607299804688e+01 1.853120326995849609e+00 8.831943511962890625e+00 3.205519199371337891e+00 -1.307241916656494141e+00
2.138000000000000000e+03 3.522488784790039062e+01 2.068832015991210938e+01 2.642290890216827393e-01 6.550816535949707031e+00 2.044513702392578125e+00 -1.925621628761291504e-01
2.139000000000000000e+03 3.472854614257812500e+01 2.234359359741210938e+01 1.662834081798791885e-03 5.930723190307617188e+00 1.779715895652770996e+00 -1.566831767559051514e-01
2.140000000000000000e+03 4.212629699707031250e+01 -2.501533317565917969e+01 2.080879211425781250e+00 9.028341293334960938e+00 3.332766056060791016e+00 -7.036111950874328613e-01
2.141000000000000000e+03 1.152745342254638672e+01 -1.536134147644042969e+01 9.797549247741699219e-01 1.876264333724975586e+00 8.568057417869567871e-01 2.360881567001342773e-01
2.142000000000000000e+03 1.141988277435302734e+01 -1.813366699218750000e+01 8.264926075935363770e-01 2.081814527511596680e+00 8.724921345710754395e-01 2.489677667617797852e-01
2.143000000000000000e+03 3.351653671264648438e+01 -5.262830257415771484e+00 -1.904229998588562012e+00 6.941399574279785156e+00 1.511150836944580078e+00 -5.020766258239746094e-01
2.144000000000000000e+03 4.949617385864257812e+01 2.490236091613769531e+01 1.285001635551452637e-01 1.579562425613403320e+00 5.124188065528869629e-01 1.084016561508178711e+00
2.145000000000000000e+03 7.564744567871093750e+01 3.010622501373291016e+00 2.631788551807403564e-01 5.494208335876464844e+00 1.727216243743896484e+00 -1.184697866439819336e+00
2.146000000000000000e+03 2.546551132202148438e+01 -6.697559833526611328e+00 -5.735979676246643066e-01 4.972373545169830322e-01 -2.290818281471729279e-02 1.335711479187011719e+00
2.147000000000000000e+03 2.555737686157226562e+01 -7.498402118682861328e+00 -8.382591009140014648e-01 4.476073980331420898e-01 -1.171955168247222900e-01 9.797970056533813477e-01
2.148000000000000000e+03 3.028555870056152344e+01 2.778454971313476562e+01 -4.379241168498992920e-01 3.742573976516723633e+00 9.913949370384216309e-01 -9.255877733230590820e-01
2.149000000000000000e+03 2.811327743530273438e+01 2.654615020751953125e+01 -3.176287934184074402e-02 2.847686052322387695e+00 8.447769284248352051e-01 -1.345107197761535645e+00
2.150000000000000000e+03 4.344426155090332031e+00 -1.610702514648437500e+01 2.451941519975662231e-01 -6.919901371002197266e-01 -1.340387910604476929e-01 -6.878136843442916870e-02
2.151000000000000000e+03 3.612111282348632812e+01 -3.039104270935058594e+01 -2.782639563083648682e-01 5.407617568969726562e+00 1.538806080818176270e+00 1.200679779052734375e+00
2.152000000000000000e+03 1.021362495422363281e+01 1.644581604003906250e+01 -3.316173329949378967e-02 -1.245746389031410217e-03 -1.032224390655755997e-02 -8.238018490374088287e-03
2.153000000000000000e+03 5.919651794433593750e+01 -2.813466787338256836e+00 1.363066077232360840e+00 1.801721930503845215e+00 9.494364261627197266e-01 1.522872090339660645e+00
2.154000000000000000e+03 6.521022796630859375e+01 1.514624500274658203e+01 8.393939733505249023e-01 6.186210155487060547e+00 2.107681274414062500e+00 -4.764500260353088379e-01
2.155000000000000000e+03 6.681390380859375000e+01 -2.917477416992187500e+01 -6.929231286048889160e-01 2.032923102378845215e-01 -1.468892395496368408e-01 -3.795507550239562988e-02
2.156000000000000000e+03 4.019692993164062500e+01 -1.948691368103027344e+01 2.015455961227416992e+00 9.100643157958984375e+00 3.334829568862915039e+00 -1.110124945640563965e+00
2.157000000000000000e+03 3.553284072875976562e+01 -1.782966256141662598e-01 1.369484066963195801e+00 1.111000347137451172e+01 3.743846416473388672e+00 3.807299956679344177e-02
2.158000000000000000e+03 1.736984443664550781e+01 -3.243038177490234375e+01 -3.838953971862792969e-01 8.144381642341613770e-01 1.291628330945968628e-01 -3.003724217414855957e-01
2.159000000000000000e+03 3.433682250976562500e+01 -3.198656558990478516e+00 -8.152118921279907227e-01 8.486655235290527344e+00 2.301433086395263672e+00 9.243058040738105774e-03
2.160000000000000000e+03 7.443953704833984375e+01 -1.345896816253662109e+01 -6.083410978317260742e-01 5.532212257385253906e+00 1.477161288261413574e+00 -3.141416311264038086e+00
2.161000000000000000e+03 7.426121520996093750e+01 -1.384643554687500000e+01 -5.624937415122985840e-01 4.240749835968017578e+00 1.103476881980895996e+00 -2.904978513717651367e+00
2.162000000000000000e+03 7.332100677490234375e+01 -1.388176536560058594e+01 -6.807114481925964355e-01 1.802059292793273926e+00 3.364043831825256348e-01 -1.528861522674560547e+00
2.163000000000000000e+03 7.599900817871093750e+01 -1.415281295776367188e+01 -2.187672376632690430e+00 1.351941299438476562e+01 3.399522066116333008e+00 -3.960645198822021484e+00
2.164000000000000000e+03 7.537686157226562500e+01 -1.418773651123046875e+01 -1.120017170906066895e+00 9.298647880554199219e+00 2.453589200973510742e+00 -4.588191032409667969e+00
2.165000000000000000e+03 7.665863800048828125e+01 -1.422140789031982422e+01 -2.872756481170654297e+00 1.664765357971191406e+01 4.132469177246093750e+00 -1.626425862312316895e+00
2.166000000000000000e+03 7.669152832031250000e+01 -1.368225097656250000e+01 -2.823718547821044922e+00 1.486672687530517578e+01 3.612902402877807617e+00 -1.303014636039733887e+00
2.167000000000000000e+03 7.614685821533203125e+01 -1.814233779907226562e+01 -1.307731747627258301e+00 1.570198822021484375e+01 4.318276882171630859e+00 4.022199630737304688e+00
2.168000000000000000e+03 7.694296264648437500e+01 -1.433423519134521484e+01 -2.783235073089599609e+00 1.745968627929687500e+01 4.402935504913330078e+00 -3.660326600074768066e-01
2.169000000000000000e+03 7.791570281982421875e+01 -1.316770839691162109e+01 -1.928779006004333496e+00 1.367662620544433594e+01 3.524354219436645508e+00 1.139745116233825684e+00
2.170000000000000000e+03 7.411495971679687500e+01 -1.852099609375000000e+01 9.686265587806701660e-01 3.316833019256591797e+00 1.285637855529785156e+00 2.104097366333007812e+00
2.171000000000000000e+03 7.558042144775390625e+01 -2.032647323608398438e+01 -9.701528549194335938e-01 9.809323310852050781e+00 2.651751041412353516e+00 1.808108806610107422e+00
2.172000000000000000e+03 7.547465515136718750e+01 -1.832501602172851562e+01 1.393852084875106812e-01 1.019839763641357422e+01 3.101334810256958008e+00 4.770052433013916016e+00
2.173000000000000000e+03 7.332747650146484375e+01 -1.892300224304199219e+01 6.126008033752441406e-01 2.273356676101684570e+00 8.657872080802917480e-01 9.391201734542846680e-01
2.174000000000000000e+03 7.290312957763671875e+01 -1.956341743469238281e+01 4.173471033573150635e-01 2.341537237167358398e+00 8.276653289794921875e-01 6.377727389335632324e-01
2.175000000000000000e+03 7.367077636718750000e+01 -1.981746864318847656e+01 3.273391723632812500e-01 4.206434249877929688e+00 1.360132098197937012e+00 1.443518757820129395e+00
2.176000000000000000e+03 7.360705566406250000e+01 -1.421165084838867188e+01 -7.977430820465087891e-01 2.086684226989746094e+00 3.866823613643646240e-01 -1.595957636833190918e+00
2.177000000000000000e+03 7.382968139648437500e+01 -1.417992591857910156e+01 -6.798402667045593262e-01 2.365157604217529297e+00 5.055951476097106934e-01 -2.004886150360107422e+00
2.178000000000000000e+03 7.326125335693359375e+01 -1.860638999938964844e+01 6.645186543464660645e-01 1.631240248680114746e+00 6.887276768684387207e-01 7.939273715019226074e-01
2.179000000000000000e+03 7.264333343505859375e+01 -2.025952148437500000e+01 1.748971045017242432e-01 2.688218832015991211e+00 8.589347600936889648e-01 5.310232639312744141e-01
2.180000000000000000e+03 7.632391357421875000e+01 -1.914124107360839844e+01 -1.856650471687316895e+00 1.370850181579589844e+01 3.555555343627929688e+00 1.879464387893676758e+00
2.181000000000000000e+03 7.781745910644531250e+01 -1.985831451416015625e+01 -1.410966038703918457e+00 1.324896049499511719e+01 3.551398277282714844e+00 -1.294686198234558105e+00
2.182000000000000000e+03 2.438546180725097656e+01 -2.950772762298583984e+00 5.986238718032836914e-01 5.452930182218551636e-02 1.959459483623504639e-01 1.161716938018798828e+00
2.183000000000000000e+03 7.742956542968750000e+01 -1.261865329742431641e+01 -1.986019492149353027e+00 1.298870754241943359e+01 3.300806522369384766e+00 1.613377593457698822e-02
2.184000000000000000e+03 7.653791046142578125e+01 -1.273737812042236328e+01 -2.142786026000976562e+00 1.219515609741210938e+01 3.015710830688476562e+00 -1.417885661125183105e+00
2.185000000000000000e+03 7.304710388183593750e+01 -1.375962066650390625e+01 -8.391562104225158691e-01 2.035050868988037109e+00 3.587684333324432373e-01 -1.059465408325195312e+00
2.186000000000000000e+03 7.269827270507812500e+01 -1.301242542266845703e+01 -8.804579377174377441e-01 2.411772966384887695e+00 4.593944847583770752e-01 -1.035311341285705566e+00
2.187000000000000000e+03 1.681797981262207031e+01 4.020811557769775391e+00 3.038172144442796707e-04 2.311234129592776299e-04 1.604821882210671902e-04 2.256081934319809079e-04
2.188000000000000000e+03 9.081757545471191406e+00 -4.597964286804199219e+00 -4.206613004207611084e-01 1.517154127359390259e-01 -8.068376779556274414e-02 -5.069587230682373047e-01
2.189000000000000000e+03 1.291467094421386719e+01 7.428994655609130859e+00 2.079809550195932388e-03 9.868838824331760406e-04 9.200080530717968941e-04 7.613892666995525360e-04
2.190000000000000000e+03 7.716744422912597656e+00 -3.958391904830932617e+00 -4.381518363952636719e-01 2.109877951443195343e-02 -1.251159161329269409e-01 -5.247893333435058594e-01
2.191000000000000000e+03 8.481104850769042969e+00 -4.523531436920166016e+00 -4.050904214382171631e-01 7.767560333013534546e-02 -9.822444617748260498e-02 -5.353766679763793945e-01
2.192000000000000000e+03 1.405894470214843750e+01 4.678333759307861328e+00 -5.635886918753385544e-04 -6.245475378818809986e-04 -3.564408689271658659e-04 1.152933808043599129e-03
2.193000000000000000e+03 5.553007125854492188e+00 -4.310171604156494141e+00 -2.638047039508819580e-01 -1.062258929014205933e-01 -1.110091730952262878e-01 -5.316721200942993164e-01
2.194000000000000000e+03 6.479454994201660156e+00 -4.986573696136474609e+00 -2.544262707233428955e-01 -4.458834975957870483e-02 -8.970438688993453979e-02 -5.888655185699462891e-01
2.195000000000000000e+03 2.219926452636718750e+01 -3.798286437988281250e+00 3.496555238962173462e-02 2.942569553852081299e-01 9.876675158739089966e-02 1.114210367202758789e+00
2.196000000000000000e+03 4.759468555450439453e+00 -4.412387847900390625e+00 -2.055909931659698486e-01 -1.693811863660812378e-01 -1.124916523694992065e-01 -5.046017169952392578e-01
2.197000000000000000e+03 7.684043884277343750e+01 -1.226548576354980469e+01 -1.765724539756774902e+00 1.195759868621826172e+01 3.057562112808227539e+00 -9.216854572296142578e-01
2.198000000000000000e+03 1.175209045410156250e+01 4.704031944274902344e+00 1.591284526512026787e-03 4.770927480421960354e-04 6.205131649039685726e-04 4.782339965458959341e-04
2.199000000000000000e+03 1.031924438476562500e+01 4.771923065185546875e+00 1.997305778786540031e-03 -1.630273909540846944e-04 5.502835265360772610e-04 5.962151335552334785e-04
2.200000000000000000e+03 1.483180236816406250e+01 4.477383136749267578e+00 7.489409763365983963e-04 8.295276784338057041e-04 4.735405964311212301e-04 7.808612426742911339e-04
2.201000000000000000e+03 1.247315788269042969e+01 4.686975955963134766e+00 -4.669672343879938126e-04 -8.714743889868259430e-04 -4.015324811916798353e-04 1.423435285687446594e-03
2.202000000000000000e+03 9.578486442565917969e+00 4.794697761535644531e+00 2.310927084181457758e-05 -1.571525470353662968e-03 -4.645248409360647202e-04 7.930697174742817879e-04
2.203000000000000000e+03 1.506067943572998047e+01 -4.668867111206054688e+00 -4.655164778232574463e-01 5.184424519538879395e-01 1.587779074907302856e-02 2.440932095050811768e-01
2.204000000000000000e+03 1.213812541961669922e+01 -4.624635219573974609e+00 -5.150300860404968262e-01 3.616030216217041016e-01 -4.602812230587005615e-02 -2.310210615396499634e-01
2.205000000000000000e+03 1.142183399200439453e+01 -4.662918567657470703e+00 -4.848458468914031982e-01 2.985741496086120605e-01 -5.588150769472122192e-02 -3.082391619682312012e-01
2.206000000000000000e+03 5.396953105926513672e+00 6.366119384765625000e+00 2.152307890355587006e-03 -4.688386688940227032e-04 5.050408071838319302e-04 -1.911900937557220459e-03
2.207000000000000000e+03 5.842522621154785156e+00 4.359499931335449219e+00 3.537065349519252777e-04 -1.192948082461953163e-03 -2.517724642530083656e-04 -3.693256876431405544e-04
2.208000000000000000e+03 8.068026542663574219e+00 4.093290328979492188e+00 1.941563794389367104e-03 -2.896145742852240801e-04 4.955847398377954960e-04 -1.683035807218402624e-04
2.209000000000000000e+03 5.973324775695800781e+00 5.213712692260742188e+00 1.736347447149455547e-03 -9.813063661567866802e-05 4.914650344289839268e-04 -1.556948060169816017e-03
2.210000000000000000e+03 1.065892028808593750e+01 -4.740345001220703125e+00 -4.535547792911529541e-01 2.793188095092773438e-01 -5.227079614996910095e-02 -4.029100239276885986e-01
2.211000000000000000e+03 7.403743743896484375e+00 4.910862445831298828e+00 1.840953831560909748e-03 -3.938496520277112722e-04 4.341312742326408625e-04 -2.842225367203354836e-04
2.212000000000000000e+03 8.840930938720703125e+00 4.832216262817382812e+00 2.223704243078827858e-03 -5.710284458473324776e-04 4.958027275279164314e-04 3.764314533327706158e-05
2.213000000000000000e+03 1.914022254943847656e+01 -4.781702518463134766e+00 -2.069126516580581665e-01 4.887652695178985596e-01 8.455578237771987915e-02 8.806268572807312012e-01
2.214000000000000000e+03 1.802019309997558594e+01 -5.447974205017089844e+00 -2.218480110168457031e-01 6.343823075294494629e-01 1.237602978944778442e-01 7.909021377563476562e-01
2.215000000000000000e+03 1.669985389709472656e+01 -4.014635562896728516e+00 -5.012257695198059082e-01 4.060309529304504395e-01 -2.855844423174858093e-02 4.862356483936309814e-01
2.216000000000000000e+03 1.357885742187500000e+01 -4.644015312194824219e+00 -5.045886635780334473e-01 4.235685467720031738e-01 -2.430602721869945526e-02 -5.503745749592781067e-03
2.217000000000000000e+03 2.573694038391113281e+01 -5.133884906768798828e+00 -9.298031218349933624e-03 2.132461071014404297e-01 6.118442490696907043e-02 1.693013310432434082e+00
2.218000000000000000e+03 1.758075904846191406e+01 -4.802131652832031250e+00 -3.103717565536499023e-01 5.550744533538818359e-01 7.341080158948898315e-02 6.822342276573181152e-01
2.219000000000000000e+03 1.674425506591796875e+01 -4.873919010162353516e+00 -3.574054539203643799e-01 5.792585015296936035e-01 6.655590981245040894e-02 5.565321445465087891e-01
2.220000000000000000e+03 4.392163753509521484e+00 6.648805141448974609e+00 -5.552442744374275208e-04 -1.044515520334243774e-03 -4.799279267899692059e-04 -1.003750017844140530e-03
2.221000000000000000e+03 7.015293121337890625e+01 -1.034098434448242188e+01 -1.615214943885803223e+00 1.857520580291748047e+00 7.269169390201568604e-02 -1.110077738761901855e+00
2.222000000000000000e+03 6.997332000732421875e+01 -1.165875530242919922e+01 -2.151798725128173828e+00 1.465977311134338379e+00 -2.057463973760604858e-01 -2.527199983596801758e-01
2.223000000000000000e+03 4.426615715026855469e+00 -7.764018535614013672e+00 5.709087010473012924e-03 -3.878304660320281982e-01 -1.146364137530326843e-01 -5.816605091094970703e-01
2.224000000000000000e+03 4.866830825805664062e+00 -5.352571487426757812e+00 -1.502235084772109985e-01 -2.048097252845764160e-01 -1.065099686384201050e-01 -5.575066804885864258e-01
2.225000000000000000e+03 2.053275489807128906e+01 -4.813056945800781250e+00 -1.257595121860504150e-01 4.402338266372680664e-01 9.434229135513305664e-02 1.039569854736328125e+00
2.226000000000000000e+03 7.226403808593750000e+01 -1.223186111450195312e+01 -9.758844375610351562e-01 2.641731739044189453e+00 4.997542202472686768e-01 -9.812574386596679688e-01
2.227000000000000000e+03 2.945157814025878906e+01 -5.593267917633056641e+00 -4.308884143829345703e-01 9.082149267196655273e-01 1.431979537010192871e-01 1.136314749717712402e+00
2.228000000000000000e+03 5.750817489624023438e+01 -4.539836406707763672e+00 8.499760627746582031e-01 1.957234501838684082e+00 8.421631455421447754e-01 1.676440954208374023e+00
2.229000000000000000e+03 1.474964523315429688e+01 -9.264464378356933594e+00 4.005588293075561523e-01 1.388219356536865234e+00 5.366334915161132812e-01 3.161639273166656494e-01
2.230000000000000000e+03 9.618415832519531250e+00 -2.077475738525390625e+01 5.008025765419006348e-01 1.179684638977050781e+00 5.041461586952209473e-01 4.389251172542572021e-01
2.231000000000000000e+03 1.134121417999267578e+01 -2.258971405029296875e+01 2.561942934989929199e-01 1.724019646644592285e+00 5.940641760826110840e-01 3.673457801342010498e-01
2.232000000000000000e+03 9.110506057739257812e+00 1.595774269104003906e+01 -3.063870221376419067e-02 2.104248851537704468e-03 -8.560336194932460785e-03 -9.744821581989526749e-04
2.233000000000000000e+03 9.757380485534667969e+00 1.278988456726074219e+01 -3.730339230969548225e-03 -3.616652917116880417e-03 -2.204097574576735497e-03 -1.319636590778827667e-03
2.234000000000000000e+03 1.283916759490966797e+01 -1.114861392974853516e+01 7.309276461601257324e-01 1.583041429519653320e+00 6.941907405853271484e-01 3.217425197362899780e-02
2.235000000000000000e+03 1.100552749633789062e+01 -1.252426433563232422e+01 7.760315537452697754e-01 1.170768618583679199e+00 5.840400457382202148e-01 -1.749771237373352051e-01
2.236000000000000000e+03 5.386457061767578125e+01 -1.132743358612060547e+01 -1.242598891258239746e+00 9.881559610366821289e-01 -7.633285969495773315e-02 1.793552041053771973e+00
2.237000000000000000e+03 5.392905426025390625e+01 -9.015356063842773438e+00 -1.376958489418029785e+00 1.868286609649658203e+00 1.473984271287918091e-01 2.324778795242309570e+00
2.238000000000000000e+03 3.999524307250976562e+01 -1.654375076293945312e+01 1.586138129234313965e+00 8.707221984863281250e+00 3.088007926940917969e+00 -1.482642769813537598e+00
2.239000000000000000e+03 2.166872215270996094e+01 -4.529189109802246094e+00 -4.931731522083282471e-02 3.558675646781921387e-01 9.196507185697555542e-02 1.098323822021484375e+00
2.240000000000000000e+03 4.044572448730468750e+01 -1.481057739257812500e+01 1.042649269104003906e+00 8.248554229736328125e+00 2.787361145019531250e+00 -1.379531025886535645e+00
2.241000000000000000e+03 3.880685806274414062e+01 -1.235573577880859375e+01 2.417665161192417145e-02 8.468009948730468750e+00 2.547656059265136719e+00 -1.335045456886291504e+00
2.242000000000000000e+03 4.143698120117187500e+01 -6.719797611236572266e+00 -2.635784387588500977e+00 6.450276851654052734e+00 1.144347786903381348e+00 -1.972509980201721191e+00
2.243000000000000000e+03 4.238398742675781250e+01 -7.485172271728515625e+00 -2.237501144409179688e+00 5.269773483276367188e+00 9.096817374229431152e-01 -1.457513928413391113e+00
2.244000000000000000e+03 3.823420333862304688e+01 -3.694226980209350586e+00 -1.765145897865295410e+00 1.004177856445312500e+01 2.482989788055419922e+00 -1.360649585723876953e+00
2.245000000000000000e+03 7.110228729248046875e+01 -2.320126724243164062e+01 -5.074665546417236328e-01 2.020141601562500000e+00 4.538025557994842529e-01 1.951684951782226562e-01
2.246000000000000000e+03 7.197065734863281250e+01 -2.072814750671386719e+01 -9.962435066699981689e-02 2.053268909454345703e+00 5.860933661460876465e-01 1.198783963918685913e-01
2.247000000000000000e+03 4.904297637939453125e+01 -1.027141761779785156e+01 -3.873550593852996826e-01 1.425786018371582031e+00 3.115293085575103760e-01 2.378382205963134766e+00
2.248000000000000000e+03 5.214762878417968750e+01 -8.915565490722656250e+00 -1.226739406585693359e+00 1.780129432678222656e+00 1.660170257091522217e-01 2.772258043289184570e+00
2.249000000000000000e+03 7.297445678710937500e+01 -2.125609159469604492e+00 4.932813942432403564e-01 4.860219478607177734e+00 1.606050252914428711e+00 -1.962169885635375977e+00
2.250000000000000000e+03 7.706759643554687500e+01 -2.060514640808105469e+01 -1.509996771812438965e+00 1.246318435668945312e+01 3.285956144332885742e+00 1.134869083762168884e-01
2.251000000000000000e+03 1.305391407012939453e+01 8.400475502014160156e+00 -3.306067781522870064e-03 2.728119143284857273e-04 -9.099767776206135750e-04 3.208493813872337341e-03
2.252000000000000000e+03 1.315500354766845703e+01 9.507292747497558594e+00 3.179433755576610565e-03 1.531408168375492096e-03 1.413252553902566433e-03 1.553366309963166714e-03
2.253000000000000000e+03 2.746220207214355469e+01 -2.403172731399536133e+00 1.824401378631591797e+00 1.592942923307418823e-01 5.951086878776550293e-01 1.376234173774719238e+00
2.254000000000000000e+03 7.638668823242187500e+01 -9.820018768310546875e+00 -6.246596574783325195e-01 9.303662300109863281e+00 2.603700876235961914e+00 -1.562000393867492676e+00
2.255000000000000000e+03 7.463036346435546875e+01 -2.246111297607421875e+01 -4.989880323410034180e-01 7.193002700805664062e+00 2.008204460144042969e+00 1.094473361968994141e+00
2.256000000000000000e+03 7.611416625976562500e+01 -2.090200233459472656e+01 -1.118956327438354492e+00 1.062939357757568359e+01 2.853131055831909180e+00 9.708549976348876953e-01
2.257000000000000000e+03 3.069319343566894531e+01 -3.961320400238037109e+00 5.912634134292602539e-01 2.620392322540283203e+00 9.634966850280761719e-01 1.032619237899780273e+00
2.258000000000000000e+03 5.126341342926025391e+00 1.221875762939453125e+01 -5.859587108716368675e-04 -2.284117275848984718e-03 -8.610227960161864758e-04 -2.641930012032389641e-03
2.259000000000000000e+03 3.672108078002929688e+01 1.099170494079589844e+01 1.090373158454895020e+00 1.164857006072998047e+01 3.821682929992675781e+00 -4.740024730563163757e-02
2.260000000000000000e+03 7.584960174560546875e+01 -7.447672367095947266e+00 -1.638895124197006226e-01 7.763987541198730469e+00 2.280029296875000000e+00 -1.899788618087768555e+00
2.261000000000000000e+03 7.377288055419921875e+01 -8.962834358215332031e+00 -4.882101416587829590e-01 5.618709087371826172e+00 1.539149641990661621e+00 -2.149513483047485352e+00
2.262000000000000000e+03 6.668196868896484375e+01 9.239972114562988281e+00 8.254289031028747559e-01 5.190210342407226562e+00 1.804691791534423828e+00 -2.271598428487777710e-01
2.263000000000000000e+03 1.454668426513671875e+01 7.572881221771240234e+00 -2.667895285412669182e-03 2.243000548332929611e-03 -1.274684036616235971e-04 1.345832017250359058e-03
2.264000000000000000e+03 6.614812850952148438e+00 -1.139971637725830078e+01 3.079819381237030029e-01 -3.407840803265571594e-02 8.217106014490127563e-02 -5.126847624778747559e-01
2.265000000000000000e+03 4.218023300170898438e+00 8.433388710021972656e+00 1.258780597709119320e-03 -2.331825526198372245e-04 3.076794382650405169e-04 -2.336392877623438835e-03
2.266000000000000000e+03 4.484236907958984375e+01 -1.121626663208007812e+01 -3.727797269821166992e-01 4.561268329620361328e+00 1.256546616554260254e+00 3.331401050090789795e-01
2.267000000000000000e+03 7.434715270996093750e+01 8.810646057128906250e+00 3.447183072566986084e-01 4.819623947143554688e+00 1.549302697181701660e+00 -7.078555822372436523e-01
2.268000000000000000e+03 7.559357452392578125e+01 1.004868984222412109e+01 2.195186167955398560e-01 4.720612049102783203e+00 1.482039213180541992e+00 -5.263108611106872559e-01
2.269000000000000000e+03 2.454881286621093750e+01 -5.753744125366210938e+00 -1.776127517223358154e-01 4.027449488639831543e-01 6.753966212272644043e-02 1.442777037620544434e+00
2.270000000000000000e+03 6.080098342895507812e+01 -8.693668365478515625e+00 -2.072749137878417969e+00 3.861669600009918213e-01 -5.059746503829956055e-01 1.211222529411315918e+00
2.271000000000000000e+03 2.141268920898437500e+01 -7.521919727325439453e+00 1.526575386524200439e-01 5.741368532180786133e-01 2.180383205413818359e-01 1.071523904800415039e+00
2.272000000000000000e+03 6.700109863281250000e+01 -1.032854461669921875e+01 -3.051892757415771484e+00 -4.528252184391021729e-01 -1.051415443420410156e+00 -4.460378587245941162e-01
2.273000000000000000e+03 6.954249572753906250e+01 -1.095126914978027344e+01 -2.442054271697998047e+00 1.405938863754272461e+00 -3.108346164226531982e-01 -6.009475588798522949e-01
2.274000000000000000e+03 6.907286071777343750e+01 -1.044259929656982422e+01 -2.150733470916748047e+00 9.838919639587402344e-01 -3.500524759292602539e-01 -9.286091923713684082e-01
2.275000000000000000e+03 7.378264617919921875e+01 -2.268108177185058594e+01 -3.333228528499603271e-01 5.924108028411865234e+00 1.677235603332519531e+00 9.383901357650756836e-01
2.276000000000000000e+03 4.295158386230468750e+00 2.167197036743164062e+01 -2.494376339018344879e-02 -2.457823418080806732e-02 -1.485659927129745483e-02 5.732446163892745972e-02
2.277000000000000000e+03 4.836408615112304688e+01 -1.063300895690917969e+01 -3.050192892551422119e-01 1.833117723464965820e+00 4.584295451641082764e-01 2.141424894332885742e+00
2.278000000000000000e+03 5.028687667846679688e+01 -1.019548892974853516e+01 -6.114667654037475586e-01 1.172937870025634766e+00 1.684413254261016846e-01 2.736172199249267578e+00
2.279000000000000000e+03 1.853567600250244141e+00 3.587142562866210938e+01 9.631691500544548035e-03 -3.583968579769134521e-01 -1.046295538544654846e-01 1.978696323931217194e-02
2.280000000000000000e+03 4.325747299194335938e+01 -1.612166213989257812e+01 1.575076580047607422e+00 7.998366355895996094e+00 2.872032880783081055e+00 -4.019884467124938965e-01
2.281000000000000000e+03 4.075235748291015625e+01 -2.137413787841796875e+01 2.197729587554931641e+00 9.143976211547851562e+00 3.402511835098266602e+00 -9.121872186660766602e-01
2.282000000000000000e+03 5.873703479766845703e+00 -2.108931159973144531e+01 2.432794421911239624e-01 -9.578502923250198364e-02 4.424832388758659363e-02 3.868215680122375488e-01
2.283000000000000000e+03 5.578232955932617188e+01 -1.083554077148437500e+01 -1.929966688156127930e+00 1.106207847595214844e+00 -2.471276521682739258e-01 1.352812170982360840e+00
2.284000000000000000e+03 5.455368041992187500e+01 -8.294305801391601562e+00 -1.094610452651977539e+00 1.906075358390808105e+00 2.434394657611846924e-01 2.147037506103515625e+00
2.285000000000000000e+03 7.544475555419921875e+01 1.682128143310546875e+01 1.685217320919036865e-01 4.428901195526123047e+00 1.379226803779602051e+00 -6.079745013266801834e-03
2.286000000000000000e+03 7.480198669433593750e+01 -7.313946247100830078e+00 -1.221108138561248779e-01 6.622852325439453125e+00 1.950222492218017578e+00 -2.095760107040405273e+00
2.287000000000000000e+03 5.582348251342773438e+01 -6.674977779388427734e+00 -3.581057488918304443e-01 2.166373491287231445e+00 5.424802899360656738e-01 1.792469024658203125e+00
2.288000000000000000e+03 5.674014282226562500e+01 -6.606669902801513672e+00 -3.914696872234344482e-01 1.926055073738098145e+00 4.603756070137023926e-01 1.615266442298889160e+00
2.289000000000000000e+03 3.715189743041992188e+01 1.629756927490234375e+01 5.847197771072387695e-01 8.104749679565429688e+00 2.606840848922729492e+00 1.085752844810485840e-01
2.290000000000000000e+03 7.531296539306640625e+01 -2.178432464599609375e+01 -7.319477200508117676e-01 8.576961517333984375e+00 2.353503942489624023e+00 1.171335816383361816e+00
2.291000000000000000e+03 7.419001007080078125e+01 -2.406837654113769531e+01 -3.768197894096374512e-01 6.491508960723876953e+00 1.834406733512878418e+00 9.057691097259521484e-01
2.292000000000000000e+03 2.733655357360839844e+01 -3.443786144256591797e+00 1.024090290069580078e+00 2.749584019184112549e-01 3.897145986557006836e-01 1.555025696754455566e+00
2.293000000000000000e+03 5.448169231414794922e+00 -7.266424655914306641e+00 -2.541879378259181976e-02 -1.959002912044525146e-01 -6.639572232961654663e-02 -6.267502903938293457e-01
2.294000000000000000e+03 6.446913146972656250e+01 4.990701198577880859e+00 1.178137302398681641e+00 4.214500904083251953e+00 1.617791414260864258e+00 3.566877841949462891e-01
2.295000000000000000e+03 6.616272735595703125e+01 6.540229320526123047e+00 1.001712799072265625e+00 4.624446392059326172e+00 1.687847733497619629e+00 -1.057516410946846008e-01
2.296000000000000000e+03 1.098050022125244141e+01 2.305355262756347656e+01 -1.480739861726760864e-01 7.919849455356597900e-02 -2.066264860332012177e-02 8.260675519704818726e-02
2.297000000000000000e+03 1.191357994079589844e+01 2.187400245666503906e+01 -1.953457891941070557e-01 7.372613996267318726e-02 -3.648589551448822021e-02 4.774560779333114624e-02
2.298000000000000000e+03 7.408802795410156250e+01 1.563566207885742188e+01 2.969906032085418701e-01 4.592250347137451172e+00 1.466772198677062988e+00 -1.430616676807403564e-01
2.299000000000000000e+03 7.404050445556640625e+01 -3.345263671875000000e+01 2.597464621067047119e-01 6.250319957733154297e+00 1.953019857406616211e+00 9.849297404289245605e-01
2.300000000000000000e+03 3.345609283447265625e+01 -2.791195154190063477e+00 -1.219893172383308411e-01 7.577304840087890625e+00 2.236594676971435547e+00 4.808992743492126465e-01
2.301000000000000000e+03 6.665397644042968750e+01 1.618282699584960938e+01 8.630795478820800781e-01 5.611741065979003906e+00 1.942446231842041016e+00 -3.407341539859771729e-01
2.302000000000000000e+03 6.709230041503906250e+01 1.717287826538085938e+01 8.305121660232543945e-01 5.426603794097900391e+00 1.877134799957275391e+00 -2.345383912324905396e-01
2.303000000000000000e+03 2.451537132263183594e+01 -6.740519046783447266e+00 -4.101867377758026123e-01 4.355380237102508545e-01 7.605378050357103348e-03 1.206912636756896973e+00
2.304000000000000000e+03 3.799355697631835938e+01 1.111655807495117188e+01 1.189550876617431641e+00 1.133892726898193359e+01 3.758543252944946289e+00 9.741939306259155273e-01
2.305000000000000000e+03 6.177033424377441406e+00 2.356226539611816406e+01 -5.338507890701293945e-02 -4.095566459000110626e-03 -1.724419370293617249e-02 9.356161206960678101e-02
2.306000000000000000e+03 7.431012725830078125e+01 7.382878303527832031e+00 3.641604185104370117e-01 4.894145011901855469e+00 1.577491641044616699e+00 -8.550943136215209961e-01
2.307000000000000000e+03 3.982151794433593750e+01 1.682745361328125000e+01 6.147197484970092773e-01 6.419836997985839844e+00 2.110367059707641602e+00 1.390091300010681152e+00
2.308000000000000000e+03 4.621189880371093750e+01 -1.309314727783203125e+01 3.667375743389129639e-01 4.484465122222900391e+00 1.455360770225524902e+00 1.325122356414794922e+00
2.309000000000000000e+03 4.377234268188476562e+01 -1.412856864929199219e+01 6.211618185043334961e-01 6.967085838317871094e+00 2.276474237442016602e+00 -5.046724900603294373e-02
2.310000000000000000e+03 2.639454841613769531e+01 -6.703986644744873047e+00 -1.048559308052062988e+00 3.505517542362213135e-01 -2.094022631645202637e-01 1.371714830398559570e+00
2.311000000000000000e+03 2.721333122253417969e+01 -4.522374629974365234e+00 5.069935321807861328e-01 1.872458457946777344e-01 2.082718163728713989e-01 1.673233151435852051e+00
2.312000000000000000e+03 5.905111694335937500e+01 -8.177964210510253906e+00 -1.385459065437316895e+00 1.038252472877502441e+00 -1.041619777679443359e-01 1.369693040847778320e+00
2.313000000000000000e+03 5.210978698730468750e+01 2.598989677429199219e+01 3.132840394973754883e-01 1.117345690727233887e+00 4.291889071464538574e-01 6.295004487037658691e-01
2.314000000000000000e+03 6.565537261962890625e+01 2.290806961059570312e+01 -9.334969520568847656e-02 4.991949558258056641e+00 1.469580054283142090e+00 -1.537855118513107300e-01
2.315000000000000000e+03 5.556151390075683594e+00 -1.597714805603027344e+01 3.701412677764892578e-01 -3.072842359542846680e-01 1.885711215436458588e-02 -7.514872401952743530e-02
2.316000000000000000e+03 4.585243225097656250e+01 -9.702994346618652344e+00 -7.338083982467651367e-01 2.934992790222167969e+00 6.603553295135498047e-01 7.013026475906372070e-01
2.317000000000000000e+03 1.014716243743896484e+01 -1.575097846984863281e+01 8.394413590431213379e-01 1.267780661582946777e+00 6.321666240692138672e-01 2.958655916154384613e-02
2.318000000000000000e+03 3.637839126586914062e+01 5.780056476593017578e+00 1.667491793632507324e+00 1.439680862426757812e+01 4.819290161132812500e+00 8.368978500366210938e-01
2.319000000000000000e+03 3.897100067138671875e+01 -1.707122802734375000e+01 1.539272427558898926e+00 9.195038795471191406e+00 3.220293521881103516e+00 -1.611018061637878418e+00
2.320000000000000000e+03 4.095756912231445312e+01 -1.599263381958007812e+01 1.425449252128601074e+00 8.376398086547851562e+00 2.940554141998291016e+00 -1.227305293083190918e+00
2.321000000000000000e+03 5.599878787994384766e+00 2.855448532104492188e+01 -5.243597552180290222e-03 -6.255998462438583374e-02 -2.034107595682144165e-02 1.257776916027069092e-01
2.322000000000000000e+03 7.248676300048828125e+00 3.214155197143554688e+01 4.694378376007080078e-02 -1.437468640506267548e-02 9.770729579031467438e-03 1.195700392127037048e-01
2.323000000000000000e+03 7.478789520263671875e+01 2.265381240844726562e+01 2.982150949537754059e-02 4.523222923278808594e+00 1.365913271903991699e+00 2.287256866693496704e-01
2.324000000000000000e+03 7.443639373779296875e+01 1.745028734207153320e+00 4.022683501243591309e-01 5.308026790618896484e+00 1.713088512420654297e+00 -1.464015007019042969e+00
2.325000000000000000e+03 7.439987182617187500e+01 4.005109369754791260e-01 4.217651486396789551e-01 5.417036533355712891e+00 1.751640558242797852e+00 -1.624477505683898926e+00
2.326000000000000000e+03 9.792636871337890625e+00 1.750817871093750000e+01 -5.461249500513076782e-02 1.397879887372255325e-02 -1.219010911881923676e-02 -3.829167690128087997e-03
2.327000000000000000e+03 6.020891952514648438e+01 -3.275035858154296875e+00 1.300203919410705566e+00 1.485745310783386230e+00 8.357847929000854492e-01 1.303591370582580566e+00
2.328000000000000000e+03 6.053581237792968750e+01 -1.412928938865661621e+00 1.646466612815856934e+00 1.939603090286254883e+00 1.075820922851562500e+00 1.377041816711425781e+00
2.329000000000000000e+03 3.518941497802734375e+01 -4.574770450592041016e+00 -2.056528806686401367e+00 8.858713150024414062e+00 2.040655136108398438e+00 -6.747298240661621094e-01
2.330000000000000000e+03 4.172310256958007812e+01 -3.161596107482910156e+01 -5.289546847343444824e-01 7.032548904418945312e+00 1.951078295707702637e+00 -9.216534905135631561e-03
2.331000000000000000e+03 7.387944030761718750e+01 -2.993205451965332031e+01 5.973371490836143494e-02 6.222983837127685547e+00 1.884815335273742676e+00 1.096141457557678223e+00
2.332000000000000000e+03 4.742865371704101562e+01 2.202401161193847656e+01 1.443422287702560425e-01 1.899897575378417969e+00 6.132719516754150391e-01 1.291188001632690430e+00
2.333000000000000000e+03 7.526022338867187500e+01 -2.327916717529296875e+01 -5.042512416839599609e-01 8.188363075256347656e+00 2.305233716964721680e+00 9.018938541412353516e-01
2.334000000000000000e+03 4.017823410034179688e+01 -2.492197799682617188e+01 1.741764307022094727e+00 8.216580390930175781e+00 2.987503290176391602e+00 -2.818557918071746826e-01
2.335000000000000000e+03 1.852215003967285156e+01 -8.606089591979980469e+00 4.963240623474121094e-01 9.702544808387756348e-01 4.399735629558563232e-01 1.014145493507385254e+00
2.336000000000000000e+03 6.374210357666015625e+01 1.386495113372802734e+01 3.835660219192504883e-01 6.905990123748779297e+00 2.186866760253906250e+00 -7.677987217903137207e-02
2.337000000000000000e+03 6.498430633544921875e+01 1.258812236785888672e+01 5.867631435394287109e-01 6.203403949737548828e+00 2.037050008773803711e+00 -5.919123813509941101e-02
2.338000000000000000e+03 1.099115085601806641e+01 1.184579181671142578e+01 1.014409121125936508e-03 -2.027519745752215385e-03 -3.039332514163106680e-04 2.061578910797834396e-03
2.339000000000000000e+03 4.270544815063476562e+01 -1.904545402526855469e+01 2.245772838592529297e+00 9.773468017578125000e+00 3.605772256851196289e+00 -4.485395252704620361e-01
2.340000000000000000e+03 4.211360549926757812e+01 -2.041806602478027344e+01 1.991664290428161621e+00 9.943666458129882812e+00 3.580599308013916016e+00 -7.017251849174499512e-01
2.341000000000000000e+03 5.108870315551757812e+01 2.825464439392089844e+01 3.665845394134521484e-01 1.730497479438781738e+00 6.291245818138122559e-01 7.128993272781372070e-01
2.342000000000000000e+03 2.105940437316894531e+01 2.671953582763671875e+01 1.469433158636093140e-01 4.104481041431427002e-01 1.672174334526062012e-01 -3.821433484554290771e-01
2.343000000000000000e+03 1.937236213684082031e+01 2.859009933471679688e+01 1.391168683767318726e-01 3.881946504116058350e-01 1.581934541463851929e-01 -2.206457108259201050e-01
2.344000000000000000e+03 4.252283096313476562e+01 2.260984992980957031e+01 -1.375715341418981552e-02 4.012546062469482422e+00 1.199636697769165039e+00 1.472696423530578613e+00
2.345000000000000000e+03 1.646539688110351562e+01 -8.392658233642578125e+00 2.993484437465667725e-01 1.214637756347656250e+00 4.541958570480346680e-01 6.311814785003662109e-01
2.346000000000000000e+03 1.550924968719482422e+01 -9.231766700744628906e+00 4.229448735713958740e-01 1.461766839027404785e+00 5.654134750366210938e-01 5.135326981544494629e-01
2.347000000000000000e+03 6.770823669433593750e+01 -2.795409202575683594e+01 -7.139749526977539062e-01 3.307971060276031494e-01 -1.149533540010452271e-01 -1.149641275405883789e-01
2.348000000000000000e+03 1.155038547515869141e+01 -1.675000572204589844e+01 9.034883379936218262e-01 2.205483675003051758e+00 9.326916337013244629e-01 2.897223830223083496e-01
2.349000000000000000e+03 1.292103004455566406e+01 -1.012251949310302734e+01 5.477664470672607422e-01 1.427105188369750977e+00 5.924614667892456055e-01 -3.865795908495783806e-03
2.350000000000000000e+03 1.394802474975585938e+01 -1.135438060760498047e+01 9.947007894515991211e-01 1.930736422538757324e+00 8.776311278343200684e-01 4.080101847648620605e-01
2.351000000000000000e+03 4.009700393676757812e+01 -1.126641654968261719e+01 -7.188087701797485352e-01 7.791579723358154297e+00 2.121831178665161133e+00 -1.250998020172119141e+00
2.352000000000000000e+03 3.782337570190429688e+01 -2.973696708679199219e+01 -6.506809592247009277e-02 6.118152618408203125e+00 1.815925359725952148e+00 9.123091697692871094e-01
2.353000000000000000e+03 7.368825531005859375e+01 -2.736371612548828125e+01 -1.466223299503326416e-01 6.040030956268310547e+00 1.768022656440734863e+00 1.037642717361450195e+00
2.354000000000000000e+03 6.487014770507812500e+01 3.670983791351318359e+00 1.254087686538696289e+00 3.778973340988159180e+00 1.509918332099914551e+00 1.842086613178253174e-01
2.355000000000000000e+03 6.531297302246093750e+01 4.439536094665527344e+00 1.191958069801330566e+00 4.046635150909423828e+00 1.571578025817871094e+00 8.009168505668640137e-02
2.356000000000000000e+03 7.446073150634765625e+01 3.098105669021606445e+00 4.023717045783996582e-01 5.204426765441894531e+00 1.682039618492126465e+00 -1.309052705764770508e+00
2.357000000000000000e+03 3.342641067504882812e+01 2.620966529846191406e+01 -5.515283942222595215e-01 4.815566062927246094e+00 1.279211401939392090e+00 -3.619269728660583496e-01
2.358000000000000000e+03 3.411881256103515625e+01 2.414128875732421875e+01 -3.437282145023345947e-01 5.459404468536376953e+00 1.534702897071838379e+00 -2.122979462146759033e-01
2.359000000000000000e+03 4.708256149291992188e+01 2.628921318054199219e+01 7.391438633203506470e-02 2.421493768692016602e+00 7.486224174499511719e-01 1.267945766448974609e+00
2.360000000000000000e+03 4.793806457519531250e+01 2.437166595458984375e+01 8.534389734268188477e-02 1.990320920944213867e+00 6.226994395256042480e-01 1.280968666076660156e+00
2.361000000000000000e+03 5.694268226623535156e+00 -1.722370338439941406e+01 3.596380352973937988e-01 -2.519281208515167236e-01 3.231297805905342102e-02 5.128307640552520752e-02
2.362000000000000000e+03 7.247967529296875000e+01 -3.037891387939453125e+01 1.416791379451751709e-01 4.893761157989501953e+00 1.510632038116455078e+00 1.103425025939941406e+00
2.363000000000000000e+03 7.533499908447265625e+01 -2.862772178649902344e+01 -1.260656397789716721e-02 7.887623786926269531e+00 2.362505197525024414e+00 9.885802865028381348e-01
2.364000000000000000e+03 3.401408004760742188e+01 -4.192522048950195312e+00 -1.381224036216735840e+00 7.882084369659423828e+00 1.950258016586303711e+00 -3.372233808040618896e-01
2.365000000000000000e+03 7.309790802001953125e+01 -7.610037326812744141e-01 5.468974113464355469e-01 4.912391185760498047e+00 1.637786626815795898e+00 -1.823400497436523438e+00
2.366000000000000000e+03 5.473821163177490234e+00 -1.473007488250732422e+01 3.468381762504577637e-01 -3.402250111103057861e-01 1.983947819098830223e-03 -2.046704292297363281e-01
2.367000000000000000e+03 2.513444900512695312e+01 -3.187074089050292969e+01 -3.161779046058654785e-01 1.421759575605392456e-01 -5.220058560371398926e-02 1.758299954235553741e-02
2.368000000000000000e+03 4.123513412475585938e+01 -2.602263259887695312e+01 1.668953776359558105e+00 8.555476188659667969e+00 3.067329168319702148e+00 -3.933914899826049805e-01
2.369000000000000000e+03 4.214366149902343750e+01 -2.912063980102539062e+01 3.832933306694030762e-01 7.908441066741943359e+00 2.487520217895507812e+00 -1.762187480926513672e-01
2.370000000000000000e+03 7.153512001037597656e+00 1.727931594848632812e+01 -3.348594903945922852e-02 -1.795248594135046005e-03 -1.058435905724763870e-02 1.429795008152723312e-02
2.371000000000000000e+03 4.962807083129882812e+01 -9.435244560241699219e+00 -6.436155438423156738e-01 1.057320833206176758e+00 1.241115853190422058e-01 2.655973911285400391e+00
2.372000000000000000e+03 1.658804893493652344e+01 -3.051505279541015625e+01 -4.366757869720458984e-01 9.571325182914733887e-01 1.561370044946670532e-01 -2.388468980789184570e-01
2.373000000000000000e+03 6.741911315917968750e+01 1.312071895599365234e+01 7.657253146171569824e-01 5.430185794830322266e+00 1.858773231506347656e+00 -3.372958898544311523e-01
2.374000000000000000e+03 1.741742324829101562e+01 2.904899978637695312e+01 1.337931603193283081e-01 3.307841420173645020e-01 1.393731981515884399e-01 -9.878060966730117798e-02
2.375000000000000000e+03 7.562889862060546875e+01 2.755968272686004639e-01 2.692184448242187500e-01 5.932838916778564453e+00 1.860617280006408691e+00 -1.471992731094360352e+00
2.376000000000000000e+03 7.446961212158203125e+01 -3.118840599060058594e+01 1.189442500472068787e-01 6.810778617858886719e+00 2.078916788101196289e+00 1.050097107887268066e+00
2.377000000000000000e+03 6.376054382324218750e+01 -3.526478195190429688e+01 8.191320300102233887e-01 3.120761550962924957e-02 2.551018893718719482e-01 -3.186747664585709572e-03
2.378000000000000000e+03 6.689846038818359375e+01 -3.488906860351562500e+01 7.401199936866760254e-01 1.342816829681396484e+00 6.248810291290283203e-01 4.499777257442474365e-01
2.379000000000000000e+03 7.066427612304687500e+01 -2.621337318420410156e+01 -4.692907333374023438e-01 2.558518171310424805e+00 6.267682313919067383e-01 5.827257037162780762e-01
2.380000000000000000e+03 3.724605941772460938e+01 1.774329757690429688e+01 4.573816657066345215e-01 7.255980491638183594e+00 2.314008712768554688e+00 3.328028917312622070e-01
2.381000000000000000e+03 7.412393188476562500e+01 -3.611590194702148438e+01 3.658235371112823486e-01 6.157976627349853516e+00 1.957140088081359863e+00 7.191476225852966309e-01
2.382000000000000000e+03 7.470637512207031250e+01 2.841752243041992188e+01 -6.466196477413177490e-02 4.549456119537353516e+00 1.345438361167907715e+00 1.705753356218338013e-01
2.383000000000000000e+03 7.079773712158203125e+01 -2.474788665771484375e+01 -5.571852922439575195e-01 2.287678956985473633e+00 5.191480517387390137e-01 4.971957206726074219e-01
2.384000000000000000e+03 5.784494400024414062e+01 2.908536148071289062e+01 3.548438549041748047e-01 2.114308595657348633e+00 7.407457232475280762e-01 -5.337601304054260254e-01
2.385000000000000000e+03 4.262067317962646484e+00 -1.353791046142578125e+01 2.084865719079971313e-01 -6.837366819381713867e-01 -1.425750255584716797e-01 -3.040538132190704346e-01
2.386000000000000000e+03 5.085104465484619141e+00 1.468215656280517578e+01 -4.552529659122228622e-03 -4.854172002524137497e-03 -2.822010545060038567e-03 4.195811634417623281e-04
2.387000000000000000e+03 4.037661552429199219e+00 1.474873733520507812e+01 -9.986570104956626892e-03 -2.210155129432678223e-03 -3.659017616882920265e-03 4.832462873309850693e-03
2.388000000000000000e+03 5.248259067535400391e+00 3.350907135009765625e+01 2.716582082211971283e-02 -1.256720274686813354e-01 -2.955186367034912109e-02 9.455730020999908447e-02
2.389000000000000000e+03 4.591088771820068359e+00 -2.133028602600097656e+01 1.554393023252487183e-01 -4.809472560882568359e-01 -9.765239059925079346e-02 3.622938096523284912e-01
2.390000000000000000e+03 5.805580615997314453e+00 -1.848180389404296875e+01 3.489465713500976562e-01 -2.095932066440582275e-01 4.180600866675376892e-02 1.716639697551727295e-01
2.391000000000000000e+03 4.379341602325439453e+00 1.769079399108886719e+01 -2.199948579072952271e-02 -4.342156928032636642e-03 -7.902492769062519073e-03 1.795854233205318451e-02
2.392000000000000000e+03 6.132802009582519531e+00 2.077057647705078125e+01 -5.323831364512443542e-02 1.061978866346180439e-03 -1.565290056169033051e-02 5.424209684133529663e-02
2.393000000000000000e+03 5.788660812377929688e+01 -1.035003280639648438e+01 -2.581739187240600586e+00 1.090809822082519531e+00 -4.472788274288177490e-01 9.290539026260375977e-01
2.394000000000000000e+03 7.415487670898437500e+01 1.692934989929199219e+01 2.730689942836761475e-01 4.554583072662353516e+00 1.448295593261718750e+00 -1.656142435967922211e-02
2.395000000000000000e+03 7.422878265380859375e+01 1.146113014221191406e+01 3.325942158699035645e-01 4.708736419677734375e+00 1.512399077415466309e+00 -4.899195432662963867e-01
2.396000000000000000e+03 7.490566253662109375e+01 -1.390631198883056641e+01 -7.224850654602050781e-01 6.952640056610107422e+00 1.869046449661254883e+00 -3.908009290695190430e+00
2.397000000000000000e+03 7.628778839111328125e+01 -1.200795173645019531e+01 -1.483179330825805664e+00 1.056854057312011719e+01 2.725608348846435547e+00 -1.661568760871887207e+00
2.398000000000000000e+03 7.561037445068359375e+01 -1.422193145751953125e+01 -1.428982019424438477e+00 1.089412689208984375e+01 2.839543342590332031e+00 -4.711214542388916016e+00
2.399000000000000000e+03 7.529312133789062500e+01 -1.391950130462646484e+01 -1.089674830436706543e+00 8.782096862792968750e+00 2.307726383209228516e+00 -4.204644203186035156e+00
2.400000000000000000e+03 7.630844116210937500e+01 -1.360757350921630859e+01 -2.508294343948364258e+00 1.345159912109375000e+01 3.282991647720336914e+00 -2.475864648818969727e+00
2.401000000000000000e+03 7.713577270507812500e+01 -1.316702938079833984e+01 -2.516016244888305664e+00 1.391978931427001953e+01 3.421131849288940430e+00 -3.989068865776062012e-01
2.402000000000000000e+03 7.342971038818359375e+01 -1.934865188598632812e+01 5.565999150276184082e-01 3.025565147399902344e+00 1.074649453163146973e+00 1.125757575035095215e+00
2.403000000000000000e+03 7.650319671630859375e+01 -2.011870765686035156e+01 -1.689941406250000000e+00 1.244540214538574219e+01 3.226638317108154297e+00 8.609913587570190430e-01
2.404000000000000000e+03 7.410413360595703125e+01 -1.330459785461425781e+01 -5.542860627174377441e-01 4.581799983978271484e+00 1.208254218101501465e+00 -2.652125835418701172e+00
2.405000000000000000e+03 7.564563751220703125e+01 -1.881418991088867188e+01 -7.053639292716979980e-01 1.119677448272705078e+01 3.147423028945922852e+00 3.619416236877441406e+00
2.406000000000000000e+03 7.644175720214843750e+01 -1.869895362854003906e+01 -1.997833847999572754e+00 1.561678981781005859e+01 4.085686683654785156e+00 1.978652596473693848e+00
2.407000000000000000e+03 7.623712158203125000e+01 -1.884545135498046875e+01 -1.692612409591674805e+00 1.433868026733398438e+01 3.793820381164550781e+00 2.436887264251708984e+00
2.408000000000000000e+03 7.513578033447265625e+01 -2.032048416137695312e+01 -5.748957395553588867e-01 8.576061248779296875e+00 2.400349617004394531e+00 1.905973792076110840e+00
2.409000000000000000e+03 7.443961334228515625e+01 -1.859396171569824219e+01 9.511652588844299316e-01 4.536088466644287109e+00 1.646176099777221680e+00 2.783630847930908203e+00
2.410000000000000000e+03 7.556375122070312500e+01 -1.975630569458007812e+01 -9.417027831077575684e-01 1.016295051574707031e+01 2.766374349594116211e+00 2.356000661849975586e+00
2.411000000000000000e+03 7.731414794921875000e+01 -1.919951820373535156e+01 -1.953163862228393555e+00 1.509386920928955078e+01 3.942211389541625977e+00 -6.486122012138366699e-01
2.412000000000000000e+03 7.190433502197265625e+01 -2.137677955627441406e+01 -2.062190473079681396e-01 2.330203294754028320e+00 6.371952891349792480e-01 2.056596130132675171e-01
2.413000000000000000e+03 7.340215301513671875e+01 -2.067580413818359375e+01 3.356198593974113464e-02 4.328439235687255859e+00 1.308600425720214844e+00 1.135054826736450195e+00
2.414000000000000000e+03 7.168376159667968750e+01 -1.192967796325683594e+01 -1.479723691940307617e+00 2.327553033828735352e+00 2.543487846851348877e-01 -8.339624404907226562e-01
2.415000000000000000e+03 7.557188415527343750e+01 -2.100587654113769531e+01 -8.435506224632263184e-01 9.355856895446777344e+00 2.553691864013671875e+00 1.298691391944885254e+00
2.416000000000000000e+03 7.437507629394531250e+00 -5.518701076507568359e+00 -2.336738854646682739e-01 4.385616257786750793e-02 -5.694531649351119995e-02 -6.097514033317565918e-01
2.417000000000000000e+03 8.737206459045410156e+00 -5.056152820587158203e+00 -3.477565050125122070e-01 1.429297775030136108e-01 -6.144801527261734009e-02 -5.462053418159484863e-01
2.418000000000000000e+03 7.862180709838867188e+00 -4.645862102508544922e+00 -3.668171763420104980e-01 6.129382923245429993e-02 -9.165700525045394897e-02 -5.596999526023864746e-01
2.419000000000000000e+03 8.392764091491699219e+00 -5.906625270843505859e+00 -2.149645090103149414e-01 1.569654941558837891e-01 -1.739970594644546509e-02 -5.940488576889038086e-01
2.420000000000000000e+03 1.432381343841552734e+01 5.301419734954833984e+00 -2.198624861193820834e-04 1.516549033112823963e-03 3.890059597324579954e-04 1.242925878614187241e-03
2.421000000000000000e+03 9.826324462890625000e+00 -4.762797355651855469e+00 -4.197129905223846436e-01 1.848149746656417847e-01 -7.046940922737121582e-02 -4.704256951808929443e-01
2.422000000000000000e+03 1.180752182006835938e+01 5.411652088165283203e+00 -3.342121490277349949e-04 -1.131315832026302814e-03 -4.396584117785096169e-04 1.957953441888093948e-03
2.423000000000000000e+03 2.529699516296386719e+01 -3.075271368026733398e+00 7.051031589508056641e-01 -6.013992801308631897e-02 1.934889703989028931e-01 1.256419658660888672e+00
2.424000000000000000e+03 5.783243656158447266e+00 7.306214809417724609e+00 -1.630807673791423440e-04 -2.343647181987762451e-03 -7.520183571614325047e-04 -5.507355672307312489e-04
2.425000000000000000e+03 1.110305881500244141e+01 6.428254127502441406e+00 -1.472772681154310703e-03 -8.479555253870785236e-04 -6.962184561416506767e-04 9.416337707079946995e-04
2.426000000000000000e+03 9.625058174133300781e+00 5.558906078338623047e+00 1.989745767787098885e-03 -3.611537104006856680e-04 4.885776434093713760e-04 2.665925712790340185e-04
2.427000000000000000e+03 5.184033870697021484e+00 5.417598247528076172e+00 -8.645556226838380098e-05 -1.178218750283122063e-03 -3.794023068621754646e-04 -4.692816874012351036e-04
2.428000000000000000e+03 1.285099983215332031e+01 -4.618577480316162109e+00 -5.087920427322387695e-01 3.951521813869476318e-01 -3.409197181463241577e-02 -1.092919036746025085e-01
2.429000000000000000e+03 1.499732685089111328e+01 -5.340067386627197266e+00 -3.543127179145812988e-01 5.988376736640930176e-01 7.335748523473739624e-02 2.562551200389862061e-01
2.430000000000000000e+03 1.517587661743164062e+01 -6.933752536773681641e+00 -4.425254091620445251e-02 9.572581648826599121e-01 2.739016711711883545e-01 3.497779667377471924e-01
2.431000000000000000e+03 8.117218971252441406e+00 4.868205070495605469e+00 1.256481045857071877e-04 -1.643541269004344940e-03 -4.553679609671235085e-04 -3.213556556147523224e-05
2.432000000000000000e+03 1.222325229644775391e+01 -5.333472251892089844e+00 -3.709713220596313477e-01 4.583047330379486084e-01 2.620001509785652161e-02 -2.125354558229446411e-01
2.433000000000000000e+03 1.285815811157226562e+01 -5.303655147552490234e+00 -3.845587372779846191e-01 5.067214369773864746e-01 3.664881363511085510e-02 -1.149454340338706970e-01
2.434000000000000000e+03 1.713658142089843750e+01 -6.939483642578125000e+00 4.069389309734106064e-03 9.434604644775390625e-01 2.842589616775512695e-01 7.261628508567810059e-01
2.435000000000000000e+03 1.586563777923583984e+01 -4.765316486358642578e+00 -4.197417795658111572e-01 5.346853733062744141e-01 3.448307514190673828e-02 3.870097994804382324e-01
2.436000000000000000e+03 1.992842292785644531e+01 -3.930657863616943359e+00 -2.229464501142501831e-01 3.678795993328094482e-01 4.347994178533554077e-02 8.925063610076904297e-01
2.437000000000000000e+03 2.117515182495117188e+01 -5.310849666595458984e+00 -3.077086247503757477e-02 4.669325053691864014e-01 1.308484971523284912e-01 1.136757731437683105e+00
2.438000000000000000e+03 1.988589477539062500e+01 -4.670763492584228516e+00 -1.572110354900360107e-01 4.870434403419494629e-01 9.894971549510955811e-02 9.942809343338012695e-01
2.439000000000000000e+03 1.868805694580078125e+01 -6.037020206451416016e+00 -5.847888812422752380e-02 6.923593282699584961e-01 1.901641339063644409e-01 9.179531335830688477e-01
2.440000000000000000e+03 1.940173721313476562e+01 -5.639415264129638672e+00 -1.113722845911979675e-01 6.013111472129821777e-01 1.469816565513610840e-01 9.920474290847778320e-01
2.441000000000000000e+03 7.695189666748046875e+01 -1.996707534790039062e+01 -1.807852506637573242e+00 1.335880661010742188e+01 3.465286493301391602e+00 1.798489689826965332e-01
2.442000000000000000e+03 7.665896606445312500e+01 -1.891550827026367188e+01 -2.093328475952148438e+00 1.546402740478515625e+01 4.011209964752197266e+00 1.069444537162780762e+00
2.443000000000000000e+03 2.827739334106445312e+01 -4.579907417297363281e+00 3.870178461074829102e-01 5.378047823905944824e-01 2.774467766284942627e-01 1.599664568901062012e+00
2.444000000000000000e+03 2.928715896606445312e+01 -3.694740295410156250e+00 1.030867457389831543e+00 1.356183886528015137e+00 7.161154150962829590e-01 1.543276309967041016e+00
2.445000000000000000e+03 6.886767578125000000e+01 -7.892930984497070312e+00 -8.177815079689025879e-01 1.453119874000549316e+00 1.906015127897262573e-01 -1.556746006011962891e+00
2.446000000000000000e+03 6.581768035888671875e+01 -6.733862400054931641e+00 -2.779532670974731445e-01 1.704822033643722534e-01 -3.224132210016250610e-02 -7.204464673995971680e-01
2.447000000000000000e+03 1.606540298461914062e+01 -8.953537940979003906e+00 4.315014779567718506e-01 1.403135180473327637e+00 5.503909587860107422e-01 6.583697199821472168e-01
2.448000000000000000e+03 7.206185150146484375e+01 -1.135252189636230469e+01 -9.229393601417541504e-01 2.974415779113769531e+00 6.154429316520690918e-01 -1.306712150573730469e+00
2.449000000000000000e+03 6.300717163085937500e+01 1.051144242286682129e+00 1.459873318672180176e+00 2.786065816879272461e+00 1.273781776428222656e+00 7.048996686935424805e-01
2.450000000000000000e+03 1.104604434967041016e+01 4.750619888305664062e+00 -4.791860410477966070e-04 -1.086954376660287380e-03 -4.698421398643404245e-04 1.306638703681528568e-03
2.451000000000000000e+03 7.389560699462890625e+01 -2.568754959106445312e+01 -2.714742720127105713e-01 6.120219707489013672e+00 1.754623651504516602e+00 9.704305529594421387e-01
2.452000000000000000e+03 1.090315437316894531e+01 -5.449884891510009766e+00 -3.367932736873626709e-01 3.343683183193206787e-01 -7.274829549714922905e-04 -3.865919709205627441e-01
2.453000000000000000e+03 7.203813171386718750e+01 -2.691044807434082031e+01 -3.131409287452697754e-01 4.105364322662353516e+00 1.137667059898376465e+00 8.390020728111267090e-01
2.454000000000000000e+03 1.631486701965332031e+01 -6.551292896270751953e+00 -7.584576308727264404e-02 9.077380299568176270e-01 2.495676726102828979e-01 5.548728704452514648e-01
2.455000000000000000e+03 1.873918914794921875e+01 -7.662904262542724609e+00 2.435624450445175171e-01 8.483886718750000000e-01 3.275853395462036133e-01 9.878208041191101074e-01
2.456000000000000000e+03 7.594896697998046875e+01 -1.130028152465820312e+01 -1.251368641853332520e+00 9.301841735839843750e+00 2.415141820907592773e+00 -1.964065790176391602e+00
2.457000000000000000e+03 7.461612701416015625e+01 -1.879166221618652344e+01 7.444221973419189453e-01 5.624371528625488281e+00 1.910638093948364258e+00 3.032290220260620117e+00
2.458000000000000000e+03 7.472100067138671875e+01 -6.258992195129394531e+00 -1.001934800297021866e-02 6.409501075744628906e+00 1.919844508171081543e+00 -2.125181198120117188e+00
2.459000000000000000e+03 1.035153961181640625e+01 6.288499832153320312e+00 1.565126585774123669e-03 -8.420814992859959602e-05 4.442755307536572218e-04 1.574337366037070751e-03
2.460000000000000000e+03 6.841490936279296875e+01 -1.002881431579589844e+01 -2.279769420623779297e+00 7.336618304252624512e-01 -4.638322889804840088e-01 -8.052008748054504395e-01
2.461000000000000000e+03 2.509034729003906250e+01 -3.972737789154052734e+00 4.867632389068603516e-01 1.006802618503570557e-01 1.762330532073974609e-01 1.483972668647766113e+00
2.462000000000000000e+03 5.083814144134521484e+00 -6.325106620788574219e+00 -8.909794688224792480e-02 -2.272719144821166992e-01 -9.491095691919326782e-02 -6.046466827392578125e-01
2.463000000000000000e+03 6.958717346191406250e+01 -2.773251914978027344e+01 -4.273215532302856445e-01 1.785507440567016602e+00 4.074557721614837646e-01 4.576047360897064209e-01
2.464000000000000000e+03 7.103015136718750000e+01 -2.717774963378906250e+01 -3.607543706893920898e-01 3.020566463470458984e+00 7.979435920715332031e-01 7.468196749687194824e-01
2.465000000000000000e+03 2.347653770446777344e+01 -6.812479019165039062e+00 -1.411266773939132690e-01 4.800528585910797119e-01 1.016778573393821716e-01 1.197760939598083496e+00
2.466000000000000000e+03 8.157072067260742188e+00 5.676323413848876953e+00 2.636388642713427544e-03 -1.209040521644055843e-03 4.282044246792793274e-04 6.727527943439781666e-05
2.467000000000000000e+03 5.714069366455078125e+00 -1.023017883300781250e+01 1.710337400436401367e-01 -2.239653468132019043e-01 -1.587948203086853027e-02 -5.758256316184997559e-01
2.468000000000000000e+03 5.469548702239990234e+00 -1.237244606018066406e+01 2.727396190166473389e-01 -3.363767266273498535e-01 -1.909113675355911255e-02 -4.286575317382812500e-01
2.469000000000000000e+03 5.499121475219726562e+01 -9.806093215942382812e+00 -1.391115903854370117e+00 1.364133238792419434e+00 -8.094785735011100769e-03 1.833604812622070312e+00
2.470000000000000000e+03 5.318624877929687500e+01 -9.875957489013671875e+00 -1.041983008384704590e+00 1.448980212211608887e+00 1.220991834998130798e-01 2.419236660003662109e+00
2.471000000000000000e+03 4.967401123046875000e+01 -1.089463424682617188e+01 -2.078063488006591797e-01 1.427976489067077637e+00 3.660510182380676270e-01 2.485880851745605469e+00
2.472000000000000000e+03 5.829618453979492188e+01 -7.074490547180175781e+00 -7.194625139236450195e-01 1.339749813079833984e+00 1.860861927270889282e-01 1.361600041389465332e+00
2.473000000000000000e+03 5.833516693115234375e+01 -5.406687259674072266e+00 2.783664166927337646e-01 1.594908952713012695e+00 5.619826316833496094e-01 1.438436269760131836e+00
2.474000000000000000e+03 1.097062873840332031e+01 1.067883396148681641e+01 -2.602317603304982185e-03 -4.488477017730474472e-03 -2.127238316461443901e-03 2.138469368219375610e-03
2.475000000000000000e+03 1.217168998718261719e+01 1.074739170074462891e+01 2.945399377495050430e-03 9.373619686812162399e-04 1.164828427135944366e-03 3.747027833014726639e-03
2.476000000000000000e+03 9.728894233703613281e+00 2.032717895507812500e+01 -1.084438413381576538e-01 3.587113693356513977e-02 -2.177181094884872437e-02 2.784755267202854156e-02
2.477000000000000000e+03 1.040510749816894531e+01 1.921045112609863281e+01 -9.242025762796401978e-02 3.276321664452552795e-02 -1.789711229503154755e-02 -2.461770083755254745e-03
2.478000000000000000e+03 6.300848484039306641e+00 1.343339347839355469e+01 -6.141519639641046524e-03 -1.938810455612838268e-03 -2.424099016934633255e-03 -2.010941971093416214e-03
2.479000000000000000e+03 7.361093902587890625e+01 -2.195065307617187500e+01 -3.021582067012786865e-01 5.561291694641113281e+00 1.577740073204040527e+00 1.027541041374206543e+00
2.480000000000000000e+03 7.472610473632812500e+01 -2.136757659912109375e+01 -5.024417042732238770e-01 7.275960445404052734e+00 2.032055616378784180e+00 1.440562844276428223e+00
2.481000000000000000e+03 6.833473205566406250e+01 -8.619177818298339844e+00 -1.204145431518554688e+00 9.109718799591064453e-01 -8.795205503702163696e-02 -1.276612043380737305e+00
2.482000000000000000e+03 1.193496417999267578e+01 8.453355789184570312e+00 3.122946014627814293e-03 -6.775599467800930142e-05 9.165570372715592384e-04 2.063641557469964027e-03
2.483000000000000000e+03 4.190724563598632812e+01 -1.555133342742919922e+01 1.267471551895141602e+00 8.022777557373046875e+00 2.787074804306030273e+00 -1.003465414047241211e+00
2.484000000000000000e+03 3.993431854248046875e+01 -1.232681274414062500e+01 -7.145894318819046021e-02 8.166559219360351562e+00 2.428529977798461914e+00 -1.270476341247558594e+00
2.485000000000000000e+03 7.423750305175781250e+01 -3.718874692916870117e+00 2.716920077800750732e-01 5.704646110534667969e+00 1.792901515960693359e+00 -2.056835412979125977e+00
2.486000000000000000e+03 7.434600067138671875e+01 -9.482676386833190918e-01 3.927454948425292969e-01 5.517819404602050781e+00 1.773169398307800293e+00 -1.775558590888977051e+00
2.487000000000000000e+03 3.952615022659301758e+00 -5.459063053131103516e+00 -1.064165905117988586e-01 -2.935189902782440186e-01 -1.199806779623031616e-01 -5.056004524230957031e-01
2.488000000000000000e+03 4.375117111206054688e+01 -1.533876514434814453e+01 1.141146183013916016e+00 7.645227432250976562e+00 2.635912179946899414e+00 -1.687313765287399292e-01
2.489000000000000000e+03 1.155316543579101562e+01 -1.173061084747314453e+01 7.137794494628906250e-01 1.337757349014282227e+00 6.154610514640808105e-01 -1.706608682870864868e-01
2.490000000000000000e+03 5.791649246215820312e+01 -8.753311157226562500e+00 -1.689984679222106934e+00 1.331619858741760254e+00 -1.075094565749168396e-01 1.294358134269714355e+00
2.491000000000000000e+03 6.430805969238281250e+01 -6.086297512054443359e+00 4.102820530533790588e-02 7.577711343765258789e-02 3.504159674048423767e-02 -4.761741496622562408e-03
2.492000000000000000e+03 7.386079406738281250e+01 -8.180819511413574219e+00 -2.286553233861923218e-01 5.717941761016845703e+00 1.646785855293273926e+00 -2.179652690887451172e+00
2.493000000000000000e+03 7.846919536590576172e+00 -1.219318485260009766e+01 4.569890797138214111e-01 2.724314630031585693e-01 2.188261598348617554e-01 -4.320562779903411865e-01
2.494000000000000000e+03 2.105659675598144531e+01 -6.594518184661865234e+00 4.464896023273468018e-02 5.714500546455383301e-01 1.848296970129013062e-01 1.123322367668151855e+00
2.495000000000000000e+03 7.174890041351318359e+00 -1.956622314453125000e+01 4.324875473976135254e-01 2.856691479682922363e-01 2.154470086097717285e-01 3.020782768726348877e-01
2.496000000000000000e+03 8.381091117858886719e+00 1.457437992095947266e+01 -1.675828732550144196e-02 -4.348849877715110779e-03 -6.332141347229480743e-03 8.459303644485771656e-04
2.497000000000000000e+03 8.919091224670410156e+00 -1.697228431701660156e+01 6.891115307807922363e-01 8.284245729446411133e-01 4.552608430385589600e-01 1.324020773172378540e-01
2.498000000000000000e+03 5.266607284545898438e+00 9.780749320983886719e+00 1.750802388414740562e-03 -1.573072513565421104e-03 5.331897773430682719e-05 -2.903781365603208542e-03
2.499000000000000000e+03 4.334053039550781250e+01 -9.662852287292480469e+00 -1.200355648994445801e+00 5.056648254394531250e+00 1.156887769699096680e+00 -6.658579707145690918e-01
2.500000000000000000e+03 4.687961959838867188e+01 -1.058007335662841797e+01 -3.021528124809265137e-01 2.635543346405029297e+00 7.000171542167663574e-01 1.414931535720825195e+00
2.501000000000000000e+03 6.166500091552734375e+01 4.066899418830871582e-03 1.572294235229492188e+00 2.375494956970214844e+00 1.184336781501770020e+00 1.164434194564819336e+00
2.502000000000000000e+03 4.672677230834960938e+01 -1.197394752502441406e+01 1.335524022579193115e-01 3.557859420776367188e+00 1.107423543930053711e+00 1.358054876327514648e+00
2.503000000000000000e+03 4.601303100585937500e+01 -1.096330070495605469e+01 -2.230812460184097290e-01 3.435691833496093750e+00 9.637832045555114746e-01 9.284672737121582031e-01
2.504000000000000000e+03 6.885635375976562500e+01 1.682479095458984375e+01 6.828965544700622559e-01 5.084591865539550781e+00 1.730246543884277344e+00 -1.386548727750778198e-01
2.505000000000000000e+03 6.798867034912109375e+01 1.814268875122070312e+01 6.967893242835998535e-01 5.180021286010742188e+00 1.763043165206909180e+00 -7.475436478853225708e-02
2.506000000000000000e+03 1.196655368804931641e+01 1.456372261047363281e+01 -7.255480159074068069e-03 -9.719185531139373779e-03 -5.092399660497903824e-03 -4.257002845406532288e-03
2.507000000000000000e+03 4.177757644653320312e+01 -1.952818870544433594e+01 2.084701061248779297e+00 9.432648658752441406e+00 3.455204725265502930e+00 -7.292540073394775391e-01
2.508000000000000000e+03 6.523149871826171875e+01 7.453100681304931641e+00 9.637995958328247070e-01 4.961999416351318359e+00 1.777739763259887695e+00 1.714027076959609985e-01
2.509000000000000000e+03 4.005977249145507812e+01 -8.757658958435058594e+00 -2.150159120559692383e+00 7.792977333068847656e+00 1.692845463752746582e+00 -1.387966156005859375e+00
2.510000000000000000e+03 1.386251068115234375e+01 -9.207306861877441406e+00 3.703867197036743164e-01 1.341027617454528809e+00 5.134242773056030273e-01 1.532171517610549927e-01
2.511000000000000000e+03 5.593727493286132812e+01 -7.735275745391845703e+00 -1.078910708427429199e+00 1.960081458091735840e+00 2.643512189388275146e-01 1.768200278282165527e+00
2.512000000000000000e+03 3.760932922363281250e+01 1.289433479309082031e+01 8.050264120101928711e-01 1.006948184967041016e+01 3.262352466583251953e+00 4.675590395927429199e-01
2.513000000000000000e+03 3.782027053833007812e+01 -9.023251533508300781e+00 -2.238929271697998047e+00 9.025107383728027344e+00 2.035853624343872070e+00 -1.206368565559387207e+00
2.514000000000000000e+03 7.324239349365234375e+01 -2.474989891052246094e+01 -4.456638395786285400e-01 5.284116744995117188e+00 1.451535820960998535e+00 8.829497098922729492e-01
2.515000000000000000e+03 6.314666366577148438e+01 -1.045905113220214844e+00 1.414478421211242676e+00 1.987049937248229980e+00 1.020458579063415527e+00 5.075568556785583496e-01
2.516000000000000000e+03 3.813861083984375000e+01 -6.560147762298583984e+00 -3.202027797698974609e+00 9.250849723815917969e+00 1.814646482467651367e+00 -1.532180428504943848e+00
2.517000000000000000e+03 7.363515472412109375e+01 -9.696151733398437500e+00 -5.222573280334472656e-01 5.381551265716552734e+00 1.457788228988647461e+00 -2.104615688323974609e+00
2.518000000000000000e+03 4.243849945068359375e+01 -1.288485336303710938e+01 1.376787722110748291e-01 6.948918342590332031e+00 2.125979185104370117e+00 -6.725989580154418945e-01
2.519000000000000000e+03 7.558280181884765625e+01 -2.724707794189453125e+01 -1.595135182142257690e-01 8.171745300292968750e+00 2.403669595718383789e+00 9.798187017440795898e-01
2.520000000000000000e+03 3.815475463867187500e+01 1.611779594421386719e+01 5.915632247924804688e-01 7.691449165344238281e+00 2.484903573989868164e+00 7.541322112083435059e-01
2.521000000000000000e+03 1.202557373046875000e+01 2.396382141113281250e+01 -1.611941307783126831e-01 8.316934853792190552e-02 -2.340743504464626312e-02 1.122970506548881531e-01
2.522000000000000000e+03 7.556414604187011719e+00 -2.452112388610839844e+01 3.109859116375446320e-02 4.697423279285430908e-01 1.502522677183151245e-01 5.292051434516906738e-01
2.523000000000000000e+03 1.821125221252441406e+01 -6.593862533569335938e+00 -4.473169799894094467e-03 7.906230688095092773e-01 2.358449697494506836e-01 8.799887895584106445e-01
2.524000000000000000e+03 1.574431037902832031e+01 -5.520765304565429688e+00 -3.010264337062835693e-01 6.790295243263244629e-01 1.134009212255477905e-01 3.900938928127288818e-01
2.525000000000000000e+03 7.458525085449218750e+01 -2.669225692749023438e+01 -2.149343043565750122e-01 6.928487777709960938e+00 2.014065980911254883e+00 1.026576519012451172e+00
2.526000000000000000e+03 7.298001098632812500e+01 -2.632195091247558594e+01 -3.297105431556701660e-01 5.165686607360839844e+00 1.450792789459228516e+00 9.478861689567565918e-01
2.527000000000000000e+03 4.113943862915039062e+01 -2.022395706176757812e+01 2.100782871246337891e+00 9.495238304138183594e+00 3.478806257247924805e+00 -1.063123106956481934e+00
2.528000000000000000e+03 7.446601104736328125e+01 4.458449363708496094e+00 3.761400878429412842e-01 5.096884727478027344e+00 1.641907453536987305e+00 -1.164930105209350586e+00
2.529000000000000000e+03 6.604112243652343750e+01 1.776869010925292969e+01 8.751788735389709473e-01 5.651002883911132812e+00 1.957854509353637695e+00 -3.169254362583160400e-01
2.530000000000000000e+03 8.091923713684082031e+00 1.549337577819824219e+01 -2.054754830896854401e-02 -3.944060765206813812e-03 -7.347482722252607346e-03 1.376907341182231903e-03
2.531000000000000000e+03 4.207839012145996094e+00 1.910622024536132812e+01 -1.793301478028297424e-02 -1.269517559558153152e-02 -9.188457392156124115e-03 2.853447385132312775e-02
2.532000000000000000e+03 5.637751579284667969e+00 1.779406166076660156e+01 -2.278846502304077148e-02 -5.187315866351127625e-03 -8.392734453082084656e-03 1.829840429127216339e-02
2.533000000000000000e+03 7.341912841796875000e+01 2.043179512023925781e+01 1.413123607635498047e-01 4.590133666992187500e+00 1.419433832168579102e+00 1.808027029037475586e-01
2.534000000000000000e+03 7.519188690185546875e+01 1.922218704223632812e+01 1.403042823076248169e-01 4.448297023773193359e+00 1.376580357551574707e+00 1.270975619554519653e-01
2.535000000000000000e+03 6.771372222900390625e+01 1.630242156982421875e+01 7.886968851089477539e-01 5.351161956787109375e+00 1.841957688331604004e+00 -2.439001649618148804e-01
2.536000000000000000e+03 6.660925292968750000e+01 1.496013069152832031e+01 8.068242073059082031e-01 5.684741020202636719e+00 1.947469472885131836e+00 -3.320117294788360596e-01
2.537000000000000000e+03 6.142591094970703125e+01 -4.715757846832275391e+00 6.249574422836303711e-01 8.702986240386962891e-01 4.485768377780914307e-01 8.450459241867065430e-01
2.538000000000000000e+03 6.091320419311523438e+01 -3.926660299301147461e+00 8.740921616554260254e-01 1.211642265319824219e+00 6.257203221321105957e-01 1.052671313285827637e+00
2.539000000000000000e+03 6.916905212402343750e+01 1.905764007568359375e+01 5.411565899848937988e-01 4.971269607543945312e+00 1.653727769851684570e+00 6.280905753374099731e-02
2.540000000000000000e+03 6.640316009521484375e+01 2.158236503601074219e+01 1.207289248704910278e-01 5.124359607696533203e+00 1.573526620864868164e+00 -2.325842157006263733e-02
2.541000000000000000e+03 6.906957244873046875e+01 -2.896314239501953125e+01 -3.191391825675964355e-01 1.757419109344482422e+00 4.314839839935302734e-01 5.250998139381408691e-01
2.542000000000000000e+03 5.918741226196289062e+00 -2.241142463684082031e+01 1.638530641794204712e-01 -3.606163710355758667e-02 3.833742812275886536e-02 4.701829850673675537e-01
2.543000000000000000e+03 7.298537445068359375e+01 1.895342636108398438e+01 2.693226933479309082e-01 4.631877899169921875e+00 1.470360279083251953e+00 1.162779182195663452e-01
2.544000000000000000e+03 5.393785095214843750e+01 2.898424720764160156e+01 4.853954911231994629e-01 1.600504755973815918e+00 6.257700324058532715e-01 1.690204143524169922e-01
2.545000000000000000e+03 8.464838981628417969e+00 -3.188476181030273438e+01 -2.523409426212310791e-01 4.837665855884552002e-01 6.942769140005111694e-02 2.627607882022857666e-01
2.546000000000000000e+03 6.570168018341064453e+00 -2.919626998901367188e+01 -1.650007665157318115e-01 2.416642904281616211e-01 2.299905568361282349e-02 4.069755077362060547e-01
2.547000000000000000e+03 3.915999984741210938e+01 1.938507652282714844e+01 2.380287349224090576e-01 5.907996654510498047e+00 1.843807578086853027e+00 1.054475665092468262e+00
2.548000000000000000e+03 2.546213912963867188e+01 -5.872953891754150391e+00 -4.476099312305450439e-01 3.495796322822570801e-01 -2.940908446907997131e-02 1.479539155960083008e+00
2.549000000000000000e+03 2.629549789428710938e+01 -5.783991336822509766e+00 -4.804967343807220459e-01 3.394023180007934570e-01 -4.232832789421081543e-02 1.687146782875061035e+00
2.550000000000000000e+03 1.096933555603027344e+01 -2.460503959655761719e+01 -2.066406793892383575e-02 1.348235011100769043e+00 3.982712924480438232e-01 3.922843635082244873e-01
2.551000000000000000e+03 1.187976264953613281e+01 -2.554944801330566406e+01 -1.694824993610382080e-01 1.449865221977233887e+00 3.841148316860198975e-01 2.439540028572082520e-01
2.552000000000000000e+03 4.880241775512695312e+01 2.872159004211425781e+01 2.252802848815917969e-01 2.163691997528076172e+00 7.166917324066162109e-01 9.298272132873535156e-01
2.553000000000000000e+03 7.262976837158203125e+01 2.944614219665527344e+01 -1.252270787954330444e-01 4.531376838684082031e+00 1.321844935417175293e+00 1.102965697646141052e-01
2.554000000000000000e+03 7.429185485839843750e+01 2.988075637817382812e+01 -9.604620188474655151e-02 4.536377429962158203e+00 1.332099437713623047e+00 1.278641372919082642e-01
2.555000000000000000e+03 4.177919769287109375e+01 -2.743225669860839844e+01 1.051193833351135254e+00 8.258438110351562500e+00 2.792889595031738281e+00 -3.134301900863647461e-01
2.556000000000000000e+03 3.695541000366210938e+01 2.126523208618164062e+01 3.759783133864402771e-02 6.034005641937255859e+00 1.821481108665466309e+00 4.804707467555999756e-01
2.557000000000000000e+03 3.560252761840820312e+01 1.909230995178222656e+01 5.076040029525756836e-01 7.042438507080078125e+00 2.265012741088867188e+00 -2.470498532056808472e-01
2.558000000000000000e+03 5.020745277404785156e+00 -2.684571647644042969e+01 -4.842133820056915283e-02 -1.206729337573051453e-01 -5.072828009724617004e-02 4.674817621707916260e-01
2.559000000000000000e+03 2.104263877868652344e+01 2.865617370605468750e+01 2.020381838083267212e-01 6.586238145828247070e-01 2.581986188888549805e-01 -4.379044771194458008e-01
2.560000000000000000e+03 4.925366401672363281e+00 2.534375953674316406e+01 -3.001483157277107239e-02 -4.836771264672279358e-02 -2.351476252079010010e-02 1.019755750894546509e-01
2.561000000000000000e+03 6.843832969665527344e+00 2.624698066711425781e+01 -3.354134410619735718e-02 -1.609079539775848389e-02 -1.488964166492223740e-02 1.287250369787216187e-01
2.562000000000000000e+03 2.031019783020019531e+01 -6.928813934326171875e+00 9.879029542207717896e-02 6.544756293296813965e-01 2.259797751903533936e-01 1.078114151954650879e+00
2.563000000000000000e+03 2.056619644165039062e+01 -5.870931148529052734e+00 -6.196461245417594910e-02 5.575621128082275391e-01 1.486792564392089844e-01 1.113572239875793457e+00
2.564000000000000000e+03 1.204028987884521484e+01 -1.326953697204589844e+01 9.752116203308105469e-01 1.800208210945129395e+00 8.326259851455688477e-01 1.076855584979057312e-01
2.565000000000000000e+03 1.314629364013671875e+01 -2.753909873962402344e+01 -3.454644680023193359e-01 1.354276776313781738e+00 3.026437163352966309e-01 6.610179692506790161e-02
2.566000000000000000e+03 2.919127655029296875e+01 -4.574445247650146484e+00 4.239471554756164551e-01 9.645089507102966309e-01 4.165368378162384033e-01 1.247816443443298340e+00
2.567000000000000000e+03 6.121317291259765625e+01 2.320967292785644531e+01 -3.855139911174774170e-01 3.835801839828491211e+00 1.035086274147033691e+00 -1.345393896102905273e+00
2.568000000000000000e+03 6.105324935913085938e+01 2.776998901367187500e+01 -6.608308106660842896e-02 3.132905006408691406e+00 9.200465679168701172e-01 -8.816102147102355957e-01
2.569000000000000000e+03 2.017825841903686523e+00 3.473448944091796875e+01 1.588897407054901123e-02 -3.165138065814971924e-01 -9.018744528293609619e-02 4.197949916124343872e-02
2.570000000000000000e+03 7.428202056884765625e+01 -2.318490505218505859e+00 3.739603161811828613e-01 5.596602439880371094e+00 1.791168808937072754e+00 -1.928797721862792969e+00
2.571000000000000000e+03 3.943029403686523438e+01 -6.400844097137451172e+00 -3.119099855422973633e+00 8.574033737182617188e+00 1.636480212211608887e+00 -1.731422781944274902e+00
2.572000000000000000e+03 7.413912963867187500e+01 1.279580402374267578e+01 3.360326588153839111e-01 4.661094188690185547e+00 1.499138116836547852e+00 -3.593927621841430664e-01
2.573000000000000000e+03 7.205951690673828125e+00 1.504986476898193359e+01 -1.930385269224643707e-02 3.629291313700377941e-04 -5.682277493178844452e-03 2.284012036398053169e-03
2.574000000000000000e+03 6.570633888244628906e+00 1.442207622528076172e+01 -1.172424387186765671e-02 -8.634440600872039795e-03 -6.107605062425136566e-03 4.518622532486915588e-03
2.575000000000000000e+03 7.243679809570312500e+01 4.976830482482910156e+00 6.159253716468811035e-01 4.740988254547119141e+00 1.607074022293090820e+00 -1.147508025169372559e+00
2.576000000000000000e+03 7.322766876220703125e+01 5.671583652496337891e+00 4.855531156063079834e-01 4.868934154510498047e+00 1.606346130371093750e+00 -1.058115124702453613e+00
2.577000000000000000e+03 4.096537399291992188e+01 2.369371795654296875e+01 -2.023675739765167236e-01 4.420698642730712891e+00 1.265499353408813477e+00 1.244132995605468750e+00
2.578000000000000000e+03 3.736919403076171875e+01 -2.586714744567871094e+01 1.050110697746276855e+00 7.082379817962646484e+00 2.439747095108032227e+00 7.832071781158447266e-01
2.579000000000000000e+03 6.832353210449218750e+01 -3.377285385131835938e+01 4.497679769992828369e-01 2.025263309478759766e+00 7.425093650817871094e-01 7.172905206680297852e-01
2.580000000000000000e+03 7.583687782287597656e+00 -1.460225391387939453e+01 5.628730654716491699e-01 2.624114453792572021e-01 2.475853562355041504e-01 -1.968664973974227905e-01
2.581000000000000000e+03 6.679988384246826172e+00 -1.352153873443603516e+01 4.418426156044006348e-01 3.220634767785668373e-03 1.335189789533615112e-01 -3.342097997665405273e-01
2.582000000000000000e+03 6.932150840759277344e+00 1.980989837646484375e+01 -5.378179997205734253e-02 1.239960361272096634e-02 -1.241465937346220016e-02 3.396689891815185547e-02
2.583000000000000000e+03 6.511932849884033203e+00 2.249660873413085938e+01 -6.221354380249977112e-02 4.838723223656415939e-03 -1.721244677901268005e-02 8.103668689727783203e-02
2.584000000000000000e+03 7.453369903564453125e+01 -1.198458862304687500e+01 -9.339821338653564453e-01 6.526673793792724609e+00 1.677807450294494629e+00 -2.583354234695434570e+00
2.585000000000000000e+03 7.518759918212890625e+01 -1.920003890991210938e+01 -2.399091124534606934e-01 8.637114524841308594e+00 2.519161462783813477e+00 3.066304445266723633e+00
2.586000000000000000e+03 7.419403076171875000e+01 -1.878013992309570312e+01 8.125483393669128418e-01 4.175951480865478516e+00 1.496549963951110840e+00 2.335138797760009766e+00
2.587000000000000000e+03 7.500569915771484375e+01 -2.082828903198242188e+01 -5.644770264625549316e-01 7.961340427398681641e+00 2.219058990478515625e+00 1.618887424468994141e+00
2.588000000000000000e+03 7.409169006347656250e+01 -2.000946807861328125e+01 1.312275677919387817e-01 5.207247734069824219e+00 1.601542711257934570e+00 1.777487635612487793e+00
2.589000000000000000e+03 7.633405303955078125e+01 -1.313665008544921875e+01 -2.353582859039306641e+00 1.250625896453857422e+01 3.045802831649780273e+00 -2.062095880508422852e+00
2.590000000000000000e+03 7.599438476562500000e+01 -1.367097949981689453e+01 -2.204145431518554688e+00 1.214514064788818359e+01 2.982298374176025391e+00 -3.150379419326782227e+00
2.591000000000000000e+03 7.381942749023437500e+01 -1.279836273193359375e+01 -6.755300164222717285e-01 4.312177658081054688e+00 1.090994358062744141e+00 -2.281805276870727539e+00
2.592000000000000000e+03 7.326433563232421875e+01 -1.313501644134521484e+01 -7.027955055236816406e-01 2.885678529739379883e+00 6.548649072647094727e-01 -1.676072001457214355e+00
2.593000000000000000e+03 7.462397766113281250e+01 -1.987262725830078125e+01 -9.228619188070297241e-02 6.795368194580078125e+00 2.010924577713012695e+00 2.164155006408691406e+00
2.594000000000000000e+03 7.485294342041015625e+01 -1.903091049194335938e+01 2.282617539167404175e-01 7.112508296966552734e+00 2.202230930328369141e+00 3.091605424880981445e+00
2.595000000000000000e+03 7.557767486572265625e+01 -1.925029182434082031e+01 -8.737809658050537109e-01 1.053270435333251953e+01 2.897676944732666016e+00 2.919456720352172852e+00
2.596000000000000000e+03 7.320713806152343750e+01 -2.009386062622070312e+01 2.414584904909133911e-01 3.549278259277343750e+00 1.137220978736877441e+00 1.027904748916625977e+00
2.597000000000000000e+03 7.496813964843750000e+01 -1.346592235565185547e+01 -9.042179584503173828e-01 7.401362895965576172e+00 1.949143528938293457e+00 -3.498528957366943359e+00
2.598000000000000000e+03 7.337879943847656250e+01 -1.261762332916259766e+01 -6.979944109916687012e-01 3.724273920059204102e+00 9.078838229179382324e-01 -1.820093750953674316e+00
2.599000000000000000e+03 7.573339080810546875e+01 -1.337435245513916016e+01 -1.887599706649780273e+00 1.082828235626220703e+01 2.682204961776733398e+00 -3.240068435668945312e+00
2.600000000000000000e+03 1.111759567260742188e+01 5.547174453735351562e+00 2.272607525810599327e-03 -2.024803834501653910e-04 6.210381397977471352e-04 1.008198363706469536e-03
2.601000000000000000e+03 7.269929504394531250e+01 -2.077807044982910156e+01 2.129838615655899048e-02 3.184767007827758789e+00 9.618196487426757812e-01 6.283352971076965332e-01
2.602000000000000000e+03 7.428176116943359375e+01 -2.178532409667968750e+01 -4.340225458145141602e-01 6.534900665283203125e+00 1.830263376235961914e+00 1.270203828811645508e+00
2.603000000000000000e+03 9.064828872680664062e+00 -5.638037681579589844e+00 -2.729844152927398682e-01 1.823267638683319092e-01 -2.719729579985141754e-02 -5.451933145523071289e-01
2.604000000000000000e+03 1.041623210906982422e+01 -5.807635784149169922e+00 -2.968791723251342773e-01 3.307099342346191406e-01 1.014922652393579483e-02 -4.445804953575134277e-01
2.605000000000000000e+03 7.758474349975585938e+00 -6.191425800323486328e+00 -1.551579684019088745e-01 7.621417194604873657e-02 -2.368314005434513092e-02 -6.218360066413879395e-01
2.606000000000000000e+03 1.281835460662841797e+01 6.078698635101318359e+00 2.746475394815206528e-03 -1.114684971980750561e-03 4.895370802842080593e-04 1.578019582666456699e-03
2.607000000000000000e+03 1.272069454193115234e+01 6.672303676605224609e+00 -2.318584360182285309e-03 1.284765894524753094e-04 -6.570323603227734566e-04 2.539541805163025856e-03
2.608000000000000000e+03 7.672251129150390625e+01 -1.313938426971435547e+01 -2.417985677719116211e+00 1.334619331359863281e+01 3.278462409973144531e+00 -1.092249631881713867e+00
2.609000000000000000e+03 7.708284759521484375e+01 -1.365360736846923828e+01 -2.697182893753051758e+00 1.528058910369873047e+01 3.775021791458129883e+00 -2.444404810667037964e-01
2.610000000000000000e+03 1.035801124572753906e+01 5.535034179687500000e+00 -2.247518714284524322e-04 -1.794344978407025337e-03 -6.057290593162178993e-04 9.411997161805629730e-04
2.611000000000000000e+03 9.000883102416992188e+00 6.476561069488525391e+00 2.703900914639234543e-03 -1.199532998725771904e-03 4.513103631325066090e-04 -2.444295969326049089e-04
2.612000000000000000e+03 5.962859630584716797e+00 -6.041517257690429688e+00 -1.361446678638458252e-01 -1.060741022229194641e-01 -7.266563177108764648e-02 -6.188538670539855957e-01
2.613000000000000000e+03 7.098658084869384766e+00 -6.516648292541503906e+00 -1.147194281220436096e-01 1.580690219998359680e-02 -2.967375703155994415e-02 -6.359853148460388184e-01
2.614000000000000000e+03 1.834579849243164062e+01 -4.767749786376953125e+00 -2.585900723934173584e-01 5.335941314697265625e-01 8.250121772289276123e-02 8.079267144203186035e-01
2.615000000000000000e+03 7.415176391601562500e+01 -2.120918464660644531e+01 -3.190689384937286377e-01 6.179636478424072266e+00 1.758170247077941895e+00 1.427544474601745605e+00
2.616000000000000000e+03 1.387364101409912109e+01 -8.248216629028320312e+00 1.353537291288375854e-01 1.100397825241088867e+00 3.707254528999328613e-01 9.378582984209060669e-02
2.617000000000000000e+03 7.325605773925781250e+01 -1.147824382781982422e+01 -8.547931909561157227e-01 4.425362586975097656e+00 1.071170806884765625e+00 -1.982916951179504395e+00
2.618000000000000000e+03 7.643340301513671875e+01 -1.148091220855712891e+01 -1.283628702163696289e+00 1.028814411163330078e+01 2.701354503631591797e+00 -1.526615381240844727e+00
2.619000000000000000e+03 7.582113647460937500e+01 -1.041914081573486328e+01 -9.788494110107421875e-01 8.760907173156738281e+00 2.334617376327514648e+00 -1.885861635208129883e+00
2.620000000000000000e+03 6.880938529968261719e+00 5.763014793395996094e+00 1.220348523929715157e-03 -1.971285964827984571e-04 3.069659578613936901e-04 -8.228131337091326714e-04
2.621000000000000000e+03 6.701388835906982422e+00 6.904473781585693359e+00 1.873642788268625736e-03 -1.311448751948773861e-03 1.686581963440403342e-04 -1.359058660455048084e-03
2.622000000000000000e+03 7.213999176025390625e+01 -2.299384307861328125e+01 -3.725029528141021729e-01 3.404995679855346680e+00 9.097478389739990234e-01 5.757144689559936523e-01
2.623000000000000000e+03 9.315669059753417969e+00 -6.303858757019042969e+00 -1.810650378465652466e-01 2.781157195568084717e-01 2.911520376801490784e-02 -5.460531711578369141e-01
2.624000000000000000e+03 1.027555656433105469e+01 -6.748133659362792969e+00 -1.229846552014350891e-01 4.267048835754394531e-01 9.111607074737548828e-02 -4.727140367031097412e-01
2.625000000000000000e+03 6.444332122802734375e+00 1.003544807434082031e+01 -1.524766674265265465e-03 -4.359072539955377579e-03 -1.765151740983128548e-03 1.768700167303904891e-05
2.626000000000000000e+03 6.273411750793457031e+00 1.229216480255126953e+01 -5.471745505928993225e-03 -5.912552587687969208e-03 -3.415289567783474922e-03 1.580805750563740730e-03
2.627000000000000000e+03 7.161491394042968750e+01 -1.092158508300781250e+01 -1.234390854835510254e+00 2.767586946487426758e+00 4.599588215351104736e-01 -1.232583522796630859e+00
2.628000000000000000e+03 7.060757446289062500e+01 -1.098906707763671875e+01 -1.712804675102233887e+00 2.002480983734130859e+00 8.690291643142700195e-02 -8.393902778625488281e-01
2.629000000000000000e+03 2.420056533813476562e+01 -3.707910060882568359e+00 2.843825519084930420e-01 1.385696977376937866e-01 1.268856674432754517e-01 1.285960316658020020e+00
2.630000000000000000e+03 1.433169841766357422e+01 -5.372039794921875000e+00 -3.688258826732635498e-01 6.104009747505187988e-01 7.247252017259597778e-02 1.192040964961051941e-01
2.631000000000000000e+03 1.472151947021484375e+01 -5.921021461486816406e+00 -2.443107813596725464e-01 7.110742330551147461e-01 1.400290280580520630e-01 2.162917554378509521e-01
2.632000000000000000e+03 6.208070755004882812e+01 -6.767229557037353516e+00 -6.662079095840454102e-01 1.128429025411605835e-01 -1.660095006227493286e-01 7.694071531295776367e-01
2.633000000000000000e+03 6.235379695892333984e+00 8.292428970336914062e+00 1.490267575718462467e-03 -1.045378623530268669e-03 1.334666740149259567e-04 -1.654893858358263969e-03
2.634000000000000000e+03 5.240050315856933594e+00 8.629791259765625000e+00 -8.270232938230037689e-04 -3.107004333287477493e-03 -1.180208288133144379e-03 -7.241108687594532967e-04
2.635000000000000000e+03 1.359693908691406250e+01 -5.429722309112548828e+00 -3.610471189022064209e-01 5.395994186401367188e-01 5.356568470597267151e-02 5.115293897688388824e-03
2.636000000000000000e+03 7.599352264404296875e+01 -1.969890022277832031e+01 -1.403479933738708496e+00 1.163822937011718750e+01 3.070424795150756836e+00 1.958894491195678711e+00
2.637000000000000000e+03 1.748826980590820312e+01 -6.126599311828613281e+00 -1.005609855055809021e-01 7.904329299926757812e-01 2.069615870714187622e-01 7.537117004394531250e-01
2.638000000000000000e+03 7.267019271850585938e+00 -8.326751708984375000e+00 7.002209126949310303e-02 4.300823435187339783e-02 3.390909731388092041e-02 -6.357122063636779785e-01
2.639000000000000000e+03 7.511745452880859375e+01 -1.004494667053222656e+01 -6.362856030464172363e-01 7.576179027557373047e+00 2.081968069076538086e+00 -2.019505500793457031e+00
2.640000000000000000e+03 6.537815093994140625e+01 -5.593842983245849609e+00 2.174027562141418457e-01 3.598629236221313477e-01 1.731797009706497192e-01 -5.032637715339660645e-01
2.641000000000000000e+03 6.080356979370117188e+01 -7.311925888061523438e+00 -1.044421315193176270e+00 5.313947200775146484e-01 -1.539079695940017700e-01 1.025212407112121582e+00
2.642000000000000000e+03 6.008029556274414062e+01 -7.775478363037109375e+00 -1.198032259941101074e+00 6.995940208435058594e-01 -1.495314836502075195e-01 1.110519886016845703e+00
2.643000000000000000e+03 7.511474609375000000e+01 -1.976658439636230469e+01 -5.087766647338867188e-01 8.479532241821289062e+00 2.391226768493652344e+00 2.420641660690307617e+00
2.644000000000000000e+03 1.290642356872558594e+01 -9.106905937194824219e+00 2.954341173171997070e-01 1.169994831085205078e+00 4.396286606788635254e-01 -7.664653658866882324e-02
2.645000000000000000e+03 7.275640106201171875e+01 -2.806559181213378906e+01 -1.335349529981613159e-01 4.925165176391601562e+00 1.437489032745361328e+00 1.031411528587341309e+00
2.646000000000000000e+03 9.408400535583496094e+00 -1.242262458801269531e+01 6.030377149581909180e-01 7.121903300285339355e-01 3.945684134960174561e-01 -3.322155177593231201e-01
2.647000000000000000e+03 6.226365566253662109e+00 6.068120479583740234e+00 5.297139869071543217e-04 -2.293834462761878967e-03 -5.292361020110547543e-04 -1.638773392187431455e-04
2.648000000000000000e+03 7.476445674896240234e+00 5.648715019226074219e+00 4.356384451966732740e-04 -2.204130636528134346e-03 -5.305476370267570019e-04 -7.266571046784520149e-04
2.649000000000000000e+03 2.630992317199707031e+01 -3.301003456115722656e+00 1.069332122802734375e+00 7.402250543236732483e-03 3.230203092098236084e-01 1.484227538108825684e+00
2.650000000000000000e+03 7.436580657958984375e+01 -9.820064544677734375e+00 -6.237628459930419922e-01 6.381527423858642578e+00 1.727329492568969727e+00 -2.143842220306396484e+00
2.651000000000000000e+03 1.343371772766113281e+01 -6.247834682464599609e+00 -2.135130465030670166e-01 6.923901438713073730e-01 1.436631232500076294e-01 -2.953990362584590912e-03
2.652000000000000000e+03 6.697376728057861328e+00 -1.241723728179931641e+01 3.819715380668640137e-01 -5.974365398287773132e-03 1.127991527318954468e-01 -4.236410260200500488e-01
2.653000000000000000e+03 7.579282283782958984e+00 -1.069742774963378906e+01 3.042480051517486572e-01 1.654631942510604858e-01 1.409133672714233398e-01 -5.399892330169677734e-01
2.654000000000000000e+03 7.299626922607421875e+01 -2.275295448303222656e+01 -3.420483469963073730e-01 4.495419979095458984e+00 1.246011376380920410e+00 7.832639813423156738e-01
2.655000000000000000e+03 1.215507125854492188e+01 -6.574696540832519531e+00 -1.556516885757446289e-01 6.427496671676635742e-01 1.461293846368789673e-01 -2.213157862424850464e-01
2.656000000000000000e+03 1.403289699554443359e+01 -7.381556034088134766e+00 7.567968219518661499e-03 9.772528409957885742e-01 2.954462468624114990e-01 1.341639161109924316e-01
2.657000000000000000e+03 7.187086486816406250e+01 -5.226166844367980957e-01 6.762349605560302734e-01 4.365833759307861328e+00 1.512620568275451660e+00 -1.762565255165100098e+00
2.658000000000000000e+03 7.443093109130859375e+01 -5.066369056701660156e+00 1.945630013942718506e-01 5.995023250579833984e+00 1.856875896453857422e+00 -2.120879888534545898e+00
2.659000000000000000e+03 5.474914550781250000e+01 -7.451859474182128906e+00 -1.060108184814453125e+00 2.233204841613769531e+00 3.519290089607238770e-01 2.142015933990478516e+00
2.660000000000000000e+03 1.379897117614746094e+01 7.012727737426757812e+00 4.829068493563681841e-04 -4.003464709967374802e-04 2.476811096130404621e-05 1.957037020474672318e-03
2.661000000000000000e+03 1.194285297393798828e+01 6.584258556365966797e+00 2.877254737541079521e-03 -7.004672079347074032e-04 6.530362879857420921e-04 1.744173350743949413e-03
2.662000000000000000e+03 6.904254150390625000e+01 -9.127411842346191406e+00 -1.356429576873779297e+00 1.328024148941040039e+00 -8.521624840795993805e-03 -1.428717970848083496e+00
2.663000000000000000e+03 7.388465118408203125e+01 -7.325410842895507812e+00 -1.892683506011962891e-01 5.687567710876464844e+00 1.649489879608154297e+00 -2.186619043350219727e+00
2.664000000000000000e+03 6.771767425537109375e+01 -7.935582637786865234e+00 -9.962309598922729492e-01 7.205737233161926270e-01 -8.269716054201126099e-02 -1.260695219039916992e+00
2.665000000000000000e+03 6.722161102294921875e+01 -7.100750446319580078e+00 -4.243027269840240479e-01 6.755284070968627930e-01 7.536769658327102661e-02 -1.207476973533630371e+00
2.666000000000000000e+03 5.913946533203125000e+01 -6.326889991760253906e+00 -3.938671350479125977e-01 1.244317054748535156e+00 2.551349699497222900e-01 1.331101417541503906e+00
2.667000000000000000e+03 3.799694442749023438e+01 -5.154772281646728516e+00 -2.948225736618041992e+00 9.631860733032226562e+00 2.005090475082397461e+00 -1.373288750648498535e+00
2.668000000000000000e+03 3.925934982299804688e+01 -2.607697105407714844e+01 1.245285749435424805e+00 7.655333995819091797e+00 2.670186042785644531e+00 1.323324888944625854e-01
2.669000000000000000e+03 7.233145141601562500e+01 -2.529988098144531250e+01 -3.867408931255340576e-01 4.162937641143798828e+00 1.132858991622924805e+00 7.750690579414367676e-01
2.670000000000000000e+03 9.274373054504394531e+00 1.855598831176757812e+01 -6.712272763252258301e-02 1.317260693758726120e-02 -1.618503779172897339e-02 9.788584895431995392e-03
2.671000000000000000e+03 1.763244247436523438e+01 -8.176686286926269531e+00 3.287461102008819580e-01 1.103835940361022949e+00 4.297746121883392334e-01 8.967054486274719238e-01
2.672000000000000000e+03 3.692110061645507812e+01 -8.829159736633300781e+00 -2.620314121246337891e+00 9.203928947448730469e+00 1.975084424018859863e+00 -1.140927433967590332e+00
2.673000000000000000e+03 3.886856079101562500e+01 -8.916236877441406250e+00 -2.234322071075439453e+00 8.620205879211425781e+00 1.915765047073364258e+00 -1.377839207649230957e+00
2.674000000000000000e+03 6.886122131347656250e+01 1.073236656188964844e+01 7.686117291450500488e-01 5.070254802703857422e+00 1.751659989356994629e+00 -4.774488806724548340e-01
2.675000000000000000e+03 6.774192810058593750e+01 1.189406871795654297e+01 7.512204647064208984e-01 5.313739299774169922e+00 1.819487929344177246e+00 -3.926842510700225830e-01
2.676000000000000000e+03 8.689383506774902344e+00 1.050308322906494141e+01 -2.385699655860662460e-03 -6.145603954792022705e-03 -2.559391083195805550e-03 1.278399606235325336e-03
2.677000000000000000e+03 6.543607330322265625e+01 1.403982877731323242e+00 1.322521924972534180e+00 3.004261016845703125e+00 1.298034906387329102e+00 -1.174608767032623291e-01
2.678000000000000000e+03 6.478158569335937500e+01 1.966837048530578613e+00 1.343811273574829102e+00 3.182557344436645508e+00 1.357910633087158203e+00 1.297146826982498169e-01
2.679000000000000000e+03 7.374651336669921875e+01 -6.423603534698486328e+00 2.015688829123973846e-02 5.544163703918457031e+00 1.669296264648437500e+00 -2.170932769775390625e+00
2.680000000000000000e+03 8.398806571960449219e+00 -1.434961223602294922e+01 6.629073619842529297e-01 5.606698393821716309e-01 3.670731484889984131e-01 -1.780728548765182495e-01
2.681000000000000000e+03 8.526871681213378906e+00 1.359899711608886719e+01 -8.732452057301998138e-03 -3.269980661571025848e-03 -3.600729629397392273e-03 -2.298131119459867477e-03
2.682000000000000000e+03 1.093124198913574219e+01 1.303097534179687500e+01 -4.917144309729337692e-03 -8.304750546813011169e-03 -3.966568503528833389e-03 8.507729944540187716e-05
2.683000000000000000e+03 5.753376007080078125e+01 -6.086691379547119141e+00 -1.430155187845230103e-01 1.783341765403747559e+00 4.920978844165802002e-01 1.603477358818054199e+00
2.684000000000000000e+03 7.429483413696289062e+00 1.431910133361816406e+01 -1.197960507124662399e-02 -2.276147017255425453e-03 -4.276725463569164276e-03 -3.254428447689861059e-04
2.685000000000000000e+03 7.426139354705810547e+00 1.341765975952148438e+01 -9.545153006911277771e-03 -7.293063681572675705e-03 -5.051464773714542389e-03 2.098426222801208496e-03
2.686000000000000000e+03 8.098995208740234375e+00 -1.647502136230468750e+01 6.241970658302307129e-01 5.091987252235412598e-01 3.400187492370605469e-01 1.749930344521999359e-02
2.687000000000000000e+03 9.022625923156738281e+00 -1.602331733703613281e+01 7.680543661117553711e-01 8.303154110908508301e-01 4.795109331607818604e-01 4.164618998765945435e-02
2.688000000000000000e+03 1.960824012756347656e+01 -6.929027557373046875e+00 9.263221174478530884e-02 7.019590139389038086e-01 2.383773624897003174e-01 1.030608296394348145e+00
2.689000000000000000e+03 1.889322662353515625e+01 -6.807757854461669922e+00 6.845425814390182495e-02 7.683976888656616211e-01 2.510555982589721680e-01 9.863393306732177734e-01
2.690000000000000000e+03 4.155515289306640625e+01 -1.441463661193847656e+01 7.995119094848632812e-01 7.732678890228271484e+00 2.559657335281372070e+00 -9.920973181724548340e-01
2.691000000000000000e+03 6.108465957641601562e+01 -2.569361925125122070e+00 1.328075408935546875e+00 1.551314234733581543e+00 8.638168573379516602e-01 1.147083520889282227e+00
2.692000000000000000e+03 4.127110290527343750e+01 -1.319133663177490234e+01 2.959377467632293701e-01 7.510946750640869141e+00 2.342065334320068359e+00 -1.100890874862670898e+00
2.693000000000000000e+03 4.265233612060546875e+01 -1.416244602203369141e+01 6.765238046646118164e-01 7.336283206939697266e+00 2.403842210769653320e+00 -6.817532777786254883e-01
2.694000000000000000e+03 1.016521453857421875e+01 -1.182344627380371094e+01 6.164368391036987305e-01 9.247120618820190430e-01 4.623446762561798096e-01 -2.870917022228240967e-01
2.695000000000000000e+03 6.000120925903320312e+01 -6.915605068206787109e+00 -5.506092309951782227e-01 8.614413142204284668e-01 9.324962645769119263e-02 1.248493552207946777e+00
2.696000000000000000e+03 1.473937225341796875e+01 -8.402147293090820312e+00 2.164444774389266968e-01 1.235768318176269531e+00 4.356638491153717041e-01 3.188633918762207031e-01
2.697000000000000000e+03 1.600448417663574219e+01 -7.280032634735107422e+00 2.788368239998817444e-02 1.013465046882629395e+00 3.124046027660369873e-01 4.981421530246734619e-01
2.698000000000000000e+03 3.692701721191406250e+01 -7.189944267272949219e+00 -3.163470268249511719e+00 9.308642387390136719e+00 1.843551635742187500e+00 -1.299213051795959473e+00
2.699000000000000000e+03 8.199224472045898438e+00 1.791256713867187500e+01 -5.120792239904403687e-02 1.418908126652240753e-02 -1.110565196722745895e-02 9.607269428670406342e-03
2.700000000000000000e+03 7.086025238037109375e+01 -3.549185943603515625e+01 5.952833890914916992e-01 3.840713977813720703e+00 1.330799221992492676e+00 8.685956597328186035e-01
2.701000000000000000e+03 6.789775085449218750e+01 9.331274032592773438e+00 8.185555934906005859e-01 5.039570808410644531e+00 1.757437825202941895e+00 -4.017199277877807617e-01
2.702000000000000000e+03 5.932653427124023438e+00 1.506602191925048828e+01 -1.561836339533329010e-02 7.376382127404212952e-04 -4.464217461645603180e-03 5.165913607925176620e-03
2.703000000000000000e+03 3.943040847778320312e+01 -1.836662673950195312e+01 1.811025381088256836e+00 9.138881683349609375e+00 3.284972190856933594e+00 -1.337626218795776367e+00
2.704000000000000000e+03 8.120421409606933594e+00 2.242053794860839844e+01 -9.180773049592971802e-02 3.063012845814228058e-02 -1.835328154265880585e-02 8.457933366298675537e-02
2.705000000000000000e+03 1.487226295471191406e+01 5.701245307922363281e+00 1.236013136804103851e-03 7.580628735013306141e-04 5.982227739877998829e-04 6.640607607550919056e-04
2.706000000000000000e+03 1.378957653045654297e+01 5.828656196594238281e+00 1.046113786287605762e-03 -2.029166498687118292e-04 2.529591438360512257e-04 8.245413773693144321e-04
2.707000000000000000e+03 4.367134475708007812e+01 -1.275457382202148438e+01 5.973996594548225403e-02 6.247563362121582031e+00 1.892191052436828613e+00 -1.502041667699813843e-01
2.708000000000000000e+03 1.552566814422607422e+01 2.410134315490722656e+01 -2.178318649530410767e-01 6.759708374738693237e-02 -4.507043212652206421e-02 7.795622199773788452e-02
2.709000000000000000e+03 1.003924083709716797e+01 -1.814746284484863281e+01 7.614658474922180176e-01 1.383514046669006348e+00 6.434939503669738770e-01 3.039374947547912598e-01
2.710000000000000000e+03 9.621773719787597656e+00 -3.004070663452148438e+01 -2.921202182769775391e-01 7.368376851081848145e-01 1.334152370691299438e-01 2.934624254703521729e-01
2.711000000000000000e+03 7.365779399871826172e+00 -2.828969764709472656e+01 -1.716453880071640015e-01 3.925141394138336182e-01 6.626062840223312378e-02 4.392986297607421875e-01
2.712000000000000000e+03 8.278271675109863281e+00 -2.210154533386230469e+01 2.972760796546936035e-01 7.054448723793029785e-01 3.008162975311279297e-01 4.887257814407348633e-01
2.713000000000000000e+03 7.196981430053710938e+00 -1.823755645751953125e+01 4.896466135978698730e-01 2.680531740188598633e-01 2.273099273443222046e-01 1.932695060968399048e-01
2.714000000000000000e+03 7.064780426025390625e+01 -2.786752581596374512e-01 8.322464823722839355e-01 3.894430875778198242e+00 1.418003201484680176e+00 -1.631391167640686035e+00
2.715000000000000000e+03 6.853053283691406250e+01 2.067909431457519531e+01 3.256615698337554932e-01 4.990571022033691406e+00 1.594869732856750488e+00 1.313149929046630859e-01
2.716000000000000000e+03 7.283972167968750000e+01 1.025492191314697266e+01 4.539341628551483154e-01 4.801582336425781250e+00 1.576654911041259766e+00 -6.286659240722656250e-01
2.717000000000000000e+03 7.312042999267578125e+01 8.889790534973144531e+00 4.517455697059631348e-01 4.817134380340576172e+00 1.580663919448852539e+00 -7.447440028190612793e-01
2.718000000000000000e+03 8.619517326354980469e+00 -2.526565742492675781e+01 -5.905833840370178223e-02 7.579888701438903809e-01 2.096791565418243408e-01 5.059551596641540527e-01
2.719000000000000000e+03 6.468903541564941406e+00 -2.664235305786132812e+01 -8.462807536125183105e-02 2.309208661317825317e-01 4.388783872127532959e-02 4.923862218856811523e-01
2.720000000000000000e+03 4.073129272460937500e+01 -7.327576160430908203e+00 -2.719179630279541016e+00 7.201216220855712891e+00 1.344610929489135742e+00 -1.720620632171630859e+00
2.721000000000000000e+03 3.969551467895507812e+01 -7.570013999938964844e+00 -2.836558580398559570e+00 8.175583839416503906e+00 1.601707696914672852e+00 -1.673651933670043945e+00
2.722000000000000000e+03 4.735613250732421875e+01 -1.123248100280761719e+01 -9.883964061737060547e-02 2.683686494827270508e+00 7.754540443420410156e-01 1.690449595451354980e+00
2.723000000000000000e+03 6.978843688964843750e+01 1.288861083984375000e+01 6.813275218009948730e-01 5.034970760345458984e+00 1.714889407157897949e+00 -3.869806230068206787e-01
2.724000000000000000e+03 7.338364410400390625e+01 -5.454837322235107422e+00 1.497371643781661987e-01 5.206800937652587891e+00 1.606961488723754883e+00 -2.156710624694824219e+00
2.725000000000000000e+03 7.747133731842041016e+00 -1.374458026885986328e+01 5.614244937896728516e-01 2.929886579513549805e-01 2.563239336013793945e-01 -2.862109243869781494e-01
2.726000000000000000e+03 6.599016666412353516e+00 -1.465275287628173828e+01 4.683281481266021729e-01 -1.879389211535453796e-02 1.348602771759033203e-01 -1.995251178741455078e-01
2.727000000000000000e+03 6.462381744384765625e+01 2.808860063552856445e+00 1.340191841125488281e+00 3.414130687713623047e+00 1.426296830177307129e+00 2.064344435930252075e-01
2.728000000000000000e+03 7.170727539062500000e+01 -1.851174592971801758e+00 6.475745439529418945e-01 4.198027610778808594e+00 1.453680634498596191e+00 -1.904493570327758789e+00
2.729000000000000000e+03 3.597699737548828125e+01 2.470920753479003906e+01 -4.091058671474456787e-01 5.240228176116943359e+00 1.449336767196655273e+00 2.533848583698272705e-01
2.730000000000000000e+03 9.125420570373535156e+00 -2.758496856689453125e+01 -2.119672000408172607e-01 7.741078138351440430e-01 1.686421781778335571e-01 4.169148206710815430e-01
2.731000000000000000e+03 4.134981155395507812e+01 -8.396240234375000000e+00 -2.122142553329467773e+00 6.684120655059814453e+00 1.368593335151672363e+00 -1.536738872528076172e+00
2.732000000000000000e+03 4.092889785766601562e+01 -1.195297622680664062e+01 -3.464933633804321289e-01 7.407734870910644531e+00 2.118372440338134766e+00 -1.125063180923461914e+00
2.733000000000000000e+03 4.380055236816406250e+01 2.412234497070312500e+01 -5.655121058225631714e-02 3.426167964935302734e+00 1.010885000228881836e+00 1.429373502731323242e+00
2.734000000000000000e+03 7.325481414794921875e+01 1.876593589782714844e+00 5.531607270240783691e-01 4.928337097167968750e+00 1.644449353218078613e+00 -1.519577741622924805e+00
2.735000000000000000e+03 7.214568328857421875e+01 2.604005050659179688e+01 -9.469807893037796021e-02 4.620975971221923828e+00 1.357883334159851074e+00 1.874431222677230835e-01
2.736000000000000000e+03 7.609449768066406250e+01 -1.248766231536865234e+01 -1.769595623016357422e+00 1.085434341430664062e+01 2.725424289703369141e+00 -1.935867667198181152e+00
2.737000000000000000e+03 7.405393981933593750e+01 -1.958684539794921875e+01 4.331111609935760498e-01 4.775188922882080078e+00 1.562490105628967285e+00 1.934631347656250000e+00
2.738000000000000000e+03 7.417001342773437500e+01 -1.293678951263427734e+01 -7.108573913574218750e-01 5.157052993774414062e+00 1.333858728408813477e+00 -2.693117618560791016e+00
2.739000000000000000e+03 7.431406402587890625e+01 -1.905935478210449219e+01 6.804104447364807129e-01 4.983236789703369141e+00 1.699094176292419434e+00 2.532828092575073242e+00
2.740000000000000000e+03 7.604058074951171875e+01 -2.025148582458496094e+01 -1.306282281875610352e+00 1.104155540466308594e+01 2.920582056045532227e+00 1.443926692008972168e+00
2.741000000000000000e+03 7.544412231445312500e+01 -1.098967075347900391e+01 -1.053058385848999023e+00 8.323569297790527344e+00 2.181153059005737305e+00 -2.142165184020996094e+00
2.742000000000000000e+03 7.283083343505859375e+01 -1.245542716979980469e+01 -9.321781992912292480e-01 3.045817136764526367e+00 6.340916752815246582e-01 -1.461482048034667969e+00
2.743000000000000000e+03 7.245015716552734375e+01 -9.274449348449707031e+00 -5.812879204750061035e-01 4.097935199737548828e+00 1.054994225502014160e+00 -2.024066925048828125e+00
2.744000000000000000e+03 8.178628921508789062e+00 -6.816894531250000000e+00 -8.893968164920806885e-02 1.610883176326751709e-01 2.164459228515625000e-02 -6.284458637237548828e-01
2.745000000000000000e+03 1.332369709014892578e+01 6.407690525054931641e+00 -8.092562202364206314e-04 1.750099589116871357e-03 2.822529932018369436e-04 8.793225279077887535e-04
2.746000000000000000e+03 1.189949321746826172e+01 7.476993560791015625e+00 -2.727649174630641937e-03 -6.140434416010975838e-04 -1.002507749944925308e-03 1.958560431376099586e-03
2.747000000000000000e+03 9.310234069824218750e+00 7.377546787261962891e+00 -1.201798208057880402e-03 -2.433585701510310173e-03 -1.090615172870457172e-03 1.449414994567632675e-03
2.748000000000000000e+03 7.410839080810546875e+01 -2.057946205139160156e+01 -7.882315665483474731e-02 5.748623847961425781e+00 1.700940132141113281e+00 1.631711959838867188e+00
2.749000000000000000e+03 6.949836730957031250e+01 -8.237828254699707031e+00 -8.880767822265625000e-01 1.745545148849487305e+00 2.572404742240905762e-01 -1.565501570701599121e+00
2.750000000000000000e+03 1.681380081176757812e+01 -7.701717853546142578e+00 1.528360843658447266e-01 1.150285840034484863e+00 3.909365534782409668e-01 6.992346048355102539e-01
2.751000000000000000e+03 1.548811340332031250e+01 -6.237854003906250000e+00 -1.875699162483215332e-01 7.977495789527893066e-01 1.830538958311080933e-01 3.595373630523681641e-01
2.752000000000000000e+03 7.294416046142578125e+01 -9.609727859497070312e+00 -6.711422801017761230e-01 4.563093185424804688e+00 1.167585253715515137e+00 -2.029873609542846680e+00
2.753000000000000000e+03 7.216051483154296875e+01 -1.041201972961425781e+01 -8.412582874298095703e-01 3.509343385696411133e+00 8.004255890846252441e-01 -1.675890088081359863e+00
2.754000000000000000e+03 7.281999206542968750e+01 -2.205158805847167969e+01 -1.882269382476806641e-01 4.051861763000488281e+00 1.159090518951416016e+00 7.505886554718017578e-01
2.755000000000000000e+03 6.739106655120849609e+00 -5.768711090087890625e+00 -1.784518957138061523e-01 -3.676534071564674377e-02 -6.456516683101654053e-02 -6.214396357536315918e-01
2.756000000000000000e+03 7.197432708740234375e+01 7.654827237129211426e-01 6.974020600318908691e-01 4.490158557891845703e+00 1.556268095970153809e+00 -1.626845359802246094e+00
2.757000000000000000e+03 7.073028564453125000e+01 1.010047912597656250e+00 8.319892883300781250e-01 4.053813934326171875e+00 1.465740919113159180e+00 -1.498517274856567383e+00
2.758000000000000000e+03 7.392388916015625000e+01 -2.855105209350585938e+01 -7.209482789039611816e-02 6.187667369842529297e+00 1.834671735763549805e+00 1.085753679275512695e+00
2.759000000000000000e+03 7.327691078186035156e+00 6.345431327819824219e+00 1.677132910117506981e-03 -1.841198769398033619e-03 -4.921975050820037723e-05 -1.296575737796956673e-05
2.760000000000000000e+03 1.091531753540039062e+01 -6.432737350463867188e+00 -1.800671815872192383e-01 4.536885619163513184e-01 8.208641409873962402e-02 -3.921100199222564697e-01
2.761000000000000000e+03 1.287810039520263672e+01 -8.071097373962402344e+00 1.010199263691902161e-01 9.884885549545288086e-01 3.268525600433349609e-01 -8.508471399545669556e-02
2.762000000000000000e+03 1.432165336608886719e+01 -6.577060222625732422e+00 -1.639793664216995239e-01 7.996097803115844727e-01 1.906891316175460815e-01 1.372079551219940186e-01
2.763000000000000000e+03 1.571234321594238281e+01 -7.949184894561767578e+00 1.562653779983520508e-01 1.202085852622985840e+00 4.075053632259368896e-01 5.028470754623413086e-01
2.764000000000000000e+03 7.348675537109375000e+01 -2.130258560180664062e+01 -1.417444199323654175e-01 4.928787708282470703e+00 1.436112999916076660e+00 1.139181494712829590e+00
2.765000000000000000e+03 9.247243881225585938e+00 -1.383537769317626953e+01 7.427413463592529297e-01 8.074331283569335938e-01 4.650523662567138672e-01 -1.918173730373382568e-01
2.766000000000000000e+03 1.306520748138427734e+01 -7.095720291137695312e+00 -8.470703661441802979e-02 8.082406520843505859e-01 2.170600742101669312e-01 -8.705876022577285767e-02
2.767000000000000000e+03 1.194367980957031250e+01 -9.047096252441406250e+00 2.783038020133972168e-01 1.035289525985717773e+00 3.940779864788055420e-01 -2.221662998199462891e-01
2.768000000000000000e+03 1.262774372100830078e+01 -5.907520294189453125e+00 -2.916444540023803711e-01 5.590675473213195801e-01 8.022692054510116577e-02 -1.597317010164260864e-01
2.769000000000000000e+03 1.007150363922119141e+01 6.963486194610595703e+00 7.135326159186661243e-04 -1.345067517831921577e-03 -1.894604647532105446e-04 3.471010713838040829e-04
2.770000000000000000e+03 7.208994865417480469e+00 7.798687934875488281e+00 -2.103814185829833150e-04 -3.464550478383898735e-03 -1.102479640394449234e-03 -3.532519913278520107e-04
2.771000000000000000e+03 6.800597190856933594e+00 -7.614944458007812500e+00 2.214666455984115601e-03 -1.572985015809535980e-02 -4.054555203765630722e-03 -6.470845341682434082e-01
2.772000000000000000e+03 7.215761566162109375e+01 3.236207962036132812e+00 6.724560856819152832e-01 4.634606361389160156e+00 1.592118740081787109e+00 -1.338227868080139160e+00
2.773000000000000000e+03 7.277422332763671875e+01 -1.027470588684082031e+01 -6.568892598152160645e-01 4.189308643341064453e+00 1.059725761413574219e+00 -1.886998057365417480e+00
2.774000000000000000e+03 2.188152503967285156e+01 -6.058053970336914062e+00 -3.955269977450370789e-02 4.925875365734100342e-01 1.359104514122009277e-01 1.196718096733093262e+00
2.775000000000000000e+03 8.681407928466796875e+00 9.498050689697265625e+00 2.677361015230417252e-03 -3.325802274048328400e-03 -1.945324038388207555e-04 3.318898234283551574e-05
2.776000000000000000e+03 1.088673114776611328e+01 9.524652481079101562e+00 3.025797195732593536e-03 -1.507850713096559048e-03 4.553839680738747120e-04 2.597337821498513222e-03
2.777000000000000000e+03 7.273761749267578125e+01 -2.138300704956054688e+01 -1.254325509071350098e-01 3.663954973220825195e+00 1.061556696891784668e+00 6.954970955848693848e-01
2.778000000000000000e+03 6.838413715362548828e+00 9.122030258178710938e+00 1.156739424914121628e-03 -4.225618671625852585e-03 -9.206637623719871044e-04 -9.607445099391043186e-04
2.779000000000000000e+03 6.839550781250000000e+01 -7.325984954833984375e+00 -4.456121325492858887e-01 1.242806315422058105e+00 2.391582578420639038e-01 -1.493829607963562012e+00
2.780000000000000000e+03 7.305363464355468750e+01 -8.952687263488769531e+00 -4.112853407859802246e-01 4.765454292297363281e+00 1.306250691413879395e+00 -2.108572006225585938e+00
2.781000000000000000e+03 7.306367492675781250e+01 -8.212127685546875000e+00 -3.493791818618774414e-01 4.863107681274414062e+00 1.354118585586547852e+00 -2.137162685394287109e+00
2.782000000000000000e+03 1.490556716918945312e+01 -7.642557144165039062e+00 5.323839560151100159e-02 1.031843423843383789e+00 3.255245387554168701e-01 2.781685590744018555e-01
2.783000000000000000e+03 9.484069824218750000e+00 -1.108573436737060547e+01 4.751470685005187988e-01 6.113377213478088379e-01 3.259454369544982910e-01 -4.351073801517486572e-01
2.784000000000000000e+03 8.571518898010253906e+00 -8.693490028381347656e+00 1.410374641418457031e-01 2.849022448062896729e-01 1.277819126844406128e-01 -5.869724154472351074e-01
2.785000000000000000e+03 7.005700683593750000e+01 -2.303802251815795898e+00 7.334631085395812988e-01 3.267067432403564453e+00 1.200159192085266113e+00 -1.733487129211425781e+00
2.786000000000000000e+03 7.438271045684814453e+00 1.239883327484130859e+01 -3.659822978079319000e-03 -3.438030602410435677e-03 -2.129356143996119499e-03 -2.061999170109629631e-03
2.787000000000000000e+03 1.099814224243164062e+01 -1.063345527648925781e+01 5.103016495704650879e-01 9.822829365730285645e-01 4.477753937244415283e-01 -3.373990356922149658e-01
2.788000000000000000e+03 7.765603065490722656e+00 -1.552274036407470703e+01 5.967172384262084961e-01 3.349340856075286865e-01 2.794953882694244385e-01 -7.786504179239273071e-02
2.789000000000000000e+03 6.319977569580078125e+01 -6.596465587615966797e+00 -4.605091512203216553e-01 1.320814434438943863e-02 -1.341903060674667358e-01 4.726128280162811279e-01
2.790000000000000000e+03 6.106270217895507812e+01 -5.836732864379882812e+00 -1.111677438020706177e-01 6.681010723114013672e-01 1.670800000429153442e-01 1.029209375381469727e+00
2.791000000000000000e+03 5.520860195159912109e+00 -1.126041412353515625e+01 2.274369448423385620e-01 -2.936381101608276367e-01 -1.986034959554672241e-02 -5.094535946846008301e-01
2.792000000000000000e+03 6.501123046875000000e+01 -4.374897956848144531e+00 7.133443355560302734e-01 8.837348818778991699e-01 4.791237711906433105e-01 -3.243618011474609375e-01
2.793000000000000000e+03 8.511994361877441406e+00 -1.945133590698242188e+01 5.401184558868408203e-01 7.491968274116516113e-01 3.867945969104766846e-01 3.501786291599273682e-01
2.794000000000000000e+03 1.992769432067871094e+01 -6.303777694702148438e+00 2.201397716999053955e-02 6.401340961456298828e-01 1.986444294452667236e-01 1.049255013465881348e+00
2.795000000000000000e+03 8.640301704406738281e+00 -1.813857460021972656e+01 6.515354514122009277e-01 7.423959374427795410e-01 4.181794226169586182e-01 2.050644606351852417e-01
2.796000000000000000e+03 3.758021163940429688e+01 -8.127062797546386719e+00 -2.889191150665283203e+00 9.192162513732910156e+00 1.890891432762145996e+00 -1.400374889373779297e+00
2.797000000000000000e+03 7.093195343017578125e+01 -3.092991065979003906e+01 1.457436978816986084e-01 3.483936309814453125e+00 1.088904023170471191e+00 9.565055966377258301e-01
2.798000000000000000e+03 7.080649566650390625e+01 -2.821768951416015625e+01 -2.763988375663757324e-01 3.068392992019653320e+00 8.375982642173767090e-01 8.275728821754455566e-01
2.799000000000000000e+03 5.271838665008544922e+00 1.580515956878662109e+01 -1.671360991895198822e-02 -6.171201355755329132e-03 -6.865443196147680283e-03 1.046569924801588058e-02
2.800000000000000000e+03 7.658983707427978516e+00 1.638371467590332031e+01 -3.092126920819282532e-02 4.348096437752246857e-03 -7.971951737999916077e-03 4.860681015998125076e-03
2.801000000000000000e+03 9.958174705505371094e+00 2.223596572875976562e+01 -1.367788761854171753e-01 5.893654003739356995e-02 -2.335270121693611145e-02 7.393398880958557129e-02
2.802000000000000000e+03 7.189117908477783203e+00 2.156359672546386719e+01 -6.977061182260513306e-02 1.979147084057331085e-02 -1.499374210834503174e-02 6.036659702658653259e-02
2.803000000000000000e+03 9.985363960266113281e+00 -8.329375267028808594e+00 1.056289598345756531e-01 5.187871456146240234e-01 1.873248368501663208e-01 -5.021143555641174316e-01
2.804000000000000000e+03 6.484299468994140625e+01 6.854695677757263184e-01 1.379171252250671387e+00 2.751233577728271484e+00 1.239121437072753906e+00 4.299819841980934143e-02
2.805000000000000000e+03 6.114393997192382812e+01 -6.584233283996582031e+00 -4.822754263877868652e-01 5.578719973564147949e-01 2.267896570265293121e-02 1.056020379066467285e+00
2.806000000000000000e+03 8.601991653442382812e+00 1.257330608367919922e+01 -6.328681483864784241e-03 -7.913673296570777893e-03 -4.272706340998411179e-03 1.010238658636808395e-03
2.807000000000000000e+03 8.473012924194335938e+00 -1.303032875061035156e+01 5.777915716171264648e-01 4.807454049587249756e-01 3.175610899925231934e-01 -3.278321623802185059e-01
2.808000000000000000e+03 8.762393951416015625e+00 -1.167829036712646484e+01 4.883153736591339111e-01 5.089994668960571289e-01 2.991944551467895508e-01 -4.181917309761047363e-01
2.809000000000000000e+03 7.940845489501953125e+00 2.060266685485839844e+01 -7.913327962160110474e-02 2.073113247752189636e-02 -1.752064377069473267e-02 4.852482676506042480e-02
2.810000000000000000e+03 7.622616767883300781e+00 1.887876319885253906e+01 -5.539170652627944946e-02 8.347989059984683990e-03 -1.411311514675617218e-02 2.491221949458122253e-02
2.811000000000000000e+03 7.290216827392578125e+01 1.156757831573486328e+01 4.512076079845428467e-01 4.773297786712646484e+00 1.567351698875427246e+00 -5.121402740478515625e-01
2.812000000000000000e+03 6.908923339843750000e+01 9.664276123046875000e+00 7.613381743431091309e-01 4.948448657989501953e+00 1.712936043739318848e+00 -5.374619960784912109e-01
2.813000000000000000e+03 6.776553344726562500e+01 1.061087894439697266e+01 7.666190266609191895e-01 5.220538139343261719e+00 1.796147227287292480e+00 -3.726424872875213623e-01
2.814000000000000000e+03 7.057512664794921875e+01 -1.488321661949157715e+00 7.796232700347900391e-01 3.630445957183837891e+00 1.323020815849304199e+00 -1.744150280952453613e+00
2.815000000000000000e+03 7.124211311340332031e+00 -2.218735885620117188e+01 2.311674356460571289e-01 3.193619847297668457e-01 1.651588231325149536e-01 4.750006794929504395e-01
2.816000000000000000e+03 6.571580505371093750e+01 3.403005123138427734e+00 1.234148502349853516e+00 3.686437129974365234e+00 1.476175665855407715e+00 -1.688858270645141602e-01
2.817000000000000000e+03 6.431989288330078125e+01 -1.286372095346450806e-01 1.360720872879028320e+00 2.455349922180175781e+00 1.144821166992187500e+00 1.386335343122482300e-01
2.818000000000000000e+03 1.414393806457519531e+01 2.647547721862792969e+01 -4.579977318644523621e-02 1.298182755708694458e-01 2.520555257797241211e-02 1.038175076246261597e-01
2.819000000000000000e+03 4.179511260986328125e+01 -9.854389190673828125e+00 -1.299566149711608887e+00 6.438180923461914062e+00 1.541584372520446777e+00 -1.127902865409851074e+00
2.820000000000000000e+03 7.336320495605468750e+01 4.495123386383056641e+00 5.145468115806579590e-01 4.884150981903076172e+00 1.619609355926513672e+00 -1.208676099777221680e+00
2.821000000000000000e+03 7.108745574951171875e+01 1.366352939605712891e+01 6.064795851707458496e-01 4.906713008880615234e+00 1.653957843780517578e+00 -3.484046161174774170e-01
2.822000000000000000e+03 3.821932983398437500e+01 -2.498908424377441406e+01 1.358533024787902832e+00 7.675682544708251953e+00 2.710264682769775391e+00 2.956075072288513184e-01
2.823000000000000000e+03 6.967459869384765625e+01 2.307841300964355469e+01 8.352419361472129822e-03 4.819945335388183594e+00 1.448489308357238770e+00 1.711237132549285889e-01
2.824000000000000000e+03 7.191417694091796875e+01 2.105600166320800781e+01 1.678908318281173706e-01 4.711349964141845703e+00 1.463772177696228027e+00 2.008630931377410889e-01
2.825000000000000000e+03 6.265056991577148438e+01 -8.829708099365234375e+00 -2.272104024887084961e+00 -5.145441889762878418e-01 -8.359944224357604980e-01 8.574936985969543457e-01
2.826000000000000000e+03 6.387491607666015625e+01 -4.737548351287841797e+00 5.341222286224365234e-01 6.272576451301574707e-01 3.484139740467071533e-01 1.524547636508941650e-01
2.827000000000000000e+03 6.472392272949218750e+01 -3.137727499008178711e+00 9.964439868927001953e-01 1.293639302253723145e+00 6.870250105857849121e-01 -1.734494119882583618e-01
2.828000000000000000e+03 1.710268783569335938e+01 2.735519409179687500e+01 6.645625829696655273e-02 1.972807943820953369e-01 7.912112027406692505e-02 -3.322967514395713806e-02
2.829000000000000000e+03 9.891866683959960938e+00 -2.599610710144042969e+01 -1.369892358779907227e-01 1.004692196846008301e+00 2.603109180927276611e-01 4.121784567832946777e-01
2.830000000000000000e+03 1.204177951812744141e+01 -2.744890975952148438e+01 -3.084801733493804932e-01 1.253407001495361328e+00 2.834780514240264893e-01 1.888239681720733643e-01
2.831000000000000000e+03 7.009983825683593750e+01 -3.333714294433593750e+01 4.094873964786529541e-01 3.179408073425292969e+00 1.076668620109558105e+00 9.242128729820251465e-01
2.832000000000000000e+03 6.919146728515625000e+01 2.492629432678222656e+01 -1.457205712795257568e-01 4.735525131225585938e+00 1.376941442489624023e+00 8.914063870906829834e-02
2.833000000000000000e+03 6.682225036621093750e+01 2.377565193176269531e+01 -1.518006026744842529e-01 4.860698223114013672e+00 1.412669301033020020e+00 -5.764959380030632019e-02
2.834000000000000000e+03 8.132616996765136719e+00 -2.340349960327148438e+01 1.325857043266296387e-01 6.657462120056152344e-01 2.394995689392089844e-01 5.123744606971740723e-01
2.835000000000000000e+03 6.897677612304687500e+01 1.180820178985595703e+01 7.384256124496459961e-01 5.109624385833740234e+00 1.754414916038513184e+00 -4.305128157138824463e-01
2.836000000000000000e+03 4.393199920654296875e+01 2.755130004882812500e+01 -1.755091845989227295e-01 3.290464878082275391e+00 9.344866871833801270e-01 1.189256191253662109e+00
2.837000000000000000e+03 6.188365173339843750e+01 -5.616037368774414062e+00 1.929193735122680664e-01 5.125843882560729980e-01 2.116511315107345581e-01 8.421450257301330566e-01
2.838000000000000000e+03 7.872293949127197266e+00 -2.687649345397949219e+01 -1.249735131859779358e-01 5.202414393424987793e-01 1.185803785920143127e-01 4.711721539497375488e-01
2.839000000000000000e+03 1.021051025390625000e+01 2.677876281738281250e+01 -2.568885684013366699e-02 7.357744127511978149e-02 1.436657644808292389e-02 1.491587311029434204e-01
2.840000000000000000e+03 7.778542518615722656e+00 2.432480621337890625e+01 -7.447272539138793945e-02 2.696943841874599457e-02 -1.425098627805709839e-02 1.171663627028465271e-01
2.841000000000000000e+03 7.592379760742187500e+01 -1.295709800720214844e+01 -1.963245630264282227e+00 1.108593082427978516e+01 2.736805677413940430e+00 -2.570307254791259766e+00
2.842000000000000000e+03 7.575739288330078125e+01 -1.178448390960693359e+01 -1.324418425559997559e+00 9.275719642639160156e+00 2.385390281677246094e+00 -2.149174213409423828e+00
2.843000000000000000e+03 7.525675964355468750e+01 -1.349926757812500000e+01 -1.295997619628906250e+00 8.663014411926269531e+00 2.210105180740356445e+00 -3.572441339492797852e+00
2.844000000000000000e+03 7.536090850830078125e+01 -1.316987419128417969e+01 -1.404847502708435059e+00 9.069972991943359375e+00 2.299537658691406250e+00 -3.243185043334960938e+00
2.845000000000000000e+03 7.399859619140625000e+01 -1.207402801513671875e+01 -8.479791283607482910e-01 5.326129436492919922e+00 1.343445062637329102e+00 -2.292730569839477539e+00
2.846000000000000000e+03 7.301987457275390625e+01 -1.193725490570068359e+01 -7.310107350349426270e-01 3.751934051513671875e+00 9.062770009040832520e-01 -1.643502950668334961e+00
2.847000000000000000e+03 7.483291625976562500e+01 -1.072106266021728516e+01 -9.250568747520446777e-01 7.211671352386474609e+00 1.885984420776367188e+00 -2.213517665863037109e+00
2.848000000000000000e+03 7.250953674316406250e+01 -1.084493350982666016e+01 -9.884923696517944336e-01 3.752131223678588867e+00 8.290916681289672852e-01 -1.666784882545471191e+00
2.849000000000000000e+03 7.288771057128906250e+01 -1.119555091857910156e+01 -7.042069435119628906e-01 3.959703445434570312e+00 9.766489267349243164e-01 -1.785070776939392090e+00
2.850000000000000000e+03 6.967095184326171875e+01 -9.667996406555175781e+00 -1.562257766723632812e+00 1.630318522453308105e+00 2.041819691658020020e-02 -1.248002886772155762e+00
2.851000000000000000e+03 9.560098648071289062e+00 -6.954904079437255859e+00 -8.291877061128616333e-02 3.605519533157348633e-01 8.328995108604431152e-02 -5.422413945198059082e-01
2.852000000000000000e+03 9.781850814819335938e+00 -7.622675895690917969e+00 1.089538820087909698e-02 4.416757822036743164e-01 1.357713490724563599e-01 -5.229640007019042969e-01
2.853000000000000000e+03 7.262097930908203125e+01 -2.387571907043457031e+01 -4.010681509971618652e-01 4.297908306121826172e+00 1.169052124023437500e+00 7.070320844650268555e-01
2.854000000000000000e+03 7.254343414306640625e+01 -5.950621128082275391e+00 1.020302847027778625e-01 4.385606288909912109e+00 1.346291065216064453e+00 -2.236046791076660156e+00
2.855000000000000000e+03 6.894817352294921875e+01 -6.955545425415039062e+00 -3.142984211444854736e-01 1.664859175682067871e+00 4.051682353019714355e-01 -1.560436010360717773e+00
2.856000000000000000e+03 1.078900909423828125e+01 8.388852119445800781e+00 -2.212763065472245216e-03 -2.217323984950780869e-03 -1.329026068560779095e-03 1.615222892723977566e-03
2.857000000000000000e+03 9.711702346801757812e+00 6.300890922546386719e+00 3.281365206930786371e-04 -2.995310816913843155e-03 -8.001523092389106750e-04 1.603228854946792126e-03
2.858000000000000000e+03 9.815717697143554688e+00 1.059670639038085938e+01 1.826696912758052349e-03 -3.002943005412817001e-03 -3.528737870510667562e-04 1.138793653808534145e-03
2.859000000000000000e+03 7.570158958435058594e+00 1.034701633453369141e+01 1.151676056906580925e-03 -3.625731449574232101e-03 -7.422165945172309875e-04 -1.636481261812150478e-03
2.860000000000000000e+03 7.584673404693603516e+00 8.669064521789550781e+00 2.938567660748958588e-03 -3.015526570379734039e-03 -2.308766488567925990e-05 -3.740609390661120415e-04
2.861000000000000000e+03 7.184763336181640625e+01 -9.840551376342773438e+00 -9.056954383850097656e-01 3.319573640823364258e+00 7.241634726524353027e-01 -1.671701550483703613e+00
2.862000000000000000e+03 7.120366668701171875e+01 -1.038405704498291016e+01 -1.168131470680236816e+00 2.638334512710571289e+00 4.410609006881713867e-01 -1.380524635314941406e+00
2.863000000000000000e+03 7.398946380615234375e+01 -1.116972827911376953e+01 -8.840265274047851562e-01 5.712539196014404297e+00 1.448553800582885742e+00 -2.224378108978271484e+00
2.864000000000000000e+03 8.257016181945800781e+00 7.535161972045898438e+00 3.187059890478849411e-03 -2.175675239413976669e-03 3.034154069609940052e-04 3.100601607002317905e-04
2.865000000000000000e+03 1.147158050537109375e+01 -7.156828403472900391e+00 -7.278674840927124023e-02 6.563779711723327637e-01 1.750773638486862183e-01 -3.242824375629425049e-01
2.866000000000000000e+03 1.061624240875244141e+01 -7.449204921722412109e+00 -1.281942613422870636e-02 5.519812107086181641e-01 1.617485433816909790e-01 -4.415610730648040771e-01
2.867000000000000000e+03 1.102565574645996094e+01 -9.876517295837402344e+00 4.005680084228515625e-01 9.497964382171630859e-01 4.051093459129333496e-01 -3.197367191314697266e-01
2.868000000000000000e+03 1.020474433898925781e+01 -1.065401172637939453e+01 4.571866989135742188e-01 7.992582321166992188e-01 3.769334852695465088e-01 -3.757752180099487305e-01
2.869000000000000000e+03 8.541357994079589844e+00 8.516470909118652344e+00 -1.379015040583908558e-03 -3.739083884283900261e-03 -1.535429619252681732e-03 5.184904439374804497e-04
2.870000000000000000e+03 7.139439392089843750e+01 9.049179077148437500e+00 5.948998928070068359e-01 4.811213970184326172e+00 1.621834158897399902e+00 -7.285906672477722168e-01
2.871000000000000000e+03 7.224523925781250000e+01 8.418912887573242188e+00 5.553094148635864258e-01 4.799990177154541016e+00 1.606589913368225098e+00 -8.007137775421142578e-01
2.872000000000000000e+03 5.981569766998291016e+00 -8.079011917114257812e+00 3.397475928068161011e-02 -1.562727093696594238e-01 -3.668938577175140381e-02 -6.311041116714477539e-01
2.873000000000000000e+03 6.712144851684570312e+00 -1.579618644714355469e+01 4.730476438999176025e-01 3.422504663467407227e-02 1.521818041801452637e-01 -8.293525129556655884e-02
2.874000000000000000e+03 1.196090602874755859e+01 -9.978712081909179688e+00 4.499633312225341797e-01 1.138778448104858398e+00 4.766225516796112061e-01 -2.169829457998275757e-01
2.875000000000000000e+03 6.667021274566650391e+00 1.819298934936523438e+01 -4.142924025654792786e-02 7.846733555197715759e-03 -1.007475145161151886e-02 1.947603747248649597e-02
2.876000000000000000e+03 5.997259616851806641e+00 1.893816757202148438e+01 -4.207086935639381409e-02 -1.952202874235808849e-04 -1.267982739955186844e-02 3.136337548494338989e-02
2.877000000000000000e+03 7.590961933135986328e+00 -7.241576194763183594e+00 -3.768909722566604614e-02 7.721184939146041870e-02 1.185682695358991623e-02 -6.340237855911254883e-01
2.878000000000000000e+03 7.253057861328125000e+01 -4.888414382934570312e+00 2.593287527561187744e-01 4.500468254089355469e+00 1.427939057350158691e+00 -2.166738748550415039e+00
2.879000000000000000e+03 6.812387847900390625e+01 -6.530325889587402344e+00 -1.705407649278640747e-01 1.259892344474792480e+00 3.268054723739624023e-01 -1.443849563598632812e+00
2.880000000000000000e+03 1.088943290710449219e+01 7.358171939849853516e+00 3.145315218716859818e-03 -1.418270170688629150e-03 5.181135493330657482e-04 2.186405239626765251e-03
2.881000000000000000e+03 8.651742935180664062e+00 1.152962970733642578e+01 -8.620094740763306618e-04 -3.730596741661429405e-03 -1.377781853079795837e-03 -1.022348762489855289e-03
2.882000000000000000e+03 7.158480834960937500e+01 -6.317838191986083984e+00 -3.567387536168098450e-02 3.720587968826293945e+00 1.105474233627319336e+00 -2.154236316680908203e+00
2.883000000000000000e+03 1.087176036834716797e+01 -8.226840019226074219e+00 9.869563579559326172e-02 6.925728917121887207e-01 2.373805642127990723e-01 -4.103390276432037354e-01
2.884000000000000000e+03 4.209786224365234375e+01 -1.145592975616455078e+01 -5.373473763465881348e-01 6.699681758880615234e+00 1.848700284957885742e+00 -8.609830141067504883e-01
2.885000000000000000e+03 1.006359291076660156e+01 -9.871940612792968750e+00 3.415069878101348877e-01 6.658407449722290039e-01 3.022043108940124512e-01 -4.711872935295104980e-01
2.886000000000000000e+03 7.002353668212890625e+00 -9.740269660949707031e+00 1.858520507812500000e-01 2.898909151554107666e-02 6.445234268903732300e-02 -5.949677824974060059e-01
2.887000000000000000e+03 6.426677703857421875e+01 -1.000164628028869629e+00 1.346726536750793457e+00 2.055224418640136719e+00 1.020585298538208008e+00 1.447669565677642822e-01
2.888000000000000000e+03 6.519765472412109375e+01 -6.892467141151428223e-01 1.314345002174377441e+00 2.312165975570678711e+00 1.087953329086303711e+00 -2.415068745613098145e-01
2.889000000000000000e+03 8.742719650268554688e+00 -1.044735431671142578e+01 3.359008729457855225e-01 4.476422965526580811e-01 2.350629568099975586e-01 -5.059164762496948242e-01
2.890000000000000000e+03 6.964765167236328125e+01 2.706291675567626953e+00 9.586763978004455566e-01 4.031116008758544922e+00 1.496937632560729980e+00 -1.116283655166625977e+00
2.891000000000000000e+03 6.808680725097656250e+01 -3.059003353118896484e-01 1.083215713500976562e+00 3.000943183898925781e+00 1.225247621536254883e+00 -1.097501277923583984e+00
2.892000000000000000e+03 6.643168640136718750e+01 1.104878664016723633e+00 1.249883890151977539e+00 3.115488529205322266e+00 1.309611678123474121e+00 -5.015944838523864746e-01
2.893000000000000000e+03 7.143233299255371094e+00 -2.088439941406250000e+01 3.409511744976043701e-01 3.055367767810821533e-01 1.939463764429092407e-01 4.157079458236694336e-01
2.894000000000000000e+03 7.483298301696777344e+00 1.135455131530761719e+01 -3.381974995136260986e-03 -6.584418471902608871e-03 -2.989917993545532227e-03 9.509123046882450581e-04
2.895000000000000000e+03 6.804514312744140625e+01 6.196256637573242188e+00 9.475187659263610840e-01 4.474440574645996094e+00 1.626587748527526855e+00 -5.654974579811096191e-01
2.896000000000000000e+03 6.614259338378906250e+01 4.103791713714599609e+00 1.160632610321044922e+00 3.936005115509033203e+00 1.528991341590881348e+00 -2.355105131864547729e-01
2.897000000000000000e+03 5.920293807983398438e+01 -4.665286064147949219e+00 6.314557194709777832e-01 1.411051750183105469e+00 6.127521991729736328e-01 1.412165164947509766e+00
2.898000000000000000e+03 6.061869430541992188e+01 -5.087013721466064453e+00 3.818911015987396240e-01 9.651595950126647949e-01 4.041152000427246094e-01 1.146108865737915039e+00
2.899000000000000000e+03 5.984489440917968750e+01 -5.575576305389404297e+00 8.503779023885726929e-02 1.118012785911560059e+00 3.609151840209960938e-01 1.239669203758239746e+00
2.900000000000000000e+03 6.795238494873046875e+01 1.510959911346435547e+01 8.094943165779113770e-01 5.324644088745117188e+00 1.840241432189941406e+00 -2.826009392738342285e-01
2.901000000000000000e+03 6.924642181396484375e+01 1.529576587677001953e+01 6.874241828918457031e-01 5.068511009216308594e+00 1.726780533790588379e+00 -2.430051863193511963e-01
2.902000000000000000e+03 6.696365356445312500e+01 3.533101558685302734e+00 1.159842729568481445e+00 3.817563533782958984e+00 1.493221879005432129e+00 -4.714621305465698242e-01
2.903000000000000000e+03 7.055841827392578125e+01 -2.939012718200683594e+01 -1.285654306411743164e-01 3.044269323348999023e+00 8.747111558914184570e-01 8.442464470863342285e-01
2.904000000000000000e+03 6.335808944702148438e+01 -2.150884628295898438e+00 1.299353241920471191e+00 1.587238073348999023e+00 8.659774065017700195e-01 4.088456928730010986e-01
2.905000000000000000e+03 6.449340057373046875e+01 -1.987321138381958008e+00 1.252272367477416992e+00 1.723224282264709473e+00 8.926489949226379395e-01 -8.076258003711700439e-03
2.906000000000000000e+03 8.959542274475097656e+00 2.141206359863281250e+01 -1.041838824748992920e-01 4.668753594160079956e-02 -1.724890433251857758e-02 5.230911821126937866e-02
2.907000000000000000e+03 7.099947357177734375e+01 -7.733112812042236328e+00 -4.456728100776672363e-01 3.059685230255126953e+00 7.842037677764892578e-01 -1.963384866714477539e+00
2.908000000000000000e+03 6.282030105590820312e+01 -5.203415393829345703e+00 4.623114466667175293e-01 5.332242846488952637e-01 2.986607253551483154e-01 4.689643979072570801e-01
2.909000000000000000e+03 9.759632110595703125e+00 9.503204345703125000e+00 -2.025742316618561745e-03 -4.300663247704505920e-03 -1.897921669296920300e-03 1.643064897507429123e-03
2.910000000000000000e+03 1.004877948760986328e+01 2.951092910766601562e+01 2.449765801429748535e-02 6.872519850730895996e-02 2.796685695648193359e-02 1.327272206544876099e-01
2.911000000000000000e+03 1.238421630859375000e+01 2.772958755493164062e+01 8.088923990726470947e-03 1.250079572200775146e-01 3.992906585335731506e-02 1.245028674602508545e-01
2.912000000000000000e+03 3.860370254516601562e+01 1.753377723693847656e+01 4.191048741340637207e-01 6.926277160644531250e+00 2.203614711761474609e+00 9.039931893348693848e-01
2.913000000000000000e+03 6.831581878662109375e+01 8.086791992187500000e+00 8.414609432220458984e-01 4.828621864318847656e+00 1.701024770736694336e+00 -4.999749362468719482e-01
2.914000000000000000e+03 9.192453384399414062e+00 -2.364871978759765625e+01 1.310730725526809692e-01 9.704985022544860840e-01 3.304714858531951904e-01 5.085406899452209473e-01
2.915000000000000000e+03 7.020523834228515625e+01 2.121183013916015625e+01 2.072132825851440430e-01 4.830406188964843750e+00 1.511285781860351562e+00 1.834357231855392456e-01
2.916000000000000000e+03 7.044860839843750000e+01 1.964349937438964844e+01 3.732390999794006348e-01 4.836781024932861328e+00 1.563006043434143066e+00 1.340708434581756592e-01
2.917000000000000000e+03 6.934832000732421875e+01 -1.714374423027038574e-01 9.695208072662353516e-01 3.356454610824584961e+00 1.297792553901672363e+00 -1.389544010162353516e+00
2.918000000000000000e+03 6.956200408935546875e+01 -1.407259464263916016e+00 8.948680758476257324e-01 3.220172643661499023e+00 1.234512209892272949e+00 -1.520887732505798340e+00
2.919000000000000000e+03 1.518324947357177734e+01 2.939523696899414062e+01 8.634134382009506226e-02 2.387288957834243774e-01 9.752106666564941406e-02 3.061717376112937927e-02
2.920000000000000000e+03 6.943637847900390625e+01 1.252974987030029297e+00 1.009677052497863770e+00 3.653956651687622070e+00 1.399090051651000977e+00 -1.248492121696472168e+00
2.921000000000000000e+03 7.020710754394531250e+01 1.000243282318115234e+01 6.976299285888671875e-01 4.890001773834228516e+00 1.676289439201354980e+00 -6.046666502952575684e-01
2.922000000000000000e+03 6.980538177490234375e+01 1.104333019256591797e+01 7.016168832778930664e-01 4.952778816223144531e+00 1.696318745613098145e+00 -5.233499407768249512e-01
2.923000000000000000e+03 6.941153717041015625e+01 -3.153821754455566406e+01 1.841615140438079834e-01 2.553551435470581055e+00 8.213139176368713379e-01 8.538233041763305664e-01
2.924000000000000000e+03 7.560519409179687500e+01 -1.227420902252197266e+01 -1.428367853164672852e+00 9.308700561523437500e+00 2.364099740982055664e+00 -2.469175100326538086e+00
2.925000000000000000e+03 7.351017761230468750e+01 -1.211869621276855469e+01 -7.763862609863281250e-01 4.262130260467529297e+00 1.045723199844360352e+00 -2.104842662811279297e+00
2.926000000000000000e+03 7.521483612060546875e+01 -1.155508613586425781e+01 -1.159363746643066406e+00 8.056559562683105469e+00 2.069158792495727539e+00 -2.398830652236938477e+00
2.927000000000000000e+03 7.508674621582031250e+01 -1.209503459930419922e+01 -1.135878324508666992e+00 7.855645656585693359e+00 2.015930175781250000e+00 -2.577598094940185547e+00
2.928000000000000000e+03 7.411180877685546875e+01 -1.254986095428466797e+01 -6.684969663619995117e-01 5.235899925231933594e+00 1.370220899581909180e+00 -2.541045427322387695e+00
2.929000000000000000e+03 7.495390319824218750e+01 -1.307767772674560547e+01 -1.071658849716186523e+00 7.426101207733154297e+00 1.906332731246948242e+00 -3.178648948669433594e+00
2.930000000000000000e+03 7.042393493652343750e+01 -9.013082504272460938e+00 -1.017275691032409668e+00 2.341173887252807617e+00 3.971694707870483398e-01 -1.667586803436279297e+00
2.931000000000000000e+03 7.372705078125000000e+01 -1.167884826660156250e+01 -6.873754262924194336e-01 4.997920036315917969e+00 1.293163418769836426e+00 -2.115779399871826172e+00
2.932000000000000000e+03 7.338478088378906250e+01 -1.100715732574462891e+01 -7.540441751480102539e-01 4.728546619415283203e+00 1.192350625991821289e+00 -1.913162708282470703e+00
2.933000000000000000e+03 7.023802947998046875e+01 -8.161178588867187500e+00 -6.329637765884399414e-01 2.334647655487060547e+00 5.105051994323730469e-01 -1.752846598625183105e+00
2.934000000000000000e+03 7.147017669677734375e+01 -9.235489845275878906e+00 -8.035138249397277832e-01 3.191455841064453125e+00 7.163826227188110352e-01 -1.832315802574157715e+00
2.935000000000000000e+03 7.133691406250000000e+01 -5.118680953979492188e+00 3.235760629177093506e-01 3.645212411880493164e+00 1.190636515617370605e+00 -2.081355094909667969e+00
2.936000000000000000e+03 7.016121673583984375e+01 -7.391919136047363281e+00 -4.389942586421966553e-01 2.390026807785034180e+00 5.853097438812255859e-01 -1.885098695755004883e+00
2.937000000000000000e+03 7.692965507507324219e+00 9.458282470703125000e+00 -1.912396866828203201e-03 -4.203873220831155777e-03 -1.834881026297807693e-03 6.276296917349100113e-04
2.938000000000000000e+03 9.628264427185058594e+00 8.399774551391601562e+00 3.348472528159618378e-03 -2.159706316888332367e-03 3.566298983059823513e-04 1.035866793245077133e-03
2.939000000000000000e+03 8.179129600524902344e+00 -9.316285133361816406e+00 1.801638603210449219e-01 2.391963303089141846e-01 1.258080601692199707e-01 -5.970578193664550781e-01
2.940000000000000000e+03 8.921838760375976562e+00 -7.740438938140869141e+00 2.393346652388572693e-02 3.069691359996795654e-01 9.927077591419219971e-02 -5.846490859985351562e-01
2.941000000000000000e+03 6.249555969238281250e+01 -3.391122817993164062e+00 1.059815049171447754e+00 1.134936690330505371e+00 6.584255099296569824e-01 6.228471994400024414e-01
2.942000000000000000e+03 6.220487213134765625e+01 -4.238576412200927734e+00 6.563185453414916992e-01 9.296904206275939941e-01 4.758026897907257080e-01 6.998226046562194824e-01
2.943000000000000000e+03 1.183977985382080078e+01 -8.069158554077148438e+00 7.718582451343536377e-02 8.109132051467895508e-01 2.664297223091125488e-01 -2.778728604316711426e-01
2.944000000000000000e+03 1.099620246887207031e+01 -9.053783416748046875e+00 2.410996556282043457e-01 7.918812632560729980e-01 3.098942637443542480e-01 -3.878931403160095215e-01
2.945000000000000000e+03 6.524110412597656250e+01 5.808764457702636719e+00 1.091837763786315918e+00 4.484655380249023438e+00 1.672948002815246582e+00 1.250711381435394287e-01
2.946000000000000000e+03 6.923581695556640625e+01 -7.337466239929199219e+00 -3.998814821243286133e-01 1.782952666282653809e+00 4.149213731288909912e-01 -1.618659377098083496e+00
2.947000000000000000e+03 6.749708557128906250e+01 2.483119964599609375e+00 1.151023864746093750e+00 3.565941095352172852e+00 1.415089488029479980e+00 -6.906687021255493164e-01
2.948000000000000000e+03 6.563568878173828125e+01 -1.661198616027832031e+00 1.182769656181335449e+00 1.996834397315979004e+00 9.538812041282653809e-01 -4.502876698970794678e-01
2.949000000000000000e+03 9.092133522033691406e+00 -9.721886634826660156e+00 2.912797629833221436e-01 4.603647589683532715e-01 2.254933565855026245e-01 -5.109820365905761719e-01
2.950000000000000000e+03 7.874198913574218750e+00 -1.003631591796875000e+01 2.578709423542022705e-01 1.753495931625366211e-01 1.299661546945571899e-01 -5.675362348556518555e-01
2.951000000000000000e+03 6.891752624511718750e+01 -5.064680576324462891e+00 3.067136704921722412e-01 2.100967407226562500e+00 7.223042845726013184e-01 -1.631915211677551270e+00
2.952000000000000000e+03 6.643939208984375000e+01 -5.121008872985839844e+00 4.191685020923614502e-01 9.808212518692016602e-01 4.199969470500946045e-01 -9.311215877532958984e-01
2.953000000000000000e+03 6.967361450195312500e+01 -7.514031887054443359e+00 -4.145629107952117920e-01 2.143115043640136719e+00 5.185656547546386719e-01 -1.862892270088195801e+00
2.954000000000000000e+03 9.192952156066894531e+00 -8.409107208251953125e+00 1.056472733616828918e-01 3.949899971485137939e-01 1.501911878585815430e-01 -5.597138404846191406e-01
2.955000000000000000e+03 7.323940277099609375e+00 -9.030564308166503906e+00 1.387693136930465698e-01 5.995335802435874939e-02 5.961680039763450623e-02 -6.059867143630981445e-01
2.956000000000000000e+03 6.589894866943359375e+01 1.107956320047378540e-01 1.265960574150085449e+00 2.599687337875366211e+00 1.159694314002990723e+00 -4.246548712253570557e-01
2.957000000000000000e+03 6.795464324951171875e+01 -1.407633543014526367e+00 1.012578487396240234e+00 2.723447322845458984e+00 1.120807766914367676e+00 -1.185688972473144531e+00
2.958000000000000000e+03 6.098355293273925781e+00 -9.367894172668457031e+00 1.272048801183700562e-01 -1.652362048625946045e-01 -1.140939816832542419e-02 -6.070378422737121582e-01
2.959000000000000000e+03 6.702583312988281250e+01 5.460834980010986328e+00 1.050145626068115234e+00 4.339536190032958984e+00 1.616904497146606445e+00 -3.667098581790924072e-01
2.960000000000000000e+03 6.827957916259765625e+01 -3.028916168212890625e+01 -2.082924544811248779e-01 1.435874104499816895e+00 3.682744801044464111e-01 5.089626908302307129e-01
2.961000000000000000e+03 8.074247360229492188e+00 -8.013678550720214844e+00 4.524561390280723572e-02 1.844309717416763306e-01 6.890297681093215942e-02 -6.233389377593994141e-01
2.962000000000000000e+03 7.184566497802734375e+01 1.229181480407714844e+01 5.230200886726379395e-01 4.831327915191650391e+00 1.606304287910461426e+00 -4.673560857772827148e-01
2.963000000000000000e+03 7.082481384277343750e+01 1.161314868927001953e+01 6.031401157379150391e-01 4.894538879394531250e+00 1.649303674697875977e+00 -5.073263645172119141e-01
2.964000000000000000e+03 7.152526092529296875e+01 -3.179356813430786133e+00 5.431801080703735352e-01 3.886287689208984375e+00 1.328840374946594238e+00 -2.002846002578735352e+00
2.965000000000000000e+03 7.172778320312500000e+01 4.216592788696289062e+00 6.832822561264038086e-01 4.600711822509765625e+00 1.585198163986206055e+00 -1.206978201866149902e+00
2.966000000000000000e+03 6.845843505859375000e+01 2.881931543350219727e+00 1.045937895774841309e+00 3.874489545822143555e+00 1.476128220558166504e+00 -9.275324344635009766e-01
2.967000000000000000e+03 7.004668426513671875e+01 1.761152648925781250e+01 5.656506419181823730e-01 4.924932479858398438e+00 1.647174835205078125e+00 -5.221957340836524963e-02
2.968000000000000000e+03 7.081244659423828125e+01 5.015499591827392578e+00 7.792801856994628906e-01 4.536816120147705078e+00 1.594828844070434570e+00 -1.040092110633850098e+00
2.969000000000000000e+03 7.312976074218750000e+01 7.693344593048095703e+00 4.634799361228942871e-01 4.833421230316162109e+00 1.589070320129394531e+00 -8.737347722053527832e-01
2.970000000000000000e+03 7.427558898925781250e+01 1.831270790100097656e+01 2.004016786813735962e-01 4.533960342407226562e+00 1.420308589935302734e+00 7.004079967737197876e-02
2.971000000000000000e+03 9.236612319946289062e+00 2.764539718627929688e+01 -1.175423152744770050e-02 3.408795595169067383e-02 6.700117141008377075e-03 1.429622918367385864e-01
2.972000000000000000e+03 6.337991714477539062e+00 -2.515704536437988281e+01 4.085873253643512726e-03 1.838129758834838867e-01 5.636965483427047729e-02 5.245375037193298340e-01
2.973000000000000000e+03 7.220014095306396484e+00 2.323424911499023438e+01 -6.648018956184387207e-02 1.879822090268135071e-02 -1.430459041148424149e-02 9.237003326416015625e-02
2.974000000000000000e+03 6.414017486572265625e+01 2.242360877990722656e+01 -1.465985029935836792e-01 5.126593589782714844e+00 1.493998527526855469e+00 -4.175400435924530029e-01
2.975000000000000000e+03 7.085418701171875000e+01 8.260405540466308594e+00 6.775825619697570801e-01 4.778440475463867188e+00 1.636806964874267578e+00 -7.739995718002319336e-01
2.976000000000000000e+03 7.248584747314453125e+01 6.693731307983398438e+00 5.553107857704162598e-01 4.797312259674072266e+00 1.605786919593811035e+00 -9.660580158233642578e-01
2.977000000000000000e+03 7.158545684814453125e+01 7.527687072753906250e+00 6.266148090362548828e-01 4.756062984466552734e+00 1.614803314208984375e+00 -8.541246056556701660e-01
2.978000000000000000e+03 6.905077362060546875e+01 6.953517913818359375e+00 8.592066168785095215e-01 4.627606391906738281e+00 1.646043896675109863e+00 -6.884620189666748047e-01
2.979000000000000000e+03 6.944408416748046875e+01 8.612817764282226562e+00 7.666813731193542480e-01 4.839796543121337891e+00 1.681943297386169434e+00 -6.329909563064575195e-01
2.980000000000000000e+03 7.455603790283203125e+01 -1.252537631988525391e+01 -9.395006895065307617e-01 6.429694652557373047e+00 1.647058248519897461e+00 -2.705943107604980469e+00
2.981000000000000000e+03 7.501374816894531250e+01 -1.260055160522460938e+01 -1.135911226272583008e+00 7.658026695251464844e+00 1.956634640693664551e+00 -2.867549419403076172e+00
2.982000000000000000e+03 7.416732788085937500e+01 -1.052085018157958984e+01 -6.467372775077819824e-01 6.116961002349853516e+00 1.641067028045654297e+00 -2.150862216949462891e+00
2.983000000000000000e+03 7.461482238769531250e+01 -1.136887741088867188e+01 -8.962869644165039062e-01 6.760333061218261719e+00 1.759213805198669434e+00 -2.340022325515747070e+00
2.984000000000000000e+03 7.208304595947265625e+01 -8.765173912048339844e+00 -5.384703874588012695e-01 3.763195514678955078e+00 9.674175381660461426e-01 -1.969344496726989746e+00
2.985000000000000000e+03 7.346320343017578125e+01 -1.039994525909423828e+01 -7.181583046913146973e-01 5.063660621643066406e+00 1.303650617599487305e+00 -2.080643177032470703e+00
2.986000000000000000e+03 7.239728546142578125e+01 -8.153437614440917969e+00 -3.285222649574279785e-01 4.174015522003173828e+00 1.153648018836975098e+00 -2.168501138687133789e+00
2.987000000000000000e+03 8.807471275329589844e+00 -7.076008319854736328e+00 -5.956351757049560547e-02 2.569232583045959473e-01 5.920792371034622192e-02 -5.833715796470642090e-01
2.988000000000000000e+03 6.822341156005859375e+01 1.644605517387390137e+00 1.103172302246093750e+00 3.528970003128051758e+00 1.389642715454101562e+00 -9.525375962257385254e-01
2.989000000000000000e+03 6.695845031738281250e+01 -3.124245703220367432e-01 1.192137241363525391e+00 2.655423641204833984e+00 1.154268264770507812e+00 -7.537726163864135742e-01
2.990000000000000000e+03 6.888027954101562500e+01 -6.327128887176513672e+00 -5.400766432285308838e-02 1.916199922561645508e+00 5.586577057838439941e-01 -1.661480426788330078e+00
2.991000000000000000e+03 7.094178771972656250e+01 -4.095853805541992188e+00 4.370182156562805176e-01 3.535596847534179688e+00 1.191784501075744629e+00 -2.000629186630249023e+00
2.992000000000000000e+03 7.118178558349609375e+01 -8.543154716491699219e+00 -5.984233617782592773e-01 3.090218782424926758e+00 7.475386261940002441e-01 -1.887853622436523438e+00
2.993000000000000000e+03 7.077333831787109375e+01 6.729708671569824219e+00 7.224506139755249023e-01 4.681314945220947266e+00 1.621129751205444336e+00 -8.880871534347534180e-01
2.994000000000000000e+03 6.585365295410156250e+01 -2.831763029098510742e+00 1.033799529075622559e+00 1.635772705078125000e+00 8.008716702461242676e-01 -5.895404815673828125e-01
2.995000000000000000e+03 6.785591125488281250e+01 -5.612801551818847656e+00 2.108572274446487427e-01 1.461192131042480469e+00 5.016148090362548828e-01 -1.422370195388793945e+00
2.996000000000000000e+03 6.681336975097656250e+01 -1.422879099845886230e+00 1.152027130126953125e+00 2.349504709243774414e+00 1.050459623336791992e+00 -7.922108173370361328e-01
2.997000000000000000e+03 6.897506713867187500e+01 4.986407756805419922e+00 9.434783458709716797e-01 4.321404933929443359e+00 1.579465031623840332e+00 -8.266322016716003418e-01
2.998000000000000000e+03 7.006550598144531250e+01 4.016949653625488281e+00 8.691022396087646484e-01 4.296504020690917969e+00 1.549681782722473145e+00 -1.070656538009643555e+00
2.999000000000000000e+03 7.115454101562500000e+01 3.417660713195800781e+00 7.892062664031982422e-01 4.410887718200683594e+00 1.560028076171875000e+00 -1.260815620422363281e+00
3.000000000000000000e+03 7.212122344970703125e+01 1.761078834533691406e+01 4.099773466587066650e-01 4.731791496276855469e+00 1.542530655860900879e+00 5.760594285675324500e-05
3.001000000000000000e+03 7.107512664794921875e+01 1.852855110168457031e+01 4.350738823413848877e-01 4.793607234954833984e+00 1.568604230880737305e+00 6.361308693885803223e-02
3.002000000000000000e+03 1.058923530578613281e+01 2.808791923522949219e+01 6.223178468644618988e-03 8.894063532352447510e-02 2.854914404451847076e-02 1.419535279273986816e-01
3.003000000000000000e+03 6.992975616455078125e+01 -4.571560859680175781e+00 4.933726787567138672e-01 2.881489992141723633e+00 1.012458801269531250e+00 -1.879261016845703125e+00
3.004000000000000000e+03 7.161410522460937500e+01 5.865302562713623047e+00 6.644508838653564453e-01 4.678814888000488281e+00 1.602979660034179688e+00 -1.027474522590637207e+00
3.005000000000000000e+03 6.541555786132812500e+01 2.430154800415039062e+01 -2.839575707912445068e-01 4.807209968566894531e+00 1.356975793838500977e+00 -2.573423087596893311e-01
3.006000000000000000e+03 6.229755020141601562e+01 2.518462562561035156e+01 -3.636257350444793701e-01 3.955862283706665039e+00 1.077670931816101074e+00 -9.744299650192260742e-01
3.007000000000000000e+03 7.043141937255859375e+01 9.029552459716796875e+00 6.747425794601440430e-01 4.828953266143798828e+00 1.651108741760253906e+00 -6.785143613815307617e-01
3.008000000000000000e+03 3.537937164306640625e+01 -9.503066062927246094e+00 -2.032449483871459961e+00 8.540558815002441406e+00 1.952432870864868164e+00 -1.045703768730163574e+00
3.009000000000000000e+03 7.182531738281250000e+01 -8.193528175354003906e+00 -4.659887552261352539e-01 3.604651451110839844e+00 9.415987730026245117e-01 -2.032782316207885742e+00
3.010000000000000000e+03 7.024408721923828125e+01 -5.476031303405761719e+00 1.602592021226882935e-01 2.839585304260253906e+00 8.999533653259277344e-01 -1.921253442764282227e+00
3.011000000000000000e+03 6.954437255859375000e+01 -3.692496776580810547e+00 6.060424447059631348e-01 2.774114370346069336e+00 1.014047026634216309e+00 -1.748995542526245117e+00
3.012000000000000000e+03 9.254821777343750000e+00 -9.024071693420410156e+00 1.952097415924072266e-01 4.436742663383483887e-01 1.916652023792266846e-01 -5.483879446983337402e-01
3.013000000000000000e+03 1.008072662353515625e+01 -9.077403068542480469e+00 2.210660725831985474e-01 6.204838156700134277e-01 2.524649500846862793e-01 -4.707104265689849854e-01
3.014000000000000000e+03 6.854833221435546875e+01 -4.176267147064208984e+00 6.012403368949890137e-01 2.186622381210327148e+00 8.363588452339172363e-01 -1.544178247451782227e+00
3.015000000000000000e+03 6.915113830566406250e+01 -2.792718648910522461e+00 7.776606678962707520e-01 2.844897508621215820e+00 1.086767435073852539e+00 -1.605435967445373535e+00
3.016000000000000000e+03 6.871599578857421875e+01 -1.879712820053100586e+00 9.144448041915893555e-01 2.810178518295288086e+00 1.117387056350708008e+00 -1.423831105232238770e+00
3.017000000000000000e+03 6.693453216552734375e+01 -2.548453569412231445e+00 9.702314734458923340e-01 1.975895404815673828e+00 8.838380575180053711e-01 -9.589561223983764648e-01
3.018000000000000000e+03 1.279535198211669922e+01 3.183189964294433594e+01 1.013861447572708130e-01 2.092506587505340576e-01 9.319104254245758057e-02 6.667670607566833496e-02
3.019000000000000000e+03 6.718267822265625000e+01 -3.630756855010986328e+00 7.941103577613830566e-01 1.740394115447998047e+00 7.603513598442077637e-01 -1.109178185462951660e+00
3.020000000000000000e+03 6.750102996826171875e+01 -4.654646873474121094e+00 4.884983003139495850e-01 1.494970917701721191e+00 5.950407981872558594e-01 -1.238734006881713867e+00
3.021000000000000000e+03 7.075043487548828125e+01 -6.866929054260253906e+00 -1.365129947662353516e-01 2.929502725601196289e+00 8.378968834877014160e-01 -1.977189421653747559e+00
3.022000000000000000e+03 2.542026329040527344e+01 -3.355247116088867188e+01 -1.147881373763084412e-01 3.894872665405273438e-01 8.240973204374313354e-02 1.230127364397048950e-01
3.023000000000000000e+03 7.599694824218750000e+01 3.447303771972656250e+01 -4.912614822387695312e-02 4.600921154022216797e+00 1.365538477897644043e+00 5.341482907533645630e-02
3.024000000000000000e+03 2.121818780899047852e+00 -3.713686370849609375e+01 -2.189980447292327881e-02 -1.076018363237380981e-01 -3.885049372911453247e-02 7.179164141416549683e-02
3.025000000000000000e+03 7.007160949707031250e+01 3.034963035583496094e+01 -1.746691167354583740e-01 4.427197456359863281e+00 1.275758504867553711e+00 -1.651636511087417603e-02
3.026000000000000000e+03 7.778775024414062500e+01 3.708705139160156250e+01 -3.612046595662832260e-03 4.729920864105224609e+00 1.417892694473266602e+00 6.338549312204122543e-03
3.027000000000000000e+03 3.153251647949218750e+01 -3.431572341918945312e+01 -3.484379947185516357e-01 2.846638917922973633e+00 7.494602799415588379e-01 1.103900432586669922e+00
3.028000000000000000e+03 7.392223358154296875e+01 3.148765945434570312e+01 -8.373433351516723633e-02 4.503600597381591797e+00 1.325959920883178711e+00 9.057450294494628906e-02
3.029000000000000000e+03 1.116003608703613281e+01 -3.078918838500976562e+01 -3.577716946601867676e-01 8.692169189453125000e-01 1.534335762262344360e-01 1.719225794076919556e-01
3.030000000000000000e+03 1.281345176696777344e+01 -3.339556884765625000e+01 -3.476797044277191162e-01 7.769421935081481934e-01 1.287787407636642456e-01 -1.432872097939252853e-02
3.031000000000000000e+03 4.982502365112304688e+01 -3.414340591430664062e+01 -1.624425351619720459e-01 3.070431709289550781e+00 8.723967075347900391e-01 -1.652272105216979980e+00
3.032000000000000000e+03 3.734861755371093750e+01 2.596140670776367188e+01 -5.343484878540039062e-01 4.896641254425048828e+00 1.308687806129455566e+00 5.605097413063049316e-01
3.033000000000000000e+03 2.494524574279785156e+01 2.787229347229003906e+01 2.086383551359176636e-01 1.526331067085266113e+00 5.204908251762390137e-01 -1.067665696144104004e+00
3.034000000000000000e+03 7.533440399169921875e+01 3.762542724609375000e+01 -3.239572793245315552e-02 4.592339515686035156e+00 1.367983222007751465e+00 4.660655185580253601e-02
3.035000000000000000e+03 7.626299285888671875e+01 3.583440399169921875e+01 -3.656263649463653564e-02 4.632092952728271484e+00 1.378659009933471680e+00 3.373171389102935791e-02
3.036000000000000000e+03 9.328208923339843750e+00 3.457236862182617188e+01 7.759640365839004517e-02 7.576896250247955322e-02 4.600961133837699890e-02 8.355599641799926758e-02
3.037000000000000000e+03 2.596500015258789062e+01 -3.516590881347656250e+01 6.355920433998107910e-02 7.875673174858093262e-01 2.553379535675048828e-01 3.164369165897369385e-01
3.038000000000000000e+03 2.864550018310546875e+01 -3.369360733032226562e+01 -4.644820839166641235e-02 1.177649497985839844e+00 3.393603861331939697e-01 7.388871908187866211e-01
3.039000000000000000e+03 2.445806503295898438e+01 2.976099967956542969e+01 7.851506769657135010e-02 1.624344944953918457e+00 5.108579993247985840e-01 -9.179880619049072266e-01
3.040000000000000000e+03 1.034700489044189453e+01 -3.302993011474609375e+01 -3.013657033443450928e-01 6.398831009864807129e-01 1.015552133321762085e-01 1.576290577650070190e-01
3.041000000000000000e+03 4.036788558959960938e+01 2.704900360107421875e+01 -4.295868277549743652e-01 4.149558544158935547e+00 1.115991592407226562e+00 9.820772409439086914e-01
3.042000000000000000e+03 6.668171691894531250e+01 3.057806205749511719e+01 -1.923963278532028198e-01 4.160202503204345703e+00 1.190341830253601074e+00 -2.295903861522674561e-01
3.043000000000000000e+03 7.023706817626953125e+01 2.781966781616210938e+01 -2.041629105806350708e-01 4.593143939971923828e+00 1.316694378852844238e+00 5.934667587280273438e-02
3.044000000000000000e+03 7.194702911376953125e+01 3.114503479003906250e+01 -1.444540172815322876e-01 4.441495418548583984e+00 1.289112448692321777e+00 3.436784818768501282e-02
3.045000000000000000e+03 7.068073272705078125e+01 2.533392333984375000e+01 -1.106779128313064575e-01 4.713071823120117188e+00 1.380718111991882324e+00 1.759234964847564697e-01
3.046000000000000000e+03 7.625728607177734375e+01 2.875680541992187500e+01 -4.712904244661331177e-02 4.552872657775878906e+00 1.351723074913024902e+00 1.472146511077880859e-01
3.047000000000000000e+03 7.600364685058593750e+01 3.015142440795898438e+01 -4.319871589541435242e-02 4.568108558654785156e+00 1.357473015785217285e+00 1.251105219125747681e-01
3.048000000000000000e+03 6.742838287353515625e+01 2.538993644714355469e+01 -2.229729741811752319e-01 4.708983898162841797e+00 1.345803260803222656e+00 -3.827233985066413879e-02
3.049000000000000000e+03 7.429529571533203125e+01 -1.795232200622558594e+01 1.117295265197753906e+00 2.527393341064453125e+00 1.093406558036804199e+00 2.149385690689086914e+00
3.050000000000000000e+03 7.443425750732421875e+01 -1.823833847045898438e+01 1.214837431907653809e+00 3.692422628402709961e+00 1.472177982330322266e+00 2.705739259719848633e+00
3.051000000000000000e+03 7.589569091796875000e+01 -1.795432281494140625e+01 -3.475530743598937988e-01 1.458655929565429688e+01 4.271701812744140625e+00 5.604358196258544922e+00
3.052000000000000000e+03 7.605535888671875000e+01 -1.794620132446289062e+01 -8.350276350975036621e-01 1.645466804504394531e+01 4.685892105102539062e+00 5.095969200134277344e+00
3.053000000000000000e+03 7.653383636474609375e+01 -1.841386032104492188e+01 -2.112735033035278320e+00 1.681088256835937500e+01 4.409444332122802734e+00 1.906753182411193848e+00
3.054000000000000000e+03 7.785237121582031250e+01 -1.703384590148925781e+01 4.807155132293701172e+00 1.553425884246826172e+01 6.102424144744873047e+00 -2.738394498825073242e+00
3.055000000000000000e+03 6.896058654785156250e+01 -1.903281974792480469e+01 -2.339231073856353760e-01 -1.346511960029602051e+00 -4.741305410861968994e-01 -6.020283102989196777e-01
3.056000000000000000e+03 7.824095153808593750e+01 -1.647784233093261719e+01 4.069517612457275391e+00 1.294302177429199219e+01 5.103761672973632812e+00 -5.005111694335937500e-01
3.057000000000000000e+03 7.774570465087890625e+01 -1.562697505950927734e+01 3.777896165847778320e+00 1.659025573730468750e+01 6.110445499420166016e+00 3.503678560256958008e+00
3.058000000000000000e+03 7.734396362304687500e+01 -1.520556068420410156e+01 3.832700848579406738e-01 1.955116462707519531e+01 5.980330467224121094e+00 3.116253614425659180e+00
3.059000000000000000e+03 7.636503601074218750e+01 -1.426967239379882812e+01 -2.753592252731323242e+00 1.578568935394287109e+01 3.909629344940185547e+00 -2.921197652816772461e+00
3.060000000000000000e+03 7.305193328857421875e+01 -1.416329956054687500e+01 -1.231662750244140625e+00 1.265686035156250000e+00 1.020696759223937988e-02 -8.051166534423828125e-01
3.061000000000000000e+03 7.368459320068359375e+01 -1.457911586761474609e+01 -1.114133834838867188e+00 1.454743266105651855e+00 1.021828204393386841e-01 -1.445564627647399902e+00
3.062000000000000000e+03 7.405303192138671875e+01 -1.409228324890136719e+01 -3.402641117572784424e-01 3.250756025314331055e+00 8.731475472450256348e-01 -2.535962343215942383e+00
3.063000000000000000e+03 7.479223632812500000e+01 -1.467861175537109375e+01 -3.776710107922554016e-02 4.592670917510986328e+00 1.366471171379089355e+00 -3.950866699218750000e+00
3.064000000000000000e+03 7.556147003173828125e+01 -1.446856021881103516e+01 -1.097241044044494629e+00 1.030795574188232422e+01 2.763214588165283203e+00 -5.245954036712646484e+00
3.065000000000000000e+03 7.593480682373046875e+01 -1.440800857543945312e+01 -2.056321859359741211e+00 1.356301498413085938e+01 3.452008008956909180e+00 -4.541540145874023438e+00
3.066000000000000000e+03 7.638607788085937500e+01 -1.468801689147949219e+01 -2.681212902069091797e+00 1.809643173217773438e+01 4.624565601348876953e+00 -3.087028980255126953e+00
3.067000000000000000e+03 4.813692092895507812e+01 -1.420825004577636719e+01 1.206319570541381836e+00 2.990001678466796875e+00 1.258896350860595703e+00 2.296785831451416016e+00
3.068000000000000000e+03 4.696203231811523438e+01 -3.249707031250000000e+01 -3.746782243251800537e-01 5.598872661590576172e+00 1.567258238792419434e+00 -1.741227388381958008e+00
3.069000000000000000e+03 7.764945983886718750e+01 -1.844216918945312500e+01 -1.252320766448974609e+00 1.620669937133789062e+01 4.486313819885253906e+00 -2.184489250183105469e+00
3.070000000000000000e+03 7.609059906005859375e+01 -1.833590698242187500e+01 -1.424271941184997559e+00 1.490197372436523438e+01 4.043310642242431641e+00 3.850681304931640625e+00
3.071000000000000000e+03 7.631417083740234375e+01 -1.810701370239257812e+01 -1.697393298149108887e+00 1.729061508178710938e+01 4.677966594696044922e+00 3.320354700088500977e+00
3.072000000000000000e+03 7.631040191650390625e+01 -1.837322998046875000e+01 -1.776265382766723633e+00 1.620342063903808594e+01 4.328146457672119141e+00 2.977278470993041992e+00
3.073000000000000000e+03 1.400257945060729980e+00 -3.237572908401489258e+00 -4.489374533295631409e-02 -2.018501907587051392e-01 -7.402317970991134644e-02 -1.589985936880111694e-01
3.074000000000000000e+03 1.782584190368652344e+01 3.723420381546020508e+00 -7.642368436791002750e-04 -1.957423955900594592e-04 -2.879937819670885801e-04 -4.356205172371119261e-04
3.075000000000000000e+03 7.785128784179687500e+01 -1.774306488037109375e+01 5.510185956954956055e-01 1.562245941162109375e+01 4.852043628692626953e+00 -2.911763906478881836e+00
3.076000000000000000e+03 7.894818115234375000e+01 -1.677190017700195312e+01 1.720572710037231445e+00 9.347446441650390625e+00 3.320405960083007812e+00 -8.169080018997192383e-01
3.077000000000000000e+03 7.889581298828125000e+01 -1.768195915222167969e+01 4.718084335327148438e-01 1.053256416320800781e+01 3.301311731338500977e+00 -2.669295549392700195e+00
3.078000000000000000e+03 7.818006134033203125e+01 -1.506953334808349609e+01 6.834064722061157227e-01 1.444754600524902344e+01 4.539285659790039062e+00 3.179880857467651367e+00
3.079000000000000000e+03 7.776526641845703125e+01 -1.519782161712646484e+01 1.582592010498046875e+00 1.688171195983886719e+01 5.539290904998779297e+00 3.209248781204223633e+00
3.080000000000000000e+03 7.754570770263671875e+01 -1.513174819946289062e+01 4.902383089065551758e-01 1.819358825683593750e+01 5.605148315429687500e+00 2.990905523300170898e+00
3.081000000000000000e+03 7.758298492431640625e+01 -1.444706344604492188e+01 -1.715400218963623047e+00 1.668353271484375000e+01 4.490439414978027344e+00 2.031671524047851562e+00
3.082000000000000000e+03 6.894273376464843750e+01 -1.830801773071289062e+01 -5.753345414996147156e-02 -7.031501531600952148e-01 -2.282050698995590210e-01 -4.242996275424957275e-01
3.083000000000000000e+03 7.718577575683593750e+01 -1.406720066070556641e+01 -2.715169906616210938e+00 1.642259407043457031e+01 4.112226963043212891e+00 3.327659070491790771e-01
3.084000000000000000e+03 7.620685577392578125e+01 -1.394741153717041016e+01 -2.551380157470703125e+00 1.405484199523925781e+01 3.451038837432861328e+00 -2.964931011199951172e+00
3.085000000000000000e+03 7.431319427490234375e+01 -1.841922950744628906e+01 1.059450507164001465e+00 3.748718261718750000e+00 1.442450642585754395e+00 2.505835056304931641e+00
3.086000000000000000e+03 7.351903533935546875e+01 -1.848801231384277344e+01 7.036975026130676270e-01 1.931298375129699707e+00 7.904987335205078125e-01 9.965210556983947754e-01
3.087000000000000000e+03 7.320092010498046875e+01 -1.829828453063964844e+01 4.225446879863739014e-01 1.290635704994201660e+00 5.139541029930114746e-01 5.549371242523193359e-01
3.088000000000000000e+03 7.624639892578125000e+01 -1.861305809020996094e+01 -1.837952494621276855e+00 1.503233623504638672e+01 3.958315134048461914e+00 2.774594068527221680e+00
3.089000000000000000e+03 4.824341583251953125e+01 -1.158718299865722656e+01 1.085902899503707886e-01 2.322548866271972656e+00 7.293417453765869141e-01 2.104101657867431641e+00
3.090000000000000000e+03 1.924587059020996094e+01 -3.149118232727050781e+01 -3.750961720943450928e-01 6.702591776847839355e-01 8.854889869689941406e-02 -3.478857874870300293e-01
3.091000000000000000e+03 3.183422470092773438e+01 -3.173291921615600586e+00 4.517567455768585205e-01 4.808333396911621094e+00 1.578027009963989258e+00 9.602583646774291992e-01
3.092000000000000000e+03 2.381380081176757812e+01 -3.536022186279296875e+01 -1.588571234606206417e-03 6.556292772293090820e-01 1.962122172117233276e-01 -2.135361731052398682e-02
3.093000000000000000e+03 2.401150321960449219e+01 -3.362740325927734375e+01 -1.318927407264709473e-01 3.770943284034729004e-01 7.356047630310058594e-02 -3.596749529242515564e-02
3.094000000000000000e+03 7.599182891845703125e+01 -1.808425140380859375e+01 -8.887228965759277344e-01 1.509558486938476562e+01 4.262058734893798828e+00 4.885165214538574219e+00
3.095000000000000000e+03 7.516664123535156250e+01 -1.448673725128173828e+01 -4.758071005344390869e-01 7.511360168457031250e+00 2.110666036605834961e+00 -4.828892707824707031e+00
3.096000000000000000e+03 7.595480346679687500e+01 -1.886815834045410156e+01 -1.352697491645812988e+00 1.285418033599853516e+01 3.450444936752319336e+00 3.078003406524658203e+00
3.097000000000000000e+03 7.793903350830078125e+01 -1.815880203247070312e+01 -6.056109070777893066e-01 1.532148647308349609e+01 4.414762496948242188e+00 -2.796057462692260742e+00
3.098000000000000000e+03 7.161292266845703125e+01 -1.879430770874023438e+01 2.491168677806854248e-03 4.808143377304077148e-01 1.449916511774063110e-01 -6.315582990646362305e-01
3.099000000000000000e+03 1.980461478233337402e+00 3.700303268432617188e+01 5.073385778814554214e-03 -3.732763826847076416e-01 -1.104608997702598572e-01 2.002416923642158508e-02
3.100000000000000000e+03 7.652654266357421875e+01 2.744858932495117188e+01 -2.527982182800769806e-02 4.525652885437011719e+00 1.350111842155456543e+00 1.646503955125808716e-01
3.101000000000000000e+03 7.327185821533203125e+01 3.606007385253906250e+01 -3.869301453232765198e-02 4.418700695037841797e+00 1.314002275466918945e+00 2.045514434576034546e-02
3.102000000000000000e+03 7.372908782958984375e+01 -1.388986110687255859e+01 -4.762810766696929932e-01 2.996951103210449219e+00 7.562010288238525391e-01 -2.056705236434936523e+00
3.103000000000000000e+03 7.357633209228515625e+01 -1.366748237609863281e+01 -7.642431855201721191e-01 2.847034215927124023e+00 6.248373389244079590e-01 -1.962104558944702148e+00
3.104000000000000000e+03 7.746178436279296875e+01 -1.348197555541992188e+01 -2.289159297943115234e+00 1.465904045104980469e+01 3.710964202880859375e+00 6.776831746101379395e-01
3.105000000000000000e+03 7.470525360107421875e+01 -1.368158149719238281e+01 -7.496430873870849609e-01 6.202408313751220703e+00 1.635829567909240723e+00 -3.518218755722045898e+00
3.106000000000000000e+03 7.389411163330078125e+01 -1.379931831359863281e+01 -7.217252254486083984e-01 3.322150707244873047e+00 7.801276445388793945e-01 -2.380991935729980469e+00
3.107000000000000000e+03 7.335694885253906250e+01 -1.420352935791015625e+01 -1.017215847969055176e+00 1.612827658653259277e+00 1.786835193634033203e-01 -1.318671941757202148e+00
3.108000000000000000e+03 7.642389678955078125e+01 -1.957193756103515625e+01 -1.784024596214294434e+00 1.311057472229003906e+01 3.397965192794799805e+00 1.369448065757751465e+00
3.109000000000000000e+03 7.685131072998046875e+01 -1.936276054382324219e+01 -2.099974393844604492e+00 1.448789787292480469e+01 3.716377019882202148e+00 4.228330254554748535e-01
3.110000000000000000e+03 5.148761367797851562e+01 -3.378697967529296875e+01 -1.855077780783176422e-02 2.030059814453125000e+00 6.034527420997619629e-01 -1.789339065551757812e+00
3.111000000000000000e+03 7.449771881103515625e+01 -1.940000343322753906e+01 2.861259877681732178e-01 6.031556606292724609e+00 1.895304799079895020e+00 2.440165519714355469e+00
3.112000000000000000e+03 3.723783874511718750e+01 1.174049186706542969e+01 1.004308581352233887e+00 1.098323249816894531e+01 3.596262454986572266e+00 1.932479441165924072e-01
3.113000000000000000e+03 7.595616912841796875e+01 -1.923959159851074219e+01 -1.377012848854064941e+00 1.222641277313232422e+01 3.254819869995117188e+00 2.543192148208618164e+00
3.114000000000000000e+03 1.043841648101806641e+01 -2.220593452453613281e+01 3.754999339580535889e-01 1.404738068580627441e+00 5.340713858604431152e-01 4.585082828998565674e-01
3.115000000000000000e+03 3.523630905151367188e+01 -1.960978507995605469e+00 -6.789357960224151611e-02 9.914565086364746094e+00 2.954001426696777344e+00 -8.311035484075546265e-02
3.116000000000000000e+03 3.729710769653320312e+01 1.112598702311515808e-01 1.361014366149902344e+00 1.170314025878906250e+01 3.919246435165405273e+00 -1.027191042900085449e+00
3.117000000000000000e+03 4.759761047363281250e+01 -1.051293087005615234e+01 -2.657268941402435303e-01 2.152450561523437500e+00 5.660170912742614746e-01 1.785416126251220703e+00
3.118000000000000000e+03 4.867592334747314453e+00 -3.586120986938476562e+01 -8.246555179357528687e-02 5.775425583124160767e-02 -7.413388229906558990e-03 1.657602638006210327e-01
3.119000000000000000e+03 4.540481090545654297e+00 -2.000175285339355469e+01 1.967160999774932861e-01 -5.605241656303405762e-01 -1.091424226760864258e-01 2.621441483497619629e-01
3.120000000000000000e+03 3.248218917846679688e+01 -4.660472393035888672e+00 -1.026539206504821777e+00 5.484925270080566406e+00 1.337515711784362793e+00 -4.281340166926383972e-02
3.121000000000000000e+03 1.185628032684326172e+01 -1.087763690948486328e+01 6.145511269569396973e-01 1.291190505027770996e+00 5.717225074768066406e-01 -1.485183984041213989e-01
3.122000000000000000e+03 4.695655059814453125e+01 -8.718938827514648438e+00 -9.906969666481018066e-01 1.562084078788757324e+00 1.714161336421966553e-01 1.343674182891845703e+00
3.123000000000000000e+03 4.780990982055664062e+01 -8.711549758911132812e+00 -9.109072089195251465e-01 1.049796104431152344e+00 4.166668280959129333e-02 1.853593587875366211e+00
3.124000000000000000e+03 7.507544708251953125e+01 -1.407087993621826172e+01 -8.261008858680725098e-01 7.375874519348144531e+00 1.964932084083557129e+00 -4.325019359588623047e+00
3.125000000000000000e+03 7.328141021728515625e+01 -1.356564617156982422e+01 -8.131524920463562012e-01 2.448898792266845703e+00 4.907238483428955078e-01 -1.430837988853454590e+00
3.126000000000000000e+03 7.354913330078125000e+01 -1.391419601440429688e+01 -7.002373933792114258e-01 2.249919652938842773e+00 4.649046957492828369e-01 -1.618222236633300781e+00
3.127000000000000000e+03 9.382350921630859375e+00 -2.214346504211425781e+01 3.195058703422546387e-01 1.114268779754638672e+00 4.301323890686035156e-01 4.774897694587707520e-01
3.128000000000000000e+03 2.503149986267089844e+00 -3.287216424942016602e+00 -1.106154918670654297e-01 -1.734875440597534180e-01 -8.523090928792953491e-02 -2.620302736759185791e-01
3.129000000000000000e+03 7.388564300537109375e+01 -1.887139129638671875e+01 7.711564302444458008e-01 3.493793964385986328e+00 1.279485106468200684e+00 1.804074883460998535e+00
3.130000000000000000e+03 7.365283203125000000e+01 -1.874032592773437500e+01 6.975679993629455566e-01 2.762717247009277344e+00 1.038085579872131348e+00 1.317286491394042969e+00
3.131000000000000000e+03 2.490312385559082031e+01 -1.797492861747741699e+00 8.275439739227294922e-01 -7.598193734884262085e-02 2.254686057567596436e-01 8.404536247253417969e-01
3.132000000000000000e+03 4.147442245483398438e+01 -1.707523155212402344e+01 1.754154205322265625e+00 8.640992164611816406e+00 3.118543863296508789e+00 -1.122665047645568848e+00
3.133000000000000000e+03 1.723204421997070312e+01 -8.985486984252929688e+00 5.013293623924255371e-01 1.400118827819824219e+00 5.704344511032104492e-01 8.815226554870605469e-01
3.134000000000000000e+03 5.572763442993164062e+01 -8.889329910278320312e+00 -1.499213933944702148e+00 1.717720627784729004e+00 6.555197387933731079e-02 1.748645067214965820e+00
3.135000000000000000e+03 7.402355194091796875e+01 -1.361742591857910156e+01 -6.047783493995666504e-01 4.012398719787597656e+00 1.022286176681518555e+00 -2.502843379974365234e+00
3.136000000000000000e+03 3.156820869445800781e+01 -4.124871730804443359e+00 -3.920828551054000854e-02 4.025492668151855469e+00 1.195885300636291504e+00 4.463850259780883789e-01
3.137000000000000000e+03 7.510869598388671875e+01 -1.370895671844482422e+01 -1.148605823516845703e+00 7.928445339202880859e+00 2.033951997756958008e+00 -3.921537876129150391e+00
3.138000000000000000e+03 7.454580688476562500e+01 -1.301347923278808594e+01 -7.881809473037719727e-01 6.111383914947509766e+00 1.596960902214050293e+00 -3.003685235977172852e+00
3.139000000000000000e+03 6.601518249511718750e+01 -3.174650382995605469e+01 -4.679618775844573975e-02 4.844586551189422607e-01 1.312987357378005981e-01 2.465557903051376343e-01
3.140000000000000000e+03 7.469309997558593750e+01 -2.043289375305175781e+01 -3.200033903121948242e-01 7.190946578979492188e+00 2.061282873153686523e+00 1.833511948585510254e+00
3.141000000000000000e+03 7.191806793212890625e+01 -2.213163375854492188e+01 -3.377842903137207031e-01 2.797172546386718750e+00 7.378164529800415039e-01 3.818863034248352051e-01
3.142000000000000000e+03 7.347621154785156250e+01 -2.336927604675292969e+01 -3.847224116325378418e-01 5.531457424163818359e+00 1.544020533561706543e+00 8.896370530128479004e-01
3.143000000000000000e+03 3.293333816528320312e+01 -3.659636974334716797e+00 -4.671037793159484863e-01 6.589159965515136719e+00 1.836616873741149902e+00 3.918422460556030273e-01
3.144000000000000000e+03 1.565480422973632812e+01 5.964624404907226562e+00 -1.774264965206384659e-03 4.381146864034235477e-04 -4.008451069239526987e-04 3.889392828568816185e-04
3.145000000000000000e+03 1.793233489990234375e+01 -7.352643489837646484e+00 1.412223577499389648e-01 9.404174685478210449e-01 3.244919478893280029e-01 8.877899050712585449e-01
3.146000000000000000e+03 7.318917846679687500e+01 2.796836280822753906e+01 -1.111752316355705261e-01 4.568477153778076172e+00 1.337190508842468262e+00 1.614730209112167358e-01
3.147000000000000000e+03 7.371182250976562500e+01 2.656834030151367188e+01 -6.656529754400253296e-02 4.574039459228515625e+00 1.352242231369018555e+00 2.076821178197860718e-01
3.148000000000000000e+03 4.028230285644531250e+01 -1.006379413604736328e+01 -1.432626843452453613e+00 7.760086536407470703e+00 1.898237824440002441e+00 -1.280770063400268555e+00
3.149000000000000000e+03 2.478773880004882812e+01 -4.834067821502685547e+00 5.963348224759101868e-02 2.424709349870681763e-01 9.063132107257843018e-02 1.510610818862915039e+00
3.150000000000000000e+03 7.372877502441406250e+01 -1.320208072662353516e+01 -6.845044493675231934e-01 3.796063423156738281e+00 9.334676861763000488e-01 -2.138619661331176758e+00
3.151000000000000000e+03 1.517665004730224609e+01 6.768184661865234375e+00 1.034284359775483608e-03 1.373296254314482212e-03 7.222741842269897461e-04 7.601093384437263012e-04
3.152000000000000000e+03 7.391273498535156250e+01 -1.921370315551757812e+01 6.336626410484313965e-01 4.129987239837646484e+00 1.429095029830932617e+00 1.883901357650756836e+00
3.153000000000000000e+03 7.551480102539062500e+01 -1.369886493682861328e+01 -1.615327477455139160e+00 9.937311172485351562e+00 2.496595144271850586e+00 -3.886828184127807617e+00
3.154000000000000000e+03 7.660762786865234375e+01 -3.548833084106445312e+01 4.417602345347404480e-02 8.211540222167968750e+00 2.476714849472045898e+00 5.793429017066955566e-01
3.155000000000000000e+03 1.664732551574707031e+01 2.451667213439941406e+01 -1.795121133327484131e-01 2.456810697913169861e-02 -4.648320376873016357e-02 5.858942493796348572e-02
3.156000000000000000e+03 6.598680973052978516e+00 -8.704482078552246094e+00 7.489228993654251099e-02 -6.899229437112808228e-02 1.769997878000140190e-03 -6.282655000686645508e-01
3.157000000000000000e+03 5.699829483032226562e+01 -9.531700134277343750e+00 -1.760857939720153809e+00 1.300474643707275391e+00 -1.381149590015411377e-01 1.444276332855224609e+00
3.158000000000000000e+03 1.639620971679687500e+01 2.631303787231445312e+01 -4.004380106925964355e-02 1.132089123129844666e-01 2.194953337311744690e-02 2.404327690601348877e-02
3.159000000000000000e+03 7.143412780761718750e+01 2.374581527709960938e+01 -3.366286400705575943e-03 4.689394474029541016e+00 1.405808568000793457e+00 2.156051099300384521e-01
3.160000000000000000e+03 2.555371856689453125e+01 2.894454383850097656e+01 5.505622178316116333e-02 1.869099617004394531e+00 5.772467255592346191e-01 -9.585109949111938477e-01
3.161000000000000000e+03 7.155288219451904297e+00 -2.343976020812988281e+01 1.222495883703231812e-01 3.346855938434600830e-01 1.370805501937866211e-01 5.268590450286865234e-01
3.162000000000000000e+03 6.012667083740234375e+01 -4.230096340179443359e+00 8.047561645507812500e-01 1.331340551376342773e+00 6.408290266990661621e-01 1.229779839515686035e+00
3.163000000000000000e+03 1.554548358917236328e+01 2.536419486999511719e+01 -8.452083915472030640e-02 8.305685967206954956e-02 -4.391927504912018776e-04 7.702851295471191406e-02
3.164000000000000000e+03 1.093134975433349609e+01 2.497580337524414062e+01 -9.757092595100402832e-02 8.608341962099075317e-02 -3.446251153945922852e-03 1.307625174522399902e-01
3.165000000000000000e+03 4.897271347045898438e+01 2.667402267456054688e+01 1.889042258262634277e-01 1.953769445419311523e+00 6.428021192550659180e-01 1.076379537582397461e+00
3.166000000000000000e+03 7.546099853515625000e+01 -2.605859184265136719e+01 -1.937837898731231689e-01 8.236223220825195312e+00 2.412731647491455078e+00 9.308580756187438965e-01
3.167000000000000000e+03 1.994383049011230469e+01 3.028663063049316406e+01 2.129572927951812744e-01 6.708629131317138672e-01 2.651460766792297363e-01 -3.586674630641937256e-01
3.168000000000000000e+03 7.547813415527343750e+01 -1.274626445770263672e+01 -1.487111091613769531e+00 9.227047920227050781e+00 2.321980953216552734e+00 -2.823654174804687500e+00
3.169000000000000000e+03 7.649155426025390625e+01 -2.135796165466308594e+01 -1.032808542251586914e+00 1.095426654815673828e+01 2.976437568664550781e+00 6.089504957199096680e-01
3.170000000000000000e+03 8.761302947998046875e+00 2.893786621093750000e+01 4.101365339010953903e-04 3.270698711276054382e-02 9.935136884450912476e-03 1.370293349027633667e-01
3.171000000000000000e+03 2.671019363403320312e+01 2.995206832885742188e+01 -1.605167388916015625e-01 2.299788713455200195e+00 6.417816281318664551e-01 -7.884190678596496582e-01
3.172000000000000000e+03 6.627639007568359375e+01 2.943470716476440430e+00 1.213601708412170410e+00 3.588906764984130859e+00 1.440752506256103516e+00 -3.364998400211334229e-01
3.173000000000000000e+03 5.184615135192871094e+00 1.976992225646972656e+01 -3.276524320244789124e-02 -3.087146673351526260e-03 -1.075571682304143906e-02 3.545509651303291321e-02
3.174000000000000000e+03 2.352757835388183594e+01 -5.621500492095947266e+00 -1.101483032107353210e-01 3.867098987102508545e-01 8.296848088502883911e-02 1.319020628929138184e+00
3.175000000000000000e+03 7.253519439697265625e+01 -1.168540287017822266e+01 -1.058608055114746094e+00 3.288383483886718750e+00 6.689326167106628418e-01 -1.457662343978881836e+00
3.176000000000000000e+03 7.080403137207031250e+01 -9.747240066528320312e+00 -1.207373261451721191e+00 2.478057622909545898e+00 3.812052905559539795e-01 -1.436010718345642090e+00
3.177000000000000000e+03 6.562763977050781250e+01 2.090502262115478516e+00 1.306400895118713379e+00 3.274792909622192383e+00 1.374358177185058594e+00 -1.863055974245071411e-01
3.178000000000000000e+03 7.639629364013671875e+01 -2.549607276916503906e+01 -1.774246394634246826e-01 9.330546379089355469e+00 2.745936393737792969e+00 7.736671566963195801e-01
3.179000000000000000e+03 7.198625946044921875e+01 1.553364467620849609e+01 4.587767720222473145e-01 4.774612903594970703e+00 1.570016860961914062e+00 -1.813281029462814331e-01
3.180000000000000000e+03 7.311637115478515625e+01 -7.420405387878417969e+00 -1.293120086193084717e-01 4.975560665130615234e+00 1.453874588012695312e+00 -2.181537628173828125e+00
3.181000000000000000e+03 8.213329315185546875e+00 2.568951034545898438e+01 -4.705484583973884583e-02 3.210559859871864319e-02 -4.484774544835090637e-03 1.358824223279953003e-01
3.182000000000000000e+03 6.820635223388671875e+01 -3.244380474090576172e+00 7.736862301826477051e-01 2.224892616271972656e+00 8.995736837387084961e-01 -1.373882532119750977e+00
3.183000000000000000e+03 2.253538894653320312e+01 -5.215960025787353516e+00 1.688256673514842987e-02 4.010527729988098145e-01 1.253806054592132568e-01 1.264261126518249512e+00
3.184000000000000000e+03 1.242342281341552734e+01 5.323575973510742188e+00 1.659717527218163013e-03 2.389292349107563496e-04 5.695940344594419003e-04 1.072300365194678307e-03
3.185000000000000000e+03 1.218781185150146484e+01 5.887591361999511719e+00 -1.617539906874299049e-03 6.575076840817928314e-04 -2.880096726585179567e-04 3.065960481762886047e-04
3.186000000000000000e+03 6.956163787841796875e+01 2.646968841552734375e+01 -1.858552545309066772e-01 4.636950016021728516e+00 1.335328340530395508e+00 6.695904582738876343e-02
3.187000000000000000e+03 2.008417510986328125e+01 -5.286253929138183594e+00 -8.914864063262939453e-02 5.104062557220458984e-01 1.263772845268249512e-01 1.025333523750305176e+00
3.188000000000000000e+03 7.250440216064453125e+01 1.411799144744873047e+01 4.408729672431945801e-01 4.738342761993408203e+00 1.553764700889587402e+00 -2.795926630496978760e-01
3.189000000000000000e+03 9.937016487121582031e+00 -6.121635913848876953e+00 -2.208971828222274780e-01 3.278027474880218506e-01 3.207166492938995361e-02 -5.027000308036804199e-01
3.190000000000000000e+03 7.551275253295898438e+00 -1.137458801269531250e+01 3.621000945568084717e-01 1.713571399450302124e-01 1.600371748208999634e-01 -4.913238883018493652e-01
3.191000000000000000e+03 6.941728973388671875e+01 -6.870784282684326172e+00 -1.711428612470626831e-01 2.250404357910156250e+00 6.237784624099731445e-01 -1.815241932868957520e+00
3.192000000000000000e+03 6.931179046630859375e+01 -5.756956100463867188e+00 1.663032472133636475e-01 2.177877902984619141e+00 7.032543420791625977e-01 -1.776651620864868164e+00
3.193000000000000000e+03 7.018640899658203125e+01 -6.355352878570556641e+00 3.085847385227680206e-02 2.692953824996948242e+00 8.171436786651611328e-01 -1.936001420021057129e+00
3.194000000000000000e+03 6.361453533172607422e+00 2.485251617431640625e+01 -3.483728319406509399e-02 -1.169753726571798325e-02 -1.396044623106718063e-02 1.145891174674034119e-01
3.195000000000000000e+03 6.318519592285156250e+00 1.116367816925048828e+01 2.683797902136575431e-05 -2.994752489030361176e-03 -8.903743582777678967e-04 -2.453641267493367195e-03
3.196000000000000000e+03 6.987066650390625000e+01 -6.992490768432617188e+00 -2.508042752742767334e-01 2.332972526550292969e+00 6.246504783630371094e-01 -1.778395891189575195e+00
3.197000000000000000e+03 6.948484802246093750e+01 -6.325342655181884766e+00 -1.065338030457496643e-02 2.242954492568969727e+00 6.696903705596923828e-01 -1.785561680793762207e+00
3.198000000000000000e+03 7.208418273925781250e+01 2.027775287628173828e+00 6.667171716690063477e-01 4.581604480743408203e+00 1.574496507644653320e+00 -1.490356326103210449e+00
3.199000000000000000e+03 8.686922073364257812e+00 -6.492298126220703125e+00 -1.437096446752548218e-01 1.967969089746475220e-01 1.592617668211460114e-02 -5.868657231330871582e-01
3.200000000000000000e+03 2.517866134643554688e+01 3.127509117126464844e+01 -8.389836549758911133e-02 1.880030870437622070e+00 5.388397574424743652e-01 -7.274911403656005859e-01
3.201000000000000000e+03 7.247225952148437500e+01 -7.349184989929199219e+00 -1.763172149658203125e-01 4.246678352355957031e+00 1.221108317375183105e+00 -2.148787975311279297e+00
3.202000000000000000e+03 8.129007339477539062e+00 6.564264774322509766e+00 -7.271829526871442795e-04 -2.183397766202688217e-03 -8.731742273084819317e-04 1.144727939390577376e-04
3.203000000000000000e+03 1.639982223510742188e+01 -2.317397296428680420e-01 -1.583803653717041016e+00 -9.599204175174236298e-03 -4.780208468437194824e-01 -4.814860224723815918e-02
3.204000000000000000e+03 1.798723983764648438e+01 -8.314419388771057129e-01 -9.780170917510986328e-01 6.634301692247390747e-02 -2.735022306442260742e-01 1.953351944684982300e-01
3.205000000000000000e+03 1.645354080200195312e+01 -9.699125885963439941e-01 -1.256634354591369629e+00 3.580046445131301880e-02 -3.662501573562622070e-01 1.187547445297241211e-01
3.206000000000000000e+03 1.875374794006347656e+01 -7.599936723709106445e-01 -7.874322533607482910e-01 6.833703070878982544e-02 -2.157285660505294800e-01 2.419532388448715210e-01
3.207000000000000000e+03 1.790756225585937500e+01 -9.563824534416198730e-02 -1.190147995948791504e+00 4.817280918359756470e-03 -3.555992245674133301e-01 -1.015654858201742172e-02
3.208000000000000000e+03 1.866109085083007812e+01 -2.537456899881362915e-02 -9.822003841400146484e-01 1.860362105071544647e-02 -2.890790104866027832e-01 1.166328415274620056e-02
3.209000000000000000e+03 1.715376663208007812e+01 -1.644264459609985352e-01 -1.385989427566528320e+00 1.557996217161417007e-02 -4.111228585243225098e-01 -3.621363267302513123e-02
3.210000000000000000e+03 1.722046470642089844e+01 -9.014146924018859863e-01 -1.143051028251647949e+00 5.464592948555946350e-02 -3.265215158462524414e-01 1.564174741506576538e-01
3.211000000000000000e+03 1.941230964660644531e+01 7.625918835401535034e-02 -7.168594002723693848e-01 3.495919052511453629e-03 -2.140090465545654297e-01 2.964248880743980408e-02
3.212000000000000000e+03 2.090952491760253906e+01 3.449267148971557617e-01 -1.660818010568618774e-01 1.915595866739749908e-02 -4.407775402069091797e-02 9.854682534933090210e-02
3.213000000000000000e+03 1.952174568176269531e+01 -6.559218764305114746e-01 -5.936890244483947754e-01 9.025743603706359863e-02 -1.510294675827026367e-01 2.920387387275695801e-01
3.214000000000000000e+03 2.106011390686035156e+01 -3.798714280128479004e-01 -1.696023344993591309e-01 1.097872480750083923e-01 -1.794452778995037079e-02 3.258036673069000244e-01
3.215000000000000000e+03 2.183077621459960938e+01 -2.417316585779190063e-01 3.142601996660232544e-02 1.082260832190513611e-01 4.189563170075416565e-02 3.333812654018402100e-01
3.216000000000000000e+03 2.165959548950195312e+01 4.794237911701202393e-01 7.952482253313064575e-02 6.947617977857589722e-02 4.470029845833778381e-02 1.337849497795104980e-01
3.217000000000000000e+03 2.016033744812011719e+01 2.105962187051773071e-01 -4.237975776195526123e-01 4.579699411988258362e-02 -1.134001761674880981e-01 5.624096840620040894e-02
3.218000000000000000e+03 2.029035186767578125e+01 -5.178933739662170410e-01 -3.947244584560394287e-01 9.959145635366439819e-02 -8.853990584611892700e-02 3.050577640533447266e-01
3.219000000000000000e+03 2.487032127380371094e+01 1.181118011474609375e+00 2.708524763584136963e-01 -1.115101203322410583e-01 4.780270904302597046e-02 -1.926528848707675934e-02
3.220000000000000000e+03 2.407070922851562500e+01 1.205850601196289062e+00 3.833744525909423828e-01 1.726451329886913300e-02 1.201916858553886414e-01 1.175442934036254883e-01
3.221000000000000000e+03 2.608052253723144531e+01 1.172411799430847168e+00 3.559445142745971680e-01 1.954069361090660095e-02 1.126455590128898621e-01 -1.712556183338165283e-01
3.222000000000000000e+03 2.532574653625488281e+01 1.649281024932861328e+00 2.624302208423614502e-01 3.170907963067293167e-03 7.968033850193023682e-02 -2.693144977092742920e-02
3.223000000000000000e+03 2.337576103210449219e+01 2.122173905372619629e-01 4.032211303710937500e-01 1.656256057322025299e-02 1.259351074695587158e-01 2.499274760484695435e-01
3.224000000000000000e+03 2.244518852233886719e+01 6.874994635581970215e-01 2.773741185665130615e-01 3.808493912220001221e-02 9.463771432638168335e-02 1.665564775466918945e-01
3.225000000000000000e+03 2.260292434692382812e+01 -4.084869846701622009e-02 2.269383370876312256e-01 6.908717751502990723e-02 8.880765736103057861e-02 3.017716109752655029e-01
3.226000000000000000e+03 2.485904884338378906e+01 6.037077903747558594e-01 8.071768283843994141e-01 -2.102376073598861694e-01 1.790817677974700928e-01 1.431622803211212158e-01
3.227000000000000000e+03 2.413345909118652344e+01 4.415436685085296631e-01 5.207381844520568848e-01 -6.627185642719268799e-02 1.363398879766464233e-01 1.359388381242752075e-01
3.228000000000000000e+03 2.326551818847656250e+01 9.585449695587158203e-01 3.836510777473449707e-01 4.600341618061065674e-02 1.288963556289672852e-01 1.417403370141983032e-01
3.229000000000000000e+03 2.548499107360839844e+01 8.103089928627014160e-01 7.643785476684570312e-01 -5.867429077625274658e-02 2.117112874984741211e-01 -3.273015841841697693e-02
3.230000000000000000e+03 2.289602470397949219e+01 2.428752899169921875e+00 1.556005736347287893e-04 3.058611473534256220e-04 1.384385250275954604e-04 8.455095667159184813e-05
3.231000000000000000e+03 2.207656478881835938e+01 2.160299539566040039e+00 -1.195204094983637333e-04 -3.012831439264118671e-04 -1.262410660274326801e-04 5.545267777051776648e-05
3.232000000000000000e+03 2.309196090698242188e+01 1.710520744323730469e+00 -1.048444828484207392e-04 -1.385365030728280544e-04 -7.301429286599159241e-05 1.385444556945003569e-05
3.233000000000000000e+03 2.226285171508789062e+01 1.441366434097290039e+00 5.004556805943138897e-05 1.871350395958870649e-04 7.115417975001037121e-05 -2.085777487081941217e-05
3.234000000000000000e+03 2.365754890441894531e+01 2.680384397506713867e+00 -3.062355681322515011e-04 -9.601662168279290199e-05 -1.206756569445133209e-04 -1.535083865746855736e-04
3.235000000000000000e+03 2.446170997619628906e+01 2.351509332656860352e+00 -2.688468157430179417e-05 -7.502352673327550292e-05 -3.057246431126259267e-05 2.238020897493697703e-05
3.236000000000000000e+03 2.386312484741210938e+01 1.962898492813110352e+00 1.198651661979965866e-04 1.086661504814401269e-04 6.855939136585220695e-05 -6.720043893437832594e-05
3.237000000000000000e+03 2.075237083435058594e+01 1.106616377830505371e+00 7.184076093835756183e-05 2.371069858781993389e-04 9.268432040698826313e-05 -6.925591151230037212e-05
3.238000000000000000e+03 2.060178184509277344e+01 1.831414580345153809e+00 -2.455036737956106663e-04 -2.431260654702782631e-04 -1.465889217797666788e-04 5.001710087526589632e-05
3.239000000000000000e+03 2.130817413330078125e+01 1.960395336151123047e+00 2.229335223091766238e-04 2.524149604141712189e-04 1.426045491825789213e-04 -1.172222910099662840e-04
3.240000000000000000e+03 1.918785858154296875e+01 1.579434752464294434e+00 -2.183173201046884060e-04 -3.123591013718396425e-04 -1.592029293533414602e-04 1.110558696382213384e-05
3.241000000000000000e+03 1.989505195617675781e+01 1.704050064086914062e+00 2.448021550662815571e-04 2.971450157929211855e-04 1.625841541681438684e-04 -2.878469240386039019e-05
3.242000000000000000e+03 1.929729461669921875e+01 8.472537398338317871e-01 5.054110079072415829e-05 2.738986513577401638e-04 9.733192564453929663e-05 -2.403911821602378041e-05
3.243000000000000000e+03 2.147934150695800781e+01 1.239288687705993652e+00 -7.471000571968033910e-05 -2.506814198568463326e-04 -9.761743422131985426e-05 5.535357922781258821e-05
3.244000000000000000e+03 2.002506446838378906e+01 9.755603671073913574e-01 -1.116383282351307571e-04 -2.395166084170341492e-04 -1.053464802680537105e-04 3.233411916880868375e-05
3.245000000000000000e+03 1.701650238037109375e+01 1.350294589996337891e+00 2.883892739191651344e-04 5.202636239118874073e-04 2.425958664389327168e-04 1.211547569255344570e-04
3.246000000000000000e+03 1.708320045471191406e+01 6.133062839508056641e-01 8.827651981846429408e-06 -4.038181796204298735e-04 -1.184971551992930472e-04 6.298847438301891088e-05
3.247000000000000000e+03 1.634315681457519531e+01 5.465459823608398438e-01 2.229581732535734773e-04 4.641121486201882362e-04 2.061210980173200369e-04 3.457654747762717307e-05
3.248000000000000000e+03 1.782329559326171875e+01 6.808430552482604980e-01 8.367082773474976420e-05 3.790887130890041590e-04 1.388278615195304155e-04 8.015612365852575749e-06
3.249000000000000000e+03 1.847070503234863281e+01 1.483781576156616211e+00 2.487566671334207058e-04 4.014046571683138609e-04 1.950484002009034157e-04 5.580173819907940924e-05
3.250000000000000000e+03 1.856336212158203125e+01 7.491624951362609863e-01 -8.651109965285286307e-05 -3.072056279052048922e-04 -1.181150219053961337e-04 2.568408854131121188e-05
3.251000000000000000e+03 1.628943824768066406e+01 1.284718871116638184e+00 9.433682862436398864e-06 -4.277777334209531546e-04 -1.255032111657783389e-04 1.887117541627958417e-04
3.252000000000000000e+03 1.774361801147460938e+01 1.416646718978881836e+00 -1.276297844015061855e-04 -3.762390988413244486e-04 -1.511606678832322359e-04 4.596383587340824306e-05
3.253000000000000000e+03 1.408120155334472656e+01 1.187072157859802246e+00 7.768753566779196262e-04 4.782896430697292089e-04 3.765494911931455135e-04 2.061918203253298998e-04
3.254000000000000000e+03 1.410851097106933594e+01 4.475762248039245605e-01 5.517014069482684135e-04 -3.970587276853621006e-04 4.639280086848884821e-05 1.631646300666034222e-04
3.255000000000000000e+03 1.336430931091308594e+01 4.183164834976196289e-01 8.902092813514173031e-04 3.692942555062472820e-04 3.778510726988315582e-04 8.561664435546845198e-05
3.256000000000000000e+03 1.485382461547851562e+01 4.748390913009643555e-01 5.037184455431997776e-04 4.523992247413843870e-04 2.868353039957582951e-04 6.152021524030715227e-05
3.257000000000000000e+03 1.555697250366210938e+01 1.239178419113159180e+00 4.881597706116735935e-04 5.317071336321532726e-04 3.059600712731480598e-04 1.565438869874924421e-04
3.258000000000000000e+03 1.560021686553955078e+01 5.002670884132385254e-01 2.101367426803335547e-04 -4.411058034747838974e-04 -6.929071969352662563e-05 1.176963705802336335e-04
3.259000000000000000e+03 1.334496879577636719e+01 1.158104777336120605e+00 5.339497583918273449e-04 -3.885559854097664356e-04 4.361812534625642002e-05 4.157261864747852087e-04
3.260000000000000000e+03 1.481854820251464844e+01 1.214042663574218750e+00 2.302411448908969760e-04 -4.116691416129469872e-04 -5.442840119940228760e-05 3.358359972480684519e-04
3.261000000000000000e+03 1.111325168609619141e+01 1.138490676879882812e+00 1.492692157626152039e-03 2.469995233695954084e-04 5.219075246714055538e-04 1.830819674069061875e-04
3.262000000000000000e+03 1.186833381652832031e+01 4.020517766475677490e-01 1.340962364338338375e-03 2.601430460345000029e-04 4.803316260222345591e-04 7.729646313237026334e-05
3.263000000000000000e+03 1.037295722961425781e+01 3.924405574798583984e-01 1.726029440760612488e-03 1.682298752712085843e-04 5.682777846232056618e-04 5.569842323893681169e-05
3.264000000000000000e+03 1.260390949249267578e+01 1.143149375915527344e+00 1.139460364356637001e-03 3.620471106842160225e-04 4.504522366914898157e-04 2.192008832935243845e-04
3.265000000000000000e+03 1.261756992340087891e+01 4.032067656517028809e-01 9.652127046138048172e-04 -3.179135383106768131e-04 1.941897498909384012e-04 1.642086281208321452e-04
3.266000000000000000e+03 1.036947441101074219e+01 1.132432341575622559e+00 1.166272209957242012e-03 -3.090601530857384205e-04 2.571636287029832602e-04 2.936117525678128004e-04
3.267000000000000000e+03 1.185806560516357422e+01 1.142010807991027832e+00 8.742229547351598740e-04 -3.462594468146562576e-04 1.583890552865341306e-04 4.160703683737665415e-04
3.268000000000000000e+03 1.112012767791748047e+01 3.985152244567871094e-01 1.401745714247226715e-03 -2.258207096019759774e-04 3.527774824760854244e-04 1.368547091260552406e-04
3.269000000000000000e+03 8.771651268005371094e+00 3.881228864192962646e-01 1.926012453623116016e-03 9.456071711611002684e-05 6.061719614081084728e-04 -9.162296919384971261e-06
3.270000000000000000e+03 8.818146705627441406e+00 1.128122925758361816e+00 1.338296104222536087e-03 -2.661220787558704615e-04 3.216521872673183680e-04 1.083016613847576082e-04
3.271000000000000000e+03 7.953170776367187500e+00 3.921383917331695557e-01 1.768926507793366909e-03 -9.277023491449654102e-05 5.028469022363424301e-04 -1.650938429520465434e-06
3.272000000000000000e+03 6.319846630096435547e+00 3.892590403556823730e-01 1.486534602008759975e-03 2.703514383028959855e-06 4.467714170459657907e-04 -5.566609615925699472e-05
3.273000000000000000e+03 5.502897262573242188e+00 3.910058438777923584e-01 1.360549940727651119e-03 -7.176185317803174257e-05 3.866364422719925642e-04 -1.711041113594546914e-04
3.274000000000000000e+03 4.685476779937744141e+00 3.909447193145751953e-01 9.384857257828116417e-04 8.904960850486531854e-05 3.082606126554310322e-04 -9.101048635784536600e-05
3.275000000000000000e+03 3.050973415374755859e+00 3.907458484172821045e-01 3.059193259105086327e-04 7.628473395016044378e-05 1.146612121374346316e-04 -1.170595423900522292e-04
3.276000000000000000e+03 2.234469175338745117e+00 3.876248300075531006e-01 2.768818812910467386e-04 8.543872354493942112e-06 8.562772563891485333e-05 -6.805361772421747446e-05
3.277000000000000000e+03 2.538473606109619141e+00 1.127624869346618652e+00 2.532011058065108955e-05 8.792143489699810743e-05 3.397246473468840122e-05 -3.455019905231893063e-04
3.278000000000000000e+03 1.768125653266906738e+00 1.127171397209167480e+00 4.027000395581126213e-04 1.617001689737662673e-04 1.693200611043721437e-04 -1.203476349473930895e-04
3.279000000000000000e+03 1.067988038063049316e+00 1.148616075515747070e+00 2.671848960744682699e-05 -6.896699051139876246e-05 -1.267455081688240170e-05 -1.443513338017510250e-05
3.280000000000000000e+03 6.996063590049743652e-01 4.086160361766815186e-01 -1.101408997783437371e-05 3.495222017591004260e-06 -2.255660547234583646e-06 -7.315154653042554855e-05
3.281000000000000000e+03 3.732481598854064941e-01 9.636608362197875977e-01 2.137988485628738999e-04 9.975995635613799095e-05 9.406764002051204443e-05 -3.800672493525780737e-05
3.282000000000000000e+03 3.322789192199707031e+00 1.130745887756347656e+00 8.622628520242869854e-04 8.057139893935527653e-06 2.610959927551448345e-04 -3.597234899643808603e-04
3.283000000000000000e+03 3.868146419525146484e+00 3.889868557453155518e-01 7.722848094999790192e-04 -9.532919648336246610e-05 2.030866744462400675e-04 -1.745435292832553387e-04
3.284000000000000000e+03 5.678146839141845703e+00 1.131005883216857910e+00 9.848451009020209312e-04 -1.174816716229543090e-04 2.602090244181454182e-04 -2.464810677338391542e-04
3.285000000000000000e+03 7.247090816497802734e+00 1.132560849189758301e+00 1.282538403756916523e-03 -2.152041270164772868e-04 3.202002844773232937e-04 -8.824325777823105454e-05
3.286000000000000000e+03 7.136218547821044922e+00 3.925608992576599121e-01 1.797535689547657967e-03 1.574254383740480989e-05 5.439834785647690296e-04 -9.477647108724340796e-05
3.287000000000000000e+03 8.031854629516601562e+00 1.132138371467590332e+00 1.753703341819345951e-03 7.724828901700675488e-05 5.492854979820549488e-04 -1.304816978517919779e-04
3.288000000000000000e+03 9.590107917785644531e+00 3.879971206188201904e-01 1.710237702354788780e-03 -1.557784271426498890e-04 4.663378058467060328e-04 7.065528188832104206e-05
3.289000000000000000e+03 9.604414939880371094e+00 1.127997159957885742e+00 1.721331966109573841e-03 1.354420528514310718e-04 5.570321809500455856e-04 7.290380744962021708e-05
3.290000000000000000e+03 6.462907791137695312e+00 1.129258990287780762e+00 1.568038482218980789e-03 3.473916149232536554e-05 4.808332887478172779e-04 -3.397123946342617273e-04
3.291000000000000000e+03 4.892915248870849609e+00 1.130944728851318359e+00 1.232147333212196827e-03 2.816800133587094024e-06 3.704892587848007679e-04 -4.372070834506303072e-04
3.292000000000000000e+03 4.107773303985595703e+00 1.128986835479736328e+00 5.082460702396929264e-04 2.141834329449920915e-06 1.531163725303485990e-04 -3.508028166834264994e-04
3.293000000000000000e+03 1.431932568550109863e+00 3.871713578701019287e-01 -2.170983316318597645e-05 -7.915999049146194011e-06 -8.887749572750180960e-06 -5.382741073844954371e-05
3.294000000000000000e+03 1.338494110107421875e+01 -3.624081611633300781e-01 -1.821647882461547852e+00 -5.434557329863309860e-03 -5.481247305870056152e-01 -6.326303631067276001e-02
3.295000000000000000e+03 1.492772197723388672e+01 -1.047161340713500977e+00 -1.438763618469238281e+00 2.909803949296474457e-02 -4.228996932506561279e-01 1.445061806589365005e-02
3.296000000000000000e+03 1.340428161621093750e+01 -1.102196455001831055e+00 -1.471041917800903320e+00 1.481429021805524826e-02 -4.368683099746704102e-01 -5.720425397157669067e-02
3.297000000000000000e+03 1.489244556427001953e+01 -3.079577088356018066e-01 -1.763143181800842285e+00 2.208523917943239212e-03 -5.282803773880004883e-01 -4.639894515275955200e-02
3.298000000000000000e+03 1.568929195404052734e+01 -1.018365263938903809e+00 -1.355675220489501953e+00 2.425264939665794373e-02 -3.994267582893371582e-01 5.915882438421249390e-02
3.299000000000000000e+03 1.564604759216308594e+01 -2.794539332389831543e-01 -1.712680339813232422e+00 -2.466619014739990234e-03 -5.145440697669982910e-01 -4.275253787636756897e-02
3.300000000000000000e+03 1.413872909545898438e+01 -3.356079757213592529e-01 -1.799323439598083496e+00 5.568435415625572205e-03 -5.381264686584472656e-01 -5.857575684785842896e-02
3.301000000000000000e+03 1.416603755950927734e+01 -1.075103878974914551e+00 -1.476249337196350098e+00 2.828339673578739166e-02 -4.343897700309753418e-01 -2.050953358411788940e-02
3.302000000000000000e+03 1.037684440612792969e+01 -3.884835243225097656e-01 -1.484025597572326660e+00 9.252245654352009296e-04 -4.449301064014434814e-01 -7.009038329124450684e-02
3.303000000000000000e+03 1.189073276519775391e+01 -1.121461629867553711e+00 -1.411647796630859375e+00 1.519990526139736176e-02 -4.189343750476837158e-01 -1.322792172431945801e-01
3.304000000000000000e+03 1.038032817840576172e+01 -1.128475308418273926e+00 -1.249714851379394531e+00 1.093298289924860001e-02 -3.716345727443695068e-01 -1.772155016660690308e-01
3.305000000000000000e+03 1.264584636688232422e+01 -1.117530822753906250e+00 -1.450432062149047852e+00 1.385025680065155029e-02 -4.309745430946350098e-01 -1.021558940410614014e-01
3.306000000000000000e+03 1.188046455383300781e+01 -3.815026283264160156e-01 -1.697270870208740234e+00 3.293523797765374184e-03 -5.081931948661804199e-01 -5.790155753493309021e-02
3.307000000000000000e+03 1.263218593597412109e+01 -3.775882422924041748e-01 -1.786487579345703125e+00 -3.580171847715973854e-03 -5.370203256607055664e-01 -5.712135508656501770e-02
3.308000000000000000e+03 1.112868118286132812e+01 -3.851337432861328125e-01 -1.597452044486999512e+00 2.963491715490818024e-03 -4.783465564250946045e-01 -6.511370092630386353e-02
3.309000000000000000e+03 1.113555717468261719e+01 -1.125109195709228516e+00 -1.340630173683166504e+00 1.880536042153835297e-02 -3.965474367141723633e-01 -1.547582894563674927e-01
3.310000000000000000e+03 9.622406005859375000e+00 -3.850494623184204102e-01 -1.352838635444641113e+00 2.421435056021437049e-05 -4.058443307876586914e-01 -7.170999050140380859e-02
3.311000000000000000e+03 8.866015434265136719e+00 -3.791061341762542725e-01 -1.204718232154846191e+00 1.135453814640641212e-03 -3.610748350620269775e-01 -7.340787351131439209e-02
3.312000000000000000e+03 8.110340118408203125e+00 -3.782755434513092041e-01 -1.049837470054626465e+00 8.491735788993537426e-04 -3.146964907646179199e-01 -7.585524767637252808e-02
3.313000000000000000e+03 7.354346275329589844e+00 -3.774763345718383789e-01 -8.916386365890502930e-01 -7.045852253213524818e-04 -2.677029669284820557e-01 -7.625211030244827271e-02
3.314000000000000000e+03 6.598577022552490234e+00 -3.773281872272491455e-01 -7.326563000679016113e-01 -8.385278051719069481e-04 -2.200484573841094971e-01 -7.490251958370208740e-02
3.315000000000000000e+03 5.843272686004638672e+00 -3.783421814441680908e-01 -5.794409513473510742e-01 -2.428724197670817375e-03 -1.745609045028686523e-01 -7.148991525173187256e-02
3.316000000000000000e+03 5.087837696075439453e+00 -3.782689273357391357e-01 -4.346405863761901855e-01 -2.363266190513968468e-03 -1.311011612415313721e-01 -6.666140258312225342e-02
3.317000000000000000e+03 4.332343578338623047e+00 -3.772869408130645752e-01 -3.033004701137542725e-01 -4.394982475787401199e-03 -9.230864048004150391e-02 -5.920502170920372009e-02
3.318000000000000000e+03 3.576737403869628906e+00 -3.757566809654235840e-01 -1.871978938579559326e-01 -3.242686158046126366e-03 -5.713217332959175110e-02 -5.154585093259811401e-02
3.319000000000000000e+03 2.821185827255249023e+00 -3.741005063056945801e-01 -9.259507060050964355e-02 -6.507751531898975372e-03 -2.973084710538387299e-02 -4.012400284409523010e-02
3.320000000000000000e+03 2.067172050476074219e+00 -3.734666705131530762e-01 -2.992935106158256531e-02 -8.269099518656730652e-03 -1.145953498780727386e-02 -2.344331517815589905e-02
3.321000000000000000e+03 1.326888561248779297e+00 -3.787174820899963379e-01 -4.028159659355878830e-03 -7.271009963005781174e-03 -3.389750840142369270e-03 -7.079185917973518372e-03
3.322000000000000000e+03 6.511554718017578125e-01 -4.016090035438537598e-01 -9.788777970243245363e-05 -1.996514387428760529e-03 -6.283206748776137829e-04 -3.875537004205398262e-05
3.323000000000000000e+03 9.947552680969238281e-01 -1.141608953475952148e+00 -1.545692421495914459e-02 -2.951478213071823120e-02 -1.349151227623224258e-02 -1.890524104237556458e-02
3.324000000000000000e+03 9.637866020202636719e+00 -1.125049471855163574e+00 -1.151528120040893555e+00 1.161978486925363541e-02 -3.419724702835083008e-01 -1.951853930950164795e-01
3.325000000000000000e+03 8.908821105957031250e+00 -1.119106173515319824e+00 -1.045458197593688965e+00 6.172575987875461578e-03 -3.117856979370117188e-01 -2.062434256076812744e-01
3.326000000000000000e+03 8.180490493774414062e+00 -1.118275523185729980e+00 -9.278512001037597656e-01 5.380643066018819809e-03 -2.767411768436431885e-01 -2.133000940084457397e-01
3.327000000000000000e+03 6.723416805267333984e+00 -1.117328166961669922e+00 -6.843957304954528809e-01 -4.333610180765390396e-03 -2.066188156604766846e-01 -2.138531804084777832e-01
3.328000000000000000e+03 5.995457649230957031e+00 -1.118342161178588867e+00 -5.638050436973571777e-01 -1.000204309821128845e-02 -1.721421182155609131e-01 -2.062017619609832764e-01
3.329000000000000000e+03 5.267367839813232422e+00 -1.118268966674804688e+00 -4.510052800178527832e-01 -1.347256358712911606e-02 -1.393433511257171631e-01 -1.924165934324264526e-01
3.330000000000000000e+03 4.539218425750732422e+00 -1.117286920547485352e+00 -3.457283377647399902e-01 -1.694058626890182495e-02 -1.088006794452667236e-01 -1.748577654361724854e-01
3.331000000000000000e+03 3.810957431793212891e+00 -1.115756630897521973e+00 -2.526910006999969482e-01 -2.008908800780773163e-02 -8.183402568101882935e-02 -1.526221632957458496e-01
3.332000000000000000e+03 3.082750558853149414e+00 -1.114100456237792969e+00 -1.715314388275146484e-01 -2.497153356671333313e-02 -5.895089358091354370e-02 -1.259839832782745361e-01
3.333000000000000000e+03 2.356081962585449219e+00 -1.113466620445251465e+00 -1.003485545516014099e-01 -3.684364631772041321e-02 -4.115765914320945740e-02 -9.150469303131103516e-02
3.334000000000000000e+03 1.643143415451049805e+00 -1.118717432022094727e+00 -4.481757059693336487e-02 -4.048315063118934631e-02 -2.559021674096584320e-02 -5.000521242618560791e-02
3.335000000000000000e+03 7.451840877532958984e+00 -1.117476344108581543e+00 -8.057057261466979980e-01 -9.319946984760463238e-04 -2.419913113117218018e-01 -2.161508202552795410e-01
3.336000000000000000e+03 3.483387529850006104e-01 -9.597249627113342285e-01 -1.348451594822108746e-03 -1.493967836722731590e-03 -8.527258178219199181e-04 -1.630638143979012966e-03
3.337000000000000000e+03 7.612400054931640625e+01 -1.638400650024414062e+01 3.046628570556640625e+01 5.360604286193847656e+00 1.074806690216064453e+01 1.111349105834960938e+01
3.338000000000000000e+03 7.612720489501953125e+01 -1.640320968627929688e+01 2.856987953186035156e+01 1.705351448059082031e+01 1.368701744079589844e+01 2.278598785400390625e+01
3.339000000000000000e+03 7.613408660888671875e+01 -1.642141914367675781e+01 2.642331504821777344e+01 2.862530899047851562e+01 1.651458740234375000e+01 2.714488792419433594e+01
3.340000000000000000e+03 7.614437866210937500e+01 -1.643794250488281250e+01 2.269119644165039062e+01 4.103350830078125000e+01 1.911741256713867188e+01 2.877728652954101562e+01
3.341000000000000000e+03 7.615769958496093750e+01 -1.645214462280273438e+01 1.913815116882324219e+01 5.246363067626953125e+01 2.148053550720214844e+01 2.738417243957519531e+01
3.342000000000000000e+03 7.617352294921875000e+01 -1.646348190307617188e+01 1.557668209075927734e+01 6.237841033935546875e+01 2.338652801513671875e+01 2.346957015991210938e+01
3.343000000000000000e+03 7.619125366210937500e+01 -1.647152137756347656e+01 1.366912651062011719e+01 6.994625091552734375e+01 2.508461380004882812e+01 1.751924896240234375e+01
3.344000000000000000e+03 7.621021270751953125e+01 -1.647595405578613281e+01 1.298978805541992188e+01 7.426996612548828125e+01 2.617792510986328125e+01 1.041550445556640625e+01
3.345000000000000000e+03 7.622966766357421875e+01 -1.647661209106445312e+01 1.483088874816894531e+01 7.556249237060546875e+01 2.711801338195800781e+01 3.220088005065917969e+00
3.346000000000000000e+03 7.624888610839843750e+01 -1.647347068786621094e+01 1.807636451721191406e+01 7.373095703125000000e+01 2.754219627380371094e+01 -3.153599500656127930e+00
3.347000000000000000e+03 7.626712036132812500e+01 -1.646664810180664062e+01 2.308651161193847656e+01 6.987938690185546875e+01 2.788976860046386719e+01 -7.801886081695556641e+00
3.348000000000000000e+03 7.628367614746093750e+01 -1.645640563964843750e+01 2.828039360046386719e+01 6.451727294921875000e+01 2.783930015563964844e+01 -1.043478965759277344e+01
3.349000000000000000e+03 7.629792022705078125e+01 -1.644313621520996094e+01 3.381744766235351562e+01 5.917405700683593750e+01 2.789745140075683594e+01 -1.076461315155029297e+01
3.350000000000000000e+03 7.630931091308593750e+01 -1.642734718322753906e+01 3.826179122924804688e+01 5.401590347290039062e+01 2.768330955505371094e+01 -9.309809684753417969e+00
3.351000000000000000e+03 7.631740570068359375e+01 -1.640964317321777344e+01 4.169018936157226562e+01 5.038948059082031250e+01 2.762390136718750000e+01 -6.306697368621826172e+00
3.352000000000000000e+03 7.632189941406250000e+01 -1.639070129394531250e+01 4.367094421386718750e+01 4.830272293090820312e+01 2.759210014343261719e+01 -2.301963567733764648e+00
3.353000000000000000e+03 7.632262420654296875e+01 -1.637124633789062500e+01 4.388898849487304688e+01 4.775286102294921875e+01 2.749255561828613281e+01 2.036400556564331055e+00
3.354000000000000000e+03 7.631954956054687500e+01 -1.635202407836914062e+01 4.269866561889648438e+01 4.961203384399414062e+01 2.769321060180664062e+01 6.224876880645751953e+00
3.355000000000000000e+03 7.631278228759765625e+01 -1.633376693725585938e+01 3.962489318847656250e+01 5.266247558593750000e+01 2.768621063232421875e+01 9.787499427795410156e+00
3.356000000000000000e+03 7.630259704589843750e+01 -1.631717681884765625e+01 3.541106414794921875e+01 5.749386596679687500e+01 2.787147903442382812e+01 1.193815231323242188e+01
3.357000000000000000e+03 7.628937530517578125e+01 -1.630288696289062500e+01 3.004382896423339844e+01 6.299126052856445312e+01 2.791052627563476562e+01 1.233753871917724609e+01
3.358000000000000000e+03 7.627362823486328125e+01 -1.629144477844238281e+01 2.421510505676269531e+01 6.850469970703125000e+01 2.781594085693359375e+01 1.057867527008056641e+01
3.359000000000000000e+03 7.625595092773437500e+01 -1.628328704833984375e+01 1.898652076721191406e+01 7.315870666503906250e+01 2.764356994628906250e+01 6.568650245666503906e+00
3.360000000000000000e+03 7.623702239990234375e+01 -1.627872848510742188e+01 1.440766048431396484e+01 7.569890594482421875e+01 2.703197097778320312e+01 6.639258861541748047e-01
3.361000000000000000e+03 7.621756744384765625e+01 -1.627794075012207031e+01 1.207197761535644531e+01 7.567399597167968750e+01 2.632379150390625000e+01 -6.376250743865966797e+00
3.362000000000000000e+03 7.619833374023437500e+01 -1.628095626831054688e+01 1.128010559082031250e+01 7.221006774902343750e+01 2.504705238342285156e+01 -1.383115959167480469e+01
3.363000000000000000e+03 7.618005371093750000e+01 -1.628765678405761719e+01 1.271190834045410156e+01 6.582493591308593750e+01 2.356105232238769531e+01 -2.028433609008789062e+01
3.364000000000000000e+03 7.616343688964843750e+01 -1.629778861999511719e+01 1.562388229370117188e+01 5.640649414062500000e+01 2.160911369323730469e+01 -2.520779228210449219e+01
3.365000000000000000e+03 7.614910125732421875e+01 -1.631096267700195312e+01 1.901579666137695312e+01 4.528950500488281250e+01 1.929158973693847656e+01 -2.764906120300292969e+01
3.366000000000000000e+03 7.613760375976562500e+01 -1.632667541503906250e+01 2.318738746643066406e+01 3.284594345092773438e+01 1.680999946594238281e+01 -2.709970855712890625e+01
3.367000000000000000e+03 7.612938690185546875e+01 -1.634432601928710938e+01 2.591519737243652344e+01 2.037417793273925781e+01 1.388681221008300781e+01 -2.372653388977050781e+01
3.368000000000000000e+03 7.612477111816406250e+01 -1.636323738098144531e+01 2.969467544555664062e+01 7.426445484161376953e+00 1.113633632659912109e+01 -1.301394081115722656e+01
