# el_label, x, y, sXX, sYY, sZZ, sXY
1.000000000000000000e+00 3.537876129150390625e+01 4.913155138492584229e-01 -2.976522207260131836e+00 -4.214411735534667969e+00 -2.157280206680297852e+00 -2.583211898803710938e+00
2.000000000000000000e+00 3.556927871704101562e+01 5.489385724067687988e-01 -1.838381648063659668e+00 1.739378929138183594e+00 -2.970081195235252380e-02 6.002047657966613770e-01
3.000000000000000000e+00 3.575979614257812500e+01 6.065616607666015625e-01 -3.853041648864746094e+00 -6.222496628761291504e-01 -1.342587351799011230e+00 -5.217278599739074707e-01
4.000000000000000000e+00 3.595031356811523438e+01 6.641847491264343262e-01 -4.673629283905029297e+00 2.654670774936676025e-01 -1.322448611259460449e+00 -7.159430384635925293e-01
5.000000000000000000e+00 3.535646438598632812e+01 5.452971458435058594e-01 1.093670463562011719e+01 -2.353866398334503174e-01 3.210395336151123047e+00 6.489534378051757812e+00
6.000000000000000000e+00 3.553211975097656250e+01 6.389079689979553223e-01 1.967687726020812988e+00 1.744245409965515137e+00 1.113579869270324707e+00 2.820865392684936523e+00
7.000000000000000000e+00 3.570777511596679688e+01 7.325187921524047852e-01 7.673188447952270508e-01 2.682694196701049805e+00 1.035003900527954102e+00 3.061598777770996094e+00
8.000000000000000000e+00 3.588342666625976562e+01 8.261296749114990234e-01 -6.441591978073120117e-01 1.163349390029907227e+00 1.557570695877075195e-01 1.829361200332641602e+00
9.000000000000000000e+00 3.532408905029296875e+01 5.939054489135742188e-01 1.272106838226318359e+01 9.194573402404785156e+00 6.574692726135253906e+00 1.427924537658691406e+01
1.000000000000000000e+01 3.547815704345703125e+01 7.199218273162841797e-01 6.386849403381347656e+00 5.990257263183593750e+00 3.713132143020629883e+00 8.220360755920410156e+00
1.100000000000000000e+01 3.563222503662109375e+01 8.459382057189941406e-01 2.757293939590454102e+00 5.351040363311767578e+00 2.432500362396240234e+00 5.914738178253173828e+00
1.200000000000000000e+01 3.578629302978515625e+01 9.719545841217041016e-01 1.776169300079345703e+00 5.211295127868652344e+00 2.096239328384399414e+00 5.063650131225585938e+00
1.300000000000000000e+01 3.528286743164062500e+01 6.352803707122802734e-01 1.172573089599609375e+01 2.055586624145507812e+01 9.684478759765625000e+00 1.859071159362792969e+01
1.400000000000000000e+01 3.540945434570312500e+01 7.888799905776977539e-01 5.923779010772705078e+00 1.283388042449951172e+01 5.627297878265380859e+00 1.216711997985839844e+01
1.500000000000000000e+01 3.553604125976562500e+01 9.424796104431152344e-01 3.874191761016845703e+00 1.084523487091064453e+01 4.415828227996826172e+00 9.253801345825195312e+00
1.600000000000000000e+01 3.566262817382812500e+01 1.096079230308532715e+00 2.043133020401000977e+00 9.236104011535644531e+00 3.383771181106567383e+00 7.482609748840332031e+00
1.700000000000000000e+01 3.523437881469726562e+01 6.678385138511657715e-01 7.697390556335449219e+00 3.132435035705566406e+01 1.170652198791503906e+01 1.964800834655761719e+01
1.800000000000000000e+01 3.532863998413085938e+01 8.431435823440551758e-01 4.676194190979003906e+00 2.167858314514160156e+01 7.906433105468750000e+00 1.374675655364990234e+01
1.900000000000000000e+01 3.542290496826171875e+01 1.018448710441589355e+00 2.259906530380249023e+00 1.683262634277343750e+01 5.727759838104248047e+00 1.092721557617187500e+01
2.000000000000000000e+01 3.551716613769531250e+01 1.193753838539123535e+00 1.473719835281372070e+00 1.512079811096191406e+01 4.978355407714843750e+00 9.004423141479492188e+00
2.100000000000000000e+01 3.518047714233398438e+01 6.903340816497802734e-01 5.029579162597656250e+00 4.209485626220703125e+01 1.413733100891113281e+01 1.693257522583007812e+01
2.200000000000000000e+01 3.523880767822265625e+01 8.806361556053161621e-01 1.544902086257934570e+00 2.908650970458984375e+01 9.189423561096191406e+00 1.326702117919921875e+01
2.300000000000000000e+01 3.529713821411132812e+01 1.070938229560852051e+00 9.583089947700500488e-01 2.432557106018066406e+01 7.585164070129394531e+00 1.040820407867431641e+01
2.400000000000000000e+01 3.535547256469726562e+01 1.261240363121032715e+00 -6.667796373367309570e-01 2.032125663757324219e+01 5.896342754364013672e+00 8.982239723205566406e+00
2.500000000000000000e+01 3.512323379516601562e+01 7.019061446189880371e-01 1.690415382385253906e+00 4.926433563232421875e+01 1.528642463684082031e+01 1.240494346618652344e+01
2.600000000000000000e+01 3.514339828491210938e+01 8.999229669570922852e-01 8.428906798362731934e-01 3.643828964233398438e+01 1.118435382843017578e+01 1.004682540893554688e+01
2.700000000000000000e+01 3.516356277465820312e+01 1.097939848899841309e+00 -1.800741553306579590e+00 2.968262863159179688e+01 8.364565849304199219e+00 8.759466171264648438e+00
2.800000000000000000e+01 3.518373107910156250e+01 1.295956611633300781e+00 -1.350527405738830566e+00 2.669292068481445312e+01 7.602717876434326172e+00 6.981017589569091797e+00
2.900000000000000000e+01 3.506483078002929688e+01 7.021118998527526855e-01 2.993426322937011719e+00 5.456273651123046875e+01 1.726684951782226562e+01 5.986599445343017578e+00
3.000000000000000000e+01 3.504605865478515625e+01 9.002659320831298828e-01 -9.928658604621887207e-01 4.075708007812500000e+01 1.192926406860351562e+01 6.060443401336669922e+00
3.100000000000000000e+01 3.502728652954101562e+01 1.098419904708862305e+00 -1.220478773117065430e+00 3.449364471435546875e+01 9.981949806213378906e+00 5.128700733184814453e+00
3.200000000000000000e+01 3.500851821899414062e+01 1.296573996543884277e+00 -3.305891275405883789e+00 3.006801414489746094e+01 8.028636932373046875e+00 4.737365245819091797e+00
3.300000000000000000e+01 3.500750350952148438e+01 6.909434795379638672e-01 4.041038513183593750e+00 5.578532409667968750e+01 1.794790840148925781e+01 -1.482972204685211182e-01
3.400000000000000000e+01 3.495051574707031250e+01 8.816519379615783691e-01 1.367354750633239746e+00 4.360763931274414062e+01 1.349249839782714844e+01 1.225440382957458496e+00
3.500000000000000000e+01 3.489352416992187500e+01 1.072360396385192871e+00 -1.666752457618713379e+00 3.661453628540039062e+01 1.048433494567871094e+01 1.352421760559082031e+00
3.600000000000000000e+01 3.483653640747070312e+01 1.263068795204162598e+00 -1.654004096984863281e+00 3.228004074096679688e+01 9.187810897827148438e+00 9.977202415466308594e-01
3.700000000000000000e+01 3.495344543457031250e+01 6.688283085823059082e-01 9.573680877685546875e+00 5.510459899902343750e+01 1.940348434448242188e+01 -5.280080795288085938e+00
3.800000000000000000e+01 3.486042022705078125e+01 8.447932600975036621e-01 2.920811891555786133e+00 4.358171081542968750e+01 1.395075702667236328e+01 -3.033960103988647461e+00
3.900000000000000000e+01 3.476739501953125000e+01 1.020758271217346191e+00 1.599261879920959473e+00 3.723350906372070312e+01 1.164983177185058594e+01 -2.502706766128540039e+00
4.000000000000000000e+01 3.467436981201171875e+01 1.196723222732543945e+00 -9.735232591629028320e-01 3.296273422241210938e+01 9.596762657165527344e+00 -2.288993358612060547e+00
4.100000000000000000e+01 3.490473175048828125e+01 6.366125941276550293e-01 1.404633998870849609e+01 5.198077011108398438e+01 1.980813407897949219e+01 -8.760910034179687500e+00
4.200000000000000000e+01 3.477922821044921875e+01 7.911004424095153809e-01 8.066118240356445312e+00 4.210065460205078125e+01 1.505003166198730469e+01 -5.988272666931152344e+00
4.300000000000000000e+01 3.465372467041015625e+01 9.455882310867309570e-01 3.554087638854980469e+00 3.613414001464843750e+01 1.190646743774414062e+01 -5.349161148071289062e+00
4.400000000000000000e+01 3.452822494506835938e+01 1.100076079368591309e+00 2.863610744476318359e+00 3.221192169189453125e+01 1.052265930175781250e+01 -4.872993469238281250e+00
4.500000000000000000e+01 3.486321640014648438e+01 5.955291986465454102e-01 2.046376609802246094e+01 4.855197906494140625e+01 2.070472335815429688e+01 -9.688409805297851562e+00
4.600000000000000000e+01 3.471004104614257812e+01 7.226281166076660156e-01 1.203758239746093750e+01 3.922745132446289062e+01 1.537950992584228516e+01 -7.833539962768554688e+00
4.700000000000000000e+01 3.455686569213867188e+01 8.497269749641418457e-01 8.358304977416992188e+00 3.369998550415039062e+01 1.261748790740966797e+01 -6.182607650756835938e+00
4.800000000000000000e+01 3.440368652343750000e+01 9.768258333206176758e-01 4.427766799926757812e+00 3.059942817687988281e+01 1.050815868377685547e+01 -5.941906452178955078e+00
4.900000000000000000e+01 3.483049774169921875e+01 5.471502542495727539e-01 2.551460075378417969e+01 4.494614028930664062e+01 2.113822174072265625e+01 -8.978034019470214844e+00
5.000000000000000000e+01 3.465550994873046875e+01 6.419965028762817383e-01 1.671769142150878906e+01 3.608185958862304688e+01 1.583986568450927734e+01 -7.362011432647705078e+00
5.100000000000000000e+01 3.448051834106445312e+01 7.368427515029907227e-01 1.212166023254394531e+01 3.098262405395507812e+01 1.293128585815429688e+01 -6.306866168975830078e+00
5.200000000000000000e+01 3.430552673339843750e+01 8.316889405250549316e-01 8.659908294677734375e+00 2.704246139526367188e+01 1.071071147918701172e+01 -4.369793891906738281e+00
5.300000000000000000e+01 3.480782318115234375e+01 4.933270514011383057e-01 2.907234573364257812e+01 4.172527694702148438e+01 2.123928642272949219e+01 -6.779463768005371094e+00
5.400000000000000000e+01 3.461771774291992188e+01 5.522911548614501953e-01 2.070737648010253906e+01 3.384439468383789062e+01 1.636553192138671875e+01 -5.496641159057617188e+00
5.500000000000000000e+01 3.442761230468750000e+01 6.112552285194396973e-01 1.509677886962890625e+01 2.801399803161621094e+01 1.293323326110839844e+01 -4.546577453613281250e+00
5.600000000000000000e+01 3.423750305175781250e+01 6.702193617820739746e-01 1.278261566162109375e+01 2.429844093322753906e+01 1.112431716918945312e+01 -3.583825111389160156e+00
5.700000000000000000e+01 3.479606246948242188e+01 4.361192584037780762e-01 3.153584480285644531e+01 4.118744277954101562e+01 2.181698608398437500e+01 -3.472738027572631836e+00
5.800000000000000000e+01 3.459811401367187500e+01 4.569448530673980713e-01 2.272835540771484375e+01 3.118060684204101562e+01 1.617268943786621094e+01 -2.803343057632446289e+00
5.900000000000000000e+01 3.440016555786132812e+01 4.777704179286956787e-01 1.779552841186523438e+01 2.723682403564453125e+01 1.350970554351806641e+01 -1.776677727699279785e+00
6.000000000000000000e+01 3.420221710205078125e+01 4.985960125923156738e-01 1.361502933502197266e+01 2.215185165405273438e+01 1.073006439208984375e+01 -1.721170783042907715e+00
6.100000000000000000e+01 3.479566192626953125e+01 3.777160942554473877e-01 3.167690658569335938e+01 4.033519744873046875e+01 2.160363006591796875e+01 1.694245785474777222e-01
6.200000000000000000e+01 3.459744644165039062e+01 3.596062064170837402e-01 2.332862281799316406e+01 3.170632362365722656e+01 1.651048469543457031e+01 2.794574201107025146e-01
6.300000000000000000e+01 3.439923095703125000e+01 3.414963483810424805e-01 1.823026275634765625e+01 2.579727172851562500e+01 1.320826053619384766e+01 1.034508466720581055e+00
6.400000000000000000e+01 3.420101547241210938e+01 3.233864605426788330e-01 1.515196895599365234e+01 2.329483222961425781e+01 1.153404045104980469e+01 1.142305016517639160e+00
6.500000000000000000e+01 3.480664062500000000e+01 3.203524053096771240e-01 3.029936790466308594e+01 4.130769729614257812e+01 2.148211860656738281e+01 2.971201896667480469e+00
6.600000000000000000e+01 3.461574172973632812e+01 2.640000581741333008e-01 2.206006050109863281e+01 3.300421142578125000e+01 1.651928138732910156e+01 3.381650686264038086e+00
6.700000000000000000e+01 3.442484283447265625e+01 2.076477259397506714e-01 1.714493751525878906e+01 2.661462020874023438e+01 1.312786674499511719e+01 3.302795886993408203e+00
6.800000000000000000e+01 3.423394775390625000e+01 1.512953788042068481e-01 1.384444999694824219e+01 2.403819084167480469e+01 1.136479187011718750e+01 3.350410938262939453e+00
6.900000000000000000e+01 3.482857513427734375e+01 2.662233412265777588e-01 2.767895698547363281e+01 4.485430145263671875e+01 2.175997734069824219e+01 5.035027027130126953e+00
7.000000000000000000e+01 3.465230178833007812e+01 1.737849563360214233e-01 1.906965446472167969e+01 3.399009704589843750e+01 1.591792488098144531e+01 5.443839073181152344e+00
7.100000000000000000e+01 3.447602462768554688e+01 8.134658634662628174e-02 1.497531127929687500e+01 2.991166877746582031e+01 1.346609401702880859e+01 4.649053573608398438e+00
7.200000000000000000e+01 3.429975128173828125e+01 -1.109179016202688217e-02 1.024207782745361328e+01 2.433437919616699219e+01 1.037293720245361328e+01 5.502166748046875000e+00
7.300000000000000000e+01 3.486062622070312500e+01 2.174003273248672485e-01 2.278689575195312500e+01 4.647676086425781250e+01 2.077909660339355469e+01 6.299242496490478516e+00
7.400000000000000000e+01 3.470572280883789062e+01 9.241326898336410522e-02 1.610477828979492188e+01 3.810933685302734375e+01 1.626423454284667969e+01 5.201485633850097656e+00
7.500000000000000000e+01 3.455081558227539062e+01 -3.257378935813903809e-02 1.092088222503662109e+01 3.101043701171875000e+01 1.257939529418945312e+01 5.667238235473632812e+00
7.600000000000000000e+01 3.439591217041015625e+01 -1.575608551502227783e-01 9.273477554321289062e+00 2.770047569274902344e+01 1.109218597412109375e+01 5.811971187591552734e+00
7.700000000000000000e+01 3.490157318115234375e+01 1.757516562938690186e-01 1.921262359619140625e+01 5.053753280639648438e+01 2.092504692077636719e+01 4.839330673217773438e+00
7.800000000000000000e+01 3.477396392822265625e+01 2.299882657825946808e-02 1.117021751403808594e+01 3.982139587402343750e+01 1.529748439788818359e+01 4.454222202301025391e+00
7.900000000000000000e+01 3.464635467529296875e+01 -1.297540068626403809e-01 8.572043418884277344e+00 3.409428787231445312e+01 1.279989910125732422e+01 3.950062990188598633e+00
8.000000000000000000e+01 3.451874542236328125e+01 -2.825068235397338867e-01 6.648510456085205078e+00 2.828613281250000000e+01 1.048039340972900391e+01 4.657357692718505859e+00
8.100000000000000000e+01 3.494984054565429688e+01 1.428711265325546265e-01 1.376714706420898438e+01 5.262767410278320312e+01 1.991844749450683594e+01 2.176066637039184570e+00
8.200000000000000000e+01 3.485441207885742188e+01 -3.180205449461936951e-02 8.589244842529296875e+00 4.181291961669921875e+01 1.512064933776855469e+01 1.302806377410888672e+00
8.300000000000000000e+01 3.475898361206054688e+01 -2.064752429723739624e-01 5.242802143096923828e+00 3.502808380126953125e+01 1.208126544952392578e+01 1.758986711502075195e+00
8.400000000000000000e+01 3.466355514526367188e+01 -3.811483979225158691e-01 4.351802349090576172e+00 3.038874244689941406e+01 1.042216300964355469e+01 9.950602054595947266e-01
8.500000000000000000e+01 3.500358963012695312e+01 1.200169771909713745e-01 1.073132228851318359e+01 5.382742691040039062e+01 1.936762428283691406e+01 -2.426690816879272461e+00
8.600000000000000000e+01 3.494399261474609375e+01 -6.989230215549468994e-02 5.861546039581298828e+00 4.163811874389648438e+01 1.424989986419677734e+01 -2.709494352340698242e+00
8.700000000000000000e+01 3.488439559936523438e+01 -2.598015666007995605e-01 4.001557350158691406e+00 3.477858734130859375e+01 1.163404369354248047e+01 -1.989495873451232910e+00
8.800000000000000000e+01 3.482479858398437500e+01 -4.497108459472656250e-01 2.000043392181396484e+00 3.123406791687011719e+01 9.970232963562011719e+00 -1.428843140602111816e+00
8.900000000000000000e+01 3.506075668334960938e+01 1.080637797713279724e-01 8.455801010131835938e+00 5.246409988403320312e+01 1.827597045898437500e+01 -8.200671195983886719e+00
9.000000000000000000e+01 3.503927230834960938e+01 -8.981430530548095703e-02 5.543383121490478516e+00 3.964683151245117188e+01 1.355706501007080078e+01 -7.208057880401611328e+00
9.100000000000000000e+01 3.501778793334960938e+01 -2.876923978328704834e-01 3.212086439132690430e+00 3.286853790283203125e+01 1.082418632507324219e+01 -5.942798137664794922e+00
9.200000000000000000e+01 3.499630355834960938e+01 -4.855704605579376221e-01 2.390127420425415039e+00 2.832450866699218750e+01 9.214390754699707031e+00 -4.441327571868896484e+00
9.300000000000000000e+01 3.511915969848632812e+01 1.074689328670501709e-01 9.082012176513671875e+00 4.858586120605468750e+01 1.730036163330078125e+01 -1.397570800781250000e+01
9.400000000000000000e+01 3.513660812377929688e+01 -9.080571681261062622e-02 6.061055660247802734e+00 3.540778350830078125e+01 1.244065189361572266e+01 -1.152402400970458984e+01
9.500000000000000000e+01 3.515405654907226562e+01 -2.890803515911102295e-01 4.535873413085937500e+00 2.907106399536132812e+01 1.008208179473876953e+01 -9.295063018798828125e+00
9.600000000000000000e+01 3.517150878906250000e+01 -4.873550236225128174e-01 2.992882013320922852e+00 2.437946319580078125e+01 8.211703300476074219e+00 -8.223299980163574219e+00
9.700000000000000000e+01 3.517655944824218750e+01 1.182552129030227661e-01 1.111951255798339844e+01 4.162729644775390625e+01 1.582404232025146484e+01 -1.898723411560058594e+01
9.800000000000000000e+01 3.523227691650390625e+01 -7.282858341932296753e-02 8.509119987487792969e+00 2.966207122802734375e+01 1.145135688781738281e+01 -1.439403152465820312e+01
9.900000000000000000e+01 3.528799057006835938e+01 -2.639123797416687012e-01 6.210379123687744141e+00 2.355519104003906250e+01 8.929671287536621094e+00 -1.201649856567382812e+01
1.000000000000000000e+02 3.534370803833007812e+01 -4.549961686134338379e-01 4.769131183624267578e+00 2.035446548461914062e+01 7.537079334259033203e+00 -1.027671813964843750e+01
1.010000000000000000e+02 3.523076248168945312e+01 1.400098502635955811e-01 1.514445304870605469e+01 3.294661331176757812e+01 1.442731952667236328e+01 -2.156734848022460938e+01
1.020000000000000000e+02 3.532261276245117188e+01 -3.657085075974464417e-02 1.104834365844726562e+01 2.232080841064453125e+01 1.001074600219726562e+01 -1.579851531982421875e+01
1.030000000000000000e+02 3.541446304321289062e+01 -2.131515592336654663e-01 8.674819946289062500e+00 1.780219841003417969e+01 7.943105220794677734e+00 -1.284657192230224609e+01
1.040000000000000000e+02 3.550631332397460938e+01 -3.897322714328765869e-01 6.772000312805175781e+00 1.486312484741210938e+01 6.490537166595458984e+00 -1.087602519989013672e+01
1.050000000000000000e+02 3.527968978881835938e+01 1.719003617763519287e-01 1.915870094299316406e+01 2.278174972534179688e+01 1.258213520050048828e+01 -2.152062606811523438e+01
1.060000000000000000e+02 3.540415954589843750e+01 1.658000424504280090e-02 1.357173252105712891e+01 1.506694602966308594e+01 8.591603279113769531e+00 -1.490527629852294922e+01
1.070000000000000000e+02 3.552862930297851562e+01 -1.387403607368469238e-01 1.047360706329345703e+01 1.162067222595214844e+01 6.628283977508544922e+00 -1.195017433166503906e+01
1.080000000000000000e+02 3.565309906005859375e+01 -2.940607070922851562e-01 8.673630714416503906e+00 9.774864196777343750e+00 5.534548282623291016e+00 -1.013279628753662109e+01
1.090000000000000000e+02 3.532147598266601562e+01 2.127064019441604614e-01 2.191437149047851562e+01 1.327531623840332031e+01 1.055690574645996094e+01 -1.836803054809570312e+01
1.100000000000000000e+02 3.547380065917968750e+01 8.459004759788513184e-02 1.481068897247314453e+01 8.147883415222167969e+00 6.887571811676025391e+00 -1.213377189636230469e+01
1.110000000000000000e+02 3.562612915039062500e+01 -4.352629184722900391e-02 1.116907882690429688e+01 6.343009471893310547e+00 5.253626823425292969e+00 -9.336360931396484375e+00
1.120000000000000000e+02 3.577845382690429688e+01 -1.716426312923431396e-01 8.925238609313964844e+00 5.648575305938720703e+00 4.372144222259521484e+00 -8.029136657714843750e+00
1.130000000000000000e+02 3.535451507568359375e+01 2.608664035797119141e-01 2.215676689147949219e+01 5.114810466766357422e+00 8.181473731994628906e+00 -1.275953674316406250e+01
1.140000000000000000e+02 3.552886962890625000e+01 1.648567318916320801e-01 1.355207729339599609e+01 2.957978010177612305e+00 4.953016281127929688e+00 -7.860580921173095703e+00
1.150000000000000000e+02 3.570322418212890625e+01 6.884705275297164917e-02 1.016372013092041016e+01 2.568529605865478516e+00 3.819674968719482422e+00 -6.012413501739501953e+00
1.160000000000000000e+02 3.587757873535156250e+01 -2.716262079775333405e-02 7.705904006958007812e+00 2.276366949081420898e+00 2.994681119918823242e+00 -4.761907577514648438e+00
1.170000000000000000e+02 3.537754821777343750e+01 3.145374357700347900e-01 1.779453468322753906e+01 -2.288831770420074463e-01 5.269695758819580078e+00 -6.026300430297851562e+00
1.180000000000000000e+02 3.556725692749023438e+01 2.543084621429443359e-01 9.893118858337402344e+00 -2.042152434587478638e-01 2.906671285629272461e+00 -3.217282533645629883e+00
1.190000000000000000e+02 3.575696945190429688e+01 1.940794736146926880e-01 6.359106540679931641e+00 8.776792883872985840e-01 2.171035766601562500e+00 -2.624505996704101562e+00
1.200000000000000000e+02 3.594667816162109375e+01 1.338504850864410400e-01 5.672060012817382812e+00 4.467710852622985840e-01 1.835649251937866211e+00 -2.689754009246826172e+00
1.210000000000000000e+02 3.538969039916992188e+01 3.716656863689422607e-01 8.745286941528320312e+00 -3.119092226028442383e+00 1.687858343124389648e+00 1.070046424865722656e+00
1.220000000000000000e+02 3.558749771118164062e+01 3.495221734046936035e-01 1.856306433677673340e+00 4.863017797470092773e-02 5.714809894561767578e-01 -3.660163581371307373e-01
1.230000000000000000e+02 3.578530120849609375e+01 3.273786604404449463e-01 2.720694541931152344e+00 9.447982162237167358e-02 8.445523381233215332e-01 -1.289082407951354980e+00
1.240000000000000000e+02 3.598310852050781250e+01 3.052351772785186768e-01 1.426434159278869629e+00 -7.061301916837692261e-02 4.067463278770446777e-01 -6.778184175491333008e-01
1.250000000000000000e+02 3.539048004150390625e+01 4.300649464130401611e-01 -1.050482559204101562e+01 -1.835294365882873535e+00 -3.702035903930664062e+00 2.202555656433105469e+00
1.260000000000000000e+02 3.558881378173828125e+01 4.468542933464050293e-01 -2.395359039306640625e+00 7.108376026153564453e-01 -5.053564310073852539e-01 -1.180875778198242188e+00
1.270000000000000000e+02 3.578714370727539062e+01 4.636436700820922852e-01 -3.294575452804565430e+00 -4.869438111782073975e-01 -1.134455800056457520e+00 -3.000293374061584473e-01
1.280000000000000000e+02 3.598547744750976562e+01 4.804330468177795410e-01 -2.992278575897216797e+00 1.581203788518905640e-01 -8.502474427223205566e-01 -5.675278306007385254e-01
1.290000000000000000e+02 3.806399917602539062e+01 1.972131729125976562e+00 -3.012284636497497559e-01 -2.746795713901519775e-01 -1.727724075317382812e-01 -1.436187863349914551e+00
1.300000000000000000e+02 3.818521499633789062e+01 1.345623731613159180e+00 -2.215148210525512695e+00 -2.974823117256164551e-01 -7.537891268730163574e-01 -1.454329490661621094e+00
1.310000000000000000e+02 3.813333511352539062e+01 1.543711662292480469e+00 -1.618947386741638184e+00 -4.485516250133514404e-01 -6.202496886253356934e-01 -1.382043719291687012e+00
1.320000000000000000e+02 3.836457443237304688e+01 1.175796389579772949e+00 -2.622046232223510742e+00 -1.960039287805557251e-01 -8.454150557518005371e-01 -9.938157796859741211e-01
1.330000000000000000e+02 3.923130035400390625e+01 1.926631450653076172e+00 1.365494728088378906e-02 -7.392681837081909180e-01 -2.176839709281921387e-01 -1.086944818496704102e+00
1.340000000000000000e+02 3.908335876464843750e+01 2.502434015274047852e+00 1.069889441132545471e-01 -1.437124729156494141e+00 -3.990407288074493408e-01 -1.040171504020690918e+00
1.350000000000000000e+02 3.848916244506835938e+01 2.346236228942871094e+00 2.099772095680236816e-01 -6.074834465980529785e-01 -1.192518770694732666e-01 -1.490370869636535645e+00
1.360000000000000000e+02 3.809121704101562500e+01 1.755115270614624023e+00 -7.710267305374145508e-01 -4.618296921253204346e-01 -3.698569238185882568e-01 -1.438129425048828125e+00
1.370000000000000000e+02 3.810974502563476562e+01 2.411345481872558594e+00 4.118805527687072754e-01 -2.427120655775070190e-01 5.075055360794067383e-02 -1.257352828979492188e+00
1.380000000000000000e+02 3.849378204345703125e+01 2.064798116683959961e+00 -1.966399252414703369e-01 -7.364777326583862305e-01 -2.799353003501892090e-01 -1.449248433113098145e+00
1.390000000000000000e+02 3.896955871582031250e+01 1.571777343750000000e+00 -7.107685804367065430e-01 -4.766315519809722900e-01 -3.562200367450714111e-01 -8.263498544692993164e-01
1.400000000000000000e+02 3.846333312988281250e+01 1.817566990852355957e+00 -7.155514955520629883e-01 -6.170368194580078125e-01 -3.997764885425567627e-01 -1.534898877143859863e+00
1.410000000000000000e+02 3.863677597045898438e+01 1.389481663703918457e+00 -1.856401801109313965e+00 -4.067778289318084717e-01 -6.789538860321044922e-01 -8.427492380142211914e-01
1.420000000000000000e+02 3.953553390502929688e+01 2.491535663604736328e+00 -2.056772559881210327e-01 -2.367800235748291016e+00 -7.720432281494140625e-01 -6.996836662292480469e-01
1.430000000000000000e+02 3.850349807739257812e+01 1.613796234130859375e+00 -8.585347533226013184e-01 -6.151512861251831055e-01 -4.421057999134063721e-01 -1.268383502960205078e+00
1.440000000000000000e+02 3.803062057495117188e+01 2.178138256072998047e+00 1.155541539192199707e-01 -2.081038951873779297e-01 -2.776492014527320862e-02 -1.235381960868835449e+00
1.450000000000000000e+02 3.890666580200195312e+01 2.061167001724243164e+00 -4.397471249103546143e-01 -9.297791719436645508e-01 -4.108578860759735107e-01 -1.320247769355773926e+00
1.460000000000000000e+02 3.973888778686523438e+01 2.305653572082519531e+00 -1.320318579673767090e-01 -1.110579729080200195e+00 -3.727834820747375488e-01 7.968851178884506226e-02
1.470000000000000000e+02 3.874127197265625000e+01 1.766617178916931152e+00 -4.832730889320373535e-01 -7.586585283279418945e-01 -3.725794851779937744e-01 -1.416679620742797852e+00
1.480000000000000000e+02 3.941809463500976562e+01 1.580204129219055176e+00 -1.453204005956649780e-01 -1.598916053771972656e-01 -9.156359732151031494e-02 -4.857850670814514160e-01
1.490000000000000000e+02 3.768267059326171875e+01 5.360960364341735840e-01 -1.382259845733642578e+00 4.673952609300613403e-02 -4.006561040878295898e-01 -6.183388456702232361e-02
1.500000000000000000e+02 3.817423248291015625e+01 -1.988002955913543701e-01 2.801714539527893066e-01 3.729617297649383545e-01 1.959399580955505371e-01 1.643458455801010132e-01
1.510000000000000000e+02 3.524513626098632812e+01 -7.468526363372802734e-01 1.791734337806701660e+00 2.000150108337402344e+01 6.537971019744873047e+00 -7.201292037963867188e+00
1.520000000000000000e+02 3.480954742431640625e+01 -6.441960334777832031e-01 1.357758283615112305e+00 2.730773353576660156e+01 8.599647521972656250e+00 -2.254770517349243164e+00
1.530000000000000000e+02 3.432530975341796875e+01 -6.922839879989624023e-01 2.953403711318969727e+00 2.220580291748046875e+01 7.547762393951416016e+00 3.628833532333374023e+00
1.540000000000000000e+02 3.416201400756835938e+01 -1.202813833951950073e-01 1.001868629455566406e+01 2.187122344970703125e+01 9.566972732543945312e+00 5.556159496307373047e+00
1.550000000000000000e+02 3.399853515625000000e+01 5.383858680725097656e-01 1.259537029266357422e+01 2.015857124328613281e+01 9.826182365417480469e+00 -1.327978730201721191e+00
1.560000000000000000e+02 3.398275756835937500e+01 5.341817438602447510e-02 9.757600784301757812e+00 1.819526481628417969e+01 8.385859489440917969e+00 4.913577556610107422e+00
1.570000000000000000e+02 3.426241683959960938e+01 1.158757209777832031e+00 2.971493244171142578e+00 2.757635307312011719e+01 9.164353370666503906e+00 -4.825436592102050781e+00
1.580000000000000000e+02 3.430546569824218750e+01 1.076477646827697754e+00 5.020945549011230469e+00 2.837578201293945312e+01 1.001901817321777344e+01 -5.488858222961425781e+00
1.590000000000000000e+02 3.444454956054687500e+01 1.202880859375000000e+00 5.136877298355102539e-01 3.112718009948730469e+01 9.492259979248046875e+00 -4.444835662841796875e+00
1.600000000000000000e+02 3.486555862426757812e+01 1.755191922187805176e+00 -4.000176906585693359e+00 2.532618331909179688e+01 6.397801876068115234e+00 2.214983701705932617e+00
1.610000000000000000e+02 3.689690399169921875e+01 1.213915705680847168e+00 -2.653783321380615234e+00 2.587740421295166016e-01 -7.185028195381164551e-01 -5.852031111717224121e-01
1.620000000000000000e+02 3.791172409057617188e+01 1.073077917098999023e+00 -4.282947063446044922e+00 -4.793329238891601562e-01 -1.428683996200561523e+00 -9.571547508239746094e-01
1.630000000000000000e+02 3.394785690307617188e+01 -2.702543735504150391e-01 8.335750579833984375e+00 1.766587066650390625e+01 7.800486087799072266e+00 5.847715377807617188e+00
1.640000000000000000e+02 3.796926116943359375e+01 8.298364281654357910e-01 -1.941253662109375000e+00 -1.695908010005950928e-01 -6.332533359527587891e-01 -3.340777754783630371e-01
1.650000000000000000e+02 3.801557922363281250e+01 6.275892257690429688e-01 -1.321792483329772949e+00 -7.614377140998840332e-02 -4.193808734416961670e-01 -1.023230049759149551e-02
1.660000000000000000e+02 3.785049438476562500e+01 2.267594337463378906e-01 -3.840371668338775635e-01 1.428451985120773315e-01 -7.235759496688842773e-02 2.036987692117691040e-01
1.670000000000000000e+02 3.756294631958007812e+01 -2.815477848052978516e-01 1.092710733413696289e+00 5.317147374153137207e-01 4.873276352882385254e-01 -4.160285890102386475e-01
1.680000000000000000e+02 3.659259796142578125e+01 5.327633023262023926e-01 -2.679701805114746094e+00 -2.154654823243618011e-02 -8.103744983673095703e-01 -4.137767553329467773e-01
1.690000000000000000e+02 3.618620300292968750e+01 4.947866797447204590e-01 -2.907382488250732422e+00 -1.515097916126251221e-01 -9.176676869392395020e-01 -3.731935024261474609e-01
1.700000000000000000e+02 3.581189727783203125e+01 -8.690215349197387695e-01 4.032689094543457031e+00 1.042420768737792969e+01 4.337069034576416016e+00 -7.702665805816650391e+00
1.710000000000000000e+02 3.560577011108398438e+01 -5.431208610534667969e-01 5.796313285827636719e+00 1.283466529846191406e+01 5.589293479919433594e+00 -9.753143310546875000e+00
1.720000000000000000e+02 3.619009399414062500e+01 2.734599411487579346e-01 1.111941456794738770e+00 1.062417998909950256e-01 3.654549717903137207e-01 -8.143138289451599121e-01
1.730000000000000000e+02 3.614137649536132812e+01 7.213321924209594727e-01 -5.214756488800048828e+00 -2.743063569068908691e-01 -1.646718859672546387e+00 -9.048404693603515625e-01
1.740000000000000000e+02 3.625593948364257812e+01 1.009923577308654785e+00 -1.907980561256408691e+00 9.789274334907531738e-01 -2.787159383296966553e-01 8.801420331001281738e-01
1.750000000000000000e+02 3.595444107055664062e+01 1.102693796157836914e+00 6.916845440864562988e-01 3.713906526565551758e+00 1.321677327156066895e+00 3.876086950302124023e+00
1.760000000000000000e+02 3.509875869750976562e+01 1.816978812217712402e+00 -3.277081012725830078e+00 2.401686859130859375e+01 6.221936225891113281e+00 3.921742439270019531e+00
1.770000000000000000e+02 3.491096115112304688e+01 1.504636168479919434e+00 -2.462586641311645508e+00 2.801602363586425781e+01 7.666031360626220703e+00 2.620831727981567383e+00
1.780000000000000000e+02 3.442277526855468750e+01 1.277381300926208496e+00 8.584840297698974609e-01 3.018085861206054688e+01 9.311802864074707031e+00 -3.848995923995971680e+00
1.790000000000000000e+02 3.406803512573242188e+01 7.541939020156860352e-01 1.016032600402832031e+01 2.154834365844726562e+01 9.512600898742675781e+00 -2.002991676330566406e+00
1.800000000000000000e+02 3.392501449584960938e+01 2.940079569816589355e-01 9.431598663330078125e+00 1.791229248046875000e+01 8.203166961669921875e+00 2.205228090286254883e+00
1.810000000000000000e+02 3.769752502441406250e+01 2.108312606811523438e+00 1.107343435287475586e-01 3.148097693920135498e-01 1.276632398366928101e-01 -1.253196597099304199e+00
1.820000000000000000e+02 3.786067581176757812e+01 1.280829668045043945e+00 -2.510388851165771484e+00 -5.696774721145629883e-01 -9.240198731422424316e-01 -1.334980964660644531e+00
1.830000000000000000e+02 3.765409469604492188e+01 2.314333677291870117e+00 4.507792592048645020e-01 1.415781736373901367e+00 5.599682927131652832e-01 -8.420009016990661621e-01
1.840000000000000000e+02 3.726396942138671875e+01 2.220872640609741211e+00 4.989042878150939941e-01 1.940955638885498047e+00 7.319579720497131348e-01 -2.055928260087966919e-01
1.850000000000000000e+02 3.771007919311523438e+01 1.033654808998107910e+00 -4.517284393310546875e+00 -2.956911921501159668e-01 -1.443892717361450195e+00 -1.285410165786743164e+00
1.860000000000000000e+02 3.443535614013671875e+01 1.402460098266601562e+00 -1.134994387626647949e+00 2.910164833068847656e+01 8.389996528625488281e+00 -2.558485269546508789e+00
1.870000000000000000e+02 3.569356536865234375e+01 1.911596655845642090e+00 -8.527609705924987793e-01 1.353577709197998047e+01 3.804904937744140625e+00 5.123892307281494141e+00
1.880000000000000000e+02 3.609487533569335938e+01 1.988213300704956055e+00 3.187992572784423828e-01 8.656364440917968750e+00 2.692549228668212891e+00 3.903288125991821289e+00
1.890000000000000000e+02 3.613261032104492188e+01 1.743736147880554199e+00 6.235362291336059570e-01 7.087686061859130859e+00 2.313366651535034180e+00 3.830058336257934570e+00
1.900000000000000000e+02 3.649325180053710938e+01 2.048353195190429688e+00 6.182281374931335449e-01 5.249215126037597656e+00 1.760232925415039062e+00 2.111666917800903320e+00
1.910000000000000000e+02 3.707004165649414062e+01 2.192389726638793945e+00 6.021033525466918945e-01 2.375631809234619141e+00 8.933205604553222656e-01 2.382600307464599609e-01
1.920000000000000000e+02 3.822454833984375000e+01 -4.113661348819732666e-01 4.677348434925079346e-01 6.790547966957092285e-01 3.440368771553039551e-01 8.631473407149314880e-03
1.930000000000000000e+02 3.681971740722656250e+01 -6.443391442298889160e-01 3.598655700683593750e+00 2.050366401672363281e+00 1.694706678390502930e+00 -3.016006231307983398e+00
1.940000000000000000e+02 3.642924499511718750e+01 -7.371240258216857910e-01 4.426880359649658203e+00 3.935502290725708008e+00 2.508714914321899414e+00 -4.889942169189453125e+00
1.950000000000000000e+02 3.579685592651367188e+01 -4.383555352687835693e-01 7.010529994964599609e+00 8.337230682373046875e+00 4.604328155517578125e+00 -8.692341804504394531e+00
1.960000000000000000e+02 3.542752838134765625e+01 1.450276494026184082e+00 -6.131188869476318359e-01 1.892092514038085938e+01 5.492341995239257812e+00 7.597924232482910156e+00
1.970000000000000000e+02 3.457157516479492188e+01 1.303904294967651367e+00 3.492961823940277100e-02 3.083114814758300781e+01 9.259823799133300781e+00 -2.271183967590332031e+00
1.980000000000000000e+02 3.377087783813476562e+01 5.389579534530639648e-01 9.091866493225097656e+00 1.659300613403320312e+01 7.705461502075195312e+00 4.949367344379425049e-01
1.990000000000000000e+02 3.548401260375976562e+01 1.655487537384033203e+00 -1.242486596107482910e+00 1.693479728698730469e+01 4.707693099975585938e+00 6.534245491027832031e+00
2.000000000000000000e+02 3.653320693969726562e+01 8.296338319778442383e-01 -5.578677654266357422e+00 -3.315684199333190918e-01 -1.773073792457580566e+00 -1.126683950424194336e+00
2.010000000000000000e+02 3.419139099121093750e+01 1.226665139198303223e+00 3.100576162338256836e+00 2.632553482055664062e+01 8.827833175659179688e+00 -4.363200187683105469e+00
2.020000000000000000e+02 3.412655258178710938e+01 1.045019984245300293e+00 5.127142429351806641e+00 2.528727149963378906e+01 9.124323844909667969e+00 -5.002079963684082031e+00
2.030000000000000000e+02 3.445520401000976562e+01 1.593787074089050293e+00 -2.284444808959960938e+00 2.779335784912109375e+01 7.652673721313476562e+00 -1.271434426307678223e+00
2.040000000000000000e+02 3.524667739868164062e+01 1.480966567993164062e+00 -2.360734701156616211e+00 2.289726257324218750e+01 6.160958290100097656e+00 6.793893814086914062e+00
2.050000000000000000e+02 3.490590667724609375e+01 -8.919525146484375000e-01 4.088183939456939697e-01 2.250058746337890625e+01 6.872821807861328125e+00 -3.734860420227050781e+00
2.060000000000000000e+02 3.456612777709960938e+01 -5.364776253700256348e-01 3.600081205368041992e+00 2.505562400817871094e+01 8.596711158752441406e+00 1.805403470993041992e+00
2.070000000000000000e+02 3.505109405517578125e+01 -6.610595583915710449e-01 1.428992748260498047e+00 2.443467903137207031e+01 7.759101390838623047e+00 -4.671242237091064453e+00
2.080000000000000000e+02 3.638934707641601562e+01 5.102266669273376465e-01 -2.751183986663818359e+00 -7.392300665378570557e-02 -8.475320935249328613e-01 -4.447981715202331543e-01
2.090000000000000000e+02 3.694769287109375000e+01 -3.272821903228759766e-01 2.658236026763916016e+00 9.007745385169982910e-01 1.067703127861022949e+00 -1.600786447525024414e+00
2.100000000000000000e+02 3.535900115966796875e+01 -9.240688681602478027e-01 1.926237821578979492e+00 1.681776618957519531e+01 5.623200893402099609e+00 -7.063382148742675781e+00
2.110000000000000000e+02 3.428021621704101562e+01 -2.579543292522430420e-01 7.939384937286376953e+00 2.426913833618164062e+01 9.662556648254394531e+00 5.390137672424316406e+00
2.120000000000000000e+02 3.669990921020507812e+01 2.084796905517578125e+00 7.220153212547302246e-01 3.897906780242919922e+00 1.385976672172546387e+00 1.406091332435607910e+00
2.130000000000000000e+02 3.667174911499023438e+01 1.159718871116638184e+00 -2.443919420242309570e+00 3.326285779476165771e-01 -6.333872675895690918e-01 -1.812874227762222290e-01
2.140000000000000000e+02 3.529784774780273438e+01 1.860155224800109863e+00 -2.264277458190917969e+00 1.932216262817382812e+01 5.117365837097167969e+00 4.951687335968017578e+00
2.150000000000000000e+02 3.549479293823242188e+01 1.887632369995117188e+00 -1.344681501388549805e+00 1.648333740234375000e+01 4.541596889495849609e+00 5.349369525909423828e+00
2.160000000000000000e+02 3.629343414306640625e+01 2.020758390426635742e+00 5.711515545845031738e-01 6.619626045227050781e+00 2.157233238220214844e+00 2.848396778106689453e+00
2.170000000000000000e+02 3.589457702636718750e+01 1.945784687995910645e+00 -9.104827046394348145e-02 1.123365783691406250e+01 3.342782974243164062e+00 4.582608699798583984e+00
2.180000000000000000e+02 3.636095809936523438e+01 1.353103160858154297e+00 -1.133632957935333252e-01 2.624076843261718750e+00 7.532140612602233887e-01 1.998349666595458984e+00
2.190000000000000000e+02 3.529890823364257812e+01 1.658028483390808105e+00 -2.050560951232910156e+00 2.083907127380371094e+01 5.636553287506103516e+00 5.599254131317138672e+00
2.200000000000000000e+02 3.653305816650390625e+01 1.747927308082580566e+00 4.105785191059112549e-01 3.616366863250732422e+00 1.208083629608154297e+00 1.793118476867675781e+00
2.210000000000000000e+02 3.745933151245117188e+01 2.273849725723266602e+00 5.420376062393188477e-01 9.131816625595092773e-01 4.365657866001129150e-01 -6.208385229110717773e-01
2.220000000000000000e+02 3.773216247558593750e+01 1.904523730278015137e+00 -2.719759941101074219e-01 -6.551309674978256226e-02 -1.012467220425605774e-01 -1.189507126808166504e+00
2.230000000000000000e+02 3.694717025756835938e+01 9.220266342163085938e-01 -5.516944885253906250e+00 -3.473422527313232422e-01 -1.759286046028137207e+00 -1.278702139854431152e+00
2.240000000000000000e+02 3.724145889282226562e+01 1.097884297370910645e+00 -4.149565219879150391e+00 -2.290470302104949951e-01 -1.313583731651306152e+00 -1.386780619621276855e+00
2.250000000000000000e+02 3.614830780029296875e+01 1.228531718254089355e+00 2.545163929462432861e-01 3.440745115280151367e+00 1.108578443527221680e+00 2.931320428848266602e+00
2.260000000000000000e+02 3.732894897460937500e+01 9.401021599769592285e-01 -5.347986221313476562e+00 -1.913940757513046265e-01 -1.661814093589782715e+00 -1.225025534629821777e+00
2.270000000000000000e+02 3.781026077270507812e+01 1.488945841789245605e+00 -1.723076224327087402e+00 -2.840384244918823242e-01 -6.021344065666198730e-01 -1.476644873619079590e+00
2.280000000000000000e+02 3.700029754638671875e+01 5.953550934791564941e-01 -2.485903263092041016e+00 -1.307047158479690552e-02 -7.496921420097351074e-01 -3.702469766139984131e-01
2.290000000000000000e+02 3.707827377319335938e+01 2.840464711189270020e-01 -3.980985879898071289e-01 6.343116611242294312e-02 -1.004002243280410767e-01 -1.408032178878784180e-01
2.300000000000000000e+02 3.679650497436523438e+01 5.613364577293395996e-01 -2.586749315261840820e+00 -8.290382474660873413e-02 -8.008959293365478516e-01 -3.765494525432586670e-01
2.310000000000000000e+02 3.784462356567382812e+01 4.286402761936187744e-01 -9.135246276855468750e-01 8.096840232610702515e-02 -2.497668713331222534e-01 1.099940463900566101e-01
2.320000000000000000e+02 3.640982055664062500e+01 2.445340603590011597e-01 7.798597812652587891e-01 -3.036828944459557533e-03 2.330468893051147461e-01 -5.138018131256103516e-01
2.330000000000000000e+02 3.742321777343750000e+01 -5.460600256919860840e-01 1.864611625671386719e+00 1.000772714614868164e+00 8.596153259277343750e-01 -1.160002827644348145e+00
2.340000000000000000e+02 3.672289276123046875e+01 -3.581158518791198730e-01 3.560898065567016602e+00 1.205632686614990234e+00 1.429959177970886230e+00 -2.274648189544677734e+00
2.350000000000000000e+02 3.615061187744140625e+01 -5.380544066429138184e-01 5.603098869323730469e+00 4.832314491271972656e+00 3.130624055862426758e+00 -5.985302925109863281e+00
2.360000000000000000e+02 3.802086257934570312e+01 -4.443683624267578125e-01 7.277659773826599121e-01 6.016095280647277832e-01 3.988126516342163086e-01 -2.589477598667144775e-01
2.370000000000000000e+02 3.702085494995117188e+01 -6.073474884033203125e-01 3.070624828338623047e+00 1.514896750450134277e+00 1.375656485557556152e+00 -2.230928897857666016e+00
2.380000000000000000e+02 3.689577484130859375e+01 -3.850632160902023315e-02 1.704964518547058105e+00 3.394477665424346924e-01 6.133236885070800781e-01 -8.388173580169677734e-01
2.390000000000000000e+02 3.622704696655273438e+01 -7.763922214508056641e-01 4.750916481018066406e+00 5.678460597991943359e+00 3.128813028335571289e+00 -5.892458438873291016e+00
2.400000000000000000e+02 3.602085113525390625e+01 -8.211171627044677734e-01 4.494201660156250000e+00 7.752782344818115234e+00 3.674095392227172852e+00 -7.095264434814453125e+00
2.410000000000000000e+02 3.750978088378906250e+01 2.075378656387329102e+00 1.833041310310363770e-01 1.054449200630187988e+00 3.713259994983673096e-01 -7.275028228759765625e-01
2.420000000000000000e+02 3.758044052124023438e+01 1.450568199157714844e+00 -1.834999322891235352e+00 -2.835417687892913818e-01 -6.355623006820678711e-01 -1.246156692504882812e+00
2.430000000000000000e+02 3.808410644531250000e+01 2.229335755109786987e-01 -3.935645818710327148e-01 2.927391827106475830e-01 -3.024762123823165894e-02 2.585589289665222168e-01
2.440000000000000000e+02 3.762417221069335938e+01 2.022039443254470825e-01 -3.086990118026733398e-01 1.633324474096298218e-01 -4.360996931791305542e-02 8.180622756481170654e-02
2.450000000000000000e+02 3.782154464721679688e+01 -4.794266819953918457e-01 1.020977258682250977e+00 6.929618120193481445e-01 5.141817331314086914e-01 -4.670764207839965820e-01
2.460000000000000000e+02 3.796118927001953125e+01 -2.224933654069900513e-01 5.266522169113159180e-01 4.391939938068389893e-01 2.897538840770721436e-01 -6.701494753360748291e-02
2.470000000000000000e+02 3.645962142944335938e+01 1.092460632324218750e+00 -2.248180627822875977e+00 8.428745269775390625e-01 -4.215918183326721191e-01 2.375559806823730469e-01
2.480000000000000000e+02 3.777699279785156250e+01 7.946278452873229980e-01 -2.034561634063720703e+00 -2.121586538851261139e-02 -6.167332530021667480e-01 -3.011260032653808594e-01
2.490000000000000000e+02 3.593552780151367188e+01 -2.895937860012054443e-01 7.521862030029296875e+00 4.939572811126708984e+00 3.738430500030517578e+00 -6.675411701202392578e+00
2.500000000000000000e+02 3.592605972290039062e+01 1.671033859252929688e+00 3.761317133903503418e-01 9.320933341979980469e+00 2.909119606018066406e+00 5.160002708435058594e+00
2.510000000000000000e+02 3.688975143432617188e+01 2.150209903717041016e+00 5.577043890953063965e-01 3.224349260330200195e+00 1.134616017341613770e+00 7.465537786483764648e-01
2.520000000000000000e+02 3.704786300659179688e+01 1.554938316345214844e+00 -9.642635583877563477e-01 8.625705838203430176e-01 -3.050788678228855133e-02 -3.013767004013061523e-01
2.530000000000000000e+02 3.569747543334960938e+01 1.640893340110778809e+00 -2.476287540048360825e-03 1.284456443786621094e+01 3.852626323699951172e+00 6.170784950256347656e+00
2.540000000000000000e+02 3.743860626220703125e+01 1.184228420257568359e+00 -3.350906133651733398e+00 -2.523339688777923584e-01 -1.080972075462341309e+00 -1.318646550178527832e+00
2.550000000000000000e+02 3.764613342285156250e+01 1.239812850952148438e+00 -3.168843507766723633e+00 -3.547024130821228027e-01 -1.057063698768615723e+00 -1.215614199638366699e+00
2.560000000000000000e+02 3.736428833007812500e+01 -2.986852526664733887e-01 1.575828313827514648e+00 6.153601408004760742e-01 6.573565602302551270e-01 -7.784764766693115234e-01
2.570000000000000000e+02 3.775987625122070312e+01 -2.518905103206634521e-01 7.681284546852111816e-01 5.208451747894287109e-01 3.866921067237854004e-01 -2.521661520004272461e-01
2.580000000000000000e+02 3.606378173828125000e+01 9.196580052375793457e-01 -1.299283981323242188e+00 1.501036286354064941e+00 6.052571907639503479e-02 1.419566154479980469e+00
2.590000000000000000e+02 3.581342697143554688e+01 1.273440718650817871e+00 1.290839672088623047e+00 8.349484443664550781e+00 2.892097234725952148e+00 6.155430316925048828e+00
2.600000000000000000e+02 3.665739822387695312e+01 -5.793470889329910278e-02 2.609641313552856445e+00 6.207683086395263672e-01 9.691228866577148438e-01 -1.387072682380676270e+00
2.610000000000000000e+02 3.615174102783203125e+01 4.769318550825119019e-02 4.682200908660888672e+00 6.836253404617309570e-01 1.609747886657714844e+00 -2.244450807571411133e+00
2.620000000000000000e+02 3.718402862548828125e+01 1.867920041084289551e+00 -1.279215812683105469e-01 1.192114830017089844e+00 3.192580044269561768e-01 -3.615964949131011963e-01
2.630000000000000000e+02 3.632117080688476562e+01 1.753208994865417480e+00 4.996390640735626221e-01 5.133295536041259766e+00 1.689880371093750000e+00 2.839708328247070312e+00
2.640000000000000000e+02 3.752202987670898438e+01 1.678770184516906738e+00 -9.681491255760192871e-01 1.410379707813262939e-01 -2.481333464384078979e-01 -1.053250193595886230e+00
2.650000000000000000e+02 3.751740264892578125e+01 1.891243100166320801e+00 -3.612311780452728271e-01 4.647355675697326660e-01 3.105130791664123535e-02 -1.065430402755737305e+00
2.660000000000000000e+02 3.685264587402343750e+01 2.590102553367614746e-01 -8.756819181144237518e-03 1.354004740715026855e-01 3.799309581518173218e-02 -3.085167706012725830e-01
2.670000000000000000e+02 3.712593460083007812e+01 -2.301576361060142517e-02 1.097348809242248535e+00 3.640277087688446045e-01 4.384129345417022705e-01 -5.358473062515258789e-01
2.680000000000000000e+02 3.751256179809570312e+01 4.394589662551879883e-01 -1.186031699180603027e+00 6.129724904894828796e-02 -3.374203443527221680e-01 -5.865365266799926758e-03
2.690000000000000000e+02 3.605002212524414062e+01 -1.349577754735946655e-01 6.634798049926757812e+00 2.108273983001708984e+00 2.622921466827392578e+00 -4.547554492950439453e+00
2.700000000000000000e+02 3.612489318847656250e+01 -3.078373372554779053e-01 6.443508148193359375e+00 2.961312294006347656e+00 2.821446180343627930e+00 -5.168924331665039062e+00
2.710000000000000000e+02 3.639804840087890625e+01 -3.787564113736152649e-02 3.857504367828369141e+00 6.485345959663391113e-01 1.351811647415161133e+00 -2.076958656311035156e+00
2.720000000000000000e+02 3.622795486450195312e+01 1.557565569877624512e+00 3.625715076923370361e-01 5.081346511840820312e+00 1.633175373077392578e+00 3.143578052520751953e+00
2.730000000000000000e+02 3.769921875000000000e+01 -2.559650130569934845e-02 4.438518583774566650e-01 2.932393848896026611e-01 2.211273759603500366e-01 -3.338256850838661194e-02
2.740000000000000000e+02 3.730046463012695312e+01 3.490083515644073486e-01 -7.745596766471862793e-01 9.460850805044174194e-02 -2.039853632450103760e-01 -8.175943791866302490e-02
2.750000000000000000e+02 3.681969833374023438e+01 1.498533964157104492e+00 -7.100449204444885254e-01 1.125902652740478516e+00 1.247573047876358032e-01 2.139123231172561646e-01
2.760000000000000000e+02 3.733629608154296875e+01 -5.109232664108276367e-02 7.924401164054870605e-01 2.923415005207061768e-01 3.254344761371612549e-01 -3.300196230411529541e-01
2.770000000000000000e+02 3.812661743164062500e+01 1.306674815714359283e-02 -1.209920085966587067e-02 2.217541635036468506e-01 6.289649009704589844e-02 2.224031388759613037e-01
2.780000000000000000e+02 3.805143737792968750e+01 4.266653954982757568e-01 -7.482994794845581055e-01 1.365303993225097656e-01 -1.835307329893112183e-01 2.940145134925842285e-01
2.790000000000000000e+02 3.783508682250976562e+01 6.049633622169494629e-01 -1.528391003608703613e+00 -1.507729571312665939e-02 -4.630405008792877197e-01 -9.828469157218933105e-02
2.800000000000000000e+02 3.758891677856445312e+01 7.473828196525573730e-01 -2.171397686004638672e+00 -6.144559755921363831e-02 -6.698529720306396484e-01 -3.126428127288818359e-01
2.810000000000000000e+02 3.739985275268554688e+01 6.922021508216857910e-01 -2.270613908767700195e+00 -2.883955277502536774e-02 -6.898360848426818848e-01 -3.510334193706512451e-01
2.820000000000000000e+02 3.720235061645507812e+01 6.394077539443969727e-01 -2.384975671768188477e+00 -8.904783427715301514e-02 -7.422070503234863281e-01 -3.322944343090057373e-01
2.830000000000000000e+02 3.762274169921875000e+01 -5.140851140022277832e-01 1.439117074012756348e+00 8.064322471618652344e-01 6.736648082733154297e-01 -8.116688132286071777e-01
2.840000000000000000e+02 3.716066741943359375e+01 -3.086470663547515869e-01 2.042354345321655273e+00 7.329726815223693848e-01 8.325981497764587402e-01 -1.086033463478088379e+00
2.850000000000000000e+02 3.722303390502929688e+01 -5.760644674301147461e-01 2.436360836029052734e+00 1.222489237785339355e+00 1.097655057907104492e+00 -1.706469774246215820e+00
2.860000000000000000e+02 3.653148651123046875e+01 -4.374488592147827148e-01 4.382578849792480469e+00 1.841516971588134766e+00 1.867228746414184570e+00 -3.328019142150878906e+00
2.870000000000000000e+02 3.662462234497070312e+01 -6.913157701492309570e-01 4.165549755096435547e+00 2.608727216720581055e+00 2.032283067703247070e+00 -3.680176496505737305e+00
2.880000000000000000e+02 3.636011123657226562e+01 -5.078301429748535156e-01 5.380847454071044922e+00 3.094536781311035156e+00 2.542615175247192383e+00 -4.551189422607421875e+00
2.890000000000000000e+02 3.751308059692382812e+01 9.897714853286743164e-01 -5.022999763488769531e+00 -2.588837444782257080e-01 -1.584565043449401855e+00 -1.297511339187622070e+00
2.900000000000000000e+02 3.714955902099609375e+01 9.286102652549743652e-01 -5.455330371856689453e+00 -3.183566629886627197e-01 -1.732106089591979980e+00 -1.193866610527038574e+00
2.910000000000000000e+02 3.712896728515625000e+01 1.296956896781921387e+00 -2.448202133178710938e+00 3.015023283660411835e-02 -7.254155874252319336e-01 -9.320536851882934570e-01
2.920000000000000000e+02 3.673510742187500000e+01 8.776960968971252441e-01 -5.596709251403808594e+00 -9.350109100341796875e-02 -1.707063078880310059e+00 -1.247419834136962891e+00
2.930000000000000000e+02 3.633528137207031250e+01 7.769764065742492676e-01 -5.444591045379638672e+00 -2.723963186144828796e-02 -1.641549110412597656e+00 -1.110672116279602051e+00
2.940000000000000000e+02 3.776538848876953125e+01 1.698320865631103516e+00 -1.059785604476928711e+00 -1.530160754919052124e-01 -3.638405203819274902e-01 -1.331571936607360840e+00
2.950000000000000000e+02 3.702447509765625000e+01 2.005100488662719727e+00 4.745767414569854736e-01 2.147034406661987305e+00 7.864833474159240723e-01 3.823777437210083008e-01
2.960000000000000000e+02 3.676196670532226562e+01 1.788332104682922363e+00 1.313706487417221069e-01 2.517314672470092773e+00 7.946056127548217773e-01 9.062837958335876465e-01
2.970000000000000000e+02 3.562931823730468750e+01 1.392840027809143066e+00 4.275975525379180908e-01 1.290392112731933594e+01 3.999455690383911133e+00 7.359339714050292969e+00
2.980000000000000000e+02 3.512841796875000000e+01 1.595029592514038086e+00 -3.230550527572631836e+00 2.392506790161132812e+01 6.208354949951171875e+00 5.396180152893066406e+00
2.990000000000000000e+02 3.470148849487304688e+01 1.412734389305114746e+00 -2.671891450881958008e+00 3.060397529602050781e+01 8.379625320434570312e+00 -6.016959547996520996e-01
3.000000000000000000e+02 3.559738540649414062e+01 -9.082904458045959473e-01 3.048661708831787109e+00 1.416714763641357422e+01 5.164742946624755859e+00 -8.432292938232421875e+00
3.010000000000000000e+02 3.742600631713867188e+01 1.223360523581504822e-01 1.435497999191284180e-01 2.152733355760574341e-01 1.076469421386718750e-01 -5.408518016338348389e-02
3.020000000000000000e+02 3.663154983520507812e+01 2.419715821743011475e-01 4.606617391109466553e-01 3.330054506659507751e-02 1.481886804103851318e-01 -4.558757245540618896e-01
3.030000000000000000e+02 3.601560592651367188e+01 1.433431744575500488e+00 7.411090731620788574e-01 6.467032909393310547e+00 2.162442684173583984e+00 4.582376480102539062e+00
3.040000000000000000e+02 3.418206787109375000e+01 9.268480539321899414e-01 4.253180980682373047e+00 2.565674972534179688e+01 8.972979545593261719e+00 -4.356382846832275391e+00
3.050000000000000000e+02 3.392608261108398438e+01 9.042084217071533203e-01 4.252910137176513672e+00 2.080936431884765625e+01 7.518682479858398438e+00 -2.929443359375000000e+00
3.060000000000000000e+02 3.417440032958984375e+01 -3.049412965774536133e-01 8.247974395751953125e+00 2.240845680236816406e+01 9.196928977966308594e+00 5.157899379730224609e+00
3.070000000000000000e+02 3.441820907592773438e+01 -3.996786773204803467e-01 6.076722621917724609e+00 2.755329322814941406e+01 1.008900451660156250e+01 4.755620956420898438e+00
3.080000000000000000e+02 3.521329116821289062e+01 -6.407349109649658203e-01 2.509078741073608398e+00 2.202890586853027344e+01 7.361395359039306641e+00 -7.717617988586425781e+00
3.090000000000000000e+02 3.541038513183593750e+01 -6.104466319084167480e-01 3.946033477783203125e+00 1.766672706604003906e+01 6.483828067779541016e+00 -9.251812934875488281e+00
3.100000000000000000e+02 3.570618820190429688e+01 -6.863780021667480469e-01 4.819024562835693359e+00 1.197310256958007812e+01 5.037638187408447266e+00 -9.028685569763183594e+00
3.110000000000000000e+02 3.592551422119140625e+01 -6.058351397514343262e-01 5.920493602752685547e+00 7.339699268341064453e+00 3.978057861328125000e+00 -7.482665538787841797e+00
3.120000000000000000e+02 3.401797103881835938e+01 1.233487367630004883e+00 3.098954200744628906e+00 2.248298835754394531e+01 7.674582481384277344e+00 -4.301854610443115234e+00
3.130000000000000000e+02 3.437640380859375000e+01 -5.155504941940307617e-01 4.281678676605224609e+00 2.510212707519531250e+01 8.815141677856445312e+00 3.928012371063232422e+00
3.140000000000000000e+02 3.548579025268554688e+01 -7.377390265464782715e-01 3.675260782241821289e+00 1.508889007568359375e+01 5.629245281219482422e+00 -8.798291206359863281e+00
3.150000000000000000e+02 3.790470886230468750e+01 -3.112852573394775391e-04 1.378220319747924805e-01 3.353141844272613525e-01 1.419408619403839111e-01 1.378009319305419922e-01
3.160000000000000000e+02 3.735518646240234375e+01 1.391432285308837891e+00 -2.205106258392333984e+00 -3.701192559674382210e-03 -6.626422405242919922e-01 -1.060205578804016113e+00
3.170000000000000000e+02 3.751671600341796875e+01 -6.363807618618011475e-02 6.394962668418884277e-01 3.835090696811676025e-01 3.069016039371490479e-01 -2.613390982151031494e-01
3.180000000000000000e+02 3.635554504394531250e+01 -2.930761873722076416e-01 4.870225906372070312e+00 2.043621778488159180e+00 2.074154376983642578e+00 -3.442950487136840820e+00
3.190000000000000000e+02 3.658901214599609375e+01 1.446645736694335938e+00 -5.232011675834655762e-01 2.047736167907714844e+00 4.573605358600616455e-01 1.077330470085144043e+00
3.200000000000000000e+02 3.727955627441406250e+01 1.629941344261169434e+00 -9.011527299880981445e-01 3.175807595252990723e-01 -1.750715970993041992e-01 -7.942091822624206543e-01
3.210000000000000000e+02 3.734705734252929688e+01 1.995508074760437012e+00 1.509053260087966919e-01 8.182950019836425781e-01 2.907600998878479004e-01 -4.793861210346221924e-01
3.220000000000000000e+02 3.698445129394531250e+01 1.807705998420715332e+00 -1.829008222557604313e-03 1.565969944000244141e+00 4.692422747611999512e-01 1.958374679088592529e-01
3.230000000000000000e+02 6.848609924316406250e+01 -1.883291244506835938e+01 -7.436882588081061840e-04 1.979248598217964172e-03 3.706681018229573965e-04 3.202861989848315716e-04
3.240000000000000000e+02 7.085308837890625000e+01 -1.833293914794921875e+01 7.436233572661876678e-04 -3.294157213531434536e-04 1.242622820427641273e-04 1.079449662938714027e-03
3.250000000000000000e+02 7.725702667236328125e+01 -2.279501342773437500e+01 -2.574196259956806898e-04 -1.189161790534853935e-03 -4.339744336903095245e-04 1.665906980633735657e-03
3.260000000000000000e+02 7.942874908447265625e+01 -2.411498260498046875e+01 -1.698665204457938671e-03 1.671740319579839706e-03 -8.077473466983065009e-06 6.746154394932091236e-04
3.270000000000000000e+02 7.819239807128906250e+01 -2.540792274475097656e+01 -3.286664141342043877e-03 -4.000003915280103683e-03 -2.186000347137451172e-03 4.218369256705045700e-03
3.280000000000000000e+02 7.954945373535156250e+01 -1.995726585388183594e+01 9.134872234426438808e-04 1.794090843759477139e-03 8.122734143398702145e-04 -4.352951364126056433e-04
3.290000000000000000e+02 7.746303558349609375e+01 -2.015584564208984375e+01 3.210564318578690290e-05 2.649024245329201221e-04 8.910241740522906184e-05 -1.212041941471397877e-03
3.300000000000000000e+02 7.900283050537109375e+01 -1.853019523620605469e+01 1.427933748345822096e-04 1.055358559824526310e-03 3.594455774873495102e-04 -5.361770163290202618e-04
3.310000000000000000e+02 6.972586822509765625e+01 -2.127762603759765625e+01 -4.644903820008039474e-03 -3.696062194649130106e-04 -1.504353014752268791e-03 -7.327863713726401329e-04
3.320000000000000000e+02 6.824600982666015625e+01 -2.190050697326660156e+01 -4.607920534908771515e-03 2.278032014146447182e-03 -6.989666144363582134e-04 4.694944072980433702e-04
3.330000000000000000e+02 7.179161834716796875e+01 -2.651722908020019531e+01 -2.993015572428703308e-02 8.086101152002811432e-03 -6.553216371685266495e-03 1.477795280516147614e-02
3.340000000000000000e+02 7.371855926513671875e+01 -3.190685653686523438e+01 -9.831013157963752747e-03 -1.553991716355085373e-02 -7.611278910189867020e-03 4.586271569132804871e-02
3.350000000000000000e+02 7.570378112792968750e+01 -3.591434478759765625e+01 9.101438336074352264e-03 -5.244511738419532776e-02 -1.300310343503952026e-02 3.976500779390335083e-02
3.360000000000000000e+02 7.912277984619140625e+01 -3.634235382080078125e+01 3.079429967328906059e-03 -8.966922014951705933e-02 -2.597693726420402527e-02 6.910907570272684097e-03
3.370000000000000000e+02 7.929200744628906250e+01 -3.355903625488281250e+01 1.971455931197851896e-04 -6.118115782737731934e-02 -1.829520426690578461e-02 8.323042653501033783e-03
3.380000000000000000e+02 7.934395599365234375e+01 -3.219255065917968750e+01 -1.789341913536190987e-03 -4.573943093419075012e-02 -1.425863243639469147e-02 6.810419727116823196e-03
3.390000000000000000e+02 7.810839080810546875e+01 -2.936312675476074219e+01 -8.671038085594773293e-04 -2.055368945002555847e-02 -6.426237989217042923e-03 1.315370853990316391e-02
3.400000000000000000e+02 7.541123199462890625e+01 -3.275489044189453125e+01 -7.107725832611322403e-03 -3.006753325462341309e-02 -1.115257758647203445e-02 3.696254268288612366e-02
3.410000000000000000e+02 6.910223388671875000e+01 -2.336681556701660156e+01 -1.944815367460250854e-02 1.598228816874325275e-03 -5.354977678507566452e-03 -5.419482477009296417e-03
3.420000000000000000e+02 6.784487915039062500e+01 -2.776161956787109375e+01 -7.964189350605010986e-02 2.558035589754581451e-02 -1.621846109628677368e-02 1.092622615396976471e-02
3.430000000000000000e+02 6.452848815917968750e+01 -3.154083824157714844e+01 -1.310494840145111084e-01 4.072978720068931580e-02 -2.709590829908847809e-02 7.427015155553817749e-02
3.440000000000000000e+02 6.382806777954101562e+01 -3.604051589965820312e+01 6.067112460732460022e-02 4.868607595562934875e-02 3.280716016888618469e-02 9.245192259550094604e-02
3.450000000000000000e+02 6.341539382934570312e+01 -3.863766860961914062e+01 1.592483222484588623e-01 7.641264796257019043e-02 7.069829106330871582e-02 6.685318797826766968e-02
3.460000000000000000e+02 6.282608795166015625e+01 -4.122628402709960938e+01 2.022507935762405396e-01 7.998841255903244019e-02 8.467175811529159546e-02 2.111433260142803192e-02
3.470000000000000000e+02 6.738105773925781250e+01 -4.122292709350585938e+01 1.203437596559524536e-01 -1.062573492527008057e-02 3.291540965437889099e-02 1.839705742895603180e-02
3.480000000000000000e+02 7.055841827392578125e+01 -3.800064086914062500e+01 4.501687735319137573e-02 -2.541072107851505280e-02 5.881846882402896881e-03 5.659713596105575562e-02
3.490000000000000000e+02 6.637796020507812500e+01 -3.364776992797851562e+01 -2.838390134274959564e-02 3.434861078858375549e-02 1.789412111975252628e-03 9.111285209655761719e-02
3.500000000000000000e+02 7.224694824218750000e+01 -2.768414688110351562e+01 -3.217901289463043213e-02 7.369242608547210693e-03 -7.442931644618511200e-03 2.152336202561855316e-02
3.510000000000000000e+02 6.883270263671875000e+01 -2.720509910583496094e+01 -5.771775543689727783e-02 2.012658677995204926e-02 -1.127735059708356857e-02 7.909704931080341339e-03
3.520000000000000000e+02 6.646183776855468750e+01 -2.478321647644042969e+01 -2.529556117951869965e-02 -7.533354684710502625e-03 -9.848674759268760681e-03 -1.108059287071228027e-02
3.530000000000000000e+02 6.547304534912109375e+01 -2.562172889709472656e+01 -3.704174235463142395e-02 -8.615726605057716370e-03 -1.369724143296480179e-02 -2.482879534363746643e-02
3.540000000000000000e+02 6.544944000244140625e+01 -2.776221847534179688e+01 -1.042436808347702026e-01 1.194289978593587875e-02 -2.769023366272449493e-02 -2.104682102799415588e-02
3.550000000000000000e+02 6.101128768920898438e+01 -2.939425468444824219e+01 -3.603296279907226562e-01 -3.001135587692260742e-02 -1.171022951602935791e-01 -8.674904704093933105e-02
3.560000000000000000e+02 5.817317199707031250e+01 -3.007649612426757812e+01 -5.705266594886779785e-01 1.447826623916625977e-02 -1.668145209550857544e-01 -1.271558105945587158e-01
3.570000000000000000e+02 5.695774459838867188e+01 -3.037123870849609375e+01 -6.664891839027404785e-01 -7.921450585126876831e-02 -2.237111032009124756e-01 -7.299453020095825195e-02
3.580000000000000000e+02 5.324451065063476562e+01 -3.483492660522460938e+01 1.224352195858955383e-01 9.211884737014770508e-01 3.130871057510375977e-01 -5.644232034683227539e-01
3.590000000000000000e+02 4.631051635742187500e+01 -2.883033943176269531e+01 7.576285004615783691e-01 5.064459323883056641e+00 1.746626377105712891e+00 -1.452468037605285645e+00
3.600000000000000000e+02 4.940023803710937500e+01 -2.963369750976562500e+01 1.497552514076232910e+00 1.821881890296936035e+00 9.958303570747375488e-01 -1.531708359718322754e+00
3.610000000000000000e+02 4.201449966430664062e+01 -3.102128028869628906e+01 -2.670023739337921143e-01 4.968329906463623047e+00 1.410398244857788086e+00 2.630530856549739838e-02
3.620000000000000000e+02 3.925043487548828125e+01 -3.018067741394042969e+01 -1.168431118130683899e-01 4.531753540039062500e+00 1.324473142623901367e+00 5.452809929847717285e-01
3.630000000000000000e+02 3.635870742797851562e+01 -3.153655815124511719e+01 -2.423167675733566284e-01 3.647675275802612305e+00 1.021607518196105957e+00 8.774816989898681641e-01
3.640000000000000000e+02 3.316103744506835938e+01 -3.086247253417968750e+01 -3.856262937188148499e-02 2.336197853088378906e+00 6.892905831336975098e-01 1.024453639984130859e+00
3.650000000000000000e+02 2.458926582336425781e+01 -2.972473716735839844e+01 -6.762832403182983398e-01 -1.198880374431610107e-03 -2.032446265220642090e-01 3.706865012645721436e-02
3.660000000000000000e+02 2.362523460388183594e+01 -3.023360061645507812e+01 -4.754885435104370117e-01 5.445539206266403198e-02 -1.263099461793899536e-01 -7.021660357713699341e-02
3.670000000000000000e+02 2.260359382629394531e+01 -2.929428100585937500e+01 -3.737558424472808838e-01 7.057931274175643921e-02 -9.095296263694763184e-02 -2.868280746042728424e-02
3.680000000000000000e+02 2.144301605224609375e+01 -2.856028556823730469e+01 -1.048217266798019409e-01 1.792323291301727295e-01 2.232318185269832611e-02 -9.896010905504226685e-02
3.690000000000000000e+02 2.029563522338867188e+01 -2.771368217468261719e+01 6.531785428524017334e-02 3.073295950889587402e-01 1.117942333221435547e-01 -1.961676031351089478e-01
3.700000000000000000e+02 1.714659500122070312e+01 -2.466836929321289062e+01 3.942694962024688721e-01 8.328363895416259766e-01 3.681317567825317383e-01 -5.627623200416564941e-01
3.710000000000000000e+02 1.519002914428710938e+01 -2.261104583740234375e+01 5.680435895919799805e-01 1.746668815612792969e+00 6.944137215614318848e-01 -7.768911719322204590e-01
3.720000000000000000e+02 1.437540149688720703e+01 -2.144369125366210938e+01 5.517210364341735840e-01 2.714723110198974609e+00 9.799332618713378906e-01 -5.919180512428283691e-01
3.730000000000000000e+02 1.416280651092529297e+01 -1.918169593811035156e+01 2.246767431497573853e-01 3.111731052398681641e+00 1.000922322273254395e+00 -1.183912605047225952e-01
3.740000000000000000e+02 1.284836387634277344e+01 -1.643064689636230469e+01 6.517050266265869141e-01 2.107592582702636719e+00 8.277893066406250000e-01 3.777719438076019287e-01
3.750000000000000000e+02 1.049364089965820312e+01 -1.441826915740966797e+01 5.888153910636901855e-01 9.129791259765625000e-01 4.505383670330047607e-01 -7.870265096426010132e-02
3.760000000000000000e+02 4.560572624206542969e+00 -1.213770103454589844e+01 1.238275021314620972e-01 -4.174174964427947998e-01 -8.807699382305145264e-02 -3.330020010471343994e-01
3.770000000000000000e+02 6.326254606246948242e-01 -1.067207145690917969e+01 4.997547250241041183e-03 -1.060942649841308594e+00 -3.167835175991058350e-01 -7.853603363037109375e-02
3.780000000000000000e+02 1.928866863250732422e+00 -1.063982868194580078e+01 1.569575071334838867e-02 -8.086861371994018555e-01 -2.378971278667449951e-01 -2.233619838953018188e-01
3.790000000000000000e+02 6.418777108192443848e-01 -1.207817173004150391e+01 3.605896141380071640e-03 -1.228170156478881836e+00 -3.673692941665649414e-01 -6.936766952276229858e-02
3.800000000000000000e+02 1.941740512847900391e+00 -1.345284748077392578e+01 3.291499242186546326e-02 -1.024958014488220215e+00 -2.976129055023193359e-01 -1.557103693485260010e-01
3.810000000000000000e+02 4.661803245544433594e+00 -1.748396492004394531e+01 1.842017322778701782e-01 -4.741933643817901611e-01 -8.699748665094375610e-02 -1.970529556274414062e-02
3.820000000000000000e+02 1.272006034851074219e+01 -2.373260879516601562e+01 1.019494235515594482e-01 1.464440703392028809e+00 4.699170291423797607e-01 9.269440174102783203e-02
3.830000000000000000e+02 6.351397705078125000e+01 -2.764584350585937500e+01 -1.318523883819580078e-01 -3.102606721222400665e-02 -4.886353760957717896e-02 -6.399676203727722168e-02
3.840000000000000000e+02 4.732265853881835938e+01 -2.777927970886230469e+01 2.300127267837524414e+00 5.107213973999023438e+00 2.222202301025390625e+00 -3.002901077270507812e+00
3.850000000000000000e+02 4.430531692504882812e+01 -2.496297645568847656e+01 1.636042714118957520e+00 7.712519168853759766e+00 2.804568529129028320e+00 -1.227312803268432617e+00
3.860000000000000000e+02 3.963000488281250000e+01 -2.198106956481933594e+01 1.417773246765136719e+00 5.997677803039550781e+00 2.224635362625122070e+00 -2.559323906898498535e-01
3.870000000000000000e+02 3.555963134765625000e+01 -1.917500877380371094e+01 9.480734169483184814e-02 6.650904178619384766e+00 2.023713350296020508e+00 -2.935583889484405518e-01
3.880000000000000000e+02 3.555341720581054688e+01 -2.056412315368652344e+01 3.217073678970336914e-01 6.484035015106201172e+00 2.041722774505615234e+00 2.575618922710418701e-01
3.890000000000000000e+02 3.675535583496093750e+01 -2.181237983703613281e+01 9.724133610725402832e-01 5.802834510803222656e+00 2.032574415206909180e+00 4.452351629734039307e-01
3.900000000000000000e+02 3.953913497924804688e+01 -2.581711006164550781e+01 9.856770634651184082e-01 5.360269546508789062e+00 1.903784036636352539e+00 2.305363118648529053e-01
3.910000000000000000e+02 4.278582000732421875e+01 -2.833214759826660156e+01 5.614935755729675293e-01 5.794308662414550781e+00 1.906740665435791016e+00 -2.279627323150634766e-01
3.920000000000000000e+02 4.448555374145507812e+01 -2.790070343017578125e+01 7.230585813522338867e-01 6.444656372070312500e+00 2.150314569473266602e+00 -9.718716144561767578e-01
3.930000000000000000e+02 4.601185989379882812e+01 -2.612165260314941406e+01 1.763009667396545410e+00 7.887142181396484375e+00 2.895045518875122070e+00 -3.052624225616455078e+00
3.940000000000000000e+02 4.564522933959960938e+01 -2.480290412902832031e+01 1.476389765739440918e+00 1.017260742187500000e+01 3.494699239730834961e+00 -2.614476680755615234e+00
3.950000000000000000e+02 4.404941940307617188e+01 -2.109950637817382812e+01 9.508126378059387207e-01 8.943764686584472656e+00 2.968373060226440430e+00 2.413953691720962524e-01
3.960000000000000000e+02 4.525628662109375000e+01 -1.938531875610351562e+01 1.278356671333312988e+00 1.014079475402832031e+01 3.425745487213134766e+00 1.589288592338562012e+00
3.970000000000000000e+02 4.612378311157226562e+01 -1.731910324096679688e+01 3.658529996871948242e+00 7.344223499298095703e+00 3.300826072692871094e+00 3.658221006393432617e+00
3.980000000000000000e+02 4.611398696899414062e+01 -1.535703754425048828e+01 3.799807548522949219e+00 4.535928726196289062e+00 2.500720739364624023e+00 1.716719388961791992e+00
3.990000000000000000e+02 4.895745468139648438e+01 -1.450821971893310547e+01 5.094929695129394531e+00 1.830369472503662109e+00 2.077589750289916992e+00 2.093579769134521484e+00
4.000000000000000000e+02 5.168386459350585938e+01 -1.345547294616699219e+01 3.133255958557128906e+00 5.570905208587646484e-01 1.107103943824768066e+00 1.852032303810119629e+00
4.010000000000000000e+02 4.974438476562500000e+01 -1.208155918121337891e+01 1.779952645301818848e+00 1.093849778175354004e+00 8.621407151222229004e-01 1.925647258758544922e+00
4.020000000000000000e+02 4.756201171875000000e+01 -6.281116485595703125e+00 -5.128543376922607422e+00 -4.466087520122528076e-01 -1.672545671463012695e+00 9.916269183158874512e-01
4.030000000000000000e+02 4.253798675537109375e+01 -6.035433292388916016e+00 -3.104599714279174805e+00 1.204776883125305176e+00 -5.699468851089477539e-01 -7.187981009483337402e-01
4.040000000000000000e+02 4.254944992065429688e+01 -3.489328861236572266e+00 -4.752266883850097656e+00 -7.502069473266601562e-01 -1.650742173194885254e+00 1.546128273010253906e+00
4.050000000000000000e+02 4.147281646728515625e+01 -3.468937873840332031e+00 -3.320881605148315430e+00 -5.280838347971439362e-03 -9.978487491607666016e-01 5.122035145759582520e-01
4.060000000000000000e+02 4.095306015014648438e+01 -2.183599710464477539e+00 -1.998063564300537109e+00 -8.797593712806701660e-01 -8.633468747138977051e-01 9.813024401664733887e-01
4.070000000000000000e+02 4.032719802856445312e+01 -1.295522689819335938e+00 -6.277203559875488281e-01 -7.259941697120666504e-01 -4.061143398284912109e-01 4.949761629104614258e-01
4.080000000000000000e+02 3.943655395507812500e+01 -6.382014155387878418e-01 -6.909019500017166138e-02 -7.296007871627807617e-02 -4.261508211493492126e-02 3.448614776134490967e-01
4.090000000000000000e+02 3.961824417114257812e+01 -1.432557344436645508e+00 -6.180841922760009766e-01 2.613963186740875244e-01 -1.070063561201095581e-01 2.124196141958236694e-01
4.100000000000000000e+02 3.835666275024414062e+01 -7.751004695892333984e-01 6.918450593948364258e-01 8.598663210868835449e-01 4.655134081840515137e-01 -4.735483825206756592e-01
4.110000000000000000e+02 3.301405334472656250e+01 -1.657886147499084473e+00 1.603563666343688965e+00 1.039013385772705078e+01 3.598109245300292969e+00 3.775357723236083984e+00
4.120000000000000000e+02 3.129552268981933594e+01 -8.667858123779296875e+00 -2.391278505325317383e+00 1.296461343765258789e+00 -3.284451365470886230e-01 -4.285027459263801575e-02
4.130000000000000000e+02 3.352490234375000000e+01 -1.054485893249511719e+01 1.258728981018066406e+00 6.352217197418212891e+00 2.283283948898315430e+00 -2.893551826477050781e+00
4.140000000000000000e+02 3.337804031372070312e+01 -8.548823356628417969e+00 -2.326851606369018555e+00 6.095030307769775391e+00 1.130453586578369141e+00 -1.684452533721923828e+00
4.150000000000000000e+02 3.484758377075195312e+01 -1.116381740570068359e+01 1.078912258148193359e+00 7.483963966369628906e+00 2.568862915039062500e+00 -2.649339199066162109e+00
4.160000000000000000e+02 3.467954254150390625e+01 -1.242930126190185547e+01 1.768050670623779297e+00 8.696287155151367188e+00 3.139301538467407227e+00 -3.361938714981079102e+00
4.170000000000000000e+02 3.526522827148437500e+01 -1.502131175994873047e+01 9.239574670791625977e-01 9.082107543945312500e+00 3.001819610595703125e+00 -2.184423685073852539e+00
4.180000000000000000e+02 3.664039611816406250e+01 -1.640954780578613281e+01 1.120540618896484375e+00 7.149991035461425781e+00 2.481159448623657227e+00 -1.787913560867309570e+00
4.190000000000000000e+02 3.946115875244140625e+01 -1.920120811462402344e+01 1.720396161079406738e+00 6.118614673614501953e+00 2.351703166961669922e+00 -7.754353880882263184e-01
4.200000000000000000e+02 4.432638168334960938e+01 -2.359460449218750000e+01 1.504291892051696777e+00 8.533651351928710938e+00 3.011383056640625000e+00 -1.285225272178649902e+00
4.210000000000000000e+02 4.539654159545898438e+01 -2.203295135498046875e+01 2.373745143413543701e-01 9.767650604248046875e+00 3.001507520675659180e+00 -2.915944457054138184e-01
4.220000000000000000e+02 5.544824981689453125e+01 -1.347776985168457031e+01 1.341766119003295898e+00 3.376950621604919434e-01 5.038383603096008301e-01 1.013775587081909180e+00
4.230000000000000000e+02 5.267088317871093750e+01 -4.783102035522460938e+00 -2.463230848312377930e+00 4.711825549602508545e-01 -5.976145267486572266e-01 4.946227371692657471e-02
4.240000000000000000e+02 5.358459854125976562e+01 -3.807140111923217773e+00 4.518952220678329468e-02 9.868848323822021484e-01 3.096223175525665283e-01 4.626369178295135498e-01
4.250000000000000000e+02 5.201404571533203125e+01 -5.916859626770019531e+00 -3.941475629806518555e+00 2.862177491188049316e-01 -1.096577405929565430e+00 1.009763240814208984e+00
4.260000000000000000e+02 4.916367340087890625e+01 -5.370244503021240234e+00 -7.944086074829101562e+00 -3.846629559993743896e-01 -2.498624563217163086e+00 1.189542293548583984e+00
4.270000000000000000e+02 4.894110488891601562e+01 -6.565327644348144531e+00 -4.588561058044433594e+00 -7.506387829780578613e-01 -1.601760029792785645e+00 1.254812717437744141e+00
4.280000000000000000e+02 4.640819549560546875e+01 -4.732484340667724609e+00 -7.103274822235107422e+00 -4.589476883411407471e-01 -2.268666744232177734e+00 1.935883283615112305e+00
4.290000000000000000e+02 6.211229705810546875e+01 -1.273264217376708984e+01 -8.868242502212524414e-01 9.629020094871520996e-02 -2.371602207422256470e-01 -1.886411458253860474e-01
4.300000000000000000e+02 6.333861160278320312e+01 -1.213982677459716797e+01 -1.937910795211791992e+00 -1.705563515424728394e-01 -6.325401663780212402e-01 -8.584211021661758423e-02
4.310000000000000000e+02 6.641360473632812500e+01 -1.152873325347900391e+01 -1.201683998107910156e+00 7.666851580142974854e-02 -3.375046551227569580e-01 -1.821637898683547974e-01
4.320000000000000000e+02 6.548195648193359375e+01 -1.240552139282226562e+01 -1.858533382415771484e+00 -2.948073446750640869e-01 -6.460022330284118652e-01 4.217365980148315430e-01
4.330000000000000000e+02 6.656247711181640625e+01 -1.318989467620849609e+01 -8.114194869995117188e-01 -1.835955083370208740e-01 -2.985045015811920166e-01 4.367941915988922119e-01
4.340000000000000000e+02 6.753274536132812500e+01 -9.157303810119628906e+00 -7.048154473304748535e-01 2.692891657352447510e-01 -1.306578814983367920e-01 -3.794768154621124268e-01
4.350000000000000000e+02 6.915323638916015625e+01 -6.218177318572998047e+00 -3.991923630237579346e-01 3.840358257293701172e-01 -4.546962678432464600e-03 -5.896122455596923828e-01
4.360000000000000000e+02 6.641731262207031250e+01 -3.579778909683227539e+00 -2.734562456607818604e-01 9.745273590087890625e-01 2.103213220834732056e-01 -3.893185555934906006e-01
4.370000000000000000e+02 6.524881744384765625e+01 1.647541821002960205e-01 1.864474453032016754e-02 1.784332036972045898e+00 5.408930182456970215e-01 -2.043565809726715088e-01
4.380000000000000000e+02 6.682253265380859375e+01 4.753997325897216797e+00 4.291859865188598633e-01 2.068999052047729492e+00 7.494555115699768066e-01 -3.150901198387145996e-01
4.390000000000000000e+02 6.807735443115234375e+01 7.270964145660400391e+00 4.960110187530517578e-01 1.867978692054748535e+00 7.091969251632690430e-01 -3.932208716869354248e-01
4.400000000000000000e+02 6.741099548339843750e+01 8.151417732238769531e+00 5.970882773399353027e-01 2.315537929534912109e+00 8.737878203392028809e-01 -2.907659709453582764e-01
4.410000000000000000e+02 6.943901824951171875e+01 1.375424671173095703e+01 7.178700566291809082e-01 1.455500960350036621e+00 6.520112752914428711e-01 -1.168000325560569763e-01
4.420000000000000000e+02 6.783974456787109375e+01 1.719329452514648438e+01 8.881752490997314453e-01 2.162654399871826172e+00 9.152489304542541504e-01 6.118057668209075928e-02
4.430000000000000000e+02 6.993952178955078125e+01 2.111038017272949219e+01 4.882606565952301025e-01 9.560912251472473145e-01 4.333055615425109863e-01 5.316511392593383789e-01
4.440000000000000000e+02 6.696085357666015625e+01 2.483907508850097656e+01 -4.619193449616432190e-02 1.933903932571411133e+00 5.663136243820190430e-01 3.964961469173431396e-01
4.450000000000000000e+02 6.619524383544921875e+01 3.213551330566406250e+01 -4.338414072990417480e-01 1.270530223846435547e+00 2.510066330432891846e-01 1.834970563650131226e-01
4.460000000000000000e+02 6.651744079589843750e+01 3.511021804809570312e+01 -4.465589225292205811e-01 9.982696771621704102e-01 1.655132323503494263e-01 1.450253278017044067e-01
4.470000000000000000e+02 6.722984313964843750e+01 4.113743209838867188e+01 -3.998543620109558105e-01 7.460660934448242188e-01 1.038635149598121643e-01 2.587469853460788727e-02
4.480000000000000000e+02 7.047001647949218750e+01 3.815233230590820312e+01 -3.152472078800201416e-01 3.007770180702209473e-01 -4.341055173426866531e-03 1.763705760240554810e-01
4.490000000000000000e+02 6.265203094482421875e+01 3.817517852783203125e+01 -4.363701939582824707e-01 1.258514046669006348e+00 2.466431409120559692e-01 -2.909264899790287018e-02
4.500000000000000000e+02 6.274933624267578125e+01 3.491004943847656250e+01 -4.205211997032165527e-01 1.410506963729858398e+00 2.969957292079925537e-01 -1.036233752965927124e-01
4.510000000000000000e+02 6.631327056884765625e+01 2.827134132385253906e+01 -2.949842214584350586e-01 1.630121946334838867e+00 4.005413055419921875e-01 2.507550418376922607e-01
4.520000000000000000e+02 6.456075286865234375e+01 2.442890739440917969e+01 -2.146300673484802246e-02 2.609329223632812500e+00 7.763598561286926270e-01 5.173259600996971130e-02
4.530000000000000000e+02 6.303960037231445312e+01 1.907280349731445312e+01 1.740846276283264160e+00 5.790388107299804688e+00 2.259370326995849609e+00 -1.299961447715759277e+00
4.540000000000000000e+02 6.235671997070312500e+01 1.361027717590332031e+01 8.139114081859588623e-02 7.038810729980468750e+00 2.136060476303100586e+00 1.791399121284484863e-01
4.550000000000000000e+02 6.604298400878906250e+01 1.123191738128662109e+01 6.504785418510437012e-01 3.502596616744995117e+00 1.245922565460205078e+00 -4.506353661417961121e-02
4.560000000000000000e+02 6.464649963378906250e+01 8.100810050964355469e+00 6.462128162384033203e-01 3.818288326263427734e+00 1.339350342750549316e+00 3.102108240127563477e-01
4.570000000000000000e+02 6.343826293945312500e+01 2.265681266784667969e+00 2.786896824836730957e-01 2.693193435668945312e+00 8.915649652481079102e-01 2.466275095939636230e-01
4.580000000000000000e+02 6.446838378906250000e+01 1.223736047744750977e+00 1.992300003767013550e-01 2.132304430007934570e+00 6.994603872299194336e-01 -1.453610137104988098e-02
4.590000000000000000e+02 6.495681762695312500e+01 -3.151877403259277344e+00 -2.638305425643920898e-01 1.282965660095214844e+00 3.057405352592468262e-01 -1.842145919799804688e-01
4.600000000000000000e+02 6.519152832031250000e+01 -7.749980926513671875e+00 -6.166288256645202637e-01 4.124376177787780762e-01 -6.125736609101295471e-02 -1.096475645899772644e-01
4.610000000000000000e+02 6.450630950927734375e+01 -1.143974113464355469e+01 -1.768427371978759766e+00 -3.794578909873962402e-01 -6.443656086921691895e-01 9.036220610141754150e-02
4.620000000000000000e+02 6.724470520019531250e+01 -1.231776618957519531e+01 -1.205758452415466309e+00 1.252015978097915649e-01 -3.241670429706573486e-01 9.843510389328002930e-02
4.630000000000000000e+02 6.832022094726562500e+01 -1.390108680725097656e+01 -4.797803163528442383e-01 7.363934814929962158e-02 -1.218422949314117432e-01 1.315144002437591553e-01
4.640000000000000000e+02 6.902603912353515625e+01 -1.397307109832763672e+01 -4.260783493518829346e-01 4.563234746456146240e-02 -1.141338050365447998e-01 8.594986796379089355e-02
4.650000000000000000e+02 7.044554901123046875e+01 -1.456654167175292969e+01 -3.037112653255462646e-01 5.799493938684463501e-02 -7.371489703655242920e-02 3.720210120081901550e-02
4.660000000000000000e+02 7.200495910644531250e+01 -1.445675563812255859e+01 -2.595012784004211426e-01 3.401659429073333740e-02 -6.764540821313858032e-02 -3.283736482262611389e-02
4.670000000000000000e+02 7.434073638916015625e+01 -1.446597957611083984e+01 -1.570693999528884888e-01 5.605604965239763260e-03 -4.543913900852203369e-02 -8.018104732036590576e-02
4.680000000000000000e+02 7.515931701660156250e+01 -1.043610095977783203e+01 -1.712582558393478394e-01 -9.129539877176284790e-02 -7.876610010862350464e-02 -2.939112186431884766e-01
4.690000000000000000e+02 7.455517578125000000e+01 -5.628668308258056641e+00 -1.443572789430618286e-01 -2.625906467437744141e-01 -1.220843791961669922e-01 -6.052021980285644531e-01
4.700000000000000000e+02 7.594988250732421875e+01 -3.227315902709960938e+00 -4.856903478503227234e-02 -6.463111042976379395e-01 -2.084640413522720337e-01 -5.803034901618957520e-01
4.710000000000000000e+02 7.468770599365234375e+01 -8.666132092475891113e-01 -7.789609022438526154e-03 -5.697309374809265137e-01 -1.732561588287353516e-01 -7.209609746932983398e-01
4.720000000000000000e+02 7.566661834716796875e+01 3.187264680862426758e+00 6.183793023228645325e-02 -1.140436172485351562e+00 -3.235794603824615479e-01 -6.177874803543090820e-01
4.730000000000000000e+02 7.248328399658203125e+01 7.319731712341308594e+00 3.259020149707794189e-01 -5.985745787620544434e-02 7.981336116790771484e-02 -5.844320058822631836e-01
4.740000000000000000e+02 7.528484344482421875e+01 1.012537384033203125e+01 1.729439049959182739e-01 -1.440024018287658691e+00 -3.801240324974060059e-01 -3.226359486579895020e-01
4.750000000000000000e+02 7.357009124755859375e+01 1.350380134582519531e+01 3.421393036842346191e-01 -6.567275524139404297e-01 -9.437647461891174316e-02 -1.240672543644905090e-01
4.760000000000000000e+02 7.358857727050781250e+01 1.598226165771484375e+01 3.560538887977600098e-01 -6.570407152175903320e-01 -9.029605239629745483e-02 1.213343963027000427e-01
4.770000000000000000e+02 7.556253814697265625e+01 2.143325042724609375e+01 8.818720281124114990e-02 -1.467909097671508789e+00 -4.139165878295898438e-01 4.323374927043914795e-01
4.780000000000000000e+02 7.286315155029296875e+01 2.260824966430664062e+01 1.519290804862976074e-01 -2.926952838897705078e-01 -4.222985729575157166e-02 6.282585263252258301e-01
4.790000000000000000e+02 7.604223632812500000e+01 2.742594528198242188e+01 -5.188318714499473572e-02 -1.223148107528686523e+00 -3.825093805789947510e-01 4.639122784137725830e-01
4.800000000000000000e+02 7.388977813720703125e+01 2.862284278869628906e+01 -1.317845135927200317e-01 -4.188204705715179443e-01 -1.651815026998519897e-01 5.644947886466979980e-01
4.810000000000000000e+02 7.295242309570312500e+01 3.405679702758789062e+01 -1.787822544574737549e-01 -1.812889128923416138e-01 -1.080213487148284912e-01 3.461065590381622314e-01
4.820000000000000000e+02 7.329876708984375000e+01 3.773887634277343750e+01 -1.870527118444442749e-01 -1.569793373346328735e-01 -1.032096147537231445e-01 2.076218575239181519e-01
4.830000000000000000e+02 7.170446014404296875e+01 4.102619552612304688e+01 -2.425108402967453003e-01 4.930814728140830994e-02 -5.796080827713012695e-02 5.558836832642555237e-02
4.840000000000000000e+02 6.998426055908203125e+01 3.537109756469726562e+01 -3.275147378444671631e-01 4.744277596473693848e-01 4.407390579581260681e-02 2.832002043724060059e-01
4.850000000000000000e+02 7.241701507568359375e+01 3.128611564636230469e+01 -2.077515572309494019e-01 -2.031089551746845245e-02 -6.841873377561569214e-02 5.032745599746704102e-01
4.860000000000000000e+02 6.947391510009765625e+01 2.670683860778808594e+01 -1.773414015769958496e-01 9.204480648040771484e-01 2.229319959878921509e-01 5.840261578559875488e-01
4.870000000000000000e+02 7.074510192871093750e+01 2.241556358337402344e+01 2.156866490840911865e-01 6.443496346473693848e-01 2.580108940601348877e-01 5.935186147689819336e-01
4.880000000000000000e+02 7.205985260009765625e+01 1.950501823425292969e+01 4.403444230556488037e-01 3.847182914614677429e-02 1.436448693275451660e-01 4.363954961299896240e-01
4.890000000000000000e+02 7.071727752685546875e+01 1.624317932128906250e+01 6.246645450592041016e-01 7.663972973823547363e-01 4.173185527324676514e-01 1.221291199326515198e-01
4.900000000000000000e+02 7.079228973388671875e+01 9.871054649353027344e+00 4.784540534019470215e-01 7.178053259849548340e-01 3.588778078556060791e-01 -4.038844704627990723e-01
4.910000000000000000e+02 7.142521667480468750e+01 6.980669498443603516e+00 3.285707533359527588e-01 3.931599855422973633e-01 2.165192216634750366e-01 -5.801872611045837402e-01
4.920000000000000000e+02 7.207108306884765625e+01 3.509287834167480469e+00 1.633926331996917725e-01 9.305303543806076050e-02 7.693369686603546143e-02 -7.453897595405578613e-01
4.930000000000000000e+02 7.178153991699218750e+01 -5.594725906848907471e-02 4.569894634187221527e-03 1.326513886451721191e-01 4.116638377308845520e-02 -7.901086807250976562e-01
4.940000000000000000e+02 7.266896057128906250e+01 -4.521446704864501953e+00 -1.798173636198043823e-01 -3.834374481812119484e-03 -5.509551987051963806e-02 -7.371400594711303711e-01
4.950000000000000000e+02 7.108484649658203125e+01 -8.212087631225585938e+00 -4.181629121303558350e-01 1.791697740554809570e-01 -7.169793546199798584e-02 -5.385339856147766113e-01
4.960000000000000000e+02 7.016993713378906250e+01 -1.135502815246582031e+01 -5.875958800315856934e-01 1.992899775505065918e-01 -1.164917796850204468e-01 -2.362920641899108887e-01
4.970000000000000000e+02 7.447762298583984375e+01 -1.108568572998046875e+01 -2.447916716337203979e-01 -2.568350173532962799e-02 -8.114255219697952271e-02 -2.728533446788787842e-01
4.980000000000000000e+02 7.509783935546875000e+01 -1.449795436859130859e+01 -1.262480914592742920e-01 -1.354025211185216904e-02 -4.193650186061859131e-02 -7.793260365724563599e-02
4.990000000000000000e+02 7.874594879150390625e+01 -1.325472640991210938e+01 -1.417206134647130966e-02 -4.654638841748237610e-02 -1.821553520858287811e-02 -3.452321514487266541e-02
5.000000000000000000e+02 7.941820526123046875e+01 -8.653821945190429688e+00 1.151025062426924706e-03 -3.538691401481628418e-01 -1.058154329657554626e-01 -6.495724618434906006e-02
5.010000000000000000e+02 7.942424011230468750e+01 -1.004606533050537109e+01 -1.051684748381376266e-02 -2.101425677537918091e-01 -6.619782745838165283e-02 -5.173521116375923157e-02
5.020000000000000000e+02 7.941325378417968750e+01 -5.883632659912109375e+00 3.437917213886976242e-03 -7.402385473251342773e-01 -2.210402041673660278e-01 -9.031692147254943848e-02
5.030000000000000000e+02 7.702295684814453125e+01 -5.868829250335693359e+00 -4.965542629361152649e-02 -5.466874241828918457e-01 -1.789028644561767578e-01 -4.037578105926513672e-01
5.040000000000000000e+02 7.940529632568359375e+01 -1.720648646354675293e+00 -3.710588440299034119e-03 -1.499819517135620117e+00 -4.510590434074401855e-01 -1.080518364906311035e-01
5.050000000000000000e+02 7.821054077148437500e+01 -4.571894705295562744e-01 -2.466838806867599487e-03 -1.462842702865600586e+00 -4.395928382873535156e-01 -3.250425755977630615e-01
5.060000000000000000e+02 7.683417510986328125e+01 4.788066864013671875e+00 5.169316753745079041e-02 -1.732995867729187012e+00 -5.043907761573791504e-01 -4.621584415435791016e-01
5.070000000000000000e+02 7.808567810058593750e+01 5.033844470977783203e+00 2.555911429226398468e-02 -2.262472152709960938e+00 -6.710738539695739746e-01 -2.941681444644927979e-01
5.080000000000000000e+02 7.762089538574218750e+01 1.103318691253662109e+01 5.894920974969863892e-02 -2.605861425399780273e+00 -7.640736699104309082e-01 -1.663594543933868408e-01
5.090000000000000000e+02 7.934542846679687500e+01 1.525613403320312500e+01 1.538458187133073807e-02 -3.721963882446289062e+00 -1.111973762512207031e+00 1.351233106106519699e-02
5.100000000000000000e+02 7.808582305908203125e+01 1.824710273742675781e+01 4.514731466770172119e-02 -2.876929044723510742e+00 -8.495345115661621094e-01 1.548257172107696533e-01
5.110000000000000000e+02 7.814495849609375000e+01 2.230838775634765625e+01 2.190261520445346832e-02 -2.516348361968994141e+00 -7.483336925506591797e-01 2.707561254501342773e-01
5.120000000000000000e+02 7.800999450683593750e+01 2.498839569091796875e+01 1.824383996427059174e-02 -2.125857830047607422e+00 -6.322842240333557129e-01 3.133498132228851318e-01
5.130000000000000000e+02 7.752278137207031250e+01 2.902802658081054688e+01 -4.223182052373886108e-02 -1.528634548187255859e+00 -4.712599217891693115e-01 3.189819753170013428e-01
5.140000000000000000e+02 7.714636230468750000e+01 3.190307044982910156e+01 -4.646496847271919250e-02 -1.159724235534667969e+00 -3.618567585945129395e-01 2.974264025688171387e-01
5.150000000000000000e+02 7.912228393554687500e+01 3.619813919067382812e+01 -2.660057879984378815e-02 -1.182113170623779297e+00 -3.626141250133514404e-01 5.593748390674591064e-02
5.160000000000000000e+02 7.793122100830078125e+01 3.783724594116210938e+01 -1.036251336336135864e-02 -9.224981665611267090e-01 -2.798582017421722412e-01 1.261795312166213989e-01
5.170000000000000000e+02 7.796646881103515625e+01 4.160564804077148438e+01 -7.774432748556137085e-02 -8.657811284065246582e-01 -2.830576300621032715e-01 2.182218059897422791e-02
5.180000000000000000e+02 6.254473495483398438e+01 4.112821197509765625e+01 -4.298920035362243652e-01 1.217740654945373535e+00 2.363545894622802734e-01 -1.117386575788259506e-02
5.190000000000000000e+02 5.865958023071289062e+01 3.798546600341796875e+01 -3.437480628490447998e-01 1.454210400581359863e+00 3.331387042999267578e-01 -1.298937052488327026e-01
5.200000000000000000e+02 5.914707565307617188e+01 3.474423599243164062e+01 -2.944746017456054688e-01 1.477037549018859863e+00 3.547689020633697510e-01 -2.365875095129013062e-01
5.210000000000000000e+02 6.073933792114257812e+01 3.062477684020996094e+01 -2.688480615615844727e-01 1.728308916091918945e+00 4.378382563591003418e-01 -3.884097039699554443e-01
5.220000000000000000e+02 6.150966262817382812e+01 2.815331840515136719e+01 -3.162797689437866211e-01 2.019806623458862305e+00 5.110580325126647949e-01 -5.010327100753784180e-01
5.230000000000000000e+02 5.996001434326171875e+01 2.513317298889160156e+01 6.200634315609931946e-02 2.045858860015869141e+00 6.323595643043518066e-01 -9.926742911338806152e-01
5.240000000000000000e+02 5.876775741577148438e+01 2.220773696899414062e+01 1.862072944641113281e+00 1.477030396461486816e+00 1.001731038093566895e+00 -1.423759579658508301e+00
5.250000000000000000e+02 6.163324737548828125e+01 1.983385848999023438e+01 2.031190156936645508e+00 5.865520954132080078e+00 2.369013309478759766e+00 -2.634562492370605469e+00
5.260000000000000000e+02 6.094037628173828125e+01 2.091933059692382812e+01 2.005289316177368164e+00 3.664415359497070312e+00 1.700911402702331543e+00 -2.485883474349975586e+00
5.270000000000000000e+02 6.255044174194335938e+01 1.771474075317382812e+01 1.117208838462829590e+00 7.480226516723632812e+00 2.579230546951293945e+00 -1.498509526252746582e+00
5.280000000000000000e+02 6.252967071533203125e+01 1.637753868103027344e+01 1.921424865722656250e-01 7.404913902282714844e+00 2.279116868972778320e+00 -5.457885265350341797e-01
5.290000000000000000e+02 6.405233001708984375e+01 1.594379615783691406e+01 8.125327825546264648e-01 5.557416915893554688e+00 1.910984873771667480e+00 -7.641128897666931152e-01
5.300000000000000000e+02 6.205774307250976562e+01 1.082841014862060547e+01 1.469411700963973999e-01 6.730242252349853516e+00 2.063155174255371094e+00 8.377674818038940430e-01
5.310000000000000000e+02 6.300589752197265625e+01 9.295097351074218750e+00 5.588797926902770996e-01 5.227220535278320312e+00 1.735830068588256836e+00 7.468741536140441895e-01
5.320000000000000000e+02 6.154584503173828125e+01 8.112911224365234375e+00 3.689136505126953125e-01 5.820409774780273438e+00 1.856796979904174805e+00 1.506659150123596191e+00
5.330000000000000000e+02 6.127191925048828125e+01 6.840933799743652344e+00 8.404955267906188965e-01 5.355365276336669922e+00 1.858758330345153809e+00 1.686152696609497070e+00
5.340000000000000000e+02 6.041646194458007812e+01 4.880398273468017578e+00 1.287327527999877930e+00 4.278208732604980469e+00 1.669660925865173340e+00 2.002148866653442383e+00
5.350000000000000000e+02 6.056315231323242188e+01 2.855681657791137695e+00 6.588032841682434082e-01 3.365598917007446289e+00 1.207320570945739746e+00 1.310908675193786621e+00
5.360000000000000000e+02 6.199021911621093750e+01 1.480244398117065430e-01 1.696965396404266357e-01 2.276902437210083008e+00 7.339797019958496094e-01 4.754123389720916748e-01
5.370000000000000000e+02 6.085685348510742188e+01 -2.161953449249267578e+00 -1.090865284204483032e-01 1.951916098594665527e+00 5.528488755226135254e-01 5.434058904647827148e-01
5.380000000000000000e+02 5.841369247436523438e+01 -5.336477756500244141e+00 -8.124829530715942383e-01 1.773713350296020508e+00 2.883691191673278809e-01 8.688784241676330566e-01
5.390000000000000000e+02 6.260353851318359375e+01 -1.094204425811767578e+01 -1.051158905029296875e+00 2.428985983133316040e-01 -2.424780875444412231e-01 5.048856139183044434e-01
5.400000000000000000e+02 5.831398010253906250e+01 -1.420133590698242188e+01 3.722043931484222412e-01 1.726323552429676056e-02 1.168402880430221558e-01 3.001849651336669922e-01
5.410000000000000000e+02 6.088883590698242188e+01 -1.335742664337158203e+01 -4.057594835758209229e-01 6.145024672150611877e-02 -1.032927706837654114e-01 6.844165921211242676e-02
5.420000000000000000e+02 5.790662765502929688e+01 4.104309082031250000e+01 -3.478142023086547852e-01 1.451122164726257324e+00 3.309923708438873291e-01 -3.288798779249191284e-02
5.430000000000000000e+02 5.517262649536132812e+01 3.761079788208007812e+01 -2.139957994222640991e-01 1.492788434028625488e+00 3.836377859115600586e-01 -1.216707527637481689e-01
5.440000000000000000e+02 5.596460342407226562e+01 3.461387634277343750e+01 -1.638261824846267700e-01 1.439722418785095215e+00 3.827688694000244141e-01 -2.538216114044189453e-01
5.450000000000000000e+02 5.363159942626953125e+01 3.165044403076171875e+01 5.234761163592338562e-02 1.273450374603271484e+00 3.977394104003906250e-01 -2.677437961101531982e-01
5.460000000000000000e+02 5.510654449462890625e+01 2.802596855163574219e+01 3.409295380115509033e-01 9.710478186607360840e-01 3.935931921005249023e-01 -5.027553439140319824e-01
5.470000000000000000e+02 5.837091827392578125e+01 2.455404472351074219e+01 3.444832861423492432e-01 1.633169174194335938e+00 5.932956933975219727e-01 -1.330803155899047852e+00
5.480000000000000000e+02 5.462268066406250000e+01 2.152985000610351562e+01 -1.809015423059463501e-01 -1.042108312249183655e-01 -8.553371578454971313e-02 -1.144070029258728027e-01
5.490000000000000000e+02 5.355731201171875000e+01 4.083124542236328125e+01 -2.485709488391876221e-01 1.602797508239746094e+00 4.062679409980773926e-01 -2.869162708520889282e-02
5.500000000000000000e+02 5.248503112792968750e+01 3.697265243530273438e+01 -1.356661617755889893e-01 1.511744141578674316e+00 4.128234088420867920e-01 -6.672359257936477661e-02
5.510000000000000000e+02 5.312675094604492188e+01 3.429500579833984375e+01 -1.353004481643438339e-02 1.394304990768432617e+00 4.142324626445770264e-01 -1.770047545433044434e-01
5.520000000000000000e+02 5.279015350341796875e+01 2.325719451904296875e+01 2.624025046825408936e-01 4.908454418182373047e-02 9.344611316919326782e-02 -6.783547997474670410e-02
5.530000000000000000e+02 5.193182373046875000e+01 2.105241012573242188e+01 -3.077745139598846436e-01 -7.001477479934692383e-02 -1.133367866277694702e-01 -6.152621284127235413e-02
5.540000000000000000e+02 5.074043655395507812e+01 3.949030685424804688e+01 -2.132089734077453613e-01 1.658653616905212402e+00 4.336333870887756348e-01 5.181576590985059738e-03
5.550000000000000000e+02 5.001712417602539062e+01 3.690951538085937500e+01 -1.113073304295539856e-01 1.636696457862854004e+00 4.576167464256286621e-01 1.477210130542516708e-02
5.560000000000000000e+02 5.019780349731445312e+01 3.398941421508789062e+01 8.067113347351551056e-03 1.447468876838684082e+00 4.366607964038848877e-01 4.523411765694618225e-02
5.570000000000000000e+02 4.915519714355468750e+01 2.962379074096679688e+01 2.414392232894897461e-01 1.155222892761230469e+00 4.189986288547515869e-01 1.603023707866668701e-01
5.580000000000000000e+02 4.993597412109375000e+01 2.324874496459960938e+01 2.722414433956146240e-01 2.905866205692291260e-01 1.688484251499176025e-01 2.245427668094635010e-01
5.590000000000000000e+02 4.909124755859375000e+01 1.927488327026367188e+01 -2.156535536050796509e-01 -5.348334088921546936e-02 -8.074106276035308838e-02 -9.582278877496719360e-02
5.600000000000000000e+02 4.803726196289062500e+01 1.848932266235351562e+01 -1.525814086198806763e-01 -4.258857294917106628e-02 -5.855099484324455261e-02 -8.179552853107452393e-02
5.610000000000000000e+02 4.408825302124023438e+01 1.671805953979492188e+01 2.773024737834930420e-01 2.505526244640350342e-01 1.583565175533294678e-01 2.930419445037841797e-01
5.620000000000000000e+02 4.233263397216796875e+01 1.673201560974121094e+01 5.927764773368835449e-01 8.766669631004333496e-01 4.408330321311950684e-01 7.418023347854614258e-01
5.630000000000000000e+02 3.618244934082031250e+01 1.813092803955078125e+01 5.945458412170410156e-01 5.560887813568115234e+00 1.846630096435546875e+00 8.290833830833435059e-01
5.640000000000000000e+02 3.175933074951171875e+01 1.597134208679199219e+01 1.034680843353271484e+00 9.962138175964355469e+00 3.299045562744140625e+00 -2.995328426361083984e+00
5.650000000000000000e+02 3.224531936645507812e+01 1.461490440368652344e+01 1.005998969078063965e+00 1.130906867980957031e+01 3.694520235061645508e+00 -2.955634832382202148e+00
5.660000000000000000e+02 3.277357482910156250e+01 1.321886825561523438e+01 1.010220527648925781e+00 1.348539066314697266e+01 4.348683357238769531e+00 -2.641579627990722656e+00
5.670000000000000000e+02 3.309245681762695312e+01 1.172972679138183594e+01 6.979379653930664062e-01 1.527290821075439453e+01 4.791253566741943359e+00 -2.339059352874755859e+00
5.680000000000000000e+02 3.322947311401367188e+01 1.024906349182128906e+01 2.610664367675781250e-01 1.755417823791503906e+01 5.344573497772216797e+00 -2.462773561477661133e+00
5.690000000000000000e+02 3.360368347167968750e+01 7.505137443542480469e+00 3.519334197044372559e-01 2.286294746398925781e+01 6.964464187622070312e+00 -1.890518903732299805e+00
5.700000000000000000e+02 3.651114654541015625e+01 2.652154207229614258e+00 6.167365908622741699e-01 6.985811233520507812e+00 2.280764341354370117e+00 1.741139769554138184e+00
5.710000000000000000e+02 3.916796875000000000e+01 4.189770698547363281e+00 -2.626886665821075439e-01 -3.438833236694335938e+00 -1.110456585884094238e+00 -2.903571724891662598e-01
5.720000000000000000e+02 3.961363220214843750e+01 3.453211545944213867e+00 1.225748136639595032e-01 -4.449034214019775391e+00 -1.297937750816345215e+00 1.215095221996307373e-01
5.730000000000000000e+02 3.895280838012695312e+01 3.012392282485961914e+00 3.920321464538574219e-01 -1.664289474487304688e+00 -3.816771805286407471e-01 -9.697989225387573242e-01
5.740000000000000000e+02 3.929314041137695312e+01 8.065812110900878906e+00 -2.183503657579421997e-01 -2.551657915115356445e+00 -8.310024738311767578e-01 -6.060779467225074768e-02
5.750000000000000000e+02 3.971343231201171875e+01 9.311898231506347656e+00 -2.247557044029235840e-02 -1.586922645568847656e+00 -4.828194379806518555e-01 -3.032766580581665039e-01
5.760000000000000000e+02 4.107338333129882812e+01 1.188460350036621094e+01 -1.358443349599838257e-01 -4.345833659172058105e-01 -1.711283177137374878e-01 -1.913234591484069824e-01
5.770000000000000000e+02 4.028632354736328125e+01 1.063656139373779297e+01 -1.262045204639434814e-01 -8.777608871459960938e-01 -3.011896312236785889e-01 -1.630565673112869263e-01
5.780000000000000000e+02 4.119216918945312500e+01 1.396553802490234375e+01 5.049939751625061035e-01 5.441999435424804688e-01 3.147581815719604492e-01 5.236502289772033691e-01
5.790000000000000000e+02 4.040902709960937500e+01 1.510746097564697266e+01 8.046879172325134277e-01 1.616506576538085938e+00 7.263583540916442871e-01 1.126468181610107422e+00
5.800000000000000000e+02 4.019322204589843750e+01 1.301013183593750000e+01 6.206010580062866211e-01 9.378013014793395996e-01 4.675206840038299561e-01 8.213836550712585449e-01
5.810000000000000000e+02 3.602096557617187500e+01 1.412945747375488281e+01 6.472448110580444336e-01 7.693730831146240234e+00 2.502292633056640625e+00 9.001803994178771973e-01
5.820000000000000000e+02 3.878874969482421875e+01 1.756274032592773438e+01 7.272588610649108887e-01 3.391686439514160156e+00 1.235683560371398926e+00 1.270589232444763184e+00
5.830000000000000000e+02 4.729136276245117188e+01 4.083638381958007812e+01 -2.575157582759857178e-01 1.843915700912475586e+00 4.759199917316436768e-01 1.861072331666946411e-02
5.840000000000000000e+02 4.701747894287109375e+01 3.756191635131835938e+01 -2.030642032623291016e-01 1.803773045539855957e+00 4.802126586437225342e-01 1.146116852760314941e-01
5.850000000000000000e+02 4.688806152343750000e+01 3.434706497192382812e+01 -4.692100733518600464e-02 1.685929656028747559e+00 4.917026162147521973e-01 1.981353014707565308e-01
5.860000000000000000e+02 4.621666717529296875e+01 3.134643363952636719e+01 8.816538006067276001e-02 1.556572437286376953e+00 4.934213757514953613e-01 3.672448694705963135e-01
5.870000000000000000e+02 4.668866729736328125e+01 2.704280471801757812e+01 3.373053669929504395e-01 1.128150343894958496e+00 4.396367073059082031e-01 4.962438344955444336e-01
5.880000000000000000e+02 4.777070999145507812e+01 2.165880012512207031e+01 2.202007621526718140e-01 3.951801657676696777e-01 1.846142858266830444e-01 3.432626724243164062e-01
5.890000000000000000e+02 4.793101882934570312e+01 2.013583374023437500e+01 1.620646007359027863e-02 1.986611634492874146e-01 6.446028500795364380e-02 1.646541953086853027e-01
5.900000000000000000e+02 4.324411773681640625e+01 4.101528167724609375e+01 -3.797021508216857910e-01 2.109123468399047852e+00 5.188264250755310059e-01 5.223870277404785156e-02
5.910000000000000000e+02 4.343220138549804688e+01 3.539993667602539062e+01 -2.377749979496002197e-01 2.017362117767333984e+00 5.338761806488037109e-01 2.823942899703979492e-01
5.920000000000000000e+02 4.211419677734375000e+01 3.017303085327148438e+01 -1.046014279127120972e-01 2.133926153182983398e+00 6.087973713874816895e-01 5.980513691902160645e-01
5.930000000000000000e+02 4.146573638916015625e+01 2.785254287719726562e+01 -2.756149321794509888e-02 2.205572605133056641e+00 6.534032821655273438e-01 7.508844733238220215e-01
5.940000000000000000e+02 4.322422790527343750e+01 2.542044067382812500e+01 2.401198595762252808e-01 1.741627573966979980e+00 5.945242047309875488e-01 8.817042708396911621e-01
5.950000000000000000e+02 4.239127349853515625e+01 1.839534950256347656e+01 5.835113525390625000e-01 1.180321335792541504e+00 5.291497707366943359e-01 9.200932383537292480e-01
5.960000000000000000e+02 4.123507690429687500e+01 2.132222175598144531e+01 4.637460410594940186e-01 2.108451604843139648e+00 7.716593146324157715e-01 1.170390129089355469e+00
5.970000000000000000e+02 4.084965515136718750e+01 3.952001571655273438e+01 -4.301183223724365234e-01 2.240960359573364258e+00 5.432525873184204102e-01 1.018086224794387817e-01
5.980000000000000000e+02 4.018874740600585938e+01 3.652441024780273438e+01 -4.412079155445098877e-01 2.347113132476806641e+00 5.717715620994567871e-01 2.107578516006469727e-01
5.990000000000000000e+02 3.970855331420898438e+01 3.367253875732421875e+01 -3.881577849388122559e-01 2.401657581329345703e+00 6.040499806404113770e-01 3.394352197647094727e-01
6.000000000000000000e+02 3.914121627807617188e+01 3.092370033264160156e+01 -3.580866456031799316e-01 2.601706743240356445e+00 6.730859875679016113e-01 4.719768166542053223e-01
6.010000000000000000e+02 4.112773132324218750e+01 2.338489723205566406e+01 2.762775123119354248e-01 2.303114414215087891e+00 7.738175392150878906e-01 1.077797532081604004e+00
6.020000000000000000e+02 4.309696960449218750e+01 1.932807922363281250e+01 5.269086956977844238e-01 1.105815410614013672e+00 4.898172318935394287e-01 8.334311246871948242e-01
6.030000000000000000e+02 4.195503616333007812e+01 2.006954193115234375e+01 6.065784692764282227e-01 1.723879814147949219e+00 6.991374492645263672e-01 1.120301008224487305e+00
6.040000000000000000e+02 3.730983352661132812e+01 4.076764297485351562e+01 -5.491909980773925781e-01 2.381887197494506836e+00 5.498088598251342773e-01 2.602120861411094666e-02
6.050000000000000000e+02 3.694859313964843750e+01 3.747499084472656250e+01 -5.422804951667785645e-01 2.456337213516235352e+00 5.742170214653015137e-01 1.151880696415901184e-01
6.060000000000000000e+02 3.662338256835937500e+01 3.451036071777343750e+01 -5.448732972145080566e-01 2.635609626770019531e+00 6.272209286689758301e-01 1.753934621810913086e-01
6.070000000000000000e+02 3.361051177978515625e+01 3.221217346191406250e+01 -5.798465013504028320e-01 2.818133354187011719e+00 6.714860200881958008e-01 -7.856105268001556396e-02
6.080000000000000000e+02 3.638277816772460938e+01 2.786355590820312500e+01 -4.124460220336914062e-01 3.258095741271972656e+00 8.536949157714843750e-01 4.430003464221954346e-01
6.090000000000000000e+02 3.586877822875976562e+01 2.176146697998046875e+01 1.462199091911315918e-01 4.638077735900878906e+00 1.435289382934570312e+00 6.806150078773498535e-01
6.100000000000000000e+02 3.662597656250000000e+01 2.062729454040527344e+01 3.662864565849304199e-01 4.514218807220458984e+00 1.464151620864868164e+00 9.511426687240600586e-01
6.110000000000000000e+02 3.319419479370117188e+01 4.096687316894531250e+01 -5.742989182472229004e-01 2.336026430130004883e+00 5.285182595252990723e-01 -8.013149723410606384e-03
6.120000000000000000e+02 3.366979217529296875e+01 3.803250885009765625e+01 -5.832448005676269531e-01 2.444501876831054688e+00 5.583771467208862305e-01 -5.230315402150154114e-02
6.130000000000000000e+02 3.330116271972656250e+01 3.508068466186523438e+01 -5.883179903030395508e-01 2.602301836013793945e+00 6.041951179504394531e-01 -5.774105712771415710e-02
6.140000000000000000e+02 3.126914215087890625e+01 3.105009841918945312e+01 -5.438792109489440918e-01 2.804551124572753906e+00 6.782016158103942871e-01 -2.999571561813354492e-01
6.150000000000000000e+02 3.268372726440429688e+01 2.602923583984375000e+01 -4.191302359104156494e-01 3.825625658035278320e+00 1.021948575973510742e+00 -2.277008742094039917e-01
6.160000000000000000e+02 3.076410675048828125e+01 2.329649734497070312e+01 1.478843688964843750e-01 4.352897167205810547e+00 1.350234389305114746e+00 -1.009210467338562012e+00
6.170000000000000000e+02 3.308081436157226562e+01 2.025310325622558594e+01 7.070742249488830566e-01 5.929273605346679688e+00 1.990904331207275391e+00 -4.960051178932189941e-01
6.180000000000000000e+02 3.371871948242187500e+01 2.274682235717773438e+01 2.504917792975902557e-02 4.829919338226318359e+00 1.456490516662597656e+00 -2.032811753451824188e-02
6.190000000000000000e+02 3.066945648193359375e+01 3.934879684448242188e+01 -5.297023057937622070e-01 2.247218608856201172e+00 5.152549147605895996e-01 -7.065615057945251465e-02
6.200000000000000000e+02 2.983714294433593750e+01 3.604640579223632812e+01 -5.032197833061218262e-01 2.274763822555541992e+00 5.314632058143615723e-01 -2.352368682622909546e-01
6.210000000000000000e+02 2.880692291259765625e+01 3.310273742675781250e+01 -4.210329055786132812e-01 2.293757200241088867e+00 5.618172883987426758e-01 -4.401143193244934082e-01
6.220000000000000000e+02 2.570478630065917969e+01 2.938353347778320312e+01 -2.110596746206283569e-02 1.684739708900451660e+00 4.990901052951812744e-01 -8.185820579528808594e-01
6.230000000000000000e+02 2.952256011962890625e+01 2.911500549316406250e+01 -3.751563131809234619e-01 2.714981555938720703e+00 7.019476294517517090e-01 -6.856691837310791016e-01
6.240000000000000000e+02 2.917778205871582031e+01 2.438936996459960938e+01 9.590847045183181763e-02 3.274679660797119141e+00 1.011176466941833496e+00 -1.273088216781616211e+00
6.250000000000000000e+02 2.869064140319824219e+01 2.088958740234375000e+01 2.907483577728271484e+00 3.062370061874389648e+00 1.790956139564514160e+00 -2.511042594909667969e+00
6.260000000000000000e+02 2.979211807250976562e+01 1.988194465637207031e+01 2.826221942901611328e+00 5.752836227416992188e+00 2.573717594146728516e+00 -3.329822540283203125e+00
6.270000000000000000e+02 3.084748077392578125e+01 2.080569839477539062e+01 1.301288843154907227e+00 5.477968692779541016e+00 2.033777236938476562e+00 -1.615933060646057129e+00
6.280000000000000000e+02 3.062349128723144531e+01 1.863614273071289062e+01 1.985864639282226562e+00 7.558675765991210938e+00 2.863362073898315430e+00 -3.417454242706298828e+00
6.290000000000000000e+02 2.707671356201171875e+01 4.069742584228515625e+01 -4.116129279136657715e-01 1.898342847824096680e+00 4.460189640522003174e-01 -9.035441279411315918e-02
6.300000000000000000e+02 2.635775184631347656e+01 3.730796813964843750e+01 -3.310564458370208740e-01 1.801547408103942871e+00 4.411472976207733154e-01 -2.706054747104644775e-01
6.310000000000000000e+02 2.571665573120117188e+01 3.434460067749023438e+01 -2.380923479795455933e-01 1.685831785202026367e+00 4.343218207359313965e-01 -4.353335499763488770e-01
6.320000000000000000e+02 2.514809989929199219e+01 3.166910171508789062e+01 -1.010204032063484192e-01 1.556652069091796875e+00 4.366895258426666260e-01 -6.054379940032958984e-01
6.330000000000000000e+02 2.328503608703613281e+01 2.299805450439453125e+01 4.310594499111175537e-02 1.181662976741790771e-01 4.838167130947113037e-02 -2.883586585521697998e-01
6.340000000000000000e+02 2.544831848144531250e+01 2.427405929565429688e+01 4.568339288234710693e-01 1.016396999359130859e+00 4.419692754745483398e-01 -1.016413569450378418e+00
6.350000000000000000e+02 2.736843872070312500e+01 2.156911468505859375e+01 1.796129703521728516e+00 1.039659619331359863e+00 8.507367968559265137e-01 -1.332072734832763672e+00
6.360000000000000000e+02 2.263864517211914062e+01 4.101824951171875000e+01 -1.847798824310302734e-01 1.317245125770568848e+00 3.397395610809326172e-01 -5.111363157629966736e-02
6.370000000000000000e+02 2.268749046325683594e+01 3.801873779296875000e+01 -1.613503992557525635e-01 1.295939207077026367e+00 3.403766155242919922e-01 -2.047332674264907837e-01
6.380000000000000000e+02 2.247284317016601562e+01 3.505062866210937500e+01 -8.248490095138549805e-02 1.225997567176818848e+00 3.430538177490234375e-01 -3.435042500495910645e-01
6.390000000000000000e+02 2.199947357177734375e+01 2.418659782409667969e+01 1.521984301507472992e-02 1.485390514135360718e-01 4.912767186760902405e-02 -3.037623763084411621e-01
6.400000000000000000e+02 1.838853454589843750e+01 4.109915161132812500e+01 -2.484640665352344513e-02 8.057940602302551270e-01 2.342842966318130493e-01 -3.947961702942848206e-02
6.410000000000000000e+02 1.918361663818359375e+01 3.838297271728515625e+01 -3.177229687571525574e-02 8.962956666946411133e-01 2.593570053577423096e-01 -1.179563924670219421e-01
6.420000000000000000e+02 1.902141380310058594e+01 3.550432968139648438e+01 1.845192909240722656e-02 7.993167638778686523e-01 2.453306168317794800e-01 -1.911557018756866455e-01
6.430000000000000000e+02 1.818060874938964844e+01 2.918357467651367188e+01 1.420976370573043823e-01 3.768275678157806396e-01 1.556775569915771484e-01 -1.929223835468292236e-01
6.440000000000000000e+02 1.893986701965332031e+01 2.703759384155273438e+01 1.254879087209701538e-01 2.691504359245300293e-01 1.183915063738822937e-01 -2.078909575939178467e-01
6.450000000000000000e+02 1.963366699218750000e+01 2.270033645629882812e+01 -4.124085605144500732e-01 -8.630380034446716309e-03 -1.263116747140884399e-01 -1.286873519420623779e-01
6.460000000000000000e+02 1.706675529479980469e+01 2.178067016601562500e+01 -4.380297958850860596e-01 -5.931470543146133423e-02 -1.492033451795578003e-01 -1.282372772693634033e-01
6.470000000000000000e+02 2.087465667724609375e+01 2.306329345703125000e+01 -2.731714844703674316e-01 3.136968705803155899e-03 -8.101035654544830322e-02 -1.550708115100860596e-01
6.480000000000000000e+02 1.606340408325195312e+01 3.957292175292968750e+01 2.409007586538791656e-02 5.926851034164428711e-01 1.850325614213943481e-01 -3.892268612980842590e-02
6.490000000000000000e+02 1.557223701477050781e+01 3.644903182983398438e+01 6.992202252149581909e-02 4.694594144821166992e-01 1.618144214153289795e-01 -6.323564797639846802e-02
6.500000000000000000e+02 1.473399925231933594e+01 3.364353179931640625e+01 8.408907055854797363e-02 3.565346598625183105e-01 1.321871280670166016e-01 -4.990581423044204712e-02
6.510000000000000000e+02 1.559470462799072266e+01 3.010365104675292969e+01 1.053539589047431946e-01 2.547755241394042969e-01 1.080388426780700684e-01 -4.202627018094062805e-02
6.520000000000000000e+02 1.501085853576660156e+01 2.645347595214843750e+01 1.768875867128372192e-02 1.024974286556243896e-01 3.605585545301437378e-02 4.145059734582901001e-02
6.530000000000000000e+02 1.626752471923828125e+01 2.321391487121582031e+01 -2.203091382980346680e-01 5.613967776298522949e-03 -6.440855562686920166e-02 1.773583143949508667e-02
6.540000000000000000e+02 1.585626792907714844e+01 2.110364532470703125e+01 -3.145990073680877686e-01 -8.666126430034637451e-02 -1.203780770301818848e-01 -1.218503117561340332e-01
6.550000000000000000e+02 1.241361141204833984e+01 4.080905151367187500e+01 5.459251999855041504e-02 3.260441720485687256e-01 1.141910105943679810e-01 -5.537965800613164902e-03
6.560000000000000000e+02 1.224780559539794922e+01 3.761842727661132812e+01 5.608297884464263916e-02 2.735353708267211914e-01 9.888550639152526855e-02 -6.499878130853176117e-03
6.570000000000000000e+02 1.187766075134277344e+01 3.486407852172851562e+01 7.681173831224441528e-02 2.121858596801757812e-01 8.669927716255187988e-02 9.524799883365631104e-03
6.580000000000000000e+02 1.356860637664794922e+01 3.129168891906738281e+01 9.214621782302856445e-02 2.030769139528274536e-01 8.856694400310516357e-02 -5.089698825031518936e-03
6.590000000000000000e+02 1.189685058593750000e+01 2.540869522094726562e+01 -3.831773251295089722e-02 7.481177151203155518e-02 1.094821188598871231e-02 8.987670391798019409e-02
6.600000000000000000e+02 1.308114337921142578e+01 2.308663368225097656e+01 -1.437235027551651001e-01 6.246973946690559387e-02 -2.437612973153591156e-02 5.561268329620361328e-02
6.610000000000000000e+02 1.359830665588378906e+01 1.945957946777343750e+01 -9.662432968616485596e-02 -1.390788704156875610e-02 -3.315966576337814331e-02 -4.251965135335922241e-02
6.620000000000000000e+02 1.319609928131103516e+01 1.493706417083740234e+01 -4.441008204594254494e-04 1.722132321447134018e-03 3.834094386547803879e-04 6.930457311682403088e-04
6.630000000000000000e+02 1.390657520294189453e+01 1.217992496490478516e+01 4.499097703956067562e-04 5.073079373687505722e-03 1.656896667554974556e-03 1.984536880627274513e-03
6.640000000000000000e+02 1.326085567474365234e+01 1.027062988281250000e+01 -4.143187834415584803e-04 1.818582415580749512e-03 4.212791100144386292e-04 2.123367972671985626e-03
6.650000000000000000e+02 1.345669746398925781e+01 5.423135757446289062e+00 1.002760927804047242e-05 3.007834311574697495e-04 9.324331040261313319e-05 7.829422829672694206e-04
6.660000000000000000e+02 1.110554218292236328e+01 1.860549449920654297e+00 7.988274446688592434e-04 -2.272484271088615060e-04 1.714737009024247527e-04 3.517135628499090672e-04
6.670000000000000000e+02 1.404825592041015625e+01 1.898672580718994141e+00 3.503752523101866245e-04 -1.248181215487420559e-04 6.766714068362489343e-05 3.446737828198820353e-04
6.680000000000000000e+02 1.184675598144531250e+01 1.860525727272033691e+00 7.721796282567083836e-04 1.212539500556886196e-04 2.680300676729530096e-04 3.292542824055999517e-04
6.690000000000000000e+02 8.158442497253417969e+00 4.096283721923828125e+01 3.768123313784599304e-02 4.840307310223579407e-02 2.582529187202453613e-02 1.376248709857463837e-02
6.700000000000000000e+02 9.064934730529785156e+00 3.807759094238281250e+01 5.080871656537055969e-02 1.054538860917091370e-01 4.687878116965293884e-02 2.988422103226184845e-02
6.710000000000000000e+02 8.867595672607421875e+00 3.353651046752929688e+01 4.978103190660476685e-02 6.307302415370941162e-02 3.385621681809425354e-02 5.680298432707786560e-02
6.720000000000000000e+02 1.006487083435058594e+01 3.063258171081542969e+01 4.670317098498344421e-02 8.327398449182510376e-02 3.899314627051353455e-02 6.667292118072509766e-02
6.730000000000000000e+02 9.140663146972656250e+00 2.602431678771972656e+01 -2.822789922356605530e-02 3.903828933835029602e-02 3.243116894736886024e-03 9.686139971017837524e-02
6.740000000000000000e+02 8.414021492004394531e+00 2.420814514160156250e+01 -5.228850990533828735e-02 2.985931932926177979e-02 -6.728757172822952271e-03 8.422338962554931641e-02
6.750000000000000000e+02 8.148353576660156250e+00 2.098563003540039062e+01 -6.099208071827888489e-02 2.667112462222576141e-02 -1.029628701508045197e-02 3.750525787472724915e-02
6.760000000000000000e+02 9.604343414306640625e+00 1.376314735412597656e+01 -8.196739479899406433e-03 -3.758118255063891411e-03 -3.586457343772053719e-03 -9.957661386579275131e-04
6.770000000000000000e+02 9.973174095153808594e+00 1.144411277770996094e+01 -1.345375669188797474e-03 -4.731127526611089706e-03 -1.822951016947627068e-03 2.025704452535137534e-04
6.780000000000000000e+02 8.937324523925781250e+00 5.523186683654785156e+00 1.095004379749298096e-03 -7.560705998912453651e-04 1.016801325022242963e-04 2.378562639933079481e-04
6.790000000000000000e+02 8.072284698486328125e+00 1.861542701721191406e+00 9.662762167863547802e-04 -2.058334503090009093e-04 2.281328343087807298e-04 -4.524514588410966098e-05
6.800000000000000000e+02 7.303709983825683594e+00 1.869824171066284180e+00 1.076301676221191883e-03 -1.331941311946138740e-04 2.829322766046971083e-04 -1.822272461140528321e-04
6.810000000000000000e+02 5.070172786712646484e+00 4.018879699707031250e+01 1.137106958776712418e-02 -1.279076933860778809e-01 -3.496098518371582031e-02 2.872684411704540253e-02
6.820000000000000000e+02 6.526830673217773438e+00 3.784257888793945312e+01 4.255874082446098328e-02 -2.260224707424640656e-02 5.986948031932115555e-03 4.402309283614158630e-02
6.830000000000000000e+02 6.961838245391845703e+00 3.435877609252929688e+01 3.518203273415565491e-02 -1.963309943675994873e-03 9.965616278350353241e-03 6.091668829321861267e-02
6.840000000000000000e+02 6.421636104583740234e+00 2.972017669677734375e+01 1.205130945891141891e-02 -2.140725217759609222e-02 -2.806782955303788185e-03 9.232675284147262573e-02
6.850000000000000000e+02 4.978526592254638672e+00 2.840742111206054688e+01 -2.471639891155064106e-04 -5.733805149793624878e-02 -1.727556437253952026e-02 8.435536921024322510e-02
6.860000000000000000e+02 4.543140888214111328e+00 2.160570907592773438e+01 -2.162821032106876373e-02 -1.422498747706413269e-02 -1.075595896691083908e-02 4.352393373847007751e-02
6.870000000000000000e+02 6.462992668151855469e+00 1.668060684204101562e+01 -1.989854872226715088e-02 2.950877649709582329e-03 -5.084301345050334930e-03 8.367132395505905151e-03
6.880000000000000000e+02 6.211619377136230469e+00 1.247743701934814453e+01 -3.797631710767745972e-03 -4.148747771978378296e-03 -2.383913844823837280e-03 -2.219905727542936802e-04
6.890000000000000000e+02 5.484992504119873047e+00 1.154684352874755859e+01 -2.016963437199592590e-03 -7.598986849188804626e-04 -8.330586715601384640e-04 -7.795274723321199417e-04
6.900000000000000000e+02 4.102706909179687500e+00 8.136882781982421875e+00 2.960048732347786427e-04 -3.807884349953383207e-04 -2.543506889196578413e-05 -1.442680251784622669e-03
6.910000000000000000e+02 4.230989456176757812e+00 1.942613840103149414e+00 6.200979696586728096e-04 -3.022018972842488438e-05 1.769633381627500057e-04 -3.840921854134649038e-04
6.920000000000000000e+02 3.457897901535034180e+00 1.984955787658691406e+00 4.458203620743006468e-04 7.898887997725978494e-05 1.574427733430638909e-04 -4.991783061996102333e-04
6.930000000000000000e+02 5.027451515197753906e+00 2.758507728576660156e+00 7.325339829549193382e-04 -9.059146395884454250e-05 1.925827527884393930e-04 -4.718559503089636564e-04
6.940000000000000000e+02 2.038276195526123047e+00 4.161137008666992188e+01 -1.542308740317821503e-02 -2.857842147350311279e-01 -9.036218374967575073e-02 -4.374681040644645691e-03
6.950000000000000000e+02 2.529076814651489258e+00 3.789812850952148438e+01 1.715642772614955902e-02 -2.375874072313308716e-01 -6.612929701805114746e-02 2.466494916006922722e-03
6.960000000000000000e+02 2.319193601608276367e+00 3.316729736328125000e+01 8.708040229976177216e-03 -1.995889693498611450e-01 -5.726427957415580750e-02 3.488649055361747742e-02
6.970000000000000000e+02 2.233259201049804688e+00 3.164756774902343750e+01 3.864929080009460449e-03 -1.817368417978286743e-01 -5.336157605051994324e-02 4.359161481261253357e-02
6.980000000000000000e+02 2.055933952331542969e+00 2.738057327270507812e+01 -1.684989081695675850e-03 -1.166119650006294250e-01 -3.548908606171607971e-02 4.546944051980972290e-02
6.990000000000000000e+02 1.940317392349243164e+00 2.459581375122070312e+01 -3.806488122791051865e-03 -7.149993628263473511e-02 -2.259192802011966705e-02 3.675851225852966309e-02
7.000000000000000000e+02 1.851403713226318359e+00 2.050222969055175781e+01 -4.476496018469333649e-03 -2.234603650867938995e-02 -8.046759292483329773e-03 1.813395880162715912e-02
7.010000000000000000e+02 1.815142512321472168e+00 1.773460769653320312e+01 -3.178655635565519333e-03 -4.999299068003892899e-03 -2.453386550769209862e-03 7.519287522882223129e-03
7.020000000000000000e+02 1.860499858856201172e+00 1.490040302276611328e+01 -1.417416031472384930e-03 1.600368646904826164e-03 5.488577153300866485e-05 1.677949912846088409e-03
7.030000000000000000e+02 1.808618903160095215e+00 1.067046642303466797e+01 -3.152654971927404404e-04 2.755387453362345695e-03 7.320365984924137592e-04 -1.194567536003887653e-03
7.040000000000000000e+02 1.831029176712036133e+00 7.871098518371582031e+00 -8.655271813040599227e-05 1.646709861233830452e-03 4.680471611209213734e-04 -1.022388343699276447e-03
7.050000000000000000e+02 3.499737024307250977e+00 2.904070615768432617e+00 4.519820213317871094e-04 1.550871093058958650e-04 1.821207260945811868e-04 -5.086461897008121014e-04
7.060000000000000000e+02 5.252444148063659668e-01 3.515692710876464844e+00 -1.271671062568202615e-04 5.897927912883460522e-04 1.387877127854153514e-04 -9.922448953147977591e-05
7.070000000000000000e+02 1.655114173889160156e+01 3.348885059356689453e+00 1.952215534402057528e-04 -1.623885909793898463e-04 9.849891284829936922e-06 1.920602080645039678e-04
7.080000000000000000e+02 1.623834609985351562e+01 1.013805580139160156e+01 -6.630602874793112278e-04 2.015674021095037460e-03 4.057841142639517784e-04 -1.493933843448758125e-03
7.090000000000000000e+02 1.708155059814453125e+01 9.058430671691894531e+00 1.076331478543579578e-03 1.371542224660515785e-03 7.343621109612286091e-04 1.223253930220380425e-04
7.100000000000000000e+02 1.550716400146484375e+01 1.131503486633300781e+01 1.758923870511353016e-03 5.200066138058900833e-03 2.087696921080350876e-03 -6.176691385917365551e-04
7.110000000000000000e+02 2.193406867980957031e+01 3.978004455566406250e+00 1.229225199494976550e-05 5.180427979212254286e-05 1.922895899042487144e-05 -3.982511407230049372e-05
7.120000000000000000e+02 1.969213676452636719e+01 2.458803653717041016e+00 -4.771817839355207980e-05 -3.395203020772896707e-05 -2.450106330798007548e-05 -7.549489964731037617e-06
7.130000000000000000e+02 1.691017341613769531e+01 2.056353569030761719e+00 7.995237683644518256e-05 -8.957488171290606260e-05 -2.886750735342502594e-06 7.824797648936510086e-05
7.140000000000000000e+02 2.136815643310546875e+01 5.195125579833984375e+00 3.647937774076126516e-05 1.377485168632119894e-04 5.226836583460681140e-05 1.095086045097559690e-04
7.150000000000000000e+02 2.036424064636230469e+01 5.946300029754638672e+00 -7.382137846434488893e-05 -1.264511083718389273e-04 -6.008174386806786060e-05 -7.346201891778036952e-05
7.160000000000000000e+02 1.797922325134277344e+01 8.068291664123535156e+00 -6.813005893491208553e-04 9.812585631152614951e-05 -1.749524235492572188e-04 -6.366029265336692333e-04
7.170000000000000000e+02 1.496705341339111328e+01 1.259646797180175781e+01 -9.646747494116425514e-04 7.633750326931476593e-03 2.000722568482160568e-03 -2.037808066233992577e-03
7.180000000000000000e+02 1.350339126586914062e+01 1.356605243682861328e+01 -1.049217651598155499e-03 2.303390996530652046e-03 3.762519918382167816e-04 9.972178668249398470e-05
7.190000000000000000e+02 1.267623996734619141e+01 1.171372604370117188e+01 -5.562049336731433868e-04 -6.976024596951901913e-04 -3.761422121897339821e-04 1.550744753330945969e-03
7.200000000000000000e+02 1.438132953643798828e+01 1.531048488616943359e+01 -2.911484334617853165e-03 1.127290725708007812e-02 2.508426783606410027e-03 -2.489249920472502708e-03
7.210000000000000000e+02 1.426323032379150391e+01 1.667090988159179688e+01 3.053094726055860519e-03 8.066808804869651794e-03 3.335970919579267502e-03 -9.213483426719903946e-04
7.220000000000000000e+02 1.130489253997802734e+01 1.706244468688964844e+01 -3.428386524319648743e-02 4.139895085245370865e-03 -9.043191559612751007e-03 -1.193280983716249466e-02
7.230000000000000000e+02 1.413129234313964844e+01 1.801338195800781250e+01 -2.522173337638378143e-02 -2.339346334338188171e-02 -1.458455901592969894e-02 -2.727493271231651306e-02
7.240000000000000000e+02 1.483726310729980469e+01 2.021472740173339844e+01 -1.509766131639480591e-01 -5.298607796430587769e-02 -6.118880957365036011e-02 -8.812157809734344482e-02
7.250000000000000000e+02 1.391517829895019531e+01 2.168814086914062500e+01 -2.129775732755661011e-01 4.835509136319160461e-02 -4.938674345612525940e-02 2.275762381032109261e-03
7.260000000000000000e+02 3.467174911499023438e+01 7.838954448699951172e+00 6.441479921340942383e-01 1.743610382080078125e+01 5.424075603485107422e+00 -1.162495985627174377e-01
7.270000000000000000e+02 3.480250930786132812e+01 2.122645616531372070e+00 -3.406389713287353516e+00 2.357303810119628906e+01 6.049994945526123047e+00 1.031652569770812988e+00
7.280000000000000000e+02 3.426819992065429688e+01 2.011656999588012695e+00 -3.686015367507934570e+00 2.469344711303710938e+01 6.302229881286621094e+00 -1.436132192611694336e+00
7.290000000000000000e+02 3.295209121704101562e+01 1.853802442550659180e+00 -1.523998975753784180e+00 7.164029121398925781e+00 1.692008972167968750e+00 -8.639521598815917969e-01
7.300000000000000000e+02 3.286288070678710938e+01 1.029230475425720215e+00 1.357220888137817383e+00 5.706946849822998047e+00 2.119250297546386719e+00 1.225501298904418945e-01
7.310000000000000000e+02 3.238856124877929688e+01 -1.561077684164047241e-01 5.291430473327636719e+00 3.683484077453613281e+00 2.692474365234375000e+00 3.912961483001708984e+00
7.320000000000000000e+02 3.180887222290039062e+01 5.122674107551574707e-01 1.037478685379028320e+00 -1.417153716087341309e+00 -1.139025166630744934e-01 -2.673687636852264404e-01
7.330000000000000000e+02 3.002685546875000000e+01 -1.112324893474578857e-01 1.650370240211486816e+00 1.236575171351432800e-01 5.322083234786987305e-01 1.343732923269271851e-01
7.340000000000000000e+02 2.648310089111328125e+01 4.251589477062225342e-01 7.248242497444152832e-01 -9.039498865604400635e-02 1.903287917375564575e-01 -6.834991276264190674e-03
7.350000000000000000e+02 2.509423637390136719e+01 -9.877321869134902954e-02 5.131581425666809082e-01 -9.897845238447189331e-02 1.242539137601852417e-01 1.449906527996063232e-01
7.360000000000000000e+02 2.298728561401367188e+01 -1.616795182228088379e+00 1.581742614507675171e-01 4.305709898471832275e-02 6.036940589547157288e-02 4.545998573303222656e-01
7.370000000000000000e+02 2.240461158752441406e+01 -8.538805961608886719e+00 6.137207895517349243e-02 2.731437981128692627e-01 1.003547608852386475e-01 5.511332154273986816e-01
7.380000000000000000e+02 1.930370140075683594e+01 -1.016612148284912109e+01 6.995458006858825684e-01 4.977855384349822998e-01 3.591994047164916992e-01 7.024574279785156250e-01
7.390000000000000000e+02 2.333286285400390625e+01 -1.062187194824218750e+01 2.826894223690032959e-01 8.204104751348495483e-02 1.094191446900367737e-01 1.795223504304885864e-01
7.400000000000000000e+02 2.386811256408691406e+01 -9.137655258178710938e+00 -4.754439741373062134e-02 2.003297656774520874e-01 4.583561047911643982e-02 2.853413522243499756e-01
7.410000000000000000e+02 2.560934448242187500e+01 -9.393843650817871094e+00 -2.050369679927825928e-01 1.080013439059257507e-01 -2.911068685352802277e-02 1.875999197363853455e-02
7.420000000000000000e+02 2.634329986572265625e+01 -6.128808498382568359e+00 -5.734069347381591797e-01 7.655092328786849976e-02 -1.490568071603775024e-01 1.142004489898681641e+00
7.430000000000000000e+02 2.863945388793945312e+01 -6.916500568389892578e+00 -1.472515106201171875e+00 -3.853363692760467529e-01 -5.573554039001464844e-01 1.210057258605957031e+00
7.440000000000000000e+02 3.403606033325195312e+01 -1.229245424270629883e+00 1.084798574447631836e+00 1.769576454162597656e+01 5.634168624877929688e+00 2.917126417160034180e+00
7.450000000000000000e+02 3.341871261596679688e+01 -9.601222872734069824e-01 4.105791091918945312e+00 1.346289443969726562e+01 5.270605564117431641e+00 5.256759166717529297e+00
7.460000000000000000e+02 3.344594573974609375e+01 -3.073346316814422607e-01 7.332542419433593750e+00 1.270466423034667969e+01 6.011162281036376953e+00 4.699077129364013672e+00
7.470000000000000000e+02 2.709763908386230469e+01 7.248554825782775879e-01 7.460061311721801758e-01 7.139926403760910034e-02 2.452216297388076782e-01 -1.797361820936203003e-01
7.480000000000000000e+02 2.544362449645996094e+01 -9.858503937721252441e-01 6.610409021377563477e-01 -1.416392028331756592e-01 1.558205187320709229e-01 3.401847481727600098e-01
7.490000000000000000e+02 2.047584342956542969e+01 -2.306583642959594727e+00 -2.106851786375045776e-01 1.334808468818664551e-01 -2.316130138933658600e-02 4.878697395324707031e-01
7.500000000000000000e+02 1.959309005737304688e+01 -1.451070070266723633e+00 -3.635774850845336914e-01 9.364999085664749146e-02 -8.097825199365615845e-02 3.309471011161804199e-01
7.510000000000000000e+02 2.031983757019042969e+01 -7.921441555023193359e+00 1.018849685788154602e-01 4.382623136043548584e-01 1.620441824197769165e-01 6.945719122886657715e-01
7.520000000000000000e+02 1.803010940551757812e+01 -1.181954765319824219e+01 1.668495774269104004e+00 6.491729617118835449e-01 6.953006386756896973e-01 8.924263715744018555e-01
7.530000000000000000e+02 1.344338607788085938e+01 -1.200798034667968750e+01 5.671880841255187988e-01 1.423718094825744629e+00 5.972718596458435059e-01 1.534736603498458862e-01
7.540000000000000000e+02 9.959573745727539062e+00 -1.059604930877685547e+01 2.372000515460968018e-01 5.138311982154846191e-01 2.253093570470809937e-01 -3.216762542724609375e-01
7.550000000000000000e+02 5.887241363525390625e+00 -1.114374732971191406e+01 1.446923911571502686e-01 -1.636831462383270264e-01 -5.697227083146572113e-03 -4.052788615226745605e-01
7.560000000000000000e+02 1.081982135772705078e+01 -1.292359161376953125e+01 4.805441200733184814e-01 8.442452549934387207e-01 3.974367976188659668e-01 -1.668929010629653931e-01
7.570000000000000000e+02 1.341652584075927734e+01 -1.437461471557617188e+01 8.061882853507995605e-01 1.973717808723449707e+00 8.339717984199523926e-01 3.426657617092132568e-01
7.580000000000000000e+02 1.537220478057861328e+01 -1.391845130920410156e+01 1.141851544380187988e+00 2.320598602294921875e+00 1.038735032081604004e+00 1.328177571296691895e+00
7.590000000000000000e+02 1.451933002471923828e+01 -1.131313705444335938e+01 6.386939287185668945e-01 1.393263697624206543e+00 6.095873117446899414e-01 3.581222295761108398e-01
7.600000000000000000e+02 2.120368576049804688e+01 -1.201228618621826172e+00 -1.272121816873550415e-01 8.385533094406127930e-02 -1.300705317407846451e-02 3.530499339103698730e-01
7.610000000000000000e+02 1.799686050415039062e+01 -1.586303949356079102e+00 -5.726640820503234863e-01 7.874343544244766235e-02 -1.481762081384658813e-01 2.500264346599578857e-01
7.620000000000000000e+02 1.595243835449218750e+01 -8.767686843872070312e+00 1.312235593795776367e-01 9.134104251861572266e-01 3.133901953697204590e-01 3.674240410327911377e-01
7.630000000000000000e+02 1.727102088928222656e+01 -5.683891773223876953e+00 -2.036576718091964722e-01 4.654397964477539062e-01 7.853464037179946899e-02 4.559932053089141846e-01
7.640000000000000000e+02 1.479458808898925781e+01 -2.512673377990722656e+00 -6.800803542137145996e-01 1.232637017965316772e-01 -1.670449972152709961e-01 7.494084537029266357e-02
7.650000000000000000e+02 1.166527652740478516e+01 -6.426707267761230469e+00 -1.792848557233810425e-01 3.756244182586669922e-01 5.890187248587608337e-02 -2.182513773441314697e-01
7.660000000000000000e+02 1.227152252197265625e+01 -5.407954216003417969e+00 -2.891500592231750488e-01 3.111190199851989746e-01 6.590686272829771042e-03 -1.546851992607116699e-01
7.670000000000000000e+02 1.336169147491455078e+01 -1.822048783302307129e+00 -8.458209633827209473e-01 4.016857221722602844e-02 -2.416957169771194458e-01 -4.622202366590499878e-02
7.680000000000000000e+02 1.172581768035888672e+01 -2.553972005844116211e+00 -6.745784878730773926e-01 7.388279587030410767e-02 -1.802087128162384033e-01 -1.519464999437332153e-01
7.690000000000000000e+02 8.804161071777343750e+00 -1.845655202865600586e+00 -6.140331625938415527e-01 1.015395112335681915e-02 -1.811637580394744873e-01 -2.144643813371658325e-01
7.700000000000000000e+02 6.756315231323242188e+00 -7.552581787109375000e+00 -2.870162948966026306e-02 -2.307840622961521149e-02 -1.553401071578264236e-02 -4.640377759933471680e-01
7.710000000000000000e+02 9.584389686584472656e+00 -5.921465396881103516e+00 -1.971388757228851318e-01 1.997856646776199341e-01 7.940345094539225101e-04 -3.694846630096435547e-01
7.720000000000000000e+02 1.108271217346191406e+01 -1.849402427673339844e+00 -7.778034806251525879e-01 3.504846617579460144e-02 -2.228264957666397095e-01 -1.544163227081298828e-01
7.730000000000000000e+02 6.503557682037353516e+00 -1.853665113449096680e+00 -4.011571705341339111e-01 -8.547537960112094879e-03 -1.229114085435867310e-01 -2.210523486137390137e-01
7.740000000000000000e+02 3.511312484741210938e+00 -1.828475594520568848e+00 -1.539851129055023193e-01 -3.805954754352569580e-02 -5.761339887976646423e-02 -1.518015265464782715e-01
7.750000000000000000e+02 5.558376312255859375e-01 -3.607900857925415039e+00 -1.388618722558021545e-02 -1.469837129116058350e-01 -4.826096817851066589e-02 -5.386085808277130127e-02
7.760000000000000000e+02 1.239588975906372070e+00 -2.118027925491333008e+00 -2.866287343204021454e-02 -6.661563366651535034e-02 -2.858355268836021423e-02 -5.236066132783889771e-02
7.770000000000000000e+02 6.171584725379943848e-01 -5.061221599578857422e+00 -4.434655420482158661e-03 -2.858004271984100342e-01 -8.707053214311599731e-02 -7.394336163997650146e-02
7.780000000000000000e+02 1.775794029235839844e+00 -7.931219577789306641e+00 -9.105373173952102661e-04 -5.577234029769897461e-01 -1.675901859998703003e-01 -2.341119945049285889e-01
7.790000000000000000e+02 4.196918487548828125e+00 -5.043012142181396484e+00 -9.833644330501556396e-02 -1.756940633058547974e-01 -8.220914751291275024e-02 -3.559029102325439453e-01
7.800000000000000000e+02 3.960889816284179688e+00 -6.796009540557861328e+00 -3.663362190127372742e-02 -2.742563784122467041e-01 -9.326700121164321899e-02 -3.862101733684539795e-01
7.810000000000000000e+02 4.983096599578857422e+00 -1.841598749160766602e+00 -2.691051959991455078e-01 -2.255590446293354034e-02 -8.749833703041076660e-02 -1.967343986034393311e-01
7.820000000000000000e+02 4.234726428985595703e+00 -2.440053939819335938e+00 -1.976596117019653320e-01 -4.963522404432296753e-02 -7.418844848871231079e-02 -2.233657538890838623e-01
7.830000000000000000e+02 6.549085974693298340e-01 -1.631669998168945312e+01 1.312585361301898956e-02 -1.537356734275817871e+00 -4.572692513465881348e-01 -1.898844912648200989e-02
7.840000000000000000e+02 3.326785326004028320e+00 -1.757638549804687500e+01 1.050040498375892639e-01 -7.932453155517578125e-01 -2.064723819494247437e-01 -1.042297668755054474e-02
7.850000000000000000e+02 5.696786880493164062e+00 -2.129324340820312500e+01 1.677096039056777954e-01 -1.785921752452850342e-01 -3.264769678935408592e-03 2.250530868768692017e-01
7.860000000000000000e+02 1.021671581268310547e+01 -2.229316711425781250e+01 2.834312021732330322e-01 9.056762456893920898e-01 3.567322492599487305e-01 2.712727189064025879e-01
7.870000000000000000e+02 1.131738471984863281e+01 -2.790726852416992188e+01 -1.611091345548629761e-01 7.788154482841491699e-01 1.853118985891342163e-01 1.350981444120407104e-01
7.880000000000000000e+02 1.655807495117187500e+01 -3.045162391662597656e+01 -2.423910945653915405e-01 7.505919933319091797e-01 1.524602621793746948e-01 -2.165797054767608643e-01
7.890000000000000000e+02 2.088645935058593750e+01 -3.482523345947265625e+01 -5.966429039835929871e-02 4.693043231964111328e-01 1.228920072317123413e-01 -2.047362178564071655e-01
7.900000000000000000e+02 2.453456878662109375e+01 -3.734167098999023438e+01 7.540810108184814453e-02 6.570804119110107422e-01 2.197465449571609497e-01 4.461332783102989197e-02
7.910000000000000000e+02 2.639554595947265625e+01 -4.065913009643554688e+01 1.936352998018264771e-02 1.078708052635192871e+00 3.294214606285095215e-01 4.221859574317932129e-02
7.920000000000000000e+02 2.963696670532226562e+01 -3.901014709472656250e+01 -1.194120943546295166e-01 1.572553396224975586e+00 4.359423816204071045e-01 2.593521475791931152e-01
7.930000000000000000e+02 3.327410507202148438e+01 -4.072412872314453125e+01 -4.603978097438812256e-01 2.441398620605468750e+00 5.943002104759216309e-01 1.664362549781799316e-01
7.940000000000000000e+02 3.444793701171875000e+01 -3.752147293090820312e+01 -5.128898620605468750e-01 2.773054599761962891e+00 6.780493855476379395e-01 5.364086031913757324e-01
7.950000000000000000e+02 3.373224639892578125e+01 -3.316191101074218750e+01 -2.769624888896942139e-01 2.674155473709106445e+00 7.191579341888427734e-01 8.756623864173889160e-01
7.960000000000000000e+02 3.416458511352539062e+01 -3.016978645324707031e+01 -1.589301973581314087e-02 3.016577959060668945e+00 9.002054333686828613e-01 1.040169835090637207e+00
7.970000000000000000e+02 6.790711283683776855e-01 -1.914517402648925781e+01 1.345247682183980942e-02 -1.539881229400634766e+00 -4.579286277294158936e-01 2.082296647131443024e-02
7.980000000000000000e+02 2.099621534347534180e+00 -2.049884223937988281e+01 3.490671515464782715e-02 -1.077006220817565918e+00 -3.126298487186431885e-01 9.445556253194808960e-02
7.990000000000000000e+02 5.708386421203613281e+00 -2.317459297180175781e+01 1.012632697820663452e-01 -1.292759925127029419e-01 -8.403815329074859619e-03 3.108633756637573242e-01
8.000000000000000000e+02 7.931495189666748047e+00 -2.600579833984375000e+01 -1.400869060307741165e-02 3.278729617595672607e-01 9.415928274393081665e-02 3.298288583755493164e-01
8.010000000000000000e+02 1.366575622558593750e+01 -2.959965133666992188e+01 -2.375858575105667114e-01 8.192558884620666504e-01 1.745010018348693848e-01 -1.953384280204772949e-02
8.020000000000000000e+02 1.881358146667480469e+01 -3.361289978027343750e+01 -1.596686989068984985e-01 5.509740114212036133e-01 1.173915863037109375e-01 -2.324023693799972534e-01
8.030000000000000000e+02 2.104685783386230469e+01 -3.774302291870117188e+01 1.037859730422496796e-02 5.628586411476135254e-01 1.719711720943450928e-01 -1.192978098988533020e-01
8.040000000000000000e+02 2.199514770507812500e+01 -4.094348526000976562e+01 6.188632175326347351e-02 5.915415883064270020e-01 1.960283815860748291e-01 -3.787566721439361572e-02
8.050000000000000000e+02 6.939718127250671387e-01 -2.196749687194824219e+01 5.017005838453769684e-03 -1.391913294792175293e+00 -4.160688817501068115e-01 4.920634999871253967e-02
8.060000000000000000e+02 2.065926790237426758e+00 -2.331166267395019531e+01 1.899908855557441711e-02 -9.404915571212768555e-01 -2.764477431774139404e-01 1.614506989717483521e-01
8.070000000000000000e+02 5.522331237792968750e+00 -2.822750663757324219e+01 -6.152984499931335449e-02 -6.420434266328811646e-02 -3.772025555372238159e-02 2.969574034214019775e-01
8.080000000000000000e+02 8.237557411193847656e+00 -3.062734413146972656e+01 -1.520050764083862305e-01 3.017624318599700928e-01 4.492719843983650208e-02 2.258640378713607788e-01
8.090000000000000000e+02 1.302348709106445312e+01 -3.486164855957031250e+01 -1.977218687534332275e-01 5.030884742736816406e-01 9.160997718572616577e-02 -1.938585378229618073e-02
8.100000000000000000e+02 1.705330657958984375e+01 -3.792340087890625000e+01 -9.016171842813491821e-02 4.917883276939392090e-01 1.204879805445671082e-01 -1.048077270388603210e-01
8.110000000000000000e+02 1.737121772766113281e+01 -4.105859375000000000e+01 -4.584253579378128052e-02 4.777072072029113770e-01 1.295593976974487305e-01 -2.487234398722648621e-02
8.120000000000000000e+02 7.367558479309082031e-01 -2.760198020935058594e+01 -3.840045304968953133e-03 -8.872164487838745117e-01 -2.673169374465942383e-01 6.519898772239685059e-02
8.130000000000000000e+02 2.330117225646972656e+00 -2.883967971801757812e+01 -1.645600236952304840e-02 -5.551733374595642090e-01 -1.714888066053390503e-01 1.720051914453506470e-01
8.140000000000000000e+02 6.262230396270751953e+00 -3.119553756713867188e+01 -1.099192500114440918e-01 6.272779405117034912e-02 -1.415743678808212280e-02 2.243285477161407471e-01
8.150000000000000000e+02 9.567469596862792969e+00 -3.522636413574218750e+01 -1.633210182189941406e-01 3.142293393611907959e-01 4.527249932289123535e-02 8.452638238668441772e-02
8.160000000000000000e+02 1.299200439453125000e+01 -3.815988540649414062e+01 -1.458655595779418945e-01 4.023266136646270752e-01 7.693831622600555420e-02 -2.062104083597660065e-02
8.170000000000000000e+02 1.269872760772705078e+01 -4.111905670166015625e+01 -1.165961176156997681e-01 3.520421981811523438e-01 7.063382118940353394e-02 -1.465420238673686981e-02
8.180000000000000000e+02 7.675014734268188477e-01 -2.900284576416015625e+01 1.430740347132086754e-03 -7.669652700424194336e-01 -2.296603620052337646e-01 6.342930346727371216e-02
8.190000000000000000e+02 2.427024602890014648e+00 -3.022792816162109375e+01 -1.675345189869403839e-02 -4.753802120685577393e-01 -1.476400941610336304e-01 1.571335345506668091e-01
8.200000000000000000e+02 6.456070423126220703e+00 -3.296282196044921875e+01 -1.064009368419647217e-01 6.504471600055694580e-02 -1.240686699748039246e-02 1.732327789068222046e-01
8.210000000000000000e+02 7.725821137428283691e-01 -3.459059524536132812e+01 -4.415304865688085556e-03 -4.111668765544891357e-01 -1.246746480464935303e-01 3.725749999284744263e-02
8.220000000000000000e+02 2.369156599044799805e+00 -3.437284088134765625e+01 -1.543627306818962097e-02 -3.168747425079345703e-01 -9.969329833984375000e-02 9.556101262569427490e-02
8.230000000000000000e+02 6.987637996673583984e+00 -3.581851959228515625e+01 -1.057779863476753235e-01 7.585546374320983887e-02 -8.976756595075130463e-03 1.298486888408660889e-01
8.240000000000000000e+02 8.224913597106933594e+00 -4.106690597534179688e+01 -9.650692343711853027e-02 1.346843391656875610e-01 1.145322620868682861e-02 2.040718682110309601e-02
8.250000000000000000e+02 7.581438422203063965e-01 -3.598402786254882812e+01 -4.855515435338020325e-03 -3.517124354839324951e-01 -1.069703847169876099e-01 2.850561402738094330e-02
8.260000000000000000e+02 7.912062406539916992e-01 -3.736037445068359375e+01 3.053042339161038399e-03 -2.983959615230560303e-01 -8.860287815332412720e-02 2.860392443835735321e-02
8.270000000000000000e+02 2.041171789169311523e+00 -4.162845993041992188e+01 -3.268017247319221497e-02 -2.011945694684982300e-01 -7.016242295503616333e-02 9.257257916033267975e-03
8.280000000000000000e+02 1.343242287635803223e+00 -4.005568695068359375e+01 4.196707159280776978e-03 -2.145808339118957520e-01 -6.311523914337158203e-02 2.962906099855899811e-02
8.290000000000000000e+02 3.777529144287109375e+01 -4.089149475097656250e+01 -8.914102911949157715e-01 3.422625541687011719e+00 7.593645453453063965e-01 1.017065346240997314e-01
8.300000000000000000e+02 3.819962310791015625e+01 -3.755497360229492188e+01 -8.308002948760986328e-01 3.583942890167236328e+00 8.259428143501281738e-01 3.076127469539642334e-01
8.310000000000000000e+02 3.763771438598632812e+01 -3.419716262817382812e+01 -6.123407483100891113e-01 3.763468503952026367e+00 9.453383088111877441e-01 5.682960152626037598e-01
8.320000000000000000e+02 3.752610015869140625e+01 -3.014307785034179688e+01 -1.314554810523986816e-01 4.100726127624511719e+00 1.190781235694885254e+00 7.076723575592041016e-01
8.330000000000000000e+02 4.249373626708984375e+01 -3.762998962402343750e+01 -9.716365337371826172e-01 3.906498670578002930e+00 8.804585933685302734e-01 -3.716459497809410095e-02
8.340000000000000000e+02 4.035925674438476562e+01 -3.272682952880859375e+01 -5.522705316543579102e-01 4.425298690795898438e+00 1.161908507347106934e+00 3.477289676666259766e-01
8.350000000000000000e+02 4.105113983154296875e+01 -2.915076255798339844e+01 1.718668639659881592e-01 5.103130817413330078e+00 1.582499265670776367e+00 1.766638457775115967e-01
8.360000000000000000e+02 4.249026107788085938e+01 -4.093692398071289062e+01 -1.014794945716857910e+00 3.658417224884033203e+00 7.930867075920104980e-01 -2.794861420989036560e-02
8.370000000000000000e+02 4.307930755615234375e+01 -3.443166351318359375e+01 -7.923952937126159668e-01 4.259831428527832031e+00 1.040230751037597656e+00 -1.820753663778305054e-01
8.380000000000000000e+02 4.492197418212890625e+01 -2.953552627563476562e+01 3.422420322895050049e-01 5.533066272735595703e+00 1.762592554092407227e+00 -9.219117164611816406e-01
8.390000000000000000e+02 4.723626327514648438e+01 -4.094333648681640625e+01 -7.272829413414001465e-01 3.013662338256835938e+00 6.859138607978820801e-01 -1.427589505910873413e-01
8.400000000000000000e+02 4.680553054809570312e+01 -3.778462600708007812e+01 -7.073915004730224609e-01 3.213787078857421875e+00 7.519186735153198242e-01 -5.044721961021423340e-01
8.410000000000000000e+02 4.701514434814453125e+01 -3.278406143188476562e+01 -3.621311485767364502e-01 3.876053810119628906e+00 1.054176807403564453e+00 -1.065887212753295898e+00
8.420000000000000000e+02 4.824452209472656250e+01 -2.874816513061523438e+01 1.996656894683837891e+00 3.045654773712158203e+00 1.512693524360656738e+00 -2.315657138824462891e+00
8.430000000000000000e+02 5.179733657836914062e+01 -4.079533767700195312e+01 -1.860818713903427124e-01 1.729012846946716309e+00 4.628793001174926758e-01 -1.925102025270462036e-01
8.440000000000000000e+02 5.073974609375000000e+01 -3.761254501342773438e+01 -2.372136563062667847e-01 2.014026403427124023e+00 5.330438613891601562e-01 -6.044182777404785156e-01
8.450000000000000000e+02 4.868904876708984375e+01 -3.401103973388671875e+01 -2.778760492801666260e-01 2.706456422805786133e+00 7.285741567611694336e-01 -1.060629010200500488e+00
8.460000000000000000e+02 5.074640274047851562e+01 -3.030475044250488281e+01 7.164131999015808105e-01 7.943795323371887207e-01 4.532378017902374268e-01 -9.107427000999450684e-01
8.470000000000000000e+02 5.391659927368164062e+01 -3.690036773681640625e+01 9.842617809772491455e-02 9.726918339729309082e-01 3.213354051113128662e-01 -4.316121339797973633e-01
8.480000000000000000e+02 5.348311233520507812e+01 -3.299639892578125000e+01 9.239264577627182007e-02 5.893616676330566406e-01 2.045263051986694336e-01 -5.118750333786010742e-01
8.490000000000000000e+02 5.541982650756835938e+01 -3.938559722900390625e+01 1.305506825447082520e-01 8.272849321365356445e-01 2.873506844043731689e-01 -1.668571084737777710e-01
8.500000000000000000e+02 5.772541427612304688e+01 -3.703196716308593750e+01 1.840319931507110596e-01 2.436806559562683105e-01 1.283137947320938110e-01 -6.874499469995498657e-02
8.510000000000000000e+02 5.615177154541015625e+01 -3.549243927001953125e+01 1.380322128534317017e-01 3.519790768623352051e-01 1.470033824443817139e-01 -1.262910068035125732e-01
8.520000000000000000e+02 5.849029922485351562e+01 -4.095207977294921875e+01 2.028286159038543701e-01 4.557108581066131592e-01 1.975618451833724976e-01 -1.300018932670354843e-02
8.530000000000000000e+02 6.015109634399414062e+01 -3.812174224853515625e+01 1.828883141279220581e-01 2.019822895526885986e-01 1.154611781239509583e-01 -7.738145533949136734e-03
8.540000000000000000e+02 5.954872131347656250e+01 -2.986316490173339844e+01 -4.784539639949798584e-01 -3.698479756712913513e-02 -1.546316295862197876e-01 -8.745474368333816528e-02
8.550000000000000000e+02 7.188995361328125000e+01 -4.092436599731445312e+01 5.100541561841964722e-02 -4.617939144372940063e-02 1.447806484065949917e-03 1.886851154267787933e-02
8.560000000000000000e+02 7.293211364746093750e+01 -3.665586090087890625e+01 2.351033501327037811e-02 -3.598202392458915710e-02 -3.741506719961762428e-03 5.071178078651428223e-02
8.570000000000000000e+02 7.318347930908203125e+01 -3.382445144653320312e+01 -9.474009275436401367e-04 -2.199985645711421967e-02 -6.884176749736070633e-03 5.277757719159126282e-02
8.580000000000000000e+02 7.543438720703125000e+01 -4.015640640258789062e+01 1.473771128803491592e-02 -7.402569055557250977e-02 -1.778639294207096100e-02 2.179746143519878387e-02
8.590000000000000000e+02 7.509230041503906250e+01 -3.390227890014648438e+01 1.023254473693668842e-03 -3.622752055525779724e-02 -1.056127902120351791e-02 4.121390730142593384e-02
8.600000000000000000e+02 7.808184814453125000e+01 -4.166617202758789062e+01 3.500295104458928108e-03 -1.089775413274765015e-01 -3.164317458868026733e-02 9.997648885473608971e-04
8.610000000000000000e+02 7.893129730224609375e+01 -4.024387741088867188e+01 -7.672216161154210567e-04 -1.074518784880638123e-01 -3.246572986245155334e-02 3.202517982572317123e-03
8.620000000000000000e+02 7.908335876464843750e+01 -3.772372817993164062e+01 1.151511212810873985e-03 -9.751643240451812744e-02 -2.890947461128234863e-02 3.638736205175518990e-03
8.630000000000000000e+02 7.937723541259765625e+01 -2.949680709838867188e+01 -1.946754055097699165e-03 -2.096052654087543488e-02 -6.872184108942747116e-03 4.606368020176887512e-03
8.640000000000000000e+02 7.561956787109375000e+01 -2.505002975463867188e+01 -9.780304506421089172e-03 -3.159017302095890045e-03 -3.881796495988965034e-03 7.838465273380279541e-03
8.650000000000000000e+02 7.236531829833984375e+01 -1.893629646301269531e+01 -1.013169530779123306e-03 -4.128706350456923246e-04 -4.278120759408921003e-04 6.004704046063125134e-04
8.660000000000000000e+02 7.772322845458984375e+01 -1.837351989746093750e+01 8.931333431974053383e-04 2.278214087709784508e-04 3.362864372320473194e-04 -1.044153468683362007e-03
8.670000000000000000e+02 7.578500366210937500e+01 -1.822422409057617188e+01 3.201250510755926371e-04 -4.634363576769828796e-04 -4.299339707358740270e-05 -8.603805908933281898e-04
8.680000000000000000e+02 7.437642669677734375e+01 -2.151640510559082031e+01 -3.956642933189868927e-03 -5.426135030575096607e-04 -1.349776983261108398e-03 1.628080965019762516e-03
8.690000000000000000e+02 7.574240112304687500e+01 -1.894842910766601562e+01 5.215010605752468109e-04 -1.901129726320505142e-04 9.941642201738432050e-05 -6.161402561701834202e-04
8.700000000000000000e+02 7.435871124267578125e+01 -1.817033004760742188e+01 3.284172562416642904e-04 -5.749817937612533569e-04 -7.396936416625976562e-05 -6.224884418770670891e-04
8.710000000000000000e+02 7.294000244140625000e+01 -1.816427993774414062e+01 8.248132508015260100e-05 -2.898332604672759771e-04 -6.220557406777516007e-05 1.167587397503666580e-04
8.720000000000000000e+02 7.154351043701171875e+01 -1.823020935058593750e+01 2.176361595047637820e-04 -2.469035971444100142e-04 -8.780226380622480065e-06 8.822202798910439014e-04
8.730000000000000000e+02 3.250620651245117188e+01 -9.573219299316406250e+00 -1.975146681070327759e-01 3.292840242385864258e+00 9.285976290702819824e-01 -1.534134149551391602e+00
8.740000000000000000e+02 3.535345077514648438e+01 -2.328152847290039062e+01 8.920392394065856934e-01 5.254156112670898438e+00 1.843858718872070312e+00 1.444349527359008789e+00
8.750000000000000000e+02 3.545624542236328125e+01 -2.730781936645507812e+01 3.156005442142486572e-01 3.794462203979492188e+00 1.233018755912780762e+00 9.842944145202636719e-01
8.760000000000000000e+02 3.872320938110351562e+01 -2.808004188537597656e+01 3.697545230388641357e-01 4.732146739959716797e+00 1.530570387840270996e+00 5.628225207328796387e-01
8.770000000000000000e+02 4.017599487304687500e+01 -2.740615081787109375e+01 6.341916918754577637e-01 5.250534534454345703e+00 1.765417814254760742e+00 2.987331449985504150e-01
8.780000000000000000e+02 2.959845924377441406e+01 -3.134025573730468750e+01 -2.116115204989910126e-02 8.910995721817016602e-01 2.609815299510955811e-01 6.462169885635375977e-01
8.790000000000000000e+02 3.440385055541992188e+01 -2.798501586914062500e+01 3.410913944244384766e-01 3.202356576919555664e+00 1.063034415245056152e+00 1.255628705024719238e+00
8.800000000000000000e+02 3.437252044677734375e+01 -2.545325660705566406e+01 1.088108539581298828e+00 3.440333127975463867e+00 1.358532547950744629e+00 1.588984847068786621e+00
8.810000000000000000e+02 1.801920318603515625e+01 -2.583672714233398438e+01 2.774806320667266846e-01 6.213942766189575195e-01 2.696624696254730225e-01 -4.366315305233001709e-01
8.820000000000000000e+02 1.427764320373535156e+01 -1.790392875671386719e+01 1.450078282505273819e-02 3.097359895706176758e+00 9.335582256317138672e-01 1.818082630634307861e-01
8.830000000000000000e+02 1.468458175659179688e+01 -1.511579227447509766e+01 7.577897310256958008e-01 3.033029079437255859e+00 1.137245655059814453e+00 1.023961186408996582e+00
8.840000000000000000e+02 1.431595325469970703e+01 -1.649936103820800781e+01 4.545683562755584717e-01 3.301813840866088867e+00 1.126914620399475098e+00 5.052773356437683105e-01
8.850000000000000000e+02 3.507533645629882812e+01 -1.315306782722473145e+00 -2.482233345508575439e-01 1.792230224609375000e+01 5.302223682403564453e+00 -3.714142084121704102e+00
8.860000000000000000e+02 4.295348358154296875e+01 1.397633075714111328e+01 -9.173562377691268921e-02 -2.005280405282974243e-01 -8.767910301685333252e-02 -1.337138712406158447e-01
8.870000000000000000e+02 4.492451095581054688e+01 1.587010765075683594e+01 -5.974306538701057434e-02 -7.682131975889205933e-02 -4.096931591629981995e-02 -6.374307721853256226e-02
8.880000000000000000e+02 4.593905258178710938e+01 1.678184700012207031e+01 -7.048375904560089111e-02 -5.365522578358650208e-02 -3.724169358611106873e-02 -5.276999622583389282e-02
8.890000000000000000e+02 5.875976181030273438e+01 2.753194570541381836e+00 1.132522583007812500e+00 2.687197685241699219e+00 1.145915985107421875e+00 1.717399954795837402e+00
8.900000000000000000e+02 5.794363403320312500e+01 1.631960391998291016e+00 9.443659186363220215e-01 2.392636775970458984e+00 1.001100778579711914e+00 1.561052441596984863e+00
8.910000000000000000e+02 5.748476028442382812e+01 -3.238721132278442383e+00 -1.572883725166320801e-01 1.896200418472290039e+00 5.216736197471618652e-01 7.803997993469238281e-01
8.920000000000000000e+02 5.647211074829101562e+01 -2.455468416213989258e+00 1.642099916934967041e-01 1.910223603248596191e+00 6.223300695419311523e-01 9.296090006828308105e-01
8.930000000000000000e+02 5.606255722045898438e+01 -7.841495990753173828e+00 -1.188328623771667480e+00 1.590809345245361328e+00 1.207442358136177063e-01 1.670701980590820312e+00
8.940000000000000000e+02 5.864840698242187500e+01 -1.153517913818359375e+01 -3.152440190315246582e-01 6.878108978271484375e-01 1.117700561881065369e-01 9.149779677391052246e-01
8.950000000000000000e+02 5.428353500366210938e+01 -1.468219375610351562e+01 2.658972501754760742e+00 1.249466538429260254e-01 8.351757526397705078e-01 6.724455356597900391e-01
8.960000000000000000e+02 2.793863487243652344e+01 -3.205822753906250000e+01 -9.730481542646884918e-04 4.624534249305725098e-01 1.384441107511520386e-01 3.711915314197540283e-01
8.970000000000000000e+02 3.145620536804199219e+01 -3.647941207885742188e+01 -2.323551028966903687e-01 1.969467163085937500e+00 5.211336016654968262e-01 5.242114663124084473e-01
8.980000000000000000e+02 7.021047973632812500e+01 -2.358066940307617188e+01 -1.581604033708572388e-02 3.812753129750490189e-03 -3.600986441597342491e-03 -1.750306459143757820e-03
8.990000000000000000e+02 6.936746978759765625e+01 -2.230747604370117188e+01 -3.798024263232946396e-03 -6.799902184866368771e-04 -1.343404292128980160e-03 -3.003137651830911636e-03
9.000000000000000000e+02 7.425031280517578125e+01 -2.654667472839355469e+01 -1.683905534446239471e-02 -1.460046158172190189e-03 -5.489730276167392731e-03 1.395712699741125107e-02
9.010000000000000000e+02 6.405099487304687500e+01 -3.355827331542968750e+01 -5.046601593494415283e-02 3.185831755399703979e-02 -5.582308862358331680e-03 1.034503802657127380e-01
9.020000000000000000e+02 6.766950225830078125e+01 -3.127090454101562500e+01 -7.301590591669082642e-02 3.649456799030303955e-02 -1.095640007406473160e-02 6.513328105211257935e-02
9.030000000000000000e+02 6.450496673583984375e+01 -2.659630775451660156e+01 -7.137333601713180542e-02 -2.592612244188785553e-02 -2.918983809649944305e-02 -3.503364324569702148e-02
9.040000000000000000e+02 4.297332286834716797e+00 -3.289047622680664062e+01 -5.674240738153457642e-02 -1.802923083305358887e-01 -7.111041247844696045e-02 1.747222691774368286e-01
9.050000000000000000e+02 9.044699668884277344e+00 -3.258702468872070312e+01 -1.778605729341506958e-01 3.324829041957855225e-01 4.638670384883880615e-02 1.568569689989089966e-01
9.060000000000000000e+02 1.318628501892089844e+01 -3.179813385009765625e+01 -2.486925125122070312e-01 6.770062446594238281e-01 1.284941136837005615e-01 -2.431398443877696991e-02
9.070000000000000000e+02 1.628444671630859375e+01 -3.218796920776367188e+01 -2.422538697719573975e-01 6.600807309150695801e-01 1.253480464220046997e-01 -1.832829266786575317e-01
9.080000000000000000e+02 1.995913696289062500e+01 -3.180045127868652344e+01 -1.883718967437744141e-01 4.943916797637939453e-01 9.180593490600585938e-02 -2.973262071609497070e-01
9.090000000000000000e+02 1.780329132080078125e+01 -3.036744689941406250e+01 -2.278194427490234375e-01 6.877731084823608398e-01 1.379861086606979370e-01 -2.451860755681991577e-01
9.100000000000000000e+02 1.908236503601074219e+01 -2.686864852905273438e+01 1.838086098432540894e-01 4.738940596580505371e-01 1.973108053207397461e-01 -3.141942918300628662e-01
9.110000000000000000e+02 2.287528610229492188e+01 -3.287676620483398438e+01 -1.001421362161636353e-01 2.832658290863037109e-01 5.493710935115814209e-02 -2.049552351236343384e-01
9.120000000000000000e+02 2.716126823425292969e+01 -3.603345489501953125e+01 7.152201980352401733e-02 7.999297380447387695e-01 2.614355087280273438e-01 2.424045503139495850e-01
9.130000000000000000e+02 3.132686042785644531e+01 -2.818558883666992188e+01 5.554607510566711426e-01 1.135417938232421875e+00 5.072636008262634277e-01 7.886478900909423828e-01
9.140000000000000000e+02 3.083374023437500000e+01 -3.311905288696289062e+01 -7.906148582696914673e-02 1.584395051002502441e+00 4.516000747680664062e-01 7.519982457160949707e-01
9.150000000000000000e+02 6.670497894287109375e+01 -3.599818420410156250e+01 4.245109856128692627e-02 1.798407919704914093e-02 1.813055202364921570e-02 1.008532568812370300e-01
9.160000000000000000e+02 1.342486381530761719e+01 -2.549785614013671875e+01 -4.286836832761764526e-02 1.200047969818115234e+00 3.471539020538330078e-01 -1.651005819439888000e-02
9.170000000000000000e+02 1.663701438903808594e+01 -2.865559387207031250e+01 -1.360757797956466675e-01 7.884739637374877930e-01 1.957194507122039795e-01 -2.629111409187316895e-01
9.180000000000000000e+02 3.713398456573486328e+00 -2.724489784240722656e+01 -2.138216793537139893e-02 -4.029901027679443359e-01 -1.273116767406463623e-01 2.572728693485260010e-01
9.190000000000000000e+02 3.339246749877929688e+01 -2.633836364746093750e+01 9.402669072151184082e-01 2.149212360382080078e+00 9.268437623977661133e-01 1.368050217628479004e+00
9.200000000000000000e+02 4.046768188476562500e+01 -2.326461029052734375e+01 1.504366874694824219e+00 6.009253501892089844e+00 2.254086256027221680e+00 -1.804377287626266479e-01
9.210000000000000000e+02 4.155627822875976562e+01 -2.438300132751464844e+01 1.418194293975830078e+00 6.314991950988769531e+00 2.319955825805664062e+00 -3.024451434612274170e-01
9.220000000000000000e+02 4.251340484619140625e+01 -2.061300849914550781e+01 1.593160033226013184e+00 7.325948715209960938e+00 2.675732612609863281e+00 -3.261758983135223389e-01
9.230000000000000000e+02 4.402273941040039062e+01 -1.708570289611816406e+01 2.926576614379882812e+00 5.854988574981689453e+00 2.634469509124755859e+00 5.231102705001831055e-01
9.240000000000000000e+02 4.419404220581054688e+01 -1.330555152893066406e+01 1.881749153137207031e+00 3.580686330795288086e+00 1.638730645179748535e+00 -3.134533166885375977e-01
9.250000000000000000e+02 4.486206817626953125e+01 -5.604179382324218750e+00 -4.774932861328125000e+00 4.818013682961463928e-02 -1.418025851249694824e+00 8.376340270042419434e-01
9.260000000000000000e+02 4.242094802856445312e+01 -7.102107048034667969e+00 -2.335136651992797852e+00 1.809389710426330566e+00 -1.577240824699401855e-01 -1.176694393157958984e+00
9.270000000000000000e+02 4.010256576538085938e+01 -6.307367324829101562e+00 -2.433915138244628906e+00 3.520130634307861328e+00 3.258646726608276367e-01 -2.077155113220214844e+00
9.280000000000000000e+02 3.957015609741210938e+01 -9.823730468750000000e+00 -6.171169281005859375e-01 4.666659832000732422e+00 1.214862823486328125e+00 -1.962738394737243652e+00
9.290000000000000000e+02 3.879321289062500000e+01 -1.350175762176513672e+01 1.376050353050231934e+00 5.587678432464599609e+00 2.089118480682373047e+00 -1.995995044708251953e+00
9.300000000000000000e+02 4.078168106079101562e+01 -1.744721603393554688e+01 2.244100570678710938e+00 5.813336372375488281e+00 2.417231082916259766e+00 -9.730194807052612305e-01
9.310000000000000000e+02 3.941629409790039062e+01 -1.411731815338134766e+01 1.705132246017456055e+00 5.252630233764648438e+00 2.087328672409057617e+00 -1.891734480857849121e+00
9.320000000000000000e+02 5.051184844970703125e+01 -1.346296405792236328e+01 2.984792947769165039e+00 1.092417120933532715e+00 1.223163008689880371e+00 2.100410699844360352e+00
9.330000000000000000e+02 3.972006607055664062e+01 -1.320552539825439453e+01 1.227157115936279297e+00 4.877741336822509766e+00 1.831469535827636719e+00 -1.893760442733764648e+00
9.340000000000000000e+02 4.504363632202148438e+01 -1.246118736267089844e+01 1.365682840347290039e+00 2.963303804397583008e+00 1.298696041107177734e+00 -2.265336066484451294e-01
9.350000000000000000e+02 3.637222290039062500e+01 -1.372985172271728516e+01 1.701120853424072266e+00 7.104748725891113281e+00 2.641760826110839844e+00 -2.455215930938720703e+00
9.360000000000000000e+02 4.700513076782226562e+01 -1.449430465698242188e+01 3.333429098129272461e+00 3.221194267272949219e+00 1.966387033462524414e+00 1.503454685211181641e+00
9.370000000000000000e+02 4.931396102905273438e+01 -1.057852745056152344e+01 3.342964649200439453e-01 7.969310879707336426e-01 3.393682837486267090e-01 1.787289261817932129e+00
9.380000000000000000e+02 5.029158782958984375e+01 -6.850191116333007812e+00 -3.551187753677368164e+00 -3.881632983684539795e-01 -1.181805253028869629e+00 1.743581891059875488e+00
9.390000000000000000e+02 4.609605789184570312e+01 -8.614178657531738281e+00 -1.554276227951049805e+00 8.388961553573608398e-01 -2.146140336990356445e-01 2.386019229888916016e-01
9.400000000000000000e+02 4.842879486083984375e+01 -9.026769638061523438e+00 -1.194558382034301758e+00 3.508830666542053223e-01 -2.531026005744934082e-01 1.386929988861083984e+00
9.410000000000000000e+02 3.911373901367187500e+01 -1.090284824371337891e+01 6.091620773077011108e-02 5.094653606414794922e+00 1.546671032905578613e+00 -2.012459039688110352e+00
9.420000000000000000e+02 3.604885482788085938e+01 -8.891958236694335938e+00 -1.879512906074523926e+00 6.990604400634765625e+00 1.533327341079711914e+00 -2.006637334823608398e+00
9.430000000000000000e+02 3.764669418334960938e+01 -1.158756065368652344e+01 5.302988290786743164e-01 5.915579795837402344e+00 1.933763623237609863e+00 -2.072478294372558594e+00
9.440000000000000000e+02 3.548910903930664062e+01 -6.308556556701660156e+00 -3.042734622955322266e+00 7.758637428283691406e+00 1.414770841598510742e+00 -2.263540983200073242e+00
9.450000000000000000e+02 3.662524032592773438e+01 -3.963890552520751953e+00 -1.934190034866333008e+00 7.383994579315185547e+00 1.634941458702087402e+00 -3.380656003952026367e+00
9.460000000000000000e+02 4.776395034790039062e+01 -1.361480522155761719e+01 3.017391920089721680e+00 2.844553232192993164e+00 1.758583545684814453e+00 1.646741271018981934e+00
9.470000000000000000e+02 7.312714385986328125e+01 -7.043321609497070312e+00 -2.548654079437255859e-01 -3.343953937292098999e-02 -8.649148792028427124e-02 -6.026962995529174805e-01
9.480000000000000000e+02 7.580384063720703125e+01 -5.788476943969726562e+00 -9.144115447998046875e-02 -4.141078889369964600e-01 -1.516647189855575562e-01 -5.098008513450622559e-01
9.490000000000000000e+02 6.459767150878906250e+01 -6.481126308441162109e+00 -5.225907564163208008e-01 7.742173671722412109e-01 7.548797130584716797e-02 -1.334852632135152817e-02
9.500000000000000000e+02 6.838533782958984375e+01 -7.012954711914062500e+00 -4.832184910774230957e-01 4.223603010177612305e-01 -1.825745217502117157e-02 -5.144148468971252441e-01
9.510000000000000000e+02 6.079220199584960938e+01 -1.046436309814453125e+01 -7.740032076835632324e-01 6.584736704826354980e-01 -3.465885296463966370e-02 7.660881280899047852e-01
9.520000000000000000e+02 5.910919952392578125e+01 -1.004092407226562500e+01 -6.383221149444580078e-01 9.237376451492309570e-01 8.562465757131576538e-02 1.094296455383300781e+00
9.530000000000000000e+02 5.293556594848632812e+01 -1.193584823608398438e+01 1.198999404907226562e+00 6.150230765342712402e-01 5.442067384719848633e-01 2.072722673416137695e+00
9.540000000000000000e+02 7.593270111083984375e+01 -1.966910362243652344e+00 -2.347389981150627136e-02 -7.638756632804870605e-01 -2.362048774957656860e-01 -6.112409830093383789e-01
9.550000000000000000e+02 6.127187347412109375e+01 -6.903235912322998047e+00 -7.381311058998107910e-01 1.198838591575622559e+00 1.382122337818145752e-01 6.718875765800476074e-01
9.560000000000000000e+02 5.704224777221679688e+01 -5.778085708618164062e+00 -1.074828743934631348e+00 1.797162175178527832e+00 2.167000323534011841e-01 1.063815236091613770e+00
9.570000000000000000e+02 3.165307426452636719e+01 -7.514323234558105469e+00 -2.603108406066894531e+00 3.212953090667724609e+00 1.829534173011779785e-01 -1.051511883735656738e+00
9.580000000000000000e+02 3.062616920471191406e+01 -1.502227544784545898e+00 2.953834056854248047e+00 1.077189326286315918e+00 1.209306955337524414e+00 1.288023471832275391e+00
9.590000000000000000e+02 2.949887084960937500e+01 -2.328078508377075195e+00 1.989291548728942871e+00 6.792939901351928711e-01 8.005756735801696777e-01 1.054366707801818848e+00
9.600000000000000000e+02 2.332476043701171875e+01 -8.244638442993164062e+00 -2.737435102462768555e-01 3.459193706512451172e-01 2.165275253355503082e-02 5.677831768989562988e-01
9.610000000000000000e+02 2.596061134338378906e+01 -6.995778560638427734e+00 -6.509727239608764648e-01 2.894712984561920166e-01 -1.084504425525665283e-01 1.025646805763244629e+00
9.620000000000000000e+02 2.667437934875488281e+01 -1.836627483367919922e+00 1.005711436271667480e+00 -1.844717413187026978e-01 2.463719248771667480e-01 5.137557983398437500e-01
9.630000000000000000e+02 2.478841209411621094e+01 -3.014840126037597656e+00 4.386271536350250244e-01 -4.278285056352615356e-02 1.187532842159271240e-01 7.725470662117004395e-01
9.640000000000000000e+02 1.943912696838378906e+01 -7.900979995727539062e+00 1.271661370992660522e-01 5.210320353507995605e-01 1.944594532251358032e-01 6.901630163192749023e-01
9.650000000000000000e+02 2.722249603271484375e+01 -7.726934432983398438e+00 -1.863754272460937500e+00 5.905224010348320007e-02 -5.414106249809265137e-01 4.923126399517059326e-01
9.660000000000000000e+02 7.050757598876953125e+01 1.408557534217834473e+00 8.721271157264709473e-02 5.157320499420166016e-01 1.808834373950958252e-01 -7.458227276802062988e-01
9.670000000000000000e+02 7.587171173095703125e+01 -7.048682570457458496e-01 -7.759171538054943085e-03 -8.678838610649108887e-01 -2.626928985118865967e-01 -6.163441538810729980e-01
9.680000000000000000e+02 6.753935241699218750e+01 1.376260519027709961e+00 1.158645376563072205e-01 1.388226032257080078e+00 4.512271583080291748e-01 -5.167711973190307617e-01
9.690000000000000000e+02 5.961061096191406250e+01 -4.388897418975830078e+00 -6.589630246162414551e-01 1.830062031745910645e+00 3.513296842575073242e-01 6.462975144386291504e-01
9.700000000000000000e+02 5.634863662719726562e+01 -6.466720104217529297e-01 1.041530489921569824e+00 2.226151227951049805e+00 9.803045392036437988e-01 1.477253079414367676e+00
9.710000000000000000e+02 7.823532104492187500e+01 -3.180350542068481445e+00 -1.216648984700441360e-02 -1.040053009986877441e+00 -3.156658411026000977e-01 -3.042189776897430420e-01
9.720000000000000000e+02 7.142677307128906250e+01 4.654441356658935547e+00 2.420709282159805298e-01 3.333741724491119385e-01 1.726335287094116211e-01 -6.845246553421020508e-01
9.730000000000000000e+02 6.360236740112304688e+01 4.518454551696777344e+00 6.171677112579345703e-01 3.334193468093872070e+00 1.185408353805541992e+00 3.929399549961090088e-01
9.740000000000000000e+02 6.014297103881835938e+01 -1.556548774242401123e-01 3.233698606491088867e-01 2.311745882034301758e+00 7.905346751213073730e-01 8.897674083709716797e-01
9.750000000000000000e+02 5.738026809692382812e+01 -1.420571446418762207e+00 5.865350961685180664e-01 2.041823148727416992e+00 7.885074615478515625e-01 1.023604273796081543e+00
9.760000000000000000e+02 7.939932250976562500e+01 -3.301298916339874268e-01 1.856469199992716312e-03 -1.777475118637084961e+00 -5.326855778694152832e-01 -1.116847395896911621e-01
9.770000000000000000e+02 7.543652343750000000e+01 5.810845375061035156e+00 1.154637187719345093e-01 -1.267668366432189941e+00 -3.456614017486572266e-01 -5.535082817077636719e-01
9.780000000000000000e+02 6.361600112915039062e+01 7.450885772705078125e+00 6.837108731269836426e-01 4.185611724853515625e+00 1.460796713829040527e+00 4.397108852863311768e-01
9.790000000000000000e+02 6.637119293212890625e+01 7.551892280578613281e+00 5.727158784866333008e-01 2.782535076141357422e+00 1.006575345993041992e+00 -1.121909990906715393e-01
9.800000000000000000e+02 5.959429931640625000e+01 3.846815109252929688e+00 1.247674226760864258e+00 3.176382780075073242e+00 1.327217102050781250e+00 1.947124600410461426e+00
9.810000000000000000e+02 7.812712097167968750e+01 3.651481151580810547e+00 1.738307997584342957e-02 -2.079024791717529297e+00 -6.184924840927124023e-01 -3.162579834461212158e-01
9.820000000000000000e+02 7.109333801269531250e+01 1.288041400909423828e+01 5.627993345260620117e-01 5.079254508018493652e-01 3.212174475193023682e-01 -1.784941107034683228e-01
9.830000000000000000e+02 7.420205688476562500e+01 9.210452079772949219e+00 2.196071147918701172e-01 -8.676623106002807617e-01 -1.944165676832199097e-01 -4.152923524379730225e-01
9.840000000000000000e+02 6.434249114990234375e+01 1.169419097900390625e+01 5.935783386230468750e-01 4.893220424652099609e+00 1.646039605140686035e+00 2.037345767021179199e-01
9.850000000000000000e+02 6.503051757812500000e+01 1.089894294738769531e+01 6.329472064971923828e-01 4.249557971954345703e+00 1.464751482009887695e+00 1.017636507749557495e-01
9.860000000000000000e+02 7.933041381835937500e+01 6.652355194091796875e+00 3.527597757056355476e-03 -3.048758268356323242e+00 -9.135692119598388672e-01 -8.467572182416915894e-02
9.870000000000000000e+02 7.461957550048828125e+01 1.197841835021972656e+01 2.615590095520019531e-01 -1.117988705635070801e+00 -2.569289207458496094e-01 -2.210039943456649780e-01
9.880000000000000000e+02 6.683130645751953125e+01 1.488487911224365234e+01 8.509614467620849609e-01 3.162548780441284180e+00 1.204053044319152832e+00 -1.491810381412506104e-01
9.890000000000000000e+02 7.112894439697265625e+01 1.798412513732910156e+01 5.699900984764099121e-01 5.482577681541442871e-01 3.354743719100952148e-01 3.012158870697021484e-01
9.900000000000000000e+02 7.301848602294921875e+01 1.719054412841796875e+01 4.245946705341339111e-01 -4.413224756717681885e-01 -5.018334370106458664e-03 2.034363746643066406e-01
9.910000000000000000e+02 6.727276611328125000e+01 1.603547477722167969e+01 9.491602778434753418e-01 2.660802364349365234e+00 1.082988739013671875e+00 -1.348105370998382568e-01
9.920000000000000000e+02 7.793337249755859375e+01 1.405496120452880859e+01 5.385327339172363281e-02 -2.903868675231933594e+00 -8.550046086311340332e-01 -1.455189846456050873e-02
9.930000000000000000e+02 7.420533752441406250e+01 2.182852363586425781e+01 1.714677661657333374e-01 -8.199123144149780273e-01 -1.945333629846572876e-01 5.433757901191711426e-01
9.940000000000000000e+02 6.481764984130859375e+01 2.199246597290039062e+01 5.818961858749389648e-01 3.177573204040527344e+00 1.127840876579284668e+00 7.773945480585098267e-02
9.950000000000000000e+02 6.779509735107421875e+01 2.046166229248046875e+01 7.758474946022033691e-01 2.034219741821289062e+00 8.430201411247253418e-01 3.868670165538787842e-01
9.960000000000000000e+02 7.411875915527343750e+01 2.468144989013671875e+01 9.466593153774738312e-03 -6.880649328231811523e-01 -2.035795003175735474e-01 6.062040328979492188e-01
9.970000000000000000e+02 6.585053253173828125e+01 2.347373390197753906e+01 1.571290343999862671e-01 2.442699432373046875e+00 7.799485325813293457e-01 2.906740605831146240e-01
9.980000000000000000e+02 6.817470550537109375e+01 2.397083091735839844e+01 6.822195649147033691e-02 1.538325786590576172e+00 4.819643199443817139e-01 5.483706593513488770e-01
9.990000000000000000e+02 5.038073730468750000e+01 2.132979202270507812e+01 -1.410752236843109131e-01 5.441526696085929871e-02 -2.599798701703548431e-02 2.973071858286857605e-02
1.000000000000000000e+03 7.737467765808105469e+00 2.240457344055175781e+01 -5.800947546958923340e-02 2.237508259713649750e-02 -1.069031748920679092e-02 6.038804352283477783e-02
1.001000000000000000e+03 4.092639446258544922e+00 1.902839088439941406e+01 -1.510433852672576904e-02 -7.565305568277835846e-03 -6.800893228501081467e-03 2.142935618758201599e-02
1.002000000000000000e+03 9.015686035156250000e+00 1.894087219238281250e+01 -5.568304657936096191e-02 1.638098061084747314e-02 -1.179062016308307648e-02 1.251514721661806107e-02
1.003000000000000000e+03 6.169704198837280273e-01 2.055822181701660156e+01 -8.468727464787662029e-04 -2.083079889416694641e-02 -6.503301672637462616e-03 6.298410240560770035e-03
1.004000000000000000e+03 7.261554718017578125e+01 2.636304283142089844e+01 -6.639730930328369141e-02 -1.417310237884521484e-01 -6.243849545717239380e-02 6.479842066764831543e-01
1.005000000000000000e+03 7.433827209472656250e+01 2.696060371398925781e+01 -4.270115867257118225e-02 -6.594495773315429688e-01 -2.106452286243438721e-01 6.036009788513183594e-01
1.006000000000000000e+03 6.587329864501953125e+01 2.982139015197753906e+01 -4.230555593967437744e-01 1.520427465438842773e+00 3.292115628719329834e-01 2.023723572492599487e-01
1.007000000000000000e+03 6.760732269287109375e+01 2.944942283630371094e+01 -3.840406537055969238e-01 1.254088997840881348e+00 2.610144913196563721e-01 3.613157868385314941e-01
1.008000000000000000e+03 5.949386215209960938e+01 2.741960144042968750e+01 5.231341347098350525e-02 1.819952249526977539e+00 5.616797208786010742e-01 -8.439045548439025879e-01
1.009000000000000000e+03 5.774081420898437500e+01 2.677000427246093750e+01 2.938331067562103271e-01 1.345420122146606445e+00 4.917759895324707031e-01 -8.132347464561462402e-01
1.010000000000000000e+03 5.418277740478515625e+01 2.335576057434082031e+01 4.042913019657135010e-01 2.040609568357467651e-01 1.825056821107864380e-01 -3.016708493232727051e-01
1.011000000000000000e+03 4.932214355468750000e+01 2.520248031616210938e+01 3.826474547386169434e-01 6.224972009658813477e-01 3.015434145927429199e-01 2.305420637130737305e-01
1.012000000000000000e+03 4.599979019165039062e+01 2.426024246215820312e+01 3.319727778434753418e-01 9.943482279777526855e-01 3.978962898254394531e-01 6.200746893882751465e-01
1.013000000000000000e+03 4.317614364624023438e+01 2.362380027770996094e+01 3.566068410873413086e-01 1.582685112953186035e+00 5.817875862121582031e-01 9.542530179023742676e-01
1.014000000000000000e+03 3.905176925659179688e+01 2.574695396423339844e+01 -6.532643735408782959e-02 2.881455898284912109e+00 8.448388576507568359e-01 8.751399517059326172e-01
1.015000000000000000e+03 3.716732788085937500e+01 2.197275352478027344e+01 1.708977222442626953e-01 3.803594827651977539e+00 1.192347764968872070e+00 1.041601538658142090e+00
1.016000000000000000e+03 3.167840766906738281e+01 2.477877426147460938e+01 -2.639783322811126709e-01 4.197630882263183594e+00 1.180095791816711426e+00 -5.517677664756774902e-01
1.017000000000000000e+03 2.962698745727539062e+01 2.200268554687500000e+01 8.754567503929138184e-01 4.300344467163085938e+00 1.552740335464477539e+00 -1.689124226570129395e+00
1.018000000000000000e+03 1.414894485473632812e+01 2.401301574707031250e+01 -1.250239610671997070e-01 6.066174805164337158e-02 -1.930866390466690063e-02 6.616393476724624634e-02
1.019000000000000000e+03 1.305801773071289062e+01 2.516283035278320312e+01 -5.891426280140876770e-02 7.737117260694503784e-02 5.537072196602821350e-03 8.372876793146133423e-02
1.020000000000000000e+03 4.455029010772705078e+00 2.436441612243652344e+01 -1.817109808325767517e-02 -3.448558598756790161e-02 -1.579700596630573273e-02 6.419571489095687866e-02
1.021000000000000000e+03 6.333302855491638184e-01 2.334832763671875000e+01 -8.597825071774423122e-04 -6.038289889693260193e-02 -1.837280392646789551e-02 1.099246274679899216e-02
1.022000000000000000e+03 7.811087036132812500e+01 2.365088844299316406e+01 3.913723863661289215e-03 -2.331585645675659180e+00 -6.983015537261962891e-01 2.788710594177246094e-01
1.023000000000000000e+03 7.076741027832031250e+01 3.302025604248046875e+01 -3.248458504676818848e-01 3.698633909225463867e-01 1.350525952875614166e-02 3.962120413780212402e-01
1.024000000000000000e+03 7.406542968750000000e+01 3.026878929138183594e+01 -1.480193883180618286e-01 -4.095710217952728271e-01 -1.672771126031875610e-01 4.960838854312896729e-01
1.025000000000000000e+03 6.311939239501953125e+01 3.177018928527832031e+01 -4.522459506988525391e-01 1.595413446426391602e+00 3.429502546787261963e-01 -1.554045677185058594e-01
1.026000000000000000e+03 5.684508895874023438e+01 2.910686492919921875e+01 1.039855480194091797e-01 1.337875127792358398e+00 4.325582087039947510e-01 -6.777698397636413574e-01
1.027000000000000000e+03 5.315968322753906250e+01 2.945959663391113281e+01 3.328597843647003174e-01 1.020013689994812012e+00 4.058620631694793701e-01 -3.157364428043365479e-01
1.028000000000000000e+03 4.485507965087890625e+01 2.897898674011230469e+01 1.244703978300094604e-01 1.609205245971679688e+00 5.201026797294616699e-01 5.698366165161132812e-01
1.029000000000000000e+03 3.503343582153320312e+01 2.999439430236816406e+01 -5.437753200531005859e-01 3.091764926910400391e+00 7.643968462944030762e-01 1.567145287990570068e-01
1.030000000000000000e+03 2.746227264404296875e+01 3.074554252624511719e+01 -2.707067430019378662e-01 2.167246580123901367e+00 5.689619779586791992e-01 -6.825147271156311035e-01
1.031000000000000000e+03 2.656090545654296875e+01 2.746953964233398438e+01 3.163672983646392822e-02 1.873924493789672852e+00 5.716683864593505859e-01 -1.028581857681274414e+00
1.032000000000000000e+03 2.025369262695312500e+01 2.744340896606445312e+01 1.778796613216400146e-01 4.064786434173583984e-01 1.753074824810028076e-01 -3.331811130046844482e-01
1.033000000000000000e+03 7.801471710205078125e+00 2.811535072326660156e+01 -3.965069772675633430e-04 1.133756805211305618e-02 3.282318124547600746e-03 9.210014343261718750e-02
1.034000000000000000e+03 4.917078018188476562e+00 2.689578437805175781e+01 -8.913691155612468719e-03 -4.473266750574111938e-02 -1.609390787780284882e-02 8.162989467382431030e-02
1.035000000000000000e+03 6.821642518043518066e-01 2.756681823730468750e+01 2.820176887325942516e-04 -1.512072235345840454e-01 -4.527756199240684509e-02 1.607555709779262543e-02
1.036000000000000000e+03 7.784405517578125000e+01 2.631917953491210938e+01 -1.521858759224414825e-02 -1.908141136169433594e+00 -5.770078897476196289e-01 3.221567571163177490e-01
1.037000000000000000e+03 7.419842529296875000e+01 3.271903610229492188e+01 -1.666886210441589355e-01 -4.309954345226287842e-01 -1.793052107095718384e-01 3.775924742221832275e-01
1.038000000000000000e+03 5.626372146606445312e+01 3.175678634643554688e+01 -1.128442119807004929e-03 1.367347121238708496e+00 4.098656177520751953e-01 -3.782730400562286377e-01
1.039000000000000000e+03 5.115110397338867188e+01 3.117553520202636719e+01 2.183524072170257568e-01 1.200030565261840820e+00 4.255148768424987793e-01 -3.279429301619529724e-02
1.040000000000000000e+03 4.287355041503906250e+01 3.267017745971679688e+01 -1.927672177553176880e-01 2.101028680801391602e+00 5.724784135818481445e-01 4.275869131088256836e-01
1.041000000000000000e+03 3.630352783203125000e+01 3.182598114013671875e+01 -5.232595205307006836e-01 2.815353870391845703e+00 6.876282691955566406e-01 2.679778039455413818e-01
1.042000000000000000e+03 2.236919212341308594e+01 3.207249069213867188e+01 1.188517734408378601e-02 1.101686596870422363e+00 3.340715169906616211e-01 -4.717143177986145020e-01
1.043000000000000000e+03 1.938526153564453125e+01 3.239121246337890625e+01 9.828025847673416138e-02 6.562013626098632812e-01 2.263444811105728149e-01 -2.596164345741271973e-01
1.044000000000000000e+03 1.117432498931884766e+01 3.246772384643554688e+01 6.438554078340530396e-02 1.506228893995285034e-01 6.450252979993820190e-02 4.006619751453399658e-02
1.045000000000000000e+03 8.257122039794921875e+00 3.178424453735351562e+01 3.995133191347122192e-02 4.141878709197044373e-02 2.441103570163249969e-02 7.229412347078323364e-02
1.046000000000000000e+03 5.113379955291748047e+00 3.110105895996093750e+01 1.839644648134708405e-02 -7.685532420873641968e-02 -1.753766275942325592e-02 7.894355058670043945e-02
1.047000000000000000e+03 7.242507338523864746e-01 3.039205932617187500e+01 2.692047564778476954e-04 -2.183798700571060181e-01 -6.543319672346115112e-02 1.707105338573455811e-02
1.048000000000000000e+03 7.738022613525390625e+01 3.043253517150878906e+01 -1.786664500832557678e-02 -1.343660116195678711e+00 -4.084580242633819580e-01 3.101980984210968018e-01
1.049000000000000000e+03 6.675562286376953125e+01 3.824775695800781250e+01 -4.096253812313079834e-01 8.392118215560913086e-01 1.288759410381317139e-01 7.695832103490829468e-02
1.050000000000000000e+03 6.960713863372802734e-01 3.462944030761718750e+01 6.707013119012117386e-03 -2.965543270111083984e-01 -8.695419132709503174e-02 6.311326753348112106e-03
1.051000000000000000e+03 7.570223236083984375e+01 3.404571914672851562e+01 -8.844666928052902222e-02 -7.399990558624267578e-01 -2.485337257385253906e-01 2.833613157272338867e-01
1.052000000000000000e+03 4.381478118896484375e+01 3.817367935180664062e+01 -2.939583957195281982e-01 2.022806167602539062e+00 5.186543464660644531e-01 1.529117673635482788e-01
1.053000000000000000e+03 7.408813238143920898e-01 3.735308074951171875e+01 6.086158100515604019e-03 -3.106811046600341797e-01 -9.137848019599914551e-02 -6.421647267416119576e-04
1.054000000000000000e+03 4.383907318115234375e+00 1.342193603515625000e+01 -3.140538465231657028e-03 -1.988745993003249168e-03 -1.538785407319664955e-03 4.239285481162369251e-04
1.055000000000000000e+03 8.103786468505859375e+00 1.459628486633300781e+01 -1.331397145986557007e-02 -9.086045320145785809e-04 -4.266772884875535965e-03 1.226895721629261971e-03
1.056000000000000000e+03 6.166382431983947754e-01 1.633501625061035156e+01 -4.562090616673231125e-04 4.202319309115409851e-03 1.123833120800554752e-03 1.309016370214521885e-03
1.057000000000000000e+03 4.093035221099853516e+00 1.059487247467041016e+01 -3.557438321877270937e-04 -2.740209747571498156e-04 -1.889294508146122098e-04 -1.366073382087051868e-03
1.058000000000000000e+03 9.850831985473632812e+00 1.258239269256591797e+01 -3.745377995073795319e-03 -3.261418081820011139e-03 -2.102038823068141937e-03 -7.319330470636487007e-04
1.059000000000000000e+03 6.229016780853271484e-01 1.350333499908447266e+01 1.453680761187570170e-05 6.497516762465238571e-03 1.953616039827466011e-03 -2.661412690940778702e-05
1.060000000000000000e+03 3.487536668777465820e+00 5.504899501800537109e+00 6.582174100913107395e-04 3.922484174836426973e-04 3.151397395413368940e-04 -1.150629715994000435e-03
1.061000000000000000e+03 1.023367214202880859e+01 6.181531906127929688e+00 8.265905780717730522e-04 -6.720564560964703560e-04 4.636022640625014901e-05 9.220348438248038292e-04
1.062000000000000000e+03 1.657883453369140625e+01 6.274403095245361328e+00 -1.027251346386037767e-04 1.176838763058185577e-03 3.222340892534703016e-04 4.151894536335021257e-04
1.063000000000000000e+03 1.224184036254882812e+01 5.432963371276855469e+00 4.021251879748888314e-05 -3.035375266335904598e-04 -7.899750198703259230e-05 9.723189286887645721e-04
1.064000000000000000e+03 6.057876944541931152e-01 9.271700859069824219e+00 -3.144081274513155222e-04 3.826404223218560219e-03 1.053598825819790363e-03 -4.649658221751451492e-04
1.065000000000000000e+03 5.768345832824707031e+00 1.897852540016174316e+00 9.012250811792910099e-04 -1.138949664891697466e-04 2.361990336794406176e-04 -3.136555314995348454e-04
1.066000000000000000e+03 8.846062660217285156e+00 2.567928791046142578e+00 8.559460984542965889e-04 -4.094715113751590252e-04 1.339423615718260407e-04 1.373789564240723848e-04
1.067000000000000000e+03 6.316040754318237305e-01 6.432897090911865234e+00 -2.049827890004962683e-04 1.815459341742098331e-03 4.831429687328636646e-04 -3.523967752698808908e-04
1.068000000000000000e+03 1.976559829711914062e+01 4.113647460937500000e+00 5.776325997430831194e-05 2.276717714266851544e-04 8.563051233068108559e-05 5.194849654799327254e-05
1.069000000000000000e+03 3.294303894042968750e+01 1.664361763000488281e+01 9.454768300056457520e-01 8.867637634277343750e+00 2.943934440612792969e+00 -1.744291067123413086e+00
1.070000000000000000e+03 3.664482879638671875e+01 9.707864761352539062e+00 4.562951326370239258e-01 7.949448108673095703e+00 2.521722793579101562e+00 1.468371987342834473e+00
1.071000000000000000e+03 3.616154861450195312e+01 1.223313617706298828e+01 5.475494861602783203e-01 8.660477638244628906e+00 2.762408256530761719e+00 1.147305250167846680e+00
1.072000000000000000e+03 3.485794067382812500e+01 6.736720561981201172e+00 5.709589123725891113e-01 1.725559234619140625e+01 5.347965240478515625e+00 3.918503522872924805e-01
1.073000000000000000e+03 3.864685440063476562e+01 7.099071979522705078e+00 -1.059576272964477539e-01 -8.025240898132324219e-01 -2.725445032119750977e-01 4.781946837902069092e-01
1.074000000000000000e+03 3.702028274536132812e+01 6.941116809844970703e+00 3.181813359260559082e-01 6.570965766906738281e+00 2.066744089126586914e+00 1.070269346237182617e+00
1.075000000000000000e+03 9.568043708801269531e+00 -1.849168896675109863e+00 -6.767318248748779297e-01 2.328042872250080109e-02 -1.960354298353195190e-01 -1.983362287282943726e-01
1.076000000000000000e+03 1.183870124816894531e+01 -1.843829274177551270e+00 -8.117498159408569336e-01 3.006502054631710052e-02 -2.345054447650909424e-01 -1.277690529823303223e-01
1.077000000000000000e+03 1.489824771881103516e+01 -1.776340126991271973e+00 -8.194021582603454590e-01 4.899578914046287537e-02 -2.311219125986099243e-01 5.019209906458854675e-02
1.078000000000000000e+03 1.792327117919921875e+01 -2.359878778457641602e+00 -4.893181025981903076e-01 1.574349701404571533e-01 -9.956493973731994629e-02 3.318876624107360840e-01
1.079000000000000000e+03 2.319797515869140625e+01 -2.409629583358764648e+00 1.835187226533889771e-01 1.494128443300724030e-02 5.953800305724143982e-02 5.997768044471740723e-01
1.080000000000000000e+03 4.622480869293212891e+00 -1.483134269714355469e+01 1.745010316371917725e-01 -4.675041735172271729e-01 -8.790094405412673950e-02 -1.845878213644027710e-01
1.081000000000000000e+03 1.244045448303222656e+01 -1.338234043121337891e+01 6.400194168090820312e-01 1.299118518829345703e+00 5.817413926124572754e-01 3.745412826538085938e-02
1.082000000000000000e+03 1.686336326599121094e+01 -1.245835018157958984e+01 1.659713864326477051e+00 1.416127204895019531e+00 9.227523207664489746e-01 1.276028990745544434e+00
1.083000000000000000e+03 1.566128826141357422e+01 -1.266671085357666016e+01 1.210659623146057129e+00 1.746592402458190918e+00 8.871755599975585938e-01 1.022158622741699219e+00
1.084000000000000000e+03 8.892184257507324219e+00 -1.680386924743652344e+01 4.638898968696594238e-01 5.704650878906250000e-01 3.103064894676208496e-01 -1.798980124294757843e-02
1.085000000000000000e+03 8.781484603881835938e+00 -1.757685852050781250e+01 4.542008638381958008e-01 5.420793294906616211e-01 2.988840341567993164e-01 2.675134874880313873e-02
1.086000000000000000e+03 1.214962005615234375e+01 -2.135287094116210938e+01 5.593527555465698242e-01 1.488983750343322754e+00 6.145009398460388184e-01 4.524942114949226379e-02
1.087000000000000000e+03 1.102572250366210938e+01 -1.866069412231445312e+01 5.050165057182312012e-01 1.367845654487609863e+00 5.618586540222167969e-01 1.009666174650192261e-01
1.088000000000000000e+03 4.964395046234130859e+00 -2.224801826477050781e+01 1.006751209497451782e-01 -3.290091753005981445e-01 -6.850022077560424805e-02 2.427589595317840576e-01
1.089000000000000000e+03 1.000763893127441406e+01 -2.127108192443847656e+01 4.093170166015625000e-01 8.790063261985778809e-01 3.864969909191131592e-01 2.180907875299453735e-01
1.090000000000000000e+03 8.132671356201171875e+00 -2.464870262145996094e+01 4.822451621294021606e-02 3.830969631671905518e-01 1.293964385986328125e-01 3.319838643074035645e-01
1.091000000000000000e+03 4.092305183410644531e+00 -3.430788803100585938e+01 -4.936668276786804199e-02 -1.595209985971450806e-01 -6.266630440950393677e-02 1.414967775344848633e-01
1.092000000000000000e+03 1.643667984008789062e+01 -3.468153381347656250e+01 -1.782514005899429321e-01 5.838213562965393066e-01 1.216709837317466736e-01 -1.719456464052200317e-01
1.093000000000000000e+03 4.644952011108398438e+01 -3.489871597290039062e+01 -6.407951116561889648e-01 3.607797145843505859e+00 8.901006579399108887e-01 -7.569933533668518066e-01
1.094000000000000000e+03 5.078873825073242188e+01 -3.491747283935546875e+01 -9.269771724939346313e-02 1.888070940971374512e+00 5.386119484901428223e-01 -9.355132579803466797e-01
1.095000000000000000e+03 6.120990753173828125e+01 -3.567116165161132812e+01 7.900983840227127075e-02 6.536788493394851685e-02 4.331331700086593628e-02 7.477443665266036987e-02
1.096000000000000000e+03 6.706905364990234375e+01 -3.861487579345703125e+01 9.879374504089355469e-02 -7.095102220773696899e-03 2.750959247350692749e-02 6.080321595072746277e-02
1.097000000000000000e+03 6.569462299346923828e+00 -3.798025894165039062e+01 -9.027480334043502808e-02 7.187879085540771484e-02 -5.518803838640451431e-03 8.221223205327987671e-02
1.098000000000000000e+03 9.299760818481445312e+00 -3.819531250000000000e+01 -1.268204301595687866e-01 2.255406379699707031e-01 2.961606532335281372e-02 4.470665007829666138e-02
1.099000000000000000e+03 7.503772735595703125e+01 -3.775632095336914062e+01 1.924213580787181854e-02 -5.800992622971534729e-02 -1.163033675402402878e-02 3.379137814044952393e-02
1.100000000000000000e+03 6.902141571044921875e+01 -1.471163749694824219e+01 -2.920212447643280029e-01 3.801759704947471619e-02 -7.620108872652053833e-02 7.830373942852020264e-02
1.101000000000000000e+03 3.237937545776367188e+01 -2.725023841857910156e+01 7.441177368164062500e-01 1.569903254508972168e+00 6.942062973976135254e-01 1.070706009864807129e+00
1.102000000000000000e+03 6.864286804199218750e+01 -2.066567230224609375e+01 2.211250830441713333e-03 3.471717704087495804e-03 1.704890513792634010e-03 3.205974062439054251e-04
1.103000000000000000e+03 6.771001434326171875e+01 -2.443747901916503906e+01 -2.638322301208972931e-02 1.030079554766416550e-03 -7.605943363159894943e-03 -9.139968082308769226e-03
1.104000000000000000e+03 6.236294174194335938e+01 -2.863848114013671875e+01 -2.477289885282516479e-01 -5.074246972799301147e-02 -8.954143524169921875e-02 -7.364585250616073608e-02
1.105000000000000000e+03 5.557853317260742188e+01 -3.085859489440917969e+01 -5.713986754417419434e-01 5.407310277223587036e-02 -1.551976799964904785e-01 -1.250731945037841797e-01
1.106000000000000000e+03 5.389855957031250000e+01 -3.097934913635253906e+01 -3.494769334793090820e-01 9.848190099000930786e-02 -7.529851049184799194e-02 -2.168064266443252563e-01
1.107000000000000000e+03 5.157970046997070312e+01 -3.270396423339843750e+01 1.741708964109420776e-01 1.091833233833312988e+00 3.798012435436248779e-01 -1.025592565536499023e+00
1.108000000000000000e+03 4.610631179809570312e+01 -2.749251747131347656e+01 1.817219018936157227e+00 6.172640323638916016e+00 2.396957874298095703e+00 -2.294835567474365234e+00
1.109000000000000000e+03 5.562839889526367188e+01 -1.457592773437500000e+01 1.699587583541870117e+00 1.056704521179199219e-01 5.415773987770080566e-01 5.508781671524047852e-01
1.110000000000000000e+03 5.697346878051757812e+01 -1.440385913848876953e+01 9.645965099334716797e-01 1.396423578262329102e-01 3.312716484069824219e-01 3.603872060775756836e-01
1.111000000000000000e+03 5.962682342529296875e+01 -1.386612701416015625e+01 -1.080562174320220947e-02 1.623239070177078247e-01 4.545548930764198303e-02 1.605478823184967041e-01
1.112000000000000000e+03 6.830715942382812500e+01 -1.474716472625732422e+01 -2.715624570846557617e-01 -2.377515099942684174e-02 -8.860128372907638550e-02 1.417439281940460205e-01
1.113000000000000000e+03 6.971573638916015625e+01 -1.463934516906738281e+01 -3.113612234592437744e-01 4.846540838479995728e-02 -7.886873930692672729e-02 5.596823990345001221e-02
1.114000000000000000e+03 7.275652313232421875e+01 -1.366941356658935547e+01 -2.696229517459869385e-01 4.109897091984748840e-02 -6.855719536542892456e-02 -9.715802222490310669e-02
1.115000000000000000e+03 7.357773590087890625e+01 -1.442723274230957031e+01 -1.932750642299652100e-01 5.859148688614368439e-03 -5.622477456927299500e-02 -7.670801132917404175e-02
1.116000000000000000e+03 7.431883239746093750e+01 -1.379246425628662109e+01 -1.818004846572875977e-01 -1.226747408509254456e-03 -5.490816757082939148e-02 -1.170884445309638977e-01
1.117000000000000000e+03 7.584786224365234375e+01 -1.451508235931396484e+01 -8.678445219993591309e-02 -9.857401251792907715e-03 -2.899255603551864624e-02 -6.349433213472366333e-02
1.118000000000000000e+03 7.653516387939453125e+01 -1.452473640441894531e+01 -7.545020431280136108e-02 -2.069411240518093109e-02 -2.884329482913017273e-02 -5.317959189414978027e-02
1.119000000000000000e+03 7.839165496826171875e+01 -1.449212551116943359e+01 -1.590306125581264496e-02 -2.340544760227203369e-02 -1.179255265742540359e-02 -1.909189112484455109e-02
1.120000000000000000e+03 7.942636108398437500e+01 -1.148679256439208984e+01 -3.299000440165400505e-03 -1.021581217646598816e-01 -3.163713589310646057e-02 -3.531913086771965027e-02
1.121000000000000000e+03 7.901123046875000000e+01 -1.439156341552734375e+01 -8.570770733058452606e-03 -1.556413806974887848e-02 -7.240472361445426941e-03 -8.371151052415370941e-03
1.122000000000000000e+03 7.966348266601562500e+01 -1.430894565582275391e+01 1.089652301743626595e-03 5.633387248963117599e-03 2.016911748796701431e-03 -1.271029323106631637e-04
1.123000000000000000e+03 7.488267517089843750e+01 4.014599990844726562e+01 -1.197045966982841492e-01 -4.825004935264587402e-01 -1.806615293025970459e-01 6.206710636615753174e-02
1.124000000000000000e+03 7.870935821533203125e+01 4.001485443115234375e+01 2.762411721050739288e-02 -8.956665396690368652e-01 -2.604127228260040283e-01 7.020685076713562012e-02
1.125000000000000000e+03 7.662134552001953125e+01 3.877386856079101562e+01 -3.192995488643646240e-02 -8.408508896827697754e-01 -2.618342638015747070e-01 1.304384469985961914e-01
1.126000000000000000e+03 7.908403778076171875e+01 3.478802490234375000e+01 -1.312110386788845062e-02 -1.289179086685180664e+00 -3.906900584697723389e-01 8.615865558385848999e-02
1.127000000000000000e+03 7.918001556396484375e+01 2.914787864685058594e+01 5.477139726281166077e-03 -1.945247054100036621e+00 -5.819309949874877930e-01 1.207094416022300720e-01
1.128000000000000000e+03 7.922957611083984375e+01 2.775820732116699219e+01 -1.198869198560714722e-02 -2.159262180328369141e+00 -6.513752341270446777e-01 1.251844465732574463e-01
1.129000000000000000e+03 7.937939453125000000e+01 2.221691322326660156e+01 5.302508827298879623e-03 -3.100730895996093750e+00 -9.286285042762756348e-01 9.649017453193664551e-02
1.130000000000000000e+03 7.814150238037109375e+01 2.096737289428710938e+01 1.999127306044101715e-02 -2.666884422302246094e+00 -7.940679788589477539e-01 2.300140857696533203e-01
1.131000000000000000e+03 7.937563323974609375e+01 1.804875183105468750e+01 4.289497621357440948e-03 -3.603926181793212891e+00 -1.079890966415405273e+00 5.384370684623718262e-02
1.132000000000000000e+03 7.804341888427734375e+01 1.686868667602539062e+01 4.278593510389328003e-02 -2.918795824050903320e+00 -8.628029227256774902e-01 9.431916475296020508e-02
1.133000000000000000e+03 7.922595214843750000e+01 1.097447299957275391e+01 4.407647997140884399e-03 -3.537781000137329102e+00 -1.060011982917785645e+00 -5.258288607001304626e-02
1.134000000000000000e+03 7.764084625244140625e+01 9.420360565185546875e+00 4.766575619578361511e-02 -2.500355720520019531e+00 -7.358070015907287598e-01 -2.225411087274551392e-01
1.135000000000000000e+03 7.801077270507812500e+01 6.432574272155761719e+00 2.404737845063209534e-02 -2.415071487426757812e+00 -7.173072099685668945e-01 -2.787070274353027344e-01
1.136000000000000000e+03 7.937136840820312500e+01 3.848404884338378906e+00 2.970041474327445030e-03 -2.590665102005004883e+00 -7.763084769248962402e-01 -1.019205525517463684e-01
1.137000000000000000e+03 7.816011047363281250e+01 2.276020765304565430e+00 1.097487006336450577e-02 -1.883995890617370605e+00 -5.619062781333923340e-01 -3.241428136825561523e-01
1.138000000000000000e+03 7.940859985351562500e+01 -3.110572338104248047e+00 2.670556772500276566e-03 -1.230771899223327637e+00 -3.684304058551788330e-01 -1.057146564126014709e-01
1.139000000000000000e+03 7.823278045654296875e+01 -4.540438652038574219e+00 -1.078862510621547699e-02 -8.409972190856933594e-01 -2.555357515811920166e-01 -2.901265621185302734e-01
1.140000000000000000e+03 7.822589111328125000e+01 -7.242174625396728516e+00 -2.110494486987590790e-02 -4.938411414623260498e-01 -1.544838249683380127e-01 -2.319391071796417236e-01
1.141000000000000000e+03 7.823957061767578125e+01 -1.131733512878417969e+01 -3.266797587275505066e-02 -1.411387175321578979e-01 -5.214200913906097412e-02 -1.067624837160110474e-01
1.142000000000000000e+03 3.993985652923583984e-01 2.164605379104614258e+00 1.546405837871134281e-04 2.426849387120455503e-04 1.191976552945561707e-04 -1.014112494885921478e-04
1.143000000000000000e+03 6.375172734260559082e-01 4.960214614868164062e+00 2.529544581193476915e-04 1.084029790945351124e-03 4.010952834505587816e-04 -3.086332289967685938e-04
1.144000000000000000e+03 1.903753638267517090e+00 6.434266090393066406e+00 3.522846964187920094e-04 1.246027066372334957e-03 4.794935230165719986e-04 -9.307933505624532700e-04
1.145000000000000000e+03 1.796595454216003418e+00 9.276041030883789062e+00 2.848515287041664124e-04 2.172678010538220406e-03 7.372588734142482281e-04 -1.219126046635210514e-03
1.146000000000000000e+03 6.165453791618347168e-01 1.209154129028320312e+01 -3.635685425251722336e-04 5.962757859379053116e-03 1.679756795056164265e-03 -4.276725812815129757e-04
1.147000000000000000e+03 1.844687581062316895e+00 1.206654548645019531e+01 -2.304241061210632324e-04 2.744099590927362442e-03 7.541026570834219456e-04 -6.356427329592406750e-04
1.148000000000000000e+03 1.834907531738281250e+00 1.632547760009765625e+01 -2.159232040867209435e-03 -1.003415905870497227e-03 -9.487943607382476330e-04 3.869545878842473030e-03
1.149000000000000000e+03 1.819029331207275391e+00 1.912660980224609375e+01 -3.825235180556774139e-03 -1.210831385105848312e-02 -4.780064802616834641e-03 1.223155763000249863e-02
1.150000000000000000e+03 6.254143714904785156e-01 2.195402336120605469e+01 -1.222133520059287548e-03 -3.795170783996582031e-02 -1.175215188413858414e-02 8.690069429576396942e-03
1.151000000000000000e+03 6.447499990463256836e-01 2.474951171875000000e+01 -8.896201034076511860e-04 -8.710975944995880127e-02 -2.639981359243392944e-02 1.295596640557050705e-02
1.152000000000000000e+03 6.616206765174865723e-01 2.615860939025878906e+01 -1.206772401928901672e-03 -1.181488409638404846e-01 -3.580668568611145020e-02 1.526476815342903137e-02
1.153000000000000000e+03 7.029111981391906738e-01 2.897629737854003906e+01 -7.584933191537857056e-04 -1.848981082439422607e-01 -5.569698289036750793e-02 1.668962091207504272e-02
1.154000000000000000e+03 2.113761186599731445e+00 2.878464126586914062e+01 7.052519358694553375e-04 -1.407837569713592529e-01 -4.202355444431304932e-02 4.695253446698188782e-02
1.155000000000000000e+03 7.440103292465209961e-01 3.323680114746093750e+01 6.838600966148078442e-04 -2.775123417377471924e-01 -8.304854482412338257e-02 1.402795221656560898e-02
1.156000000000000000e+03 6.714892983436584473e-01 3.599851226806640625e+01 -3.298865165561437607e-03 -3.076523542404174805e-01 -9.328536689281463623e-02 4.441789817065000534e-03
1.157000000000000000e+03 1.330812096595764160e+00 4.002095794677734375e+01 9.199040941894054413e-03 -2.918899655342102051e-01 -8.480727672576904297e-02 -1.279524061828851700e-02
1.158000000000000000e+03 9.606760025024414062e+00 1.856635808944702148e+00 9.521013707853853703e-04 -2.435063506709411740e-04 2.125785103999078274e-04 1.979205553652718663e-04
1.159000000000000000e+03 8.840197563171386719e+00 1.857275247573852539e+00 1.084755291230976582e-03 -7.862873462727293372e-05 3.018379502464085817e-04 1.460344083170639351e-05
1.160000000000000000e+03 6.536446094512939453e+00 1.882555246353149414e+00 8.546367753297090530e-04 -1.228042237926274538e-04 2.195497654611244798e-04 -3.188764676451683044e-04
1.161000000000000000e+03 4.999520301818847656e+00 1.916911005973815918e+00 6.771027110517024994e-04 -3.465335976216010749e-05 1.927348057506605983e-04 -4.953090101480484009e-04
1.162000000000000000e+03 2.648176431655883789e+00 2.086298227310180664e+00 2.651275135576725006e-04 8.403048559557646513e-05 1.047473997459746897e-04 -3.605937527026981115e-04
1.163000000000000000e+03 1.874335169792175293e+00 2.059669733047485352e+00 3.541273472364991903e-04 3.632361185736954212e-04 2.152090310119092464e-04 -2.031545882346108556e-04
1.164000000000000000e+03 1.036205482482910156e+01 1.858628988265991211e+00 9.659486822783946991e-04 1.985137714655138552e-05 2.957400283776223660e-04 2.118703705491498113e-04
1.165000000000000000e+03 1.110297203063964844e+01 2.572925090789794922e+00 7.859935867600142956e-04 5.398106804932467639e-05 2.519924018997699022e-04 3.681840316858142614e-04
1.166000000000000000e+03 1.331875133514404297e+01 1.874687910079956055e+00 5.277721793390810490e-04 2.175013796659186482e-04 2.235820720670744777e-04 3.646686673164367676e-04
1.167000000000000000e+03 1.549482631683349609e+01 1.945598244667053223e+00 1.705522881820797920e-04 -9.137537563219666481e-05 2.375307485635858029e-05 2.353541203774511814e-04
1.168000000000000000e+03 1.620606803894042969e+01 1.987214922904968262e+00 1.467883412260562181e-04 2.898184466175734997e-04 1.309820363530889153e-04 2.246954245492815971e-04
1.169000000000000000e+03 1.761021423339843750e+01 2.141212940216064453e+00 9.312020119978114963e-05 2.183127944590523839e-04 9.342989505967125297e-05 1.703922898741438985e-04
1.170000000000000000e+03 1.900222206115722656e+01 2.334858655929565430e+00 9.807335300138220191e-05 1.100114022847265005e-04 6.242542440304532647e-05 5.903327473788522184e-05
1.171000000000000000e+03 2.072336959838867188e+01 3.556281328201293945e+00 1.362852199235931039e-04 4.633217031368985772e-05 5.478521779878064990e-05 2.428143125143833458e-05
1.172000000000000000e+03 2.105988311767578125e+01 2.735443830490112305e+00 -6.152870628284290433e-05 -3.263622420490719378e-05 -2.824948023771867156e-05 3.724674343175138347e-06
1.173000000000000000e+03 2.323958396911621094e+01 3.530282258987426758e+00 6.012817902956157923e-05 7.500718493247404695e-05 4.054060991620644927e-05 4.467154576559551060e-05
1.174000000000000000e+03 2.237046432495117188e+01 4.418443679809570312e+00 -7.385649223579093814e-05 -1.591113832546398044e-04 -6.989036046434193850e-05 -5.676872024196200073e-05
1.175000000000000000e+03 1.978567504882812500e+01 5.236433029174804688e+00 2.809375000651925802e-04 9.507717913947999477e-05 1.128044023062102497e-04 1.749147486407309771e-04
1.176000000000000000e+03 1.929786682128906250e+01 6.114902019500732422e+00 -5.464315181598067284e-04 7.945771358208730817e-05 -1.400921464664861560e-04 -2.288752293679863214e-04
1.177000000000000000e+03 1.835366630554199219e+01 2.227771949768066406e+01 -4.615113437175750732e-01 -3.966087102890014648e-02 -1.503516733646392822e-01 -1.120774969458580017e-01
1.178000000000000000e+03 2.599154663085937500e+01 2.207780265808105469e+01 9.240443110466003418e-01 4.989634454250335693e-01 4.269023239612579346e-01 -7.089252471923828125e-01
1.179000000000000000e+03 3.125727272033691406e+01 1.731688308715820312e+01 1.581047534942626953e+00 9.039255142211914062e+00 3.186090707778930664e+00 -3.133181810379028320e+00
1.180000000000000000e+03 3.442721939086914062e+01 1.172798442840576172e+01 5.400178432464599609e-01 1.265227031707763672e+01 3.957686662673950195e+00 -6.201324462890625000e-01
1.181000000000000000e+03 3.342647171020507812e+01 8.858184814453125000e+00 6.532910466194152832e-01 2.075349235534667969e+01 6.422034740447998047e+00 -2.411421537399291992e+00
1.182000000000000000e+03 3.421262359619140625e+01 5.250399589538574219e+00 8.724254965782165527e-01 2.353956985473632812e+01 7.323598384857177734e+00 2.816626429557800293e-02
1.183000000000000000e+03 3.367783737182617188e+01 4.263693809509277344e+00 9.411770701408386230e-01 2.829962921142578125e+01 8.772241592407226562e+00 6.946669816970825195e-01
1.184000000000000000e+03 2.879050445556640625e+01 5.176364793442189693e-04 1.341434717178344727e+00 3.455187752842903137e-02 4.127959609031677246e-01 -7.150228321552276611e-02
1.185000000000000000e+03 2.432865715026855469e+01 -3.448844850063323975e-01 4.032798707485198975e-01 -6.878221035003662109e-02 1.003492996096611023e-01 2.287562936544418335e-01
1.186000000000000000e+03 2.278345298767089844e+01 -8.118066787719726562e-01 1.476242542266845703e-01 1.895070821046829224e-02 4.997248947620391846e-02 3.257171213626861572e-01
1.187000000000000000e+03 2.199969482421875000e+01 -1.022133946418762207e+00 3.452522505540400743e-04 9.095621109008789062e-02 2.739044092595577240e-02 3.486061394214630127e-01
1.188000000000000000e+03 1.878869628906250000e+01 -1.528256893157958984e+00 -4.749387204647064209e-01 1.107610687613487244e-01 -1.092532947659492493e-01 2.939648628234863281e-01
1.189000000000000000e+03 2.040157699584960938e+01 -1.345167517662048340e+00 -2.422484755516052246e-01 1.152839586138725281e-01 -3.808935359120368958e-02 3.526873290538787842e-01
1.190000000000000000e+03 1.644070434570312500e+01 -1.707282662391662598e+00 -7.261491417884826660e-01 6.235325336456298828e-02 -1.991387754678726196e-01 1.535787433385848999e-01
1.191000000000000000e+03 1.566818523406982422e+01 -1.750659823417663574e+00 -7.808666229248046875e-01 7.274997234344482422e-02 -2.124350070953369141e-01 1.036741957068443298e-01
1.192000000000000000e+03 1.259745121002197266e+01 -1.836382389068603516e+00 -8.368548154830932617e-01 4.661921784281730652e-02 -2.370706647634506226e-01 -8.595201373100280762e-02
1.193000000000000000e+03 1.032763767242431641e+01 -1.851287007331848145e+00 -7.319272160530090332e-01 2.244787290692329407e-02 -2.128438055515289307e-01 -1.803814619779586792e-01
1.194000000000000000e+03 7.966982841491699219e+00 -2.526873588562011719e+00 -4.687370955944061279e-01 8.003177121281623840e-03 -1.382201761007308960e-01 -2.801135480403900146e-01
1.195000000000000000e+03 7.272682666778564453e+00 -1.846682190895080566e+00 -4.742535054683685303e-01 -4.006227012723684311e-03 -1.434779167175292969e-01 -2.266206592321395874e-01
1.196000000000000000e+03 6.447337150573730469e+00 -2.560160398483276367e+00 -3.479804396629333496e-01 -2.011045999825000763e-02 -1.104272753000259399e-01 -2.850541174411773682e-01
1.197000000000000000e+03 4.241852760314941406e+00 -1.814963102340698242e+00 -2.093544602394104004e-01 -3.306994214653968811e-02 -7.272732257843017578e-02 -1.768627911806106567e-01
1.198000000000000000e+03 2.319860935211181641e+00 -2.936625242233276367e+00 -7.570593804121017456e-02 -1.140058562159538269e-01 -5.691353976726531982e-02 -1.605131775140762329e-01
1.199000000000000000e+03 2.020908832550048828e+00 -2.000539302825927734e+00 -6.227628141641616821e-02 -6.540217995643615723e-02 -3.830353915691375732e-02 -9.264999628067016602e-02
1.200000000000000000e+03 4.209569096565246582e-01 -2.191825628280639648e+00 -8.528864011168479919e-03 -3.211098164319992065e-02 -1.219195313751697540e-02 -1.852607354521751404e-02
1.201000000000000000e+03 5.093570232391357422e+00 -4.029149627685546875e+01 -5.647082999348640442e-02 -5.312745645642280579e-02 -3.287948668003082275e-02 2.049645967781543732e-02
1.202000000000000000e+03 9.653784632682800293e-01 -3.869769287109375000e+01 -3.175990656018257141e-03 -2.513978481292724609e-01 -7.637215405702590942e-02 2.681814879179000854e-02
1.203000000000000000e+03 7.938328385353088379e-01 -3.319734191894531250e+01 -1.485816319473087788e-03 -4.824591279029846191e-01 -1.451834887266159058e-01 4.298707842826843262e-02
1.204000000000000000e+03 8.036296963691711426e-01 -3.180300140380859375e+01 -6.183336023241281509e-03 -5.626522302627563477e-01 -1.706506758928298950e-01 4.916972294449806213e-02
1.205000000000000000e+03 7.090649604797363281e-01 -2.619887161254882812e+01 1.396809238940477371e-03 -1.016963839530944824e+00 -3.046701252460479736e-01 6.795754283666610718e-02
1.206000000000000000e+03 2.101014614105224609e+00 -2.190642929077148438e+01 2.862946316599845886e-02 -1.018555045127868652e+00 -2.969776690006256104e-01 1.367461383342742920e-01
1.207000000000000000e+03 2.045415401458740234e+00 -1.907832145690917969e+01 4.391134902834892273e-02 -1.122347235679626465e+00 -3.235307633876800537e-01 5.091512575745582581e-02
1.208000000000000000e+03 1.939230084419250488e+00 -1.204098701477050781e+01 3.227785974740982056e-02 -9.230582118034362793e-01 -2.672341167926788330e-01 -1.945523619651794434e-01
1.209000000000000000e+03 6.120290160179138184e-01 -9.276905059814453125e+00 -1.520882127806544304e-03 -8.754735589027404785e-01 -2.630983293056488037e-01 -8.227787911891937256e-02
1.210000000000000000e+03 1.737943649291992188e+00 -6.608045578002929688e+00 -9.453421458601951599e-03 -4.248449206352233887e-01 -1.302895098924636841e-01 -2.155637741088867188e-01
1.211000000000000000e+03 1.830753684043884277e+00 -5.309453487396240234e+00 -2.422068640589714050e-02 -2.951072454452514648e-01 -9.579837322235107422e-02 -2.007490098476409912e-01
1.212000000000000000e+03 7.966233062744140625e+01 -1.862864685058593750e+01 -7.647858583368360996e-04 5.983909359201788902e-04 -4.991848618374206126e-05 -1.516818301752209663e-04
1.213000000000000000e+03 7.944780731201171875e+01 -2.275949478149414062e+01 1.031089806929230690e-03 2.609316026791930199e-03 1.092121819965541363e-03 8.232018444687128067e-05
1.214000000000000000e+03 7.834503936767578125e+01 -2.278515052795410156e+01 -2.546215429902076721e-03 3.415436658542603254e-04 -6.614015437662601471e-04 4.401543119456619024e-04
1.215000000000000000e+03 7.938661956787109375e+01 -2.680829811096191406e+01 -1.923642004840075970e-03 -5.438669119030237198e-03 -2.208693185821175575e-03 2.440880984067916870e-03
1.216000000000000000e+03 7.813501739501953125e+01 -2.673029708862304688e+01 -7.888179388828575611e-04 -7.822752930223941803e-03 -2.583471359685063362e-03 7.205633446574211121e-03
1.217000000000000000e+03 7.936972808837890625e+01 -3.084057235717773438e+01 8.681317558512091637e-04 -3.223156556487083435e-02 -9.409029968082904816e-03 5.631552543491125107e-03
1.218000000000000000e+03 7.804262542724609375e+01 -3.198885345458984375e+01 -4.405154613777995110e-04 -3.952933475375175476e-02 -1.199095509946346283e-02 1.911043934524059296e-02
1.219000000000000000e+03 7.921031951904296875e+01 -3.494473266601562500e+01 -8.040199172683060169e-04 -7.702875882387161255e-02 -2.334983460605144501e-02 8.820458315312862396e-03
1.220000000000000000e+03 7.738873291015625000e+01 -3.623465347290039062e+01 6.923564244061708450e-03 -7.071755826473236084e-02 -1.913819834589958191e-02 2.326470427215099335e-02
1.221000000000000000e+03 7.914070129394531250e+01 -3.903063964843750000e+01 2.058593963738530874e-04 -1.022337749600410461e-01 -3.060837648808956146e-02 2.779813949018716812e-03
1.222000000000000000e+03 7.683996582031250000e+01 -1.996190071105957031e+01 -1.663831644691526890e-03 -1.539403747301548719e-04 -5.453316261991858482e-04 -7.432309794239699841e-04
1.223000000000000000e+03 7.709176635742187500e+01 -1.832010459899902344e+01 5.337985203368589282e-05 -1.644602307351306081e-04 -3.332411142764613032e-05 -7.915222668088972569e-04
1.224000000000000000e+03 7.645770263671875000e+01 -1.827001953125000000e+01 9.678746573626995087e-04 7.734256359981372952e-05 3.135651641059666872e-04 -8.721664780750870705e-04
1.225000000000000000e+03 7.364489746093750000e+01 -1.815677070617675781e+01 1.708277384750545025e-03 -5.496538360603153706e-04 3.475870762486010790e-04 3.251585585530847311e-04
1.226000000000000000e+03 7.507348632812500000e+01 -1.819085502624511719e+01 1.251989160664379597e-03 -1.589337189216166735e-04 3.279166121501475573e-04 -2.493202628102153540e-04
1.227000000000000000e+03 7.224102020263671875e+01 -1.819031333923339844e+01 1.554348389618098736e-03 -6.854344392195343971e-04 2.606741618365049362e-04 5.322137731127440929e-04
1.228000000000000000e+03 3.499613189697265625e+01 -1.368353366851806641e+01 1.232156038284301758e+00 9.378643989562988281e+00 3.183240175247192383e+00 -2.982870578765869141e+00
1.229000000000000000e+03 3.544412994384765625e+01 -1.639600372314453125e+01 3.946197032928466797e-01 8.219174385070800781e+00 2.584138154983520508e+00 -1.362553358078002930e+00
1.230000000000000000e+03 3.553220748901367188e+01 -1.778570175170898438e+01 3.003641963005065918e-01 7.240687847137451172e+00 2.262315511703491211e+00 -7.366166710853576660e-01
1.231000000000000000e+03 3.549739456176757812e+01 -2.194363212585449219e+01 4.353173375129699707e-01 6.162127017974853516e+00 1.979233264923095703e+00 9.519462585449218750e-01
1.232000000000000000e+03 3.574641799926757812e+01 -2.490750503540039062e+01 9.990977048873901367e-01 4.500228881835937500e+00 1.649798035621643066e+00 1.191480159759521484e+00
1.233000000000000000e+03 2.880046653747558594e+01 -2.956341552734375000e+01 -2.873583436012268066e-01 2.105116546154022217e-01 -2.305400557816028595e-02 1.919760555028915405e-01
1.234000000000000000e+03 2.738176918029785156e+01 -2.991118049621582031e+01 -5.675582289695739746e-01 6.168317049741744995e-02 -1.517625153064727783e-01 8.705516159534454346e-02
1.235000000000000000e+03 1.622011947631835938e+01 -2.361698722839355469e+01 4.728860259056091309e-01 1.047159075736999512e+00 4.560135304927825928e-01 -6.980125308036804199e-01
1.236000000000000000e+03 1.938742065429687500e+01 -1.146468734741210938e+01 1.191933870315551758e+00 2.722319662570953369e-01 4.392497241497039795e-01 4.759617149829864502e-01
1.237000000000000000e+03 2.207357215881347656e+01 -1.101402282714843750e+01 4.752115905284881592e-01 9.138872474431991577e-02 1.699800938367843628e-01 2.298615127801895142e-01
1.238000000000000000e+03 2.452072715759277344e+01 -1.009257602691650391e+01 4.834068939089775085e-02 8.479347825050354004e-02 3.994024917483329773e-02 1.521911025047302246e-01
1.239000000000000000e+03 3.785871505737304688e+01 -8.124025464057922363e-01 1.396582961082458496e+00 1.087858676910400391e+00 7.453324794769287109e-01 -9.797105193138122559e-01
1.240000000000000000e+03 3.708847427368164062e+01 -8.922410607337951660e-01 2.868666648864746094e+00 2.156192779541015625e+00 1.507457852363586426e+00 -2.783135652542114258e+00
1.241000000000000000e+03 3.588937759399414062e+01 -1.081295609474182129e+00 3.068392515182495117e+00 1.036350440979003906e+01 4.029569149017333984e+00 -7.307083606719970703e+00
1.242000000000000000e+03 3.672274398803710938e+01 -1.332037210464477539e+00 2.729428052902221680e+00 4.915029525756835938e+00 2.293337345123291016e+00 -4.496144771575927734e+00
1.243000000000000000e+03 3.569902038574218750e+01 -1.145139932632446289e+00 2.375567197799682617e+00 1.194736003875732422e+01 4.296877861022949219e+00 -6.916194438934326172e+00
1.244000000000000000e+03 3.548674392700195312e+01 -1.222018003463745117e+00 1.138583898544311523e+00 1.492603683471679688e+01 4.819386005401611328e+00 -6.960650920867919922e+00
1.245000000000000000e+03 3.505973815917968750e+01 2.099652290344238281e+00 -2.970551013946533203e+00 2.106052780151367188e+01 5.426993370056152344e+00 2.635638713836669922e+00
1.246000000000000000e+03 3.543463897705078125e+01 2.183925390243530273e+00 -2.053883075714111328e+00 1.689981651306152344e+01 4.453780174255371094e+00 4.093908309936523438e+00
1.247000000000000000e+03 3.509517669677734375e+01 2.384974002838134766e+00 -2.806283712387084961e+00 1.937565803527832031e+01 4.970812320709228516e+00 2.464793205261230469e+00
1.248000000000000000e+03 3.583878326416015625e+01 2.249948740005493164e+00 -6.368366479873657227e-01 1.236821269989013672e+01 3.519412755966186523e+00 3.688158988952636719e+00
1.249000000000000000e+03 3.634814453125000000e+01 2.566035985946655273e+00 5.254994630813598633e-01 7.845136642456054688e+00 2.511190891265869141e+00 2.221990585327148438e+00
1.250000000000000000e+03 3.690668487548828125e+01 2.817866086959838867e+00 9.700719714164733887e-01 4.711203098297119141e+00 1.704382419586181641e+00 8.259588479995727539e-01
1.251000000000000000e+03 3.817753601074218750e+01 2.780665159225463867e+00 6.511086225509643555e-01 1.968157887458801270e-01 2.543773055076599121e-01 -1.135385274887084961e+00
1.252000000000000000e+03 3.923628234863281250e+01 6.150869369506835938e+00 -1.292693167924880981e-01 -3.910083532333374023e+00 -1.211805820465087891e+00 2.024188339710235596e-01
1.253000000000000000e+03 4.201526641845703125e+01 1.296261692047119141e+01 -1.203310862183570862e-01 -2.651670873165130615e-01 -1.156494468450546265e-01 -1.796070188283920288e-01
1.254000000000000000e+03 4.392192459106445312e+01 1.494228935241699219e+01 -7.326406240463256836e-02 -1.285405158996582031e-01 -6.054137274622917175e-02 -8.992632478475570679e-02
1.255000000000000000e+03 5.007774353027343750e+01 1.999829864501953125e+01 -2.692535221576690674e-01 -4.807145521044731140e-02 -9.519749134778976440e-02 -1.017877608537673950e-01
1.256000000000000000e+03 5.326484680175781250e+01 2.127495193481445312e+01 -2.686450183391571045e-01 7.537428289651870728e-02 -5.798121914267539978e-02 -1.361187100410461426e-01
1.257000000000000000e+03 5.599930191040039062e+01 2.178960037231445312e+01 1.304042637348175049e-01 1.622057110071182251e-01 8.778299391269683838e-02 -2.715082466602325439e-01
1.258000000000000000e+03 5.738286972045898438e+01 2.207266807556152344e+01 7.680642008781433105e-01 2.246360294520854950e-02 2.371583431959152222e-01 -4.511449337005615234e-01
1.259000000000000000e+03 6.244998550415039062e+01 1.499618148803710938e+01 2.091831415891647339e-01 7.073208808898925781e+00 2.184717416763305664e+00 -1.807190626859664917e-01
1.260000000000000000e+03 6.221931457519531250e+01 1.222368049621582031e+01 2.250994890928268433e-01 6.878598690032958984e+00 2.131109476089477539e+00 4.942319095134735107e-01
1.261000000000000000e+03 6.185828399658203125e+01 9.440616607666015625e+00 5.845487117767333984e-01 6.622073650360107422e+00 2.161986589431762695e+00 1.277289032936096191e+00
1.262000000000000000e+03 5.544762802124023438e+01 -1.724610328674316406e+00 9.855270385742187500e-01 1.764485239982604980e+00 8.250036835670471191e-01 1.256016731262207031e+00
1.263000000000000000e+03 4.776884078979492188e+01 -5.099126338958740234e+00 -7.949469566345214844e+00 -7.307597994804382324e-01 -2.604068756103515625e+00 1.782324552536010742e+00
1.264000000000000000e+03 4.507606887817382812e+01 -4.327278614044189453e+00 -6.581414699554443359e+00 -4.971130788326263428e-01 -2.123558282852172852e+00 1.745073795318603516e+00
1.265000000000000000e+03 4.051742172241210938e+01 -5.593947768211364746e-01 -2.174376398324966431e-01 -1.172214269638061523e+00 -4.168955981731414795e-01 5.150578022003173828e-01
1.266000000000000000e+03 3.764995956420898438e+01 2.644452571868896484e+00 8.377599120140075684e-01 9.963910579681396484e-01 5.502452850341796875e-01 -6.901246309280395508e-01
1.267000000000000000e+03 3.680588912963867188e+01 2.428249120712280273e+00 9.407067894935607910e-01 4.327982902526855469e+00 1.580606818199157715e+00 1.180224061012268066e+00
1.268000000000000000e+03 3.344530487060546875e+01 2.991635084152221680e+00 -3.831428885459899902e-01 2.297839927673339844e+01 6.778577327728271484e+00 1.690652847290039062e+00
1.269000000000000000e+03 3.656843566894531250e+01 3.043306112289428711e+00 6.201689243316650391e-01 7.739174365997314453e+00 2.507802963256835938e+00 1.352774858474731445e+00
1.270000000000000000e+03 3.618830490112304688e+01 2.535711288452148438e+00 2.757938802242279053e-01 9.225399971008300781e+00 2.850358009338378906e+00 2.492688417434692383e+00
1.271000000000000000e+03 3.661436462402343750e+01 2.375963449478149414e+00 7.551872730255126953e-01 5.471646308898925781e+00 1.868050098419189453e+00 1.573974251747131348e+00
1.272000000000000000e+03 3.700117111206054688e+01 2.476399898529052734e+00 8.296682834625244141e-01 3.600517272949218750e+00 1.329055666923522949e+00 5.361848473548889160e-01
1.273000000000000000e+03 3.741082382202148438e+01 2.576397657394409180e+00 8.165624141693115234e-01 2.190725564956665039e+00 9.021863937377929688e-01 -4.832550585269927979e-01
1.274000000000000000e+03 3.720133972167968750e+01 2.520987033843994141e+00 8.314807415008544922e-01 2.775896072387695312e+00 1.082213044166564941e+00 8.889084309339523315e-02
1.275000000000000000e+03 3.607086944580078125e+01 -1.063670158386230469e+00 3.643189430236816406e+00 7.979637622833251953e+00 3.486848115921020508e+00 -6.363737583160400391e+00
1.276000000000000000e+03 3.809425735473632812e+01 -7.982622981071472168e-01 1.045011758804321289e+00 9.742793440818786621e-01 6.057873368263244629e-01 -6.555154919624328613e-01
1.277000000000000000e+03 3.634174346923828125e+01 -1.275101423263549805e+00 2.888991594314575195e+00 6.804145812988281250e+00 2.907941102981567383e+00 -5.564023017883300781e+00
1.278000000000000000e+03 3.745252227783203125e+01 -7.966257333755493164e-01 2.081025838851928711e+00 1.423033475875854492e+00 1.051217794418334961e+00 -1.632074832916259766e+00
1.279000000000000000e+03 3.727645111083984375e+01 -8.241522908210754395e-01 2.520636558532714844e+00 1.754351019859313965e+00 1.282496333122253418e+00 -2.134752273559570312e+00
1.280000000000000000e+03 3.694262313842773438e+01 -1.271065115928649902e+00 2.629436016082763672e+00 3.551849842071533203e+00 1.854385733604431152e+00 -3.700279235839843750e+00
1.281000000000000000e+03 3.578044128417968750e+01 -1.380637884140014648e+00 1.671039938926696777e+00 1.152073383331298828e+01 3.957531929016113281e+00 -6.611962318420410156e+00
1.282000000000000000e+03 3.597779083251953125e+01 -1.264215588569641113e+00 2.454990148544311523e+00 9.794717788696289062e+00 3.674912214279174805e+00 -6.253534317016601562e+00
1.283000000000000000e+03 2.583766555786132812e+01 1.757014095783233643e-01 6.067957282066345215e-01 -1.018838807940483093e-01 1.514735519886016846e-01 1.023441031575202942e-01
1.284000000000000000e+03 2.616683959960937500e+01 -6.032665967941284180e-01 7.932412028312683105e-01 -1.546239852905273438e-01 1.915851682424545288e-01 2.104983180761337280e-01
1.285000000000000000e+03 2.772070312500000000e+01 -1.035534977912902832e+00 1.260614037513732910e+00 -6.978835910558700562e-02 3.572477102279663086e-01 2.531816065311431885e-01
1.286000000000000000e+03 7.716159820556640625e+01 -1.453481006622314453e+01 -4.749558120965957642e-02 -1.478723157197237015e-02 -1.868484355509281158e-02 -4.178899154067039490e-02
1.287000000000000000e+03 7.767316436767578125e+01 -1.381762790679931641e+01 -4.563768953084945679e-02 -3.207150101661682129e-02 -2.331275679171085358e-02 -5.342553928494453430e-02
1.288000000000000000e+03 7.804405975341796875e+01 -1.245169067382812500e+01 -3.739789873361587524e-02 -8.430466800928115845e-02 -3.651076927781105042e-02 -8.355543017387390137e-02
1.289000000000000000e+03 7.777966308593750000e+01 -1.453779029846191406e+01 -3.349898010492324829e-02 -2.669440023601055145e-02 -1.805801503360271454e-02 -3.094210848212242126e-02
1.290000000000000000e+03 7.760964965820312500e+01 -1.926879310607910156e+01 -6.696276250295341015e-04 1.244408485945314169e-04 -1.635560474824160337e-04 -6.615427555516362190e-04
1.291000000000000000e+03 7.835981750488281250e+01 -1.843595504760742188e+01 -1.187023226520977914e-04 2.738361363299190998e-04 4.654014628613367677e-05 -8.242350304499268532e-04
1.292000000000000000e+03 7.945491027832031250e+01 -2.135604286193847656e+01 -1.054344000294804573e-03 2.486244775354862213e-03 4.295702383387833834e-04 -1.617476664250716567e-04
1.293000000000000000e+03 3.880456161499023438e+01 -7.186455726623535156e-01 8.077614009380340576e-02 5.823791027069091797e-01 1.989465802907943726e-01 9.229180961847305298e-02
1.294000000000000000e+03 3.901390457153320312e+01 -2.725880384445190430e+00 -1.136471629142761230e+00 2.376547098159790039e+00 3.720226585865020752e-01 -1.666581630706787109e+00
1.295000000000000000e+03 3.848620986938476562e+01 -1.281045556068420410e+00 5.999578237533569336e-01 1.120628476142883301e+00 5.161759257316589355e-01 -8.202468156814575195e-01
1.296000000000000000e+03 3.896183776855468750e+01 -1.327638626098632812e+00 -1.423852890729904175e-02 1.056406021118164062e+00 3.126502633094787598e-01 -5.119393467903137207e-01
1.297000000000000000e+03 6.849431610107421875e+01 -1.317752552032470703e+01 -6.256917715072631836e-01 6.313741207122802734e-02 -1.687663048505783081e-01 6.525120139122009277e-02
1.298000000000000000e+03 7.039477539062500000e+01 -1.386739063262939453e+01 -3.883304297924041748e-01 8.741692453622817993e-02 -9.027405083179473877e-02 -1.345798000693321228e-02
1.299000000000000000e+03 6.762426757812500000e+01 -1.473497676849365234e+01 -2.193184643983840942e-01 -1.577355712652206421e-01 -1.131162121891975403e-01 1.624981760978698730e-01
1.300000000000000000e+03 2.178655624389648438e+01 2.928731441497802734e+00 4.818707748199813068e-05 3.075970744248479605e-05 2.368403511354699731e-05 -3.250609006499871612e-05
1.301000000000000000e+03 1.836980819702148438e+01 4.802891254425048828e+00 -4.075386386830359697e-04 2.195758279412984848e-04 -5.638884613290429115e-05 -9.501133899902924895e-05
1.302000000000000000e+03 1.778170204162597656e+01 3.794165134429931641e+00 -1.767567446222528815e-04 7.939038187032565475e-05 -2.920990846178028733e-05 -7.579988596262410283e-05
1.303000000000000000e+03 2.037917709350585938e+01 2.593607902526855469e+00 8.198005525628104806e-05 6.029994256095960736e-05 4.268400152795948088e-05 1.079304638551548123e-05
1.304000000000000000e+03 2.138394546508789062e+01 3.702389001846313477e+00 -7.482375076506286860e-05 -1.058156522049102932e-05 -2.562159534136299044e-05 3.498812293400987983e-05
1.305000000000000000e+03 7.171239471435546875e+01 -1.892319107055664062e+01 9.527241927571594715e-04 -9.218628401868045330e-04 9.258403224521316588e-06 6.050438387319445610e-04
1.306000000000000000e+03 7.006644439697265625e+01 -1.857205390930175781e+01 3.378772817086428404e-05 6.803945871070027351e-05 3.054815533687360585e-05 9.836794342845678329e-04
1.307000000000000000e+03 7.115916442871093750e+01 -1.909257698059082031e+01 -8.257542503997683525e-05 -3.403495356906205416e-04 -1.268774794880300760e-04 7.283494342118501663e-04
1.308000000000000000e+03 7.060573577880859375e+01 -1.954850196838378906e+01 -4.985717823728919029e-04 -3.957111621275544167e-04 -2.682849008124321699e-04 1.675356412306427956e-03
1.309000000000000000e+03 1.609796714782714844e+01 2.642331123352050781e+00 1.014687877614051104e-04 -7.809483213350176811e-05 7.012185960775241256e-06 2.306172973476350307e-04
1.310000000000000000e+03 1.830866432189941406e+01 2.230371713638305664e+00 -3.859059506794437766e-05 -3.204201857442967594e-05 -2.118978409271221608e-05 -8.803192940831650048e-06
1.311000000000000000e+03 1.874213790893554688e+01 3.113103628158569336e+00 -1.152176628238521516e-04 2.710800981731154025e-05 -2.643289553816430271e-05 8.934216566558461636e-06
1.312000000000000000e+03 1.675181579589843750e+01 2.721707105636596680e+00 3.382661816431209445e-05 4.203947319183498621e-04 1.362664042972028255e-04 2.554692327976226807e-04
1.313000000000000000e+03 1.397542762756347656e+01 3.268644809722900391e+00 2.326439280295744538e-04 -1.549379085190594196e-04 2.331180439796298742e-05 4.490196588449180126e-04
1.314000000000000000e+03 1.184075546264648438e+01 2.563845634460449219e+00 5.831723101437091827e-04 -2.915669756475836039e-04 8.748159598326310515e-05 5.046194419264793396e-04
1.315000000000000000e+03 1.477435302734375000e+01 1.921794891357421875e+00 3.247915010433644056e-04 2.682489284779876471e-04 1.779121230356395245e-04 3.111229743808507919e-04
1.316000000000000000e+03 1.542228507995605469e+01 2.620137214660644531e+00 2.212567924289032817e-04 3.623100928962230682e-04 1.750700612319633365e-04 3.363401337992399931e-04
1.317000000000000000e+03 1.472378444671630859e+01 2.606455326080322266e+00 1.686544273979961872e-04 -6.655135075561702251e-05 3.063092299271374941e-05 3.523725899867713451e-04
1.318000000000000000e+03 7.440904998779296875e+01 -1.891215705871582031e+01 7.722524460405111313e-04 -5.028267041780054569e-04 8.082771819317713380e-05 1.128315198002383113e-04
1.319000000000000000e+03 7.373157501220703125e+01 -1.892755508422851562e+01 -8.741168421693146229e-04 -8.646763744764029980e-04 -5.216379649937152863e-04 -5.797992926090955734e-04
1.320000000000000000e+03 7.508141326904296875e+01 -1.891360473632812500e+01 -4.656930395867675543e-04 -8.431075839325785637e-04 -3.926401841454207897e-04 -8.571434300392866135e-04
1.321000000000000000e+03 1.391745758056640625e+01 3.963543176651000977e+00 1.924196985783055425e-04 5.180795560590922832e-04 2.131497749360278249e-04 6.987976375967264175e-04
1.322000000000000000e+03 1.258494853973388672e+01 1.861437201499938965e+00 5.808126879855990410e-04 -1.861034252215176821e-04 1.184127759188413620e-04 4.030138370580971241e-04
1.323000000000000000e+03 1.256776142120361328e+01 2.553040027618408203e+00 5.690287216566503048e-04 2.226439682999625802e-04 2.375018084421753883e-04 4.563193360809236765e-04
1.324000000000000000e+03 1.329050350189208984e+01 2.559683799743652344e+00 3.977831220254302025e-04 -1.950325386133044958e-04 6.082517575123347342e-05 4.829239624086767435e-04
1.325000000000000000e+03 1.161548709869384766e+01 -3.275441646575927734e+00 -5.578591227531433105e-01 1.051253229379653931e-01 -1.358201354742050171e-01 -1.824898570775985718e-01
1.326000000000000000e+03 1.022097396850585938e+01 -2.558274745941162109e+00 -6.119323968887329102e-01 5.300624668598175049e-02 -1.676778495311737061e-01 -2.243648916482925415e-01
1.327000000000000000e+03 1.248510456085205078e+01 -2.541452884674072266e+00 -6.940936446189880371e-01 7.604453712701797485e-02 -1.854147315025329590e-01 -1.108358725905418396e-01
1.328000000000000000e+03 1.097223186492919922e+01 -2.561763525009155273e+00 -6.475231647491455078e-01 5.450053513050079346e-02 -1.779067814350128174e-01 -1.947768330574035645e-01
1.329000000000000000e+03 7.279584503173828125e+01 -1.442087936401367188e+01 -2.294424027204513550e-01 3.036123327910900116e-02 -5.972435325384140015e-02 -6.614933162927627563e-02
1.330000000000000000e+03 7.504438781738281250e+01 -1.383369827270507812e+01 -1.356153935194015503e-01 -1.562119182199239731e-02 -4.537097364664077759e-02 -1.040877848863601685e-01
1.331000000000000000e+03 7.576170349121093750e+01 -1.381381034851074219e+01 -1.159632578492164612e-01 -2.666245587170124054e-02 -4.278771579265594482e-02 -9.653484821319580078e-02
1.332000000000000000e+03 7.644101715087890625e+01 -1.378811550140380859e+01 -7.452123612165451050e-02 -3.245789185166358948e-02 -3.209373727440834045e-02 -7.877663522958755493e-02
1.333000000000000000e+03 1.412983894348144531e+01 -1.799648523330688477e+00 -8.440896272659301758e-01 6.035357713699340820e-02 -2.351208180189132690e-01 2.068322151899337769e-03
1.334000000000000000e+03 1.389817810058593750e+01 -3.271612882614135742e+00 -5.747797489166259766e-01 1.769766807556152344e-01 -1.193409264087677002e-01 1.520796678960323334e-02
1.335000000000000000e+03 1.325216770172119141e+01 -2.531324386596679688e+00 -7.050656080245971680e-01 1.011415496468544006e-01 -1.811772137880325317e-01 -4.893316701054573059e-02
1.336000000000000000e+03 1.557230281829833984e+01 -2.494461774826049805e+00 -6.483446955680847168e-01 1.122185066342353821e-01 -1.608378589153289795e-01 1.393946409225463867e-01
1.337000000000000000e+03 7.324526309967041016e+00 2.615554571151733398e+00 7.913396693766117096e-04 -3.318655653856694698e-04 1.378422166453674436e-04 -1.986283459700644016e-04
1.338000000000000000e+03 8.086160659790039062e+00 2.585155487060546875e+00 1.038372865878045559e-03 -1.898778282338753343e-04 2.545485040172934532e-04 -1.277378469239920378e-04
1.339000000000000000e+03 2.736099243164062500e+00 3.051449775695800781e+00 1.086695265257731080e-04 6.693467003060504794e-05 5.268126187729649246e-05 -7.901578792370855808e-04
1.340000000000000000e+03 2.810201644897460938e+00 3.869224309921264648e+00 5.776672041974961758e-04 1.501865917816758156e-04 2.183561446145176888e-04 -6.399961421266198158e-04
1.341000000000000000e+03 4.261186122894287109e+00 2.820138216018676758e+00 5.247863591648638248e-04 -5.380564834922552109e-05 1.412942074239253998e-04 -6.765819853171706200e-04
1.342000000000000000e+03 6.562178134918212891e+00 2.657781124114990234e+00 9.804028086364269257e-04 -2.119378623319789767e-04 2.305394882569089532e-04 -3.405410971026867628e-04
1.343000000000000000e+03 5.797366142272949219e+00 2.707105398178100586e+00 6.782757118344306946e-04 -1.985915587283670902e-04 1.439052430214360356e-04 -5.254300194792449474e-04
1.344000000000000000e+03 1.438389539718627930e+00 3.015017509460449219e+00 -1.511362061137333512e-04 1.128379008150659502e-04 -1.148949013440869749e-05 -3.481320745777338743e-04
1.345000000000000000e+03 1.160254120826721191e+00 2.041036128997802734e+00 2.796821936499327421e-04 3.336379813845269382e-05 9.391379717271775007e-05 -2.780829381663352251e-04
1.346000000000000000e+03 1.035836029052734375e+01 2.571944236755371094e+00 7.720959838479757309e-04 -3.760401450563222170e-04 1.188167589134536684e-04 3.704996197484433651e-04
1.347000000000000000e+03 9.605651855468750000e+00 2.566100835800170898e+00 9.357868111692368984e-04 -8.451534085907042027e-05 2.553814556449651718e-04 1.529757719254121184e-04
1.348000000000000000e+03 8.039996147155761719e+00 -1.844019889831542969e+00 -5.465770363807678223e-01 8.819718845188617706e-03 -1.613271981477737427e-01 -2.213806360960006714e-01
1.349000000000000000e+03 5.738726139068603516e+00 -1.857060074806213379e+00 -3.331279754638671875e-01 -1.850484684109687805e-02 -1.054898500442504883e-01 -2.125555574893951416e-01
1.350000000000000000e+03 4.754220485687255859e+00 -3.356738805770874023e+00 -1.919078528881072998e-01 -7.691621780395507812e-02 -8.064722269773483276e-02 -2.955655157566070557e-01
1.351000000000000000e+03 4.006156921386718750e+00 -3.002628326416015625e+00 -1.593204885721206665e-01 -8.198706060647964478e-02 -7.239226251840591431e-02 -2.481008172035217285e-01
1.352000000000000000e+03 4.915566444396972656e+00 -2.560992479324340820e+00 -2.417980134487152100e-01 -4.307889565825462341e-02 -8.546307682991027832e-02 -2.478783875703811646e-01
1.353000000000000000e+03 7.902248382568359375e+00 -3.200008630752563477e+00 -3.991653323173522949e-01 1.810128800570964813e-02 -1.143192127346992493e-01 -3.217457830905914307e-01
1.354000000000000000e+03 7.211300849914550781e+00 -2.531275749206542969e+00 -4.117011129856109619e-01 8.296570158563554287e-04 -1.232614368200302124e-01 -2.827140986919403076e-01
1.355000000000000000e+03 2.775844097137451172e+00 -1.897844552993774414e+00 -1.064208522439002991e-01 -5.361870676279067993e-02 -4.801186919212341309e-02 -1.265155673027038574e-01
1.356000000000000000e+03 3.022320985794067383e+00 -2.658416271209716797e+00 -1.178905367851257324e-01 -7.658939063549041748e-02 -5.834398046135902405e-02 -1.791613399982452393e-01
1.357000000000000000e+03 1.703513336181640625e+01 -3.187336683273315430e+00 -4.644226431846618652e-01 2.194535881280899048e-01 -7.349071651697158813e-02 3.204865455627441406e-01
1.358000000000000000e+03 1.721570396423339844e+01 -1.647246837615966797e+00 -6.598055362701416016e-01 9.052766859531402588e-02 -1.707833558320999146e-01 2.037473171949386597e-01
1.359000000000000000e+03 1.635152053833007812e+01 -2.460102319717407227e+00 -6.064590215682983398e-01 1.416190713644027710e-01 -1.394519805908203125e-01 2.094522863626480103e-01
1.360000000000000000e+03 3.365314102172851562e+01 1.532419800758361816e+00 5.204828381538391113e-01 2.126661682128906250e+01 6.536129474639892578e+00 -2.720623254776000977e+00
1.361000000000000000e+03 3.259295272827148438e+01 -2.287577390670776367e+00 1.054449200630187988e+00 7.628561496734619141e+00 2.604903221130371094e+00 3.311160326004028320e+00
1.362000000000000000e+03 3.319728851318359375e+01 3.340537846088409424e-01 6.831644058227539062e+00 1.051254940032958984e+01 5.203258037567138672e+00 2.541932821273803711e+00
1.363000000000000000e+03 3.242338562011718750e+01 -1.286018848419189453e+00 3.871019840240478516e+00 6.212121486663818359e+00 3.024942398071289062e+00 4.641121864318847656e+00
1.364000000000000000e+03 7.122005462646484375e+01 -1.450940513610839844e+01 -2.831833660602569580e-01 5.008085817098617554e-02 -6.993074715137481689e-02 -1.793559454381465912e-02
1.365000000000000000e+03 7.194033050537109375e+01 -1.370050716400146484e+01 -3.192003071308135986e-01 6.677392125129699707e-02 -7.572791725397109985e-02 -8.383295685052871704e-02
1.366000000000000000e+03 7.114730834960937500e+01 -1.378085994720458984e+01 -3.594122231006622314e-01 8.166543394327163696e-02 -8.332403004169464111e-02 -2.856827154755592346e-02
1.367000000000000000e+03 7.356362152099609375e+01 -1.371293163299560547e+01 -2.278572469949722290e-01 2.302172407507896423e-02 -6.145065650343894958e-02 -1.138256639242172241e-01
1.368000000000000000e+03 2.136438560485839844e+01 -2.148994684219360352e+00 -1.036505028605461121e-01 1.432289481163024902e-01 1.187353394925594330e-02 5.064390897750854492e-01
1.369000000000000000e+03 2.219446182250976562e+01 -1.857925891876220703e+00 3.436630964279174805e-02 6.594379246234893799e-02 3.009302914142608643e-02 4.894779622554779053e-01
1.370000000000000000e+03 1.958767509460449219e+01 -2.307120561599731445e+00 -3.131059110164642334e-01 1.703741252422332764e-01 -4.281953722238540649e-02 4.434726238250732422e-01
1.371000000000000000e+03 2.355646705627441406e+01 -5.771712660789489746e-01 2.832808196544647217e-01 -1.200164295732975006e-02 8.138374984264373779e-02 2.765861451625823975e-01
1.372000000000000000e+03 2.459436988830566406e+01 -1.216742634773254395e+00 4.936977922916412354e-01 -9.074316918849945068e-02 1.208863854408264160e-01 3.823212385177612305e-01
1.373000000000000000e+03 2.378058242797851562e+01 -1.407057642936706543e+00 3.175951242446899414e-01 -4.716050252318382263e-02 8.113039284944534302e-02 4.440837204456329346e-01
1.374000000000000000e+03 2.571396636962890625e+01 -1.953858971595764160e+00 7.292241454124450684e-01 -1.396320164203643799e-01 1.768776327371597290e-01 5.449656844139099121e-01
1.375000000000000000e+03 2.253560066223144531e+01 3.210085868835449219e+00 -5.079325546830659732e-06 -9.729673183755949140e-05 -3.071281753364019096e-05 7.294660917978035286e-06
1.376000000000000000e+03 1.883475112915039062e+01 7.120178699493408203e+00 6.155038718134164810e-04 3.696873318403959274e-04 2.955573727376759052e-04 2.676160656847059727e-04
1.377000000000000000e+03 1.922700309753417969e+01 4.666171073913574219e+00 1.098906359402462840e-04 1.424092988600023091e-05 3.723947156686335802e-05 -7.659514812985435128e-05
1.378000000000000000e+03 6.915003204345703125e+01 -1.872068977355957031e+01 5.792371812276542187e-04 1.152083626948297024e-03 5.193962133489549160e-04 7.530863513238728046e-04
1.379000000000000000e+03 6.906491088867187500e+01 -1.966939353942871094e+01 -8.859917288646101952e-04 1.888915663585066795e-03 3.008771745953708887e-04 1.864174264483153820e-03
1.380000000000000000e+03 3.932187271118164062e+01 5.027987957000732422e+00 2.420472651720046997e-01 -4.448334217071533203e+00 -1.261886119842529297e+00 8.431256562471389771e-02
1.381000000000000000e+03 3.804025268554687500e+01 3.264820337295532227e+00 7.467752695083618164e-01 5.997387766838073730e-01 4.039542078971862793e-01 -9.194663166999816895e-01
1.382000000000000000e+03 4.483059310913085938e+01 -1.819681549072265625e+01 2.872474193572998047e+00 8.218386650085449219e+00 3.327258348464965820e+00 1.773076772689819336e+00
1.383000000000000000e+03 5.626131057739257812e+01 2.605766105651855469e+01 3.419009745121002197e-01 1.010717153549194336e+00 4.057854413986206055e-01 -8.961620330810546875e-01
1.384000000000000000e+03 1.273076820373535156e+01 2.096336555480957031e+01 -1.515610814094543457e-01 4.356677830219268799e-02 -3.239829093217849731e-02 -1.373445987701416016e-02
1.385000000000000000e+03 6.790612792968750000e+01 -1.291173171997070312e+01 -7.450844645500183105e-01 8.671133220195770264e-02 -1.975119411945343018e-01 1.507588177919387817e-01
1.386000000000000000e+03 1.211692428588867188e+01 1.891260337829589844e+01 -7.234225422143936157e-02 1.938241347670555115e-02 -1.588795147836208344e-02 -2.221864275634288788e-02
1.387000000000000000e+03 5.556201553344726562e+01 2.363121414184570312e+01 6.470769643783569336e-01 1.280296593904495239e-01 2.325319945812225342e-01 -4.703660309314727783e-01
1.388000000000000000e+03 1.505666351318359375e+01 2.248185539245605469e+01 -2.285260260105133057e-01 2.670517377555370331e-02 -6.054625660181045532e-02 2.159221470355987549e-02
1.389000000000000000e+03 7.822437286376953125e+01 -1.937035369873046875e+01 9.098649024963378906e-04 2.384925755904987454e-04 3.445072507020086050e-04 -8.961763815023005009e-04
1.390000000000000000e+03 7.940406799316406250e+01 -2.546201705932617188e+01 1.071227132342755795e-03 -9.111052495427429676e-04 4.803655247087590396e-05 1.551070483401417732e-03
1.391000000000000000e+03 7.791325378417968750e+01 -3.334199523925781250e+01 -3.066383302211761475e-03 -4.947707429528236389e-02 -1.576303690671920776e-02 2.147454209625720978e-02
1.392000000000000000e+03 7.768111419677734375e+01 -3.475253677368164062e+01 1.658222638070583344e-03 -5.920645967125892639e-02 -1.726447045803070068e-02 2.473063766956329346e-02
1.393000000000000000e+03 7.937981414794921875e+01 -2.815348052978515625e+01 9.846885222941637039e-04 -1.198354829102754593e-02 -3.299657721072435379e-03 3.471275791525840759e-03
1.394000000000000000e+03 7.809825134277343750e+01 -3.066752243041992188e+01 -3.756966674700379372e-03 -2.923913672566413879e-02 -9.898831136524677277e-03 1.571522653102874756e-02
1.395000000000000000e+03 7.827801513671875000e+01 -2.409473991394042969e+01 1.919615169754251838e-04 -1.295535592362284660e-03 -3.310722240712493658e-04 2.335408702492713928e-03
1.396000000000000000e+03 7.811343383789062500e+01 -2.805229568481445312e+01 -3.917830996215343475e-03 -1.348464190959930420e-02 -5.220741964876651764e-03 9.936300106346607208e-03
1.397000000000000000e+03 7.752369689941406250e+01 -3.929382324218750000e+01 2.833070466294884682e-03 -9.860941022634506226e-02 -2.873290143907070160e-02 1.099912170320749283e-02
1.398000000000000000e+03 1.448309707641601562e+01 1.085210800170898438e+01 -9.726355783641338348e-04 3.245015861466526985e-03 6.817140965722501278e-04 3.423903544899076223e-04
1.399000000000000000e+03 1.981379318237304688e+01 2.510347366333007812e+01 9.442098438739776611e-02 1.263010054826736450e-01 6.621659547090530396e-02 -2.090333253145217896e-01
1.400000000000000000e+03 1.459818363189697266e+01 1.394515609741210938e+01 2.236131811514496803e-03 1.186208520084619522e-02 4.229465033859014511e-03 -6.703961844323202968e-05
1.401000000000000000e+03 1.592347145080566406e+01 7.135430812835693359e+00 -3.145322552882134914e-04 6.395488744601607323e-04 9.750499157235026360e-05 4.482102667680010200e-05
1.402000000000000000e+03 1.868023490905761719e+01 2.453145217895507812e+01 -5.302177742123603821e-02 4.598298668861389160e-02 -2.111637266352772713e-03 -7.993965595960617065e-02
1.403000000000000000e+03 1.812602615356445312e+01 5.745697498321533203e+00 3.803948347922414541e-04 5.200856830924749374e-04 2.701441408134996891e-04 2.996338298544287682e-04
1.404000000000000000e+03 1.692433738708496094e+01 7.603491306304931641e+00 1.664508017711341381e-04 1.271183136850595474e-03 4.312901874072849751e-04 3.314894565846771002e-04
1.405000000000000000e+03 1.761484146118164062e+01 6.678962707519531250e+00 -5.240556783974170685e-04 1.125395283452235162e-04 -1.234548544744029641e-04 -3.812076465692371130e-04
1.406000000000000000e+03 1.525414180755615234e+01 9.653941154479980469e+00 -1.979133776330854744e-05 2.888444811105728149e-03 8.605960756540298462e-04 7.308967178687453270e-04
1.407000000000000000e+03 3.085874938964843750e+01 -6.771903038024902344e+00 -1.716480016708374023e+00 1.640462636947631836e+00 -2.280519902706146240e-02 -4.710260927677154541e-01
1.408000000000000000e+03 2.993049430847167969e+01 -8.140239715576171875e+00 -4.640436649322509766e+00 -2.636848688125610352e-01 -1.471236467361450195e+00 7.543412446975708008e-01
1.409000000000000000e+03 3.904865646362304688e+01 1.114366149902343750e+01 4.706822931766510010e-01 1.701510787010192871e+00 6.516579389572143555e-01 9.327771663665771484e-01
1.410000000000000000e+03 3.703687286376953125e+01 8.612931251525878906e+00 4.051306545734405518e-01 6.768542766571044922e+00 2.152101993560791016e+00 1.354815125465393066e+00
1.411000000000000000e+03 3.858535003662109375e+01 5.033336639404296875e+00 4.010557830333709717e-01 -7.310531139373779297e-01 -9.899919480085372925e-02 -2.492121458053588867e-01
1.412000000000000000e+03 4.686659240722656250e+01 2.103544044494628906e+01 2.448012679815292358e-01 4.663025140762329102e-01 2.133311331272125244e-01 4.241650402545928955e-01
1.413000000000000000e+03 4.697821807861328125e+01 1.765671730041503906e+01 -1.075188368558883667e-01 -4.290774092078208923e-02 -4.512797296047210693e-02 -5.794109031558036804e-02
1.414000000000000000e+03 5.141189956665039062e+01 2.321622085571289062e+01 3.189027607440948486e-01 2.006028592586517334e-01 1.558516919612884521e-01 1.300109177827835083e-02
1.415000000000000000e+03 4.215414047241210938e+01 1.490100288391113281e+01 4.098070263862609863e-01 4.107153117656707764e-01 2.461566925048828125e-01 4.337784051895141602e-01
1.416000000000000000e+03 4.505034637451171875e+01 1.763084030151367188e+01 2.089445590972900391e-01 2.392506152391433716e-01 1.344585567712783813e-01 2.517233788967132568e-01
1.417000000000000000e+03 4.311996841430664062e+01 1.580872821807861328e+01 3.517915606498718262e-01 3.146825730800628662e-01 1.999422460794448853e-01 3.392143547534942627e-01
1.418000000000000000e+03 4.866791915893554688e+01 2.085597801208496094e+01 2.637473866343498230e-02 2.310082614421844482e-01 7.721489667892456055e-02 2.171560674905776978e-01
1.419000000000000000e+03 4.700662994384765625e+01 1.934892463684082031e+01 6.935128569602966309e-02 2.066057920455932617e-01 8.278712630271911621e-02 1.837634146213531494e-01
1.420000000000000000e+03 4.602590560913085938e+01 1.851308631896972656e+01 1.370545774698257446e-01 2.165667861700057983e-01 1.060864105820655823e-01 2.194083780050277710e-01
1.421000000000000000e+03 3.219219589233398438e+01 -2.954455947875976562e+01 1.676702499389648438e-01 1.824434161186218262e+00 5.976313352584838867e-01 9.403744935989379883e-01
1.422000000000000000e+03 3.014227104187011719e+01 -2.898846626281738281e+01 1.515405625104904175e-01 5.719779133796691895e-01 2.170555293560028076e-01 4.733431637287139893e-01
1.423000000000000000e+03 1.538605213165283203e+01 -1.044926738739013672e+01 4.837858974933624268e-01 1.210161805152893066e+00 5.081843137741088867e-01 4.001851975917816162e-01
1.424000000000000000e+03 6.173148727416992188e+01 2.581904411315917969e+01 -1.505986228585243225e-02 2.579939842224121094e+00 7.694640159606933594e-01 -6.367845535278320312e-01
1.425000000000000000e+03 6.041227722167968750e+01 2.276729393005371094e+01 1.262601613998413086e+00 2.891000032424926758e+00 1.246080517768859863e+00 -1.378537058830261230e+00
1.426000000000000000e+03 2.857118415832519531e+01 -8.060146331787109375e+00 -3.661884069442749023e+00 -1.984473913908004761e-01 -1.158099412918090820e+00 2.931615412235260010e-01
1.427000000000000000e+03 3.744384765625000000e+01 -2.460914039611816406e+01 9.451398253440856934e-01 5.103156089782714844e+00 1.814488768577575684e+00 5.281271934509277344e-01
1.428000000000000000e+03 1.190466880798339844e+01 -1.788141441345214844e+01 6.275795102119445801e-01 1.611026883125305176e+00 6.715819239616394043e-01 2.265607118606567383e-01
1.429000000000000000e+03 2.592532730102539062e+01 -2.993134498596191406e+01 -7.016635537147521973e-01 1.452838256955146790e-02 -2.061405628919601440e-01 5.054533109068870544e-02
1.430000000000000000e+03 1.443828964233398438e+01 -1.235961818695068359e+01 7.159668803215026855e-01 1.650965452194213867e+00 7.100796699523925781e-01 4.842464327812194824e-01
1.431000000000000000e+03 2.171943283081054688e+01 -9.909000396728515625e+00 3.821172416210174561e-01 1.668149083852767944e-01 1.646796464920043945e-01 4.039560258388519287e-01
1.432000000000000000e+03 3.638891983032226562e+01 -1.141280555725097656e+01 5.009508728981018066e-01 6.784471988677978516e+00 2.185626745223999023e+00 -2.007485151290893555e+00
1.433000000000000000e+03 3.436941146850585938e+01 -9.365578651428222656e+00 -1.642613649368286133e+00 6.823160171508789062e+00 1.554163932800292969e+00 -1.592798471450805664e+00
1.434000000000000000e+03 1.817123222351074219e+01 -9.831455230712890625e+00 5.621519088745117188e-01 7.755826115608215332e-01 4.013203680515289307e-01 7.233975529670715332e-01
1.435000000000000000e+03 1.650768470764160156e+01 -1.124533748626708984e+01 8.435783982276916504e-01 1.263370513916015625e+00 6.320846676826477051e-01 6.381196975708007812e-01
1.436000000000000000e+03 3.661600494384765625e+01 -2.048820686340332031e+01 6.204508543014526367e-01 6.302050590515136719e+00 2.076750278472900391e+00 7.028342038393020630e-02
1.437000000000000000e+03 3.662477874755859375e+01 -1.915844154357910156e+01 6.391324996948242188e-01 6.658533096313476562e+00 2.189299821853637695e+00 -5.281125307083129883e-01
1.438000000000000000e+03 2.546759033203125000e+01 -7.800821304321289062e+00 -8.736263513565063477e-01 4.472997784614562988e-01 -1.278979778289794922e-01 7.096340656280517578e-01
1.439000000000000000e+03 2.660884857177734375e+01 -8.658149719238281250e+00 -1.261240959167480469e+00 7.844138890504837036e-03 -3.760190308094024658e-01 -1.758254505693912506e-02
1.440000000000000000e+03 2.188546943664550781e+01 -3.088092994689941406e+01 -2.545866370201110840e-01 2.890689074993133545e-01 1.034467946738004684e-02 -2.626223862171173096e-01
1.441000000000000000e+03 2.054246139526367188e+01 -1.011441802978515625e+01 6.293935179710388184e-01 2.448610216379165649e-01 2.622763812541961670e-01 5.490912199020385742e-01
1.442000000000000000e+03 3.627391815185546875e+01 -1.253460025787353516e+01 1.221180677413940430e+00 6.707252979278564453e+00 2.378530263900756836e+00 -2.128317832946777344e+00
1.443000000000000000e+03 3.653034210205078125e+01 -1.503864192962646484e+01 1.354419589042663574e+00 7.253561973571777344e+00 2.582394361495971680e+00 -2.249249219894409180e+00
1.444000000000000000e+03 2.076789283752441406e+01 -1.130049514770507812e+01 7.209686636924743652e-01 6.110204383730888367e-02 2.346212118864059448e-01 2.739239335060119629e-01
1.445000000000000000e+03 3.273593902587890625e+01 -7.532744407653808594e+00 -2.622728109359741211e+00 4.898315906524658203e+00 6.826763153076171875e-01 -1.530527114868164062e+00
1.446000000000000000e+03 3.667373275756835938e+01 -1.779993629455566406e+01 6.425142884254455566e-01 6.953208446502685547e+00 2.278716802597045898e+00 -1.180518627166748047e+00
1.447000000000000000e+03 1.410413646697998047e+01 -2.404452705383300781e+01 5.664859339594841003e-02 1.677204608917236328e+00 5.201559662818908691e-01 -2.388464957475662231e-01
1.448000000000000000e+03 1.949586486816406250e+01 -2.930901336669921875e+01 -1.392261236906051636e-01 5.089039802551269531e-01 1.109033599495887756e-01 -2.549477815628051758e-01
1.449000000000000000e+03 1.520045280456542969e+01 -2.482978057861328125e+01 1.493126451969146729e-01 1.325211048126220703e+00 4.423571228981018066e-01 -4.874621331691741943e-01
1.450000000000000000e+03 2.476650619506835938e+01 -8.533306121826171875e+00 -6.183322072029113770e-01 3.041358590126037598e-01 -9.425890445709228516e-02 3.258388936519622803e-01
1.451000000000000000e+03 3.770401382446289062e+01 -1.375909805297851562e+01 1.435582995414733887e+00 6.021951675415039062e+00 2.237260341644287109e+00 -2.065352201461791992e+00
1.452000000000000000e+03 2.463040924072265625e+01 -3.118161582946777344e+01 -2.983633875846862793e-01 1.019884124398231506e-01 -5.891248956322669983e-02 -1.116649881005287170e-01
1.453000000000000000e+03 2.611172294616699219e+01 -3.193483352661132812e+01 -9.089671820402145386e-02 2.097595483064651489e-01 3.565885126590728760e-02 1.186910420656204224e-01
1.454000000000000000e+03 1.450224018096923828e+01 -2.814934539794921875e+01 -1.997958868741989136e-01 9.733209013938903809e-01 2.320575118064880371e-01 -1.145918741822242737e-01
1.455000000000000000e+03 4.814398956298828125e+01 -1.553941249847412109e+01 6.653615474700927734e+00 2.760635375976562500e+00 2.824275255203247070e+00 2.959003686904907227e+00
1.456000000000000000e+03 5.025665283203125000e+01 -1.496772956848144531e+01 5.549595832824707031e+00 6.248843073844909668e-01 1.852344155311584473e+00 1.548131823539733887e+00
1.457000000000000000e+03 5.479454421997070312e+01 -7.267313957214355469e+00 -1.771619796752929688e+00 1.612759828567504883e+00 -4.765797778964042664e-02 1.675375580787658691e+00
1.458000000000000000e+03 5.405466079711914062e+01 -5.563588142395019531e+00 -2.245223283767700195e+00 1.850407719612121582e+00 -1.184446811676025391e-01 1.219870448112487793e+00
1.459000000000000000e+03 7.926709747314453125e+01 3.754145812988281250e+01 2.152928151190280914e-02 -1.091604948043823242e+00 -3.210226893424987793e-01 5.139850452542304993e-02
1.460000000000000000e+03 7.722032165527343750e+01 3.478783798217773438e+01 -5.053542554378509521e-02 -1.000953435897827148e+00 -3.154466748237609863e-01 1.980421990156173706e-01
1.461000000000000000e+03 7.912751770019531250e+01 3.055341529846191406e+01 -1.275028381496667862e-02 -1.752427339553833008e+00 -5.295532941818237305e-01 1.135506480932235718e-01
1.462000000000000000e+03 7.766788482666015625e+01 2.766308975219726562e+01 -9.616126306354999542e-03 -1.711449146270751953e+00 -5.163195729255676270e-01 3.318361937999725342e-01
1.463000000000000000e+03 7.823280334472656250e+01 -9.942438125610351562e+00 -2.550454623997211456e-02 -2.343979328870773315e-01 -7.797074317932128906e-02 -1.493090689182281494e-01
1.464000000000000000e+03 7.822673034667968750e+01 -8.593041419982910156e+00 -3.172397986054420471e-02 -3.493649959564208984e-01 -1.143266931176185608e-01 -1.928657591342926025e-01
1.465000000000000000e+03 7.941477966308593750e+01 -7.267937660217285156e+00 -1.225019339472055435e-02 -5.311260819435119629e-01 -1.630128920078277588e-01 -7.823181152343750000e-02
1.466000000000000000e+03 7.935666656494140625e+01 5.246235370635986328e+00 5.443118978291749954e-03 -2.831446647644042969e+00 -8.478010296821594238e-01 -9.393329918384552002e-02
1.467000000000000000e+03 7.927430725097656250e+01 1.242058753967285156e+01 1.810037158429622650e-02 -3.639899492263793945e+00 -1.086539745330810547e+00 -3.203236311674118042e-02
1.468000000000000000e+03 7.781802368164062500e+01 1.259019088745117188e+01 5.656367167830467224e-02 -2.788676023483276367e+00 -8.196337223052978516e-01 -8.702553808689117432e-02
1.469000000000000000e+03 7.931848144531250000e+01 1.384728336334228516e+01 5.465369205921888351e-03 -3.703760385513305664e+00 -1.109488487243652344e+00 -7.754391990602016449e-03
1.470000000000000000e+03 7.938224792480468750e+01 1.944113159179687500e+01 1.450172159820795059e-02 -3.477795362472534180e+00 -1.038988113403320312e+00 7.334956526756286621e-02
1.471000000000000000e+03 7.936338806152343750e+01 2.360527992248535156e+01 7.243975065648555756e-03 -2.877037048339843750e+00 -8.609379529953002930e-01 1.113881319761276245e-01
1.472000000000000000e+03 7.933078002929687500e+01 2.499262428283691406e+01 -1.953465864062309265e-03 -2.636187791824340820e+00 -7.914423942565917969e-01 1.170431002974510193e-01
1.473000000000000000e+03 7.928230285644531250e+01 2.637584304809570312e+01 1.100003533065319061e-02 -2.393404483795166016e+00 -7.147213220596313477e-01 1.268430352210998535e-01
1.474000000000000000e+03 7.907741546630859375e+01 3.196313667297363281e+01 7.442526839440688491e-05 -1.584241151809692383e+00 -4.752500057220458984e-01 1.044742166996002197e-01
1.475000000000000000e+03 7.907680511474609375e+01 3.337319564819335938e+01 -5.352398380637168884e-03 -1.433106064796447754e+00 -4.315375387668609619e-01 1.001333594322204590e-01
1.476000000000000000e+03 7.917324066162109375e+01 3.874995040893554688e+01 -1.896382495760917664e-02 -9.846777915954589844e-01 -3.010925054550170898e-01 4.670649766921997070e-02
1.477000000000000000e+03 7.822757720947265625e+01 -1.819479107856750488e+00 -8.099006954580545425e-04 -1.251177310943603516e+00 -3.755961656570434570e-01 -3.221639692783355713e-01
1.478000000000000000e+03 7.939195251464843750e+01 1.061148285865783691e+00 9.694554319139569998e-05 -2.055776357650756836e+00 -6.167038083076477051e-01 -1.101540327072143555e-01
1.479000000000000000e+03 7.928131866455078125e+01 8.076524734497070312e+00 -8.777831098996102810e-04 -3.245422124862670898e+00 -9.738899469375610352e-01 -8.395533263683319092e-02
1.480000000000000000e+03 7.811746978759765625e+01 1.961603164672851562e+01 3.557256609201431274e-02 -2.777342796325683594e+00 -8.225311040878295898e-01 2.013375908136367798e-01
1.481000000000000000e+03 7.938462066650390625e+01 2.083007240295410156e+01 -4.915989120490849018e-04 -3.304478168487548828e+00 -9.914909601211547852e-01 9.195796400308609009e-02
1.482000000000000000e+03 7.799349975585937500e+01 1.547563648223876953e+01 4.986411705613136292e-02 -2.930229663848876953e+00 -8.641096353530883789e-01 4.644665867090225220e-02
1.483000000000000000e+03 7.936169433593750000e+01 1.665496253967285156e+01 7.728604134172201157e-03 -3.687880754470825195e+00 -1.104045629501342773e+00 3.914431110024452209e-02
1.484000000000000000e+03 7.786980438232421875e+01 7.878101348876953125e+00 2.993234246969223022e-02 -2.484718322753906250e+00 -7.364357709884643555e-01 -2.490581572055816650e-01
1.485000000000000000e+03 7.922573852539062500e+01 9.521068572998046875e+00 1.543105207383632660e-02 -3.410500049591064453e+00 -1.018520712852478027e+00 -6.898815929889678955e-02
1.486000000000000000e+03 7.818842315673828125e+01 9.074389934539794922e-01 6.503095850348472595e-03 -1.675400018692016602e+00 -5.006690621376037598e-01 -3.327482342720031738e-01
1.487000000000000000e+03 7.938343048095703125e+01 2.454073190689086914e+00 2.934402553364634514e-03 -2.329529285430908203e+00 -6.979784369468688965e-01 -1.082222387194633484e-01
1.488000000000000000e+03 7.822766876220703125e+01 -5.894191741943359375e+00 -2.225293219089508057e-02 -6.571895480155944824e-01 -2.038327306509017944e-01 -2.606070637702941895e-01
1.489000000000000000e+03 7.941200256347656250e+01 -4.497821807861328125e+00 -8.610676974058151245e-03 -9.754371047019958496e-01 -2.952143549919128418e-01 -9.742385149002075195e-02
1.490000000000000000e+03 7.772989654541015625e+01 -1.318322753906250000e+01 -4.666324704885482788e-02 -5.022623017430305481e-02 -2.906684204936027527e-02 -6.578247249126434326e-02
1.491000000000000000e+03 7.953099822998046875e+01 -1.293537425994873047e+01 -1.016547624021768570e-02 -3.439006209373474121e-02 -1.336666103452444077e-02 -1.856358349323272705e-02
1.492000000000000000e+03 2.972432327270507812e+01 -1.252105474472045898e+00 2.185589790344238281e+00 3.334856629371643066e-01 7.557226419448852539e-01 4.888349175453186035e-01
1.493000000000000000e+03 4.432636642456054688e+01 -2.639324951171875000e+01 1.364251375198364258e+00 7.015910625457763672e+00 2.514048576354980469e+00 -9.049147367477416992e-01
1.494000000000000000e+03 3.593877792358398438e+01 3.290463924407958984e+00 -1.574435234069824219e-01 1.200525093078613281e+01 3.554342031478881836e+00 1.389706134796142578e+00
1.495000000000000000e+03 5.055360794067382812e+01 -5.504401206970214844e+00 -6.347198963165283203e+00 -2.918690741062164307e-01 -1.991720438003540039e+00 5.142245888710021973e-01
1.496000000000000000e+03 4.709834671020507812e+01 -1.633753967285156250e+01 5.218542098999023438e+00 4.254096984863281250e+00 2.841791629791259766e+00 4.084430217742919922e+00
1.497000000000000000e+03 5.956197357177734375e+01 -3.155626678466796875e+01 -2.687757909297943115e-01 2.381378598511219025e-02 -7.348860055208206177e-02 3.379186987876892090e-02
1.498000000000000000e+03 6.154629516601562500e+01 -3.122808647155761719e+01 -2.197583913803100586e-01 7.763806730508804321e-03 -6.359837204217910767e-02 5.823390185832977295e-02
1.499000000000000000e+03 5.780797576904296875e+01 -3.400027847290039062e+01 2.278830856084823608e-02 9.599605202674865723e-02 3.563530743122100830e-02 -3.185132145881652832e-02
1.500000000000000000e+03 4.985343170166015625e+01 -3.207931900024414062e+01 2.153654992580413818e-01 2.035393476486206055e+00 6.752276420593261719e-01 -1.290977597236633301e+00
1.501000000000000000e+03 4.319146728515625000e+01 -2.261885261535644531e+01 1.502961397171020508e+00 7.814522266387939453e+00 2.795245170593261719e+00 -5.851084589958190918e-01
1.502000000000000000e+03 4.545654296875000000e+01 -2.342144393920898438e+01 7.203027009963989258e-01 1.091185474395751953e+01 3.489647150039672852e+00 -1.342172503471374512e+00
1.503000000000000000e+03 5.911129379272460938e+01 -1.263199138641357422e+01 -1.908884048461914062e-01 3.351175189018249512e-01 4.326873645186424255e-02 5.930308103561401367e-01
1.504000000000000000e+03 4.713926315307617188e+01 -3.005433082580566406e+01 4.704253673553466797e-01 4.399281024932861328e+00 1.460911989212036133e+00 -1.583964705467224121e+00
1.505000000000000000e+03 4.836175155639648438e+01 -3.116495895385742188e+01 2.223356813192367554e-01 3.176477193832397461e+00 1.019643902778625488e+00 -1.489335656166076660e+00
1.506000000000000000e+03 6.909413909912109375e+01 -2.450615882873535156e+01 -2.460633963346481323e-02 5.847970023751258850e-03 -5.627510603517293930e-03 -3.374196588993072510e-03
1.507000000000000000e+03 6.773181152343750000e+01 -2.307003784179687500e+01 -4.459072370082139969e-03 -8.362916414625942707e-04 -1.588609302416443825e-03 -5.247252993285655975e-03
1.508000000000000000e+03 5.223676300048828125e+01 -3.072651863098144531e+01 6.252682209014892578e-02 3.857562839984893799e-01 1.344849318265914917e-01 -4.459624588489532471e-01
1.509000000000000000e+03 3.849718856811523438e+01 -2.859879732131958008e+00 -7.729595899581909180e-01 3.125114679336547852e+00 7.056465744972229004e-01 -2.260335206985473633e+00
1.510000000000000000e+03 3.832749557495117188e+01 -2.156203031539916992e+00 1.136150211095809937e-01 2.452650547027587891e+00 7.698796391487121582e-01 -1.963712334632873535e+00
1.511000000000000000e+03 3.104421997070312500e+01 -4.136818349361419678e-01 2.326020479202270508e+00 1.120265647768974304e-01 7.314141392707824707e-01 6.188786029815673828e-01
1.512000000000000000e+03 5.788934326171875000e+01 -1.297834205627441406e+01 3.011045157909393311e-01 3.626306354999542236e-01 1.991205513477325439e-01 7.662029266357421875e-01
1.513000000000000000e+03 5.663938522338867188e+01 -1.322344875335693359e+01 8.194376230239868164e-01 2.866641879081726074e-01 3.318305313587188721e-01 9.837053418159484863e-01
1.514000000000000000e+03 6.322547149658203125e+01 -3.028158950805664062e+01 -1.939366757869720459e-01 2.799664996564388275e-02 -4.978200793266296387e-02 2.977469749748706818e-02
1.515000000000000000e+03 5.156935501098632812e+01 -1.488552379608154297e+01 4.369678974151611328e+00 2.241294085979461670e-01 1.378142595291137695e+00 1.047913193702697754e+00
1.516000000000000000e+03 4.941632080078125000e+01 -1.318863105773925781e+01 2.706518173217773438e+00 1.451650142669677734e+00 1.247450470924377441e+00 1.797839164733886719e+00
1.517000000000000000e+03 5.431114196777343750e+01 -1.346079444885253906e+01 1.834857463836669922e+00 3.372003138065338135e-01 6.516173481941223145e-01 1.398517251014709473e+00
1.518000000000000000e+03 7.116099548339843750e+01 -2.098840713500976562e+01 -5.112807266414165497e-03 -1.067400327883660793e-03 -1.854062196798622608e-03 -1.650051126489415765e-04
1.519000000000000000e+03 5.292638778686523438e+01 -1.475482177734375000e+01 3.629627227783203125e+00 2.313556224107742310e-01 1.158294796943664551e+00 8.824967741966247559e-01
1.520000000000000000e+03 5.498594665527343750e+01 -3.387154006958007812e+01 8.399765938520431519e-02 3.413166999816894531e-01 1.275943070650100708e-01 -2.960358560085296631e-01
1.521000000000000000e+03 4.531829452514648438e+01 -2.067493057250976562e+01 1.272478103637695312e-01 9.684597015380859375e+00 2.943553447723388672e+00 1.125033870339393616e-01
1.522000000000000000e+03 6.484287261962890625e+01 1.846386146545410156e+01 1.194483399391174316e+00 3.878682851791381836e+00 1.521949887275695801e+00 -2.489425837993621826e-01
1.523000000000000000e+03 4.618215179443359375e+01 -6.011347293853759766e+00 -5.093832492828369141e+00 -1.887127459049224854e-01 -1.584763526916503906e+00 8.295587897300720215e-01
1.524000000000000000e+03 1.988929867744445801e+00 2.598803329467773438e+01 -3.150900593027472496e-03 -9.333613514900207520e-02 -2.894611097872257233e-02 4.096909984946250916e-02
1.525000000000000000e+03 7.438827157020568848e-01 3.181525993347167969e+01 1.101656700484454632e-03 -2.498545795679092407e-01 -7.462587952613830566e-02 1.563615351915359497e-02
1.526000000000000000e+03 3.192499637603759766e+00 3.526875305175781250e+01 1.720210351049900055e-02 -1.979443728923797607e-01 -5.422268062829971313e-02 3.540839627385139465e-02
1.527000000000000000e+03 3.492536306381225586e+00 3.887641906738281250e+01 1.450984366238117218e-02 -2.304446995258331299e-01 -6.478045880794525146e-02 1.660628058016300201e-02
1.528000000000000000e+03 9.402251839637756348e-01 3.867122650146484375e+01 -2.781235380098223686e-04 -3.054533898830413818e-01 -9.171944856643676758e-02 -3.928763326257467270e-03
1.529000000000000000e+03 1.917183399200439453e+00 2.321863174438476562e+01 -5.160943605005741119e-03 -5.092506110668182373e-02 -1.682580076158046722e-02 3.037056885659694672e-02
1.530000000000000000e+03 2.166481971740722656e+00 3.020149040222167969e+01 1.708118477836251259e-03 -1.622662246227264404e-01 -4.816743358969688416e-02 4.513231664896011353e-02
1.531000000000000000e+03 2.103421449661254883e+00 3.689969253540039062e+01 4.524412099272012711e-03 -2.594694197177886963e-01 -7.648350298404693604e-02 1.253318041563034058e-02
1.532000000000000000e+03 2.590090036392211914e+00 -3.801969528198242188e+01 -8.847754448652267456e-03 -2.094955295324325562e-01 -6.550298631191253662e-02 6.387506425380706787e-02
1.533000000000000000e+03 7.933032512664794922e-01 -3.040358352661132812e+01 -5.286677274852991104e-03 -6.567454934120178223e-01 -1.986096352338790894e-01 5.930336564779281616e-02
1.534000000000000000e+03 2.220753431320190430e+00 -2.746359252929687500e+01 -4.843826405704021454e-03 -6.552278995513916016e-01 -1.980215311050415039e-01 1.794399321079254150e-01
1.535000000000000000e+03 1.867158055305480957e+00 -9.271619796752929688e+00 1.127352006733417511e-02 -6.904104948043823242e-01 -2.037410885095596313e-01 -2.344820350408554077e-01
1.536000000000000000e+03 6.457466483116149902e-01 -1.349115562438964844e+01 1.036469358950853348e-02 -1.367333769798278809e+00 -4.070907235145568848e-01 -5.396234616637229919e-02
1.537000000000000000e+03 2.852539300918579102e+00 4.837820053100585938e+00 8.825343684293329716e-05 1.812617265386506915e-04 8.085455192485824227e-05 -7.398338639177381992e-04
1.538000000000000000e+03 5.780965685844421387e-01 -6.490709781646728516e+00 -1.084417221136391163e-03 -4.761870503425598145e-01 -1.431814432144165039e-01 -8.133414387702941895e-02
1.539000000000000000e+03 2.813864946365356445e+00 -3.662552356719970703e+00 -8.014174550771713257e-02 -1.400579810142517090e-01 -6.605991721153259277e-02 -2.166680395603179932e-01
1.540000000000000000e+03 6.650972366333007812e-01 -1.772941398620605469e+01 5.451404489576816559e-03 -1.559894919395446777e+00 -4.663330614566802979e-01 6.129576941020786762e-04
1.541000000000000000e+03 1.966905117034912109e+00 -1.626149749755859375e+01 3.945227339863777161e-02 -1.140941619873046875e+00 -3.304468095302581787e-01 -5.824690684676170349e-02
1.542000000000000000e+03 6.917871832847595215e-01 -2.055869674682617188e+01 4.727042280137538910e-03 -1.479848265647888184e+00 -4.425363540649414062e-01 3.932933136820793152e-02
1.543000000000000000e+03 1.996745824813842773e+00 -1.766294670104980469e+01 4.718626290559768677e-02 -1.150311946868896484e+00 -3.309377133846282959e-01 -5.711644887924194336e-03
1.544000000000000000e+03 6.895819902420043945e-01 -2.337857818603515625e+01 5.683537106961011887e-03 -1.280900955200195312e+00 -3.825652003288269043e-01 6.033237650990486145e-02
1.545000000000000000e+03 2.125715255737304688e+00 -2.609208106994628906e+01 -3.661968046799302101e-03 -7.571774721145629883e-01 -2.282518297433853149e-01 1.743370741605758667e-01
1.546000000000000000e+03 2.450391292572021484e+00 -3.299784088134765625e+01 -2.232531085610389709e-02 -3.507377803325653076e-01 -1.119189262390136719e-01 1.190274730324745178e-01
1.547000000000000000e+03 2.273041963577270508e+00 -3.572473907470703125e+01 -1.298338174819946289e-02 -2.801671624183654785e-01 -8.794516324996948242e-02 8.557618409395217896e-02
1.548000000000000000e+03 1.891828656196594238e+00 2.186211776733398438e+01 -4.702343139797449112e-03 -3.560488298535346985e-02 -1.209216751158237457e-02 2.391440421342849731e-02
1.549000000000000000e+03 6.111345887184143066e-01 1.915592193603515625e+01 -8.444311679340898991e-04 -8.393716067075729370e-03 -2.771444385871291161e-03 4.354227799922227859e-03
1.550000000000000000e+03 6.112570166587829590e-01 1.774769592285156250e+01 -6.611444987356662750e-04 -3.627647529356181622e-04 -3.071727696806192398e-04 2.590049291029572487e-03
1.551000000000000000e+03 6.228803396224975586e-01 1.491844367980957031e+01 -3.617793554440140724e-04 6.081337109208106995e-03 1.715867314487695694e-03 3.620571806095540524e-04
1.552000000000000000e+03 6.074089407920837402e-01 1.068250083923339844e+01 3.250141744501888752e-04 4.940466955304145813e-03 1.579644391313195229e-03 -4.717878182418644428e-04
1.553000000000000000e+03 6.164574027061462402e-01 7.856250762939453125e+00 3.077588917221873999e-04 2.751640509814023972e-03 9.178197942674160004e-04 -4.673111543525010347e-04
1.554000000000000000e+03 1.867226004600524902e+00 1.347654533386230469e+01 -8.809693972580134869e-04 2.483034972101449966e-03 4.806196666322648525e-04 -1.835965231293812394e-04
1.555000000000000000e+03 3.527968883514404297e+00 -3.902308654785156250e+01 -2.163659222424030304e-02 -1.830378621816635132e-01 -6.140233576297760010e-02 5.281022191047668457e-02
1.556000000000000000e+03 2.474088907241821289e+00 -3.161801338195800781e+01 -2.387495525181293488e-02 -4.057513475418090820e-01 -1.288878917694091797e-01 1.446176022291183472e-01
1.557000000000000000e+03 2.069721937179565430e+00 -2.471178817749023438e+01 3.709957702085375786e-03 -8.505184650421142578e-01 -2.540425658226013184e-01 1.733026504516601562e-01
1.558000000000000000e+03 6.928330063819885254e-01 -2.479113960266113281e+01 2.353440067963674664e-04 -1.152085065841674805e+00 -3.455549180507659912e-01 6.612055003643035889e-02
1.559000000000000000e+03 1.950601220130920410e+00 -1.486095237731933594e+01 4.198019206523895264e-02 -1.100084781646728516e+00 -3.174313604831695557e-01 -1.072775870561599731e-01
1.560000000000000000e+03 6.493546366691589355e-01 -1.490511798858642578e+01 4.378127399832010269e-03 -1.471715331077575684e+00 -4.402011632919311523e-01 -3.824043273925781250e-02
1.561000000000000000e+03 2.880097389221191406e+00 -6.735222339630126953e+00 -2.758951485157012939e-02 -3.535987138748168945e-01 -1.143564730882644653e-01 -3.189717531204223633e-01
1.562000000000000000e+03 5.874081850051879883e-01 -7.886993885040283203e+00 1.246977364644408226e-03 -6.786192059516906738e-01 -2.032116651535034180e-01 -8.162796497344970703e-02
1.563000000000000000e+03 4.376195526123046875e+01 -3.919796705245971680e+00 -6.241401672363281250e+00 -5.338199734687805176e-01 -2.032566547393798828e+00 1.739804625511169434e+00
1.564000000000000000e+03 6.231170654296875000e+01 4.161592483520507812e+00 6.312616467475891113e-01 3.376561641693115234e+00 1.202347040176391602e+00 6.869516968727111816e-01
1.565000000000000000e+03 6.158946990966796875e+01 5.508197784423828125e+00 1.065488934516906738e+00 4.549985885620117188e+00 1.684642434120178223e+00 1.421422958374023438e+00
1.566000000000000000e+03 5.450678253173828125e+01 -2.765020608901977539e+00 4.652840495109558105e-01 1.312891840934753418e+00 5.334528088569641113e-01 9.803393483161926270e-01
1.567000000000000000e+03 5.821931457519531250e+01 -3.561238944530487061e-01 6.653801798820495605e-01 2.165685176849365234e+00 8.493196368217468262e-01 1.192205667495727539e+00
1.568000000000000000e+03 6.261722564697265625e+01 6.967012882232666016e+00 7.182518243789672852e-01 4.546837806701660156e+00 1.579526901245117188e+00 1.087585568428039551e+00
1.569000000000000000e+03 6.299634170532226562e+01 5.839052200317382812e+00 7.191051244735717773e-01 3.913395166397094727e+00 1.389750123023986816e+00 6.769676208496093750e-01
1.570000000000000000e+03 5.476246261596679688e+01 -4.532800674438476562e+00 -1.350490689277648926e+00 1.619715809822082520e+00 8.076754212379455566e-02 5.579826235771179199e-01
1.571000000000000000e+03 5.716448211669921875e+01 4.847255945205688477e-01 9.899368286132812500e-01 2.410272359848022461e+00 1.020062804222106934e+00 1.491147160530090332e+00
1.572000000000000000e+03 6.590141296386718750e+01 1.662582015991210938e+01 9.703503251075744629e-01 3.634226799011230469e+00 1.381373167037963867e+00 -1.980701386928558350e-01
1.573000000000000000e+03 5.977165985107421875e+01 1.830659151077270508e+00 6.424131989479064941e-01 2.765074014663696289e+00 1.022246122360229492e+00 1.352672338485717773e+00
1.574000000000000000e+03 6.437100219726562500e+01 1.719953155517578125e+01 1.270944952964782715e+00 4.417170047760009766e+00 1.706434488296508789e+00 -6.522348523139953613e-01
1.575000000000000000e+03 6.353187942504882812e+01 1.331401062011718750e+01 4.463829696178436279e-01 5.902084827423095703e+00 1.904540300369262695e+00 5.777676403522491455e-02
1.576000000000000000e+03 6.511360931396484375e+01 1.417752838134765625e+01 7.391223907470703125e-01 4.523588657379150391e+00 1.578813314437866211e+00 -2.950870394706726074e-01
1.577000000000000000e+03 5.557966232299804688e+01 -3.489516496658325195e+00 -1.142881140112876892e-01 1.672569751739501953e+00 4.674845039844512939e-01 7.761387228965759277e-01
1.578000000000000000e+03 6.131935119628906250e+01 3.726067304611206055e+00 5.944215655326843262e-01 3.581550836563110352e+00 1.252791762351989746e+00 9.736096262931823730e-01
1.579000000000000000e+03 2.766929054260253906e+01 -8.158036321401596069e-02 1.094240903854370117e+00 5.731970816850662231e-02 3.454681932926177979e-01 -3.146199136972427368e-02
1.580000000000000000e+03 2.871886062622070312e+01 -1.086057066917419434e+00 1.621101856231689453e+00 1.120702549815177917e-01 5.199516415596008301e-01 2.702499628067016602e-01
1.581000000000000000e+03 3.376515960693359375e+01 6.221332550048828125e+00 3.994902372360229492e-01 2.456565666198730469e+01 7.489544391632080078e+00 -1.217196941375732422e+00
1.582000000000000000e+03 3.245695114135742188e+01 1.801447677612304688e+01 1.155874490737915039e+00 7.783544063568115234e+00 2.681825399398803711e+00 -1.754611492156982422e+00
1.583000000000000000e+03 3.487431335449218750e+01 4.655039310455322266e+00 1.360485792160034180e+00 1.823052787780761719e+01 5.877304077148437500e+00 9.323604702949523926e-01
1.584000000000000000e+03 3.445463180541992188e+01 3.849290847778320312e+00 7.776746749877929688e-01 1.980813789367675781e+01 6.175744056701660156e+00 1.820359006524085999e-02
1.585000000000000000e+03 3.410410690307617188e+01 1.403461837768554688e+01 6.377222537994384766e-01 1.067755699157714844e+01 3.394583940505981445e+00 -5.706398487091064453e-01
1.586000000000000000e+03 2.681508445739746094e+01 2.363891983032226562e+01 7.180316448211669922e-01 1.535620570182800293e+00 6.760956645011901855e-01 -1.351485371589660645e+00
1.587000000000000000e+03 3.590596771240234375e+01 4.793207645416259766e+00 1.201647520065307617e+00 1.226483535766601562e+01 4.039944648742675781e+00 7.139407396316528320e-01
1.588000000000000000e+03 2.461797332763671875e+01 2.253548812866210938e+01 4.124808311462402344e-01 2.656223177909851074e-01 2.034309506416320801e-01 -4.028178453445434570e-01
1.589000000000000000e+03 2.419054603576660156e+01 2.501820755004882812e+01 3.849224448204040527e-01 7.166657447814941406e-01 3.304764628410339355e-01 -7.941566705703735352e-01
1.590000000000000000e+03 3.433620452880859375e+01 1.035041999816894531e+01 3.813889920711517334e-01 1.517848110198974609e+01 4.667961120605468750e+00 -6.483615040779113770e-01
1.591000000000000000e+03 3.344196319580078125e+01 1.531840133666992188e+01 5.624320507049560547e-01 1.014169406890869141e+01 3.211237907409667969e+00 -1.345649242401123047e+00
1.592000000000000000e+03 3.505809783935546875e+01 1.302365589141845703e+01 6.071508526802062988e-01 1.009837150573730469e+01 3.211656808853149414e+00 8.144360035657882690e-02
1.593000000000000000e+03 6.720688629150390625e+01 -2.633333015441894531e+01 -5.784945562481880188e-02 9.449558332562446594e-03 -1.451996900141239166e-02 -1.622949540615081787e-02
1.594000000000000000e+03 1.280085182189941406e+01 -1.864133834838867188e+01 3.263901472091674805e-01 2.279560327529907227e+00 7.817851305007934570e-01 -3.077003918588161469e-02
1.595000000000000000e+03 6.557666015625000000e+01 -1.060684108734130859e+01 -9.965429306030273438e-01 -2.476109936833381653e-02 -3.063912093639373779e-01 -1.522835493087768555e-01
1.596000000000000000e+03 3.563491058349609375e+01 2.224566698074340820e+00 -1.174003124237060547e+00 1.470226478576660156e+01 4.058478355407714844e+00 3.955538034439086914e+00
1.597000000000000000e+03 3.603974914550781250e+01 2.268493652343750000e+00 -2.788777928799390793e-03 1.019457721710205078e+01 3.057536602020263672e+00 3.306534767150878906e+00
1.598000000000000000e+03 3.711317825317382812e+01 3.182570219039916992e+00 9.518487453460693359e-01 4.427057743072509766e+00 1.613671898841857910e+00 2.614353299140930176e-01
1.599000000000000000e+03 3.511650848388671875e+01 3.621062040328979492e+00 -8.140479922294616699e-01 1.709518623352050781e+01 4.884341239929199219e+00 2.172448188066482544e-01
1.600000000000000000e+03 3.636910247802734375e+01 2.892664909362792969e+00 4.630315899848937988e-01 8.423501968383789062e+00 2.665959835052490234e+00 1.891216874122619629e+00
1.601000000000000000e+03 3.734455108642578125e+01 -1.474320888519287109e+00 1.838687539100646973e+00 3.055454969406127930e+00 1.468242764472961426e+00 -3.001511335372924805e+00
1.602000000000000000e+03 3.665697479248046875e+01 -1.802726626396179199e+00 1.320979237556457520e+00 6.431087493896484375e+00 2.325619935989379883e+00 -4.597143173217773438e+00
1.603000000000000000e+03 3.717390823364257812e+01 -1.196480751037597656e+00 2.466891765594482422e+00 2.828217029571533203e+00 1.588532686233520508e+00 -3.016364097595214844e+00
1.604000000000000000e+03 3.626440429687500000e+01 -1.040969967842102051e+00 3.676811218261718750e+00 6.612950325012207031e+00 3.086928606033325195e+00 -6.095139503479003906e+00
1.605000000000000000e+03 3.550157165527343750e+01 3.014262437820434570e+00 -8.611463904380798340e-01 1.524812126159667969e+01 4.316092491149902344e+00 1.564351916313171387e+00
1.606000000000000000e+03 3.846969985961914062e+01 -1.748099565505981445e+00 2.704206407070159912e-01 1.839157938957214355e+00 6.328735947608947754e-01 -1.323987603187561035e+00
1.607000000000000000e+03 2.681495475769042969e+01 -2.948584854602813721e-01 8.700085282325744629e-01 -9.712495654821395874e-02 2.318650782108306885e-01 1.374089717864990234e-01
1.608000000000000000e+03 7.699216461181640625e+01 -1.914853668212890625e+01 6.179328192956745625e-04 5.947497265879064798e-05 2.032223419519141316e-04 -1.043875236064195633e-03
1.609000000000000000e+03 7.637683105468750000e+01 -1.903669548034667969e+01 -4.809585516341030598e-04 -4.486539692152291536e-04 -2.788837591651827097e-04 -7.880042539909482002e-04
1.610000000000000000e+03 3.419001770019531250e+01 2.841696739196777344e+00 -2.500974893569946289e+00 2.195708274841308594e+01 5.836832523345947266e+00 -1.640635132789611816e+00
1.611000000000000000e+03 7.819183349609375000e+01 -1.367736816406250000e+01 -3.296392410993576050e-02 -4.666967317461967468e-02 -2.389007993042469025e-02 -4.559773951768875122e-02
1.612000000000000000e+03 7.708018493652343750e+01 -1.379100322723388672e+01 -6.740520894527435303e-02 -3.480213135480880737e-02 -3.066220320761203766e-02 -6.320100277662277222e-02
1.613000000000000000e+03 7.705336761474609375e+01 -1.302102947235107422e+01 -6.090986356139183044e-02 -6.030850857496261597e-02 -3.636551275849342346e-02 -9.460411965847015381e-02
1.614000000000000000e+03 7.305108642578125000e+01 -1.894227027893066406e+01 1.379490247927606106e-03 -1.077648252248764038e-03 9.055258851731196046e-05 5.844125407747924328e-04
1.615000000000000000e+03 7.448825073242187500e+01 -1.967789459228515625e+01 -1.331545063294470310e-03 -1.572265289723873138e-03 -8.711430709809064865e-04 -7.060191710479557514e-04
1.616000000000000000e+03 1.942256355285644531e+01 3.222730159759521484e+00 1.064067910192534328e-04 1.424255315214395523e-04 7.464969530701637268e-05 2.179896728193853050e-05
1.617000000000000000e+03 1.710890769958496094e+01 3.586226224899291992e+00 3.777347728828317486e-06 5.124791059643030167e-04 1.548769214423373342e-04 3.605989913921803236e-04
1.618000000000000000e+03 2.341497421264648438e+01 -3.194855928421020508e+00 1.810845881700515747e-01 5.544104054570198059e-02 7.095769047737121582e-02 7.329772114753723145e-01
1.619000000000000000e+03 3.890585327148437500e+01 -1.906077623367309570e+00 -7.542289793491363525e-02 1.389942526817321777e+00 3.943558931350708008e-01 -1.006368398666381836e+00
1.620000000000000000e+03 1.601761627197265625e+01 3.265819072723388672e+00 9.329307067673653364e-05 5.001770332455635071e-04 1.780410239007323980e-04 2.751865249592810869e-04
1.621000000000000000e+03 1.538517856597900391e+01 3.306936025619506836e+00 -3.027326238225214183e-05 5.513551514013670385e-05 7.458676464011659846e-06 3.388710902072489262e-04
1.622000000000000000e+03 6.969719696044921875e+01 -1.394969654083251953e+01 -4.271040558815002441e-01 9.564545005559921265e-02 -9.943757951259613037e-02 5.352199077606201172e-02
1.623000000000000000e+03 6.751381683349609375e+01 -1.372183990478515625e+01 -5.637665390968322754e-01 -1.445654779672622681e-01 -2.124996036291122437e-01 2.033088356256484985e-01
1.624000000000000000e+03 2.008058738708496094e+01 3.375989437103271484e+00 -5.907564627705141902e-05 -6.778974784538149834e-05 -3.805961750913411379e-05 -2.904868779296521097e-05
1.625000000000000000e+03 2.037938499450683594e+01 4.426205158233642578e+00 -1.717068516882136464e-04 -5.153155871084891260e-05 -6.697152275592088699e-05 -6.413612572941929102e-05
1.626000000000000000e+03 2.117817497253417969e+01 4.454905033111572266e+00 5.557880649575963616e-05 1.484632684878306463e-05 2.112754009431228042e-05 -2.493344618414994329e-05
1.627000000000000000e+03 7.144510650634765625e+01 -2.018980789184570312e+01 1.864354708231985569e-04 -1.365831238217651844e-03 -3.538187302183359861e-04 -1.258041902474360541e-05
1.628000000000000000e+03 7.169512176513671875e+01 -1.953860092163085938e+01 -1.521367463283240795e-03 -7.351992535404860973e-04 -6.769700557924807072e-04 1.255555893294513226e-03
1.629000000000000000e+03 1.401103305816650391e+01 2.584347248077392578e+00 3.526789951138198376e-04 3.387336037121713161e-04 2.074237854685634375e-04 4.714494571089744568e-04
1.630000000000000000e+03 1.257291412353515625e+01 3.232018232345581055e+00 4.172898770775645971e-04 -3.468811046332120895e-04 2.112263064191211015e-05 6.508756196126341820e-04
1.631000000000000000e+03 1.739881515502929688e+01 2.858863115310668945e+00 1.492986484663560987e-05 -7.060666393954306841e-05 -1.670303936407435685e-05 -8.602702109783422202e-06
1.632000000000000000e+03 1.806222915649414062e+01 2.997296810150146484e+00 1.566422870382666588e-04 2.140336437150835991e-04 1.112027821363881230e-04 1.964580442290753126e-04
1.633000000000000000e+03 1.919486045837402344e+01 3.958921670913696289e+00 -1.094189065042883158e-04 2.236708678537979722e-05 -2.611554555187467486e-05 6.663825479336082935e-05
1.634000000000000000e+03 7.570745086669921875e+01 -1.964638710021972656e+01 -1.332517247647047043e-03 -6.975320866331458092e-04 -6.090148235671222210e-04 -9.274851181544363499e-04
1.635000000000000000e+03 1.111792087554931641e+01 3.294735431671142578e+00 5.758038023486733437e-04 -4.425826191436499357e-04 3.996636223746463656e-05 5.346965626813471317e-04
1.636000000000000000e+03 1.327013397216796875e+01 3.224360704421997070e+00 3.106986114289611578e-04 4.208230238873511553e-04 2.194564876845106483e-04 5.818878998979926109e-04
1.637000000000000000e+03 8.144099235534667969e+00 3.313067913055419922e+00 7.394843851216137409e-04 -6.024268805049359798e-04 4.111725138500332832e-05 2.516718450351618230e-05
1.638000000000000000e+03 1.075200271606445312e+01 -4.033582210540771484e+00 -4.360249638557434082e-01 1.301354616880416870e-01 -9.176685661077499390e-02 -2.569122314453125000e-01
1.639000000000000000e+03 1.402289199829101562e+01 -2.522704601287841797e+00 -6.958137750625610352e-01 9.457576274871826172e-02 -1.803714036941528320e-01 7.353084627538919449e-03
1.640000000000000000e+03 9.468479156494140625e+00 -2.547063589096069336e+00 -5.702016949653625488e-01 3.354833647608757019e-02 -1.609960049390792847e-01 -2.519384026527404785e-01
1.641000000000000000e+03 1.011853408813476562e+01 -3.268133401870727539e+00 -5.091160535812377930e-01 7.414543628692626953e-02 -1.304911822080612183e-01 -2.647711932659149170e-01
1.642000000000000000e+03 7.498741912841796875e+01 -1.321432495117187500e+01 -1.643631607294082642e-01 -2.115170098841190338e-02 -5.565445870161056519e-02 -1.417029500007629395e-01
1.643000000000000000e+03 7.436872100830078125e+01 -1.314685630798339844e+01 -2.015029788017272949e-01 -7.754818070679903030e-03 -6.277734041213989258e-02 -1.487742066383361816e-01
1.644000000000000000e+03 7.634339141845703125e+01 -1.301593399047851562e+01 -1.045795381069183350e-01 -5.125116184353828430e-02 -4.674921184778213501e-02 -1.149446517229080200e-01
1.645000000000000000e+03 7.564588165283203125e+01 -1.310325527191162109e+01 -1.155672296881675720e-01 -4.208094254136085510e-02 -4.729445278644561768e-02 -1.270470917224884033e-01
1.646000000000000000e+03 1.467150783538818359e+01 -3.283667802810668945e+00 -5.544933676719665527e-01 1.711976230144500732e-01 -1.149887144565582275e-01 8.204900473356246948e-02
1.647000000000000000e+03 1.713027954101562500e+01 -2.410500288009643555e+00 -5.515245199203491211e-01 1.254387348890304565e-01 -1.278257369995117188e-01 2.689278423786163330e-01
1.648000000000000000e+03 8.716603279113769531e+00 -2.535083770751953125e+00 -5.222336649894714355e-01 2.703738585114479065e-02 -1.485588848590850830e-01 -2.675503194332122803e-01
1.649000000000000000e+03 1.086393737792968750e+01 -3.283701181411743164e+00 -5.332992672920227051e-01 9.904228150844573975e-02 -1.302770972251892090e-01 -2.231325954198837280e-01
1.650000000000000000e+03 7.402159690856933594e+00 3.380861759185791016e+00 1.028881408274173737e-03 -3.319391689728945494e-04 2.090826747007668018e-04 -2.837128995452076197e-04
1.651000000000000000e+03 8.881137847900390625e+00 3.270578861236572266e+00 9.398493566550314426e-04 -2.137966512236744165e-04 2.178158174501731992e-04 1.595826324773952365e-05
1.652000000000000000e+03 5.096137046813964844e+00 3.618393898010253906e+00 5.672367988154292107e-04 -2.364774409215897322e-04 9.922780009219422936e-05 -7.599469390697777271e-04
1.653000000000000000e+03 5.186488628387451172e+00 4.498546123504638672e+00 7.536085904575884342e-04 -2.798693021759390831e-04 1.421217893948778510e-04 -6.925416528247296810e-04
1.654000000000000000e+03 6.647521495819091797e+00 3.463532924652099609e+00 6.469088839367032051e-04 -4.572944308165460825e-04 5.688433884643018246e-05 -4.050713323522359133e-04
1.655000000000000000e+03 6.800236701965332031e+00 4.303431034088134766e+00 1.030823099426925182e-03 -5.097535322420299053e-04 1.563208934385329485e-04 -4.142272809986025095e-04
1.656000000000000000e+03 1.036787414550781250e+01 3.283790111541748047e+00 7.755333790555596352e-04 -6.242388917598873377e-05 2.139328571502119303e-04 3.596422902774065733e-04
1.657000000000000000e+03 9.622076034545898438e+00 3.264963388442993164e+00 7.685623713769018650e-04 -6.026581395417451859e-04 4.977126809535548091e-05 3.401722351554781199e-04
1.658000000000000000e+03 5.677195549011230469e+00 -2.595853090286254883e+00 -2.863088846206665039e-01 -3.327029570937156677e-02 -9.587375819683074951e-02 -2.693088352680206299e-01
1.659000000000000000e+03 7.181241035461425781e+00 -3.183181047439575195e+00 -3.573629856109619141e-01 -2.724723424762487411e-03 -1.080263108015060425e-01 -3.289423584938049316e-01
1.660000000000000000e+03 3.646369695663452148e+00 -2.460180521011352539e+00 -1.513515561819076538e-01 -6.735007464885711670e-02 -6.561049073934555054e-02 -1.934792250394821167e-01
1.661000000000000000e+03 6.586755752563476562e+00 -3.834820508956909180e+00 -2.723129093647003174e-01 -2.681661210954189301e-02 -8.973886072635650635e-02 -3.629487454891204834e-01
1.662000000000000000e+03 5.381003856658935547e+00 -4.604132652282714844e+00 -1.678270697593688965e-01 -9.450202435255050659e-02 -7.869873195886611938e-02 -3.776799738407135010e-01
1.663000000000000000e+03 7.819014072418212891e+00 -3.876773118972778320e+00 -3.369123935699462891e-01 2.066182158887386322e-02 -9.487517178058624268e-02 -3.587083816528320312e-01
1.664000000000000000e+03 8.630946159362792969e+00 -3.225248336791992188e+00 -4.376292228698730469e-01 3.214342892169952393e-02 -1.216457411646842957e-01 -3.154914379119873047e-01
1.665000000000000000e+03 1.535662531852722168e+00 -3.351945400238037109e+00 -3.329465538263320923e-02 -1.449199914932250977e-01 -5.346439406275749207e-02 -1.218159869313240051e-01
1.666000000000000000e+03 2.243137121200561523e+00 -4.288246631622314453e+00 -4.960862174630165100e-02 -2.036816030740737915e-01 -7.598706334829330444e-02 -1.991119682788848877e-01
1.667000000000000000e+03 1.853224372863769531e+01 -3.831111431121826172e+00 -3.060801625251770020e-01 2.476273030042648315e-01 -1.753586344420909882e-02 4.899427592754364014e-01
1.668000000000000000e+03 1.783238220214843750e+01 -3.120370149612426758e+00 -4.108954668045043945e-01 1.938437074422836304e-01 -6.511551886796951294e-02 3.868521451950073242e-01
1.669000000000000000e+03 1.864891433715820312e+01 -3.097607851028442383e+00 -3.465142250061035156e-01 2.174720913171768188e-01 -3.871263936161994934e-02 4.573244154453277588e-01
1.670000000000000000e+03 1.874150085449218750e+01 -2.324312210083007812e+00 -4.075634777545928955e-01 1.367000490427017212e-01 -8.125903457403182983e-02 3.858454823493957520e-01
1.671000000000000000e+03 1.237025547027587891e+01 -3.256613492965698242e+00 -5.730111002922058105e-01 1.352584809064865112e-01 -1.313257962465286255e-01 -1.227586790919303894e-01
1.672000000000000000e+03 1.313180160522460938e+01 -3.252338886260986328e+00 -5.773241519927978516e-01 1.458142697811126709e-01 -1.294529587030410767e-01 -6.647602468729019165e-02
1.673000000000000000e+03 7.185247039794921875e+01 -1.290172004699707031e+01 -3.785450458526611328e-01 9.237237274646759033e-02 -8.585180342197418213e-02 -1.331393718719482422e-01
1.674000000000000000e+03 7.274110412597656250e+01 -1.286179447174072266e+01 -3.195461034774780273e-01 5.768361687660217285e-02 -7.855874300003051758e-02 -1.593873500823974609e-01
1.675000000000000000e+03 7.027537536621093750e+01 -1.312445640563964844e+01 -5.006182789802551270e-01 1.349275112152099609e-01 -1.097072288393974304e-01 -1.380155421793460846e-02
1.676000000000000000e+03 2.480102157592773438e+01 -2.136132001876831055e+00 5.006704330444335938e-01 -1.255224198102951050e-01 1.125444024801254272e-01 6.073037385940551758e-01
1.677000000000000000e+03 2.679733085632324219e+01 -1.010567903518676758e+00 9.912312626838684082e-01 -8.470124751329421997e-02 2.719590067863464355e-01 3.059187829494476318e-01
1.678000000000000000e+03 1.546061420440673828e+01 -3.270319938659667969e+00 -5.316880941390991211e-01 2.103860378265380859e-01 -9.639061242341995239e-02 1.681081205606460571e-01
1.679000000000000000e+03 3.941101074218750000e+01 3.228267431259155273e+00 3.407948613166809082e-01 -2.634989738464355469e+00 -6.882584691047668457e-01 -4.054969549179077148e-01
1.680000000000000000e+03 3.851129531860351562e+01 4.426504611968994141e+00 4.926943778991699219e-01 -5.324018597602844238e-01 -1.191224996000528336e-02 -4.199502170085906982e-01
1.681000000000000000e+03 7.363085937500000000e+01 -1.297301006317138672e+01 -2.438749521970748901e-01 2.495622821152210236e-02 -6.567561626434326172e-02 -1.571756154298782349e-01
1.682000000000000000e+03 7.383812713623046875e+01 -1.974113655090332031e+01 5.992522710585035384e-05 -8.225391502492129803e-04 -2.287841780344024301e-04 7.927306578494608402e-04
1.683000000000000000e+03 2.172338294982910156e+01 -3.013531923294067383e+00 -4.285521432757377625e-02 1.376678049564361572e-01 2.844377793371677399e-02 6.288438439369201660e-01
1.684000000000000000e+03 2.246458244323730469e+01 -2.658166408538818359e+00 4.201787710189819336e-02 1.017026677727699280e-01 4.311616346240043640e-02 6.046187877655029297e-01
1.685000000000000000e+03 1.948311805725097656e+01 -3.140986204147338867e+00 -2.806076705455780029e-01 1.890972107648849487e-01 -2.745313942432403564e-02 5.072021484375000000e-01
1.686000000000000000e+03 3.891372299194335938e+01 3.740674734115600586e+00 4.071657955646514893e-01 -2.010560750961303711e+00 -4.810184836387634277e-01 -7.995389699935913086e-01
1.687000000000000000e+03 2.034804534912109375e+01 -3.264392375946044922e+00 -1.751504987478256226e-01 2.141822278499603271e-01 1.170951686799526215e-02 5.925193428993225098e-01
1.688000000000000000e+03 3.286787796020507812e+01 -6.684427857398986816e-01 4.849615097045898438e+00 8.310373306274414062e+00 3.947996616363525391e+00 4.196179389953613281e+00
1.689000000000000000e+03 5.094134521484375000e+01 2.526097679138183594e+01 3.952001631259918213e-01 4.525306224822998047e-01 2.543192505836486816e-01 7.305070757865905762e-02
1.690000000000000000e+03 4.885492324829101562e+01 2.180629920959472656e+01 1.695288419723510742e-01 2.919974029064178467e-01 1.384578794240951538e-01 2.552330195903778076e-01
1.691000000000000000e+03 3.814764022827148438e+01 8.665522575378417969e+00 2.583881914615631104e-01 3.079107046127319336e+00 1.001248598098754883e+00 1.427801132202148438e+00
1.692000000000000000e+03 6.274026107788085938e+01 8.029310226440429688e+00 6.763665676116943359e-01 5.160771369934082031e+00 1.751141428947448730e+00 9.898105859756469727e-01
1.693000000000000000e+03 4.364817428588867188e+01 -5.135272979736328125e+00 -4.199467182159423828e+00 -5.459398403763771057e-02 -1.276218295097351074e+00 4.726354777812957764e-01
1.694000000000000000e+03 4.738662719726562500e+01 -7.525190353393554688e+00 -3.053963422775268555e+00 -1.666604280471801758e-01 -9.661871790885925293e-01 8.492786288261413574e-01
1.695000000000000000e+03 5.899200820922851562e+01 7.422437667846679688e-01 7.025477886199951172e-01 2.463845491409301758e+00 9.499180316925048828e-01 1.309794306755065918e+00
1.696000000000000000e+03 6.157824707031250000e+01 1.984376311302185059e+00 3.598806858062744141e-01 2.830338478088378906e+00 9.570657610893249512e-01 7.073034644126892090e-01
1.697000000000000000e+03 1.126069450378417969e+01 -2.372225952148437500e+01 1.579295396804809570e-01 1.077481627464294434e+00 3.706233501434326172e-01 2.080138325691223145e-01
1.698000000000000000e+03 5.503693771362304688e+01 2.532631874084472656e+01 6.945742964744567871e-01 5.761106014251708984e-01 3.812054693698883057e-01 -7.199758887290954590e-01
1.699000000000000000e+03 5.384618377685546875e+01 2.507340431213378906e+01 5.857839584350585938e-01 2.758089005947113037e-01 2.584778368473052979e-01 -3.022033870220184326e-01
1.700000000000000000e+03 2.283682250976562500e+01 -9.579278945922851562e+00 1.250705569982528687e-01 1.951948553323745728e-01 9.607962518930435181e-02 3.608609139919281006e-01
1.701000000000000000e+03 2.041157913208007812e+01 -8.974917411804199219e+00 3.134334683418273926e-01 4.135388433933258057e-01 2.180916965007781982e-01 6.705252528190612793e-01
1.702000000000000000e+03 1.884878921508789062e+01 -3.082398796081542969e+01 -2.251267135143280029e-01 6.061376333236694336e-01 1.143032759428024292e-01 -2.750761508941650391e-01
1.703000000000000000e+03 1.939904594421386719e+01 -8.956135749816894531e+00 3.138564229011535645e-01 5.381696224212646484e-01 2.556078135967254639e-01 6.779813170433044434e-01
1.704000000000000000e+03 1.008976078033447266e+01 -1.688293838500976562e+01 5.600437521934509277e-01 9.159915447235107422e-01 4.428105950355529785e-01 4.537583887577056885e-02
1.705000000000000000e+03 4.264160919189453125e+01 -2.649729728698730469e+01 1.067603588104248047e+00 6.255983829498291016e+00 2.197076082229614258e+00 -3.654928207397460938e-01
1.706000000000000000e+03 4.332770156860351562e+01 -1.891622924804687500e+01 2.101909160614013672e+00 6.931222438812255859e+00 2.709939479827880859e+00 1.290836185216903687e-01
1.707000000000000000e+03 5.061349105834960938e+01 -1.223946380615234375e+01 1.909042835235595703e+00 8.572608828544616699e-01 8.298910856246948242e-01 1.965971469879150391e+00
1.708000000000000000e+03 6.739252471923828125e+01 -1.074980163574218750e+01 -9.051423072814941406e-01 1.669334024190902710e-01 -2.214626669883728027e-01 -2.334436476230621338e-01
1.709000000000000000e+03 3.784642791748046875e+01 1.145200634002685547e+01 7.115226984024047852e-01 4.538328647613525391e+00 1.574955463409423828e+00 1.766398310661315918e+00
1.710000000000000000e+03 3.854901885986328125e+01 9.832353591918945312e+00 2.329511344432830811e-01 2.037719011306762695e+00 6.812010407447814941e-01 1.174062490463256836e+00
1.711000000000000000e+03 2.142200851440429688e+01 -8.833580017089843750e+00 2.203208059072494507e-01 3.007803857326507568e-01 1.563303619623184204e-01 6.099256277084350586e-01
1.712000000000000000e+03 2.766421699523925781e+01 2.524299049377441406e+01 2.120701819658279419e-01 2.328059911727905273e+00 7.620390653610229492e-01 -1.377124309539794922e+00
1.713000000000000000e+03 2.822770500183105469e+01 2.292537879943847656e+01 8.306974172592163086e-01 2.710214138031005859e+00 1.062273502349853516e+00 -1.790155053138732910e+00
1.714000000000000000e+03 3.331722640991210938e+01 -2.870993804931640625e+01 3.463299572467803955e-01 2.378456592559814453e+00 8.174359798431396484e-01 1.114586830139160156e+00
1.715000000000000000e+03 3.738785934448242188e+01 -2.842009925842285156e+01 2.564766705036163330e-01 4.368185043334960938e+00 1.387398481369018555e+00 7.751986980438232422e-01
1.716000000000000000e+03 5.971920394897460938e+01 -1.104913043975830078e+01 -6.947265267372131348e-01 6.627408266067504883e-01 -9.595712646842002869e-03 8.209105134010314941e-01
1.717000000000000000e+03 5.751080703735351562e+01 -1.184138965606689453e+01 -4.261632636189460754e-02 6.160619854927062988e-01 1.720336973667144775e-01 1.190257787704467773e+00
1.718000000000000000e+03 6.393457412719726562e+01 2.051091957092285156e+01 1.045456051826477051e+00 3.643393993377685547e+00 1.406655073165893555e+00 -3.250544965267181396e-01
1.719000000000000000e+03 6.331980133056640625e+01 2.279313087463378906e+01 3.541707694530487061e-01 3.396528482437133789e+00 1.125209808349609375e+00 -3.596314787864685059e-01
1.720000000000000000e+03 7.726358795166015625e+01 -2.164095306396484375e+01 -3.076104912906885147e-03 -5.045568104833364487e-04 -1.074198517017066479e-03 -2.797683118842542171e-04
1.721000000000000000e+03 7.833192443847656250e+01 -2.142396926879882812e+01 1.027011196129024029e-03 8.049477473832666874e-04 5.495876539498567581e-04 -2.658461744431406260e-04
1.722000000000000000e+03 7.710868835449218750e+01 -2.400580406188964844e+01 -4.911625292152166367e-03 -2.366208238527178764e-03 -2.183350035920739174e-03 3.229432040825486183e-03
1.723000000000000000e+03 7.693483734130859375e+01 -2.528497695922851562e+01 -3.014922607690095901e-03 -4.359667655080556870e-03 -2.212377032265067101e-03 7.015206851065158844e-03
1.724000000000000000e+03 7.680944824218750000e+01 -3.050854682922363281e+01 -3.651540493592619896e-03 -2.424288168549537659e-02 -8.368327282369136810e-03 2.434143237769603729e-02
1.725000000000000000e+03 7.683190155029296875e+01 -2.661222076416015625e+01 -7.108747493475675583e-03 -7.482036482542753220e-03 -4.377235192805528641e-03 1.054207794368267059e-02
1.726000000000000000e+03 7.679656219482421875e+01 -2.794301605224609375e+01 -4.909029230475425720e-03 -1.158362906426191330e-02 -4.947797395288944244e-03 1.570184528827667236e-02
1.727000000000000000e+03 7.677535247802734375e+01 -3.176939010620117188e+01 -6.462284829467535019e-03 -3.162516653537750244e-02 -1.142623554915189743e-02 2.736661955714225769e-02
1.728000000000000000e+03 7.662208557128906250e+01 -3.305827713012695312e+01 -1.195863354951143265e-03 -3.952737897634506226e-02 -1.221697311848402023e-02 3.127384558320045471e-02
1.729000000000000000e+03 7.678623962402343750e+01 -2.924061584472656250e+01 -7.849567569792270660e-03 -1.737265288829803467e-02 -7.566665764898061752e-03 1.985541358590126038e-02
1.730000000000000000e+03 5.623465728759765625e+01 -1.199018859863281250e+01 3.713322281837463379e-01 6.401490569114685059e-01 3.034443855285644531e-01 1.441028118133544922e+00
1.731000000000000000e+03 5.413033676147460938e+01 -1.143332672119140625e+01 5.717343091964721680e-01 6.778825521469116211e-01 3.748850822448730469e-01 1.985187768936157227e+00
1.732000000000000000e+03 1.260020923614501953e+01 1.756656074523925781e+01 -3.958090394735336304e-02 -4.333943128585815430e-03 -1.317445468157529831e-02 -2.902395278215408325e-02
1.733000000000000000e+03 1.291922187805175781e+01 1.626828384399414062e+01 -7.827388122677803040e-03 -1.413012854754924774e-02 -6.587254814803600311e-03 -1.249386090785264969e-02
1.734000000000000000e+03 1.232530879974365234e+01 1.315406894683837891e+01 -1.028876984491944313e-03 -2.737945760600268841e-04 -3.908014623448252678e-04 1.736653270199894905e-03
1.735000000000000000e+03 4.323812484741210938e+01 1.757674217224121094e+01 5.034145712852478027e-01 7.144687771797180176e-01 3.653649985790252686e-01 6.208839416503906250e-01
1.736000000000000000e+03 7.689981079101562500e+01 3.434054136276245117e+00 3.935264796018600464e-02 -1.606634497642517090e+00 -4.701845645904541016e-01 -4.798291027545928955e-01
1.737000000000000000e+03 7.694972991943359375e+01 2.085240602493286133e+00 2.314678765833377838e-02 -1.458936214447021484e+00 -4.307368397712707520e-01 -5.022199153900146484e-01
1.738000000000000000e+03 7.483229827880859375e+01 8.255067825317382812e+00 1.931923776865005493e-01 -1.086197495460510254e+00 -2.679015398025512695e-01 -4.618136584758758545e-01
1.739000000000000000e+03 7.614243316650390625e+01 8.962949752807617188e+00 1.071136221289634705e-01 -1.773074626922607422e+00 -4.997883141040802002e-01 -3.388510048389434814e-01
1.740000000000000000e+03 7.663273620605468750e+01 1.713766479492187500e+01 1.176073625683784485e-01 -2.169194936752319336e+00 -6.154762506484985352e-01 1.690435707569122314e-01
1.741000000000000000e+03 7.686672973632812500e+01 2.115352058410644531e+01 6.603799015283584595e-02 -2.046999454498291016e+00 -5.942884683609008789e-01 3.566081523895263672e-01
1.742000000000000000e+03 7.692517852783203125e+01 2.365780830383300781e+01 4.379761219024658203e-02 -1.854934573173522949e+00 -5.433411002159118652e-01 4.324673414230346680e-01
1.743000000000000000e+03 7.692534637451171875e+01 2.241420555114746094e+01 3.095948323607444763e-02 -1.978633522987365723e+00 -5.843021869659423828e-01 3.738142251968383789e-01
1.744000000000000000e+03 7.569982910156250000e+01 3.017823028564453125e+01 -7.961881905794143677e-02 -9.527681469917297363e-01 -3.097160756587982178e-01 4.456119239330291748e-01
1.745000000000000000e+03 7.675112152099609375e+01 2.488242340087890625e+01 -7.414781954139471054e-03 -1.641055226325988770e+00 -4.945409893989562988e-01 4.382124543190002441e-01
1.746000000000000000e+03 7.680216217041015625e+01 1.985029411315917969e+01 7.373403012752532959e-02 -2.112953662872314453e+00 -6.117659211158752441e-01 3.016943931579589844e-01
1.747000000000000000e+03 7.657310485839843750e+01 1.573460960388183594e+01 1.204863190650939941e-01 -2.171366214752197266e+00 -6.152639389038085938e-01 8.172740787267684937e-02
1.748000000000000000e+03 7.652050781250000000e+01 1.430388545989990234e+01 1.385325640439987183e-01 -2.133115053176879883e+00 -5.983747243881225586e-01 -1.797618530690670013e-02
1.749000000000000000e+03 7.636572265625000000e+01 1.286742687225341797e+01 1.265863329172134399e-01 -2.050892591476440430e+00 -5.772918462753295898e-01 -1.063101142644882202e-01
1.750000000000000000e+03 7.652286529541015625e+01 7.538382530212402344e+00 7.920653373003005981e-02 -1.872041225433349609e+00 -5.378504395484924316e-01 -3.904837369918823242e-01
1.751000000000000000e+03 7.672320556640625000e+01 6.148978233337402344e+00 6.578410416841506958e-02 -1.818325042724609375e+00 -5.257622599601745605e-01 -4.235864877700805664e-01
1.752000000000000000e+03 7.699737548828125000e+01 7.494661808013916016e-01 6.252520252019166946e-03 -1.315297722816467285e+00 -3.927135467529296875e-01 -4.958238601684570312e-01
1.753000000000000000e+03 7.703818511962890625e+01 -5.789167881011962891e-01 -2.934319491032510996e-04 -1.161599755287170410e+00 -3.485679626464843750e-01 -4.988318681716918945e-01
1.754000000000000000e+03 7.706938934326171875e+01 -1.900295853614807129e+00 -1.466552261263132095e-02 -1.003699898719787598e+00 -3.055095970630645752e-01 -4.796847999095916748e-01
1.755000000000000000e+03 7.699737548828125000e+01 -7.184088230133056641e+00 -6.128032132983207703e-02 -4.200685620307922363e-01 -1.444046646356582642e-01 -3.571924269199371338e-01
1.756000000000000000e+03 7.697980499267578125e+01 -8.493886947631835938e+00 -7.213924825191497803e-02 -3.082639873027801514e-01 -1.141209751367568970e-01 -3.094457387924194336e-01
1.757000000000000000e+03 7.707723236083984375e+01 -1.216439533233642578e+01 -7.887935638427734375e-02 -8.951574563980102539e-02 -5.051853135228157043e-02 -1.266474425792694092e-01
1.758000000000000000e+03 7.692912292480468750e+01 -9.801174163818359375e+00 -8.279681950807571411e-02 -2.079725265502929688e-01 -8.723080158233642578e-02 -2.482450455427169800e-01
1.759000000000000000e+03 7.707801818847656250e+01 -3.221641063690185547e+00 -2.330644987523555756e-02 -8.454841375350952148e-01 -2.606371641159057617e-01 -4.667223393917083740e-01
1.760000000000000000e+03 7.705559539794921875e+01 -4.549079418182373047e+00 -3.948792070150375366e-02 -6.879497766494750977e-01 -2.182313054800033569e-01 -4.345911741256713867e-01
1.761000000000000000e+03 7.604824066162109375e+01 1.139876937866210938e+01 1.377299726009368896e-01 -1.827374219894409180e+00 -5.068932771682739258e-01 -2.075776755809783936e-01
1.762000000000000000e+03 7.720004272460937500e+01 3.336838150024414062e+01 -3.975146636366844177e-02 -1.066071152687072754e+00 -3.317468166351318359e-01 2.520886957645416260e-01
1.763000000000000000e+03 7.640155029296875000e+01 2.611308670043945312e+01 -1.760957995429635048e-03 -1.418707251548767090e+00 -4.261404573917388916e-01 4.664287269115447998e-01
1.764000000000000000e+03 4.500448226928710938e+01 1.939731216430664062e+01 3.326153457164764404e-01 5.773911476135253906e-01 2.730019688606262207e-01 5.046363472938537598e-01
1.765000000000000000e+03 3.805440139770507812e+01 -2.629119300842285156e+01 7.818390727043151855e-01 4.901585102081298828e+00 1.705027222633361816e+00 5.620730519294738770e-01
1.766000000000000000e+03 3.178009033203125000e+01 1.942277336120605469e+01 1.395817875862121582e+00 6.715896606445312500e+00 2.433514356613159180e+00 -1.703101873397827148e+00
1.767000000000000000e+03 6.824099731445312500e+01 -2.592843246459960938e+01 -4.731166362762451172e-02 9.573446586728096008e-03 -1.132146548479795456e-02 -4.198167473077774048e-03
1.768000000000000000e+03 6.145615386962890625e+01 -1.157539176940917969e+01 -1.099186658859252930e+00 4.108874499797821045e-01 -2.064897567033767700e-01 4.275452196598052979e-01
1.769000000000000000e+03 6.029270172119140625e+01 -1.215438842773437500e+01 -5.570294260978698730e-01 4.656894505023956299e-01 -2.740199118852615356e-02 3.987025916576385498e-01
1.770000000000000000e+03 3.178556251525878906e+01 -8.846160769462585449e-01 4.188252449035644531e+00 1.410592555999755859e+00 1.679653406143188477e+00 2.524881362915039062e+00
1.771000000000000000e+03 3.214223480224609375e+01 -3.191639709472656250e+01 -8.282934129238128662e-02 1.994971752166748047e+00 5.736427307128906250e-01 9.509195089340209961e-01
1.772000000000000000e+03 3.595809698104858398e+00 2.999045372009277344e+01 5.992469377815723419e-03 -1.144790798425674438e-01 -3.254598379135131836e-02 6.750440597534179688e-02
1.773000000000000000e+03 3.702448368072509766e+00 3.140476608276367188e+01 9.629798121750354767e-03 -1.263749599456787109e-01 -3.502355143427848816e-02 6.026073917746543884e-02
1.774000000000000000e+03 3.237507581710815430e+00 2.309684562683105469e+01 -1.138766761869192123e-02 -3.912797570228576660e-02 -1.515469327569007874e-02 4.393809288740158081e-02
1.775000000000000000e+03 3.232960700988769531e+00 2.445199012756347656e+01 -1.152578182518482208e-02 -4.995962232351303101e-02 -1.844562217593193054e-02 5.256794765591621399e-02
1.776000000000000000e+03 3.357350826263427734e+00 3.667979431152343750e+01 2.143463678658008575e-02 -1.986596137285232544e-01 -5.316749215126037598e-02 2.058028988540172577e-02
1.777000000000000000e+03 3.456058740615844727e+00 2.717130851745605469e+01 -4.273465834558010101e-03 -8.268489688634872437e-02 -2.608750946819782257e-02 6.592285633087158203e-02
1.778000000000000000e+03 3.536759614944458008e+00 2.858247375488281250e+01 3.009158535860478878e-04 -9.693471342325210571e-02 -2.899014018476009369e-02 6.855051964521408081e-02
1.779000000000000000e+03 3.526604890823364258e+00 -2.593169784545898438e+01 5.381485447287559509e-03 -5.011268854141235352e-01 -1.487236171960830688e-01 2.590745389461517334e-01
1.780000000000000000e+03 4.148004055023193359e+00 -2.999494361877441406e+01 -5.035962536931037903e-02 -2.429843395948410034e-01 -8.800318837165832520e-02 2.292478531599044800e-01
1.781000000000000000e+03 3.306493997573852539e+00 -1.062167644500732422e+01 5.064720660448074341e-02 -5.629255175590515137e-01 -1.536834985017776489e-01 -3.318904936313629150e-01
1.782000000000000000e+03 3.197021961212158203e+00 -9.218938827514648438e+00 1.922482252120971680e-02 -4.908255636692047119e-01 -1.414802223443984985e-01 -3.496126532554626465e-01
1.783000000000000000e+03 3.248610973358154297e+00 -1.344554328918457031e+01 8.688477426767349243e-02 -7.274396419525146484e-01 -1.921664625406265259e-01 -2.236264795064926147e-01
1.784000000000000000e+03 3.252337455749511719e+00 -1.204540634155273438e+01 7.037504017353057861e-02 -6.578830480575561523e-01 -1.762523949146270752e-01 -2.844286561012268066e-01
1.785000000000000000e+03 4.145237445831298828e+00 1.641419219970703125e+01 -9.175303392112255096e-03 -3.760616993531584740e-03 -3.880776232108473778e-03 8.196472190320491791e-03
1.786000000000000000e+03 2.968798637390136719e+00 1.773790931701660156e+01 -7.122684270143508911e-03 -6.369239650666713715e-03 -4.047577269375324249e-03 1.148048508912324905e-02
1.787000000000000000e+03 3.112786054611206055e+00 1.344926548004150391e+01 -2.056357916444540024e-03 -1.724162393657024950e-05 -6.220798823051154613e-04 8.336714818142354488e-04
1.788000000000000000e+03 3.081778049468994141e+00 1.490328598022460938e+01 -3.361439332365989685e-03 -1.387571217492222786e-03 -1.424703164957463741e-03 2.576038474217057228e-03
1.789000000000000000e+03 3.195766210556030273e+00 6.622801780700683594e+00 1.600644027348607779e-04 1.913994201458990574e-04 1.054391468642279506e-04 -1.166701898910105228e-03
1.790000000000000000e+03 3.006957769393920898e+00 7.963845729827880859e+00 4.378972516860812902e-04 6.473155226558446884e-04 3.255638293921947479e-04 -1.363868708722293377e-03
1.791000000000000000e+03 2.969151496887207031e+00 -5.662904262542724609e+00 -4.741535708308219910e-02 -2.753094732761383057e-01 -9.681744873523712158e-02 -3.054055273532867432e-01
1.792000000000000000e+03 3.583195209503173828e+00 -2.043221473693847656e+01 9.351363033056259155e-02 -6.857056021690368652e-01 -1.776575893163681030e-01 1.479769945144653320e-01
1.793000000000000000e+03 3.411512613296508789e+00 -1.897136688232421875e+01 1.086026728153228760e-01 -7.643831968307495117e-01 -1.967341452836990356e-01 6.345143169164657593e-02
1.794000000000000000e+03 3.407410383224487305e+00 -2.327921295166015625e+01 3.002516366541385651e-02 -6.231770515441894531e-01 -1.779455691576004028e-01 2.246977388858795166e-01
1.795000000000000000e+03 3.567554473876953125e+00 -2.188969612121582031e+01 7.288706302642822266e-02 -6.394353508949279785e-01 -1.699644923210144043e-01 1.971446573734283447e-01
1.796000000000000000e+03 1.875270605087280273e+00 4.961568832397460938e+00 -5.814766700495965779e-05 7.270536152645945549e-04 2.006717841140925884e-04 -7.875368464738130569e-04
1.797000000000000000e+03 2.977825164794921875e+00 1.065265655517578125e+01 -2.197413559770211577e-04 4.903048975393176079e-04 8.116906246868893504e-05 -1.216192264109849930e-03
1.798000000000000000e+03 3.015068054199218750e+00 1.634362602233886719e+01 -5.470609292387962341e-03 -2.551265992224216461e-03 -2.406562445685267448e-03 6.446651648730039597e-03
1.799000000000000000e+03 4.683092117309570312e+00 -2.450246238708496094e+01 4.396308213472366333e-02 -3.281718492507934570e-01 -8.526263386011123657e-02 2.967215478420257568e-01
1.800000000000000000e+03 3.288229703903198242e+00 -1.620660781860351562e+01 1.031881868839263916e-01 -7.982417345046997070e-01 -2.085160613059997559e-01 -8.516601473093032837e-02
1.801000000000000000e+03 3.265287399291992188e+00 -1.483294773101806641e+01 9.533297270536422729e-02 -7.722052931785583496e-01 -2.030616998672485352e-01 -1.583423465490341187e-01
1.802000000000000000e+03 2.963777303695678711e+00 -7.923522472381591797e+00 -3.508043708279728889e-03 -4.296684563159942627e-01 -1.299529522657394409e-01 -3.340027332305908203e-01
1.803000000000000000e+03 3.078158378601074219e+00 2.042695426940917969e+01 -1.087690424174070358e-02 -1.787741109728813171e-02 -8.626294322311878204e-03 2.669863589107990265e-02
1.804000000000000000e+03 3.192437410354614258e+00 2.175651359558105469e+01 -1.182690169662237167e-02 -2.735557220876216888e-02 -1.175474282354116440e-02 3.637716174125671387e-02
1.805000000000000000e+03 2.989828586578369141e+00 1.909158134460449219e+01 -9.265650995075702667e-03 -1.101833302527666092e-02 -6.085195112973451614e-03 1.818017847836017609e-02
1.806000000000000000e+03 3.069007873535156250e+00 1.202752399444580078e+01 -1.013084896840155125e-03 6.593985599465668201e-04 -1.061058792402036488e-04 -9.648593841120600700e-04
1.807000000000000000e+03 2.942948818206787109e+00 9.301679611206054688e+00 -1.096987125492887571e-05 8.605744806118309498e-04 2.548813936300575733e-04 -1.444561174139380455e-03
1.808000000000000000e+03 3.478610610961914062e+01 2.651733875274658203e+00 -2.663386583328247070e+00 2.143828201293945312e+01 5.632468700408935547e+00 8.740357756614685059e-01
1.809000000000000000e+03 2.293597602844238281e+01 2.610176086425781250e+01 3.136055767536163330e-01 5.382953882217407227e-01 2.555702924728393555e-01 -6.111420989036560059e-01
1.810000000000000000e+03 3.417114639282226562e+01 1.723150062561035156e+01 6.381375789642333984e-01 7.673975467681884766e+00 2.493633985519409180e+00 -4.054305851459503174e-01
1.811000000000000000e+03 3.449564743041992188e+01 1.604446411132812500e+01 6.711453199386596680e-01 8.413784027099609375e+00 2.725478887557983398e+00 -2.025102823972702026e-01
1.812000000000000000e+03 3.350131225585937500e+01 -6.961111545562744141e+00 -2.861295938491821289e+00 6.879782199859619141e+00 1.205545902252197266e+00 -1.531029820442199707e+00
1.813000000000000000e+03 3.169462585449218750e+01 -6.459738731384277344e+00 -1.834201693534851074e+00 4.156105041503906250e+00 6.965710520744323730e-01 -5.935812592506408691e-01
1.814000000000000000e+03 3.791935729980468750e+01 -1.788614463806152344e+01 1.303010463714599609e+00 6.446147918701171875e+00 2.324747562408447266e+00 -1.243306040763854980e+00
1.815000000000000000e+03 3.785612869262695312e+01 -1.506269073486328125e+01 1.717535018920898438e+00 6.178213119506835938e+00 2.368724346160888672e+00 -2.069823026657104492e+00
1.816000000000000000e+03 7.821589660644531250e+01 -2.026455879211425781e+01 -1.886842073872685432e-03 4.865401133429259062e-04 -4.200905677862465382e-04 -8.691661641933023930e-04
1.817000000000000000e+03 5.165688705444335938e+01 -1.204809951782226562e+01 1.406387329101562500e+00 8.423194289207458496e-01 6.746120452880859375e-01 2.123209476470947266e+00
1.818000000000000000e+03 5.302423477172851562e+01 -1.335367393493652344e+01 2.315485477447509766e+00 4.365324974060058594e-01 8.256053924560546875e-01 1.584413647651672363e+00
1.819000000000000000e+03 5.694472885131835938e+01 2.408638381958007812e+01 1.019881844520568848e+00 7.720608711242675781e-01 5.375828146934509277e-01 -1.142598867416381836e+00
1.820000000000000000e+03 3.946084594726562500e+01 1.423728084564208984e+01 8.578822612762451172e-01 2.576978921890258789e+00 1.030458331108093262e+00 1.304745793342590332e+00
1.821000000000000000e+03 3.911417007446289062e+01 1.243689918518066406e+01 6.997641921043395996e-01 2.168852329254150391e+00 8.605849742889404297e-01 1.230447769165039062e+00
1.822000000000000000e+03 1.850814247131347656e+01 3.922134876251220703e+00 2.399147924734279513e-04 1.679677807260304689e-04 1.223647705046460032e-04 1.080978181562386453e-04
1.823000000000000000e+03 3.383279037475585938e+01 1.869244194030761719e+01 7.810145616531372070e-01 6.791382789611816406e+00 2.271719217300415039e+00 -4.202696681022644043e-01
1.824000000000000000e+03 3.761508941650390625e+01 -2.030952072143554688e+01 1.034566164016723633e+00 6.213396549224853516e+00 2.174388885498046875e+00 -2.415824383497238159e-01
1.825000000000000000e+03 2.070088195800781250e+01 -3.013389205932617188e+01 -2.474602758884429932e-01 4.023401141166687012e-01 4.646394774317741394e-02 -2.398947775363922119e-01
1.826000000000000000e+03 1.167381668090820312e+01 1.579868125915527344e+01 -1.686896197497844696e-02 -2.806024625897407532e-03 -5.902496166527271271e-03 -1.208798028528690338e-02
1.827000000000000000e+03 5.662921905517578125e+01 -4.193868637084960938e+00 -8.083184957504272461e-01 1.913853883743286133e+00 3.316605985164642334e-01 7.424679994583129883e-01
1.828000000000000000e+03 5.831016159057617188e+01 -4.036370277404785156e+00 -5.848543047904968262e-01 1.934106469154357910e+00 4.047756493091583252e-01 7.356439828872680664e-01
1.829000000000000000e+03 4.322035598754882812e+01 -2.363359260559082031e+01 1.466165900230407715e+00 7.516096591949462891e+00 2.694678783416748047e+00 -7.900465130805969238e-01
1.830000000000000000e+03 4.425737762451171875e+01 -2.230816650390625000e+01 8.268447518348693848e-01 9.119085311889648438e+00 2.983778953552246094e+00 -8.846786618232727051e-01
1.831000000000000000e+03 3.672314071655273438e+01 -1.030794429779052734e+01 -3.089096546173095703e-01 6.626391410827636719e+00 1.895244479179382324e+00 -1.954638361930847168e+00
1.832000000000000000e+03 2.086882400512695312e+01 2.581860733032226562e+01 1.549474745988845825e-01 2.440916299819946289e-01 1.197117269039154053e-01 -3.476308584213256836e-01
1.833000000000000000e+03 6.378403854370117188e+01 1.463465976715087891e+01 3.865223228931427002e-01 5.837987899780273438e+00 1.867352962493896484e+00 -2.015657573938369751e-01
1.834000000000000000e+03 1.610722923278808594e+01 8.584383964538574219e+00 -5.737806786783039570e-04 1.186122070066630840e-03 1.837024174164980650e-04 -4.594936035573482513e-04
1.835000000000000000e+03 1.512281799316406250e+01 8.048794746398925781e+00 -5.656013963744044304e-04 1.848064945079386234e-03 3.847390471491962671e-04 7.654436631128191948e-04
1.836000000000000000e+03 1.300154495239257812e+01 -1.767109298706054688e+01 4.114530682563781738e-01 2.563699960708618164e+00 8.925459384918212891e-01 1.822092533111572266e-01
1.837000000000000000e+03 1.210850620269775391e+01 -1.953705978393554688e+01 4.929259121417999268e-01 1.787075161933898926e+00 6.840003132820129395e-01 7.276403903961181641e-02
1.838000000000000000e+03 1.417485427856445312e+01 9.048465728759765625e+00 -3.356527595315128565e-04 1.435120240785181522e-03 3.298402298241853714e-04 8.637497085146605968e-04
1.839000000000000000e+03 5.851628875732421875e+01 -2.345413208007812500e+00 -8.388079702854156494e-03 1.988235831260681152e+00 5.939543247222900391e-01 7.948347330093383789e-01
1.840000000000000000e+03 7.228079986572265625e+01 -2.145894241333007812e+01 -3.310252912342548370e-03 -8.564033196307718754e-04 -1.249996828846633434e-03 4.487432888709008694e-04
1.841000000000000000e+03 3.751330566406250000e+01 1.042131042480468750e+01 4.395135045051574707e-01 5.545314311981201172e+00 1.795448422431945801e+00 1.774766325950622559e+00
1.842000000000000000e+03 5.943629074096679688e+01 -1.317168951034545898e+00 2.252044230699539185e-01 2.131892442703247070e+00 7.071290612220764160e-01 8.384812474250793457e-01
1.843000000000000000e+03 5.956721496582031250e+01 -3.333205032348632812e+01 -8.633957803249359131e-02 2.223897539079189301e-02 -1.923018135130405426e-02 8.198861032724380493e-02
1.844000000000000000e+03 6.171284484863281250e+01 -3.335123062133789062e+01 -7.786857336759567261e-02 3.864397853612899780e-02 -1.176737807691097260e-02 8.862550556659698486e-02
1.845000000000000000e+03 2.486465263366699219e+01 -6.314524173736572266e+00 -3.912238776683807373e-01 2.313070595264434814e-01 -4.797504842281341553e-02 9.304325580596923828e-01
1.846000000000000000e+03 6.453399658203125000e+01 -2.897056198120117188e+01 -1.623490899801254272e-01 2.154442854225635529e-02 -4.224139824509620667e-02 -1.330295111984014511e-03
1.847000000000000000e+03 2.837189865112304688e+01 -3.035741567611694336e+00 1.368750929832458496e+00 2.017572820186614990e-01 4.711524844169616699e-01 9.665226340293884277e-01
1.848000000000000000e+03 3.792819595336914062e+01 -2.145474243164062500e+01 1.113684892654418945e+00 5.914146900177001953e+00 2.108349561691284180e+00 -6.276990473270416260e-02
1.849000000000000000e+03 4.110522460937500000e+01 -2.024405670166015625e+01 1.790988802909851074e+00 6.405801296234130859e+00 2.459037065505981445e+00 -5.212443470954895020e-01
1.850000000000000000e+03 3.754916000366210938e+01 -1.261709117889404297e+01 1.140678524971008301e+00 6.153119564056396484e+00 2.188139438629150391e+00 -2.096345424652099609e+00
1.851000000000000000e+03 2.078050136566162109e+00 3.684803485870361328e+00 5.201129824854433537e-04 8.053836063481867313e-04 3.976489824708551168e-04 -5.618047434836626053e-04
1.852000000000000000e+03 4.869131851196289062e+01 -7.796880245208740234e+00 -2.560279130935668945e+00 -2.529807090759277344e-01 -8.439779877662658691e-01 1.370156645774841309e+00
1.853000000000000000e+03 1.409267330169677734e+01 -1.337833309173583984e+01 7.719445228576660156e-01 1.923324942588806152e+00 8.085808157920837402e-01 4.646043479442596436e-01
1.854000000000000000e+03 4.999484252929687500e+01 -8.117130279541015625e+00 -2.147916078567504883e+00 -6.725126504898071289e-02 -6.645501852035522461e-01 1.967599272727966309e+00
1.855000000000000000e+03 5.127033233642578125e+01 -8.476744651794433594e+00 -1.634096622467041016e+00 3.303674459457397461e-01 -3.911187648773193359e-01 2.200096607208251953e+00
1.856000000000000000e+03 6.308652877807617188e+01 1.069007682800292969e+01 5.373973846435546875e-01 5.762451171875000000e+00 1.889954566955566406e+00 6.215736865997314453e-01
1.857000000000000000e+03 6.769559478759765625e+01 1.324032497406005859e+01 7.774080634117126465e-01 2.560894012451171875e+00 1.001490592956542969e+00 -1.330538243055343628e-01
1.858000000000000000e+03 2.300168228149414062e+01 -3.147832679748535156e+01 -2.278941273689270020e-01 1.792449206113815308e-01 -1.459475979208946228e-02 -2.164221554994583130e-01
1.859000000000000000e+03 1.339822578430175781e+01 -2.035562705993652344e+01 4.701520502567291260e-01 2.602467060089111328e+00 9.217857718467712402e-01 -2.425352334976196289e-01
1.860000000000000000e+03 1.748675727844238281e+01 -1.072978496551513672e+01 7.845005989074707031e-01 1.024309873580932617e+00 5.426431298255920410e-01 7.449741959571838379e-01
1.861000000000000000e+03 4.598394012451171875e+01 -1.350144481658935547e+01 2.349611282348632812e+00 3.412029504776000977e+00 1.728492259979248047e+00 7.947323918342590332e-01
1.862000000000000000e+03 6.547811889648437500e+01 1.541987323760986328e+01 9.419633150100708008e-01 3.926753282546997070e+00 1.460614919662475586e+00 -2.888237535953521729e-01
1.863000000000000000e+03 4.375908279418945312e+01 -1.998214912414550781e+01 1.819736838340759277e+00 7.565287590026855469e+00 2.815507411956787109e+00 4.835745990276336670e-01
1.864000000000000000e+03 4.285166549682617188e+01 -2.163677787780761719e+01 1.627405762672424316e+00 7.445866107940673828e+00 2.721981525421142578e+00 -4.515769779682159424e-01
1.865000000000000000e+03 2.625921440124511719e+01 2.581339645385742188e+01 3.243884444236755371e-01 1.643553376197814941e+00 5.903825163841247559e-01 -1.168061971664428711e+00
1.866000000000000000e+03 2.515103530883789062e+01 2.661965942382812500e+01 2.620985507965087891e-01 1.251027464866638184e+00 4.539378285408020020e-01 -9.324067831039428711e-01
1.867000000000000000e+03 3.665033340454101562e+01 -2.674515342712402344e+01 5.538481473922729492e-01 4.188891887664794922e+00 1.422821998596191406e+00 7.705856561660766602e-01
1.868000000000000000e+03 3.700567245483398438e+01 -2.313454246520996094e+01 1.044419646263122559e+00 5.333632946014404297e+00 1.913415789604187012e+00 4.878096580505371094e-01
1.869000000000000000e+03 4.171474838256835938e+01 -5.962834358215332031e+00 -2.748792171478271484e+00 1.809626817703247070e+00 -2.817496061325073242e-01 -1.151163101196289062e+00
1.870000000000000000e+03 4.164276123046875000e+01 -4.836389541625976562e+00 -3.430908918380737305e+00 1.227821469306945801e+00 -6.609262228012084961e-01 -7.257112860679626465e-01
1.871000000000000000e+03 3.556138229370117188e+01 9.300908088684082031e+00 4.665014147758483887e-01 1.223942470550537109e+01 3.811777830123901367e+00 7.400333881378173828e-01
1.872000000000000000e+03 1.585654449462890625e+01 -9.623794555664062500e+00 2.866966128349304199e-01 1.060811400413513184e+00 4.042524099349975586e-01 4.175594151020050049e-01
1.873000000000000000e+03 4.344028091430664062e+01 -6.265173912048339844e+00 -3.382146358489990234e+00 9.541938900947570801e-01 -7.283857464790344238e-01 -3.550809025764465332e-01
1.874000000000000000e+03 4.382417297363281250e+01 -7.621469974517822266e+00 -2.102430343627929688e+00 1.472570061683654785e+00 -1.889580935239791870e-01 -5.591551661491394043e-01
1.875000000000000000e+03 3.098522567749023438e+01 -3.046137046813964844e+01 -1.319286413490772247e-02 1.362427353858947754e+00 4.047703444957733154e-01 8.211483955383300781e-01
1.876000000000000000e+03 3.452594757080078125e+01 -3.175051498413085938e+01 -2.379532307386398315e-01 3.036362886428833008e+00 8.395228981971740723e-01 9.210544824600219727e-01
1.877000000000000000e+03 5.659281921386718750e+01 -3.253221130371093750e+01 -1.242369636893272400e-01 6.097748875617980957e-02 -1.897784136235713959e-02 -2.521603740751743317e-02
1.878000000000000000e+03 5.787845993041992188e+01 -3.131586647033691406e+01 -3.981046974658966064e-01 -1.965012587606906891e-02 -1.253264546394348145e-01 1.776962727308273315e-02
1.879000000000000000e+03 3.841061019897460938e+01 -2.270253181457519531e+01 1.268823862075805664e+00 5.704133987426757812e+00 2.091887235641479492e+00 8.698940277099609375e-02
1.880000000000000000e+03 2.986001586914062500e+01 -7.007242679595947266e+00 -1.640030026435852051e+00 2.344481945037841797e-01 -4.216745495796203613e-01 2.713648676872253418e-01
1.881000000000000000e+03 6.371855545043945312e+01 -1.025948143005371094e+01 -9.086409211158752441e-01 1.262885890901088715e-02 -2.688036262989044189e-01 2.439128458499908447e-01
1.882000000000000000e+03 2.963763427734375000e+01 -5.882501602172851562e+00 -5.043659806251525879e-01 9.294508695602416992e-01 1.275254487991333008e-01 7.909495830535888672e-01
1.883000000000000000e+03 2.867103576660156250e+01 -5.869797706604003906e+00 -2.987202107906341553e-01 1.255173981189727783e-01 -5.196084454655647278e-02 1.062952041625976562e+00
1.884000000000000000e+03 1.534365272521972656e+01 -2.684925270080566406e+01 -8.805297315120697021e-02 1.047137498855590820e+00 2.877253293991088867e-01 -2.732874155044555664e-01
1.885000000000000000e+03 3.781241226196289062e+01 -1.649736285209655762e+00 1.165519356727600098e+00 2.506062030792236328e+00 1.101474404335021973e+00 -2.259832620620727539e+00
1.886000000000000000e+03 3.782818222045898438e+01 -1.247307419776916504e+00 1.467580080032348633e+00 1.809129476547241211e+00 9.830128550529479980e-01 -1.730006933212280273e+00
1.887000000000000000e+03 3.756170272827148438e+01 -1.171140789985656738e+00 1.856414556503295898e+00 2.049821615219116211e+00 1.171870827674865723e+00 -2.084332942962646484e+00
1.888000000000000000e+03 3.595947265625000000e+01 3.922868251800537109e+00 2.535760998725891113e-01 1.200606346130371094e+01 3.677891731262207031e+00 8.319183588027954102e-01
1.889000000000000000e+03 3.610251617431640625e+01 -1.468670725822448730e+00 2.056843519210815430e+00 8.516568183898925781e+00 3.172023296356201172e+00 -5.880916595458984375e+00
1.890000000000000000e+03 3.708273696899414062e+01 -1.754911541938781738e+00 1.566014051437377930e+00 4.487355232238769531e+00 1.816010832786560059e+00 -3.795608282089233398e+00
1.891000000000000000e+03 3.554262161254882812e+01 2.596298456192016602e+00 -1.393132805824279785e+00 1.572923469543457031e+01 4.300830364227294922e+00 2.650954961776733398e+00
1.892000000000000000e+03 3.604028701782226562e+01 2.844036340713500977e+00 -6.784648168832063675e-03 1.086512088775634766e+01 3.257500886917114258e+00 2.116371393203735352e+00
1.893000000000000000e+03 3.670017242431640625e+01 2.742373228073120117e+00 7.107154130935668945e-01 5.851177215576171875e+00 1.968567848205566406e+00 1.086035370826721191e+00
1.894000000000000000e+03 3.617491149902343750e+01 3.097250938415527344e+00 2.980311214923858643e-01 9.867807388305664062e+00 3.049751758575439453e+00 1.697266459465026855e+00
1.895000000000000000e+03 3.578264617919921875e+01 2.588870763778686523e+00 -5.567913055419921875e-01 1.312142181396484375e+01 3.769389152526855469e+00 2.735138654708862305e+00
1.896000000000000000e+03 3.687619018554687500e+01 -1.555676102638244629e+00 2.011381387710571289e+00 4.649063587188720703e+00 1.998133420944213867e+00 -4.165753841400146484e+00
1.897000000000000000e+03 3.839112854003906250e+01 3.919373750686645508e+00 2.922063767910003662e-01 -7.598245888948440552e-02 6.486717611551284790e-02 -8.898141980171203613e-01
1.898000000000000000e+03 3.734178924560546875e+01 3.507268428802490234e+00 9.377917051315307617e-01 3.893611431121826172e+00 1.449420928955078125e+00 -1.200592610985040665e-02
1.899000000000000000e+03 3.455078887939453125e+01 -1.717358350753784180e+00 -9.548058509826660156e-01 1.700027275085449219e+01 4.813640117645263672e+00 -7.682909965515136719e-01
1.900000000000000000e+03 3.622974014282226562e+01 -1.747747778892517090e+00 1.271046280860900879e+00 8.324832916259765625e+00 2.878763675689697266e+00 -5.414844512939453125e+00
1.901000000000000000e+03 7.619626617431640625e+01 -2.098959350585937500e+01 -3.171642310917377472e-03 -3.904931654687970877e-04 -1.068640616722404957e-03 -3.995617444161325693e-04
1.902000000000000000e+03 7.511748504638671875e+01 -1.965097045898437500e+01 1.178844322566874325e-04 -5.649200174957513809e-04 -1.341106690233573318e-04 -4.642517887987196445e-04
1.903000000000000000e+03 7.619873809814453125e+01 -1.219038391113281250e+01 -9.838397800922393799e-02 -8.147878944873809814e-02 -5.395882949233055115e-02 -1.593487262725830078e-01
1.904000000000000000e+03 1.618857192993164062e+01 5.058725357055664062e+00 -1.982226094696670771e-04 1.019487506709992886e-03 2.463794662617146969e-04 4.652964998967945576e-04
1.905000000000000000e+03 1.667030525207519531e+01 4.296860218048095703e+00 4.985764462617225945e-05 -4.823742710868827999e-05 4.860651188209885731e-07 7.075611938489601016e-05
1.906000000000000000e+03 1.465022182464599609e+01 4.014192581176757812e+00 -3.654902229754952714e-07 -5.484613211592659354e-05 -1.656348649703431875e-05 4.562935500871390104e-04
1.907000000000000000e+03 3.356769943237304688e+01 -2.040557384490966797e+00 -2.778262831270694733e-02 1.187262821197509766e+01 3.553453683853149414e+00 2.459090709686279297e+00
1.908000000000000000e+03 1.304026985168457031e+01 4.395071506500244141e+00 2.141604782082140446e-04 1.253451191587373614e-04 1.018516777548938990e-04 6.497596623376011848e-04
1.909000000000000000e+03 1.194073295593261719e+01 4.023816585540771484e+00 3.437287523411214352e-04 -4.607740556821227074e-04 -3.511358954710885882e-05 7.549715810455381870e-04
1.910000000000000000e+03 3.807837295532226562e+01 -2.012975215911865234e+00 5.324056148529052734e-01 2.613713264465332031e+00 9.438356757164001465e-01 -2.189267635345458984e+00
1.911000000000000000e+03 3.948367691040039062e+01 -2.199883222579956055e+00 -1.117694139480590820e+00 1.281969070434570312e+00 4.928249865770339966e-02 -5.740192532539367676e-01
1.912000000000000000e+03 1.746624946594238281e+01 4.609794139862060547e+00 1.632906787563115358e-04 5.605473415926098824e-04 2.171514061046764255e-04 4.050766292493790388e-04
1.913000000000000000e+03 1.468461227416992188e+01 3.304211616516113281e+00 2.595848927740007639e-04 4.398229066282510757e-04 2.098223339999094605e-04 5.626511992886662483e-04
1.914000000000000000e+03 1.324586677551269531e+01 3.850202083587646484e+00 3.581457713153213263e-04 -2.791779406834393740e-04 2.369035610172431916e-05 5.927545716986060143e-04
1.915000000000000000e+03 3.412661361694335938e+01 -2.447436094284057617e+00 -1.425335884094238281e+00 1.315276050567626953e+01 3.518227338790893555e+00 7.383224368095397949e-01
1.916000000000000000e+03 1.543720340728759766e+01 4.023739814758300781e+00 1.666549505898728967e-04 6.490752566605806351e-04 2.447190636303275824e-04 6.094861892051994801e-04
1.917000000000000000e+03 1.186105251312255859e+01 3.276284933090209961e+00 6.301213288679718971e-04 1.325546763837337494e-04 2.288028044858947396e-04 5.117009277455508709e-04
1.918000000000000000e+03 1.114363002777099609e+01 4.030322074890136719e+00 6.714129121974110603e-04 -5.041573967901058495e-05 1.862991484813392162e-04 5.716062150895595551e-04
1.919000000000000000e+03 1.037792587280273438e+01 3.990892171859741211e+00 6.348391762003302574e-04 -6.848329212516546249e-04 -1.499811696703545749e-05 5.081741255708038807e-04
1.920000000000000000e+03 1.263880729675292969e+01 3.896704912185668945e+00 3.244972322136163712e-04 4.642113344743847847e-04 2.366125845583155751e-04 6.867834599688649178e-04
1.921000000000000000e+03 3.556920051574707031e+00 3.777711153030395508e+00 4.084125102963298559e-04 2.797666820697486401e-05 1.309167564613744617e-04 -8.440790697932243347e-04
1.922000000000000000e+03 3.609059095382690430e+00 4.640099048614501953e+00 3.545448125805705786e-04 2.322486689081415534e-04 1.760380400810390711e-04 -7.397652952931821346e-04
1.923000000000000000e+03 1.151436996459960938e+01 -4.017779350280761719e+00 -4.515074193477630615e-01 1.673427671194076538e-01 -8.524938672780990601e-02 -1.992751508951187134e-01
1.924000000000000000e+03 1.226387596130371094e+01 -3.975141763687133789e+00 -4.691059291362762451e-01 1.763497889041900635e-01 -8.782684057950973511e-02 -1.454091817140579224e-01
1.925000000000000000e+03 7.588989257812500000e+01 -1.125335216522216797e+01 -1.471327841281890869e-01 -9.899543225765228271e-02 -7.383846491575241089e-02 -2.263506501913070679e-01
1.926000000000000000e+03 6.908973693847656250e+01 -1.328703689575195312e+01 -5.766802430152893066e-01 1.242504641413688660e-01 -1.357289254665374756e-01 7.660870254039764404e-02
1.927000000000000000e+03 7.440307617187500000e+01 -1.213640689849853516e+01 -2.283687293529510498e-01 -1.387565303593873978e-02 -7.267331331968307495e-02 -2.068781703710556030e-01
1.928000000000000000e+03 9.373106956481933594e+00 -3.245146989822387695e+00 -4.759232103824615479e-01 6.172615289688110352e-02 -1.242591217160224915e-01 -2.928538620471954346e-01
1.929000000000000000e+03 1.451921939849853516e+01 -4.952003955841064453e+00 -3.390119671821594238e-01 3.547298014163970947e-01 4.715349059551954269e-03 1.052906066179275513e-01
1.930000000000000000e+03 1.625064468383789062e+01 -3.244055747985839844e+00 -4.990352690219879150e-01 1.901199370622634888e-01 -9.267460554838180542e-02 2.445249259471893311e-01
1.931000000000000000e+03 9.650260925292968750e+00 3.942180871963500977e+00 7.616353104822337627e-04 -2.024381392402574420e-04 1.677591499174013734e-04 2.659271412994712591e-04
1.932000000000000000e+03 6.964087677001953125e+01 -1.326784992218017578e+01 -4.928253889083862305e-01 1.170844957232475281e-01 -1.127222627401351929e-01 -3.412077203392982483e-03
1.933000000000000000e+03 6.861240386962890625e+01 -1.243607139587402344e+01 -8.104180693626403809e-01 1.986205726861953735e-01 -1.835392564535140991e-01 2.351275272667407990e-02
1.934000000000000000e+03 1.374778270721435547e+01 -4.052803516387939453e+00 -4.566688537597656250e-01 2.419164478778839111e-01 -6.442571431398391724e-02 6.566640804521739483e-04
1.935000000000000000e+03 7.023447513580322266e+00 5.157023906707763672e+00 5.167858325876295567e-04 -1.071543316356837749e-03 -1.664272567722946405e-04 -3.806079330388456583e-04
1.936000000000000000e+03 7.559079647064208984e+00 4.174786090850830078e+00 6.123816128820180893e-04 -7.934344466775655746e-04 -5.431586396298371255e-05 -1.435266312910243869e-04
1.937000000000000000e+03 4.382947444915771484e+00 4.584576606750488281e+00 4.505365795921534300e-04 -1.265474129468202591e-04 9.719674562802538276e-05 -1.004498451948165894e-03
1.938000000000000000e+03 5.877633571624755859e+00 3.545369148254394531e+00 8.858634973876178265e-04 -2.783456584438681602e-04 1.822553604142740369e-04 -4.953926545567810535e-04
1.939000000000000000e+03 4.322036266326904297e+00 3.696143627166748047e+00 5.691678379662334919e-04 1.591468389960937202e-05 1.755247503751888871e-04 -6.163604557514190674e-04
1.940000000000000000e+03 6.453770637512207031e+00 -3.235111713409423828e+00 -3.054513037204742432e-01 -1.838485710322856903e-02 -9.715084731578826904e-02 -3.320224881172180176e-01
1.941000000000000000e+03 7.661179542541503906e+00 -4.568177700042724609e+00 -2.608951032161712646e-01 2.576269209384918213e-02 -7.053972780704498291e-02 -3.960377573966979980e-01
1.942000000000000000e+03 8.543824195861816406e+00 -3.923931360244750977e+00 -3.593065142631530762e-01 4.601848870515823364e-02 -9.398639947175979614e-02 -3.468002974987030029e-01
1.943000000000000000e+03 5.657844543457031250e+00 -3.380298614501953125e+00 -2.421300858259201050e-01 -5.805167555809020996e-02 -9.005452692508697510e-02 -3.277776837348937988e-01
1.944000000000000000e+03 4.482635974884033203e+00 -4.205755233764648438e+00 -1.464026719331741333e-01 -1.215925514698028564e-01 -8.039856702089309692e-02 -3.328588008880615234e-01
1.945000000000000000e+03 3.428372144699096680e+00 -3.334958076477050781e+00 -1.256888359785079956e-01 -1.099957078695297241e-01 -7.070536166429519653e-02 -2.368962913751602173e-01
1.946000000000000000e+03 3.537079811096191406e+00 -4.005119800567626953e+00 -1.070504263043403625e-01 -1.457523107528686523e-01 -7.584082335233688354e-02 -2.718504369258880615e-01
1.947000000000000000e+03 3.232098817825317383e+00 -4.762455463409423828e+00 -7.903695106506347656e-02 -2.072880268096923828e-01 -8.589749038219451904e-02 -2.944323122501373291e-01
1.948000000000000000e+03 1.840104866027832031e+01 -4.523643016815185547e+00 -2.451209425926208496e-01 3.307826220989227295e-01 2.569849975407123566e-02 5.304690003395080566e-01
1.949000000000000000e+03 8.958246231079101562e+00 3.956902503967285156e+00 7.325815968215465546e-04 -8.943562279455363750e-04 -4.853239079238846898e-05 2.835144696291536093e-04
1.950000000000000000e+03 1.697682189941406250e+01 -3.990814447402954102e+00 -3.670225739479064941e-01 2.764687538146972656e-01 -2.716615237295627594e-02 3.590129315853118896e-01
1.951000000000000000e+03 1.300152301788330078e+01 -3.964287519454956055e+00 -4.756361246109008789e-01 2.173598259687423706e-01 -7.748288661241531372e-02 -7.251694053411483765e-02
1.952000000000000000e+03 1.453660869598388672e+01 -4.110054492950439453e+00 -4.434176981449127197e-01 2.761823534965515137e-01 -5.017060413956642151e-02 9.296062588691711426e-02
1.953000000000000000e+03 7.158356475830078125e+01 -1.217279720306396484e+01 -4.104601740837097168e-01 1.164423078298568726e-01 -8.820535987615585327e-02 -1.934658288955688477e-01
1.954000000000000000e+03 7.213419342041015625e+01 -1.166896438598632812e+01 -4.128572046756744385e-01 9.289517253637313843e-02 -9.598861634731292725e-02 -2.342918962240219116e-01
1.955000000000000000e+03 7.543266296386718750e+01 -1.239839267730712891e+01 -1.604493111371994019e-01 -5.266178399324417114e-02 -6.393332779407501221e-02 -1.795686781406402588e-01
1.956000000000000000e+03 1.534885501861572266e+01 -4.070231914520263672e+00 -4.271035194396972656e-01 2.720881700515747070e-01 -4.650460183620452881e-02 1.766680628061294556e-01
1.957000000000000000e+03 7.088466644287109375e+01 -1.232121181488037109e+01 -4.859642088413238525e-01 1.463450044393539429e-01 -1.018857583403587341e-01 -1.577847748994827271e-01
1.958000000000000000e+03 7.102832031250000000e+01 -1.303556823730468750e+01 -4.592322111129760742e-01 1.311429291963577271e-01 -9.842678904533386230e-02 -1.014625728130340576e-01
1.959000000000000000e+03 1.776469612121582031e+01 -3.844105958938598633e+00 -3.408247530460357666e-01 2.785538434982299805e-01 -1.868127286434173584e-02 4.338360726833343506e-01
1.960000000000000000e+03 7.371125793457031250e+01 -1.226237106323242188e+01 -2.641617953777313232e-01 1.810173876583576202e-02 -7.381801307201385498e-02 -2.063705772161483765e-01
1.961000000000000000e+03 1.929496574401855469e+01 -3.921990156173706055e+00 -2.315726131200790405e-01 2.713460624217987061e-01 1.193203683942556381e-02 5.726191997528076172e-01
1.962000000000000000e+03 2.396138000488281250e+01 -2.234177350997924805e+00 3.021556735038757324e-01 -6.418799050152301788e-03 8.872105926275253296e-02 5.796800851821899414e-01
1.963000000000000000e+03 2.670467567443847656e+01 -2.656458854675292969e+00 9.747837781906127930e-01 -1.501657962799072266e-01 2.473853975534439087e-01 7.296997904777526855e-01
1.964000000000000000e+03 7.289660644531250000e+01 -1.204965686798095703e+01 -3.200599551200866699e-01 6.463824212551116943e-02 -7.662651687860488892e-02 -2.081463336944580078e-01
1.965000000000000000e+03 6.933251953125000000e+01 -1.262174987792968750e+01 -7.465527057647705078e-01 1.885686963796615601e-01 -1.673952043056488037e-01 -5.383896082639694214e-02
1.966000000000000000e+03 3.503096008300781250e+01 -2.183489084243774414e+00 -1.306997537612915039e+00 1.305325222015380859e+01 3.523876190185546875e+00 -2.916643381118774414e+00
1.967000000000000000e+03 7.240977478027343750e+01 -1.971676254272460938e+01 8.600947330705821514e-04 -1.518420292995870113e-03 -1.974976621568202972e-04 2.850449236575514078e-04
1.968000000000000000e+03 7.314871215820312500e+01 -1.977366065979003906e+01 -2.651379443705081940e-03 -8.762796060182154179e-04 -1.058297697454690933e-03 -4.228588368277996778e-04
1.969000000000000000e+03 3.543584060668945312e+01 5.190811634063720703e+00 1.536390662193298340e+00 1.539476299285888672e+01 5.079346179962158203e+00 6.055444478988647461e-01
1.970000000000000000e+03 3.545663452148437500e+01 4.258511543273925781e+00 1.007896780967712402e+00 1.439640712738037109e+01 4.621291160583496094e+00 4.019078016281127930e-01
1.971000000000000000e+03 4.006743621826171875e+01 -2.863893270492553711e+00 -1.917837500572204590e+00 1.348336338996887207e+00 -1.708503514528274536e-01 -6.960125565528869629e-01
1.972000000000000000e+03 2.408874130249023438e+01 -3.048801898956298828e+00 3.092973828315734863e-01 -4.392514750361442566e-02 7.961167395114898682e-02 7.304843664169311523e-01
1.973000000000000000e+03 2.580743598937988281e+01 -4.737792015075683594e+00 1.368980705738067627e-01 -4.200107231736183167e-02 2.846909873187541962e-02 1.136709332466125488e+00
1.974000000000000000e+03 1.364346504211425781e+01 -1.008958435058593750e+01 3.119216561317443848e-01 1.069001078605651855e+00 4.142768085002899170e-01 7.019660621881484985e-02
1.975000000000000000e+03 1.552661228179931641e+01 -1.142354679107666016e+01 8.085933327674865723e-01 1.308992266654968262e+00 6.352756619453430176e-01 5.364426970481872559e-01
1.976000000000000000e+03 3.596687316894531250e+01 7.055325984954833984e+00 5.444821715354919434e-01 1.156070804595947266e+01 3.631556987762451172e+00 7.117255330085754395e-01
1.977000000000000000e+03 3.763070678710937500e+01 7.762830257415771484e+00 5.964894592761993408e-02 4.954923629760742188e+00 1.504371762275695801e+00 1.231491327285766602e+00
1.978000000000000000e+03 7.009950256347656250e+01 -2.030454254150390625e+01 8.115135715343058109e-04 -2.066905290121212602e-04 1.814469142118468881e-04 3.214118769392371178e-04
1.979000000000000000e+03 3.692202758789062500e+01 1.519892024993896484e+01 6.879143118858337402e-01 5.731446266174316406e+00 1.925808191299438477e+00 1.257894396781921387e+00
1.980000000000000000e+03 3.858865737915039062e+01 1.346060276031494141e+01 7.889392375946044922e-01 3.481999874114990234e+00 1.281281709671020508e+00 1.396640300750732422e+00
1.981000000000000000e+03 2.113052177429199219e+01 -3.621906280517578125e+00 -1.296077072620391846e-01 1.930855661630630493e-01 1.904335804283618927e-02 6.455661654472351074e-01
1.982000000000000000e+03 2.333775138854980469e+01 -3.928501844406127930e+00 6.923669576644897461e-02 7.922499626874923706e-02 4.453850910067558289e-02 8.036950230598449707e-01
1.983000000000000000e+03 2.005690002441406250e+01 -4.144438743591308594e+00 -1.959604769945144653e-01 2.572033703327178955e-01 1.837287098169326782e-02 6.324405670166015625e-01
1.984000000000000000e+03 4.044563293457031250e+01 -2.104427337646484375e+01 1.689063429832458496e+00 6.279716014862060547e+00 2.390633821487426758e+00 -4.700684249401092529e-01
1.985000000000000000e+03 3.770937347412109375e+01 -1.919347572326660156e+01 1.007578730583190918e+00 6.411784648895263672e+00 2.225809097290039062e+00 -6.976196169853210449e-01
1.986000000000000000e+03 1.312061405181884766e+01 -1.275605678558349609e+01 6.407414078712463379e-01 1.473531842231750488e+00 6.342819929122924805e-01 1.248531416058540344e-01
1.987000000000000000e+03 1.154634952545166016e+01 -1.396362972259521484e+01 6.559939980506896973e-01 1.166163444519042969e+00 5.466472506523132324e-01 1.842997502535581589e-03
1.988000000000000000e+03 3.801348114013671875e+01 1.257298660278320312e+01 7.434687614440917969e-01 4.435090541839599609e+00 1.553567886352539062e+00 1.516348361968994141e+00
1.989000000000000000e+03 3.697313308715820312e+01 1.324964714050292969e+01 7.105818986892700195e-01 6.349981307983398438e+00 2.118168830871582031e+00 1.421491742134094238e+00
1.990000000000000000e+03 1.537545776367187500e+01 4.756541252136230469e+00 5.827173481520731002e-06 -4.903179797111079097e-05 -1.296138725592754781e-05 3.551702830009162426e-04
1.991000000000000000e+03 1.708413314819335938e+01 5.435095787048339844e+00 -2.537064137868583202e-04 1.956829692062456161e-05 -7.024143269518390298e-05 -1.496462646173313260e-04
1.992000000000000000e+03 3.519282150268554688e+01 1.505732250213623047e+01 5.705606937408447266e-01 8.163985252380371094e+00 2.620363950729370117e+00 2.471829503774642944e-01
1.993000000000000000e+03 6.480236053466796875e+01 -9.543615341186523438e+00 -8.923912644386291504e-01 1.963127776980400085e-02 -2.618280053138732910e-01 -2.318926155567169189e-02
1.994000000000000000e+03 5.158390045166015625e+00 -9.759626388549804688e+00 6.348287314176559448e-02 -2.577068209648132324e-01 -5.826718360185623169e-02 -4.280002415180206299e-01
1.995000000000000000e+03 4.018929004669189453e+00 9.338290214538574219e+00 1.045681437972234562e-05 -5.494978977367281914e-04 -1.617123343748971820e-04 -1.264393911696970463e-03
1.996000000000000000e+03 4.272976684570312500e+01 -1.784992599487304688e+01 2.659904241561889648e+00 6.299520969390869141e+00 2.687827587127685547e+00 -1.141019240021705627e-01
1.997000000000000000e+03 4.207821655273437500e+01 -1.959790611267089844e+01 2.004806041717529297e+00 6.709104537963867188e+00 2.614173173904418945e+00 -2.127921134233474731e-01
1.998000000000000000e+03 4.616621017456054688e+00 2.302500152587890625e+01 -2.216173149645328522e-02 -2.043816819787025452e-02 -1.277996972203254700e-02 5.517227575182914734e-02
1.999000000000000000e+03 1.661230850219726562e+01 -2.689942741394042969e+01 2.041282504796981812e-02 8.639065623283386230e-01 2.652958333492279053e-01 -3.325621485710144043e-01
2.000000000000000000e+03 3.585663986206054688e+01 8.160932540893554688e+00 5.272114276885986328e-01 1.157545375823974609e+01 3.630799531936645508e+00 1.061330437660217285e+00
2.001000000000000000e+03 3.510610580444335938e+01 5.844628334045410156e+00 1.008852124214172363e+00 1.623397827148437500e+01 5.172849178314208984e+00 3.491564989089965820e-01
2.002000000000000000e+03 6.187806320190429688e+01 -9.804572105407714844e+00 -8.679514527320861816e-01 5.264813899993896484e-01 -1.024410277605056763e-01 5.747085213661193848e-01
2.003000000000000000e+03 5.095026397705078125e+01 -9.670402526855468750e+00 -6.046584248542785645e-01 5.416260957717895508e-01 -1.890969835221767426e-02 2.282129049301147461e+00
2.004000000000000000e+03 5.024882888793945312e+01 -1.125462722778320312e+01 7.265662550926208496e-01 9.062671661376953125e-01 4.898500144481658936e-01 1.986247539520263672e+00
2.005000000000000000e+03 5.618309020996093750e+01 -1.070118522644042969e+01 -2.010538876056671143e-01 8.909715414047241211e-01 2.069752812385559082e-01 1.702902078628540039e+00
2.006000000000000000e+03 7.236132049560546875e+01 -2.054909133911132812e+01 -4.280196037143468857e-03 -1.021728501655161381e-03 -1.590577419847249985e-03 7.528063724748790264e-05
2.007000000000000000e+03 1.749269866943359375e+01 2.388939666748046875e+01 -1.599171459674835205e-01 2.294550463557243347e-02 -4.109149426221847534e-02 -2.877529524266719818e-02
2.008000000000000000e+03 7.498837280273437500e+01 2.561713981628417969e+01 -3.411046788096427917e-02 -9.600491523742675781e-01 -2.982479035854339600e-01 5.653277039527893066e-01
2.009000000000000000e+03 7.573568725585937500e+01 1.872455954551696777e+00 2.842030301690101624e-02 -1.058955073356628418e+00 -3.091604113578796387e-01 -6.205598711967468262e-01
2.010000000000000000e+03 5.899089813232421875e+00 -2.964312553405761719e+01 -8.571011573076248169e-02 7.424534298479557037e-03 -2.348567359149456024e-02 2.660090327262878418e-01
2.011000000000000000e+03 6.149802207946777344e+00 -1.973271942138671875e+01 2.618851363658905029e-01 -5.728367343544960022e-02 6.138043850660324097e-02 1.516642570495605469e-01
2.012000000000000000e+03 1.080457687377929688e+01 1.410459423065185547e+01 -7.771528791636228561e-03 -3.136452753096818924e-03 -3.272394416853785515e-03 -3.776989644393324852e-03
2.013000000000000000e+03 1.199957370758056641e+01 1.450490760803222656e+01 -3.608542494475841522e-03 -7.492184173315763474e-03 -3.330217907205224037e-03 -3.635799745097756386e-03
2.014000000000000000e+03 4.260957717895507812e+00 2.028367614746093750e+01 -1.952908188104629517e-02 -1.037875749170780182e-02 -8.972351439297199249e-03 3.159987926483154297e-02
2.015000000000000000e+03 4.431015968322753906e+00 5.482276439666748047e+00 8.615656988695263863e-04 -1.440867490600794554e-04 2.152436936739832163e-04 -1.069324091076850891e-03
2.016000000000000000e+03 2.856679153442382812e+01 -2.101172447204589844e+00 1.645308732986450195e+00 1.052374988794326782e-01 5.251638889312744141e-01 6.491777300834655762e-01
2.017000000000000000e+03 7.110486602783203125e+01 -2.353597450256347656e+01 -1.558262389153242111e-02 8.609090000391006470e-04 -4.416514188051223755e-03 -7.125709671527147293e-04
2.018000000000000000e+03 7.088700103759765625e+01 -2.192328262329101562e+01 -4.976657684892416000e-03 -1.959340734174475074e-04 -1.551777473650872707e-03 -8.450839086435735226e-04
2.019000000000000000e+03 5.011204242706298828e+00 2.979225349426269531e+01 9.202949702739715576e-03 -6.621839106082916260e-02 -1.710463128983974457e-02 8.243961632251739502e-02
2.020000000000000000e+03 7.494361877441406250e+01 1.320950603485107422e+01 2.291101962327957153e-01 -1.302050471305847168e+00 -3.218820691108703613e-01 -9.936906397342681885e-02
2.021000000000000000e+03 7.509118652343750000e+01 1.454118156433105469e+01 2.301553487777709961e-01 -1.401601791381835938e+00 -3.514339327812194824e-01 -9.852836374193429947e-04
2.022000000000000000e+03 2.401313781738281250e+01 -7.813622951507568359e+00 -3.596649467945098877e-01 3.633053600788116455e-01 1.092120772227644920e-03 7.079712748527526855e-01
2.023000000000000000e+03 6.821122741699218750e+01 -1.160645580291748047e+01 -8.677575588226318359e-01 2.137090265750885010e-01 -1.962145566940307617e-01 -2.247996926307678223e-01
2.024000000000000000e+03 4.440365982055664062e+01 -6.735292434692382812e+00 -3.271090269088745117e+00 5.850501656532287598e-01 -8.058120012283325195e-01 -1.244163438677787781e-01
2.025000000000000000e+03 1.205289745330810547e+01 9.655593872070312500e+00 -2.877890619856771082e-05 -8.279237663373351097e-04 -2.570108044892549515e-04 2.063519787043333054e-03
2.026000000000000000e+03 1.233929824829101562e+01 -1.512643432617187500e+01 7.117974162101745605e-01 1.629884719848632812e+00 7.025046348571777344e-01 1.915836036205291748e-01
2.027000000000000000e+03 4.411028671264648438e+01 1.849139404296875000e+01 4.014917314052581787e-01 6.133278012275695801e-01 3.044458627700805664e-01 5.765389800071716309e-01
2.028000000000000000e+03 6.535847473144531250e+01 9.715895652770996094e+00 6.461921334266662598e-01 3.628877401351928711e+00 1.282520890235900879e+00 8.784794062376022339e-02
2.029000000000000000e+03 7.538421630859375000e+01 -2.917545509338378906e+01 -1.010228693485260010e-02 -1.190282590687274933e-02 -6.601533852517604828e-03 2.630265057086944580e-02
2.030000000000000000e+03 7.548482513427734375e+01 -2.646191787719726562e+01 -8.963986299932003021e-03 -4.569303244352340698e-03 -4.059986677020788193e-03 1.322140824049711227e-02
2.031000000000000000e+03 7.698163604736328125e+01 -2.071863174438476562e+01 1.391858560964465141e-03 -6.892394158057868481e-04 2.107857435476034880e-04 -9.173670696327462792e-05
2.032000000000000000e+03 7.579498291015625000e+01 2.881264877319335938e+01 -4.993039369583129883e-02 -1.076781749725341797e+00 -3.380136489868164062e-01 4.660159647464752197e-01
2.033000000000000000e+03 2.447858238220214844e+01 -7.117630004882812500e+00 -3.235633671283721924e-01 2.455040365457534790e-01 -2.341779321432113647e-02 8.063948154449462891e-01
2.034000000000000000e+03 2.233317184448242188e+01 -4.474067211151123047e+00 -2.786231599748134613e-02 1.562682986259460449e-01 3.852179646492004395e-02 7.729506492614746094e-01
2.035000000000000000e+03 5.975887775421142578e+00 -1.351082801818847656e+01 2.408950477838516235e-01 -1.581130921840667725e-01 2.483458817005157471e-02 -2.785034477710723877e-01
2.036000000000000000e+03 4.424488067626953125e+01 -1.519827651977539062e+01 2.835480690002441406e+00 4.522083282470703125e+00 2.207269191741943359e+00 9.642738103866577148e-02
2.037000000000000000e+03 4.325372695922851562e+01 -1.602127838134765625e+01 2.607388019561767578e+00 5.264352798461914062e+00 2.361522197723388672e+00 -2.505351901054382324e-01
2.038000000000000000e+03 4.314731597900390625e+00 1.194062614440917969e+01 -1.835942035540938377e-03 -1.844869810156524181e-03 -1.104243565350770950e-03 -1.296375703532248735e-04
2.039000000000000000e+03 3.507397460937500000e+01 -8.396937370300292969e+00 -2.342504024505615234e+00 7.030554771423339844e+00 1.406415104866027832e+00 -1.919147014617919922e+00
2.040000000000000000e+03 3.548431777954101562e+01 -9.939211845397949219e+00 -8.030201196670532227e-01 6.735738754272460938e+00 1.779815554618835449e+00 -1.740199327468872070e+00
2.041000000000000000e+03 1.194900608062744141e+01 2.237394905090332031e+01 -1.410031020641326904e-01 6.281837075948715210e-02 -2.345541678369045258e-02 4.465042054653167725e-02
2.042000000000000000e+03 1.144392871856689453e+01 2.033306694030761719e+01 -1.066735610365867615e-01 3.385624289512634277e-02 -2.184519544243812561e-02 -6.060904124751687050e-04
2.043000000000000000e+03 1.081695747375488281e+01 1.835450363159179688e+01 -5.734190717339515686e-02 1.099283713847398758e-02 -1.390472054481506348e-02 -9.723412804305553436e-03
2.044000000000000000e+03 1.332126522064208984e+01 8.200522422790527344e+00 -7.775703561492264271e-04 5.453970516100525856e-04 -6.965199281694367528e-05 1.382989692501723766e-03
2.045000000000000000e+03 1.503853511810302734e+01 6.610934257507324219e+00 -4.782836476806551218e-04 1.187085756100714207e-03 2.126406179741024971e-04 6.003718008287250996e-04
2.046000000000000000e+03 7.571350860595703125e+01 -8.333024978637695312e+00 -1.267943382263183594e-01 -2.328195422887802124e-01 -1.078841611742973328e-01 -4.038307070732116699e-01
2.047000000000000000e+03 7.556912231445312500e+01 4.501995563507080078e+00 8.437090367078781128e-02 -1.217018485069274902e+00 -3.397942781448364258e-01 -5.847605466842651367e-01
2.048000000000000000e+03 7.534915161132812500e+01 1.883890151977539062e+01 1.720871776342391968e-01 -1.459925770759582520e+00 -3.863515853881835938e-01 3.107389807701110840e-01
2.049000000000000000e+03 1.615320396423339844e+01 -1.031655979156494141e+01 5.198762416839599609e-01 1.113730430603027344e+00 4.900819957256317139e-01 5.132427215576171875e-01
2.050000000000000000e+03 2.767077827453613281e+01 -5.650313377380371094e+00 -2.205410450696945190e-01 -1.418313235044479370e-01 -1.087117120623588562e-01 1.310063600540161133e+00
2.051000000000000000e+03 2.746484756469726562e+01 -6.634026527404785156e+00 -1.196632623672485352e+00 5.911667272448539734e-02 -3.412548005580902100e-01 1.305013298988342285e+00
2.052000000000000000e+03 7.522132873535156250e+01 7.091895103454589844e+00 1.385028511285781860e-01 -1.231396794319152832e+00 -3.278681635856628418e-01 -5.029097795486450195e-01
2.053000000000000000e+03 3.933773517608642578e+00 3.288084030151367188e+01 1.486019231379032135e-02 -1.384600698947906494e-01 -3.707996383309364319e-02 5.955948308110237122e-02
2.054000000000000000e+03 4.576264858245849609e+00 3.434816741943359375e+01 2.651639468967914581e-02 -1.129476130008697510e-01 -2.592936530709266663e-02 5.620816722512245178e-02
2.055000000000000000e+03 6.623060607910156250e+01 -2.686360740661621094e+01 -7.126236706972122192e-02 3.516909666359424591e-03 -2.032363787293434143e-02 -1.663019694387912750e-02
2.056000000000000000e+03 6.659182739257812500e+01 -9.858654975891113281e+00 -8.997736573219299316e-01 1.865649521350860596e-01 -2.139626145362854004e-01 -2.843029499053955078e-01
2.057000000000000000e+03 6.585337829589843750e+01 -8.866413116455078125e+00 -7.175485491752624512e-01 2.728661596775054932e-01 -1.334047168493270874e-01 -2.370392382144927979e-01
2.058000000000000000e+03 3.318202257156372070e+00 2.579953765869140625e+01 -6.790624000132083893e-03 -6.716684997081756592e-02 -2.218724414706230164e-02 6.201015412807464600e-02
2.059000000000000000e+03 4.137609481811523438e+01 1.594532775878906250e+01 7.059194445610046387e-01 1.175637602806091309e+00 5.644671320915222168e-01 8.809185624122619629e-01
2.060000000000000000e+03 1.149079132080078125e+01 -2.239630508422851562e+01 2.312948107719421387e-01 1.288928627967834473e+00 4.560670256614685059e-01 1.938302665948867798e-01
2.061000000000000000e+03 4.292169570922851562e+01 -2.488509559631347656e+01 1.540497541427612305e+00 6.838383197784423828e+00 2.513664245605468750e+00 -5.763826370239257812e-01
2.062000000000000000e+03 4.484138870239257812e+01 2.122735023498535156e+01 3.894056975841522217e-01 9.220784306526184082e-01 3.934452235698699951e-01 7.165787220001220703e-01
2.063000000000000000e+03 4.866462707519531250e+01 2.743715286254882812e+01 3.531058430671691895e-01 9.615886211395263672e-01 3.944083452224731445e-01 3.318872451782226562e-01
2.064000000000000000e+03 5.055034255981445312e+01 2.748857688903808594e+01 4.348208010196685791e-01 7.998305559158325195e-01 3.703954219818115234e-01 -2.435510791838169098e-02
2.065000000000000000e+03 3.039855575561523438e+01 -2.561147212982177734e+00 1.868488669395446777e+00 1.626144647598266602e+00 1.048390030860900879e+00 1.494096398353576660e+00
2.066000000000000000e+03 3.789644622802734375e+01 -1.645195007324218750e+01 1.442791104316711426e+00 6.354461669921875000e+00 2.339175701141357422e+00 -1.760257244110107422e+00
2.067000000000000000e+03 2.531582260131835938e+01 -5.504999637603759766e+00 -1.093311086297035217e-01 1.630563884973526001e-01 1.611758582293987274e-02 1.144872903823852539e+00
2.068000000000000000e+03 1.820442771911621094e+01 -2.866766357421875000e+01 -9.640728682279586792e-02 6.632467508316040039e-01 1.700518429279327393e-01 -2.833594977855682373e-01
2.069000000000000000e+03 6.550859832763671875e+01 1.981460189819335938e+01 1.172007083892822266e+00 3.396988868713378906e+00 1.370698809623718262e+00 2.334368601441383362e-02
2.070000000000000000e+03 3.266850280761718750e+01 -6.475019931793212891e+00 -2.404057741165161133e+00 5.116179943084716797e+00 8.136366605758666992e-01 -1.037629604339599609e+00
2.071000000000000000e+03 4.507877349853515625e+01 -7.545800685882568359e+00 -2.702965497970581055e+00 6.187711954116821289e-01 -6.252582669258117676e-01 -3.249366953969001770e-02
2.072000000000000000e+03 4.612208557128906250e+01 -7.350067615509033203e+00 -3.134427547454833984e+00 2.438687682151794434e-01 -8.671676516532897949e-01 3.722868263721466064e-01
2.073000000000000000e+03 5.250720977783203125e+01 -8.962924003601074219e+00 -1.121062994003295898e+00 7.693366408348083496e-01 -1.055179014801979065e-01 2.413682460784912109e+00
2.074000000000000000e+03 5.163518905639648438e+01 -7.238175868988037109e+00 -2.869539737701416016e+00 3.886691033840179443e-01 -7.442611455917358398e-01 2.127185821533203125e+00
2.075000000000000000e+03 2.325654792785644531e+01 -7.420917034149169922e+00 -1.315751671791076660e-01 2.702218294143676758e-01 4.159400239586830139e-02 7.177964448928833008e-01
2.076000000000000000e+03 6.327073287963867188e+01 1.201287841796875000e+01 2.694850265979766846e-01 5.923570632934570312e+00 1.857916712760925293e+00 3.273684084415435791e-01
2.077000000000000000e+03 3.609928894042968750e+01 1.608961296081542969e+01 6.966289281845092773e-01 6.339483261108398438e+00 2.110833644866943359e+00 8.684380650520324707e-01
2.078000000000000000e+03 7.530381774902343750e+01 3.145871162414550781e+01 -8.858393877744674683e-02 -7.153371572494506836e-01 -2.411763221025466919e-01 4.061878621578216553e-01
2.079000000000000000e+03 4.295936584472656250e+00 -3.143610382080078125e+01 -5.273443832993507385e-02 -2.000161707401275635e-01 -7.582518458366394043e-02 1.980440169572830200e-01
2.080000000000000000e+03 4.223920440673828125e+01 -8.202233314514160156e+00 -1.556007504463195801e+00 2.456137180328369141e+00 2.700389325618743896e-01 -1.406405448913574219e+00
2.081000000000000000e+03 3.547611236572265625e+01 1.133047962188720703e+01 6.124159693717956543e-01 1.063560867309570312e+01 3.374407291412353516e+00 7.240671515464782715e-01
2.082000000000000000e+03 4.074705886840820312e+01 -5.017598152160644531e+00 -2.853973150253295898e+00 2.120467901229858398e+00 -2.200516015291213989e-01 -1.346957087516784668e+00
2.083000000000000000e+03 4.091278839111328125e+01 -6.056233882904052734e+00 -2.551436901092529297e+00 2.652948856353759766e+00 3.045352175831794739e-02 -1.668418288230895996e+00
2.084000000000000000e+03 4.837503814697265625e+01 -1.264109992980957031e+01 2.353374004364013672e+00 1.948734998703002930e+00 1.290632724761962891e+00 1.602595448493957520e+00
2.085000000000000000e+03 4.677552795410156250e+01 -1.271493625640869141e+01 1.977518439292907715e+00 2.479088544845581055e+00 1.336982011795043945e+00 8.172701597213745117e-01
2.086000000000000000e+03 4.720241928100585938e+01 -8.779077529907226562e+00 -1.432526111602783203e+00 4.422040283679962158e-01 -2.970966100692749023e-01 7.198320627212524414e-01
2.087000000000000000e+03 4.586544418334960938e+01 2.209543228149414062e+01 3.524504899978637695e-01 7.783834338188171387e-01 3.392501771450042725e-01 5.918077230453491211e-01
2.088000000000000000e+03 4.367243194580078125e+01 2.223144149780273438e+01 4.074195623397827148e-01 1.346574425697326660e+00 5.261982083320617676e-01 9.010473489761352539e-01
2.089000000000000000e+03 3.925112152099609375e+01 -3.413883924484252930e+00 -1.481270790100097656e+00 2.759610176086425781e+00 3.835017979145050049e-01 -1.834549069404602051e+00
2.090000000000000000e+03 4.048995971679687500e+01 -3.904459953308105469e+00 -2.354655027389526367e+00 1.554633378982543945e+00 -2.400064915418624878e-01 -1.018152832984924316e+00
2.091000000000000000e+03 3.532891845703125000e+01 -2.965655326843261719e+01 -1.057814713567495346e-02 3.430531501770019531e+00 1.025986075401306152e+00 9.679290652275085449e-01
2.092000000000000000e+03 5.371475219726562500e+01 -9.568295478820800781e+00 -7.316667437553405762e-01 9.408090114593505859e-01 6.274267286062240601e-02 2.291894435882568359e+00
2.093000000000000000e+03 5.347100830078125000e+01 -6.629365921020507812e+00 -2.116541147232055664e+00 1.498299241065979004e+00 -1.854725629091262817e-01 1.824499964714050293e+00
2.094000000000000000e+03 5.823617553710937500e+01 -1.059615707397460938e+01 -5.183436274528503418e-01 8.645327687263488770e-01 1.038567349314689636e-01 1.188560366630554199e+00
2.095000000000000000e+03 5.533667373657226562e+01 -6.213419914245605469e+00 -1.481166958808898926e+00 1.714080333709716797e+00 6.987400352954864502e-02 1.354602575302124023e+00
2.096000000000000000e+03 5.757951354980468750e+01 -4.842451095581054688e+00 -8.218857645988464355e-01 1.921855807304382324e+00 3.299909830093383789e-01 9.587290883064270020e-01
2.097000000000000000e+03 7.721487426757812500e+01 -3.777431106567382812e+01 8.940673433244228363e-03 -8.541388064622879028e-02 -2.294196374714374542e-02 1.938276924192905426e-02
2.098000000000000000e+03 5.657854080200195312e+01 -6.783550739288330078e+00 -1.372753977775573730e+00 1.813326835632324219e+00 1.321718692779541016e-01 1.347392082214355469e+00
2.099000000000000000e+03 4.751674652099609375e+00 3.713722229003906250e+01 2.734160050749778748e-02 -1.342588365077972412e-01 -3.207517042756080627e-02 4.982804879546165466e-02
2.100000000000000000e+03 4.514344024658203125e+01 -1.624712562561035156e+01 3.169332742691040039e+00 5.589180946350097656e+00 2.627554178237915039e+00 1.149557471275329590e+00
2.101000000000000000e+03 3.911703872680664062e+01 -1.515908813476562500e+01 1.696130752563476562e+00 5.579367160797119141e+00 2.182649374008178711e+00 -1.814265727996826172e+00
2.102000000000000000e+03 5.328014850616455078e+00 -3.593678665161132812e+01 -7.428921759128570557e-02 -4.574489966034889221e-02 -3.601023554801940918e-02 1.042946577072143555e-01
2.103000000000000000e+03 5.966304302215576172e+00 -3.456142425537109375e+01 -8.856002241373062134e-02 1.277605071663856506e-02 -2.273519150912761688e-02 1.430010050535202026e-01
2.104000000000000000e+03 4.083867073059082031e+00 -7.794495582580566406e+00 -1.486711110919713974e-02 -3.165038824081420898e-01 -9.941130131483078003e-02 -4.055283069610595703e-01
2.105000000000000000e+03 5.097108364105224609e+00 -7.583973407745361328e+00 -2.164952829480171204e-02 -1.917690932750701904e-01 -6.402558833360671997e-02 -4.433894455432891846e-01
2.106000000000000000e+03 6.419613647460937500e+01 6.340401649475097656e+00 6.113892197608947754e-01 3.611570835113525391e+00 1.266888022422790527e+00 3.537138104438781738e-01
2.107000000000000000e+03 4.358291149139404297e+00 7.012891292572021484e+00 6.741598481312394142e-04 -1.909137499751523137e-04 1.449738338124006987e-04 -1.221675425767898560e-03
2.108000000000000000e+03 3.932571411132812500e+01 -1.785713005065917969e+01 1.674056529998779297e+00 6.007483959197998047e+00 2.304462194442749023e+00 -1.180182337760925293e+00
2.109000000000000000e+03 3.450174713134765625e+01 2.105299758911132812e+01 3.359875082969665527e-01 5.300786018371582031e+00 1.691032052040100098e+00 2.074889242649078369e-01
2.110000000000000000e+03 6.448397827148437500e+01 3.197496652603149414e+00 3.819493651390075684e-01 2.574480295181274414e+00 8.869288563728332520e-01 4.635972529649734497e-02
2.111000000000000000e+03 4.232622146606445312e+01 -2.323284721374511719e+01 1.641544580459594727e+00 6.863554000854492188e+00 2.551529645919799805e+00 -4.733942747116088867e-01
2.112000000000000000e+03 4.514128112792968750e+01 -1.434182071685791016e+01 2.386311769485473633e+00 4.037608623504638672e+00 1.927176237106323242e+00 2.199554443359375000e-01
2.113000000000000000e+03 7.439568328857421875e+01 3.521080398559570312e+01 -1.549842506647109985e-01 -4.517543017864227295e-01 -1.820215582847595215e-01 2.917914390563964844e-01
2.114000000000000000e+03 1.104396343231201172e+01 -1.553140354156494141e+01 6.195471882820129395e-01 1.189045548439025879e+00 5.425778031349182129e-01 5.154239013791084290e-02
2.115000000000000000e+03 2.839958953857421875e+01 2.710216712951660156e+01 -1.461624801158905029e-01 2.578543663024902344e+00 7.297143340110778809e-01 -9.915147423744201660e-01
2.116000000000000000e+03 4.645372867584228516e+00 -1.617007827758789062e+01 1.817878782749176025e-01 -4.693843424320220947e-01 -8.627894520759582520e-02 -1.009876430034637451e-01
2.117000000000000000e+03 3.732289123535156250e+01 2.936211824417114258e+00 9.355639219284057617e-01 3.072074174880981445e+00 1.202291369438171387e+00 -1.053272634744644165e-01
2.118000000000000000e+03 3.747736740112304688e+01 4.344986915588378906e+00 9.553992748260498047e-01 4.093182563781738281e+00 1.514574527740478516e+00 -1.428782641887664795e-01
2.119000000000000000e+03 3.617445373535156250e+01 -2.315507173538208008e+00 -3.101718723773956299e-01 8.917891502380371094e+00 2.582315921783447266e+00 -4.639251708984375000e+00
2.120000000000000000e+03 3.510349273681640625e+01 2.997712373733520508e+00 -1.873767971992492676e+00 1.861413383483886719e+01 5.022109985351562500e+00 9.973964691162109375e-01
2.121000000000000000e+03 3.805596923828125000e+01 -2.329401016235351562e+00 -5.640316009521484375e-02 3.096190690994262695e+00 9.119362831115722656e-01 -2.299134254455566406e+00
2.122000000000000000e+03 3.308042144775390625e+01 -2.779256105422973633e+00 -3.839985728263854980e-01 9.239672660827636719e+00 2.656702280044555664e+00 2.066245317459106445e+00
2.123000000000000000e+03 3.551399993896484375e+01 -2.216029644012451172e+00 -1.067052006721496582e+00 1.199855995178222656e+01 3.279452562332153320e+00 -4.030485630035400391e+00
2.124000000000000000e+03 3.531272888183593750e+01 -1.764265537261962891e+00 -4.799217581748962402e-01 1.406978416442871094e+01 4.076958656311035156e+00 -3.904499053955078125e+00
2.125000000000000000e+03 3.801659774780273438e+01 4.755924224853515625e+00 6.051890850067138672e-01 2.048184394836425781e+00 7.960120439529418945e-01 -1.873538643121719360e-01
2.126000000000000000e+03 2.279948234558105469e+01 -3.426014900207519531e+00 7.456704974174499512e-02 9.763277322053909302e-02 5.165994912385940552e-02 7.427747845649719238e-01
2.127000000000000000e+03 1.568293857574462891e+01 5.847033500671386719e+00 -7.983786053955554962e-05 2.928548201452940702e-04 6.390509224729612470e-05 3.084570344071835279e-04
2.128000000000000000e+03 1.614260482788085938e+01 3.839615821838378906e+00 -2.199462614953517914e-04 3.752223856281489134e-04 4.658284160541370511e-05 1.341746246907860041e-04
2.129000000000000000e+03 1.271236991882324219e+01 7.297708511352539062e+00 3.487377834971994162e-04 1.910707214847207069e-04 1.619425456738099456e-04 1.212877803482115269e-03
2.130000000000000000e+03 1.380064773559570312e+01 4.699108123779296875e+00 4.910926872980780900e-05 -3.559167817002162337e-05 4.055277258885325864e-06 7.856620359234511852e-04
2.131000000000000000e+03 2.221398162841796875e+01 -3.746802091598510742e+00 -1.976754516363143921e-02 1.732878535985946655e-01 4.605609178543090820e-02 7.401028871536254883e-01
2.132000000000000000e+03 2.751078033447265625e+01 -2.803886413574218750e+00 1.158745884895324707e+00 -7.812554389238357544e-02 3.241860866546630859e-01 8.005370497703552246e-01
2.133000000000000000e+03 2.600301933288574219e+01 -2.813456058502197266e+00 7.400042414665222168e-01 -1.580765545368194580e-01 1.745783090591430664e-01 7.937242984771728516e-01
2.134000000000000000e+03 1.115584278106689453e+01 4.788942337036132812e+00 3.199640486855059862e-04 -5.718932370655238628e-04 -7.557875505881384015e-05 7.892990252003073692e-04
2.135000000000000000e+03 1.034888458251953125e+01 4.694131851196289062e+00 7.133887847885489464e-04 -3.701954556163400412e-04 1.029580016620457172e-04 5.602620076388120651e-04
2.136000000000000000e+03 1.197544956207275391e+01 4.775224685668945312e+00 5.873083136975765228e-04 7.239003025460988283e-05 1.979094959096983075e-04 5.895352223888039589e-04
2.137000000000000000e+03 7.325503540039062500e+01 -2.067684936523437500e+01 -7.425254443660378456e-04 -1.339655485935509205e-03 -6.246542907319962978e-04 7.637839298695325851e-04
2.138000000000000000e+03 1.220506477355957031e+01 -4.691239833831787109e+00 -3.788584470748901367e-01 2.541617155075073242e-01 -3.740902245044708252e-02 -1.484976112842559814e-01
2.139000000000000000e+03 1.145193290710449219e+01 -4.790040493011474609e+00 -3.567988574504852295e-01 2.186602056026458740e-01 -4.144159331917762756e-02 -2.261237502098083496e-01
2.140000000000000000e+03 9.664714813232421875e+00 4.575952053070068359e+00 7.856926531530916691e-04 -9.595044539310038090e-04 -5.214353950577788055e-05 4.380585160106420517e-04
2.141000000000000000e+03 1.001370525360107422e+01 -3.986735105514526367e+00 -4.150594770908355713e-01 1.188856661319732666e-01 -8.885214477777481079e-02 -2.945814132690429688e-01
2.142000000000000000e+03 4.008894443511962891e+00 -5.882196426391601562e+00 -7.037511467933654785e-02 -2.272927016019821167e-01 -8.930034190416336060e-02 -3.724845051765441895e-01
2.143000000000000000e+03 6.072065353393554688e+00 -5.021297454833984375e+00 -1.663604378700256348e-01 -7.045170664787292480e-02 -7.104364782571792603e-02 -4.211420416831970215e-01
2.144000000000000000e+03 1.526656532287597656e+01 -4.887260437011718750e+00 -3.394437432289123535e-01 3.762304186820983887e-01 1.103600393980741501e-02 1.866562515497207642e-01
2.145000000000000000e+03 7.164217948913574219e+00 -3.782860994338989258e+00 -3.097091615200042725e-01 6.537907291203737259e-03 -9.095137566328048706e-02 -3.639932572841644287e-01
2.146000000000000000e+03 5.940248966217041016e+00 -4.102598190307617188e+00 -2.206501066684722900e-01 -5.431799590587615967e-02 -8.249042928218841553e-02 -3.710054755210876465e-01
2.147000000000000000e+03 2.763307952880859375e+01 -1.942021250724792480e+00 1.325274944305419922e+00 -5.047868564724922180e-02 3.824388980865478516e-01 5.318699479103088379e-01
2.148000000000000000e+03 2.945869255065917969e+01 -4.876407623291015625e+00 3.302955925464630127e-01 9.743833541870117188e-01 3.914036750793457031e-01 1.034895300865173340e+00
2.149000000000000000e+03 5.687566757202148438e+00 6.665734767913818359e+00 1.244008424691855907e-03 -8.161526056937873363e-04 1.283567398786544800e-04 -1.040620496496558189e-03
2.150000000000000000e+03 6.002305030822753906e+00 4.418322086334228516e+00 5.744489608332514763e-04 -5.935725057497620583e-04 -5.737055744248209521e-06 -6.685029366053640842e-04
2.151000000000000000e+03 2.870216560363769531e+01 -4.955535411834716797e+00 2.681209743022918701e-01 3.581799864768981934e-01 1.878902912139892578e-01 1.098217844963073730e+00
2.152000000000000000e+03 9.284796714782714844e+00 -3.939967870712280273e+00 -3.883004486560821533e-01 7.636047899723052979e-02 -9.358199685811996460e-02 -3.339973390102386475e-01
2.153000000000000000e+03 1.060833358764648438e+01 -4.851987361907958984e+00 -3.265744745731353760e-01 1.882195919752120972e-01 -4.150645807385444641e-02 -2.833158969879150391e-01
2.154000000000000000e+03 8.273621559143066406e+00 4.050745487213134766e+00 1.001974451355636120e-03 -3.862736048176884651e-04 1.847102539613842964e-04 -1.370082027278840542e-04
2.155000000000000000e+03 4.912561416625976562e+00 6.147792816162109375e+00 -2.681229489098768681e-05 -6.001504370942711830e-04 -1.880888157756999135e-04 -8.123455336317420006e-04
2.156000000000000000e+03 5.090377330780029297e+00 -5.303941726684570312e+00 -1.236869543790817261e-01 -1.309196054935455322e-01 -7.638196647167205811e-02 -3.979872763156890869e-01
2.157000000000000000e+03 8.468779563903808594e+00 -4.634285449981689453e+00 -2.952699363231658936e-01 6.422884017229080200e-02 -6.931233406066894531e-02 -3.805758059024810791e-01
2.158000000000000000e+03 7.812412738800048828e+00 4.980432987213134766e+00 1.088619697839021683e-03 -6.681579980067908764e-04 1.261385186808183789e-04 -1.576000504428520799e-04
2.159000000000000000e+03 9.103629112243652344e+00 4.598824024200439453e+00 8.395003387704491615e-04 -3.021150769200176001e-04 1.612155756447464228e-04 9.922630124492570758e-05
2.160000000000000000e+03 8.518520355224609375e+00 4.792349815368652344e+00 5.499880644492805004e-04 -1.095298212021589279e-03 -1.635930384509265423e-04 1.901195937534794211e-04
2.161000000000000000e+03 9.861034393310546875e+00 -4.720388412475585938e+00 -3.272375762462615967e-01 1.491297632455825806e-01 -5.343233793973922729e-02 -3.322138786315917969e-01
2.162000000000000000e+03 1.907715606689453125e+01 -4.631828784942626953e+00 -2.276333719491958618e-01 3.163208961486816406e-01 2.660625800490379333e-02 5.852158069610595703e-01
2.163000000000000000e+03 1.616230583190917969e+01 -4.077882766723632812e+00 -3.969116508960723877e-01 3.081315159797668457e-01 -2.663404121994972229e-02 2.806336581707000732e-01
2.164000000000000000e+03 1.293790245056152344e+01 -5.175482749938964844e+00 -3.233123719692230225e-01 3.451178967952728271e-01 6.541659124195575714e-03 -8.366970717906951904e-02
2.165000000000000000e+03 1.345292854309082031e+01 -4.748345375061035156e+00 -3.702250123023986816e-01 3.177372217178344727e-01 -1.574634015560150146e-02 -1.346789952367544174e-02
2.166000000000000000e+03 7.474602508544921875e+01 -1.268003749847412109e+01 -1.752112805843353271e-01 -1.605189405381679535e-02 -5.737895146012306213e-02 -1.716941148042678833e-01
2.167000000000000000e+03 1.775046157836914062e+01 -4.478168487548828125e+00 -2.994114756584167480e-01 3.140273094177246094e-01 4.384749103337526321e-03 4.603881835937500000e-01
2.168000000000000000e+03 7.323336791992187500e+01 -1.128597354888916016e+01 -3.288561403751373291e-01 3.775751963257789612e-02 -8.732958137989044189e-02 -2.900902330875396729e-01
2.169000000000000000e+03 7.159731292724609375e+01 -1.106973171234130859e+01 -4.489899575710296631e-01 1.331020891666412354e-01 -9.476636350154876709e-02 -2.926177382469177246e-01
2.170000000000000000e+03 7.367301940917968750e+01 -1.056876277923583984e+01 -2.620475292205810547e-01 -9.813449345529079437e-03 -8.155829459428787231e-02 -3.183363080024719238e-01
2.171000000000000000e+03 7.395052337646484375e+01 -1.165436458587646484e+01 -2.452894002199172974e-01 2.773281186819076538e-03 -7.275483757257461548e-02 -2.353916168212890625e-01
2.172000000000000000e+03 1.597760105133056641e+01 -4.907414436340332031e+00 -3.171706199645996094e-01 3.793585300445556641e-01 1.865637488663196564e-02 2.842105329036712646e-01
2.173000000000000000e+03 1.759660720825195312e+01 -5.038389682769775391e+00 -2.292124032974243164e-01 3.959670364856719971e-01 5.002639070153236389e-02 4.753114283084869385e-01
2.174000000000000000e+03 2.403273773193359375e+01 -4.246530532836914062e+00 1.807101666927337646e-01 7.119623571634292603e-02 7.557192444801330566e-02 9.379055500030517578e-01
2.175000000000000000e+03 5.296256542205810547e+00 7.385569095611572266e+00 4.028477123938500881e-04 -1.017501926980912685e-03 -1.843962818384170532e-04 -1.199917052872478962e-03
2.176000000000000000e+03 7.002410888671875000e+01 -1.229236507415771484e+01 -6.302416920661926270e-01 1.928044557571411133e-01 -1.312311738729476929e-01 -1.574616432189941406e-01
2.177000000000000000e+03 1.973306465148925781e+01 -4.833671569824218750e+00 -1.496552526950836182e-01 3.251583576202392578e-01 5.265092849731445312e-02 6.560777425765991211e-01
2.178000000000000000e+03 3.606585311889648438e+01 5.393440723419189453e+00 1.510306596755981445e+00 1.115013217926025391e+01 3.798131704330444336e+00 8.794000148773193359e-01
2.179000000000000000e+03 6.406609344482421875e+01 -8.373936653137207031e+00 -6.579179167747497559e-01 4.079133272171020508e-01 -7.500137388706207275e-02 1.551049649715423584e-01
2.180000000000000000e+03 3.612960052490234375e+01 1.067295455932617188e+01 4.955476820468902588e-01 9.465011596679687500e+00 2.988167762756347656e+00 1.214742422103881836e+00
2.181000000000000000e+03 3.532140731811523438e+01 1.037071132659912109e+01 5.103467106819152832e-01 1.177087116241455078e+01 3.684365510940551758e+00 5.335785150527954102e-01
2.182000000000000000e+03 3.422245407104492188e+01 -7.743242740631103516e+00 -2.778437852859497070e+00 6.996888637542724609e+00 1.265535235404968262e+00 -1.692422866821289062e+00
2.183000000000000000e+03 3.278743362426757812e+01 -4.040011405944824219e+00 -1.385197281837463379e+00 7.328158378601074219e+00 1.782888293266296387e+00 7.298806309700012207e-01
2.184000000000000000e+03 3.866048812866210938e+01 -2.377181291580200195e+00 -5.686005949974060059e-01 2.386424779891967773e+00 5.453472733497619629e-01 -1.600154995918273926e+00
2.185000000000000000e+03 7.462789154052734375e+01 -2.041668128967285156e+01 -1.969467382878065109e-03 -3.056619025301188231e-04 -6.825387827120721340e-04 3.721060056705027819e-04
2.186000000000000000e+03 2.621174240112304688e+01 -3.983595132827758789e+00 5.244288444519042969e-01 -9.189443290233612061e-02 1.297603249549865723e-01 1.099941372871398926e+00
2.187000000000000000e+03 3.596597671508789062e+01 6.131188392639160156e+00 6.887819170951843262e-01 1.169034099578857422e+01 3.713737010955810547e+00 8.469945788383483887e-01
2.188000000000000000e+03 3.204516220092773438e+01 -2.702330350875854492e+00 1.059243679046630859e+00 5.419606685638427734e+00 1.943655133247375488e+00 2.445690870285034180e+00
2.189000000000000000e+03 3.140832138061523438e+01 -1.766179323196411133e+00 2.910973787307739258e+00 2.621966600418090820e+00 1.659882068634033203e+00 2.497155189514160156e+00
2.190000000000000000e+03 3.952919769287109375e+01 -4.356410503387451172e+00 -2.199706077575683594e+00 3.176836013793945312e+00 2.931389510631561279e-01 -1.932156324386596680e+00
2.191000000000000000e+03 3.728430557250976562e+01 5.842521190643310547e+00 9.908607006072998047e-01 5.203076362609863281e+00 1.858181118965148926e+00 5.384074449539184570e-01
2.192000000000000000e+03 1.682453727722167969e+01 -9.907396316528320312e+00 4.170223176479339600e-01 1.016425609588623047e+00 4.300343692302703857e-01 5.448985695838928223e-01
2.193000000000000000e+03 1.466324901580810547e+01 -9.465878486633300781e+00 2.422385513782501221e-01 1.026840686798095703e+00 3.807237744331359863e-01 2.154765874147415161e-01
2.194000000000000000e+03 7.561519622802734375e+01 -2.150115013122558594e+01 -2.557133790105581284e-03 -1.515449723228812218e-03 -1.221775077283382416e-03 1.068584853783249855e-03
2.195000000000000000e+03 7.625350952148437500e+01 -1.979603958129882812e+01 -1.582826953381299973e-04 -2.214735141023993492e-04 -1.139268642873503268e-04 -1.024416647851467133e-03
2.196000000000000000e+03 1.013795185089111328e+01 1.654726409912109375e+01 -2.917320653796195984e-02 1.547093736007809639e-03 -8.287834003567695618e-03 -7.472909986972808838e-03
2.197000000000000000e+03 9.678884506225585938e+00 1.774866676330566406e+01 -4.403430968523025513e-02 1.405790075659751892e-02 -8.992923423647880554e-03 -1.043060095980763435e-03
2.198000000000000000e+03 6.529716491699218750e+01 6.946115970611572266e+00 6.250181794166564941e-01 3.115834474563598633e+00 1.122255802154541016e+00 2.614053525030612946e-02
2.199000000000000000e+03 3.284516525268554688e+01 -5.444097518920898438e+00 -2.095086336135864258e+00 6.390319347381591797e+00 1.288569808006286621e+00 -5.043251514434814453e-01
2.200000000000000000e+03 2.928869056701660156e+01 -3.364445924758911133e+00 1.248844265937805176e+00 8.150005936622619629e-01 6.191534399986267090e-01 1.154687762260437012e+00
2.201000000000000000e+03 2.077683830261230469e+01 -4.397959709167480469e+00 -1.237755119800567627e-01 2.783735394477844238e-01 4.637940973043441772e-02 7.050052285194396973e-01
2.202000000000000000e+03 4.139824676513671875e+01 -1.858633613586425781e+01 2.064439296722412109e+00 6.066490650177001953e+00 2.439279079437255859e+00 -6.052139401435852051e-01
2.203000000000000000e+03 4.041153717041015625e+01 -1.624722099304199219e+01 1.983601093292236328e+00 5.454585552215576172e+00 2.231456041336059570e+00 -1.378666043281555176e+00
2.204000000000000000e+03 4.032562255859375000e+01 -1.436579513549804688e+01 1.659638166427612305e+00 5.098199367523193359e+00 2.027351379394531250e+00 -1.646588206291198730e+00
2.205000000000000000e+03 4.163552474975585938e+01 1.771895408630371094e+01 7.144727110862731934e-01 1.509743571281433105e+00 6.672648787498474121e-01 1.002657413482666016e+00
2.206000000000000000e+03 4.064932250976562500e+01 1.715554046630859375e+01 7.747850418090820312e-01 1.901845574378967285e+00 8.029891848564147949e-01 1.211232900619506836e+00
2.207000000000000000e+03 1.283040046691894531e+01 -2.231634712219238281e+01 3.818227052688598633e-01 1.532852411270141602e+00 5.744025111198425293e-01 8.068763464689254761e-02
2.208000000000000000e+03 3.857896041870117188e+01 -1.259111690521240234e+01 1.102834939956665039e+00 5.447351455688476562e+00 1.965055823326110840e+00 -1.962848901748657227e+00
2.209000000000000000e+03 1.387217044830322266e+01 -9.122093200683593750e+00 1.356385052204132080e-01 9.095498919486999512e-01 3.135565221309661865e-01 6.558550894260406494e-02
2.210000000000000000e+03 1.248350811004638672e+01 -1.087404537200927734e+01 3.846564888954162598e-01 1.004436016082763672e+00 4.167277514934539795e-01 -7.926674187183380127e-02
2.211000000000000000e+03 3.865526199340820312e+01 1.533326244354248047e+01 8.111586570739746094e-01 3.554277420043945312e+00 1.309630870819091797e+00 1.316265463829040527e+00
2.212000000000000000e+03 1.223969554901123047e+01 8.590570449829101562e+00 4.337573191151022911e-04 3.997773746959865093e-04 2.500604023225605488e-04 1.896411762572824955e-03
2.213000000000000000e+03 1.116012382507324219e+01 8.343743324279785156e+00 5.139978020451962948e-04 -1.617870759218931198e-03 -3.311618929728865623e-04 1.491168863140046597e-03
2.214000000000000000e+03 7.446723937988281250e+01 -8.197414398193359375e+00 -2.068075239658355713e-01 -1.265390962362289429e-01 -1.000039875507354736e-01 -4.735393822193145752e-01
2.215000000000000000e+03 7.573350524902343750e+01 -7.077555656433105469e+00 -1.135274246335029602e-01 -3.187741935253143311e-01 -1.296904832124710083e-01 -4.642930626869201660e-01
2.216000000000000000e+03 7.308001708984375000e+01 3.733717441558837891e+00 1.415106952190399170e-01 -2.711007893085479736e-01 -3.887702897191047668e-02 -7.295300364494323730e-01
2.217000000000000000e+03 3.051846122741699219e+01 -5.733264446258544922e+00 -6.700534820556640625e-01 1.781287550926208496e+00 3.333702087402343750e-01 2.748233675956726074e-01
2.218000000000000000e+03 3.024485015869140625e+01 -3.620398998260498047e+00 1.114536643028259277e+00 1.819408893585205078e+00 8.801836371421813965e-01 1.335435628890991211e+00
2.219000000000000000e+03 1.074755382537841797e+01 2.177873611450195312e+01 -1.105924025177955627e-01 5.628215894103050232e-02 -1.629307307302951813e-02 3.420301526784896851e-02
2.220000000000000000e+03 7.698864746093750000e+01 -1.108054637908935547e+01 -8.179453760385513306e-02 -1.384069770574569702e-01 -6.606045365333557129e-02 -1.900273859500885010e-01
2.221000000000000000e+03 1.426121616363525391e+01 7.407394886016845703e+00 -1.190089169540442526e-04 9.816096862778067589e-04 2.587802591733634472e-04 1.011150656268000603e-03
2.222000000000000000e+03 3.688884353637695312e+01 1.129834365844726562e+01 6.143883466720581055e-01 7.241900444030761719e+00 2.356886625289916992e+00 1.503682136535644531e+00
2.223000000000000000e+03 4.582982063293457031e+00 -1.348035621643066406e+01 1.555989682674407959e-01 -4.502526223659515381e-01 -8.839609473943710327e-02 -2.666068971157073975e-01
2.224000000000000000e+03 7.032769680023193359e+00 -1.223768329620361328e+01 2.506040036678314209e-01 3.991678729653358459e-02 8.715623617172241211e-02 -3.616712391376495361e-01
2.225000000000000000e+03 3.983921051025390625e+01 -5.350901603698730469e+00 -2.397158622741699219e+00 3.364243745803833008e+00 2.901255190372467041e-01 -2.057597160339355469e+00
2.226000000000000000e+03 7.590134429931640625e+01 -4.503429412841796875e+00 -7.030866295099258423e-02 -5.280086398124694824e-01 -1.794951856136322021e-01 -5.538522005081176758e-01
2.227000000000000000e+03 1.254153251647949219e+01 -1.192491531372070312e+01 4.950183629989624023e-01 1.092662930488586426e+00 4.763043820858001709e-01 -6.260395795106887817e-02
2.228000000000000000e+03 1.167480754852294922e+01 -1.233081531524658203e+01 5.022150278091430664e-01 1.017217755317687988e+00 4.558298289775848389e-01 -9.280876815319061279e-02
2.229000000000000000e+03 2.383498382568359375e+01 -5.832783222198486328e+00 -9.275365620851516724e-02 2.414898425340652466e-01 4.462085664272308350e-02 9.760009646415710449e-01
2.230000000000000000e+03 6.084971618652343750e+01 9.446128606796264648e-01 3.754796385765075684e-01 2.664093732833862305e+00 9.118720293045043945e-01 8.849597573280334473e-01
2.231000000000000000e+03 6.296646118164062500e+01 -9.089873313903808594e+00 -8.349335789680480957e-01 5.031253099441528320e-01 -9.954247623682022095e-02 4.286309480667114258e-01
2.232000000000000000e+03 2.199291992187500000e+01 -7.642767429351806641e+00 -7.859149575233459473e-02 3.571650385856628418e-01 8.357206732034683228e-02 7.018615603446960449e-01
2.233000000000000000e+03 2.026872634887695312e+01 -6.973171234130859375e+00 -2.768866484984755516e-03 4.348626434803009033e-01 1.296281367540359497e-01 7.308166027069091797e-01
2.234000000000000000e+03 7.238409423828125000e+01 1.475752353668212891e+01 4.621165990829467773e-01 -3.090809471905231476e-02 1.293625533580780029e-01 -1.652463339269161224e-02
2.235000000000000000e+03 7.506350708007812500e+01 1.599580478668212891e+01 2.458309233188629150e-01 -1.379238724708557129e+00 -3.400223255157470703e-01 1.152116358280181885e-01
2.236000000000000000e+03 7.592320251464843750e+01 -2.377074050903320312e+01 -3.684885101392865181e-03 -2.028229879215359688e-03 -1.713934470899403095e-03 4.117703530937433243e-03
2.237000000000000000e+03 3.962112808227539062e+01 1.632381248474121094e+01 8.180124759674072266e-01 2.645372867584228516e+00 1.039015650749206543e+00 1.300504088401794434e+00
2.238000000000000000e+03 1.049075603485107422e+01 1.534277439117431641e+01 -1.598646864295005798e-02 -2.301417989656329155e-03 -5.486365873366594315e-03 -4.582431167364120483e-03
2.239000000000000000e+03 1.108915615081787109e+01 1.281850433349609375e+01 -2.309635048732161522e-03 -4.999345634132623672e-03 -2.192694228142499924e-03 -2.032339107245206833e-04
2.240000000000000000e+03 7.584324645996093750e+01 -2.030712890625000000e+01 4.312404198572039604e-04 -9.610159322619438171e-04 -1.589326566318050027e-04 6.027267318131634966e-06
2.241000000000000000e+03 7.401732635498046875e+01 -2.060167121887207031e+01 -3.330700565129518509e-03 -1.780553255230188370e-03 -1.533376169390976429e-03 -1.095355139113962650e-03
2.242000000000000000e+03 1.459992408752441406e+01 4.746609687805175781e+00 3.523745544953271747e-05 8.983111474663019180e-04 2.800645888783037663e-04 6.116226431913673878e-04
2.243000000000000000e+03 3.712986755371093750e+01 -9.247632026672363281e+00 -1.397171378135681152e+00 6.361865997314453125e+00 1.489408373832702637e+00 -1.954124569892883301e+00
2.244000000000000000e+03 7.091550445556640625e+01 -1.044658184051513672e+01 -5.668359398841857910e-01 1.835040301084518433e-01 -1.149995699524879456e-01 -3.567490875720977783e-01
2.245000000000000000e+03 6.918767547607421875e+01 -1.079785156250000000e+01 -7.540279030799865723e-01 2.294533997774124146e-01 -1.573723554611206055e-01 -2.783567607402801514e-01
2.246000000000000000e+03 1.960820198059082031e+00 3.574814987182617188e+01 4.522678907960653305e-03 -2.540705800056457520e-01 -7.486437261104583740e-02 1.328818593174219131e-02
2.247000000000000000e+03 5.355501174926757812e+00 3.233121490478515625e+01 1.834930479526519775e-02 -6.535955518484115601e-02 -1.410307548940181732e-02 7.249193638563156128e-02
2.248000000000000000e+03 4.138220977783203125e+01 -2.118051719665527344e+01 1.759243965148925781e+00 6.503037452697753906e+00 2.478684425354003906e+00 -4.169411659240722656e-01
2.249000000000000000e+03 7.326254272460937500e+01 -2.389518547058105469e+01 -1.403564121574163437e-02 -2.423380465188529342e-05 -4.217962268739938736e-03 4.453170578926801682e-03
2.250000000000000000e+03 7.346179962158203125e+01 -1.146410584449768066e+00 -3.170847520232200623e-02 -2.453577965497970581e-01 -8.311987668275833130e-02 -7.681422233581542969e-01
2.251000000000000000e+03 5.733295440673828125e+01 -1.081661128997802734e+01 -3.002440929412841797e-01 9.204936027526855469e-01 1.860748529434204102e-01 1.347616672515869141e+00
2.252000000000000000e+03 5.425879287719726562e+01 -8.395567893981933594e+00 -1.324457764625549316e+00 1.422361135482788086e+00 2.937100827693939209e-02 2.123333215713500977e+00
2.253000000000000000e+03 7.471756744384765625e+01 -2.329503250122070312e+01 -8.310826495289802551e-03 -1.879770774394273758e-03 -3.057179041206836700e-03 3.565392456948757172e-03
2.254000000000000000e+03 6.579384613037109375e+01 8.598195075988769531e+00 6.669949889183044434e-01 3.254560708999633789e+00 1.176466703414916992e+00 -4.283009469509124756e-02
2.255000000000000000e+03 7.580007934570312500e+01 5.736764669418334961e-01 1.151562761515378952e-02 -9.634245038032531738e-01 -2.855726778507232666e-01 -6.322476863861083984e-01
2.256000000000000000e+03 7.455748748779296875e+01 3.549443483352661133e-01 8.010141551494598389e-03 -6.189154386520385742e-01 -1.832715868949890137e-01 -7.171443700790405273e-01
2.257000000000000000e+03 4.424675941467285156e+00 -8.877816200256347656e+00 2.807002328336238861e-02 -3.161961138248443604e-01 -8.643782883882522583e-02 -4.146032333374023438e-01
2.258000000000000000e+03 7.553871917724609375e+01 -3.158771133422851562e+01 -4.795437213033437729e-03 -2.536452747881412506e-02 -9.047989733517169952e-03 3.597861900925636292e-02
2.259000000000000000e+03 1.126567268371582031e+01 2.372768592834472656e+01 -9.491485357284545898e-02 6.759578734636306763e-02 -8.195718750357627869e-03 7.544143497943878174e-02
2.260000000000000000e+03 9.258378028869628906e+00 -2.043481636047363281e+01 4.218046963214874268e-01 7.572170495986938477e-01 3.537065088748931885e-01 1.800435930490493774e-01
2.261000000000000000e+03 1.020849704742431641e+01 -1.961176681518554688e+01 4.693112373352050781e-01 1.008050799369812012e+00 4.432086348533630371e-01 1.393999308347702026e-01
2.262000000000000000e+03 7.672389984130859375e+01 1.850426864624023438e+01 1.103758737444877625e-01 -2.135077476501464844e+00 -6.074104905128479004e-01 2.423143535852432251e-01
2.263000000000000000e+03 6.113168716430664062e+01 -8.742059707641601562e+00 -8.156105279922485352e-01 9.190067648887634277e-01 3.101886622607707977e-02 7.702621221542358398e-01
2.264000000000000000e+03 6.010058975219726562e+01 -9.430090904235839844e+00 -8.085634112358093262e-01 8.995193243026733398e-01 2.728677168488502502e-02 9.180285930633544922e-01
2.265000000000000000e+03 6.606687927246093750e+01 1.248651123046875000e+01 7.400204539299011230e-01 3.690919399261474609e+00 1.329281926155090332e+00 -9.699663519859313965e-02
2.266000000000000000e+03 4.814653778076171875e+01 -1.018991184234619141e+01 -8.700376749038696289e-02 9.003040790557861328e-01 2.439900785684585571e-01 1.199913024902343750e+00
2.267000000000000000e+03 2.356663513183593750e+01 -6.644109249114990234e+00 -2.770540118217468262e-01 3.187220692634582520e-01 1.250041462481021881e-02 8.396272659301757812e-01
2.268000000000000000e+03 2.270611381530761719e+01 -6.313321113586425781e+00 -7.514835149049758911e-02 2.813006341457366943e-01 6.184568256139755249e-02 8.623268008232116699e-01
2.269000000000000000e+03 6.832851409912109375e+01 -2.918892669677734375e+01 -7.733459770679473877e-02 3.152855858206748962e-02 -1.374181080609560013e-02 2.870534174144268036e-02
2.270000000000000000e+03 6.642778015136718750e+01 1.785168647766113281e+01 1.051686882972717285e+00 3.045394897460937500e+00 1.229124546051025391e+00 -1.199075505137443542e-01
2.271000000000000000e+03 5.836683654785156250e+01 -9.104635238647460938e+00 -7.920028567314147949e-01 1.171942234039306641e+00 1.139818131923675537e-01 1.263762474060058594e+00
2.272000000000000000e+03 5.592614364624023438e+01 -5.194737434387207031e+00 -1.277371525764465332e+00 1.978036761283874512e+00 2.101995497941970825e-01 1.119992017745971680e+00
2.273000000000000000e+03 7.420980834960937500e+01 -9.920040130615234375e+00 -2.692491710186004639e-01 -3.920231759548187256e-02 -9.253544360399246216e-02 -3.671967983245849609e-01
2.274000000000000000e+03 5.297450637817382812e+01 -7.785095214843750000e+00 -2.067085981369018555e+00 9.173457026481628418e-01 -3.449220955371856689e-01 2.174891948699951172e+00
2.275000000000000000e+03 5.406925201416015625e+01 2.657599067687988281e+01 4.628650248050689697e-01 7.463576197624206543e-01 3.627668023109436035e-01 -5.449528694152832031e-01
2.276000000000000000e+03 7.572853851318359375e+01 2.260746765136718750e+01 1.036013141274452209e-01 -1.453866481781005859e+00 -4.050795733928680420e-01 4.924090206623077393e-01
2.277000000000000000e+03 5.731958389282226562e+01 -8.381646156311035156e+00 -1.044173598289489746e+00 1.461906790733337402e+00 1.253199577331542969e-01 1.440489530563354492e+00
2.278000000000000000e+03 5.762221908569335938e+01 -9.934100151062011719e+00 -5.997102260589599609e-01 1.074609398841857910e+00 1.424697339534759521e-01 1.436443209648132324e+00
2.279000000000000000e+03 6.052022457122802734e+00 -1.484996318817138672e+01 2.698266506195068359e-01 -1.425272971391677856e-01 3.818980976939201355e-02 -1.979309916496276855e-01
2.280000000000000000e+03 4.884279632568359375e+01 -1.162060260772705078e+01 1.223048448562622070e+00 1.323205113410949707e+00 7.638760805130004883e-01 1.620158791542053223e+00
2.281000000000000000e+03 4.971572113037109375e+01 -9.397852897644042969e+00 -7.843272686004638672e-01 3.327320814132690430e-01 -1.354785561561584473e-01 1.835234522819519043e+00
2.282000000000000000e+03 3.916686248779296875e+01 -1.644981384277343750e+01 1.916908502578735352e+00 5.866830825805664062e+00 2.335121870040893555e+00 -1.602377533912658691e+00
2.283000000000000000e+03 4.018451309204101562e+01 -1.521978950500488281e+01 2.001843452453613281e+00 5.297492980957031250e+00 2.189800977706909180e+00 -1.554013133049011230e+00
2.284000000000000000e+03 7.394962310791015625e+01 6.676535606384277344e+00 2.158629298210144043e-01 -6.505268812179565430e-01 -1.303991824388504028e-01 -5.840666294097900391e-01
2.285000000000000000e+03 7.410537719726562500e+01 5.466448307037353516e+00 1.597549468278884888e-01 -6.824607849121093750e-01 -1.568117439746856689e-01 -6.398172378540039062e-01
2.286000000000000000e+03 6.423925876617431641e+00 3.089198875427246094e+01 2.423342317342758179e-02 -1.671184971928596497e-02 2.256472129374742508e-03 8.558171987533569336e-02
2.287000000000000000e+03 4.335976409912109375e+01 -1.417575168609619141e+01 1.943055510520935059e+00 4.293444633483886719e+00 1.870949983596801758e+00 -7.226993441581726074e-01
2.288000000000000000e+03 3.212318420410156250e+01 2.187367248535156250e+01 3.572964966297149658e-01 5.261208534240722656e+00 1.685551524162292480e+00 -6.369532346725463867e-01
2.289000000000000000e+03 3.013884544372558594e+01 2.596937370300292969e+01 -2.486384063959121704e-01 3.433907270431518555e+00 9.555807113647460938e-01 -9.003961086273193359e-01
2.290000000000000000e+03 5.182952404022216797e+00 -2.690508651733398438e+01 -2.518458664417266846e-02 -1.598912626504898071e-01 -5.552275851368904114e-02 3.094799220561981201e-01
2.291000000000000000e+03 3.933643817901611328e+00 -2.859559822082519531e+01 -3.338249772787094116e-02 -3.211431503295898438e-01 -1.063576936721801758e-01 2.471346855163574219e-01
2.292000000000000000e+03 5.492296981811523438e+01 -1.024726009368896484e+01 -3.269215524196624756e-01 1.076276659965515137e+00 2.248065471649169922e-01 2.015966415405273438e+00
2.293000000000000000e+03 4.339662933349609375e+01 -3.009096336364746094e+01 -9.514217078685760498e-02 5.399446010589599609e+00 1.591291189193725586e+00 -3.621975779533386230e-01
2.294000000000000000e+03 7.074766540527343750e+01 -2.673140525817871094e+01 -4.073878750205039978e-02 1.243424136191606522e-02 -8.491363376379013062e-03 9.708472527563571930e-03
2.295000000000000000e+03 7.025959014892578125e+01 -2.455003547668457031e+01 -2.566436491906642914e-02 5.089836195111274719e-03 -6.172358524054288864e-03 2.306820533704012632e-04
2.296000000000000000e+03 4.167042922973632812e+01 -2.229416656494140625e+01 1.611328840255737305e+00 6.755029678344726562e+00 2.509907484054565430e+00 -4.484470486640930176e-01
2.297000000000000000e+03 3.905722808837890625e+01 -2.414690589904785156e+01 1.169687271118164062e+00 5.527568817138671875e+00 2.009176731109619141e+00 1.682256907224655151e-01
2.298000000000000000e+03 1.843747520446777344e+01 -8.751461029052734375e+00 2.811165452003479004e-01 6.602350473403930664e-01 2.824054658412933350e-01 6.671243906021118164e-01
2.299000000000000000e+03 2.159681701660156250e+01 2.717096900939941406e+01 2.110704630613327026e-01 4.468313753604888916e-01 1.973705440759658813e-01 -4.733877182006835938e-01
2.300000000000000000e+03 1.997557067871093750e+01 2.961152076721191406e+01 1.494246572256088257e-01 5.440288186073303223e-01 2.080360502004623413e-01 -3.222280740737915039e-01
2.301000000000000000e+03 1.518003273010253906e+01 -3.117757415771484375e+01 -2.424683421850204468e-01 7.091410756111145020e-01 1.400018185377120972e-01 -1.431206911802291870e-01
2.302000000000000000e+03 1.655954360961914062e+01 -8.787344932556152344e+00 1.941550970077514648e-01 8.767021894454956055e-01 3.212572038173675537e-01 4.656466245651245117e-01
2.303000000000000000e+03 4.391997909545898438e+01 2.029563903808593750e+01 4.781569838523864746e-01 9.883211851119995117e-01 4.399434626102447510e-01 7.940450310707092285e-01
2.304000000000000000e+03 3.956733703613281250e+01 -7.512669563293457031e+00 -2.030957937240600586e+00 4.318663597106933594e+00 6.863116621971130371e-01 -2.186153888702392578e+00
2.305000000000000000e+03 4.106356811523437500e+01 -6.979828357696533203e+00 -2.201906204223632812e+00 3.002246856689453125e+00 2.401021569967269897e-01 -1.695259213447570801e+00
2.306000000000000000e+03 9.827592849731445312e+00 -1.577929115295410156e+01 5.708519220352172852e-01 8.152972459793090820e-01 4.158447682857513428e-01 -4.908421635627746582e-02
2.307000000000000000e+03 1.143333721160888672e+01 -1.674412155151367188e+01 5.949224233627319336e-01 1.431856155395507812e+00 6.080335378646850586e-01 7.022108137607574463e-02
2.308000000000000000e+03 3.783814620971679688e+01 6.418675422668457031e+00 2.673611044883728027e-01 3.231194019317626953e+00 1.049566507339477539e+00 8.177947402000427246e-01
2.309000000000000000e+03 4.974829673767089844e+00 -2.013945770263671875e+01 1.687980741262435913e-01 -3.702931404113769531e-01 -6.044852361083030701e-02 1.447904407978057861e-01
2.310000000000000000e+03 7.916227817535400391e+00 -1.703165817260742188e+01 4.109700322151184082e-01 2.794764637947082520e-01 2.071339488029479980e-01 -8.454364724457263947e-03
2.311000000000000000e+03 7.124693298339843750e+01 -2.451709365844726562e+01 -1.954736001789569855e-02 4.830743186175823212e-03 -4.414984956383705139e-03 4.491552710533142090e-03
2.312000000000000000e+03 7.048611450195312500e+01 -2.277425956726074219e+01 -1.453418377786874771e-02 1.760600134730339050e-03 -3.832075279206037521e-03 -1.654569408856332302e-03
2.313000000000000000e+03 7.338320732116699219e+00 -1.500091075897216797e+01 3.616728484630584717e-01 1.156716644763946533e-01 1.432033479213714600e-01 -1.731323450803756714e-01
2.314000000000000000e+03 2.137929344177246094e+01 -3.262174224853515625e+01 -1.491305381059646606e-01 3.895935118198394775e-01 7.213889062404632568e-02 -2.599582374095916748e-01
2.315000000000000000e+03 4.663317680358886719e+00 -1.082859420776367188e+01 8.762481063604354858e-02 -3.510772585868835449e-01 -7.903573662042617798e-02 -3.874466717243194580e-01
2.316000000000000000e+03 2.400106811523437500e+01 -3.234853363037109375e+01 -1.341894865036010742e-01 1.412191838026046753e-01 2.108911750838160515e-03 -1.266827881336212158e-01
2.317000000000000000e+03 4.102938079833984375e+01 -2.602998733520507812e+01 1.079355597496032715e+00 5.724734306335449219e+00 2.041227102279663086e+00 -1.023954432457685471e-02
2.318000000000000000e+03 1.671686935424804688e+01 2.842602920532226562e+01 9.657353907823562622e-02 2.465071231126785278e-01 1.029241979122161865e-01 -6.819178909063339233e-02
2.319000000000000000e+03 7.421364593505859375e+01 -3.510522079467773438e+01 2.181375166401267052e-04 -3.505641222000122070e-02 -1.045148260891437531e-02 4.698665440082550049e-02
2.320000000000000000e+03 7.628003692626953125e+01 -3.441582489013671875e+01 -2.254818798974156380e-03 -4.513219743967056274e-02 -1.421610545367002487e-02 3.353407233953475952e-02
2.321000000000000000e+03 6.976435089111328125e+01 -2.791271781921386719e+01 -5.919427052140235901e-02 2.109493874013423920e-02 -1.142979972064495087e-02 1.883099786937236786e-02
2.322000000000000000e+03 7.210492706298828125e+01 8.143848419189453125e+00 3.316919505596160889e-01 8.261302113533020020e-02 1.242914944887161255e-01 -5.120868086814880371e-01
2.323000000000000000e+03 5.930946350097656250e+01 -3.423837900161743164e+00 -2.854928672313690186e-01 1.921472430229187012e+00 4.907938838005065918e-01 6.950952410697937012e-01
2.324000000000000000e+03 5.888961791992187500e+01 -4.739412784576416016e+00 -6.295393109321594238e-01 1.848168611526489258e+00 3.655887544155120850e-01 8.221629261970520020e-01
2.325000000000000000e+03 3.760017395019531250e+01 1.840350151062011719e+01 6.923630237579345703e-01 4.294910430908203125e+00 1.496181964874267578e+00 1.161092042922973633e+00
2.326000000000000000e+03 3.524829864501953125e+01 1.701310920715332031e+01 6.778057813644409180e-01 6.724270820617675781e+00 2.220623016357421875e+00 3.149955868721008301e-01
2.327000000000000000e+03 5.402207374572753906e+00 1.495194816589355469e+01 -8.022368885576725006e-03 -2.855903003364801407e-03 -3.263481426984071732e-03 3.222779603675007820e-03
2.328000000000000000e+03 4.284905433654785156e+00 1.495101356506347656e+01 -6.773612461984157562e-03 -1.621376373805105686e-03 -2.518496708944439888e-03 4.045684356242418289e-03
2.329000000000000000e+03 3.783414459228515625e+01 -1.979448199272155762e+00 6.666639447212219238e-01 2.940410852432250977e+00 1.082122445106506348e+00 -2.419149637222290039e+00
2.330000000000000000e+03 3.719900131225585938e+01 -2.643191576004028320e+00 -6.984592229127883911e-02 5.521034717559814453e+00 1.635356664657592773e+00 -3.724665641784667969e+00
2.331000000000000000e+03 3.644916534423828125e+01 4.411808013916015625e+00 1.156177163124084473e+00 9.371285438537597656e+00 3.158238649368286133e+00 4.918292164802551270e-01
2.332000000000000000e+03 3.692176055908203125e+01 -3.498711824417114258e+00 -1.394280791282653809e+00 6.699370861053466797e+00 1.591526985168457031e+00 -3.534198999404907227e+00
2.333000000000000000e+03 3.781849670410156250e+01 3.794733285903930664e+00 7.226995229721069336e-01 2.097545862197875977e+00 8.460736274719238281e-01 -5.434847474098205566e-01
2.334000000000000000e+03 3.682323074340820312e+01 3.190956592559814453e+00 7.503088116645812988e-01 6.138983249664306641e+00 2.066787719726562500e+00 5.155230164527893066e-01
2.335000000000000000e+03 3.476379013061523438e+01 -2.849080324172973633e+00 -2.110456228256225586e+00 1.233583259582519531e+01 3.067613124847412109e+00 -1.909566044807434082e+00
2.336000000000000000e+03 3.638507080078125000e+01 -3.146105289459228516e+00 -1.263908267021179199e+00 8.051825523376464844e+00 2.036375045776367188e+00 -3.868045091629028320e+00
2.337000000000000000e+03 3.371321868896484375e+01 -3.211292743682861328e+00 -1.599215149879455566e+00 1.007201385498046875e+01 2.541839599609375000e+00 5.539817214012145996e-01
2.338000000000000000e+03 3.543344497680664062e+01 -3.277313470840454102e+00 -2.026578664779663086e+00 1.011112022399902344e+01 2.425362586975097656e+00 -3.047413825988769531e+00
2.339000000000000000e+03 3.693389511108398438e+01 3.930363655090332031e+00 7.772598266601562500e-01 6.392663955688476562e+00 2.150977134704589844e+00 3.248593211174011230e-01
2.340000000000000000e+03 2.445088195800781250e+01 -3.665994167327880859e+00 2.266280651092529297e-01 3.334979701321572065e-04 6.808847188949584961e-02 8.587002754211425781e-01
2.341000000000000000e+03 1.167035770416259766e+01 5.854530334472656250e+00 4.384603234939277172e-04 -8.396550401812419295e-05 1.063484523911029100e-04 1.027513993903994560e-03
2.342000000000000000e+03 1.149294757843017578e+01 -5.587120532989501953e+00 -2.673660516738891602e-01 3.056561648845672607e-01 1.148703042417764664e-02 -2.220506370067596436e-01
2.343000000000000000e+03 6.489964008331298828e+00 -4.665018558502197266e+00 -2.098855376243591309e-01 -3.142658248543739319e-02 -7.239363342523574829e-02 -4.110538363456726074e-01
2.344000000000000000e+03 7.507066345214843750e+01 -1.170679283142089844e+01 -1.739296317100524902e-01 -4.474420472979545593e-02 -6.560214608907699585e-02 -2.221561223268508911e-01
2.345000000000000000e+03 7.562073516845703125e+01 -9.511655807495117188e+00 -1.573803275823593140e-01 -1.534498035907745361e-01 -9.324904531240463257e-02 -3.397799134254455566e-01
2.346000000000000000e+03 1.875827026367187500e+01 -6.079854965209960938e+00 -1.146403402090072632e-01 4.581130445003509521e-01 1.030418053269386292e-01 6.200549602508544922e-01
2.347000000000000000e+03 1.888820075988769531e+01 -5.330707073211669922e+00 -1.558664292097091675e-01 3.984538018703460693e-01 7.277621328830718994e-02 6.134992837905883789e-01
2.348000000000000000e+03 6.149779319763183594e+00 5.345707416534423828e+00 9.997687302529811859e-04 -6.343857385218143463e-04 1.096148989745415747e-04 -5.558254197239875793e-04
2.349000000000000000e+03 6.425575733184814453e+00 8.050622940063476562e+00 9.451080695725977421e-04 -1.387909171171486378e-03 -1.328403450315818191e-04 -7.112512830644845963e-04
2.350000000000000000e+03 1.105493259429931641e+01 6.145743846893310547e+00 6.493085675174370408e-05 -8.592695230618119240e-04 -2.383015962550416589e-04 7.967682904563844204e-04
2.351000000000000000e+03 9.490909576416015625e+00 5.130978584289550781e+00 5.731196142733097076e-04 -1.021976815536618233e-03 -1.346571661997586489e-04 4.008973774034529924e-04
2.352000000000000000e+03 3.766813278198242188e+01 5.313745021820068359e+00 8.209452033042907715e-01 3.841179609298706055e+00 1.398637413978576660e+00 3.215312659740447998e-01
2.353000000000000000e+03 3.703701019287109375e+01 4.892238616943359375e+00 1.177833199501037598e+00 6.605265617370605469e+00 2.334929704666137695e+00 4.325511157512664795e-01
2.354000000000000000e+03 5.263219833374023438e+00 5.383954524993896484e+00 7.734788232482969761e-04 -7.479253108613193035e-04 7.666055353183764964e-06 -9.098525042645633221e-04
2.355000000000000000e+03 6.510261058807373047e+00 -5.795570373535156250e+00 -1.385885775089263916e-01 -3.783353045582771301e-02 -5.292663350701332092e-02 -4.530291259288787842e-01
2.356000000000000000e+03 9.343428611755371094e+00 -5.213623046875000000e+00 -2.621082365512847900e-01 1.361095309257507324e-01 -3.779961541295051575e-02 -3.694158196449279785e-01
2.357000000000000000e+03 9.212078094482421875e+00 -4.604432582855224609e+00 -3.183874189853668213e-01 9.359145909547805786e-02 -6.743878126144409180e-02 -3.526319563388824463e-01
2.358000000000000000e+03 1.551623535156250000e+01 -5.561705112457275391e+00 -2.430622130632400513e-01 4.621545374393463135e-01 6.572769582271575928e-02 2.382933646440505981e-01
2.359000000000000000e+03 1.553504467010498047e+01 -6.842760562896728516e+00 -1.032148152589797974e-01 6.388622522354125977e-01 1.606942266225814819e-01 2.695672512054443359e-01
2.360000000000000000e+03 1.322857475280761719e+01 -5.742571353912353516e+00 -2.551717758178710938e-01 4.080200493335723877e-01 4.585448279976844788e-02 -4.890957847237586975e-02
2.361000000000000000e+03 1.385390472412109375e+01 -5.211251735687255859e+00 -3.280666470527648926e-01 3.698127865791320801e-01 1.252383925020694733e-02 1.779468543827533722e-02
2.362000000000000000e+03 1.695071601867675781e+01 -6.493919849395751953e+00 -1.068982034921646118e-01 5.808396935462951660e-01 1.421824544668197632e-01 4.487103521823883057e-01
2.363000000000000000e+03 3.776238250732421875e+01 -3.283421277999877930e+00 -9.951341748237609863e-01 4.970776081085205078e+00 1.192692518234252930e+00 -3.177366018295288086e+00
2.364000000000000000e+03 7.343262481689453125e+01 -2.169990921020507812e+01 -7.131904363632202148e-03 -1.281562377698719501e-03 -2.524040173739194870e-03 1.213269279105588794e-04
2.365000000000000000e+03 3.027200126647949219e+01 -4.696537971496582031e+00 1.340744644403457642e-01 1.987541079521179199e+00 6.364846825599670410e-01 9.730065464973449707e-01
2.366000000000000000e+03 2.138178062438964844e+01 -4.795783042907714844e+00 -9.848382323980331421e-02 2.531163990497589111e-01 4.638976976275444031e-02 7.336030006408691406e-01
2.367000000000000000e+03 1.952670669555664062e+01 -5.431804180145263672e+00 -1.488931328058242798e-01 3.741343915462493896e-01 6.757237762212753296e-02 6.639000773429870605e-01
2.368000000000000000e+03 3.411408996582031250e+01 -4.263823032379150391e+00 -2.444350481033325195e+00 9.116152763366699219e+00 2.001540660858154297e+00 -8.378522992134094238e-01
2.369000000000000000e+03 2.787236404418945312e+01 -4.737617015838623047e+00 4.344647526741027832e-01 9.655675292015075684e-02 1.593064516782760620e-01 1.204255104064941406e+00
2.370000000000000000e+03 7.351528167724609375e+01 -9.315156936645507812e+00 -2.879989147186279297e-01 -7.787744048982858658e-03 -8.873599767684936523e-02 -4.408587813377380371e-01
2.371000000000000000e+03 6.998925018310546875e+01 -9.866185188293457031e+00 -5.704278945922851562e-01 2.265977412462234497e-01 -1.031490415334701538e-01 -4.260738193988800049e-01
2.372000000000000000e+03 7.103170776367187500e+01 -1.168055534362792969e+01 -5.308246612548828125e-01 1.523601114749908447e-01 -1.135393604636192322e-01 -2.450517863035202026e-01
2.373000000000000000e+03 3.113190078735351562e+01 -4.691649436950683594e+00 -1.405026763677597046e-01 3.180586814880371094e+00 9.120252132415771484e-01 8.225826621055603027e-01
2.374000000000000000e+03 1.058720111846923828e+01 -5.720789909362792969e+00 -2.420716285705566406e-01 2.395483255386352539e-01 -7.569887675344944000e-04 -3.084384799003601074e-01
2.375000000000000000e+03 7.346712493896484375e+01 -2.281625556945800781e+01 -6.979707162827253342e-03 1.106842246372252703e-04 -2.060706960037350655e-03 3.091336693614721298e-03
2.376000000000000000e+03 1.684396743774414062e+01 -7.348660945892333984e+00 -2.825015038251876831e-02 6.855685710906982422e-01 1.971955299377441406e-01 4.520417451858520508e-01
2.377000000000000000e+03 1.856609344482421875e+01 -7.769602775573730469e+00 9.063643217086791992e-02 5.968202352523803711e-01 2.062370032072067261e-01 6.449944376945495605e-01
2.378000000000000000e+03 7.500508117675781250e+01 -2.100260734558105469e+01 -2.492847619578242302e-03 -1.021803356707096100e-03 -1.054395339451730251e-03 -2.532128128223121166e-04
2.379000000000000000e+03 1.713489341735839844e+01 -4.669135093688964844e+00 -3.045735657215118408e-01 3.571307063102722168e-01 1.576714217662811279e-02 3.993398845195770264e-01
2.380000000000000000e+03 4.978935718536376953e+00 -6.789188861846923828e+00 -5.807212740182876587e-02 -1.900888234376907349e-01 -7.444828748703002930e-02 -4.342976808547973633e-01
2.381000000000000000e+03 1.113596916198730469e+01 -2.050952339172363281e+01 4.920051991939544678e-01 1.373380899429321289e+00 5.596157908439636230e-01 1.162159889936447144e-01
2.382000000000000000e+03 6.971385192871093750e+01 -2.683392906188964844e+01 -4.296161234378814697e-02 1.275051850825548172e-02 -9.063328616321086884e-03 9.803109802305698395e-03
2.383000000000000000e+03 7.099982452392578125e+01 -2.795355796813964844e+01 -4.129191115498542786e-02 1.453497074544429779e-02 -8.027081377804279327e-03 2.538799680769443512e-02
2.384000000000000000e+03 8.157000541687011719e+00 5.770884990692138672e+00 4.130307352170348167e-04 -1.430141739547252655e-03 -3.051332896575331688e-04 -1.516284646640997380e-05
2.385000000000000000e+03 2.249609947204589844e+01 -7.112762928009033203e+00 -1.286583542823791504e-01 3.363411128520965576e-01 6.230483204126358032e-02 7.787950038909912109e-01
2.386000000000000000e+03 2.308044815063476562e+01 -4.702503681182861328e+00 1.221707835793495178e-02 1.959652602672576904e-01 6.245470419526100159e-02 8.956294059753417969e-01
2.387000000000000000e+03 3.673185348510742188e+01 6.142023563385009766e+00 1.078855156898498535e+00 8.552309989929199219e+00 2.889349699020385742e+00 7.061877250671386719e-01
2.388000000000000000e+03 7.481085205078125000e+01 -2.045419692993164062e+00 -4.753526300191879272e-02 -5.141017436981201172e-01 -1.684911102056503296e-01 -6.905085444450378418e-01
2.389000000000000000e+03 3.861589050292968750e+01 -4.881762027740478516e+00 -2.069251537322998047e+00 4.588948249816894531e+00 7.559090256690979004e-01 -2.641973018646240234e+00
2.390000000000000000e+03 5.845784187316894531e+00 -1.225128269195556641e+01 1.867992728948593140e-01 -1.755514889955520630e-01 3.374331630766391754e-03 -3.548396825790405273e-01
2.391000000000000000e+03 5.775420188903808594e+00 2.114221191406250000e+01 -3.288134559988975525e-02 -1.488169655203819275e-03 -1.031085476279258728e-02 4.522878676652908325e-02
2.392000000000000000e+03 1.012935447692871094e+01 1.973026466369628906e+01 -7.397460937500000000e-02 3.149565309286117554e-02 -1.274368725717067719e-02 7.120339199900627136e-03
2.393000000000000000e+03 7.448950195312500000e+01 1.629066348075866699e+00 4.277524724602699280e-02 -6.649600267410278320e-01 -1.866554319858551025e-01 -7.199383974075317383e-01
2.394000000000000000e+03 5.548793792724609375e+01 -8.981450080871582031e+00 -1.011682748794555664e+00 1.294673800468444824e+00 8.489730209112167358e-02 1.851612567901611328e+00
2.395000000000000000e+03 5.202286911010742188e+01 -1.011087036132812500e+01 -2.641641497611999512e-01 6.386821269989013672e-01 1.123553961515426636e-01 2.314119338989257812e+00
2.396000000000000000e+03 3.565253448486328125e+01 -7.548569679260253906e+00 -2.739572048187255859e+00 7.342883586883544922e+00 1.380993366241455078e+00 -2.167352199554443359e+00
2.397000000000000000e+03 3.417449951171875000e+01 -6.314173221588134766e+00 -2.996590137481689453e+00 7.400133609771728516e+00 1.321063041687011719e+00 -1.645630717277526855e+00
2.398000000000000000e+03 1.113903522491455078e+01 1.028954887390136719e+01 -1.096108695492148399e-03 -2.082815393805503845e-03 -9.536772267892956734e-04 1.113514299504458904e-03
2.399000000000000000e+03 5.134758949279785156e+00 1.042586803436279297e+01 -8.342167129740118980e-04 -2.452026819810271263e-03 -9.858730481937527657e-04 -7.720175199210643768e-04
2.400000000000000000e+03 1.491842651367187500e+01 5.373810291290283203e+00 -3.457421553321182728e-04 7.051401189528405666e-04 1.078193890862166882e-04 5.506480811163783073e-04
2.401000000000000000e+03 7.215967559814453125e+01 -2.245578193664550781e+01 -1.134760398417711258e-02 -2.104560117004439235e-04 -3.467418020591139793e-03 -3.251326852478086948e-04
2.402000000000000000e+03 6.904190063476562500e+01 7.991241455078125000e+00 5.087969899177551270e-01 1.414414525032043457e+00 5.769634246826171875e-01 -4.413034915924072266e-01
2.403000000000000000e+03 6.840648651123046875e+01 8.734634399414062500e+00 5.433798432350158691e-01 1.872997403144836426e+00 7.249131798744201660e-01 -3.381959497928619385e-01
2.404000000000000000e+03 1.454553222656250000e+01 -1.033986091613769531e+01 3.860259056091308594e-01 1.152859091758728027e+00 4.616654813289642334e-01 2.313494831323623657e-01
2.405000000000000000e+03 1.350366020202636719e+01 -7.727576255798339844e+00 -4.130779206752777100e-02 6.765882372856140137e-01 1.905841231346130371e-01 -1.030233968049287796e-02
2.406000000000000000e+03 9.886194229125976562e+00 -1.342105865478515625e+01 4.852581322193145752e-01 6.873468756675720215e-01 3.517814874649047852e-01 -1.975356489419937134e-01
2.407000000000000000e+03 2.179690551757812500e+01 -6.885909557342529297e+00 -1.916093565523624420e-02 3.417734801769256592e-01 9.678376466035842896e-02 8.004400730133056641e-01
2.408000000000000000e+03 2.118103408813476562e+01 -7.835054397583007812e+00 6.579200178384780884e-02 3.898111581802368164e-01 1.366809457540512085e-01 7.041605710983276367e-01
2.409000000000000000e+03 6.837895202636718750e+01 -8.463173866271972656e+00 -6.213260889053344727e-01 3.339926302433013916e-01 -8.620003610849380493e-02 -4.576218426227569580e-01
2.410000000000000000e+03 6.831776428222656250e+01 -9.989012718200683594e+00 -7.673665285110473633e-01 2.666857540607452393e-01 -1.502042263746261597e-01 -3.770203292369842529e-01
2.411000000000000000e+03 9.283167839050292969e+00 -1.888350105285644531e+01 4.633224308490753174e-01 7.738300561904907227e-01 3.711457550525665283e-01 1.121598929166793823e-01
2.412000000000000000e+03 4.250197982788085938e+01 -1.501169300079345703e+01 2.286347150802612305e+00 4.621356964111328125e+00 2.072311162948608398e+00 -8.881802558898925781e-01
2.413000000000000000e+03 7.448804473876953125e+01 -9.193294525146484375e+00 -2.175303250551223755e-01 -9.047926962375640869e-02 -9.240288287401199341e-02 -4.154770374298095703e-01
2.414000000000000000e+03 2.549320030212402344e+01 -3.421230792999267578e+00 4.966682791709899902e-01 -1.331671476364135742e-01 1.090503409504890442e-01 8.783010840415954590e-01
2.415000000000000000e+03 7.276023101806640625e+01 -2.610792350769042969e+01 -2.413256280124187469e-02 4.295526538044214249e-03 -5.951110739260911942e-03 1.263973023742437363e-02
2.416000000000000000e+03 7.437688446044921875e+01 -2.452105903625488281e+01 -9.898148477077484131e-03 -6.500414456240832806e-04 -3.164456924423575401e-03 6.835694424808025360e-03
2.417000000000000000e+03 9.409218788146972656e+00 -1.475476264953613281e+01 5.088215470314025879e-01 6.445440053939819336e-01 3.460096716880798340e-01 -1.147461831569671631e-01
2.418000000000000000e+03 4.694142913818359375e+01 -1.116334819793701172e+01 6.696642637252807617e-01 1.673938274383544922e+00 7.030807733535766602e-01 6.199463009834289551e-01
2.419000000000000000e+03 5.001468658447265625e+00 9.358953475952148438e+00 2.356553013669326901e-04 -1.127142342738807201e-03 -2.674460993148386478e-04 -1.457151258364319801e-03
2.420000000000000000e+03 7.441684722900390625e+01 -6.945827484130859375e+00 -1.750349998474121094e-01 -1.809310168027877808e-01 -1.067898049950599670e-01 -5.485882759094238281e-01
2.421000000000000000e+03 7.273999023437500000e+01 -1.002559471130371094e+01 -3.764171004295349121e-01 5.763034150004386902e-02 -9.563602507114410400e-02 -3.964776396751403809e-01
2.422000000000000000e+03 2.101241493225097656e+01 -6.015949726104736328e+00 -6.184952706098556519e-02 3.583532273769378662e-01 8.895111083984375000e-02 7.810041308403015137e-01
2.423000000000000000e+03 5.664736938476562500e+01 -9.479515075683593750e+00 -7.320177555084228516e-01 1.258875966072082520e+00 1.580574661493301392e-01 1.673742413520812988e+00
2.424000000000000000e+03 3.794157028198242188e+01 -1.057076168060302734e+01 -1.931695193052291870e-01 5.720992565155029297e+00 1.658346891403198242e+00 -1.967079639434814453e+00
2.425000000000000000e+03 5.920096588134765625e+01 -5.432060241699218750e+00 -8.596063256263732910e-01 1.738110661506652832e+00 2.635512948036193848e-01 7.655115127563476562e-01
2.426000000000000000e+03 3.978380584716796875e+01 -2.023072814941406250e+01 1.527905464172363281e+00 6.149568080902099609e+00 2.303242206573486328e+00 -5.459139943122863770e-01
2.427000000000000000e+03 3.779464340209960938e+01 -7.123298645019531250e+00 -2.380304813385009766e+00 5.993237018585205078e+00 1.083879709243774414e+00 -2.482006072998046875e+00
2.428000000000000000e+03 3.798108291625976562e+01 -6.102927207946777344e+00 -2.413248300552368164e+00 5.746355056762695312e+00 9.999319314956665039e-01 -2.744293689727783203e+00
2.429000000000000000e+03 7.480334472656250000e+01 -4.386667728424072266e+00 -9.569370746612548828e-02 -3.735151588916778564e-01 -1.407626569271087646e-01 -6.355670690536499023e-01
2.430000000000000000e+03 1.130140399932861328e+01 1.147591018676757812e+01 -3.582376230042427778e-04 -1.405858551152050495e-03 -5.292288842611014843e-04 1.882022595964372158e-03
2.431000000000000000e+03 3.776545333862304688e+01 1.432315731048583984e+01 7.950690984725952148e-01 4.722941875457763672e+00 1.655403256416320801e+00 1.423759341239929199e+00
2.432000000000000000e+03 6.141912460327148438e+01 -9.680712819099426270e-01 8.652976155281066895e-02 2.164600849151611328e+00 6.753391623497009277e-01 5.446289777755737305e-01
2.433000000000000000e+03 4.790302658081054688e+01 -1.120656394958496094e+01 8.053990602493286133e-01 1.481597661972045898e+00 6.860989928245544434e-01 1.262751102447509766e+00
2.434000000000000000e+03 5.523180484771728516e+00 2.470323181152343750e+01 -2.225658297538757324e-02 -1.719521731138229370e-02 -1.183553971350193024e-02 7.547632604837417603e-02
2.435000000000000000e+03 6.422618865966796875e+01 9.365769386291503906e+00 6.273902058601379395e-01 4.551860332489013672e+00 1.553775191307067871e+00 3.563011586666107178e-01
2.436000000000000000e+03 4.409490585327148438e+01 -1.133841133117675781e+01 5.939281582832336426e-01 2.774727821350097656e+00 1.010596752166748047e+00 -6.248301863670349121e-01
2.437000000000000000e+03 4.320374679565429688e+01 -1.226964664459228516e+01 1.001764893531799316e+00 3.478323459625244141e+00 1.344026446342468262e+00 -1.065235972404479980e+00
2.438000000000000000e+03 4.154120254516601562e+01 -1.574300384521484375e+01 2.229192733764648438e+00 5.191181659698486328e+00 2.226112365722656250e+00 -1.076692819595336914e+00
2.439000000000000000e+03 5.119272994995117188e+01 -1.080251884460449219e+01 4.926638603210449219e-01 6.485348343849182129e-01 3.423596024513244629e-01 2.158627986907958984e+00
2.440000000000000000e+03 5.355786323547363281e+00 1.998954582214355469e+01 -2.692115306854248047e-02 -1.301292679272592068e-03 -8.466733619570732117e-03 3.249599039554595947e-02
2.441000000000000000e+03 3.316040420532226562e+01 -4.636296749114990234e+00 -2.005472898483276367e+00 7.394750595092773438e+00 1.616783261299133301e+00 -6.751807034015655518e-02
2.442000000000000000e+03 7.513014221191406250e+01 1.747012519836425781e+01 2.153005003929138184e-01 -1.385229349136352539e+00 -3.509786427021026611e-01 2.301133126020431519e-01
2.443000000000000000e+03 7.371423339843750000e+01 1.806451225280761719e+01 2.938683629035949707e-01 -7.527058124542236328e-01 -1.376512497663497925e-01 3.116125464439392090e-01
2.444000000000000000e+03 3.894296264648437500e+01 -2.087387275695800781e+01 1.436903715133666992e+00 6.076977252960205078e+00 2.254164218902587891e+00 -3.391240537166595459e-01
2.445000000000000000e+03 4.167481231689453125e+01 -9.293105125427246094e+00 -8.495348095893859863e-01 3.211098432540893555e+00 7.084690928459167480e-01 -1.579159855842590332e+00
2.446000000000000000e+03 4.441060256958007812e+01 -8.223360061645507812e+00 -1.878839969635009766e+00 1.100508928298950195e+00 -2.334993183612823486e-01 -5.624660253524780273e-01
2.447000000000000000e+03 1.230254268646240234e+01 2.426955604553222656e+01 -1.051519066095352173e-01 7.112271338701248169e-02 -1.020875666290521622e-02 8.179315924644470215e-02
2.448000000000000000e+03 7.432801818847656250e+01 -3.301192855834960938e+01 -7.166194263845682144e-03 -2.385993115603923798e-02 -9.307838045060634613e-03 4.490324854850769043e-02
2.449000000000000000e+03 7.273721313476562500e+01 -3.116395187377929688e+01 -2.580946497619152069e-02 1.144192574429325759e-04 -7.708513643592596054e-03 4.675224795937538147e-02
2.450000000000000000e+03 8.096169471740722656e+00 1.809670066833496094e+01 -3.674779832363128662e-02 1.104955468326807022e-02 -7.709473371505737305e-03 9.854539297521114349e-03
2.451000000000000000e+03 2.701725959777832031e+01 -4.417592525482177734e+00 4.760515391826629639e-01 -1.229540035128593445e-01 1.059292629361152649e-01 1.203749537467956543e+00
2.452000000000000000e+03 2.811935997009277344e+01 -3.890715122222900391e+00 9.115788936614990234e-01 1.804196685552597046e-01 3.275995850563049316e-01 1.119210004806518555e+00
2.453000000000000000e+03 1.865740013122558594e+01 -6.884912014007568359e+00 -2.145557478070259094e-02 5.347845554351806641e-01 1.539987027645111084e-01 6.347130537033081055e-01
2.454000000000000000e+03 1.661448097229003906e+01 -5.277718067169189453e+00 -2.559061348438262939e-01 4.237556755542755127e-01 5.035486444830894470e-02 3.743855953216552734e-01
2.455000000000000000e+03 7.222950744628906250e+01 1.373375415802001953e+01 4.978721737861633301e-01 2.768412046134471893e-02 1.576668918132781982e-01 -1.043339073657989502e-01
2.456000000000000000e+03 4.040978431701660156e+00 1.776134681701660156e+01 -1.236995588988065720e-02 -4.739794414490461349e-03 -5.132925231009721756e-03 1.430147141218185425e-02
2.457000000000000000e+03 6.034093379974365234e+00 -1.745907020568847656e+01 2.733871638774871826e-01 -1.340435594320297241e-01 4.180308058857917786e-02 -1.407689321786165237e-02
2.458000000000000000e+03 6.075850009918212891e+00 -1.619060134887695312e+01 2.810579538345336914e-01 -1.431584358215332031e-01 4.136985540390014648e-02 -9.731890261173248291e-02
2.459000000000000000e+03 6.225766754150390625e+01 -2.828896045684814453e+00 -2.500870823860168457e-01 1.704424619674682617e+00 4.363012611865997314e-01 3.060366809368133545e-01
2.460000000000000000e+03 6.668977737426757812e+00 3.214248275756835938e+01 3.235286846756935120e-02 -1.911693438887596130e-02 3.970780875533819199e-03 7.692869752645492554e-02
2.461000000000000000e+03 6.855935668945312500e+01 1.549672698974609375e+01 7.931092977523803711e-01 1.956630229949951172e+00 8.249218463897705078e-01 -1.659895107150077820e-02
2.462000000000000000e+03 6.900341796875000000e+01 1.648113441467285156e+01 8.194064497947692871e-01 1.699804902076721191e+00 7.557634115219116211e-01 4.098321124911308289e-02
2.463000000000000000e+03 9.261626243591308594e+00 3.560216140747070312e+01 5.125085636973381042e-02 1.010471731424331665e-01 4.568940773606300354e-02 3.492621332406997681e-02
2.464000000000000000e+03 4.137862014770507812e+01 1.890963363647460938e+01 6.449671387672424316e-01 1.790748119354248047e+00 7.307146191596984863e-01 1.131213188171386719e+00
2.465000000000000000e+03 4.004057312011718750e+01 1.863665771484375000e+01 6.699485778808593750e-01 2.522473096847534180e+00 9.577264785766601562e-01 1.276332855224609375e+00
2.466000000000000000e+03 7.316712951660156250e+01 8.556268692016601562e+00 3.009264469146728516e-01 -3.988310098648071289e-01 -2.937136963009834290e-02 -4.997472465038299561e-01
2.467000000000000000e+03 7.587151336669921875e+01 2.367109680175781250e+01 2.826162055134773254e-02 -1.430129766464233398e+00 -4.205604493618011475e-01 4.949259459972381592e-01
2.468000000000000000e+03 7.168140411376953125e+01 2.376583671569824219e+01 1.233642324805259705e-01 2.663369178771972656e-01 1.169103458523750305e-01 6.369288563728332520e-01
2.469000000000000000e+03 7.304282379150390625e+01 2.021514129638671875e+01 2.738578915596008301e-01 -4.228064715862274170e-01 -4.468458145856857300e-02 4.670992791652679443e-01
2.470000000000000000e+03 7.546753692626953125e+01 2.016242790222167969e+01 1.459482163190841675e-01 -1.462043762207031250e+00 -3.948286473751068115e-01 3.907000720500946045e-01
2.471000000000000000e+03 2.459576988220214844e+01 -4.809174060821533203e+00 7.285180501639842987e-03 1.016793027520179749e-01 3.268934413790702820e-02 9.731165170669555664e-01
2.472000000000000000e+03 2.669479942321777344e+01 -5.257956027984619141e+00 -4.182433709502220154e-02 6.211724597960710526e-03 -1.068378426134586334e-02 1.318046927452087402e+00
2.473000000000000000e+03 3.537836837768554688e+01 1.951072502136230469e+01 5.380396842956542969e-01 5.498404502868652344e+00 1.810933232307434082e+00 5.048106908798217773e-01
2.474000000000000000e+03 4.882677078247070312e+00 -2.568456649780273438e+01 6.458579096943140030e-03 -2.368752211332321167e-01 -6.912498921155929565e-02 3.062935471534729004e-01
2.475000000000000000e+03 1.143828868865966797e+01 -1.049607276916503906e+01 2.798240780830383301e-01 7.786482572555541992e-01 3.175416886806488037e-01 -2.206209450960159302e-01
2.476000000000000000e+03 1.086543464660644531e+01 -1.136269474029541016e+01 3.600573241710662842e-01 7.201948165893554688e-01 3.240756392478942871e-01 -2.395025789737701416e-01
2.477000000000000000e+03 6.571073150634765625e+01 3.954743623733520508e+00 4.248989820480346680e-01 2.402903795242309570e+00 8.483408093452453613e-01 -1.673232316970825195e-01
2.478000000000000000e+03 6.485932922363281250e+01 5.154754161834716797e+00 5.520730018615722656e-01 2.876537799835205078e+00 1.028583288192749023e+00 6.402692198753356934e-02
2.479000000000000000e+03 6.228757095336914062e+01 3.003301620483398438e+00 5.318666696548461914e-01 3.090382099151611328e+00 1.086674690246582031e+00 6.789841055870056152e-01
2.480000000000000000e+03 3.327724838256835938e+01 2.448517417907714844e+01 -2.615917325019836426e-01 4.359417438507080078e+00 1.229347705841064453e+00 -9.004820138216018677e-02
2.481000000000000000e+03 2.210215950012207031e+01 2.931424140930175781e+01 1.697741597890853882e-01 8.231053948402404785e-01 2.978638708591461182e-01 -5.460416078567504883e-01
2.482000000000000000e+03 6.365022659301757812e+00 2.679136085510253906e+01 -1.276490837335586548e-02 -1.401276886463165283e-02 -8.033303543925285339e-03 8.886250108480453491e-02
2.483000000000000000e+03 2.023530387878417969e+01 -6.117084980010986328e+00 -8.058568090200424194e-02 3.738967478275299072e-01 8.799331635236740112e-02 7.197059392929077148e-01
2.484000000000000000e+03 4.595998001098632812e+01 -1.167423725128173828e+01 9.653541445732116699e-01 2.412794351577758789e+00 1.013444542884826660e+00 3.413378596305847168e-01
2.485000000000000000e+03 4.748271560668945312e+01 -1.200223636627197266e+01 1.519095301628112793e+00 2.150916099548339844e+00 1.101003408432006836e+00 1.081132054328918457e+00
2.486000000000000000e+03 5.238619232177734375e+01 2.738209915161132812e+01 4.209388792514801025e-01 6.872059702873229980e-01 3.324434459209442139e-01 -1.755002439022064209e-01
2.487000000000000000e+03 3.719808197021484375e+01 2.362047576904296875e+01 1.564167439937591553e-02 3.675777196884155273e+00 1.107425570487976074e+00 8.665446639060974121e-01
2.488000000000000000e+03 6.211319351196289062e+01 2.395838737487792969e+01 1.680584996938705444e-01 3.144031286239624023e+00 9.936269521713256836e-01 -7.105524539947509766e-01
2.489000000000000000e+03 7.345549774169921875e+01 -5.170371055603027344e+00 -1.612558513879776001e-01 -1.420316696166992188e-01 -9.098625183105468750e-02 -6.759831905364990234e-01
2.490000000000000000e+03 3.726115798950195312e+01 -5.813888549804687500e+00 -2.520905017852783203e+00 6.526885509490966797e+00 1.201794266700744629e+00 -2.803607225418090820e+00
2.491000000000000000e+03 6.632442474365234375e+01 -7.228041172027587891e+00 -5.499621629714965820e-01 5.260648131370544434e-01 -7.169216871261596680e-03 -3.146779239177703857e-01
2.492000000000000000e+03 6.593294525146484375e+01 -6.122971534729003906e+00 -4.557879269123077393e-01 6.554708480834960938e-01 5.990488454699516296e-02 -2.835067212581634521e-01
2.493000000000000000e+03 3.584453201293945312e+01 -2.716211795806884766e+00 -1.208757162094116211e+00 9.944221496582031250e+00 2.620639085769653320e+00 -3.900088787078857422e+00
2.494000000000000000e+03 3.655307006835937500e+01 -2.358491659164428711e+00 5.161022022366523743e-02 7.526571273803710938e+00 2.273454427719116211e+00 -4.362474918365478516e+00
2.495000000000000000e+03 3.660322189331054688e+01 3.546829223632812500e+00 8.238605260848999023e-01 8.022839546203613281e+00 2.654010057449340820e+00 7.941609621047973633e-01
2.496000000000000000e+03 3.745338058471679688e+01 -4.762004375457763672e+00 -2.185359954833984375e+00 6.065542221069335938e+00 1.164054632186889648e+00 -3.035303831100463867e+00
2.497000000000000000e+03 3.605855178833007812e+01 -3.687715530395507812e+00 -2.027600526809692383e+00 8.598173141479492188e+00 1.971171855926513672e+00 -3.416287422180175781e+00
2.498000000000000000e+03 3.727563476562500000e+01 -1.968624949455261230e+00 1.082225561141967773e+00 4.362940311431884766e+00 1.633549809455871582e+00 -3.582453250885009766e+00
2.499000000000000000e+03 1.104483604431152344e+01 5.490271568298339844e+00 7.629261817783117294e-04 -5.843456019647419453e-04 5.357418922358192503e-05 8.186533232219517231e-04
2.500000000000000000e+03 1.249537658691406250e+01 -6.154919624328613281e+00 -2.155688107013702393e-01 4.234440326690673828e-01 6.236256659030914307e-02 -1.346731781959533691e-01
2.501000000000000000e+03 3.796448898315429688e+01 -2.743576765060424805e+00 -5.542634725570678711e-01 3.989293813705444336e+00 1.030509114265441895e+00 -2.728122472763061523e+00
2.502000000000000000e+03 1.285845184326171875e+01 6.039189338684082031e+00 2.453596098348498344e-04 2.011864853557199240e-04 1.339638256467878819e-04 1.031905645504593849e-03
2.503000000000000000e+03 1.215486907958984375e+01 6.538593292236328125e+00 -2.237460575997829437e-04 -2.816901833284646273e-04 -1.516308693680912256e-04 1.104941125959157944e-03
2.504000000000000000e+03 9.361526489257812500e+00 6.304965019226074219e+00 3.517127188388258219e-04 -1.635196153074502945e-03 -3.850450157187879086e-04 4.763051401823759079e-04
2.505000000000000000e+03 8.462033271789550781e+00 -5.363125801086425781e+00 -2.193276286125183105e-01 9.010364860296249390e-02 -3.876719623804092407e-02 -4.072494804859161377e-01
2.506000000000000000e+03 1.614191246032714844e+01 -6.097402095794677734e+00 -1.828646659851074219e-01 5.382000803947448730e-01 1.066006273031234741e-01 3.266963660717010498e-01
2.507000000000000000e+03 3.672917175292968750e+01 5.486464977264404297e+00 1.007069468498229980e+00 8.519736289978027344e+00 2.858041763305664062e+00 6.473938822746276855e-01
2.508000000000000000e+03 1.822257041931152344e+01 -5.208005905151367188e+00 -2.162817567586898804e-01 3.945230543613433838e-01 5.347239226102828979e-02 5.373284816741943359e-01
2.509000000000000000e+03 3.245825958251953125e+01 -3.353586435317993164e+00 -1.486203521490097046e-01 6.505086898803710938e+00 1.906939983367919922e+00 1.740782022476196289e+00
2.510000000000000000e+03 5.867863178253173828e+00 -5.522601604461669922e+00 -1.393909305334091187e-01 -9.107970446348190308e-02 -6.914119422435760498e-02 -4.177024662494659424e-01
2.511000000000000000e+03 2.508024787902832031e+01 -4.167333602905273438e+00 2.498232722282409668e-01 2.506259642541408539e-02 8.246576040983200073e-02 1.032762050628662109e+00
2.512000000000000000e+03 1.028296852111816406e+01 -8.567189216613769531e+00 5.706108734011650085e-02 4.048594534397125244e-01 1.385761648416519165e-01 -3.546569645404815674e-01
2.513000000000000000e+03 6.464467525482177734e+00 6.239460945129394531e+00 2.338127524126321077e-04 -1.258814823813736439e-03 -3.075006243307143450e-04 -6.926698843017220497e-04
2.514000000000000000e+03 6.102121829986572266e+00 7.358097553253173828e+00 2.460202085785567760e-04 -1.827243715524673462e-03 -4.743670579046010971e-04 -5.827065906487405300e-04
2.515000000000000000e+03 2.013166236877441406e+01 -5.337430000305175781e+00 -1.256072670221328735e-01 3.582117557525634766e-01 6.978135555982589722e-02 7.026727199554443359e-01
2.516000000000000000e+03 7.167958831787109375e+01 -9.492959022521972656e+00 -4.151855409145355225e-01 1.255391091108322144e-01 -8.689393103122711182e-02 -4.439399540424346924e-01
2.517000000000000000e+03 3.120243644714355469e+01 -3.755812644958496094e+00 4.206575155258178711e-01 3.446474075317382812e+00 1.160139441490173340e+00 1.352064371109008789e+00
2.518000000000000000e+03 3.344096755981445312e+01 -3.971562623977661133e+00 -1.870063066482543945e+00 8.679435729980468750e+00 2.042811632156372070e+00 2.378291636705398560e-01
2.519000000000000000e+03 7.513536071777343750e+01 -2.227762222290039062e+01 -3.429655916988849640e-03 -1.472082803957164288e-03 -1.470521674491465092e-03 1.178661012090742588e-03
2.520000000000000000e+03 6.714062690734863281e+00 -5.207480430603027344e+00 -1.792333275079727173e-01 -1.480790600180625916e-02 -5.821236968040466309e-02 -4.293344318866729736e-01
2.521000000000000000e+03 5.847180843353271484e+00 9.349491119384765625e+00 -2.164778852602466941e-04 -2.026171889156103134e-03 -6.727949366904795170e-04 -2.947737521026283503e-04
2.522000000000000000e+03 6.527605056762695312e+00 1.091067790985107422e+01 -1.345750992186367512e-03 -4.440781194716691971e-03 -1.735959667712450027e-03 -6.754011847078800201e-04
2.523000000000000000e+03 7.713104248046875000e+00 6.801077365875244141e+00 2.589047653600573540e-04 -1.761460094712674618e-03 -4.507666162680834532e-04 -1.665445015532895923e-04
2.524000000000000000e+03 3.844855117797851562e+01 -3.522974491119384766e+00 -1.412140011787414551e+00 3.923551082611083984e+00 7.534232735633850098e-01 -2.505162954330444336e+00
2.525000000000000000e+03 4.973909854888916016e+00 -6.031148910522460938e+00 -8.383499085903167725e-02 -1.621768623590469360e-01 -7.380355894565582275e-02 -4.155274927616119385e-01
2.526000000000000000e+03 1.488357353210449219e+01 -6.200900554656982422e+00 -2.022070884704589844e-01 5.235382914543151855e-01 9.639936685562133789e-02 1.598402708768844604e-01
2.527000000000000000e+03 1.428777027130126953e+01 -5.699329853057861328e+00 -2.471459358930587769e-01 4.474032819271087646e-01 6.007720902562141418e-02 9.689546376466751099e-02
2.528000000000000000e+03 6.913309478759765625e+01 -9.203183174133300781e+00 -6.239669322967529297e-01 2.591993808746337891e-01 -1.094302609562873840e-01 -4.435985684394836426e-01
2.529000000000000000e+03 5.112020492553710938e+00 8.321846008300781250e+00 2.409403241472318769e-04 -1.011407002806663513e-03 -2.311400166945531964e-04 -9.212347213178873062e-04
2.530000000000000000e+03 1.801256561279296875e+01 -5.932695865631103516e+00 -1.328945904970169067e-01 4.880090057849884033e-01 1.065343245863914490e-01 5.532699823379516602e-01
2.531000000000000000e+03 3.510438537597656250e+01 -3.968626976013183594e+00 -2.663202285766601562e+00 9.839878082275390625e+00 2.153002738952636719e+00 -2.304859876632690430e+00
2.532000000000000000e+03 3.442037200927734375e+01 -3.571588516235351562e+00 -2.434104442596435547e+00 1.049378490447998047e+01 2.417904138565063477e+00 -9.718425273895263672e-01
2.533000000000000000e+03 3.375019073486328125e+01 -5.567625522613525391e+00 -2.700990438461303711e+00 7.287689685821533203e+00 1.376009821891784668e+00 -1.272543787956237793e+00
2.534000000000000000e+03 3.488451766967773438e+01 -6.996857166290283203e+00 -2.855764389038085938e+00 7.450819492340087891e+00 1.378516554832458496e+00 -2.000284671783447266e+00
2.535000000000000000e+03 6.091771125793457031e+00 -1.025283050537109375e+01 1.119335144758224487e-01 -1.234394311904907227e-01 -3.451773896813392639e-03 -4.355869889259338379e-01
2.536000000000000000e+03 7.095337867736816406e+00 -6.892938137054443359e+00 -7.763667404651641846e-02 9.935425594449043274e-03 -2.031037397682666779e-02 -4.645350575447082520e-01
2.537000000000000000e+03 2.730521011352539062e+01 -3.615030527114868164e+00 9.110758304595947266e-01 -5.675851926207542419e-02 2.562952041625976562e-01 1.034382224082946777e+00
2.538000000000000000e+03 5.900199890136718750e+00 -6.088399887084960938e+00 -1.070694252848625183e-01 -9.527607262134552002e-02 -6.070364639163017273e-02 -4.419111609458923340e-01
2.539000000000000000e+03 3.127198219299316406e+01 -2.744603395462036133e+00 1.598191618919372559e+00 3.425678253173828125e+00 1.507160902023315430e+00 1.928608417510986328e+00
2.540000000000000000e+03 1.010734081268310547e+01 -1.201559543609619141e+01 4.019913077354431152e-01 6.479606032371520996e-01 3.149855732917785645e-01 -2.519409358501434326e-01
2.541000000000000000e+03 7.524520874023437500e+00 -5.308429718017578125e+00 -2.023192942142486572e-01 2.736542932689189911e-02 -5.248615890741348267e-02 -4.248684346675872803e-01
2.542000000000000000e+03 8.537879943847656250e+00 6.564038753509521484e+00 1.075544510968029499e-03 -1.087747281417250633e-03 -3.660818492789985612e-06 1.468692062189802527e-04
2.543000000000000000e+03 1.365116405487060547e+01 -6.356011390686035156e+00 -1.892790347337722778e-01 5.095552206039428711e-01 9.608286619186401367e-02 7.976003922522068024e-03
2.544000000000000000e+03 6.705078887939453125e+01 6.553905010223388672e+00 5.298520922660827637e-01 2.238744497299194336e+00 8.305789828300476074e-01 -2.917142510414123535e-01
2.545000000000000000e+03 1.421548652648925781e+01 -6.947093963623046875e+00 -1.127227917313575745e-01 6.054418683052062988e-01 1.478157192468643188e-01 9.112673997879028320e-02
2.546000000000000000e+03 1.182070064544677734e+01 7.727876663208007812e+00 -6.938868318684399128e-04 -1.829839020501822233e-04 -2.630612289067357779e-04 1.359412563033401966e-03
2.547000000000000000e+03 6.363564682006835938e+01 4.381905198097229004e-01 8.972878009080886841e-02 2.225612401962280273e+00 6.946023106575012207e-01 1.115375012159347534e-01
2.548000000000000000e+03 6.264643859863281250e+01 1.202248454093933105e+00 2.807139456272125244e-01 2.499503850936889648e+00 8.340653777122497559e-01 4.351389408111572266e-01
2.549000000000000000e+03 4.514789581298828125e+01 -8.535454750061035156e+00 -1.757660269737243652e+00 1.094448804855346680e+00 -1.989634186029434204e-01 -2.334807068109512329e-01
2.550000000000000000e+03 1.352895450592041016e+01 6.704655170440673828e+00 -3.367806493770331144e-04 3.843505401164293289e-04 1.427096231054747477e-05 1.044675358571112156e-03
2.551000000000000000e+03 2.290658378601074219e+01 -5.527300357818603516e+00 -1.106822043657302856e-01 2.284380793571472168e-01 3.532676398754119873e-02 8.413798809051513672e-01
2.552000000000000000e+03 3.684598159790039062e+01 -7.046115398406982422e+00 -2.546378374099731445e+00 6.780999183654785156e+00 1.270386219024658203e+00 -2.562889814376831055e+00
2.553000000000000000e+03 2.185668945312500000e+01 -6.061077594757080078e+00 -1.007241681218147278e-01 3.035082817077636719e-01 6.083523109555244446e-02 7.853487133979797363e-01
2.554000000000000000e+03 7.486684417724609375e+01 -3.207704067230224609e+00 -7.452259957790374756e-02 -4.630172848701477051e-01 -1.612619608640670776e-01 -6.653699874877929688e-01
2.555000000000000000e+03 1.092848873138427734e+01 9.289496421813964844e+00 2.942360588349401951e-04 -1.350838690996170044e-03 -3.169807896483689547e-04 1.203841995447874069e-03
2.556000000000000000e+03 6.744235992431640625e+01 -6.812328338623046875e+00 -4.845465719699859619e-01 4.583432674407958984e-01 -7.860990241169929504e-03 -4.574173688888549805e-01
2.557000000000000000e+03 6.685044097900390625e+01 -8.246864318847656250e+00 -6.576059460639953613e-01 3.358539044857025146e-01 -9.652562439441680908e-02 -3.518111109733581543e-01
2.558000000000000000e+03 1.271141624450683594e+01 -9.793562889099121094e+00 2.111064791679382324e-01 8.769308924674987793e-01 3.264112174510955811e-01 -9.999807178974151611e-02
2.559000000000000000e+03 3.192897987365722656e+01 -4.972103118896484375e+00 -1.184726595878601074e+00 4.748673915863037109e+00 1.069184184074401855e+00 2.556518316268920898e-01
2.560000000000000000e+03 7.323541259765625000e+01 -8.304688453674316406e+00 -2.876960337162017822e-01 -1.209554262459278107e-02 -8.993747085332870483e-02 -5.036750435829162598e-01
2.561000000000000000e+03 7.286072540283203125e+01 1.138683700561523438e+01 3.840448260307312012e-01 -2.708442509174346924e-01 3.396017104387283325e-02 -2.813454568386077881e-01
2.562000000000000000e+03 1.755580139160156250e+01 -8.422234535217285156e+00 1.841636151075363159e-01 7.794170975685119629e-01 2.890742123126983643e-01 5.906404256820678711e-01
2.563000000000000000e+03 3.207701492309570312e+01 -4.037702083587646484e+00 -4.582248330116271973e-01 5.471854209899902344e+00 1.504088878631591797e+00 1.029858112335205078e+00
2.564000000000000000e+03 2.105239486694335938e+01 -6.917782306671142578e+00 -5.114372074604034424e-02 3.789909780025482178e-01 9.835417568683624268e-02 7.481085062026977539e-01
2.565000000000000000e+03 1.270723724365234375e+01 4.947592258453369141e+00 2.290915290359407663e-04 -4.093823008588515222e-05 5.644598786602728069e-05 1.058970694430172443e-03
2.566000000000000000e+03 1.424703407287597656e+01 5.998376369476318359e+00 -4.142949546803720295e-05 5.897089722566306591e-04 1.644838484935462475e-04 9.327807347290217876e-04
2.567000000000000000e+03 8.613706588745117188e+00 9.468731880187988281e+00 1.528621796751394868e-04 -2.194756409153342247e-03 -6.125682848505675793e-04 2.855332859326153994e-04
2.568000000000000000e+03 3.854212570190429688e+01 -8.459007263183593750e+00 -1.626846909523010254e+00 5.500995159149169922e+00 1.162244558334350586e+00 -2.195025444030761719e+00
2.569000000000000000e+03 3.873696517944335938e+01 -7.394497394561767578e+00 -2.119562149047851562e+00 5.142383098602294922e+00 9.068462252616882324e-01 -2.420400857925415039e+00
2.570000000000000000e+03 7.211342620849609375e+01 -2.351919937133789062e+01 -1.246970519423484802e-02 2.229464938864111900e-03 -3.072072053328156471e-03 3.092109924182295799e-03
2.571000000000000000e+03 7.291657257080078125e+01 -2.476735877990722656e+01 -1.582497917115688324e-02 2.253704471513628960e-03 -4.071382340043783188e-03 6.617375183850526810e-03
2.572000000000000000e+03 5.413977622985839844e+00 -8.370737075805664062e+00 1.412564888596534729e-02 -1.678969860076904297e-01 -4.613139852881431580e-02 -4.548666477203369141e-01
2.573000000000000000e+03 7.282193660736083984e+00 -1.331514549255371094e+01 3.156383037567138672e-01 9.751196205615997314e-02 1.239450797438621521e-01 -2.947443127632141113e-01
2.574000000000000000e+03 3.868883514404296875e+01 -1.178318977355957031e+01 6.450219750404357910e-01 5.316971302032470703e+00 1.788597941398620605e+00 -1.937106728553771973e+00
2.575000000000000000e+03 5.815464019775390625e+01 -6.205234527587890625e+00 -1.062865614891052246e+00 1.774566173553466797e+00 2.135101854801177979e-01 1.046053409576416016e+00
2.576000000000000000e+03 7.319655609130859375e+01 5.251456052064895630e-02 3.471578238531947136e-03 -2.289598584175109863e-01 -6.764648109674453735e-02 -7.922519445419311523e-01
2.577000000000000000e+03 8.881432533264160156e+00 -1.381878757476806641e+01 4.316098392009735107e-01 4.562961459159851074e-01 2.663717865943908691e-01 -2.256916165351867676e-01
2.578000000000000000e+03 4.241270828247070312e+01 -1.320959377288818359e+01 1.576403141021728516e+00 4.014573574066162109e+00 1.677293062210083008e+00 -1.138539314270019531e+00
2.579000000000000000e+03 7.396558380126953125e+01 -2.894080924987792969e+01 -2.108089625835418701e-02 -4.451820161193609238e-03 -7.659815251827239990e-03 2.886060811579227448e-02
2.580000000000000000e+03 7.425287628173828125e+01 4.177508831024169922e+00 1.183935999870300293e-01 -6.950461864471435547e-01 -1.729957759380340576e-01 -6.809785366058349609e-01
2.581000000000000000e+03 3.945191955566406250e+01 -1.230616474151611328e+01 8.965498208999633789e-01 5.065979003906250000e+00 1.788758635520935059e+00 -1.890660643577575684e+00
2.582000000000000000e+03 1.946834945678710938e+01 -6.973345756530761719e+00 -1.063835993409156799e-02 4.735551178455352783e-01 1.388750225305557251e-01 6.826279759407043457e-01
2.583000000000000000e+03 1.497322463989257812e+01 -8.727948188781738281e+00 9.792977571487426758e-02 8.979942202568054199e-01 2.987771928310394287e-01 2.227148413658142090e-01
2.584000000000000000e+03 1.611941719055175781e+01 -7.565734386444091797e+00 -1.287852134555578232e-02 7.301608324050903320e-01 2.151847034692764282e-01 3.533614277839660645e-01
2.585000000000000000e+03 7.369157409667968750e+01 -2.196295022964477539e+00 -7.951529324054718018e-02 -2.890092730522155762e-01 -1.105573698878288269e-01 -7.409011721611022949e-01
2.586000000000000000e+03 7.381915283203125000e+01 -3.231818914413452148e+00 -9.352718293666839600e-02 -2.732162475585937500e-01 -1.100230291485786438e-01 -7.131636142730712891e-01
2.587000000000000000e+03 4.317248916625976562e+01 -7.260253429412841797e+00 -2.391428947448730469e+00 1.542956471443176270e+00 -2.545417845249176025e-01 -9.487075805664062500e-01
2.588000000000000000e+03 4.088573837280273438e+01 -1.040838241577148438e+01 -1.955825090408325195e-01 3.956006765365600586e+00 1.128127217292785645e+00 -1.806329607963562012e+00
2.589000000000000000e+03 6.891275787353515625e+01 1.267774772644042969e+01 7.219344973564147949e-01 1.726949691772460938e+00 7.346652746200561523e-01 -2.514041066169738770e-01
2.590000000000000000e+03 6.729556274414062500e+01 1.219063472747802734e+01 7.332195639610290527e-01 2.687190055847167969e+00 1.026122808456420898e+00 -1.766248494386672974e-01
2.591000000000000000e+03 6.278147125244140625e+01 -1.648613214492797852e+00 -9.521688520908355713e-02 1.842415690422058105e+00 5.241596698760986328e-01 1.965218037366867065e-01
2.592000000000000000e+03 6.055900192260742188e+01 -3.410280942916870117e+00 -3.279754817485809326e-01 1.816890835762023926e+00 4.466745853424072266e-01 5.687525272369384766e-01
2.593000000000000000e+03 4.045058822631835938e+01 -1.944805908203125000e+01 1.856398344039916992e+00 6.260170459747314453e+00 2.434970617294311523e+00 -7.315370440483093262e-01
2.594000000000000000e+03 4.694696426391601562e+01 -1.002607440948486328e+01 -2.627128362655639648e-01 1.234428048133850098e+00 2.915145456790924072e-01 6.522713899612426758e-01
2.595000000000000000e+03 4.514257812500000000e+01 -1.061705207824707031e+01 1.370969861745834351e-01 1.985846042633056641e+00 6.368829011917114258e-01 -3.162544071674346924e-01
2.596000000000000000e+03 9.899192810058593750e+00 -1.796441459655761719e+01 5.345159769058227539e-01 9.322013258934020996e-01 4.400151968002319336e-01 1.175741180777549744e-01
2.597000000000000000e+03 7.623156547546386719e+00 -2.027660179138183594e+01 3.236492872238159180e-01 2.451254725456237793e-01 1.706324368715286255e-01 1.864914447069168091e-01
2.598000000000000000e+03 5.639188289642333984e+00 1.364151096343994141e+01 -6.006249692291021347e-03 -1.394508173689246178e-03 -2.220227383077144623e-03 2.117574680596590042e-03
2.599000000000000000e+03 5.728845119476318359e+00 1.593563652038574219e+01 -1.426816824823617935e-02 -2.728456165641546249e-03 -5.098987370729446411e-03 7.599633652716875076e-03
2.600000000000000000e+03 8.083576202392578125e+00 1.971113777160644531e+01 -5.398145318031311035e-02 2.065232768654823303e-02 -9.998737834393978119e-03 2.313179336488246918e-02
2.601000000000000000e+03 5.970341205596923828e+00 2.329058647155761719e+01 -3.427790477871894836e-02 -4.073516931384801865e-03 -1.150542683899402618e-02 6.594469398260116577e-02
2.602000000000000000e+03 4.210153198242187500e+01 -1.129460430145263672e+01 4.894933402538299561e-01 3.556751966476440430e+00 1.213873624801635742e+00 -1.384439706802368164e+00
2.603000000000000000e+03 4.586446380615234375e+01 -9.782718658447265625e+00 -5.137391090393066406e-01 1.425656199455261230e+00 2.735751271247863770e-01 1.304983645677566528e-01
2.604000000000000000e+03 6.033069610595703125e+01 -7.802473068237304688e+00 -7.853069305419921875e-01 1.147997379302978516e+00 1.088071316480636597e-01 8.316295146942138672e-01
2.605000000000000000e+03 6.234887695312500000e+01 -5.942218780517578125e+00 -5.707591176033020020e-01 1.179240465164184570e+00 1.825444102287292480e-01 3.649535477161407471e-01
2.606000000000000000e+03 7.215969562530517578e+00 2.378357696533203125e+01 -4.285563901066780090e-02 1.604228653013706207e-02 -8.044006302952766418e-03 7.483556866645812988e-02
2.607000000000000000e+03 3.809436035156250000e+01 -4.222834587097167969e+00 -1.847116112709045410e+00 4.891716957092285156e+00 9.133802056312561035e-01 -2.897088527679443359e+00
2.608000000000000000e+03 7.181520080566406250e+01 1.677587699890136719e+01 4.860512018203735352e-01 1.363175660371780396e-01 1.867106258869171143e-01 1.531025618314743042e-01
2.609000000000000000e+03 7.369290161132812500e+01 1.467936420440673828e+01 3.524134755134582520e-01 -7.308085560798645020e-01 -1.135185137391090393e-01 -6.915094796568155289e-03
2.610000000000000000e+03 8.653203010559082031e+00 1.713408851623535156e+01 -3.278495371341705322e-02 4.840147681534290314e-03 -8.383441716432571411e-03 3.731132950633764267e-03
2.611000000000000000e+03 1.644847679138183594e+01 2.553230857849121094e+01 -7.790945004671812057e-03 9.430980682373046875e-02 2.595565840601921082e-02 1.260793954133987427e-02
2.612000000000000000e+03 1.012826251983642578e+01 2.322762298583984375e+01 -8.971726149320602417e-02 5.448589846491813660e-02 -1.056940946727991104e-02 7.067304104566574097e-02
2.613000000000000000e+03 6.130704498291015625e+01 -5.073682308197021484e+00 -5.618092417716979980e-01 1.512632727622985840e+00 2.852470576763153076e-01 5.219634175300598145e-01
2.614000000000000000e+03 8.199630737304687500e+00 -2.122491264343261719e+01 2.829914391040802002e-01 4.065587520599365234e-01 2.068650573492050171e-01 2.489416897296905518e-01
2.615000000000000000e+03 6.611682415008544922e+00 -2.069973182678222656e+01 2.562539279460906982e-01 2.650442160665988922e-02 8.482750505208969116e-02 2.202480584383010864e-01
2.616000000000000000e+03 3.749333190917968750e+01 -8.216025352478027344e+00 -1.941632628440856934e+00 6.254601001739501953e+00 1.293890476226806641e+00 -2.289189815521240234e+00
2.617000000000000000e+03 7.203647613525390625e+01 2.144539642333984375e+01 3.337346017360687256e-01 8.972688764333724976e-02 1.270384490489959717e-01 5.822800397872924805e-01
2.618000000000000000e+03 7.402959442138671875e+01 1.927365684509277344e+01 2.614871561527252197e-01 -8.531454205513000488e-01 -1.774974763393402100e-01 3.854843080043792725e-01
2.619000000000000000e+03 3.957865142822265625e+01 2.041402626037597656e+01 5.162748098373413086e-01 2.882451534271240234e+00 1.019617915153503418e+00 1.235636234283447266e+00
2.620000000000000000e+03 7.145284271240234375e+01 -2.549087524414062500e+01 -2.801284752786159515e-02 6.447247229516506195e-03 -6.469679996371269226e-03 5.830883514136075974e-03
2.621000000000000000e+03 6.046626567840576172e+00 3.331079101562500000e+01 3.087557479739189148e-02 -3.969139605760574341e-02 -2.644746797159314156e-03 6.573682278394699097e-02
2.622000000000000000e+03 7.441998291015625000e+01 2.905258655548095703e+00 7.307213544845581055e-02 -7.024910449981689453e-01 -1.888256669044494629e-01 -6.932651400566101074e-01
2.623000000000000000e+03 7.319901275634765625e+01 1.401000261306762695e+00 5.519957467913627625e-02 -2.634591758251190186e-01 -6.247788295149803162e-02 -7.733420133590698242e-01
2.624000000000000000e+03 3.409739255905151367e+00 -2.462183380126953125e+01 1.340720057487487793e-02 -5.851204991340637207e-01 -1.715139895677566528e-01 2.331188470125198364e-01
2.625000000000000000e+03 7.383539581298828125e+01 -4.181978702545166016e+00 -1.281388849020004272e-01 -2.462271600961685181e-01 -1.123098134994506836e-01 -6.839783787727355957e-01
2.626000000000000000e+03 6.182775497436523438e+01 -4.005902767181396484e+00 -3.915583193302154541e-01 1.581664919853210449e+00 3.570320010185241699e-01 3.887310028076171875e-01
2.627000000000000000e+03 3.695389556884765625e+01 2.558555984497070312e+01 -2.150802612304687500e-01 3.479049444198608398e+00 9.791907668113708496e-01 7.159155607223510742e-01
2.628000000000000000e+03 3.545938110351562500e+01 2.331518363952636719e+01 -8.604336529970169067e-02 4.316798686981201172e+00 1.269226551055908203e+00 5.794135332107543945e-01
2.629000000000000000e+03 3.623163223266601562e+01 3.578560113906860352e+00 3.959015905857086182e-01 9.975296020507812500e+00 3.111359119415283203e+00 9.967567920684814453e-01
2.630000000000000000e+03 3.757346725463867188e+01 -2.510827064514160156e+00 -6.811266392469406128e-02 4.486232757568359375e+00 1.325435996055603027e+00 -3.181544542312622070e+00
2.631000000000000000e+03 3.580270767211914062e+01 -4.374326705932617188e+00 -2.573891401290893555e+00 8.510083198547363281e+00 1.780857443809509277e+00 -2.907467842102050781e+00
2.632000000000000000e+03 1.074707603454589844e+01 -6.604061603546142578e+00 -1.444353014230728149e-01 3.488349616527557373e-01 6.131989881396293640e-02 -3.058905005455017090e-01
2.633000000000000000e+03 8.514184951782226562e+00 -6.149372100830078125e+00 -1.513839215040206909e-01 1.130223125219345093e-01 -1.150847971439361572e-02 -4.267637729644775391e-01
2.634000000000000000e+03 1.298644351959228516e+01 -8.700202941894531250e+00 8.719623833894729614e-02 7.747067809104919434e-01 2.585709095001220703e-01 -6.660774350166320801e-02
2.635000000000000000e+03 1.287133598327636719e+01 -6.989934444427490234e+00 -1.097986027598381042e-01 5.346106886863708496e-01 1.274436265230178833e-01 -9.013488888740539551e-02
2.636000000000000000e+03 8.937589645385742188e+00 7.401445865631103516e+00 1.217573517351411283e-04 -1.982148969545960426e-03 -5.581174627877771854e-04 4.903763183392584324e-04
2.637000000000000000e+03 1.674539947509765625e+01 -8.106025695800781250e+00 1.034692525863647461e-01 8.279336690902709961e-01 2.794208824634552002e-01 4.716668128967285156e-01
2.638000000000000000e+03 1.949736404418945312e+01 -6.149734497070312500e+00 -8.236888051033020020e-02 4.364102184772491455e-01 1.062124073505401611e-01 6.779956221580505371e-01
2.639000000000000000e+03 7.066038513183593750e+01 -9.020402908325195312e+00 -5.165383219718933105e-01 1.964742541313171387e-01 -9.601923078298568726e-02 -4.849963784217834473e-01
2.640000000000000000e+03 6.001335620880126953e+00 -6.747953414916992188e+00 -7.386805862188339233e-02 -8.929760754108428955e-02 -4.894969984889030457e-02 -4.490871131420135498e-01
2.641000000000000000e+03 6.221334934234619141e+00 -7.997539997100830078e+00 -3.190679010003805161e-03 -7.328297197818756104e-02 -2.294209413230419159e-02 -4.606561958789825439e-01
2.642000000000000000e+03 7.376181125640869141e+00 -6.108551502227783203e+00 -1.298467069864273071e-01 2.953770384192466736e-02 -3.009270131587982178e-02 -4.450907409191131592e-01
2.643000000000000000e+03 6.887827396392822266e+00 7.045508861541748047e+00 1.196548109874129295e-03 -1.330440165475010872e-03 -4.016759703517891467e-05 -4.864135698881000280e-04
2.644000000000000000e+03 5.131323814392089844e+00 1.672725296020507812e+01 -1.342347078025341034e-02 -8.243502816185355186e-04 -4.274346400052309036e-03 9.052516892552375793e-03
2.645000000000000000e+03 7.452772617340087891e+00 1.887848854064941406e+01 -4.255252331495285034e-02 9.765835478901863098e-03 -9.836005978286266327e-03 1.743880286812782288e-02
2.646000000000000000e+03 9.688347816467285156e+00 7.114579677581787109e+00 7.675129454582929611e-04 -9.798407554626464844e-04 -6.369834591168910265e-05 5.705478833988308907e-04
2.647000000000000000e+03 7.227563381195068359e+00 7.829122543334960938e+00 1.283979800064116716e-04 -2.295598620548844337e-03 -6.501601892523467541e-04 -3.697400388773530722e-04
2.648000000000000000e+03 7.269232940673828125e+01 -5.912963867187500000e+00 -2.307993322610855103e-01 -4.286317154765129089e-03 -7.052569836378097534e-02 -6.600376963615417480e-01
2.649000000000000000e+03 1.133275604248046875e+01 6.923331260681152344e+00 7.425177609547972679e-04 -3.994469589088112116e-04 1.029212435241788626e-04 1.426120055839419365e-03
2.650000000000000000e+03 1.024883079528808594e+01 7.799189090728759766e+00 6.232233135960996151e-05 -1.644462929107248783e-03 -4.746421764139086008e-04 9.835209930315613747e-04
2.651000000000000000e+03 3.652139663696289062e+01 -7.943231582641601562e+00 -2.366584777832031250e+00 6.794264316558837891e+00 1.328303813934326172e+00 -2.232185125350952148e+00
2.652000000000000000e+03 3.609216690063476562e+01 -5.664885520935058594e+00 -2.786478996276855469e+00 7.639840126037597656e+00 1.456008315086364746e+00 -2.712033033370971680e+00
2.653000000000000000e+03 3.784765243530273438e+01 -5.343568325042724609e+00 -2.404734611511230469e+00 5.751372337341308594e+00 1.003991246223449707e+00 -2.873452663421630859e+00
2.654000000000000000e+03 3.611613845825195312e+01 -6.814895153045654297e+00 -2.740976810455322266e+00 7.287150382995605469e+00 1.363852024078369141e+00 -2.409524679183959961e+00
2.655000000000000000e+03 5.046046733856201172e+00 1.780449295043945312e+01 -1.776577532291412354e-02 -2.251520520076155663e-03 -6.005188450217247009e-03 1.560128573328256607e-02
2.656000000000000000e+03 6.898983478546142578e+00 2.087588500976562500e+01 -4.459442943334579468e-02 1.166872214525938034e-02 -9.877712465822696686e-03 3.943206742405891418e-02
2.657000000000000000e+03 2.206298065185546875e+01 -5.233924388885498047e+00 -4.491834715008735657e-02 2.660397887229919434e-01 6.633643060922622681e-02 8.438709974288940430e-01
2.658000000000000000e+03 7.795153617858886719e+00 1.137773418426513672e+01 -1.932763494551181793e-03 -4.703129176050424576e-03 -1.990767894312739372e-03 -6.003013113513588905e-04
2.659000000000000000e+03 9.026508331298828125e+00 -2.203821372985839844e+01 2.423834800720214844e-01 6.132315397262573242e-01 2.566845118999481201e-01 2.812508344650268555e-01
2.660000000000000000e+03 8.527110099792480469e+00 -1.965748405456542969e+01 3.927627801895141602e-01 5.256454348564147949e-01 2.755224704742431641e-01 1.472146362066268921e-01
2.661000000000000000e+03 1.485982322692871094e+01 -7.521466732025146484e+00 -5.514949932694435120e-02 7.081078290939331055e-01 1.958874911069869995e-01 1.788348108530044556e-01
2.662000000000000000e+03 6.982404327392578125e+01 -8.451189041137695312e+00 -5.190187096595764160e-01 2.678528130054473877e-01 -7.534976303577423096e-02 -5.174241662025451660e-01
2.663000000000000000e+03 6.910821533203125000e+01 -7.753224372863769531e+00 -5.029435157775878906e-01 3.149475753307342529e-01 -5.639878287911415100e-02 -5.423058271408081055e-01
2.664000000000000000e+03 8.694403648376464844e+00 1.238829040527343750e+01 -4.029674455523490906e-03 -4.132628440856933594e-03 -2.448690822347998619e-03 -1.287413761019706726e-04
2.665000000000000000e+03 9.767931938171386719e+00 -6.782497406005859375e+00 -1.203983575105667114e-01 2.408178299665451050e-01 3.612583875656127930e-02 -3.795240819454193115e-01
2.666000000000000000e+03 9.323413848876953125e+00 1.493297195434570312e+01 -1.507178414613008499e-02 -1.828027190640568733e-03 -5.069943144917488098e-03 -3.635955275967717171e-03
2.667000000000000000e+03 7.605835914611816406e+00 1.053142452239990234e+01 -1.212419476360082626e-03 -1.919759553857147694e-03 -9.396537207067012787e-04 -2.373951429035514593e-04
2.668000000000000000e+03 7.859889507293701172e+00 -1.422510910034179688e+01 3.759997189044952393e-01 2.300725728273391724e-01 1.818216890096664429e-01 -2.266617715358734131e-01
2.669000000000000000e+03 8.651018142700195312e+00 -1.592112731933593750e+01 4.906892180442810059e-01 4.919257164001464844e-01 2.947844862937927246e-01 -6.960181146860122681e-02
2.670000000000000000e+03 7.334618377685546875e+01 9.951549530029296875e+00 2.825877368450164795e-01 -5.203960537910461426e-01 -7.134249061346054077e-02 -3.953970074653625488e-01
2.671000000000000000e+03 1.427954959869384766e+01 -8.258186340332031250e+00 5.702752619981765747e-02 8.108927011489868164e-01 2.603760659694671631e-01 1.192061975598335266e-01
2.672000000000000000e+03 6.783354949951171875e+01 5.606424808502197266e+00 4.312782287597656250e-01 1.801560759544372559e+00 6.698517203330993652e-01 -4.236389696598052979e-01
2.673000000000000000e+03 6.882211303710937500e+01 6.443323612213134766e+00 4.598695933818817139e-01 1.430278658866882324e+00 5.670444965362548828e-01 -4.943929612636566162e-01
2.674000000000000000e+03 1.021842002868652344e+01 5.404406547546386719e+00 4.022157518193125725e-04 -7.752191741019487381e-04 -1.119010266847908497e-04 5.932286730967462063e-04
2.675000000000000000e+03 3.487633514404296875e+01 -5.746251106262207031e+00 -2.987101316452026367e+00 8.084819793701171875e+00 1.529315590858459473e+00 -1.980656504631042480e+00
2.676000000000000000e+03 9.471374511718750000e+00 2.124486160278320312e+01 -8.387244492769241333e-02 3.737916424870491028e-02 -1.394798327237367630e-02 3.497415781021118164e-02
2.677000000000000000e+03 6.530821323394775391e+00 2.201625442504882812e+01 -4.034674912691116333e-02 8.287033066153526306e-03 -9.617914445698261261e-03 5.277698114514350891e-02
2.678000000000000000e+03 4.379426574707031250e+01 -9.163260459899902344e+00 -1.013947248458862305e+00 2.001005649566650391e+00 2.961175143718719482e-01 -8.725926280021667480e-01
2.679000000000000000e+03 4.315471267700195312e+01 -8.229020118713378906e+00 -1.542250752449035645e+00 2.104361534118652344e+00 1.686332225799560547e-01 -1.030522942543029785e+00
2.680000000000000000e+03 9.295772552490234375e+00 -1.255272865295410156e+01 3.787781298160552979e-01 4.929773807525634766e-01 2.615266442298889160e-01 -2.817347049713134766e-01
2.681000000000000000e+03 8.741751670837402344e+00 -1.181648635864257812e+01 3.156746923923492432e-01 3.745453953742980957e-01 2.070660293102264404e-01 -3.327332437038421631e-01
2.682000000000000000e+03 7.234342193603515625e+01 1.573548603057861328e+01 4.923928081989288330e-01 -4.861931875348091125e-02 1.331320405006408691e-01 7.244262844324111938e-02
2.683000000000000000e+03 6.436577606201171875e+01 -5.135933876037597656e+00 -4.255321025848388672e-01 1.041436433792114258e+00 1.847712844610214233e-01 -2.940692240372300148e-03
2.684000000000000000e+03 6.565714263916015625e+01 -5.003802776336669922e+00 -3.920047581195831299e-01 8.621864318847656250e-01 1.410544961690902710e-01 -2.565269172191619873e-01
2.685000000000000000e+03 6.774273681640625000e+01 -7.700450420379638672e+00 -5.574172139167785645e-01 3.838632106781005859e-01 -5.206620320677757263e-02 -4.540324211120605469e-01
2.686000000000000000e+03 7.546909332275390625e+01 -2.784394836425781250e+01 -1.394594646990299225e-02 -7.506615016609430313e-03 -6.435768213123083115e-03 1.922791823744773865e-02
2.687000000000000000e+03 4.132279205322265625e+01 -1.235547924041748047e+01 9.076639413833618164e-01 4.222747325897216797e+00 1.539123415946960449e+00 -1.638438105583190918e+00
2.688000000000000000e+03 7.439320564270019531e+00 -1.610087013244628906e+01 3.654797375202178955e-01 1.667494028806686401e-01 1.596687436103820801e-01 -9.358379244804382324e-02
2.689000000000000000e+03 5.847881793975830078e+00 1.743754005432128906e+01 -2.135667391121387482e-02 -1.655041938647627831e-03 -6.903515197336673737e-03 1.468004379421472549e-02
2.690000000000000000e+03 8.418765068054199219e+00 1.345524406433105469e+01 -7.395236752927303314e-03 -3.481103107333183289e-03 -3.262901911512017250e-03 -1.114438986405730247e-03
2.691000000000000000e+03 6.331336975097656250e+01 -7.094966888427734375e+00 -6.330938935279846191e-01 8.368536829948425293e-01 6.112793087959289551e-02 2.673860192298889160e-01
2.692000000000000000e+03 6.668779850006103516e+00 2.523323059082031250e+01 -2.834703400731086731e-02 -3.154330421239137650e-03 -9.450409561395645142e-03 8.463468402624130249e-02
2.693000000000000000e+03 8.942835807800292969e+00 2.277740287780761719e+01 -7.177127152681350708e-02 4.256435483694076538e-02 -8.762074634432792664e-03 6.439906358718872070e-02
2.694000000000000000e+03 4.485681152343750000e+01 -9.577211380004882812e+00 -6.125194430351257324e-01 1.677008628845214844e+00 3.193467855453491211e-01 -3.959475457668304443e-01
2.695000000000000000e+03 6.041627120971679688e+01 -4.468133449554443359e+00 -5.269493460655212402e-01 1.659588813781738281e+00 3.397918343544006348e-01 6.010159254074096680e-01
2.696000000000000000e+03 5.786367797851562500e+01 -7.267674446105957031e+00 -9.788457751274108887e-01 1.580528736114501953e+00 1.805048882961273193e-01 1.250777125358581543e+00
2.697000000000000000e+03 5.922136306762695312e+01 -7.429121494293212891e+00 -9.577643871307373047e-01 1.419655323028564453e+00 1.385672688484191895e-01 9.930666685104370117e-01
2.698000000000000000e+03 3.828848266601562500e+01 -9.529524803161621094e+00 -9.260931611061096191e-01 5.657739639282226562e+00 1.419493913650512695e+00 -2.071442365646362305e+00
2.699000000000000000e+03 7.284246063232421875e+01 5.363197803497314453e+00 2.226147502660751343e-01 -1.858605444431304932e-01 1.102626044303178787e-02 -6.701315641403198242e-01
2.700000000000000000e+03 7.965948104858398438e+00 1.569289302825927734e+01 -1.885247975587844849e-02 7.448992109857499599e-04 -5.432274192571640015e-03 1.038431306369602680e-03
2.701000000000000000e+03 6.790483856201171875e+01 1.091783237457275391e+01 6.932918429374694824e-01 2.235423564910888672e+00 8.786146044731140137e-01 -2.509177327156066895e-01
2.702000000000000000e+03 6.685163116455078125e+01 9.080217361450195312e+00 6.076622605323791504e-01 2.734375476837158203e+00 1.002611279487609863e+00 -1.265947967767715454e-01
2.703000000000000000e+03 6.842041015625000000e+01 1.169414138793945312e+01 6.371172070503234863e-01 2.010023117065429688e+00 7.941420674324035645e-01 -2.057915031909942627e-01
2.704000000000000000e+03 6.674474334716796875e+01 2.724002838134765625e+00 2.578568458557128906e-01 1.768841266632080078e+00 6.080094575881958008e-01 -4.042075872421264648e-01
2.705000000000000000e+03 6.599107360839843750e+01 5.839842319488525391e+00 5.098845958709716797e-01 2.657476663589477539e+00 9.502083659172058105e-01 -1.236211434006690979e-01
2.706000000000000000e+03 7.319702911376953125e+01 2.627274036407470703e+00 8.917408436536788940e-02 -3.053555488586425781e-01 -6.485443562269210815e-02 -7.681925892829895020e-01
2.707000000000000000e+03 5.938593292236328125e+01 -8.465981483459472656e+00 -8.315106034278869629e-01 1.219254136085510254e+00 1.163230612874031067e-01 1.112243175506591797e+00
2.708000000000000000e+03 6.970916748046875000e+01 1.558313369750976562e+01 7.346615195274353027e-01 1.198055744171142578e+00 5.798151493072509766e-01 -2.553624473512172699e-02
2.709000000000000000e+03 6.316889190673828125e+01 -5.045365095138549805e-01 2.572514489293098450e-02 2.063731193542480469e+00 6.268368959426879883e-01 2.099292278289794922e-01
2.710000000000000000e+03 7.212203216552734375e+01 -2.447719192504882812e+01 -2.035241387784481049e-02 2.677813870832324028e-03 -5.302379839122295380e-03 3.389631398022174835e-03
2.711000000000000000e+03 1.330036449432373047e+01 2.677803802490234375e+01 2.685575280338525772e-03 9.373151510953903198e-02 2.892512828111648560e-02 6.976465880870819092e-02
2.712000000000000000e+03 7.199993133544921875e+01 -7.278722763061523438e+00 -3.205431401729583740e-01 9.648936986923217773e-02 -6.721613556146621704e-02 -5.968756675720214844e-01
2.713000000000000000e+03 7.196819305419921875e+01 2.499130725860595703e+00 1.198059991002082825e-01 1.088200658559799194e-01 6.858781725168228149e-02 -7.637721300125122070e-01
2.714000000000000000e+03 4.273259353637695312e+01 2.119573402404785156e+01 4.565922021865844727e-01 1.524888157844543457e+00 5.944441556930541992e-01 9.793794751167297363e-01
2.715000000000000000e+03 7.142208099365234375e+01 -1.555728673934936523e+00 -7.637319713830947876e-02 2.171643376350402832e-01 4.223734140396118164e-02 -7.915871739387512207e-01
2.716000000000000000e+03 1.093301486968994141e+01 -9.133264541625976562e+00 1.157924458384513855e-01 5.672000646591186523e-01 2.048977464437484741e-01 -3.002894520759582520e-01
2.717000000000000000e+03 3.798221206665039062e+01 2.001499176025390625e+01 4.899534285068511963e-01 3.828892946243286133e+00 1.295653939247131348e+00 1.203249454498291016e+00
2.718000000000000000e+03 1.759756278991699219e+01 2.642648124694824219e+01 8.384487777948379517e-02 1.549262702465057373e-01 7.163134217262268066e-02 -8.905671536922454834e-02
2.719000000000000000e+03 1.533059692382812500e+01 2.476327705383300781e+01 -8.522416651248931885e-02 5.840475112199783325e-02 -8.045825175940990448e-03 5.943899601697921753e-02
2.720000000000000000e+03 2.120071887969970703e+00 3.456599044799804688e+01 1.291149016469717026e-02 -2.240320891141891479e-01 -6.333617866039276123e-02 2.789486199617385864e-02
2.721000000000000000e+03 7.248226165771484375e+00 -9.215050697326660156e+00 6.610345095396041870e-02 2.582592144608497620e-02 2.757881022989749908e-02 -4.529018700122833252e-01
2.722000000000000000e+03 6.563863754272460938e+00 -9.659996986389160156e+00 7.264140993356704712e-02 -5.373794212937355042e-02 5.671040620654821396e-03 -4.536015391349792480e-01
2.723000000000000000e+03 3.747948074340820312e+01 -3.823587656021118164e+00 -1.551240921020507812e+00 5.745250225067138672e+00 1.258202791213989258e+00 -3.208064794540405273e+00
2.724000000000000000e+03 3.382341384887695312e+01 -4.897998332977294922e+00 -2.457177877426147461e+00 7.860737323760986328e+00 1.621067762374877930e+00 -8.766433000564575195e-01
2.725000000000000000e+03 3.476591873168945312e+01 -4.636665344238281250e+00 -2.836744308471679688e+00 8.981745719909667969e+00 1.843500375747680664e+00 -1.834192633628845215e+00
2.726000000000000000e+03 3.544142913818359375e+01 -5.095798969268798828e+00 -2.979391813278198242e+00 8.459256172180175781e+00 1.643959403038024902e+00 -2.476128101348876953e+00
2.727000000000000000e+03 1.193751907348632812e+01 -7.370235919952392578e+00 -6.775648891925811768e-02 5.247186422348022461e-01 1.370886564254760742e-01 -1.936051398515701294e-01
2.728000000000000000e+03 6.983860015869140625e+01 -7.086636066436767578e+00 -4.336399734020233154e-01 2.853620946407318115e-01 -4.448336362838745117e-02 -5.733769536018371582e-01
2.729000000000000000e+03 5.991834640502929688e+00 -7.417182445526123047e+00 -3.861522302031517029e-02 -9.183850884437561035e-02 -3.913611918687820435e-02 -4.615550339221954346e-01
2.730000000000000000e+03 8.401611328125000000e+00 8.525817871093750000e+00 -4.023480869363993406e-05 -2.777684479951858521e-03 -8.453757618553936481e-04 1.644303702050819993e-04
2.731000000000000000e+03 7.456613540649414062e+00 8.653184890747070312e+00 6.032392266206443310e-04 -1.954473089426755905e-03 -4.053701704833656549e-04 -2.727053943090140820e-04
2.732000000000000000e+03 6.085741996765136719e+00 1.010384273529052734e+01 -4.801730101462453604e-04 -1.421138178557157516e-03 -5.703933420591056347e-04 -7.737720152363181114e-04
2.733000000000000000e+03 8.082433700561523438e+00 7.635557174682617188e+00 1.084989402443170547e-03 -1.641550101339817047e-03 -1.669681951170787215e-04 9.234443132299929857e-05
2.734000000000000000e+03 6.595213413238525391e+00 9.485637664794921875e+00 -3.354236832819879055e-04 -2.545864088460803032e-03 -8.643863257020711899e-04 -1.434182049706578255e-03
2.735000000000000000e+03 7.040506744384765625e+01 -7.797777175903320312e+00 -4.466970264911651611e-01 2.250985354185104370e-01 -6.647954881191253662e-02 -5.590103864669799805e-01
2.736000000000000000e+03 6.582622528076171875e+00 1.823378562927246094e+01 -2.991579659283161163e-02 6.963207386434078217e-03 -6.885776761919260025e-03 1.628834940493106842e-02
2.737000000000000000e+03 7.217230796813964844e+00 1.740036392211914062e+01 -2.843269705772399902e-02 2.548722783103585243e-03 -7.765192072838544846e-03 1.016973983496427536e-02
2.738000000000000000e+03 8.749333381652832031e+00 -6.964903831481933594e+00 -9.028165787458419800e-02 1.711769998073577881e-01 2.426860295236110687e-02 -4.261790812015533447e-01
2.739000000000000000e+03 6.545657348632812500e+01 -3.972830057144165039e+00 -3.020678758621215820e-01 1.048886775970458984e+00 2.240456789731979370e-01 -2.165862321853637695e-01
2.740000000000000000e+03 6.451367950439453125e+01 -3.969498157501220703e+00 -3.476370573043823242e-01 1.254815220832824707e+00 2.721534371376037598e-01 -7.507314532995223999e-02
2.741000000000000000e+03 6.722916412353515625e+01 -5.743112564086914062e+00 -4.168924987316131592e-01 6.114602684974670410e-01 5.837032943964004517e-02 -4.467725753784179688e-01
2.742000000000000000e+03 6.047790145874023438e+01 -5.931137561798095703e+00 -7.289637327194213867e-01 1.426669120788574219e+00 2.093116343021392822e-01 6.760044693946838379e-01
2.743000000000000000e+03 9.908922195434570312e+00 1.037647724151611328e+01 1.848503961809910834e-05 -2.258911030367016792e-03 -6.721277604810893536e-04 1.303354161791503429e-03
2.744000000000000000e+03 1.045313739776611328e+01 7.021629333496093750e+00 4.040209169033914804e-04 -1.702241715975105762e-03 -3.894662368111312389e-04 6.850703503005206585e-04
2.745000000000000000e+03 7.456612586975097656e+00 -8.066467285156250000e+00 -6.473375018686056137e-03 5.278961732983589172e-02 1.389487367123365402e-02 -4.612733721733093262e-01
2.746000000000000000e+03 1.108174991607666016e+01 -8.362859725952148438e+00 2.837103046476840973e-02 5.213167667388916016e-01 1.649063378572463989e-01 -2.827218472957611084e-01
2.747000000000000000e+03 7.307370758056640625e+01 -3.704868316650390625e+00 -1.256809085607528687e-01 -1.240538209676742554e-01 -7.492041587829589844e-02 -7.391180396080017090e-01
2.748000000000000000e+03 7.211561584472656250e+01 -5.040613174438476562e+00 -2.168098539113998413e-01 6.757809221744537354e-02 -4.476952925324440002e-02 -7.128909230232238770e-01
2.749000000000000000e+03 3.970171356201171875e+01 -8.615343093872070312e+00 -1.313539266586303711e+00 4.393564701080322266e+00 9.240075945854187012e-01 -2.073073863983154297e+00
2.750000000000000000e+03 6.948107147216796875e+01 8.891257286071777344e+00 5.157716870307922363e-01 1.328195333480834961e+00 5.531901121139526367e-01 -4.558039307594299316e-01
2.751000000000000000e+03 6.958932495117187500e+01 9.949090003967285156e+00 5.353920459747314453e-01 1.244089007377624512e+00 5.338442921638488770e-01 -3.827601373195648193e-01
2.752000000000000000e+03 7.686203479766845703e+00 1.215944194793701172e+01 -3.681732807308435440e-03 -3.704245667904615402e-03 -2.215793589130043983e-03 -4.677514079958200455e-04
2.753000000000000000e+03 1.551196765899658203e+01 -9.145381927490234375e+00 2.314558327198028564e-01 9.422026276588439941e-01 3.520975410938262939e-01 3.411739766597747803e-01
2.754000000000000000e+03 1.550869464874267578e+01 -8.137335777282714844e+00 6.855952739715576172e-02 8.099123835563659668e-01 2.635415792465209961e-01 3.002435266971588135e-01
2.755000000000000000e+03 7.210039520263671875e+01 1.270763492584228516e+01 4.358919858932495117e-01 8.497976511716842651e-02 1.562615334987640381e-01 -2.017586976289749146e-01
2.756000000000000000e+03 7.140514373779296875e+01 1.525926685333251953e+01 5.569609403610229492e-01 3.426900804042816162e-01 2.698953151702880859e-01 2.263867482542991638e-02
2.757000000000000000e+03 5.127849578857421875e+00 1.892210578918457031e+01 -2.220082655549049377e-02 -2.060723723843693733e-03 -7.278465200215578079e-03 2.248834259808063507e-02
2.758000000000000000e+03 3.667376327514648438e+01 -6.298604488372802734e+00 -2.778857946395874023e+00 7.022440910339355469e+00 1.273074865341186523e+00 -2.661543846130371094e+00
2.759000000000000000e+03 6.820619964599609375e+01 1.436723804473876953e+01 8.165647387504577637e-01 2.134562969207763672e+00 8.853383660316467285e-01 -1.478668749332427979e-01
2.760000000000000000e+03 1.201596260070800781e+01 -8.425698280334472656e+00 3.192659467458724976e-02 6.192633509635925293e-01 1.953569799661636353e-01 -1.893774271011352539e-01
2.761000000000000000e+03 1.178651142120361328e+01 -9.480463981628417969e+00 1.834231764078140259e-01 7.298335433006286621e-01 2.739770114421844482e-01 -1.977110207080841064e-01
2.762000000000000000e+03 6.787354278564453125e+01 3.670607805252075195e+00 2.984161376953125000e-01 1.561814427375793457e+00 5.580691695213317871e-01 -5.068744421005249023e-01
2.763000000000000000e+03 6.875096893310546875e+01 4.746115684509277344e+00 3.421892523765563965e-01 1.315369844436645508e+00 4.972677230834960938e-01 -5.531973838806152344e-01
2.764000000000000000e+03 8.382309913635253906e+00 -1.501888656616210938e+01 4.545345306396484375e-01 4.064637720584869385e-01 2.582994699478149414e-01 -1.577043831348419189e-01
2.765000000000000000e+03 4.101121902465820312e+01 -1.486739730834960938e+01 1.965553760528564453e+00 4.908828258514404297e+00 2.062314510345458984e+00 -1.456335783004760742e+00
2.766000000000000000e+03 6.218314361572265625e+01 -7.949803829193115234e+00 -7.123973369598388672e-01 8.105531334877014160e-01 2.944674715399742126e-02 5.177211165428161621e-01
2.767000000000000000e+03 7.328534698486328125e+01 -2.709573554992675781e+01 -2.301937155425548553e-02 1.770251081325113773e-03 -6.374735850840806961e-03 1.974779739975929260e-02
2.768000000000000000e+03 6.549828338623046875e+01 1.986020207405090332e+00 1.953763514757156372e-01 2.059306859970092773e+00 6.764049530029296875e-01 -1.939850151538848877e-01
2.769000000000000000e+03 6.989018249511718750e+01 1.737246322631835938e+01 6.741772294044494629e-01 1.096726894378662109e+00 5.312712192535400391e-01 1.742434501647949219e-01
2.770000000000000000e+03 7.103072357177734375e+01 -3.001173496246337891e+00 -1.563593149185180664e-01 2.689489126205444336e-01 3.377688303589820862e-02 -7.483418583869934082e-01
2.771000000000000000e+03 9.140402793884277344e+00 -9.924813270568847656e+00 1.569680869579315186e-01 3.177694678306579590e-01 1.424212604761123657e-01 -3.989472687244415283e-01
2.772000000000000000e+03 5.951396465301513672e+00 -9.068506240844726562e+00 4.576902091503143311e-02 -1.181113123893737793e-01 -2.170268818736076355e-02 -4.546934068202972412e-01
2.773000000000000000e+03 7.205943298339843750e+01 -8.380904197692871094e+00 -3.806371688842773438e-01 9.197206795215606689e-02 -8.659952878952026367e-02 -5.290765166282653809e-01
2.774000000000000000e+03 8.483660697937011719e+00 -2.322747611999511719e+01 1.691007763147354126e-01 4.597392678260803223e-01 1.886520087718963623e-01 3.250612020492553711e-01
2.775000000000000000e+03 9.884998321533203125e+00 -2.354932403564453125e+01 1.338245719671249390e-01 8.264951705932617188e-01 2.880959212779998779e-01 2.803012728691101074e-01
2.776000000000000000e+03 6.641647338867187500e+01 1.371324157714843750e+01 7.822368144989013672e-01 3.373268365859985352e+00 1.246651530265808105e+00 -1.632545441389083862e-01
2.777000000000000000e+03 7.039836883544921875e+01 1.457880496978759766e+01 6.658601760864257812e-01 9.660490155220031738e-01 4.895727336406707764e-01 -5.889071151614189148e-02
2.778000000000000000e+03 7.045404815673828125e+01 -2.561343765258789062e+01 -2.909177727997303009e-02 7.695830427110195160e-03 -6.418783683329820633e-03 5.750457756221294403e-03
2.779000000000000000e+03 9.419490814208984375e+00 8.297846794128417969e+00 9.436256950721144676e-04 -1.623503863811492920e-03 -2.039634273387491703e-04 7.701542344875633717e-04
2.780000000000000000e+03 6.862791442871093750e+01 1.837853431701660156e+01 8.179269433021545410e-01 1.741296529769897461e+00 7.677670121192932129e-01 2.281153351068496704e-01
2.781000000000000000e+03 1.172663593292236328e+01 2.690160560607910156e+01 -8.611086755990982056e-03 8.324316143989562988e-02 2.238962240517139435e-02 8.237738162279129028e-02
2.782000000000000000e+03 9.038354873657226562e+00 1.605973434448242188e+01 -2.365490421652793884e-02 3.190637333318591118e-03 -6.139280274510383606e-03 -2.134956594090908766e-04
2.783000000000000000e+03 4.073946762084960938e+01 -1.342713356018066406e+01 1.486168503761291504e+00 4.671864986419677734e+00 1.847410082817077637e+00 -1.626909494400024414e+00
2.784000000000000000e+03 4.021173477172851562e+01 -1.153864479064941406e+01 5.881728529930114746e-01 4.496310710906982422e+00 1.525345087051391602e+00 -1.794597387313842773e+00
2.785000000000000000e+03 6.934127807617187500e+01 1.092706394195556641e+01 6.106087565422058105e-01 1.427140474319458008e+00 6.113247871398925781e-01 -3.391100466251373291e-01
2.786000000000000000e+03 7.246343231201171875e+01 1.830489158630371094e+01 3.804575204849243164e-01 -1.748412102460861206e-01 6.168489530682563782e-02 3.022129833698272705e-01
2.787000000000000000e+03 7.460172271728515625e+01 2.300259208679199219e+01 8.519234508275985718e-02 -9.147872924804687500e-01 -2.488784790039062500e-01 5.485839843750000000e-01
2.788000000000000000e+03 6.932151031494140625e+01 1.971417045593261719e+01 6.085985302925109863e-01 1.253392100334167480e+00 5.585972070693969727e-01 3.696202635765075684e-01
2.789000000000000000e+03 3.633943557739257812e+01 -2.892408561706542969e+01 1.637288033962249756e-01 3.731779813766479492e+00 1.168652653694152832e+00 9.577797651290893555e-01
2.790000000000000000e+03 3.860572433471679688e+01 2.161347198486328125e+01 2.946996092796325684e-01 3.289816379547119141e+00 1.075354814529418945e+00 1.103706479072570801e+00
2.791000000000000000e+03 1.049746513366699219e+01 -9.872087478637695312e+00 1.969333291053771973e-01 5.375726222991943359e-01 2.203518003225326538e-01 -3.106694519519805908e-01
2.792000000000000000e+03 7.275731563568115234e+00 1.306298255920410156e+01 -6.316476035863161087e-03 -2.191775711253285408e-03 -2.552475547417998314e-03 6.220313953235745430e-04
2.793000000000000000e+03 7.100253582000732422e+00 1.593593406677246094e+01 -1.742174662649631500e-02 -1.960907131433486938e-03 -5.814795847982168198e-03 5.379723850637674332e-03
2.794000000000000000e+03 6.858004093170166016e+00 1.416238498687744141e+01 -9.255887009203433990e-03 -3.357852343469858170e-03 -3.784121712669730186e-03 7.193837664090096951e-04
2.795000000000000000e+03 7.245601654052734375e+01 4.387509822845458984e+00 1.809388250112533569e-01 -7.773271948099136353e-02 3.096183203160762787e-02 -7.105492949485778809e-01
2.796000000000000000e+03 6.717498302459716797e+00 -8.572524070739746094e+00 2.491366863250732422e-02 -3.486904501914978027e-02 -2.986612962558865547e-03 -4.661577939987182617e-01
2.797000000000000000e+03 9.951010704040527344e+00 -7.705664634704589844e+00 -2.761336602270603180e-02 3.405290544033050537e-01 9.387470781803131104e-02 -3.703739941120147705e-01
2.798000000000000000e+03 7.070510101318359375e+01 -6.598129272460937500e+00 -3.575177788734436035e-01 2.234298735857009888e-01 -4.022637754678726196e-02 -6.203303933143615723e-01
2.799000000000000000e+03 6.853004455566406250e+01 -5.140907764434814453e+00 -3.384886980056762695e-01 5.055181980133056641e-01 5.010884255170822144e-02 -5.782024860382080078e-01
2.800000000000000000e+03 3.718637847900390625e+01 -3.066397428512573242e+00 -8.791182041168212891e-01 6.020416259765625000e+00 1.542389392852783203e+00 -3.582575559616088867e+00
2.801000000000000000e+03 7.287696838378906250e+00 -1.775649642944335938e+01 3.573422729969024658e-01 1.517644971609115601e-01 1.527320295572280884e-01 1.532221492379903793e-02
2.802000000000000000e+03 7.511169910430908203e+00 9.580682754516601562e+00 -2.789593418128788471e-04 -3.444952890276908875e-03 -1.117173698730766773e-03 -5.333021908882074058e-05
2.803000000000000000e+03 6.682564544677734375e+01 -4.664315223693847656e+00 -3.396142423152923584e-01 7.356052398681640625e-01 1.187973022460937500e-01 -4.240202903747558594e-01
2.804000000000000000e+03 6.981908416748046875e+01 -4.527552127838134766e+00 -2.707670629024505615e-01 4.001125991344451904e-01 3.880365937948226929e-02 -6.702087521553039551e-01
2.805000000000000000e+03 7.167240905761718750e+01 -6.276830673217773438e+00 -3.030130267143249512e-01 1.296371370553970337e-01 -5.201276764273643494e-02 -6.486496925354003906e-01
2.806000000000000000e+03 7.022853088378906250e+01 -5.651465892791748047e+00 -3.255668878555297852e-01 2.963040471076965332e-01 -8.778857998549938202e-03 -6.476779580116271973e-01
2.807000000000000000e+03 9.759419441223144531e+00 9.310598373413085938e+00 -3.536501608323305845e-04 -2.859280211851000786e-03 -9.638791088946163654e-04 8.589167264290153980e-04
2.808000000000000000e+03 7.193928527832031250e+01 -4.204313755035400391e+00 -1.887862831354141235e-01 1.087449267506599426e-01 -2.401240728795528412e-02 -7.312729954719543457e-01
2.809000000000000000e+03 8.920147895812988281e+00 -7.809393405914306641e+00 -1.707798428833484650e-02 2.183856815099716187e-01 6.039230898022651672e-02 -4.295815527439117432e-01
2.810000000000000000e+03 7.955450534820556641e+00 -8.747429847717285156e+00 4.437313601374626160e-02 1.081459224224090576e-01 4.575571790337562561e-02 -4.583096504211425781e-01
2.811000000000000000e+03 6.346291351318359375e+01 -3.486651897430419922e+00 -3.000355958938598633e-01 1.443401455879211426e+00 3.430097401142120361e-01 8.701672405004501343e-02
2.812000000000000000e+03 7.108060455322265625e+01 -7.428961277008056641e+00 -3.949833214282989502e-01 1.804512441158294678e-01 -6.435962021350860596e-02 -5.813519358634948730e-01
2.813000000000000000e+03 6.973386764526367188e+00 1.169399642944335938e+01 -2.606458729133009911e-03 -1.696578226983547211e-03 -1.290911110118031502e-03 1.700830762274563313e-05
2.814000000000000000e+03 6.588730621337890625e+01 -8.886991739273071289e-01 -4.335764795541763306e-02 1.468777894973754883e+00 4.276260733604431152e-01 -3.085566461086273193e-01
2.815000000000000000e+03 6.629587554931640625e+01 8.017875552177429199e-01 1.058873310685157776e-01 1.624829888343811035e+00 5.192151665687561035e-01 -3.693141937255859375e-01
2.816000000000000000e+03 3.926927566528320312e+01 -6.668082714080810547e+00 -2.226824283599853516e+00 4.476612567901611328e+00 6.749365329742431641e-01 -2.343159675598144531e+00
2.817000000000000000e+03 8.810443878173828125e+00 1.139102840423583984e+01 -1.986481714993715286e-03 -2.678417833521962166e-03 -1.399469911120831966e-03 8.261272887466475368e-05
2.818000000000000000e+03 4.076152420043945312e+01 -8.337975502014160156e+00 -1.457919478416442871e+00 3.637542963027954102e+00 6.538870334625244141e-01 -1.859895825386047363e+00
2.819000000000000000e+03 6.477933502197265625e+01 1.286511898040771484e+01 5.337555408477783203e-01 4.721414089202880859e+00 1.576550841331481934e+00 -1.889470778405666351e-02
2.820000000000000000e+03 3.706518936157226562e+01 -4.280606269836425781e+00 -2.066514492034912109e+00 6.472693443298339844e+00 1.321853756904602051e+00 -3.191740512847900391e+00
2.821000000000000000e+03 7.746865272521972656e+00 1.660232925415039062e+01 -2.482405677437782288e-02 4.871902987360954285e-03 -5.985646508634090424e-03 4.932386800646781921e-03
2.822000000000000000e+03 8.508673667907714844e+00 -1.060905265808105469e+01 1.976687014102935791e-01 2.665429711341857910e-01 1.392634958028793335e-01 -3.937514424324035645e-01
2.823000000000000000e+03 9.347461700439453125e+00 -1.124826431274414062e+01 2.872350215911865234e-01 4.319408237934112549e-01 2.157527506351470947e-01 -3.495342433452606201e-01
2.824000000000000000e+03 8.369950294494628906e+00 -1.295648193359375000e+01 3.702227771282196045e-01 3.280673027038574219e-01 2.094870209693908691e-01 -2.960433661937713623e-01
2.825000000000000000e+03 7.784314632415771484e+00 -9.937716484069824219e+00 1.269057542085647583e-01 1.220431029796600342e-01 7.468465715646743774e-02 -4.376717209815979004e-01
2.826000000000000000e+03 6.577680206298828125e+01 -2.530112028121948242e+00 -1.816907227039337158e-01 1.228708028793334961e+00 3.141051828861236572e-01 -2.904625833034515381e-01
2.827000000000000000e+03 7.030642700195312500e+01 1.316382598876953125e+01 6.188304424285888672e-01 1.032711267471313477e+00 4.954625070095062256e-01 -2.051787376403808594e-01
2.828000000000000000e+03 6.795365142822265625e+01 4.854910075664520264e-02 1.512016355991363525e-02 1.098476886749267578e+00 3.340791165828704834e-01 -5.970131754875183105e-01
2.829000000000000000e+03 6.959644317626953125e+01 5.683094501495361328e+00 3.674807548522949219e-01 1.106235504150390625e+00 4.421148598194122314e-01 -5.840967297554016113e-01
2.830000000000000000e+03 7.406527709960937500e+01 1.087623786926269531e+01 2.726625502109527588e-01 -8.572387695312500000e-01 -1.753728687763214111e-01 -3.121114075183868408e-01
2.831000000000000000e+03 7.232570648193359375e+01 1.046660232543945312e+01 3.953213393688201904e-01 -3.546296060085296631e-02 1.079575121402740479e-01 -3.562993705272674561e-01
2.832000000000000000e+03 7.187949371337890625e+01 9.660458564758300781e+00 3.841846585273742676e-01 1.493893414735794067e-01 1.600722074508666992e-01 -4.325327873229980469e-01
2.833000000000000000e+03 7.278501892089843750e+01 6.405829906463623047e+00 2.466700673103332520e-01 -1.832461208105087280e-01 1.902718469500541687e-02 -6.152940988540649414e-01
2.834000000000000000e+03 7.361988067626953125e+01 7.702877521514892578e+00 2.406713366508483887e-01 -5.622621774673461914e-01 -9.647725522518157959e-02 -5.220077633857727051e-01
2.835000000000000000e+03 4.370073699951171875e+01 -3.194856452941894531e+01 -4.255952835083007812e-01 4.827580928802490234e+00 1.320595741271972656e+00 -4.004917442798614502e-01
2.836000000000000000e+03 4.210513305664062500e+01 -1.677855300903320312e+01 2.424458265304565430e+00 5.445380210876464844e+00 2.360951423645019531e+00 -6.966158747673034668e-01
2.837000000000000000e+03 7.014537334442138672e+00 1.974817085266113281e+01 -4.330580681562423706e-02 1.373133063316345215e-02 -8.872343227267265320e-03 3.135766088962554932e-02
2.838000000000000000e+03 3.907859039306640625e+01 2.348582458496093750e+01 1.561060547828674316e-01 3.007339239120483398e+00 9.490335583686828613e-01 1.072090864181518555e+00
2.839000000000000000e+03 1.317479991912841797e+01 2.895924568176269531e+01 5.202472582459449768e-02 1.320836544036865234e-01 5.523251742124557495e-02 4.434867948293685913e-02
2.840000000000000000e+03 7.080032348632812500e+01 1.929318618774414062e+01 5.558267235755920410e-01 6.728277802467346191e-01 3.685963451862335205e-01 3.974795639514923096e-01
2.841000000000000000e+03 7.119249725341796875e+01 2.043217468261718750e+01 3.907980620861053467e-01 4.704608023166656494e-01 2.583776414394378662e-01 4.825847446918487549e-01
2.842000000000000000e+03 7.042346954345703125e+01 2.470573616027832031e+01 1.038050092756748199e-02 7.067727446556091309e-01 2.151459753513336182e-01 6.479933857917785645e-01
2.843000000000000000e+03 6.426199340820312500e+01 -4.755991399288177490e-01 2.871516905725002289e-02 1.827530145645141602e+00 5.568735599517822266e-01 -3.685786947607994080e-02
2.844000000000000000e+03 6.488886260986328125e+01 -1.534363865852355957e+00 -1.370459944009780884e-01 1.603601932525634766e+00 4.399667680263519287e-01 -1.671511828899383545e-01
2.845000000000000000e+03 7.451490020751953125e+01 -3.096828460693359375e+01 -1.377777475863695145e-02 -1.485017687082290649e-02 -8.588385768234729767e-03 3.894271701574325562e-02
2.846000000000000000e+03 6.707861328125000000e+01 1.912863731384277344e+01 8.881236314773559570e-01 2.363421678543090820e+00 9.754635691642761230e-01 1.363317370414733887e-01
2.847000000000000000e+03 1.093878746032714844e+01 -7.501342773437500000e+00 -5.102710798382759094e-02 4.232042133808135986e-01 1.116531342267990112e-01 -2.964137792587280273e-01
2.848000000000000000e+03 8.429108619689941406e+00 -9.360115051269531250e+00 1.028617173433303833e-01 2.318178862333297729e-01 1.004038825631141663e-01 -4.272890090942382812e-01
2.849000000000000000e+03 6.304801559448242188e+01 -4.747982978820800781e+00 -4.543279111385345459e-01 1.281835675239562988e+00 2.482523173093795776e-01 2.050980329513549805e-01
2.850000000000000000e+03 7.125301361083984375e+01 -5.311342716217041016e+00 -2.643540501594543457e-01 1.857077777385711670e-01 -2.359387837350368500e-02 -6.852260828018188477e-01
2.851000000000000000e+03 6.949886322021484375e+01 -1.989943623542785645e+00 -1.275870054960250854e-01 5.912253260612487793e-01 1.390915066003799438e-01 -7.025436162948608398e-01
2.852000000000000000e+03 6.969854736328125000e+01 -3.183566570281982422e+00 -1.895680129528045654e-01 4.714686274528503418e-01 8.457018435001373291e-02 -7.014317512512207031e-01
2.853000000000000000e+03 6.792910003662109375e+01 -4.149324417114257812e+00 -2.925746440887451172e-01 6.909469366073608398e-01 1.195117011666297913e-01 -5.509815812110900879e-01
2.854000000000000000e+03 7.066618347167968750e+01 2.604353904724121094e+00 1.489042788743972778e-01 5.135318040847778320e-01 1.987308263778686523e-01 -7.447991371154785156e-01
2.855000000000000000e+03 6.686933898925781250e+01 -3.378528058528900146e-01 -3.133565187454223633e-02 1.330507516860961914e+00 3.897515535354614258e-01 -4.602123796939849854e-01
2.856000000000000000e+03 7.263481140136718750e+01 9.253267288208007812e+00 3.257325291633605957e-01 -1.953538954257965088e-01 3.911359608173370361e-02 -4.461324512958526611e-01
2.857000000000000000e+03 7.044638061523437500e+01 1.129149198532104492e-01 1.371467672288417816e-02 5.040865540504455566e-01 1.553403735160827637e-01 -7.735053300857543945e-01
2.858000000000000000e+03 7.187577819824218750e+01 1.315769672393798828e+00 6.033652275800704956e-02 1.173644363880157471e-01 5.331028997898101807e-02 -7.971276640892028809e-01
2.859000000000000000e+03 7.181159210205078125e+01 8.912054061889648438e+00 3.899587392807006836e-01 2.028584778308868408e-01 1.778451651334762573e-01 -4.951274693012237549e-01
2.860000000000000000e+03 8.747666358947753906e+00 1.042801761627197266e+01 -6.944844499230384827e-04 -4.366958979517221451e-03 -1.518433098681271076e-03 -4.863478534389287233e-05
2.861000000000000000e+03 7.045775604248046875e+01 5.059310913085937500e+00 3.006772398948669434e-01 6.973724365234375000e-01 2.994149029254913330e-01 -6.463158130645751953e-01
2.862000000000000000e+03 7.329857635498046875e+01 1.240890884399414062e+01 3.688517510890960693e-01 -4.832521975040435791e-01 -3.432013466954231262e-02 -2.061708569526672363e-01
2.863000000000000000e+03 4.036526107788085938e+01 -7.275505542755126953e+00 -1.988649964332580566e+00 3.658037662506103516e+00 5.008162856101989746e-01 -2.008064508438110352e+00
2.864000000000000000e+03 9.673079490661621094e+00 -9.185666084289550781e+00 9.124152362346649170e-02 3.806614875793457031e-01 1.415709108114242554e-01 -3.825356066226959229e-01
2.865000000000000000e+03 7.094630432128906250e+01 7.826731204986572266e+00 4.320998489856719971e-01 6.050829887390136719e-01 3.111548423767089844e-01 -5.456117391586303711e-01
2.866000000000000000e+03 6.982359313964843750e+01 7.253555297851562500e+00 4.210282564163208008e-01 1.096683621406555176e+00 4.553135633468627930e-01 -5.165109038352966309e-01
2.867000000000000000e+03 1.090718173980712891e+01 -2.527962112426757812e+01 -1.779170334339141846e-02 9.460828900337219238e-01 2.784873545169830322e-01 2.299085557460784912e-01
2.868000000000000000e+03 4.625115871429443359e+00 -2.333722114562988281e+01 4.225461930036544800e-02 -3.974057435989379883e-01 -1.065453365445137024e-01 2.581274509429931641e-01
2.869000000000000000e+03 6.889767646789550781e+00 -2.435520172119140625e+01 6.100745499134063721e-02 1.464851498603820801e-01 6.224778294563293457e-02 3.236302137374877930e-01
2.870000000000000000e+03 7.021572875976562500e+01 1.145028686523437500e+01 5.556791424751281738e-01 1.021752715110778809e+00 4.732295572757720947e-01 -3.048290908336639404e-01
2.871000000000000000e+03 1.700273323059082031e+01 3.161751937866210938e+01 1.074189916253089905e-01 4.317912757396697998e-01 1.617630720138549805e-01 -1.300806850194931030e-01
2.872000000000000000e+03 1.512492370605468750e+01 2.835860252380371094e+01 7.731993496417999268e-02 1.699221134185791016e-01 7.417261600494384766e-02 -5.620935931801795959e-03
2.873000000000000000e+03 6.857997131347656250e+01 2.183785438537597656e+01 3.648042380809783936e-01 1.519352912902832031e+00 5.652471780776977539e-01 5.280045270919799805e-01
2.874000000000000000e+03 7.500350189208984375e+01 2.398911666870117188e+01 6.147044152021408081e-02 -1.074464797973632812e+00 -3.038983047008514404e-01 5.550692677497863770e-01
2.875000000000000000e+03 6.848618316650390625e+01 -3.269109964370727539e+00 -2.168821245431900024e-01 6.721920967102050781e-01 1.365929841995239258e-01 -6.008739471435546875e-01
2.876000000000000000e+03 6.916397094726562500e+01 2.051238864660263062e-01 2.135889232158660889e-02 8.498021960258483887e-01 2.613483369350433350e-01 -6.705442070960998535e-01
2.877000000000000000e+03 6.901651763916015625e+01 1.567049026489257812e+00 1.182750836014747620e-01 1.000964164733886719e+00 3.357717692852020264e-01 -6.689425110816955566e-01
2.878000000000000000e+03 6.983137512207031250e+01 4.086918830871582031e+00 2.708338499069213867e-01 9.174928069114685059e-01 3.564980030059814453e-01 -6.535543799400329590e-01
2.879000000000000000e+03 7.098679351806640625e+01 3.692381858825683594e+00 2.074622362852096558e-01 4.345362484455108643e-01 1.925995498895645142e-01 -7.188029885292053223e-01
2.880000000000000000e+03 6.401870727539062500e+01 -2.384866476058959961e+00 -1.895399838685989380e-01 1.585545539855957031e+00 4.188016653060913086e-01 1.023985329084098339e-03
2.881000000000000000e+03 7.100085449218750000e+01 -4.253591537475585938e+00 -2.172426879405975342e-01 2.306670546531677246e-01 4.027310758829116821e-03 -7.250324487686157227e-01
2.882000000000000000e+03 7.069737243652343750e+01 8.808614730834960938e+00 4.364425241947174072e-01 7.107388377189636230e-01 3.441544175148010254e-01 -4.597462415695190430e-01
2.883000000000000000e+03 6.655534362792968750e+01 -1.853000164031982422e+00 -1.542932242155075073e-01 1.203126788139343262e+00 3.146500587463378906e-01 -4.221282899379730225e-01
2.884000000000000000e+03 6.922992706298828125e+01 2.919004678726196289e+00 2.088760584592819214e-01 1.015145182609558105e+00 3.672063946723937988e-01 -6.482058167457580566e-01
2.885000000000000000e+03 7.106925201416015625e+01 5.815136909484863281e+00 3.186749219894409180e-01 5.257166028022766113e-01 2.533174455165863037e-01 -6.323673725128173828e-01
2.886000000000000000e+03 7.119560241699218750e+01 1.084664535522460938e+01 5.043132901191711426e-01 5.290194749832153320e-01 3.099998235702514648e-01 -3.427811264991760254e-01
2.887000000000000000e+03 7.046567535400390625e+01 6.455310344696044922e+00 3.732956647872924805e-01 7.402445077896118164e-01 3.340620398521423340e-01 -5.931169986724853516e-01
2.888000000000000000e+03 5.829041481018066406e+00 -2.429090499877929688e+01 5.530675128102302551e-02 -7.129891216754913330e-02 -4.797648638486862183e-03 3.282787203788757324e-01
2.889000000000000000e+03 7.181240844726562500e+01 5.480213642120361328e+00 2.714685499668121338e-01 2.118240445852279663e-01 1.449877768754959106e-01 -6.664799451828002930e-01
2.890000000000000000e+03 7.023604583740234375e+01 -1.190372109413146973e+00 -6.200231984257698059e-02 4.889232814311981201e-01 1.280762851238250732e-01 -7.441655993461608887e-01
2.891000000000000000e+03 6.608110427856445312e+00 -2.638717460632324219e+01 -2.484622597694396973e-02 1.093559637665748596e-01 2.535292133688926697e-02 3.272776305675506592e-01
2.892000000000000000e+03 9.527598381042480469e+00 -2.491344451904296875e+01 4.020927473902702332e-02 6.637709736824035645e-01 2.111940681934356689e-01 2.986708283424377441e-01
2.893000000000000000e+03 6.629975128173828125e+01 2.121129989624023438e+01 5.912789702415466309e-01 2.564002990722656250e+00 9.465845823287963867e-01 2.803892195224761963e-01
2.894000000000000000e+03 7.080412292480468750e+01 1.210430240631103516e+01 5.088787674903869629e-01 6.262133717536926270e-01 3.405276238918304443e-01 -2.811785042285919189e-01
2.895000000000000000e+03 6.741845703125000000e+01 -2.270520448684692383e+00 -1.671273410320281982e-01 9.673151969909667969e-01 2.400563657283782959e-01 -4.979154169559478760e-01
2.896000000000000000e+03 6.730856323242187500e+01 -1.352462172508239746e+00 -8.383291214704513550e-02 1.091843366622924805e+00 3.024031519889831543e-01 -5.178731083869934082e-01
2.897000000000000000e+03 7.104875183105468750e+01 1.368896293640136719e+01 5.497686862945556641e-01 5.562597513198852539e-01 3.318085074424743652e-01 -1.296722441911697388e-01
2.898000000000000000e+03 7.180419921875000000e+01 6.225392341613769531e+00 3.005397617816925049e-01 2.300559878349304199e-01 1.591787189245223999e-01 -6.301756501197814941e-01
2.899000000000000000e+03 7.173795318603515625e+01 1.175346088409423828e+01 4.658985733985900879e-01 2.559325993061065674e-01 2.165493518114089966e-01 -2.580481767654418945e-01
2.900000000000000000e+03 9.012983322143554688e+00 -2.818365859985351562e+01 -1.289548426866531372e-01 4.548141658306121826e-01 9.775779396295547485e-02 2.662286460399627686e-01
2.901000000000000000e+03 6.824738311767578125e+01 -1.129805803298950195e+00 -6.444624066352844238e-02 9.198149442672729492e-01 2.566106021404266357e-01 -5.926445126533508301e-01
2.902000000000000000e+03 6.745127868652343750e+01 -3.244477033615112305e+00 -2.229208648204803467e-01 8.526054024696350098e-01 1.889053583145141602e-01 -5.155923962593078613e-01
2.903000000000000000e+03 6.843775177001953125e+01 -2.196735143661499023e+00 -1.508583724498748779e-01 7.368921637535095215e-01 1.758101284503936768e-01 -6.247166991233825684e-01
2.904000000000000000e+03 7.556032180786132812e+00 -2.907931709289550781e+01 -1.259500831365585327e-01 2.445375323295593262e-01 3.557623550295829773e-02 2.739435732364654541e-01
2.905000000000000000e+03 6.155162811279296875e+00 -2.527054977416992188e+01 1.883961074054241180e-02 1.919247210025787354e-02 1.140962541103363037e-02 3.385520577430725098e-01
2.906000000000000000e+03 3.447490692138671875e+01 9.062094688415527344e+00 3.701064884662628174e-01 1.623155403137207031e+01 4.980497837066650391e+00 -2.938972711563110352e-01
2.907000000000000000e+03 4.729125976562500000e+00 -1.879675102233886719e+01 1.821336895227432251e-01 -4.431843459606170654e-01 -7.831519842147827148e-02 6.673444062471389771e-02
2.908000000000000000e+03 1.252992057800292969e+01 -2.661847496032714844e+01 -1.476669758558273315e-01 1.048658728599548340e+00 2.702975273132324219e-01 5.970307439565658569e-02
2.909000000000000000e+03 1.504301834106445312e+01 -2.931916809082031250e+01 -2.169428169727325439e-01 8.712768554687500000e-01 1.963002085685729980e-01 -1.470093131065368652e-01
2.910000000000000000e+03 5.888198852539062500e+01 2.963798522949218750e+01 -1.131089478731155396e-01 1.622537851333618164e+00 4.528286755084991455e-01 -5.674496889114379883e-01
2.911000000000000000e+03 7.130355072021484375e+01 -3.263970565795898438e+01 -1.827126927673816681e-02 1.829177024774253368e-03 -4.932627547532320023e-03 6.303159147500991821e-02
2.912000000000000000e+03 6.850109100341796875e+01 -3.307891464233398438e+01 -2.711012028157711029e-02 2.262721210718154907e-02 -1.344872289337217808e-03 8.681437373161315918e-02
2.913000000000000000e+03 6.558538818359375000e+01 -3.028251266479492188e+01 -1.352543979883193970e-01 3.904425725340843201e-02 -2.886304259300231934e-02 3.729740902781486511e-02
2.914000000000000000e+03 4.117957687377929688e+01 2.562253952026367188e+01 1.065024435520172119e-01 2.305888652801513672e+00 7.237173318862915039e-01 9.452661275863647461e-01
2.915000000000000000e+03 6.720149993896484375e+01 2.261362648010253906e+01 3.872506618499755859e-01 2.084506034851074219e+00 7.415270209312438965e-01 4.315799176692962646e-01
2.916000000000000000e+03 6.946456909179687500e+01 2.321948242187500000e+01 2.557202875614166260e-01 1.103124499320983887e+00 4.076534509658813477e-01 5.996246933937072754e-01
2.917000000000000000e+03 1.019766807556152344e+01 -2.687921714782714844e+01 -1.056686118245124817e-01 7.201705574989318848e-01 1.843505799770355225e-01 2.304062694311141968e-01
2.918000000000000000e+03 1.228037834167480469e+01 -2.534042930603027344e+01 -3.573066368699073792e-02 1.123458027839660645e+00 3.263182044029235840e-01 7.921314984560012817e-02
2.919000000000000000e+03 9.602076530456542969e+00 2.465050506591796875e+01 -5.338422954082489014e-02 5.203949287533760071e-02 -4.034209996461868286e-04 9.026385843753814697e-02
2.920000000000000000e+03 4.702822875976562500e+01 2.282617187500000000e+01 3.098120391368865967e-01 6.367741227149963379e-01 2.839758396148681641e-01 5.080276727676391602e-01
2.921000000000000000e+03 1.788706398010253906e+01 -3.186568832397460938e+01 -2.312117964029312134e-01 6.329298615455627441e-01 1.205154284834861755e-01 -2.451752126216888428e-01
2.922000000000000000e+03 7.828863620758056641e+00 -1.899872398376464844e+01 3.907645046710968018e-01 3.282950222492218018e-01 2.157178521156311035e-01 1.210172101855278015e-01
2.923000000000000000e+03 7.566827392578125000e+01 2.462086105346679688e+01 1.730920374393463135e-02 -1.292029738426208496e+00 -3.824161589145660400e-01 5.481800436973571777e-01
2.924000000000000000e+03 7.116046142578125000e+01 -2.943306159973144531e+01 -4.202314466238021851e-02 1.290262583643198013e-02 -8.736155927181243896e-03 3.507494181394577026e-02
2.925000000000000000e+03 7.268619537353515625e+01 -3.244830322265625000e+01 -1.198200322687625885e-02 -7.611640263348817825e-03 -5.878093186765909195e-03 5.763573572039604187e-02
2.926000000000000000e+03 3.256795501708984375e+01 -3.454718017578125000e+01 -2.886349558830261230e-01 2.213061094284057617e+00 5.773278474807739258e-01 7.528940439224243164e-01
2.927000000000000000e+03 2.530894279479980469e+01 -3.377775192260742188e+01 3.813393786549568176e-02 3.760060071945190430e-01 1.242419779300689697e-01 7.808797806501388550e-02
2.928000000000000000e+03 4.476001739501953125e+01 2.322117614746093750e+01 3.353518545627593994e-01 1.180194854736328125e+00 4.546640217304229736e-01 7.546150684356689453e-01
2.929000000000000000e+03 6.467826366424560547e+00 2.835795211791992188e+01 -1.533165923319756985e-03 -1.615120097994804382e-02 -5.305310245603322983e-03 9.158481657505035400e-02
2.930000000000000000e+03 7.003101348876953125e+01 -3.188349342346191406e+01 -3.096534498035907745e-02 1.376194413751363754e-02 -5.161019973456859589e-03 6.314653158187866211e-02
2.931000000000000000e+03 7.263399505615234375e+01 -2.902425003051757812e+01 -2.897282689809799194e-02 5.483467597514390945e-03 -7.046807557344436646e-03 3.419975191354751587e-02
2.932000000000000000e+03 3.695294570922851562e+01 1.712853813171386719e+01 6.227280497550964355e-01 5.200168132781982422e+00 1.746868848800659180e+00 1.147533893585205078e+00
2.933000000000000000e+03 3.782357406616210938e+01 1.631232261657714844e+01 7.826425433158874512e-01 4.550098896026611328e+00 1.599822521209716797e+00 1.284447431564331055e+00
2.934000000000000000e+03 3.461191177368164062e+00 -3.699222946166992188e+01 -2.709525078535079956e-02 -1.937024444341659546e-01 -6.623930484056472778e-02 8.785825967788696289e-02
2.935000000000000000e+03 7.727432250976562500e+01 3.633208847045898438e+01 -3.063573874533176422e-02 -9.495819807052612305e-01 -2.940653264522552490e-01 1.878969967365264893e-01
2.936000000000000000e+03 7.101514434814453125e+01 2.646761894226074219e+01 -8.508478105068206787e-02 4.690789878368377686e-01 1.151982694864273071e-01 6.025582551956176758e-01
2.937000000000000000e+03 9.774381637573242188e+00 2.803356933593750000e+01 2.724789548665285110e-03 5.482912063598632812e-02 1.726617291569709778e-02 9.072124958038330078e-02
2.938000000000000000e+03 3.503139114379882812e+01 2.507423973083496094e+01 -2.814649939537048340e-01 4.018934249877929688e+00 1.121240735054016113e+00 3.546488881111145020e-01
2.939000000000000000e+03 2.917815208435058594e+01 -3.445036697387695312e+01 -9.322406724095344543e-03 1.113063693046569824e+00 3.311223983764648438e-01 4.936228394508361816e-01
2.940000000000000000e+03 7.558670520782470703e+00 3.035270309448242188e+01 2.318226359784603119e-02 1.040168758481740952e-02 1.007518544793128967e-02 8.362641185522079468e-02
2.941000000000000000e+03 2.395574378967285156e+01 2.807935142517089844e+01 1.714746206998825073e-01 1.068405270576477051e+00 3.719639778137207031e-01 -7.573802471160888672e-01
2.942000000000000000e+03 9.953432083129882812e+00 -2.947501754760742188e+01 -1.843160688877105713e-01 5.221586227416992188e-01 1.013527661561965942e-01 1.991763263940811157e-01
2.943000000000000000e+03 7.537367248535156250e+01 3.693837356567382812e+01 -7.849685102701187134e-02 -6.461846828460693359e-01 -2.174044698476791382e-01 1.716214120388031006e-01
2.944000000000000000e+03 3.300828552246093750e+01 2.884828567504882812e+01 -5.385649800300598145e-01 3.289130210876464844e+00 8.251695632934570312e-01 -1.223483383655548096e-01
2.945000000000000000e+03 1.117672252655029297e+01 -3.099488258361816406e+01 -2.100472301244735718e-01 5.712736248970031738e-01 1.083679050207138062e-01 8.836829662322998047e-02
2.946000000000000000e+03 6.879904174804687500e+01 3.129413414001464844e+01 -3.472206294536590576e-01 8.202862739562988281e-01 1.419196873903274536e-01 3.680889010429382324e-01
2.947000000000000000e+03 7.064952850341796875e+01 2.959967041015625000e+01 -2.601132094860076904e-01 4.185020029544830322e-01 4.751664027571678162e-02 5.327602028846740723e-01
2.948000000000000000e+03 1.127958679199218750e+01 2.883724021911621094e+01 3.186686336994171143e-02 9.541076421737670898e-02 3.818329051136970520e-02 7.488709688186645508e-02
2.949000000000000000e+03 7.161532878875732422e+00 3.587634658813476562e+01 3.635923936963081360e-02 6.796739995479583740e-03 1.294679287821054459e-02 5.491866916418075562e-02
2.950000000000000000e+03 6.941106414794921875e+01 -3.535544204711914062e+01 2.095314487814903259e-02 -4.143844358623027802e-03 5.042790435254573822e-03 7.539552450180053711e-02
2.951000000000000000e+03 4.787573814392089844e+00 -3.748582458496093750e+01 -4.522144049406051636e-02 -1.008437648415565491e-01 -4.381956160068511963e-02 6.505325436592102051e-02
2.952000000000000000e+03 3.803572893142700195e+00 -3.568733978271484375e+01 -3.405652195215225220e-02 -1.714730709791183472e-01 -6.165887787938117981e-02 1.000695303082466125e-01
2.953000000000000000e+03 3.890890121459960938e+01 2.822285079956054688e+01 -2.561970353126525879e-01 2.777920722961425781e+00 7.565171122550964355e-01 6.688770055770874023e-01
2.954000000000000000e+03 6.370863723754882812e+01 2.910349845886230469e+01 -3.702725172042846680e-01 1.953633189201354980e+00 4.750081896781921387e-01 -1.133529394865036011e-01
2.955000000000000000e+03 7.159350585937500000e+01 -3.455638504028320312e+01 4.069097805768251419e-03 -1.052453182637691498e-02 -1.936630113050341606e-03 6.680117547512054443e-02
2.956000000000000000e+03 7.199285125732421875e+01 2.799571800231933594e+01 -1.517945826053619385e-01 1.008327454328536987e-01 -1.528854947537183762e-02 6.191083192825317383e-01
2.957000000000000000e+03 7.290093994140625000e+01 2.477451324462890625e+01 2.912414446473121643e-02 -2.438480705022811890e-01 -6.441717594861984253e-02 6.694934964179992676e-01
2.958000000000000000e+03 8.644185066223144531e+00 2.727246665954589844e+01 -7.388880010694265366e-03 3.277798369526863098e-02 7.616730406880378723e-03 9.645361453294754028e-02
2.959000000000000000e+03 7.938536167144775391e+00 2.558473968505859375e+01 -2.872750163078308105e-02 2.053217776119709015e-02 -2.458597300574183464e-03 9.229488670825958252e-02
2.960000000000000000e+03 6.943611621856689453e+00 -2.170383262634277344e+01 1.830009669065475464e-01 1.151236593723297119e-01 8.943738788366317749e-02 2.718146741390228271e-01
2.961000000000000000e+03 3.474739456176757812e+01 -3.490213394165039062e+01 -4.566559195518493652e-01 2.867073774337768555e+00 7.231253981590270996e-01 7.235068082809448242e-01
2.962000000000000000e+03 1.076451301574707031e+01 2.509171867370605469e+01 -5.547341331839561462e-02 6.416437774896621704e-02 2.607289934530854225e-03 9.206726402044296265e-02
2.963000000000000000e+03 7.613237380981445312e+00 2.688720703125000000e+01 -1.642925664782524109e-02 8.130160160362720490e-03 -2.489729085937142372e-03 9.522611647844314575e-02
2.964000000000000000e+03 8.731908798217773438e+00 2.932746315002441406e+01 1.491368375718593597e-02 3.487454354763031006e-02 1.493646763265132904e-02 9.102535247802734375e-02
2.965000000000000000e+03 6.582322692871093750e+01 2.588299560546875000e+01 -1.361348778009414673e-01 2.103436946868896484e+00 5.901905894279479980e-01 2.549446821212768555e-01
2.966000000000000000e+03 6.461109161376953125e+01 2.716805458068847656e+01 -3.281053900718688965e-01 2.141169071197509766e+00 5.439191460609436035e-01 3.441581130027770996e-02
2.967000000000000000e+03 7.135118865966796875e+01 -3.103196334838867188e+01 -3.386462852358818054e-02 9.435949847102165222e-03 -7.328603882342576981e-03 5.207699909806251526e-02
2.968000000000000000e+03 6.908946990966796875e+01 2.527068138122558594e+01 -1.968866912648081779e-03 1.129901647567749023e+00 3.383798301219940186e-01 5.600064992904663086e-01
2.969000000000000000e+03 1.036361980438232422e+01 2.653826904296875000e+01 -1.369262952357530594e-02 6.595817208290100098e-02 1.567966304719448090e-02 9.484368562698364258e-02
2.970000000000000000e+03 6.613666534423828125e+01 -3.176430130004882812e+01 -8.134861290454864502e-02 3.970390930771827698e-02 -1.249341014772653580e-02 8.370316773653030396e-02
2.971000000000000000e+03 6.902538299560546875e+01 -3.048038482666015625e+01 -6.606356799602508545e-02 3.136800974607467651e-02 -1.040866877883672714e-02 5.559385567903518677e-02
2.972000000000000000e+03 6.887439727783203125e+01 2.821011924743652344e+01 -2.277589142322540283e-01 9.751280546188354492e-01 2.242107540369033813e-01 4.817377924919128418e-01
2.973000000000000000e+03 8.326798439025878906e+00 -1.830221748352050781e+01 4.627828896045684814e-01 4.629055857658386230e-01 2.777065336704254150e-01 8.769062906503677368e-02
2.974000000000000000e+03 4.764823150634765625e+01 2.493370628356933594e+01 3.541147708892822266e-01 7.626518607139587402e-01 3.350299894809722900e-01 4.719399511814117432e-01
2.975000000000000000e+03 6.328538513183593750e+01 2.553555870056152344e+01 -1.137873679399490356e-01 2.591413974761962891e+00 7.432879805564880371e-01 -2.155778855085372925e-01
2.976000000000000000e+03 3.430065536499023438e+01 2.694155502319335938e+01 -4.837817847728729248e-01 3.686896800994873047e+00 9.609344601631164551e-01 1.043906137347221375e-01
2.977000000000000000e+03 4.362664031982421875e+01 2.717058563232421875e+01 1.730364263057708740e-01 1.752264857292175293e+00 5.775904059410095215e-01 7.661171555519104004e-01
2.978000000000000000e+03 4.499481201171875000e+01 2.588678169250488281e+01 2.979619204998016357e-01 1.348445177078247070e+00 4.939221441745758057e-01 7.363056540489196777e-01
2.979000000000000000e+03 5.956910133361816406e+00 -1.863981437683105469e+01 2.582400143146514893e-01 -1.425752043724060059e-01 3.469944000244140625e-02 6.013591587543487549e-02
2.980000000000000000e+03 7.136855602264404297e+00 -1.945455169677734375e+01 3.291539847850799561e-01 1.375125050544738770e-01 1.399999558925628662e-01 1.525967419147491455e-01
2.981000000000000000e+03 6.725997924804687500e+01 2.709728813171386719e+01 -2.623750567436218262e-01 1.634685277938842773e+00 4.116930663585662842e-01 3.878390789031982422e-01
2.982000000000000000e+03 6.810330963134765625e+01 2.601190185546875000e+01 -1.078482642769813538e-01 1.433179497718811035e+00 3.975993692874908447e-01 4.679261744022369385e-01
2.983000000000000000e+03 4.005111312866210938e+01 -5.249723792076110840e-01 -1.183840855956077576e-01 -3.609574735164642334e-01 -1.438024640083312988e-01 4.018214643001556396e-01
2.984000000000000000e+03 3.758946609497070312e+01 3.090374946594238281e+00 8.448613882064819336e-01 2.007656335830688477e+00 8.557553291320800781e-01 -5.807476043701171875e-01
2.985000000000000000e+03 3.642628479003906250e+01 2.325942039489746094e+00 6.503840684890747070e-01 6.631386280059814453e+00 2.184530973434448242e+00 2.164361238479614258e+00
2.986000000000000000e+03 3.623577499389648438e+01 2.289641857147216797e+00 4.020138680934906006e-01 8.231922149658203125e+00 2.590180635452270508e+00 2.848762989044189453e+00
2.987000000000000000e+03 3.525096893310546875e+01 2.122287511825561523e+00 -2.536058425903320312e+00 1.943908882141113281e+01 5.070909500122070312e+00 3.978945255279541016e+00
2.988000000000000000e+03 3.529505538940429688e+01 2.548593521118164062e+00 -2.025358438491821289e+00 1.808972930908203125e+01 4.819311141967773438e+00 2.614454984664916992e+00
2.989000000000000000e+03 3.764330673217773438e+01 -8.107517361640930176e-01 1.727778792381286621e+00 1.183179497718811035e+00 8.732874989509582520e-01 -1.255131483078002930e+00
2.990000000000000000e+03 3.737052536010742188e+01 -1.020554900169372559e+00 2.230866670608520508e+00 1.995371699333190918e+00 1.267871499061584473e+00 -2.282894849777221680e+00
2.991000000000000000e+03 3.688476943969726562e+01 -9.470654726028442383e-01 3.144251108169555664e+00 2.819507837295532227e+00 1.789127707481384277e+00 -3.306976318359375000e+00
2.992000000000000000e+03 3.666893386840820312e+01 -1.004281044006347656e+00 3.401795148849487305e+00 3.922167062759399414e+00 2.197188615798950195e+00 -4.368094921112060547e+00
2.993000000000000000e+03 3.646110153198242188e+01 -1.022093892097473145e+00 3.706180572509765625e+00 4.904616832733154297e+00 2.583239316940307617e+00 -5.027871608734130859e+00
2.994000000000000000e+03 3.559220123291015625e+01 -1.534638762474060059e+00 3.794157803058624268e-01 1.379863166809082031e+01 4.253414154052734375e+00 -5.742387771606445312e+00
2.995000000000000000e+03 6.246465301513671875e+01 2.119691658020019531e+01 1.000835299491882324e+00 4.276885986328125000e+00 1.583316326141357422e+00 -5.948735475540161133e-01
2.996000000000000000e+03 4.257498168945312500e+01 -4.868196964263916016e+00 -3.732836484909057617e+00 5.459982156753540039e-01 -9.560515284538269043e-01 -2.369296103715896606e-01
2.997000000000000000e+03 3.857387161254882812e+01 3.462618827819824219e+00 8.627546429634094238e-01 -7.003012299537658691e-01 4.873602464795112610e-02 -8.983334898948669434e-01
2.998000000000000000e+03 3.711869430541992188e+01 2.855791807174682617e+00 1.007034897804260254e+00 4.136437416076660156e+00 1.543041706085205078e+00 2.648692727088928223e-01
2.999000000000000000e+03 3.622912216186523438e+01 2.732686281204223633e+00 3.383934795856475830e-01 9.125160217285156250e+00 2.839066267013549805e+00 2.160616159439086914e+00
3.000000000000000000e+03 3.599957656860351562e+01 2.561575174331665039e+00 -1.134367883205413818e-01 1.097140789031982422e+01 3.257391214370727539e+00 2.758800268173217773e+00
3.001000000000000000e+03 3.580122375488281250e+01 2.942763090133666992e+00 -4.415898621082305908e-01 1.292544937133789062e+01 3.745157718658447266e+00 2.093688011169433594e+00
3.002000000000000000e+03 3.561417007446289062e+01 3.479166984558105469e+00 -3.018448650836944580e-01 1.410142898559570312e+01 4.139874935150146484e+00 1.341750383377075195e+00
3.003000000000000000e+03 3.813885116577148438e+01 -1.260414242744445801e+00 9.666287302970886230e-01 1.573419451713562012e+00 7.620144486427307129e-01 -1.287287592887878418e+00
3.004000000000000000e+03 2.232709646224975586e+00 -3.698156356811523438e+01 -1.550785638391971588e-02 -2.471814155578613281e-01 -7.880678027868270874e-02 6.533358991146087646e-02
3.005000000000000000e+03 1.609785270690917969e+01 -2.569774818420410156e+01 1.562822908163070679e-01 9.849282503128051758e-01 3.423631489276885986e-01 -4.444963335990905762e-01
3.006000000000000000e+03 1.436251258850097656e+01 -2.613587760925292969e+01 -1.159101724624633789e-01 1.246154308319091797e+00 3.390732407569885254e-01 -1.364193111658096313e-01
3.007000000000000000e+03 7.259289550781250000e+01 3.567298507690429688e+01 -2.264230698347091675e-01 -1.143577247858047485e-01 -1.022342368960380554e-01 2.942295968532562256e-01
3.008000000000000000e+03 3.812813949584960938e+01 -1.669570565223693848e+00 8.103851079940795898e-01 2.001823902130126953e+00 8.436627388000488281e-01 -1.755191326141357422e+00
3.009000000000000000e+03 3.591393280029296875e+01 -1.965160846710205078e+00 1.116222217679023743e-01 1.005549716949462891e+01 3.050135850906372070e+00 -4.987260818481445312e+00
3.010000000000000000e+03 3.649220275878906250e+01 -1.516092181205749512e+00 2.215748786926269531e+00 6.259178161621093750e+00 2.542478084564208984e+00 -5.170712471008300781e+00
3.011000000000000000e+03 1.352107620239257812e+01 -1.107670021057128906e+01 4.535924196243286133e-01 1.217557549476623535e+00 5.013449788093566895e-01 8.915334194898605347e-02
3.012000000000000000e+03 3.640325164794921875e+01 -2.029451370239257812e+00 7.475910782814025879e-01 7.709420204162597656e+00 2.537103414535522461e+00 -5.049050807952880859e+00
3.013000000000000000e+03 3.834817886352539062e+01 5.747694015502929688e+00 2.948443293571472168e-01 7.765741348266601562e-01 3.214255273342132568e-01 1.105423197150230408e-01
3.014000000000000000e+03 6.660363769531250000e+01 -2.814307785034179688e+01 -1.067338436841964722e-01 2.874712273478507996e-02 -2.339601702988147736e-02 -2.381072612479329109e-03
3.015000000000000000e+03 5.495922088623046875e+01 -1.243690681457519531e+01 8.864855766296386719e-01 5.860692858695983887e-01 4.417664706707000732e-01 1.653564691543579102e+00
3.016000000000000000e+03 7.881472778320312500e+01 -1.964437484741210938e+01 -1.765920751495286822e-04 1.299839001148939133e-03 3.369741025380790234e-04 -8.789050043560564518e-04
3.017000000000000000e+03 6.697537994384765625e+01 -2.964266777038574219e+01 -1.075770929455757141e-01 3.775328397750854492e-02 -2.094714343547821045e-02 3.546309098601341248e-02
3.018000000000000000e+03 6.934852600097656250e+01 -2.570923423767089844e+01 -3.927173838019371033e-02 1.109329424798488617e-02 -8.453533053398132324e-03 5.603452445939183235e-04
3.019000000000000000e+03 4.840985488891601562e+01 2.321208763122558594e+01 2.549119889736175537e-01 4.843739867210388184e-01 2.217857986688613892e-01 3.467625677585601807e-01
3.020000000000000000e+03 1.532660293579101562e+01 -9.684741973876953125e+00 2.863811552524566650e-01 1.040515542030334473e+00 3.980690240859985352e-01 3.173467218875885010e-01
3.021000000000000000e+03 5.913516616821289062e+01 -3.509471511840820312e+01 8.410128951072692871e-02 1.295236796140670776e-01 6.408748775720596313e-02 8.951012976467609406e-03
3.022000000000000000e+03 3.207727050781250000e+01 -1.971251606941223145e+00 2.404272794723510742e+00 4.836174964904785156e+00 2.172134399414062500e+00 3.256965398788452148e+00
3.023000000000000000e+03 3.583152389526367188e+01 -1.623164057731628418e+00 9.364483356475830078e-01 1.145786571502685547e+01 3.718294382095336914e+00 -5.436734676361083984e+00
3.024000000000000000e+03 1.345974826812744141e+01 -2.746803474426269531e+01 -1.652363091707229614e-01 9.837911725044250488e-01 2.455664575099945068e-01 -2.630439959466457367e-02
3.025000000000000000e+03 3.751888656616210938e+01 -1.754089117050170898e+00 1.261571168899536133e+00 3.337296962738037109e+00 1.379660367965698242e+00 -2.808183193206787109e+00
3.026000000000000000e+03 1.729277992248535156e+01 -9.245150566101074219e+00 3.301794230937957764e-01 9.397552013397216797e-01 3.809804022312164307e-01 5.984109640121459961e-01
3.027000000000000000e+03 3.136846160888671875e+01 -5.533629894256591797e+00 -1.276428580284118652e+00 3.562133073806762695e+00 6.857113242149353027e-01 -1.523357443511486053e-02
3.028000000000000000e+03 4.563582992553710938e+01 -3.136215972900390625e+01 -2.631708681583404541e-01 4.533702373504638672e+00 1.281159520149230957e+00 -8.952921628952026367e-01
3.029000000000000000e+03 3.777462387084960938e+01 -2.244355201721191406e+00 4.807093366980552673e-02 3.655936002731323242e+00 1.111202120780944824e+00 -2.597240447998046875e+00
3.030000000000000000e+03 2.339510726928710938e+01 -3.476480484008789062e+01 2.950786054134368896e-02 4.299329221248626709e-01 1.378322392702102661e-01 -7.958023995161056519e-02
3.031000000000000000e+03 7.520561218261718750e+01 -2.037939643859863281e+01 -2.377551514655351639e-03 -1.363991643302142620e-03 -1.122462912462651730e-03 4.358300648164004087e-04
3.032000000000000000e+03 3.638821792602539062e+01 3.302054643630981445e+00 4.614738523960113525e-01 8.839879989624023438e+00 2.790406227111816406e+00 1.482493162155151367e+00
3.033000000000000000e+03 1.630695152282714844e+01 -9.312646865844726562e+00 3.201133310794830322e-01 9.905940890312194824e-01 3.932122290134429932e-01 4.883542060852050781e-01
3.034000000000000000e+03 3.846722030639648438e+01 -1.977948951721191406e+01 1.302540302276611328e+00 6.135650157928466797e+00 2.231456995010375977e+00 -6.630577445030212402e-01
3.035000000000000000e+03 3.435664367675781250e+01 -5.221888542175292969e+00 -2.958219766616821289e+00 8.320419311523437500e+00 1.608659982681274414e+00 -1.617552399635314941e+00
3.036000000000000000e+03 2.390828704833984375e+01 -4.991971492767333984e+00 -3.879842907190322876e-02 1.181950569152832031e-01 2.381898835301399231e-02 9.398506879806518555e-01
3.037000000000000000e+03 5.310418701171875000e+01 -1.070871067047119141e+01 7.971118390560150146e-02 8.209235072135925293e-01 2.701903879642486572e-01 2.343380928039550781e+00
3.038000000000000000e+03 5.245132827758789062e+01 2.521551132202148438e+01 5.566307306289672852e-01 3.881278038024902344e-01 2.834275662899017334e-01 -2.017820924520492554e-01
3.039000000000000000e+03 4.627490043640136719e+00 2.554015159606933594e+01 -1.530177891254425049e-02 -3.901283815503120422e-02 -1.629438437521457672e-02 7.319822162389755249e-02
3.040000000000000000e+03 1.241860580444335938e+01 -2.899707031250000000e+01 -2.326070070266723633e-01 8.391529321670532227e-01 1.819637715816497803e-01 3.716656565666198730e-02
3.041000000000000000e+03 9.075268745422363281e+00 -2.621269798278808594e+01 -4.544786736369132996e-02 5.586544871330261230e-01 1.539620012044906616e-01 3.096230626106262207e-01
3.042000000000000000e+03 1.770652580261230469e+01 -7.558775901794433594e+00 4.215737432241439819e-02 6.592533588409423828e-01 2.104232162237167358e-01 5.756294131278991699e-01
3.043000000000000000e+03 2.656396675109863281e+01 -3.318172454833984375e+00 7.656832933425903320e-01 -1.657704710960388184e-01 1.799738556146621704e-01 9.369416832923889160e-01
3.044000000000000000e+03 2.894951629638671875e+01 -4.209407329559326172e+00 8.300788402557373047e-01 6.816376447677612305e-01 4.535149335861206055e-01 1.138897299766540527e+00
3.045000000000000000e+03 1.783265686035156250e+01 -6.719524383544921875e+00 -7.070234417915344238e-02 5.675769448280334473e-01 1.490623801946640015e-01 5.548011064529418945e-01
3.046000000000000000e+03 6.963518524169921875e+01 -2.923446655273437500e+01 -5.339794978499412537e-02 2.255024760961532593e-02 -9.254311211407184601e-03 3.705726563930511475e-02
3.047000000000000000e+03 3.891166305541992188e+01 -5.813399791717529297e+00 -2.396773099899291992e+00 4.600470066070556641e+00 6.611090302467346191e-01 -2.470043659210205078e+00
3.048000000000000000e+03 3.135453224182128906e+01 2.752103614807128906e+01 -4.713225066661834717e-01 3.418959140777587891e+00 8.842909932136535645e-01 -4.471715986728668213e-01
3.049000000000000000e+03 3.686304855346679688e+01 -2.083157300949096680e+00 7.469552755355834961e-01 5.838710784912109375e+00 1.975699901580810547e+00 -4.123492240905761719e+00
3.050000000000000000e+03 3.762140274047851562e+01 -2.044949293136596680e+00 5.435970425605773926e-01 3.711493492126464844e+00 1.276527166366577148e+00 -2.843362808227539062e+00
3.051000000000000000e+03 6.410192108154296875e+01 1.061837387084960938e+01 5.607940554618835449e-01 4.880745410919189453e+00 1.632461786270141602e+00 3.654222190380096436e-01
3.052000000000000000e+03 3.713447189331054688e+01 -2.255452156066894531e+00 4.659644961357116699e-01 5.202535152435302734e+00 1.700549840927124023e+00 -3.810255050659179688e+00
3.053000000000000000e+03 3.676218032836914062e+01 -2.769582986831665039e+00 -5.407507419586181641e-01 7.037186145782470703e+00 1.948930621147155762e+00 -4.026398658752441406e+00
3.054000000000000000e+03 6.998037815093994141e+00 -2.772122955322265625e+01 -7.050628960132598877e-02 1.747016757726669312e-01 3.125861659646034241e-02 3.124500513076782227e-01
3.055000000000000000e+03 4.593417358398437500e+01 2.025582885742187500e+01 2.827030718326568604e-01 5.088113546371459961e-01 2.374543249607086182e-01 4.590681195259094238e-01
3.056000000000000000e+03 8.254839897155761719e+00 -2.712223625183105469e+01 -7.910197973251342773e-02 3.809964954853057861e-01 9.056835621595382690e-02 3.058796525001525879e-01
3.057000000000000000e+03 7.551723480224609375e+01 -3.044244766235351562e+01 -1.237644813954830170e-02 -1.659221202135086060e-02 -8.690598420798778534e-03 3.015199489891529083e-02
3.058000000000000000e+03 7.001656055450439453e+00 -2.298268890380859375e+01 1.453275233507156372e-01 1.616554558277130127e-01 9.209489822387695312e-02 2.913913428783416748e-01
3.059000000000000000e+03 7.027962207794189453e+00 -1.122313308715820312e+01 1.895753741264343262e-01 3.377643972635269165e-02 6.700554490089416504e-02 -4.059537053108215332e-01
3.060000000000000000e+03 2.081607818603515625e+01 -5.164345741271972656e+00 -1.110523715615272522e-01 2.913019955158233643e-01 5.407488346099853516e-02 7.301920056343078613e-01
3.061000000000000000e+03 4.171125030517578125e+01 -6.924530029296875000e+00 -2.344054222106933594e+00 2.316174507141113281e+00 -8.363954722881317139e-03 -1.400129795074462891e+00
3.062000000000000000e+03 3.650060653686523438e+01 -4.527697563171386719e+00 -2.426751375198364258e+00 7.584523677825927734e+00 1.547331690788269043e+00 -3.174394369125366211e+00
3.063000000000000000e+03 5.934449768066406250e+01 -6.335860252380371094e+00 -7.866640090942382812e-01 1.547659397125244141e+00 2.282986044883728027e-01 9.325689673423767090e-01
3.064000000000000000e+03 7.017597675323486328e+00 -1.864887619018554688e+01 3.400243222713470459e-01 1.062612980604171753e-01 1.338856816291809082e-01 9.572711586952209473e-02
3.065000000000000000e+03 4.169707489013671875e+01 -1.411234188079833984e+01 1.710036516189575195e+00 4.601405620574951172e+00 1.893432617187500000e+00 -1.341475844383239746e+00
3.066000000000000000e+03 6.058729648590087891e+00 1.922965812683105469e+01 -3.124072030186653137e-02 1.340943505056202412e-03 -8.969932794570922852e-03 2.606719732284545898e-02
3.067000000000000000e+03 7.230279541015625000e+01 -2.526711463928222656e+01 -2.087108977138996124e-02 3.636951092630624771e-03 -5.170241929590702057e-03 9.608969092369079590e-03
3.068000000000000000e+03 5.994704437255859375e+01 -5.116545200347900391e+00 -6.411402821540832520e-01 1.670781254768371582e+00 3.088922798633575439e-01 7.620595097541809082e-01
3.069000000000000000e+03 5.892206954956054688e+01 3.191232872009277344e+01 -2.430032491683959961e-01 1.527457237243652344e+00 3.853361904621124268e-01 -4.296592473983764648e-01
3.070000000000000000e+03 3.740849304199218750e+01 -2.202410697937011719e+00 4.922264516353607178e-01 4.463252544403076172e+00 1.486643791198730469e+00 -3.285126686096191406e+00
3.071000000000000000e+03 6.971661090850830078e+00 -4.307399272918701172e+00 -2.538600862026214600e-01 -9.306143969297409058e-03 -7.894986867904663086e-02 -3.896775245666503906e-01
3.072000000000000000e+03 5.677415370941162109e+00 3.548030853271484375e+01 3.010254725813865662e-02 -7.637172937393188477e-02 -1.388075482100248337e-02 5.622630938887596130e-02
3.073000000000000000e+03 2.173141098022460938e+01 -4.157524585723876953e+00 -5.487068369984626770e-02 2.222407162189483643e-01 5.021100863814353943e-02 7.629433870315551758e-01
3.074000000000000000e+03 4.144531250000000000e+01 -7.695669651031494141e+00 -1.740535378456115723e+00 2.905872583389282227e+00 3.496011793613433838e-01 -1.624700188636779785e+00
3.075000000000000000e+03 7.239067840576171875e+01 -1.092880439758300781e+01 -3.872025907039642334e-01 9.443542361259460449e-02 -8.783014863729476929e-02 -3.108075857162475586e-01
3.076000000000000000e+03 3.676117706298828125e+01 -5.173975467681884766e+00 -2.641920566558837891e+00 7.194755077362060547e+00 1.365850448608398438e+00 -2.959896564483642578e+00
3.077000000000000000e+03 7.635574340820312500e+01 -2.176089286804199219e+01 -4.010047123301774263e-04 -1.293252804316580296e-03 -5.082772695459425449e-04 4.917779588140547276e-04
3.078000000000000000e+03 7.338308334350585938e+00 5.989740371704101562e+00 1.144437002949416637e-03 -9.349918691441416740e-04 6.283351831370964646e-05 -2.301468921359628439e-04
3.079000000000000000e+03 6.707862091064453125e+01 1.124345970153808594e+01 6.699798703193664551e-01 2.880386829376220703e+00 1.065109968185424805e+00 -1.959630697965621948e-01
3.080000000000000000e+03 6.637842559814453125e+01 1.007913303375244141e+01 6.750133037567138672e-01 3.146624088287353516e+00 1.146491289138793945e+00 -1.024688780307769775e-01
3.081000000000000000e+03 6.728049468994140625e+01 1.040082931518554688e+01 6.556135416030883789e-01 2.668467760086059570e+00 9.972243905067443848e-01 -1.780829280614852905e-01
3.082000000000000000e+03 8.029814720153808594e+00 -1.134125041961669922e+01 2.361038923263549805e-01 1.945340782403945923e-01 1.291913837194442749e-01 -3.942685127258300781e-01
3.083000000000000000e+03 6.973492145538330078e+00 -1.033325099945068359e+01 1.447139382362365723e-01 1.347760390490293503e-02 4.745746031403541565e-02 -4.287934005260467529e-01
3.084000000000000000e+03 8.017863273620605469e+00 -1.213140583038330078e+01 2.906528711318969727e-01 2.232612222433090210e-01 1.541742235422134399e-01 -3.460685610771179199e-01
3.085000000000000000e+03 4.296196365356445312e+01 -1.021986007690429688e+01 -2.610721588134765625e-01 2.796853065490722656e+00 7.607343196868896484e-01 -1.215344905853271484e+00
3.086000000000000000e+03 7.413366699218750000e+01 2.050431823730468750e+01 1.988102793693542480e-01 -8.609169721603393555e-01 -1.986320167779922485e-01 4.650855064392089844e-01
3.087000000000000000e+03 7.618655395507812500e+01 -2.267602157592773438e+01 -5.200380925089120865e-03 -1.470997929573059082e-03 -2.001413609832525253e-03 1.723283668980002403e-03
3.088000000000000000e+03 7.369760894775390625e+01 -2.549639701843261719e+01 -1.585173048079013824e-02 -2.441186952637508512e-04 -4.828754812479019165e-03 1.144968904554843903e-02
3.089000000000000000e+03 7.418577575683593750e+01 -2.771005439758300781e+01 -1.575085334479808807e-02 -2.733017550781369209e-03 -5.545161664485931396e-03 2.202476002275943756e-02
3.090000000000000000e+03 7.343304443359375000e+01 -3.007769584655761719e+01 -1.945093087852001190e-02 -3.837654367089271545e-03 -6.986575666815042496e-03 3.788310661911964417e-02
3.091000000000000000e+03 7.357804870605468750e+01 2.366891860961914062e+01 1.204573437571525574e-01 -4.872343540191650391e-01 -1.100331023335456848e-01 6.238220930099487305e-01
3.092000000000000000e+03 6.787265014648437500e+01 9.592522621154785156e+00 6.541829705238342285e-01 2.219590663909912109e+00 8.621320724487304688e-01 -3.070556819438934326e-01
3.093000000000000000e+03 6.924362945556640625e+01 -9.813543558120727539e-01 -5.065208300948143005e-02 7.305859327316284180e-01 2.039801627397537231e-01 -7.040727734565734863e-01
3.094000000000000000e+03 6.394639015197753906e+00 1.520981788635253906e+01 -1.305195968598127365e-02 4.559179069474339485e-04 -3.778812475502490997e-03 4.442035220563411713e-03
3.095000000000000000e+03 6.863376617431640625e+01 1.027007102966308594e+01 5.843615531921386719e-01 1.911282300949096680e+00 7.486931681632995605e-01 -2.706550955772399902e-01
3.096000000000000000e+03 6.994946289062500000e+01 1.232819461822509766e+01 6.323752403259277344e-01 1.225332975387573242e+00 5.573124289512634277e-01 -2.137639075517654419e-01
3.097000000000000000e+03 1.287632274627685547e+01 -4.615328788757324219e+00 -3.910221159458160400e-01 2.538203299045562744e-01 -4.116052761673927307e-02 -9.502416849136352539e-02
3.098000000000000000e+03 8.798719406127929688e+00 -8.667618751525878906e+00 4.681453853845596313e-02 2.377995401620864868e-01 8.538421988487243652e-02 -4.188201129436492920e-01
3.099000000000000000e+03 8.025473594665527344e+00 -7.418291091918945312e+00 -4.136823117733001709e-02 9.771257638931274414e-02 1.690330356359481812e-02 -4.489923417568206787e-01
3.100000000000000000e+03 7.220434570312500000e+01 -3.192948341369628906e+00 -1.359675824642181396e-01 5.154098570346832275e-02 -2.532797865569591522e-02 -7.737424373626708984e-01
3.101000000000000000e+03 7.262667083740234375e+01 -1.978741407394409180e+00 -7.638248801231384277e-02 -6.477420777082443237e-02 -4.234701022505760193e-02 -7.794464826583862305e-01
3.102000000000000000e+03 5.948272228240966797e+00 8.564654350280761719e+00 2.918424725066870451e-04 -2.012267475947737694e-03 -5.161274457350373268e-04 -1.551897847093641758e-03
3.103000000000000000e+03 6.651559829711914062e+00 8.709440231323242188e+00 1.132428878918290138e-04 -2.679988974705338478e-03 -7.700238493271172047e-04 -2.608605136629194021e-04
3.104000000000000000e+03 3.906413650512695312e+01 6.631042063236236572e-02 -2.756215929985046387e-01 1.903091967105865479e-01 -2.559371851384639740e-02 4.149330258369445801e-01
3.105000000000000000e+03 3.832198715209960938e+01 4.250316023826599121e-01 -8.053180575370788574e-01 2.795921564102172852e-01 -1.577177643775939941e-01 3.209480941295623779e-01
3.106000000000000000e+03 3.838357543945312500e+01 2.328697144985198975e-01 -4.426934421062469482e-01 2.060634940862655640e-01 -7.098898291587829590e-02 2.903324365615844727e-01
3.107000000000000000e+03 4.010873413085937500e+01 5.208814740180969238e-01 -7.149148732423782349e-02 -2.746299207210540771e-01 -1.038364246487617493e-01 1.332419961690902710e-01
3.108000000000000000e+03 3.856705856323242188e+01 -3.407734930515289307e-01 2.065325677394866943e-01 3.209628760814666748e-01 1.582486331462860107e-01 2.666152715682983398e-01
3.109000000000000000e+03 3.842030715942382812e+01 3.164218366146087646e-02 -6.818270683288574219e-02 2.927759289741516113e-01 6.737796962261199951e-02 2.941910624504089355e-01
3.110000000000000000e+03 3.864061737060546875e+01 4.105228185653686523e-01 -6.404119133949279785e-01 1.112921983003616333e-01 -1.587359160184860229e-01 2.722846567630767822e-01
3.111000000000000000e+03 3.841001510620117188e+01 6.095926165580749512e-01 -8.858255743980407715e-01 1.908908188343048096e-01 -2.084804177284240723e-01 2.140413075685501099e-01
3.112000000000000000e+03 3.965616607666015625e+01 2.935026586055755615e-01 -3.673050403594970703e-01 -1.708198040723800659e-01 -1.614374518394470215e-01 4.043755531311035156e-01
3.113000000000000000e+03 3.851457214355468750e+01 8.813499212265014648e-01 -1.091444730758666992e+00 7.976860553026199341e-02 -3.035028278827667236e-01 -5.860058218240737915e-02
3.114000000000000000e+03 3.870319747924804688e+01 -1.203733831644058228e-01 5.625436082482337952e-02 3.009600341320037842e-01 1.071643233299255371e-01 3.343477249145507812e-01
3.115000000000000000e+03 3.940650558471679688e+01 9.952750802040100098e-01 -3.067061007022857666e-01 4.260875284671783447e-02 -7.922919839620590210e-02 1.343121677637100220e-01
3.116000000000000000e+03 3.842659378051757812e+01 -1.644842326641082764e-01 1.982016116380691528e-01 3.327044546604156494e-01 1.592718213796615601e-01 3.136805593967437744e-01
3.117000000000000000e+03 7.138031005859375000e+01 -1.674990081787109375e+01 1.995443599298596382e-03 2.389095607213675976e-05 6.058003637008368969e-04 3.365527663845568895e-04
3.118000000000000000e+03 7.211955261230468750e+01 -1.671120262145996094e+01 2.588545670732855797e-03 -1.014893277897499502e-04 7.461169152520596981e-04 2.482195559423416853e-04
3.119000000000000000e+03 7.071197509765625000e+01 -1.752739334106445312e+01 8.390818256884813309e-04 -1.216981472680345178e-04 2.152150991605594754e-04 7.502330117858946323e-04
3.120000000000000000e+03 7.287363433837890625e+01 -1.741421890258789062e+01 2.190728206187486649e-03 -3.441537264734506607e-04 5.539723788388073444e-04 2.809230354614555836e-04
3.121000000000000000e+03 7.215311431884765625e+01 -1.745045852661132812e+01 1.128758420236408710e-03 -8.160972356563434005e-05 3.141445922665297985e-04 4.724250175058841705e-04
3.122000000000000000e+03 7.143251037597656250e+01 -1.748818206787109375e+01 1.540895551443099976e-03 -2.098918921547010541e-04 3.993010905105620623e-04 6.509738741442561150e-04
3.123000000000000000e+03 7.285870361328125000e+01 -1.667398834228515625e+01 2.465070225298404694e-03 1.502107807027641684e-05 7.440274348482489586e-04 1.211388007504865527e-04
3.124000000000000000e+03 7.064115142822265625e+01 -1.679008674621582031e+01 1.564936712384223938e-03 -1.067960401996970177e-04 4.374422132968902588e-04 4.914272576570510864e-04
3.125000000000000000e+03 7.509190368652343750e+01 -1.672233772277832031e+01 2.646149601787328720e-03 1.661620772210881114e-04 8.436935022473335266e-04 -1.480701030232012272e-04
3.126000000000000000e+03 7.507875823974609375e+01 -1.746236038208007812e+01 1.278328360058367252e-03 -3.146224480587989092e-04 2.891118056140840054e-04 -6.032782839611172676e-04
3.127000000000000000e+03 7.583750152587890625e+01 -1.675157546997070312e+01 2.096511190757155418e-03 -3.044511831831187010e-04 5.376180051825940609e-04 -3.346398298162966967e-04
3.128000000000000000e+03 7.360292816162109375e+01 -1.740974807739257812e+01 1.347938901744782925e-03 -2.204207121394574642e-04 3.382554568815976381e-04 -1.191494520753622055e-04
3.129000000000000000e+03 7.434651947021484375e+01 -1.669533538818359375e+01 2.591586438938975334e-03 -9.921086893882602453e-05 7.477126782760024071e-04 -2.218566660303622484e-04
3.130000000000000000e+03 7.581685638427734375e+01 -1.749131965637207031e+01 1.613175729289650917e-03 1.162279440904967487e-04 5.188210634514689445e-04 -4.724762693513184786e-04
3.131000000000000000e+03 7.434088134765625000e+01 -1.743563652038574219e+01 2.073977375403046608e-03 -1.374331332044675946e-04 5.809632712043821812e-04 2.356212462473195046e-05
3.132000000000000000e+03 7.360105895996093750e+01 -1.666916847229003906e+01 2.820367226377129555e-03 -1.207109671668149531e-04 8.098968537524342537e-04 2.525374657125212252e-05
3.133000000000000000e+03 7.968632507324218750e+01 -1.742419242858886719e+01 7.159566157497465611e-04 6.445237668231129646e-04 4.081441147718578577e-04 1.545260893180966377e-04
3.134000000000000000e+03 7.850669860839843750e+01 -1.755505180358886719e+01 5.772063741460442543e-04 3.308281302452087402e-04 2.724103396758437157e-04 -6.770859472453594208e-04
3.135000000000000000e+03 7.652082824707031250e+01 -1.751028823852539062e+01 8.542155264876782894e-04 -2.503924188204109669e-04 1.811469264794141054e-04 -7.012580172158777714e-04
3.136000000000000000e+03 7.873721313476562500e+01 -1.681438636779785156e+01 1.878162729553878307e-04 3.757812737603671849e-05 6.761831900803372264e-05 -7.164281851146370173e-05
3.137000000000000000e+03 7.785486602783203125e+01 -1.753419113159179688e+01 3.442761080805212259e-04 1.395655090163927525e-05 1.074698011507280171e-04 -5.807770066894590855e-04
3.138000000000000000e+03 7.802648925781250000e+01 -1.679383087158203125e+01 7.251506322063505650e-04 2.200066810473799706e-04 2.835471823345869780e-04 -2.756682806648313999e-04
3.139000000000000000e+03 7.718931579589843750e+01 -1.751985740661621094e+01 1.179147977381944656e-03 1.669076154939830303e-04 4.038166662212461233e-04 -7.995756459422409534e-04
3.140000000000000000e+03 7.657466888427734375e+01 -1.677053260803222656e+01 1.826873514801263809e-03 3.454918332863599062e-04 6.517096189782023430e-04 -2.737057802733033895e-04
3.141000000000000000e+03 7.909966278076171875e+01 -1.758989524841308594e+01 4.190873587504029274e-04 -1.493058225605636835e-04 8.093446376733481884e-05 -1.344206539215520024e-04
3.142000000000000000e+03 7.938906860351562500e+01 -1.684892654418945312e+01 -4.799971356987953186e-04 -3.504096530377864838e-04 -2.491220366209745407e-04 -5.785524263046681881e-04
3.143000000000000000e+03 7.730204772949218750e+01 -1.677979850769042969e+01 1.055649365298449993e-03 -2.826358831953257322e-04 2.319040504517033696e-04 -3.040414303541183472e-04
3.144000000000000000e+03 7.943219757080078125e+01 -1.525699043273925781e+01 -9.945319034159183502e-04 1.131191384047269821e-02 3.095214487984776497e-03 4.532168153673410416e-03
3.145000000000000000e+03 7.838642120361328125e+01 -1.516350746154785156e+01 -1.145902182906866074e-02 -1.335777901113033295e-02 -7.445040158927440643e-03 -4.918175283819437027e-03
3.146000000000000000e+03 7.780564117431640625e+01 -1.512424659729003906e+01 -2.054786682128906250e-02 -9.883451275527477264e-03 -9.129395708441734314e-03 -1.929121278226375580e-02
3.147000000000000000e+03 7.662574768066406250e+01 -1.525570678710937500e+01 -4.265658557415008545e-02 -7.502078078687191010e-04 -1.302203815430402756e-02 -2.985241450369358063e-02
3.148000000000000000e+03 7.725820159912109375e+01 -1.518011665344238281e+01 -3.587464988231658936e-02 -1.916708424687385559e-02 -1.651251874864101410e-02 -2.386103011667728424e-02
3.149000000000000000e+03 7.888636779785156250e+01 -1.611222648620605469e+01 5.671463906764984131e-03 2.386428881436586380e-03 2.417367883026599884e-03 3.739942330867052078e-03
3.150000000000000000e+03 7.888313293457031250e+01 -1.558502388000488281e+01 -3.651893697679042816e-03 -7.358450908213853836e-03 -3.303103381767868996e-03 2.923145424574613571e-03
3.151000000000000000e+03 7.663484954833984375e+01 -1.599727630615234375e+01 -1.821564696729183197e-02 -7.484039757400751114e-03 -7.709905970841646194e-03 -1.063236966729164124e-02
3.152000000000000000e+03 7.962244415283203125e+01 -1.590537452697753906e+01 1.600148389115929604e-04 1.153988414444029331e-03 3.942009934689849615e-04 6.762336124666035175e-04
3.153000000000000000e+03 7.827157592773437500e+01 -1.562149429321289062e+01 -1.958472887054085732e-03 -2.826411975547671318e-03 -1.435465412214398384e-03 -1.877154340036213398e-03
3.154000000000000000e+03 7.741748809814453125e+01 -1.606798362731933594e+01 -4.930312861688435078e-04 2.967054490000009537e-03 7.422069320455193520e-04 -4.688856657594442368e-03
3.155000000000000000e+03 7.816462707519531250e+01 -1.613920974731445312e+01 7.045618724077939987e-03 -6.134695373475551605e-03 2.732769935391843319e-04 -1.584429293870925903e-03
3.156000000000000000e+03 7.763186645507812500e+01 -1.553283691406250000e+01 -1.216326002031564713e-02 -6.931837648153305054e-03 -5.728529300540685654e-03 -8.957408368587493896e-03
3.157000000000000000e+03 7.896445465087890625e+01 -1.517584800720214844e+01 2.198712900280952454e-03 -5.262610502541065216e-03 -9.191692224703729153e-04 1.907853176817297935e-03
3.158000000000000000e+03 7.435244750976562500e+01 -1.591604232788085938e+01 -1.083797812461853027e-01 1.244855951517820358e-02 -2.877936698496341705e-02 -1.429959479719400406e-02
3.159000000000000000e+03 7.588006591796875000e+01 -1.523305606842041016e+01 -7.343734800815582275e-02 -1.080007012933492661e-02 -2.527122385799884796e-02 -3.981675207614898682e-02
3.160000000000000000e+03 7.359722137451171875e+01 -1.514822292327880859e+01 -1.659908741712570190e-01 1.104121096432209015e-02 -4.648489877581596375e-02 -4.790743067860603333e-02
3.161000000000000000e+03 7.510590362548828125e+01 -1.594404602050781250e+01 -7.387210428714752197e-02 -1.016285177320241928e-02 -2.521048672497272491e-02 -1.519943401217460632e-02
3.162000000000000000e+03 7.359909057617187500e+01 -1.588880252838134766e+01 -1.481015533208847046e-01 -1.349702384322881699e-02 -4.847957193851470947e-02 -1.560857426375150681e-02
3.163000000000000000e+03 7.435808563232421875e+01 -1.517574119567871094e+01 -1.359814703464508057e-01 -6.879845168441534042e-03 -4.285839572548866272e-02 -5.123971030116081238e-02
3.164000000000000000e+03 7.585942077636718750e+01 -1.597279930114746094e+01 -4.179268702864646912e-02 7.312435656785964966e-03 -1.034407597035169601e-02 -1.171343866735696793e-02
3.165000000000000000e+03 7.511904144287109375e+01 -1.520402336120605469e+01 -9.932549297809600830e-02 3.703870577737689018e-03 -2.868648618459701538e-02 -4.379153251647949219e-02
3.166000000000000000e+03 7.132652282714843750e+01 -1.597409629821777344e+01 -1.712760627269744873e-01 1.560215651988983154e-02 -4.670216888189315796e-02 -2.900280989706516266e-03
3.167000000000000000e+03 7.056670379638671875e+01 -1.601350212097167969e+01 -1.455571055412292480e-01 -1.040313625708222389e-03 -4.397922754287719727e-02 1.345201209187507629e-02
3.168000000000000000e+03 7.208541107177734375e+01 -1.593443489074707031e+01 -1.811549663543701172e-01 -8.258690126240253448e-03 -5.682409554719924927e-02 -8.897408843040466309e-03
3.169000000000000000e+03 7.284317016601562500e+01 -1.589438438415527344e+01 -1.741207838058471680e-01 1.301048602908849716e-02 -4.833308979868888855e-02 -1.668351516127586365e-02
3.170000000000000000e+03 7.282823944091796875e+01 -1.515415287017822266e+01 -1.926708668470382690e-01 7.759979926049709320e-04 -5.756846442818641663e-02 -3.339068219065666199e-02
3.171000000000000000e+03 7.049587249755859375e+01 -1.527619743347167969e+01 -2.161711752414703369e-01 2.719939127564430237e-02 -5.669153481721878052e-02 2.360102720558643341e-02
3.172000000000000000e+03 7.127433013916015625e+01 -1.523581504821777344e+01 -2.216617763042449951e-01 1.886801049113273621e-02 -6.083812937140464783e-02 9.107789956033229828e-03
3.173000000000000000e+03 7.205184173583984375e+01 -1.519517898559570312e+01 -2.105413526296615601e-01 2.305780723690986633e-02 -5.624506622552871704e-02 -2.117276750504970551e-02
3.174000000000000000e+03 6.809269714355468750e+01 -1.561150836944580078e+01 8.443191647529602051e-02 -2.163492888212203979e-02 1.883909665048122406e-02 -4.138649441301822662e-03
3.175000000000000000e+03 6.902137756347656250e+01 -1.593779945373535156e+01 1.258726138621568680e-02 2.286201156675815582e-02 1.063478179275989532e-02 2.356508187949657440e-02
3.176000000000000000e+03 6.852732849121093750e+01 -1.547273349761962891e+01 -9.025632590055465698e-02 -6.828671693801879883e-02 -4.756291210651397705e-02 7.380594313144683838e-02
3.177000000000000000e+03 6.853373718261718750e+01 -1.628846549987792969e+01 -4.119596257805824280e-02 -9.017566218972206116e-03 -1.506405789405107498e-02 1.909475028514862061e-02
3.178000000000000000e+03 6.976448822021484375e+01 -1.608898162841796875e+01 -9.217939525842666626e-02 -3.204207634553313255e-03 -2.861507982015609741e-02 5.583617836236953735e-03
3.179000000000000000e+03 6.975740051269531250e+01 -1.534004783630371094e+01 -1.890586763620376587e-01 1.380123477429151535e-02 -5.257723107933998108e-02 7.440330088138580322e-02
3.180000000000000000e+03 6.909480285644531250e+01 -1.537976169586181641e+01 -2.138452082872390747e-01 3.732974827289581299e-02 -5.295464023947715759e-02 9.151344746351242065e-02
3.181000000000000000e+03 6.846734619140625000e+01 -1.765766716003417969e+01 4.685546446125954390e-04 9.596075396984815598e-04 4.284486640244722366e-04 -1.284203026443719864e-04
3.182000000000000000e+03 6.902794647216796875e+01 -1.774423980712890625e+01 2.239737514173611999e-04 5.139496061019599438e-04 2.213770058006048203e-04 4.744748875964432955e-04
3.183000000000000000e+03 6.989218139648437500e+01 -1.761616897583007812e+01 9.167764219455420971e-04 2.375010517425835133e-04 3.462832246441394091e-04 1.097770873457193375e-03
3.184000000000000000e+03 6.980416870117187500e+01 -1.688065528869628906e+01 7.175365462899208069e-04 2.642089966684579849e-04 2.945236628875136375e-04 2.840178203769028187e-04
3.185000000000000000e+03 6.892420196533203125e+01 -1.701133537292480469e+01 -7.739815919194370508e-05 -2.072740753646939993e-04 -8.540166891179978848e-05 5.158048006705939770e-04
3.186000000000000000e+03 1.639982223510742188e+01 -2.317397296428680420e-01 -1.090378046035766602e+00 -6.748857907950878143e-03 -3.291380703449249268e-01 -3.124343790113925934e-02
3.187000000000000000e+03 1.798723983764648438e+01 -8.314419388771057129e-01 -6.839568614959716797e-01 4.946655407547950745e-02 -1.903470903635025024e-01 1.312059313058853149e-01
3.188000000000000000e+03 1.645354080200195312e+01 -9.699125885963439941e-01 -8.757689595222473145e-01 2.956851013004779816e-02 -2.538601458072662354e-01 8.078531920909881592e-02
3.189000000000000000e+03 1.875374794006347656e+01 -7.599936723709106445e-01 -5.518022775650024414e-01 3.940455988049507141e-02 -1.537193059921264648e-01 1.682207137346267700e-01
3.190000000000000000e+03 1.790756225585937500e+01 -9.563824534416198730e-02 -8.180369734764099121e-01 5.964210722595453262e-03 -2.436218261718750000e-01 -4.951931070536375046e-03
3.191000000000000000e+03 1.866109085083007812e+01 -2.537456899881362915e-02 -6.753226518630981445e-01 7.408837787806987762e-03 -2.003741413354873657e-01 7.807842455804347992e-03
3.192000000000000000e+03 1.715376663208007812e+01 -1.644264459609985352e-01 -9.541749358177185059e-01 9.950521402060985565e-03 -2.832673192024230957e-01 -2.443420328199863434e-02
3.193000000000000000e+03 1.722046470642089844e+01 -9.014146924018859863e-01 -7.947270274162292480e-01 3.248806297779083252e-02 -2.286716997623443604e-01 1.107372641563415527e-01
3.194000000000000000e+03 1.941230964660644531e+01 7.625918835401535034e-02 -4.939000308513641357e-01 8.142385631799697876e-03 -1.457272917032241821e-01 1.944665610790252686e-02
3.195000000000000000e+03 2.090952491760253906e+01 3.449267148971557617e-01 -1.203321367502212524e-01 1.879102177917957306e-02 -3.046233393251895905e-02 6.301262229681015015e-02
3.196000000000000000e+03 1.952174568176269531e+01 -6.559218764305114746e-01 -4.192802906036376953e-01 6.274273991584777832e-02 -1.069612652063369751e-01 1.936923712491989136e-01
3.197000000000000000e+03 2.106011390686035156e+01 -3.798714280128479004e-01 -1.376010924577713013e-01 7.981450110673904419e-02 -1.733597740530967712e-02 2.133769094944000244e-01
3.198000000000000000e+03 2.183077621459960938e+01 -2.417316585779190063e-01 -1.400218694470822811e-03 5.193181708455085754e-02 1.515948027372360229e-02 2.150732874870300293e-01
3.199000000000000000e+03 2.165959548950195312e+01 4.794237911701202393e-01 4.172633588314056396e-02 3.919945284724235535e-02 2.427773736417293549e-02 8.874908089637756348e-02
3.200000000000000000e+03 2.016033744812011719e+01 2.105962187051773071e-01 -2.954540848731994629e-01 2.327346056699752808e-02 -8.165418356657028198e-02 3.769401460886001587e-02
3.201000000000000000e+03 2.029035186767578125e+01 -5.178933739662170410e-01 -2.854764163494110107e-01 5.807988718152046204e-02 -6.821895390748977661e-02 2.029347419738769531e-01
3.202000000000000000e+03 2.480644798278808594e+01 1.186565160751342773e+00 2.824569344520568848e-01 3.180481493473052979e-03 8.569122105836868286e-02 1.716724410653114319e-02
3.203000000000000000e+03 2.406565666198730469e+01 1.202636122703552246e+00 2.256021797657012939e-01 -3.236849233508110046e-02 5.797010660171508789e-02 4.814379289746284485e-02
3.204000000000000000e+03 2.603136825561523438e+01 1.400778174400329590e+00 1.722945719957351685e-01 2.786820055916905403e-03 5.252441763877868652e-02 -6.698736548423767090e-02
3.205000000000000000e+03 2.337490272521972656e+01 2.116274982690811157e-01 2.439927458763122559e-01 -1.550785824656486511e-02 6.854546815156936646e-02 1.462975591421127319e-01
3.206000000000000000e+03 2.244507598876953125e+01 6.874495744705200195e-01 1.745544075965881348e-01 2.297041192650794983e-02 5.925744771957397461e-02 1.031383126974105835e-01
3.207000000000000000e+03 2.260281181335449219e+01 -4.089855030179023743e-02 1.254395097494125366e-01 5.448319762945175171e-02 5.397681146860122681e-02 1.918991953134536743e-01
3.208000000000000000e+03 2.584365463256835938e+01 1.078736662864685059e+00 4.277901649475097656e-01 -3.486409410834312439e-02 1.178778260946273804e-01 -8.748104423284530640e-02
3.209000000000000000e+03 2.483488655090332031e+01 6.060885787010192871e-01 3.793870210647583008e-01 -5.814902111887931824e-02 9.637139737606048584e-02 8.694694936275482178e-02
3.210000000000000000e+03 2.412840652465820312e+01 4.383291006088256836e-01 3.533232510089874268e-01 -3.449021652340888977e-02 9.564991295337677002e-02 1.107361316680908203e-01
3.211000000000000000e+03 2.542542266845703125e+01 8.184306025505065918e-01 4.138176441192626953e-01 -8.279361575841903687e-02 9.930720925331115723e-02 -1.337625179439783096e-02
3.212000000000000000e+03 2.326465988159179688e+01 9.579550623893737793e-01 2.397100925445556641e-01 3.432416915893554688e-02 8.221028000116348267e-02 9.111280739307403564e-02
3.213000000000000000e+03 2.516747474670410156e+01 1.628308176994323730e+00 1.050656735897064209e-01 1.453784108161926270e-02 3.588105365633964539e-02 -1.989835000131279230e-04
3.214000000000000000e+03 2.289602470397949219e+01 2.428752899169921875e+00 3.164222289342433214e-05 5.564149978454224765e-05 2.618511643959209323e-05 2.901626612583640963e-05
3.215000000000000000e+03 2.207656478881835938e+01 2.160299539566040039e+00 -1.437853916286258027e-05 -6.368781032506376505e-05 -2.341990511922631413e-05 -4.091669779882067814e-06
3.216000000000000000e+03 2.309196090698242188e+01 1.710520744323730469e+00 -2.241221773147117347e-05 -1.656958011153619736e-05 -1.169453935290221125e-05 -4.673564944823738188e-06
3.217000000000000000e+03 2.226285171508789062e+01 1.441366434097290039e+00 1.737511638566502370e-06 1.766135392244905233e-05 5.819659691042033955e-06 1.627941337289939838e-08
3.218000000000000000e+03 2.365754890441894531e+01 2.680384397506713867e+00 -6.247694545891135931e-05 -1.128732765209861100e-05 -2.212928120570722967e-05 -3.955230567953549325e-05
3.219000000000000000e+03 2.446170997619628906e+01 2.351509332656860352e+00 -4.710697339760372415e-06 -1.944682480825576931e-05 -7.247256689879577607e-06 3.941936938645085320e-06
3.220000000000000000e+03 2.386312484741210938e+01 1.962898492813110352e+00 2.104199847963172942e-05 1.570611675560940057e-05 1.102443457057233900e-05 -1.163984052254818380e-05
3.221000000000000000e+03 2.075237083435058594e+01 1.106616377830505371e+00 -6.288909844442969188e-06 1.491100829298375174e-05 2.586629307188559324e-06 -9.602548743714578450e-06
3.222000000000000000e+03 2.060178184509277344e+01 1.831414580345153809e+00 -4.350794915808364749e-05 -3.564204962458461523e-05 -2.374500036239624023e-05 -1.096928735933033749e-05
3.223000000000000000e+03 2.130817413330078125e+01 1.960395336151123047e+00 3.652163650258444250e-05 3.931732135242782533e-05 2.275168662890791893e-05 -1.833403439377434552e-05
3.224000000000000000e+03 1.918785858154296875e+01 1.579434752464294434e+00 -3.447698691161349416e-05 -4.389412788441404700e-05 -2.351133480260614306e-05 -1.797720506147015840e-05
3.225000000000000000e+03 1.989505195617675781e+01 1.704050064086914062e+00 4.477463517105206847e-05 5.318055264069698751e-05 2.938655779871623963e-05 1.306635294895386323e-05
3.226000000000000000e+03 1.929729461669921875e+01 8.472537398338317871e-01 -1.560383680043742061e-05 2.608307477203197777e-05 3.143771209579426795e-06 6.162720637803431600e-06
3.227000000000000000e+03 2.147934150695800781e+01 1.239288687705993652e+00 -2.124729508068412542e-05 -2.478089299984276295e-05 -1.380845606036018580e-05 -4.212145995552418754e-06
3.228000000000000000e+03 2.002506446838378906e+01 9.755603671073913574e-01 -4.103311948711052537e-05 -1.448909551982069388e-05 -1.665666422923095524e-05 -1.072829672921216115e-05
3.229000000000000000e+03 1.701650238037109375e+01 1.350294589996337891e+00 9.846709872363135219e-05 1.723152381600812078e-04 8.123469888232648373e-05 1.319080183748155832e-04
3.230000000000000000e+03 1.708320045471191406e+01 6.133062839508056641e-01 4.194498978904448450e-05 -8.816281479084864259e-05 -1.386534586345078424e-05 2.031935582635924220e-05
3.231000000000000000e+03 1.634315681457519531e+01 5.465459823608398438e-01 1.187343586934730411e-04 1.343550102319568396e-04 7.592680776724591851e-05 5.230935494182631373e-05
3.232000000000000000e+03 1.782329559326171875e+01 6.808430552482604980e-01 1.449340106773888692e-05 7.604077836731448770e-05 2.716025483096018434e-05 3.124675276922062039e-05
3.233000000000000000e+03 1.847070503234863281e+01 1.483781576156616211e+00 6.015212420606985688e-05 1.028212063829414546e-04 4.889200135949067771e-05 6.954476702958345413e-05
3.234000000000000000e+03 1.856336212158203125e+01 7.491624951362609863e-01 -2.999779462697915733e-05 -3.487745925667695701e-05 -1.946257543750107288e-05 -5.970613074168795720e-06
3.235000000000000000e+03 1.628943824768066406e+01 1.284718871116638184e+00 1.301080774283036590e-04 -1.007944665616378188e-04 8.794083441898692399e-06 9.628142288420349360e-05
3.236000000000000000e+03 1.774361801147460938e+01 1.416646718978881836e+00 1.626944140298292041e-05 -7.141920650610700250e-05 -1.654492916713934392e-05 4.826105396205093712e-06
3.237000000000000000e+03 1.408120155334472656e+01 1.187072157859802246e+00 4.613033961504697800e-04 1.834177674027159810e-04 1.934163447003811598e-04 2.330592978978529572e-04
3.238000000000000000e+03 1.410851097106933594e+01 4.475762248039245605e-01 4.702463629655539989e-04 -1.264951424673199654e-04 1.031253705150447786e-04 9.914432303048670292e-05
3.239000000000000000e+03 1.336430931091308594e+01 4.183164834976196289e-01 6.430348730646073818e-04 1.290786458412185311e-04 2.316340542165562510e-04 9.421069989912211895e-05
3.240000000000000000e+03 1.485382461547851562e+01 4.748390913009643555e-01 3.405834140721708536e-04 1.483534288126975298e-04 1.466810499550774693e-04 7.888877007644623518e-05
3.241000000000000000e+03 1.555697250366210938e+01 1.239178419113159180e+00 2.432599867461249232e-04 1.979679364012554288e-04 1.323683827649801970e-04 1.809402747312560678e-04
3.242000000000000000e+03 1.560021686553955078e+01 5.002670884132385254e-01 1.976553467102348804e-04 -1.225255546160042286e-04 2.253893399029038846e-05 6.371171912178397179e-05
3.243000000000000000e+03 1.334496879577636719e+01 1.158104777336120605e+00 5.521079874597489834e-04 -1.344474585494026542e-04 1.252981601282954216e-04 2.570532378740608692e-04
3.244000000000000000e+03 1.481854820251464844e+01 1.214042663574218750e+00 2.990108914673328400e-04 -1.145290370914153755e-04 5.534455340239219368e-05 1.994475314859300852e-04
3.245000000000000000e+03 1.111325168609619141e+01 1.138490676879882812e+00 9.951064130291342735e-04 7.708780321991071105e-05 3.216582699678838253e-04 1.920200884342193604e-04
3.246000000000000000e+03 1.186833381652832031e+01 4.020517766475677490e-01 9.973588166758418083e-04 9.042118472279980779e-05 3.263340040575712919e-04 8.389117283513769507e-05
3.247000000000000000e+03 1.037295722961425781e+01 3.924405574798583984e-01 1.294055953621864319e-03 4.293750680517405272e-05 4.010980192106217146e-04 5.520412378245964646e-05
3.248000000000000000e+03 1.260390949249267578e+01 1.143149375915527344e+00 7.369003724306821823e-04 1.346854842267930508e-04 2.614757686387747526e-04 2.411909808870404959e-04
3.249000000000000000e+03 1.261756992340087891e+01 4.032067656517028809e-01 7.985446718521416187e-04 -1.129975498770363629e-04 2.056641387753188610e-04 1.039612689055502415e-04
3.250000000000000000e+03 1.036947441101074219e+01 1.132432341575622559e+00 1.054135034792125225e-03 -1.383288181386888027e-04 2.747418766375631094e-04 1.872763241408392787e-04
3.251000000000000000e+03 1.185806560516357422e+01 1.142010807991027832e+00 8.223639451898634434e-04 -1.435668091289699078e-04 2.036391524598002434e-04 2.623762702569365501e-04
3.252000000000000000e+03 1.112012767791748047e+01 3.985152244567871094e-01 1.143936766311526299e-03 -8.096613601082935929e-05 3.188911941833794117e-04 8.879457891453057528e-05
3.253000000000000000e+03 8.771651268005371094e+00 3.881228864192962646e-01 1.447772025130689144e-03 -3.037751639567431994e-06 4.334202676545828581e-04 2.124636466760421172e-06
3.254000000000000000e+03 8.818146705627441406e+00 1.128122925758361816e+00 1.167614944279193878e-03 -1.236887619597837329e-04 3.131778503302484751e-04 4.298464045859873295e-05
3.255000000000000000e+03 7.953170776367187500e+00 3.921383917331695557e-01 1.414616592228412628e-03 -9.798915016290266067e-06 4.214453219901770353e-04 -1.907467958517372608e-05
3.256000000000000000e+03 6.319846630096435547e+00 3.892590403556823730e-01 1.187856891192495823e-03 -1.522876118542626500e-05 3.517884470056742430e-04 -8.771644206717610359e-05
3.257000000000000000e+03 5.502897262573242188e+00 3.910058438777923584e-01 1.027568592689931393e-03 2.114914786943700165e-05 3.146153176203370094e-04 -6.623678928008303046e-05
3.258000000000000000e+03 4.685476779937744141e+00 3.909447193145751953e-01 7.660281262360513210e-04 -6.589689292013645172e-05 2.100393758155405521e-04 -1.452251890441402793e-04
3.259000000000000000e+03 3.050973415374755859e+00 3.907458484172821045e-01 2.964364830404520035e-04 -1.278050767723470926e-04 5.058941678726114333e-05 -1.659773988649249077e-04
3.260000000000000000e+03 2.234469175338745117e+00 3.876248300075531006e-01 1.542828103993088007e-04 1.587141596246510744e-04 9.389909246237948537e-05 -1.278397758142091334e-05
3.261000000000000000e+03 2.538473606109619141e+00 1.127624869346618652e+00 2.889506868086755276e-04 -1.082284288713708520e-04 5.421667447080835700e-05 -3.188612754456698895e-04
3.262000000000000000e+03 1.768125653266906738e+00 1.127171397209167480e+00 8.994658855954185128e-05 1.945088442880660295e-04 8.533662912668660283e-05 -1.670679484959691763e-04
3.263000000000000000e+03 1.067988038063049316e+00 1.148616075515747070e+00 -7.655782974325120449e-05 1.506685512140393257e-04 2.223321462224703282e-05 -1.125706239690771326e-05
3.264000000000000000e+03 6.996063590049743652e-01 4.086160361766815186e-01 1.659646804910153151e-04 1.890433049993589520e-04 1.065023971023038030e-04 1.497881021350622177e-04
3.265000000000000000e+03 3.732481598854064941e-01 9.636608362197875977e-01 -1.377722364850342274e-04 -1.082184026017785072e-04 -7.379719318123534322e-05 -8.850507583701983094e-05
3.266000000000000000e+03 3.322789192199707031e+00 1.130745887756347656e+00 4.838002496398985386e-04 1.435008307453244925e-04 1.881903299363330007e-04 -1.718020794214680791e-04
3.267000000000000000e+03 3.868146419525146484e+00 3.889868557453155518e-01 5.799903301522135735e-04 1.000980846583843231e-04 2.040265244431793690e-04 -4.886895840172655880e-05
3.268000000000000000e+03 5.678146839141845703e+00 1.131005883216857910e+00 8.594986866228282452e-04 -9.327530278824269772e-05 2.298670151503756642e-04 -3.151764394715428352e-04
3.269000000000000000e+03 7.247090816497802734e+00 1.132560849189758301e+00 1.095464918762445450e-03 -1.050490391207858920e-04 2.971247595269232988e-04 -1.489134592702612281e-04
3.270000000000000000e+03 7.136218547821044922e+00 3.925608992576599121e-01 1.353363040834665298e-03 -1.774994962033815682e-05 4.006839299108833075e-04 -4.446541424840688705e-05
3.271000000000000000e+03 8.031854629516601562e+00 1.132138371467590332e+00 1.222651684656739235e-03 -1.382178288622526452e-05 3.626489778980612755e-04 -5.032068656873889267e-05
3.272000000000000000e+03 9.590107917785644531e+00 3.879971206188201904e-01 1.380389207042753696e-03 -4.179228562861680984e-05 4.015790764242410660e-04 4.532695675152353942e-05
3.273000000000000000e+03 9.604414939880371094e+00 1.127997159957885742e+00 1.179268583655357361e-03 1.458034330426016822e-05 3.581546770874410868e-04 8.571490616304799914e-05
3.274000000000000000e+03 6.462907791137695312e+00 1.129258990287780762e+00 1.092294463887810707e-03 -3.411527131902403198e-06 3.266648855060338974e-04 -1.550583256175741553e-04
3.275000000000000000e+03 4.892915248870849609e+00 1.130944728851318359e+00 8.146513719111680984e-04 5.509444235940463841e-05 2.609237271826714277e-04 -2.003353292820975184e-04
3.276000000000000000e+03 4.107773303985595703e+00 1.128986835479736328e+00 5.335052264854311943e-04 -9.594958100933581591e-05 1.312667009187862277e-04 -3.887038037646561861e-04
3.277000000000000000e+03 1.431932568550109863e+00 3.871713578701019287e-01 -1.929127938637975603e-05 -1.235611853189766407e-04 -4.285573959350585938e-05 -1.057317058439366519e-04
3.278000000000000000e+03 1.338494110107421875e+01 -3.624081611633300781e-01 -1.256012320518493652e+00 -6.866073235869407654e-03 -3.788635134696960449e-01 -4.235521331429481506e-02
3.279000000000000000e+03 1.492772197723388672e+01 -1.047161340713500977e+00 -1.000325322151184082e+00 2.582016214728355408e-02 -2.923515439033508301e-01 9.177486412227153778e-03
3.280000000000000000e+03 1.340428161621093750e+01 -1.102196455001831055e+00 -1.022397875785827637e+00 1.632018573582172394e-02 -3.018232882022857666e-01 -4.024809226393699646e-02
3.281000000000000000e+03 1.489244556427001953e+01 -3.079577088356018066e-01 -1.215404272079467773e+00 -1.841372868511825800e-04 -3.646765351295471191e-01 -3.005821444094181061e-02
3.282000000000000000e+03 1.568929195404052734e+01 -1.018365263938903809e+00 -9.425019025802612305e-01 1.133134402334690094e-02 -2.793511748313903809e-01 4.324584454298019409e-02
3.283000000000000000e+03 1.564604759216308594e+01 -2.794539332389831543e-01 -1.180288553237915039e+00 -5.242744227871298790e-04 -3.542438745498657227e-01 -2.866118773818016052e-02
3.284000000000000000e+03 1.413872909545898438e+01 -3.356079757213592529e-01 -1.241106152534484863e+00 6.714578717947006226e-03 -3.703174591064453125e-01 -3.993365913629531860e-02
3.285000000000000000e+03 1.416603755950927734e+01 -1.075103878974914551e+00 -1.024482369422912598e+00 1.435775961726903915e-02 -3.030373752117156982e-01 -1.213058270514011383e-02
3.286000000000000000e+03 1.037684440612792969e+01 -3.884835243225097656e-01 -1.020993113517761230e+00 -1.064738258719444275e-03 -3.066173493862152100e-01 -4.862070083618164062e-02
3.287000000000000000e+03 1.189073276519775391e+01 -1.121461629867553711e+00 -9.796333909034729004e-01 1.571473293006420135e-02 -2.891755998134613037e-01 -9.129642695188522339e-02
3.288000000000000000e+03 1.038032817840576172e+01 -1.128475308418273926e+00 -8.667445778846740723e-01 1.268345583230257034e-02 -2.562183439731597900e-01 -1.220754161477088928e-01
3.289000000000000000e+03 1.264584636688232422e+01 -1.117530822753906250e+00 -1.005521416664123535e+00 4.374391399323940277e-03 -3.003441095352172852e-01 -7.040037959814071655e-02
3.290000000000000000e+03 1.188046455383300781e+01 -3.815026283264160156e-01 -1.169482827186584473e+00 -9.676697081886231899e-04 -3.511351644992828369e-01 -3.944598510861396790e-02
3.291000000000000000e+03 1.263218593597412109e+01 -3.775882422924041748e-01 -1.231970191001892090e+00 1.166519243270158768e-03 -3.692410886287689209e-01 -3.890731558203697205e-02
3.292000000000000000e+03 1.112868118286132812e+01 -3.851337432861328125e-01 -1.100453972816467285e+00 4.928434733301401138e-03 -3.286576867103576660e-01 -4.428122937679290771e-02
3.293000000000000000e+03 1.113555717468261719e+01 -1.125109195709228516e+00 -9.286274313926696777e-01 8.548153564333915710e-03 -2.760238051414489746e-01 -1.075952500104904175e-01
3.294000000000000000e+03 9.624593734741210938e+00 -1.131355285644531250e+00 -7.954592704772949219e-01 4.332871641963720322e-03 -2.373379319906234741e-01 -1.353650391101837158e-01
3.295000000000000000e+03 9.636611938476562500e+00 -3.913553059101104736e-01 -9.309460520744323730e-01 3.244573948904871941e-03 -2.783104479312896729e-01 -5.126610025763511658e-02
3.296000000000000000e+03 8.908035278320312500e+00 -3.932945430278778076e-01 -8.334617614746093750e-01 -7.067086407914757729e-04 -2.502505481243133545e-01 -5.388478189706802368e-02
3.297000000000000000e+03 8.179648399353027344e+00 -3.947979807853698730e-01 -7.319797277450561523e-01 2.145599341019988060e-03 -2.189502418041229248e-01 -5.537524819374084473e-02
3.298000000000000000e+03 7.451354026794433594e+00 -3.965992927551269531e-01 -6.281049847602844238e-01 -1.405360642820596695e-03 -1.888530999422073364e-01 -5.653174966573715210e-02
3.299000000000000000e+03 6.723036766052246094e+00 -3.981454968452453613e-01 -5.240561366081237793e-01 7.839370664441958070e-05 -1.571933329105377197e-01 -5.536740273237228394e-02
3.300000000000000000e+03 5.994731426239013672e+00 -3.993945717811584473e-01 -4.223764538764953613e-01 -2.092718845233321190e-03 -1.273407489061355591e-01 -5.392697453498840332e-02
3.301000000000000000e+03 5.266466140747070312e+00 -4.014726877212524414e-01 -3.247903585433959961e-01 -1.822591410018503666e-03 -9.798388183116912842e-02 -5.047247931361198425e-02
3.302000000000000000e+03 4.538172721862792969e+00 -4.045463800430297852e-01 -2.345001399517059326e-01 -3.140072338283061981e-03 -7.129206508398056030e-02 -4.622232541441917419e-02
3.303000000000000000e+03 3.810027122497558594e+00 -4.076895117759704590e-01 -1.538351923227310181e-01 -4.608850460499525070e-03 -4.753321409225463867e-02 -3.972525149583816528e-02
3.304000000000000000e+03 3.082192897796630859e+00 -4.105251729488372803e-01 -8.671586215496063232e-02 -5.494446493685245514e-03 -2.766309306025505066e-02 -3.074367344379425049e-02
3.305000000000000000e+03 2.355662584304809570e+00 -4.111475944519042969e-01 -3.709923103451728821e-02 -7.638350594788789749e-03 -1.342127379029989243e-02 -1.971814595162868500e-02
3.306000000000000000e+03 1.642585277557373047e+00 -4.047921001911163330e-01 -7.586007937788963318e-03 -4.233906511217355728e-03 -3.545974381268024445e-03 -7.503236643970012665e-03
3.307000000000000000e+03 6.508445143699645996e-01 -1.120625138282775879e+00 -4.402373451739549637e-03 -2.499156165868043900e-03 -2.070458838716149330e-03 -1.492864103056490421e-03
3.308000000000000000e+03 8.868407249450683594e+00 -1.133294582366943359e+00 -7.168580889701843262e-01 7.821386680006980896e-03 -2.127110213041305542e-01 -1.439604908227920532e-01
3.309000000000000000e+03 8.112410545349121094e+00 -1.134797930717468262e+00 -6.323363780975341797e-01 1.469916896894574165e-04 -1.896568238735198975e-01 -1.502137035131454468e-01
3.310000000000000000e+03 7.356505870819091797e+00 -1.136599302291870117e+00 -5.457913875579833984e-01 5.665277130901813507e-04 -1.635674536228179932e-01 -1.508750021457672119e-01
3.311000000000000000e+03 6.600578308105468750e+00 -1.138145565986633301e+00 -4.595623910427093506e-01 -5.475282669067382812e-03 -1.395113021135330200e-01 -1.499697715044021606e-01
3.312000000000000000e+03 5.844663143157958984e+00 -1.139394640922546387e+00 -3.752107322216033936e-01 -6.261329632252454758e-03 -1.144416183233261108e-01 -1.432522535324096680e-01
3.313000000000000000e+03 5.088787555694580078e+00 -1.141472697257995605e+00 -2.957377135753631592e-01 -1.095888763666152954e-02 -9.200898557901382446e-02 -1.352393627166748047e-01
3.314000000000000000e+03 4.332883834838867188e+00 -1.144546389579772949e+00 -2.208870351314544678e-01 -1.429315004497766495e-02 -7.055405527353286743e-02 -1.218399256467819214e-01
3.315000000000000000e+03 3.577128171920776367e+00 -1.147689461708068848e+00 -1.541941910982131958e-01 -1.981225237250328064e-02 -5.220193043351173401e-02 -1.047200784087181091e-01
3.316000000000000000e+03 2.821683883666992188e+00 -1.150525212287902832e+00 -9.631718695163726807e-02 -2.684745751321315765e-02 -3.694939240813255310e-02 -8.019091188907623291e-02
3.317000000000000000e+03 2.067543268203735352e+00 -1.151147603988647461e+00 -5.160506442189216614e-02 -2.800681814551353455e-02 -2.388356439769268036e-02 -4.983168840408325195e-02
3.318000000000000000e+03 1.326855897903442383e+00 -1.144792079925537109e+00 -2.184230647981166840e-02 -2.165404334664344788e-02 -1.304890494793653488e-02 -2.048969641327857971e-02
3.319000000000000000e+03 9.941840171813964844e-01 -3.806251585483551025e-01 2.068368950858712196e-03 -3.734549274668097496e-03 -4.998540971428155899e-04 6.557627057190984488e-05
3.320000000000000000e+03 3.480942845344543457e-01 -5.610816478729248047e-01 6.894948310218751431e-04 2.904290333390235901e-03 1.078135566785931587e-03 1.414003432728350163e-03
3.321000000000000000e+03 3.518824386596679688e+01 4.336924552917480469e-01 3.784299850463867188e+01 1.522914791107177734e+01 1.592164421081542969e+01 2.144042396545410156e+01
3.322000000000000000e+03 3.518080902099609375e+01 4.516863226890563965e-01 2.953251647949218750e+01 3.439060974121093750e+01 1.917693710327148438e+01 3.063281059265136719e+01
3.323000000000000000e+03 3.517001724243164062e+01 4.678891003131866455e-01 2.447196006774902344e+01 5.055140686035156250e+01 2.250700950622558594e+01 3.196183395385742188e+01
3.324000000000000000e+03 3.515627670288085938e+01 4.816807210445404053e-01 1.874783706665039062e+01 6.479596710205078125e+01 2.506314086914062500e+01 2.972366905212402344e+01
3.325000000000000000e+03 3.514011383056640625e+01 4.925334453582763672e-01 1.537405109405517578e+01 7.733258056640625000e+01 2.781199073791503906e+01 2.395988464355468750e+01
3.326000000000000000e+03 3.512214660644531250e+01 5.000319480895996094e-01 1.248632240295410156e+01 8.537468719482421875e+01 2.935830497741699219e+01 1.652557945251464844e+01
3.327000000000000000e+03 3.510306549072265625e+01 5.038893222808837891e-01 1.402459716796875000e+01 9.088873291015625000e+01 3.147399902343750000e+01 7.257176876068115234e+00
3.328000000000000000e+03 3.508359909057617188e+01 5.039579272270202637e-01 1.559881305694580078e+01 9.125958251953125000e+01 3.205751800537109375e+01 -1.363606214523315430e+00
3.329000000000000000e+03 3.506449127197265625e+01 5.002350807189941406e-01 2.203479385375976562e+01 8.914694213867187500e+01 3.335452270507812500e+01 -9.023780822753906250e+00
3.330000000000000000e+03 3.504647064208984375e+01 4.928633868694305420e-01 2.749956130981445312e+01 8.356413269042968750e+01 3.331910705566406250e+01 -1.445856380462646484e+01
3.331000000000000000e+03 3.503023147583007812e+01 4.821248054504394531e-01 3.581877899169921875e+01 7.720510864257812500e+01 3.390716552734375000e+01 -1.702642250061035156e+01
3.332000000000000000e+03 3.501639556884765625e+01 4.684303402900695801e-01 4.212931442260742188e+01 6.988906860351562500e+01 3.360551452636718750e+01 -1.721825408935546875e+01
3.333000000000000000e+03 3.500548934936523438e+01 4.523040056228637695e-01 4.796527481079101562e+01 6.375829315185546875e+01 3.351707077026367188e+01 -1.481685924530029297e+01
3.334000000000000000e+03 3.499792861938476562e+01 4.343629479408264160e-01 5.229375076293945312e+01 5.958368301391601562e+01 3.356322860717773438e+01 -1.055656433105468750e+01
3.335000000000000000e+03 3.499401092529296875e+01 4.152936935424804688e-01 5.386187362670898438e+01 5.607577133178710938e+01 3.298129272460937500e+01 -5.522592544555664062e+00
3.336000000000000000e+03 3.499387741088867188e+01 3.958259820938110352e-01 5.407297134399414062e+01 5.646171188354492188e+01 3.316040420532226562e+01 -4.054294526576995850e-01
3.337000000000000000e+03 3.499753570556640625e+01 3.767047226428985596e-01 5.197805404663085938e+01 5.863010787963867188e+01 3.318244934082031250e+01 4.803466320037841797e+00
3.338000000000000000e+03 3.500484848022460938e+01 3.586617112159729004e-01 4.789148330688476562e+01 6.122671508789062500e+01 3.273545837402343750e+01 8.621390342712402344e+00
3.339000000000000000e+03 3.501552963256835938e+01 3.423873782157897949e-01 4.375027465820312500e+01 6.802069091796875000e+01 3.353128814697265625e+01 1.036796474456787109e+01
3.340000000000000000e+03 3.502917861938476562e+01 3.285045027732849121e-01 3.670626068115234375e+01 7.329430389404296875e+01 3.300017166137695312e+01 1.079098129272460938e+01
3.341000000000000000e+03 3.504526901245117188e+01 3.175443112850189209e-01 3.160646629333496094e+01 7.987554931640625000e+01 3.344460296630859375e+01 8.150692939758300781e+00
3.342000000000000000e+03 3.506318283081054688e+01 3.099262714385986328e-01 2.560338020324707031e+01 8.472425842285156250e+01 3.309828948974609375e+01 3.243401050567626953e+00
3.343000000000000000e+03 3.508224105834960938e+01 3.059418499469757080e-01 2.201736831665039062e+01 8.758404541015625000e+01 3.288042449951171875e+01 -3.682928562164306641e+00
3.344000000000000000e+03 3.510170745849609375e+01 3.057435750961303711e-01 1.975155258178710938e+01 8.696915435791015625e+01 3.201621246337890625e+01 -1.201226806640625000e+01
3.345000000000000000e+03 3.512084197998046875e+01 3.093390166759490967e-01 2.051271820068359375e+01 8.299900054931640625e+01 3.105351448059082031e+01 -2.021393585205078125e+01
3.346000000000000000e+03 3.513890838623046875e+01 3.165905475616455078e-01 2.283869171142578125e+01 7.492108917236328125e+01 2.932793235778808594e+01 -2.759478950500488281e+01
3.347000000000000000e+03 3.515522003173828125e+01 3.272207379341125488e-01 2.685908508300781250e+01 6.425825500488281250e+01 2.733520126342773438e+01 -3.255394744873046875e+01
3.348000000000000000e+03 3.516914749145507812e+01 3.408227264881134033e-01 3.135962677001953125e+01 5.122411346435546875e+01 2.477512168884277344e+01 -3.477052307128906250e+01
3.349000000000000000e+03 3.518016052246093750e+01 3.568760752677917480e-01 3.507189941406250000e+01 3.764175415039062500e+01 2.181409645080566406e+01 -3.390781784057617188e+01
3.350000000000000000e+03 3.518783950805664062e+01 3.747664093971252441e-01 3.780955123901367188e+01 2.409424209594726562e+01 1.857113838195800781e+01 -2.969310760498046875e+01
3.351000000000000000e+03 3.519188690185546875e+01 3.938091695308685303e-01 3.801860427856445312e+01 1.234053993225097656e+01 1.510774326324462891e+01 -2.296163177490234375e+01
3.352000000000000000e+03 3.519215011596679688e+01 4.132755994796752930e-01 3.571724700927734375e+01 3.077737808227539062e+00 1.163849544525146484e+01 -8.174742698669433594e+00
