# el_label, x, y, sXX, sYY, sZZ, sXY
1.000000000000000000e+00 3.503461837768554688e+01 -1.203200435638427734e+01 -5.671178951160982251e-05 5.532748764380812645e-05 -4.152909980348340468e-07 1.076037619895942044e-06
2.000000000000000000e+00 3.466752624511718750e+01 -1.111128234863281250e+01 4.793153129867278039e-05 1.494282787461997941e-05 1.886230893433094025e-05 7.093227759469300508e-05
3.000000000000000000e+00 3.700949096679687500e+01 -1.191583538055419922e+01 4.464630819711601362e-06 -1.425084483344107866e-04 -4.141314275329932570e-05 -6.851458601886406541e-05
4.000000000000000000e+00 3.668462371826171875e+01 -1.258782100677490234e+01 -5.581611549132503569e-05 1.320020237471908331e-04 2.285577102156821638e-05 1.150735261035151780e-04
5.000000000000000000e+00 3.544429779052734375e+01 -1.138607501983642578e+01 -6.052334356354549527e-06 -9.810795017983764410e-05 -3.124808426946401596e-05 -8.289566903840750456e-05
6.000000000000000000e+00 3.585778045654296875e+01 -1.231281280517578125e+01 -2.113165101036429405e-05 -4.230922786518931389e-05 -1.903226439026184380e-05 -6.108023080741986632e-05
7.000000000000000000e+00 3.339967346191406250e+01 -1.113925266265869141e+01 2.088969340547919273e-04 9.663149103289470077e-05 9.165852679871022701e-05 3.063027179450727999e-05
8.000000000000000000e+00 3.289870071411132812e+01 -1.052772140502929688e+01 -4.872934950981289148e-04 -2.774082076939521357e-06 -1.470202696509659290e-04 -3.845099490717984736e-05
9.000000000000000000e+00 3.225069427490234375e+01 -1.013691043853759766e+01 -1.048375361278885975e-05 -3.472403932391898707e-06 -4.186847036180552095e-06 -6.893395038787275553e-06
1.000000000000000000e+01 3.622507476806640625e+01 -1.165381526947021484e+01 2.037602462223730981e-05 1.329345250269398093e-04 4.599316525855101645e-05 6.507598300231620669e-05
1.100000000000000000e+01 3.421545791625976562e+01 -1.174414348602294922e+01 1.311791129410266876e-04 -1.050776336342096329e-04 7.830444701539818197e-06 -1.223001163452863693e-04
1.200000000000000000e+01 3.271157836914062500e+01 -1.019549655914306641e+01 7.654165528947487473e-05 -6.014481550664640963e-05 4.919051662000128999e-06 -2.278724969073664397e-05
1.300000000000000000e+01 3.326613235473632812e+01 -1.040691661834716797e+01 -1.644174481043592095e-04 9.990412945626303554e-05 -1.935399450303521007e-05 3.004281461471691728e-05
1.400000000000000000e+01 3.391250991821289062e+01 -1.076323032379150391e+01 -6.229405698832124472e-05 -5.448633237392641604e-05 -3.503411426208913326e-05 4.391552647575736046e-05
1.500000000000000000e+01 3.836654663085937500e+01 -1.258410835266113281e+01 1.153287812485359609e-04 -1.760298182489350438e-04 -1.821031219151336700e-05 -6.897622370161116123e-05
1.600000000000000000e+01 3.802908325195312500e+01 -1.324341106414794922e+01 -1.921047078212723136e-05 1.373621489619836211e-04 3.544550054357387125e-05 3.758239017770392820e-07
1.700000000000000000e+01 3.740925216674804688e+01 -1.289637470245361328e+01 2.162263408536091447e-04 -2.182385069318115711e-04 -6.036505624251731206e-07 -1.355112181045114994e-05
1.800000000000000000e+01 3.926432418823242188e+01 -1.394607543945312500e+01 1.597270893398672342e-04 4.748337596538476646e-05 6.216314068296924233e-05 -4.066379187861457467e-05
1.900000000000000000e+01 3.864752197265625000e+01 -1.359337615966796875e+01 2.965072344522923231e-04 -1.955065672518685460e-04 3.030019979632925242e-05 6.125923391664400697e-05
2.000000000000000000e+01 3.964688110351562500e+01 -1.331229019165039062e+01 2.439097443129867315e-04 -4.838400491280481219e-05 5.865771890967153013e-05 -8.775840251473709941e-05
2.100000000000000000e+01 3.772416305541992188e+01 -1.222431468963623047e+01 4.101861122762784362e-05 1.760195009410381317e-04 6.511143146781250834e-05 7.634355279151350260e-05
2.200000000000000000e+01 3.900753402709960938e+01 -1.294683361053466797e+01 1.271283836103975773e-04 1.327698118984699249e-04 7.796946010785177350e-05 -2.710598528210539371e-05
2.300000000000000000e+01 4.088659667968750000e+01 -1.412661933898925781e+01 3.692476602736860514e-04 6.079655213397927582e-05 1.290132640860974789e-04 -2.145175822079181671e-04
2.400000000000000000e+01 4.108477783203125000e+01 -1.516452312469482422e+01 3.489140653982758522e-04 -9.368719474878162146e-05 7.656805973965674639e-05 -1.918178750202059746e-04
2.500000000000000000e+01 3.987519454956054688e+01 -1.433080673217773438e+01 3.420171560719609261e-04 -1.552575849927961826e-04 5.602787132374942303e-05 -4.771798194269649684e-05
2.600000000000000000e+01 4.168745040893554688e+01 -1.558723735809326172e+01 4.106717824470251799e-04 8.698663441464304924e-05 1.492975279688835144e-04 -7.585006096633151174e-05
2.700000000000000000e+01 4.210943603515625000e+01 -1.497935009002685547e+01 4.549302102532237768e-04 1.001462733256630599e-04 1.665229356149211526e-04 -3.745569556485861540e-04
2.800000000000000000e+01 4.149871826171875000e+01 -1.455105972290039062e+01 4.586874565575271845e-04 1.818338932935148478e-04 1.921564107760787010e-04 -2.141388540621846914e-04
2.900000000000000000e+01 4.048069763183593750e+01 -1.474565982818603516e+01 3.323304117657244205e-04 8.961011189967393875e-06 1.023874210659414530e-04 -5.529995905817486346e-05
3.000000000000000000e+01 4.027304840087890625e+01 -1.370619010925292969e+01 2.691427071113139391e-04 8.815229375613853335e-05 1.071885053534060717e-04 -1.309561048401519656e-04
3.100000000000000000e+01 4.393293762207031250e+01 -1.628159904479980469e+01 5.261264741420745850e-04 4.384803469292819500e-04 2.893820346798747778e-04 -2.635631826706230640e-04
3.200000000000000000e+01 4.349453735351562500e+01 -1.687784004211425781e+01 2.034888166235759854e-04 -5.380370566854253411e-05 4.490553328651003540e-05 -4.297850246075540781e-04
3.300000000000000000e+01 4.454083633422851562e+01 -1.671368789672851562e+01 2.946282911580055952e-04 1.041104042087681592e-04 1.196216107928194106e-04 -4.693715600296854973e-04
3.400000000000000000e+01 4.332546997070312500e+01 -1.584721183776855469e+01 4.701372236013412476e-04 1.066145414370112121e-04 1.730255316942930222e-04 -4.879987391177564859e-04
3.500000000000000000e+01 4.228987503051757812e+01 -1.601399040222167969e+01 3.176064928993582726e-04 -6.038325955159962177e-05 7.716696563875302672e-05 -3.419799904804676771e-04
3.600000000000000000e+01 4.271836471557617188e+01 -1.541066265106201172e+01 5.706012016162276268e-04 3.270137822255492210e-04 2.692845009732991457e-04 -2.550297649577260017e-04
3.700000000000000000e+01 4.409748458862304688e+01 -1.730638694763183594e+01 1.574447232997044921e-04 4.670240741688758135e-04 1.873406436061486602e-04 -1.581044489284977317e-04
3.800000000000000000e+01 4.289202880859375000e+01 -1.644699668884277344e+01 3.163719666190445423e-04 2.610072260722517967e-04 1.732137607177719474e-04 -9.017747652251273394e-05
3.900000000000000000e+01 4.547533798217773438e+01 -1.835840034484863281e+01 2.691857225727289915e-04 6.072287214919924736e-04 2.629243244882673025e-04 -4.565123526845127344e-04
4.000000000000000000e+01 4.592621231079101562e+01 -1.777148628234863281e+01 -7.299804710783064365e-04 6.165711965877562761e-05 -2.004970010602846742e-04 -2.448467712383717299e-04
4.100000000000000000e+01 4.477213668823242188e+01 -1.781250190734863281e+01 -1.272553927265107632e-04 1.372585247736424208e-04 3.000940978381549940e-06 -3.759360988624393940e-04
4.200000000000000000e+01 4.521964645385742188e+01 -1.722290992736816406e+01 3.283162368461489677e-04 3.950256214011460543e-04 2.170025545638054609e-04 -1.562899706186726689e-04
4.300000000000000000e+01 4.605035400390625000e+01 -1.858536338806152344e+01 6.841995054855942726e-04 6.539775058627128601e-04 4.014531150460243225e-04 1.763028121786192060e-04
4.400000000000000000e+01 4.658209228515625000e+01 -1.637586402893066406e+01 -5.066667199134826660e-01 5.020448565483093262e-02 -1.369386762380599976e-01 -6.361185014247894287e-02
4.500000000000000000e+01 4.631165695190429688e+01 -1.710632896423339844e+01 -5.702791363000869751e-02 -1.076229102909564972e-02 -2.033706195652484894e-02 4.429890774190425873e-03
4.600000000000000000e+01 4.698057174682617188e+01 -1.691733360290527344e+01 -9.947408735752105713e-02 4.552828613668680191e-03 -2.847637794911861420e-02 -3.886235877871513367e-02
4.700000000000000000e+01 4.604409027099609375e+01 -1.595431995391845703e+01 -5.893912911415100098e-01 1.339225769042968750e-01 -1.366406232118606567e-01 1.296548098325729370e-01
4.800000000000000000e+01 4.565672302246093750e+01 -1.659176063537597656e+01 -2.652863860130310059e-01 3.702342277392745018e-03 -7.847520709037780762e-02 5.092685669660568237e-02
4.900000000000000000e+01 4.378240203857421875e+01 -1.521486091613769531e+01 -6.438160538673400879e-01 -2.007409036159515381e-01 -2.533670663833618164e-01 4.055528938770294189e-01
5.000000000000000000e+01 4.483348846435546875e+01 -1.505673217773437500e+01 -6.771913170814514160e-01 3.666301816701889038e-02 -1.921584904193878174e-01 2.767167687416076660e-01
5.100000000000000000e+01 4.545152282714843750e+01 -1.549620914459228516e+01 -6.427231431007385254e-01 8.569382876157760620e-02 -1.671088039875030518e-01 1.953708827495574951e-01
5.200000000000000000e+01 4.359851455688476562e+01 -1.417135810852050781e+01 -7.136989235877990723e-01 -1.211109682917594910e-01 -2.504429817199707031e-01 3.913730680942535400e-01
5.300000000000000000e+01 4.317002487182617188e+01 -1.477468585968017578e+01 -7.327539324760437012e-01 -2.951121032238006592e-01 -3.083598017692565918e-01 4.513754248619079590e-01
5.400000000000000000e+01 4.500817108154296875e+01 -1.608890724182128906e+01 -4.272400140762329102e-01 -2.621359750628471375e-02 -1.360360831022262573e-01 2.221854180097579956e-01
5.500000000000000000e+01 4.421584320068359375e+01 -1.461507511138916016e+01 -7.077867388725280762e-01 -7.603875547647476196e-02 -2.351476550102233887e-01 3.297766149044036865e-01
5.600000000000000000e+01 4.439509201049804688e+01 -1.565297508239746094e+01 -5.641449093818664551e-01 -1.676209270954132080e-01 -2.195297479629516602e-01 2.958104312419891357e-01
5.700000000000000000e+01 4.131310272216796875e+01 -1.347806453704833984e+01 -8.146952390670776367e-01 -3.571415841579437256e-01 -3.515510559082031250e-01 5.603780746459960938e-01
5.800000000000000000e+01 4.193373489379882812e+01 -1.390832901000976562e+01 -8.088738322257995605e-01 -3.604957461357116699e-01 -3.508108854293823242e-01 5.277809500694274902e-01
5.900000000000000000e+01 4.297583389282226562e+01 -1.373159217834472656e+01 -7.203540205955505371e-01 -2.113259434700012207e-01 -2.795040011405944824e-01 4.183405339717864990e-01
6.000000000000000000e+01 4.108984756469726562e+01 -1.242412281036376953e+01 -6.625236272811889648e-01 -3.034301698207855225e-01 -2.897861301898956299e-01 4.561798870563507080e-01
6.100000000000000000e+01 4.069198989868164062e+01 -1.304873943328857422e+01 -8.569681644439697266e-01 -3.925128877162933350e-01 -3.748443126678466797e-01 5.513550639152526855e-01
6.200000000000000000e+01 4.171900177001953125e+01 -1.285902404785156250e+01 -7.070894241333007812e-01 -2.955254316329956055e-01 -3.007844686508178711e-01 4.581631720066070557e-01
6.300000000000000000e+01 4.255384826660156250e+01 -1.433948040008544922e+01 -7.727832198143005371e-01 -3.078402876853942871e-01 -3.241870403289794922e-01 5.152171254158020020e-01
6.400000000000000000e+01 4.234767913818359375e+01 -1.329486465454101562e+01 -7.067111730575561523e-01 -2.381939142942428589e-01 -2.834715247154235840e-01 4.594942629337310791e-01
6.500000000000000000e+01 3.905907440185546875e+01 -1.123355197906494141e+01 -5.253740549087524414e-01 -3.047624230384826660e-01 -2.490409314632415771e-01 3.984935581684112549e-01
6.600000000000000000e+01 3.974638366699218750e+01 -1.162254619598388672e+01 -5.697180628776550293e-01 -3.156845569610595703e-01 -2.656207680702209473e-01 4.456252157688140869e-01
6.700000000000000000e+01 3.805582809448242188e+01 -1.151677036285400391e+01 -6.857568621635437012e-01 -2.627388834953308105e-01 -2.845487296581268311e-01 3.913533985614776611e-01
6.800000000000000000e+01 3.938637542724609375e+01 -1.226908969879150391e+01 -7.814755439758300781e-01 -3.029296994209289551e-01 -3.253215551376342773e-01 4.739832282066345215e-01
6.900000000000000000e+01 4.004990386962890625e+01 -1.264503097534179688e+01 -8.443520665168762207e-01 -3.371055424213409424e-01 -3.544372916221618652e-01 5.320050120353698730e-01
7.000000000000000000e+01 4.043246459960937500e+01 -1.201124572753906250e+01 -6.129721403121948242e-01 -3.462305963039398193e-01 -2.877608239650726318e-01 4.425261318683624268e-01
7.100000000000000000e+01 3.837077713012695312e+01 -1.084462738037109375e+01 -4.346243143081665039e-01 -2.807485461235046387e-01 -2.146118581295013428e-01 3.564839661121368408e-01
7.200000000000000000e+01 3.872161483764648438e+01 -1.189285373687744141e+01 -7.126984000205993652e-01 -2.621596157550811768e-01 -2.924574017524719238e-01 4.463927149772644043e-01
7.300000000000000000e+01 3.040731620788574219e+01 -8.138908386230468750e+00 1.268340706825256348e+00 1.106578037142753601e-01 4.136995673179626465e-01 -2.247750572860240936e-02
7.400000000000000000e+01 2.965105247497558594e+01 -8.226272583007812500e+00 1.990060448646545410e+00 1.227064505219459534e-01 6.338300704956054688e-01 -2.540111914277076721e-02
7.500000000000000000e+01 2.530256843566894531e+01 -2.627530574798583984e+00 -9.427112936973571777e-01 -5.760977044701576233e-02 -3.000963330268859863e-01 8.207187987864017487e-03
7.600000000000000000e+01 2.207398223876953125e+01 -1.460761547088623047e+00 -1.124969482421875000e+00 2.118753343820571899e-01 -2.739282548427581787e-01 1.347045749425888062e-01
7.700000000000000000e+01 2.119508361816406250e+01 -1.060438394546508789e+00 -1.222327351570129395e+00 1.029037833213806152e-01 -3.358270823955535889e-01 6.993421167135238647e-02
7.800000000000000000e+01 1.808229255676269531e+01 -1.583938479423522949e+00 -1.342253923416137695e+00 -5.454377736896276474e-03 -4.043124914169311523e-01 -6.815518438816070557e-02
7.900000000000000000e+01 1.886005210876464844e+01 -1.504484534263610840e+00 -1.318319916725158691e+00 8.668911643326282501e-03 -3.928953111171722412e-01 -3.869206458330154419e-02
8.000000000000000000e+01 1.505525875091552734e+01 -2.554195880889892578e+00 -1.075268387794494629e+00 3.545294329524040222e-02 -3.119446337223052979e-01 -1.920400857925415039e-01
8.100000000000000000e+01 1.574933815002441406e+01 -1.753220438957214355e+00 -1.342575311660766602e+00 -5.571296787820756435e-04 -4.029397368431091309e-01 -1.534622609615325928e-01
8.200000000000000000e+01 1.590841293334960938e+01 -8.787983894348144531e+00 4.214632809162139893e-01 6.682240366935729980e-01 3.269062042236328125e-01 8.469110727310180664e-02
8.300000000000000000e+01 1.638002777099609375e+01 -1.279007053375244141e+01 1.718126893043518066e+00 1.479019880294799805e+00 9.591439962387084961e-01 1.268586158752441406e+00
8.400000000000000000e+01 1.688135337829589844e+01 -1.158524608612060547e+01 1.683835148811340332e+00 1.097964525222778320e+00 8.345399498939514160e-01 8.227366209030151367e-01
8.500000000000000000e+01 1.446287250518798828e+01 -1.076985454559326172e+01 7.294260859489440918e-01 9.217367172241210938e-01 4.953488409519195557e-01 1.216325834393501282e-01
8.600000000000000000e+01 1.946625709533691406e+01 -1.029952335357666016e+01 1.386695384979248047e+00 3.839677572250366211e-01 5.311989188194274902e-01 6.919708251953125000e-01
8.700000000000000000e+01 2.037527656555175781e+01 -7.083289146423339844e+00 4.174102246761322021e-01 2.212743610143661499e-01 1.916053742170333862e-01 3.501801788806915283e-01
8.800000000000000000e+01 1.964211463928222656e+01 -1.383768677711486816e+00 -1.293638110160827637e+00 2.891258709132671356e-02 -3.794176280498504639e-01 -6.652839016169309616e-03
8.900000000000000000e+01 1.898742485046386719e+01 -2.283554077148437500e+00 -1.073400378227233887e+00 5.217650905251502991e-02 -3.063671588897705078e-01 1.687206886708736420e-02
9.000000000000000000e+01 3.170719146728515625e+01 -7.857247829437255859e+00 7.029606699943542480e-01 -1.047151833772659302e-01 1.794736534357070923e-01 2.148566544055938721e-01
9.100000000000000000e+01 3.102264595031738281e+01 -7.888524532318115234e+00 8.738822340965270996e-01 -7.423817366361618042e-02 2.398932129144668579e-01 2.116360515356063843e-01
9.200000000000000000e+01 3.336183547973632812e+01 -7.743365764617919922e+00 3.640418946743011475e-01 -2.018515467643737793e-01 4.865710437297821045e-02 2.855727374553680420e-01
9.300000000000000000e+01 3.551796340942382812e+01 -9.026786804199218750e+00 3.701831027865409851e-02 -2.019768953323364258e-01 -4.948757588863372803e-02 2.644717097282409668e-01
9.400000000000000000e+01 3.630366516113281250e+01 -9.243790626525878906e+00 -3.642685338854789734e-02 -2.259142398834228516e-01 -7.870233058929443359e-02 3.052759468555450439e-01
9.500000000000000000e+01 3.944415664672851562e+01 -1.052565860748291016e+01 -3.153196275234222412e-01 -3.189894855022430420e-01 -1.902927309274673462e-01 3.849432766437530518e-01
9.600000000000000000e+01 4.054583358764648438e+01 -1.029329299926757812e+01 -2.413158714771270752e-01 -2.961674034595489502e-01 -1.612449884414672852e-01 3.717656731605529785e-01
9.700000000000000000e+01 4.209952163696289062e+01 -1.222391796112060547e+01 -5.655105710029602051e-01 -2.147556692361831665e-01 -2.340798825025558472e-01 4.105692207813262939e-01
9.800000000000000000e+01 4.464547729492187500e+01 -1.394203376770019531e+01 -7.219284176826477051e-01 5.628705024719238281e-02 -1.996923983097076416e-01 3.268955945968627930e-01
9.900000000000000000e+01 4.706315612792968750e+01 -1.445387554168701172e+01 -9.065583348274230957e-01 2.433244585990905762e-01 -1.989701688289642334e-01 2.348469942808151245e-01
1.000000000000000000e+02 4.711554336547851562e+01 -1.566988658905029297e+01 -8.489707112312316895e-01 1.941446959972381592e-01 -1.964478045701980591e-01 8.614660799503326416e-02
1.010000000000000000e+02 4.776457214355468750e+01 -1.406038379669189453e+01 -1.019320011138916016e+00 1.544222533702850342e-01 -2.594693303108215332e-01 2.825965583324432373e-01
1.020000000000000000e+02 4.780131149291992188e+01 -1.611744499206542969e+01 -8.117403984069824219e-01 -7.495000213384628296e-02 -2.660071253776550293e-01 -2.209517210721969604e-01
1.030000000000000000e+02 4.871378326416015625e+01 -1.304266166687011719e+01 -8.884277939796447754e-01 1.856739521026611328e-01 -2.108261585235595703e-01 3.042848408222198486e-01
1.040000000000000000e+02 4.950555038452148438e+01 -1.530237865447998047e+01 -1.595896601676940918e+00 -4.629344120621681213e-02 -4.926570355892181396e-01 -1.585772484540939331e-01
1.050000000000000000e+02 5.075194168090820312e+01 -1.517473125457763672e+01 -1.769848585128784180e+00 1.802773401141166687e-02 -5.255462527275085449e-01 -1.788315474987030029e-01
1.060000000000000000e+02 5.075499343872070312e+01 -1.407109260559082031e+01 -1.423652052879333496e+00 5.540398135781288147e-02 -4.104744195938110352e-01 -1.570385135710239410e-02
1.070000000000000000e+02 5.211594772338867188e+01 -9.576994895935058594e+00 -1.133440062403678894e-01 4.876811206340789795e-01 1.123011335730552673e-01 2.021951377391815186e-01
1.080000000000000000e+02 5.227513122558593750e+01 -4.844410896301269531e+00 2.489844083786010742e+00 1.083679676055908203e+00 1.072057127952575684e+00 1.299250841140747070e+00
1.090000000000000000e+02 4.881924057006835938e+01 -5.460538864135742188e+00 2.019095659255981445e+00 1.585732400417327881e-01 6.533006429672241211e-01 4.758645780384540558e-03
1.100000000000000000e+02 4.986009979248046875e+01 -6.240192413330078125e+00 1.854283094406127930e+00 3.967904150485992432e-01 6.753220558166503906e-01 3.760374486446380615e-01
1.110000000000000000e+02 4.628507232666015625e+01 -4.599906921386718750e+00 1.099089503288269043e+00 7.315578311681747437e-02 3.516736030578613281e-01 -2.365561425685882568e-01
1.120000000000000000e+02 4.369043731689453125e+01 -3.775294542312622070e+00 7.807714343070983887e-01 7.582174986600875854e-02 2.569779455661773682e-01 -1.954071968793869019e-01
1.130000000000000000e+02 4.011978530883789062e+01 -2.958304643630981445e+00 2.703748643398284912e-01 -1.028446704149246216e-01 5.025905743241310120e-02 2.492049522697925568e-02
1.140000000000000000e+02 3.654898452758789062e+01 -1.118704080581665039e+00 -7.448442280292510986e-02 -1.019648555666208267e-02 -2.540427073836326599e-02 8.675500750541687012e-02
1.150000000000000000e+02 3.504207229614257812e+01 -1.278210163116455078e+00 -2.534163892269134521e-01 2.808381803333759308e-02 -6.759976595640182495e-02 1.426007449626922607e-01
1.160000000000000000e+02 3.419797515869140625e+01 -2.906918048858642578e+00 -1.776154637336730957e-01 -8.531174063682556152e-02 -7.887815684080123901e-02 3.948656916618347168e-01
1.170000000000000000e+02 3.561353683471679688e+01 -8.295139312744140625e+00 1.198971346020698547e-01 -2.349615395069122314e-01 -3.451932221651077271e-02 3.207493722438812256e-01
1.180000000000000000e+02 4.196432876586914062e+01 -7.937365055084228516e+00 2.011855691671371460e-01 -2.126842886209487915e-01 -3.449617652222514153e-03 3.070963919162750244e-01
1.190000000000000000e+02 4.120966720581054688e+01 -7.424344062805175781e+00 2.412138730287551880e-01 -2.359732240438461304e-01 1.572193810716271400e-03 2.909481525421142578e-01
1.200000000000000000e+02 4.527839660644531250e+01 -6.445712089538574219e+00 7.946703433990478516e-01 -2.329586260020732880e-02 2.314123511314392090e-01 1.526451259851455688e-01
1.210000000000000000e+02 4.282561492919921875e+01 -1.091574859619140625e+01 -3.099936842918395996e-01 -1.281871944665908813e-01 -1.314542591571807861e-01 3.757441341876983643e-01
1.220000000000000000e+02 4.146299743652343750e+01 -1.179094791412353516e+01 -5.120030045509338379e-01 -2.812935411930084229e-01 -2.379889637231826782e-01 4.056009054183959961e-01
1.230000000000000000e+02 3.396846008300781250e+01 -8.562423706054687500e+00 2.091284245252609253e-01 -1.727313697338104248e-01 1.091911550611257553e-02 2.075303047895431519e-01
1.240000000000000000e+02 5.334584045410156250e+01 -1.483286666870117188e+01 -2.051214456558227539e+00 -2.558866515755653381e-02 -6.230409145355224609e-01 -2.232217639684677124e-01
1.250000000000000000e+02 5.399983978271484375e+01 -1.139385509490966797e+01 -7.705250382423400879e-01 2.023393213748931885e-01 -1.704557090997695923e-01 -9.071166813373565674e-02
1.260000000000000000e+02 5.598756790161132812e+01 -1.451254940032958984e+01 -1.898213982582092285e+00 -2.514751441776752472e-02 -5.770084261894226074e-01 -2.531508207321166992e-01
1.270000000000000000e+02 5.736071395874023438e+01 -1.051597499847412109e+01 -6.605114340782165527e-01 1.553270667791366577e-01 -1.515553146600723267e-01 -2.843245863914489746e-01
1.280000000000000000e+02 5.672054672241210938e+01 -6.171530723571777344e+00 5.617384314537048340e-01 3.699566125869750977e-01 2.795085310935974121e-01 1.449682563543319702e-01
1.290000000000000000e+02 5.539235687255859375e+01 -1.988632440567016602e+00 1.054041624069213867e+00 1.136921286582946777e+00 6.572888493537902832e-01 1.045700788497924805e+00
1.300000000000000000e+02 5.764453125000000000e+01 -5.475081801414489746e-01 7.721152305603027344e-01 1.048704028129577637e+00 5.462458133697509766e-01 7.772706747055053711e-01
1.310000000000000000e+02 5.863452911376953125e+01 2.987204074859619141e+00 5.960854887962341309e-01 1.092420220375061035e+00 5.065516829490661621e-01 7.999065518379211426e-01
1.320000000000000000e+02 5.797518157958984375e+01 1.918422818183898926e+00 4.697768092155456543e-01 1.087907433509826660e+00 4.673052728176116943e-01 7.634627223014831543e-01
1.330000000000000000e+02 5.730560302734375000e+01 -1.433843517303466797e+01 -1.702883005142211914e+00 -1.000412832945585251e-02 -5.138661265373229980e-01 -2.775466740131378174e-01
1.340000000000000000e+02 6.107175827026367188e+01 -1.336022567749023438e+01 -1.363805651664733887e+00 -2.379008829593658447e-01 -4.805119335651397705e-01 -5.885267257690429688e-01
1.350000000000000000e+02 6.221717834472656250e+01 -1.280417728424072266e+01 -1.615254163742065430e+00 -3.228604793548583984e-01 -5.814344286918640137e-01 -7.607303857803344727e-01
1.360000000000000000e+02 6.332225418090820312e+01 -1.222871017456054688e+01 -2.137195825576782227e+00 -3.891558647155761719e-01 -7.579055428504943848e-01 -5.562801361083984375e-01
1.370000000000000000e+02 6.425163269042968750e+01 -1.146839523315429688e+01 -1.665451407432556152e+00 -4.867511093616485596e-01 -6.456607580184936523e-01 -3.086708188056945801e-01
1.380000000000000000e+02 6.534532928466796875e+01 -1.231727600097656250e+01 -1.491687655448913574e+00 -2.115187793970108032e-01 -5.109619498252868652e-01 1.221257448196411133e-01
1.390000000000000000e+02 6.878096008300781250e+01 -1.304994773864746094e+01 -3.465675413608551025e-01 5.654093623161315918e-02 -8.700798451900482178e-02 7.404263596981763840e-03
1.400000000000000000e+02 6.917586517333984375e+01 -1.391161441802978516e+01 -2.236697971820831299e-01 3.402073308825492859e-02 -5.689471960067749023e-02 2.644180133938789368e-02
1.410000000000000000e+02 7.047167205810546875e+01 -1.459327030181884766e+01 -1.438415497541427612e-01 9.419315494596958160e-03 -4.032666981220245361e-02 -1.268901047296822071e-03
1.420000000000000000e+02 7.200812530517578125e+01 -1.448375415802001953e+01 -1.150036528706550598e-01 8.464894257485866547e-03 -3.196162730455398560e-02 -2.298397384583950043e-02
1.430000000000000000e+02 7.433962249755859375e+01 -1.441715431213378906e+01 -7.024139910936355591e-02 -1.595172798261046410e-03 -2.155097201466560364e-02 -2.998732775449752808e-02
1.440000000000000000e+02 7.548693847656250000e+01 -1.049201488494873047e+01 -1.041408106684684753e-01 -6.582652032375335693e-02 -5.099020153284072876e-02 -1.453107297420501709e-01
1.450000000000000000e+02 7.453969573974609375e+01 -5.603362560272216797e+00 -5.766955018043518066e-02 -2.109798640012741089e-01 -8.059482276439666748e-02 -3.340624868869781494e-01
1.460000000000000000e+02 7.588934326171875000e+01 -4.375052452087402344e+00 -2.028311043977737427e-02 -3.235400915145874023e-01 -1.031469628214836121e-01 -2.891984283924102783e-01
1.470000000000000000e+02 7.469950866699218750e+01 -4.832365512847900391e-01 3.056697919964790344e-02 -4.072991907596588135e-01 -1.130196675658226013e-01 -3.288467228412628174e-01
1.480000000000000000e+02 7.576813507080078125e+01 9.613600373268127441e-01 3.336264565587043762e-02 -5.535793304443359375e-01 -1.560650169849395752e-01 -2.759378254413604736e-01
1.490000000000000000e+02 7.444580078125000000e+01 6.426564216613769531e+00 8.531610667705535889e-02 -5.336264371871948242e-01 -1.344930976629257202e-01 -1.999263763427734375e-01
1.500000000000000000e+02 7.573258209228515625e+01 9.201415061950683594e+00 6.358282268047332764e-02 -7.745385169982910156e-01 -2.132866978645324707e-01 -1.099603027105331421e-01
1.510000000000000000e+02 7.426728820800781250e+01 1.312278079986572266e+01 9.823970496654510498e-02 -5.574040412902832031e-01 -1.377493143081665039e-01 -9.347069077193737030e-03
1.520000000000000000e+02 7.389106750488281250e+01 1.592635726928710938e+01 1.119691655039787292e-01 -4.730305373668670654e-01 -1.083184108138084412e-01 7.118386030197143555e-02
1.530000000000000000e+02 7.546837615966796875e+01 2.173703193664550781e+01 3.795402869582176208e-02 -6.741841435432434082e-01 -1.908690333366394043e-01 1.804912537336349487e-01
1.540000000000000000e+02 7.429026794433593750e+01 2.399197006225585938e+01 2.486264146864414215e-02 -4.774822890758514404e-01 -1.357858926057815552e-01 2.239122390747070312e-01
1.550000000000000000e+02 7.384650421142578125e+01 2.832867240905761719e+01 -3.399026766419410706e-02 -3.384208679199218750e-01 -1.117233410477638245e-01 2.256341427564620972e-01
1.560000000000000000e+02 7.427378082275390625e+01 3.076408195495605469e+01 -4.772059991955757141e-02 -3.228832185268402100e-01 -1.111811473965644836e-01 1.943935602903366089e-01
1.570000000000000000e+02 7.287509155273437500e+01 3.332416534423828125e+01 -8.047423511743545532e-02 -1.882057040929794312e-01 -8.060398697853088379e-02 1.605918556451797485e-01
1.580000000000000000e+02 7.315635681152343750e+01 3.764534378051757812e+01 -7.926259189844131470e-02 -1.838258802890777588e-01 -7.892654091119766235e-02 8.501783758401870728e-02
1.590000000000000000e+02 7.168148803710937500e+01 4.105174636840820312e+01 -9.930326789617538452e-02 -1.234953254461288452e-01 -6.683957576751708984e-02 2.386826835572719574e-02
1.600000000000000000e+02 6.959117889404296875e+01 3.537101745605468750e+01 -1.381945610046386719e-01 2.722355164587497711e-02 -3.329130262136459351e-02 1.171949505805969238e-01
1.610000000000000000e+02 6.826868438720703125e+01 3.022908020019531250e+01 -1.308960318565368652e-01 1.989224553108215332e-01 2.040792815387248993e-02 1.779175251722335815e-01
1.620000000000000000e+02 7.248570251464843750e+01 2.719592094421386719e+01 -3.595216572284698486e-02 -2.036592662334442139e-01 -7.188342511653900146e-02 2.497302740812301636e-01
1.630000000000000000e+02 7.318323516845703125e+01 2.397051811218261719e+01 2.964152768254280090e-02 -2.861887514591217041e-01 -7.696416974067687988e-02 2.540472745895385742e-01
1.640000000000000000e+02 7.011164855957031250e+01 1.975764846801757812e+01 1.811282485723495483e-01 1.434794813394546509e-01 9.738231450319290161e-02 1.736053973436355591e-01
1.650000000000000000e+02 6.997657775878906250e+01 1.668568611145019531e+01 2.313400357961654663e-01 2.008080482482910156e-01 1.296444237232208252e-01 7.478465139865875244e-02
1.660000000000000000e+02 7.102130889892578125e+01 1.228923320770263672e+01 1.999009400606155396e-01 4.932054504752159119e-02 7.476644217967987061e-02 -5.208462104201316833e-02
1.670000000000000000e+02 7.170523834228515625e+01 1.113673591613769531e+01 1.808201819658279419e-01 -8.902387320995330811e-02 2.753889560699462891e-02 -7.789930701255798340e-02
1.680000000000000000e+02 7.305329895019531250e+01 5.101592063903808594e+00 1.157476082444190979e-01 -3.276923894882202148e-01 -6.358342617750167847e-02 -2.397118657827377319e-01
1.690000000000000000e+02 7.306074523925781250e+01 1.830700159072875977e+00 8.539602905511856079e-02 -3.038073480129241943e-01 -6.552339345216751099e-02 -3.218054771423339844e-01
1.700000000000000000e+02 7.243647003173828125e+01 -7.838531732559204102e-01 5.989266186952590942e-02 -2.220942527055740356e-01 -4.866047576069831848e-02 -3.856157958507537842e-01
1.710000000000000000e+02 7.065116119384765625e+01 -3.865310192108154297e+00 -1.364276092499494553e-02 -9.913917630910873413e-02 -3.383458033204078674e-02 -4.376862943172454834e-01
1.720000000000000000e+02 7.167317962646484375e+01 -7.009580135345458984e+00 -1.647352129220962524e-01 -7.409079372882843018e-02 -7.164780050516128540e-02 -3.864293396472930908e-01
1.730000000000000000e+02 7.006799316406250000e+01 -1.138617610931396484e+01 -4.521292448043823242e-01 8.851685374975204468e-02 -1.090837195515632629e-01 -1.758226603269577026e-01
1.740000000000000000e+02 7.148749542236328125e+01 -1.099149322509765625e+01 -3.276394605636596680e-01 4.768099635839462280e-02 -8.398753404617309570e-02 -1.958787590265274048e-01
1.750000000000000000e+02 7.497728729248046875e+01 -1.131218147277832031e+01 -1.062994748353958130e-01 -3.671970590949058533e-02 -4.290575534105300903e-02 -1.226212084293365479e-01
1.760000000000000000e+02 6.906580352783203125e+01 -1.469536018371582031e+01 -1.541924476623535156e-01 5.806655157357454300e-03 -4.451573640108108521e-02 3.001301735639572144e-02
1.770000000000000000e+02 7.511577606201171875e+01 -1.443165779113769531e+01 -5.485097318887710571e-02 -4.125009290874004364e-03 -1.769279502332210541e-02 -3.028211183845996857e-02
1.780000000000000000e+02 7.863527679443359375e+01 -1.318036174774169922e+01 -1.050596684217453003e-02 -1.953167654573917389e-02 -9.011293761432170868e-03 -1.376921497285366058e-02
1.790000000000000000e+02 7.942837524414062500e+01 -8.620847702026367188e+00 -1.508345128968358040e-03 -1.485266089439392090e-01 -4.501048475503921509e-02 -3.262453898787498474e-02
1.800000000000000000e+02 7.942566680908203125e+01 -1.001269149780273438e+01 -4.147627390921115875e-03 -7.764277607202529907e-02 -2.453712001442909241e-02 -2.541688084602355957e-02
1.810000000000000000e+02 7.942569732666015625e+01 -5.847261428833007812e+00 -8.031932520680129528e-05 -3.456159830093383789e-01 -1.037088930606842041e-01 -4.661968722939491272e-02
1.820000000000000000e+02 7.707373046875000000e+01 -5.743536472320556641e+00 -1.997602172195911407e-02 -3.011771738529205322e-01 -9.634595364332199097e-02 -2.089944779872894287e-01
1.830000000000000000e+02 7.941532135009765625e+01 -1.669722437858581543e+00 -3.025210462510585785e-04 -7.219414114952087402e-01 -2.166731804609298706e-01 -5.265495181083679199e-02
1.840000000000000000e+02 7.822497558593750000e+01 -2.971717715263366699e-01 4.610226023942232132e-03 -7.303210496902465820e-01 -2.177132517099380493e-01 -1.479002386331558228e-01
1.850000000000000000e+02 7.691757202148437500e+01 5.158825874328613281e+00 2.784777618944644928e-02 -8.682973384857177734e-01 -2.521348595619201660e-01 -1.636966168880462646e-01
1.860000000000000000e+02 7.816226196289062500e+01 5.233875751495361328e+00 1.125962566584348679e-02 -1.067312479019165039e+00 -3.168158531188964844e-01 -1.066908985376358032e-01
1.870000000000000000e+02 7.815082550048828125e+01 1.080578708648681641e+01 1.435100007802248001e-02 -1.257119774818420410e+00 -3.728306293487548828e-01 -3.657779470086097717e-02
1.880000000000000000e+02 7.935853576660156250e+01 1.510930061340332031e+01 2.248884877189993858e-03 -1.534263134002685547e+00 -4.596042633056640625e-01 9.002934210002422333e-03
1.890000000000000000e+02 7.803058624267578125e+01 1.779810142517089844e+01 1.565986685454845428e-02 -1.207406163215637207e+00 -3.575238883495330811e-01 6.155281886458396912e-02
1.900000000000000000e+02 7.805877685546875000e+01 2.195555114746093750e+01 7.073206827044487000e-03 -1.066470503807067871e+00 -3.178191781044006348e-01 1.015788987278938293e-01
1.910000000000000000e+02 7.797635650634765625e+01 2.473232650756835938e+01 -4.426969680935144424e-04 -9.234684705734252930e-01 -2.771733403205871582e-01 1.157956644892692566e-01
1.920000000000000000e+02 7.771722412109375000e+01 2.891866874694824219e+01 -1.218743040226399899e-03 -7.132704854011535645e-01 -2.143467664718627930e-01 1.187716573476791382e-01
1.930000000000000000e+02 7.730944824218750000e+01 3.179792594909667969e+01 -1.432151068001985550e-02 -5.696587562561035156e-01 -1.751940846443176270e-01 1.082580462098121643e-01
1.940000000000000000e+02 7.911713409423828125e+01 3.618269348144531250e+01 -8.498711511492729187e-03 -5.355054140090942383e-01 -1.632012426853179932e-01 2.345292270183563232e-02
1.950000000000000000e+02 7.791484069824218750e+01 3.782788848876953125e+01 -4.737142007797956467e-03 -4.436570107936859131e-01 -1.345182359218597412e-01 5.049811303615570068e-02
1.960000000000000000e+02 7.796450805664062500e+01 4.160817718505859375e+01 -2.693438157439231873e-02 -4.155698716640472412e-01 -1.327512711286544800e-01 7.579221390187740326e-03
1.970000000000000000e+02 6.720460510253906250e+01 4.120553588867187500e+01 -1.728566735982894897e-01 1.079114675521850586e-01 -1.948356255888938904e-02 1.311751361936330795e-02
1.980000000000000000e+02 6.665567016601562500e+01 3.848008728027343750e+01 -1.783552169799804688e-01 1.433345675468444824e-01 -1.050619408488273621e-02 4.428080841898918152e-02
1.990000000000000000e+02 6.628351593017578125e+01 3.561237335205078125e+01 -1.837363243103027344e-01 2.030902057886123657e-01 5.806166213005781174e-03 6.889962404966354370e-02
2.000000000000000000e+02 6.612473297119140625e+01 3.028122711181640625e+01 -1.565082818269729614e-01 3.504619002342224121e-01 5.818608403205871582e-02 1.059518083930015564e-01
2.010000000000000000e+02 6.821185302734375000e+01 2.644534873962402344e+01 -5.688975751399993896e-02 3.094688355922698975e-01 7.577372342348098755e-02 2.268382012844085693e-01
2.020000000000000000e+02 6.837365722656250000e+01 2.282963752746582031e+01 1.086895689368247986e-01 3.468251824378967285e-01 1.366544216871261597e-01 2.257695943117141724e-01
2.030000000000000000e+02 6.876835632324218750e+01 2.013093376159667969e+01 2.062107771635055542e-01 3.579958081245422363e-01 1.692619770765304565e-01 1.697514653205871582e-01
2.040000000000000000e+02 6.700012969970703125e+01 1.711073112487792969e+01 3.249170780181884766e-01 7.629605531692504883e-01 3.263632953166961670e-01 3.079051710665225983e-02
2.050000000000000000e+02 6.819940185546875000e+01 1.321703147888183594e+01 2.660651206970214844e-01 5.969766974449157715e-01 2.589125633239746094e-01 -2.262944169342517853e-02
2.060000000000000000e+02 6.734686279296875000e+01 1.046740818023681641e+01 2.436044812202453613e-01 7.272183895111083984e-01 2.912468612194061279e-01 -2.899618633091449738e-02
2.070000000000000000e+02 6.755934143066406250e+01 8.748196601867675781e+00 2.569103837013244629e-01 6.250780224800109863e-01 2.645965218544006348e-01 -4.864304512739181519e-02
2.080000000000000000e+02 6.768473815917968750e+01 5.296288132667541504e-01 2.097121328115463257e-01 1.931159645318984985e-01 1.208484247326850891e-01 -2.529621422290802002e-01
2.090000000000000000e+02 6.716154479980468750e+01 -5.244128227233886719e+00 -3.680047765374183655e-02 -3.538167104125022888e-02 -2.165464498102664948e-02 -4.356556236743927002e-01
2.100000000000000000e+02 6.765747833251953125e+01 -7.697276115417480469e+00 -3.197312653064727783e-01 -4.866843670606613159e-02 -1.105199083685874939e-01 -4.726620614528656006e-01
2.110000000000000000e+02 6.986219787597656250e+01 -9.916604042053222656e+00 -4.223130643367767334e-01 4.960383847355842590e-02 -1.118127703666687012e-01 -2.999882698059082031e-01
2.120000000000000000e+02 6.645831298828125000e+01 -1.304100131988525391e+01 -4.998615384101867676e-01 -2.751513384282588959e-02 -1.582130044698715210e-01 2.275757044553756714e-01
2.130000000000000000e+02 6.255728149414062500e+01 3.845336151123046875e+01 -1.988559663295745850e-01 2.751769721508026123e-01 2.289630658924579620e-02 -3.945827018469572067e-03
2.140000000000000000e+02 6.267087173461914062e+01 3.539662551879882812e+01 -1.924605071544647217e-01 3.177883327007293701e-01 3.759834170341491699e-02 -7.940900512039661407e-03
2.150000000000000000e+02 6.421875762939453125e+01 2.754140853881835938e+01 -1.153519004583358765e-01 5.798227190971374512e-01 1.393412351608276367e-01 4.178028926253318787e-02
2.160000000000000000e+02 6.202945709228515625e+01 2.102503013610839844e+01 5.615496039390563965e-01 1.393390417098999023e+00 5.864820480346679688e-01 -4.905737936496734619e-01
2.170000000000000000e+02 6.264608764648437500e+01 1.359398269653320312e+01 9.387409687042236328e-02 2.161508321762084961e+00 6.766147613525390625e-01 5.613539367914199829e-02
2.180000000000000000e+02 6.569027709960937500e+01 1.029718112945556641e+01 2.463224530220031738e-01 1.095248460769653320e+00 4.024712741374969482e-01 4.518454149365425110e-02
2.190000000000000000e+02 6.384857940673828125e+01 8.140207290649414062e+00 2.955236136913299561e-01 1.335078716278076172e+00 4.891806840896606445e-01 2.144737243652343750e-01
2.200000000000000000e+02 6.335227203369140625e+01 3.003161191940307617e+00 3.484352827072143555e-01 8.815244436264038086e-01 3.689879179000854492e-01 1.959460228681564331e-01
2.210000000000000000e+02 6.486935424804687500e+01 7.826879620552062988e-01 3.006299138069152832e-01 4.547069072723388672e-01 2.266010493040084839e-01 -4.278753325343132019e-02
2.220000000000000000e+02 6.255562210083007812e+01 -3.529695510864257812e+00 3.142716586589813232e-01 1.861571967601776123e-01 1.501286625862121582e-01 -6.037247553467750549e-02
2.230000000000000000e+02 6.318766021728515625e+01 -9.121016502380371094e+00 -5.341318249702453613e-01 -2.736158370971679688e-01 -2.423242926597595215e-01 -3.149878680706024170e-01
2.240000000000000000e+02 6.600006866455078125e+01 -1.122178363800048828e+01 -1.010444283485412598e+00 -4.810608923435211182e-02 -3.175651133060455322e-01 -4.105242490768432617e-01
2.250000000000000000e+02 6.251108169555664062e+01 4.121414947509765625e+01 -2.003806084394454956e-01 2.573637366294860840e-01 1.709493622183799744e-02 1.744204055285081267e-04
2.260000000000000000e+02 5.848488616943359375e+01 3.825026702880859375e+01 -1.717015951871871948e-01 3.039872348308563232e-01 3.968569263815879822e-02 -4.081188887357711792e-02
2.270000000000000000e+02 5.897750854492187500e+01 3.515473937988281250e+01 -1.638410836458206177e-01 3.434537053108215332e-01 5.388378351926803589e-02 -7.498635351657867432e-02
2.280000000000000000e+02 5.883710861206054688e+01 3.220817565917968750e+01 -1.344639360904693604e-01 3.939843475818634033e-01 7.785613089799880981e-02 -1.214533150196075439e-01
2.290000000000000000e+02 6.033729934692382812e+01 2.924707984924316406e+01 -1.026946976780891418e-01 5.013906955718994141e-01 1.196087971329689026e-01 -1.526820659637451172e-01
2.300000000000000000e+02 5.975715255737304688e+01 2.445108795166015625e+01 1.292765885591506958e-01 7.307254076004028320e-01 2.580005824565887451e-01 -3.859021663665771484e-01
2.310000000000000000e+02 5.914068603515625000e+01 2.210471725463867188e+01 7.388461828231811523e-01 4.545643031597137451e-01 3.580231666564941406e-01 -4.682063460350036621e-01
2.320000000000000000e+02 6.049937820434570312e+01 2.146837234497070312e+01 8.096934556961059570e-01 1.115537762641906738e+00 5.775693655014038086e-01 -6.987084150314331055e-01
2.330000000000000000e+02 6.196073150634765625e+01 1.938842964172363281e+01 6.121332645416259766e-01 1.947657942771911621e+00 7.679373621940612793e-01 -7.419197559356689453e-01
2.340000000000000000e+02 6.233105087280273438e+01 1.806558609008789062e+01 3.121853172779083252e-01 2.368892192840576172e+00 8.043232560157775879e-01 -5.342497825622558594e-01
2.350000000000000000e+02 6.253668975830078125e+01 1.663378906250000000e+01 1.571387648582458496e-01 2.319258213043212891e+00 7.429190874099731445e-01 -2.529456019401550293e-01
2.360000000000000000e+02 6.235716247558593750e+01 1.216016769409179688e+01 6.109355762600898743e-02 2.139246463775634766e+00 6.601020693778991699e-01 1.946702301502227783e-01
2.370000000000000000e+02 6.435378265380859375e+01 1.537765216827392578e+01 2.399412542581558228e-01 1.622900962829589844e+00 5.588526725769042969e-01 -9.609163552522659302e-02
2.380000000000000000e+02 6.209567260742187500e+01 1.078634452819824219e+01 7.051472365856170654e-02 2.156304359436035156e+00 6.680456995964050293e-01 2.903624773025512695e-01
2.390000000000000000e+02 6.288145446777343750e+01 9.283000946044921875e+00 2.033361345529556274e-01 1.743525743484497070e+00 5.840585827827453613e-01 2.961696088314056396e-01
2.400000000000000000e+02 6.154184341430664062e+01 8.112564086914062500e+00 1.577742993831634521e-01 1.937917232513427734e+00 6.287074685096740723e-01 5.318659543991088867e-01
2.410000000000000000e+02 6.129841995239257812e+01 6.835094928741455078e+00 3.262880146503448486e-01 1.853285193443298340e+00 6.538719534873962402e-01 6.311507225036621094e-01
2.420000000000000000e+02 6.039843368530273438e+01 4.723652362823486328e+00 5.537414550781250000e-01 1.523142218589782715e+00 6.230651140213012695e-01 7.857866883277893066e-01
2.430000000000000000e+02 6.140230178833007812e+01 3.350805282592773438e+00 3.786818683147430420e-01 1.130596280097961426e+00 4.527834355831146240e-01 4.272115528583526611e-01
2.440000000000000000e+02 6.219780731201171875e+01 6.126800775527954102e-01 4.309067726135253906e-01 7.055093050003051758e-01 3.409248292446136475e-01 2.708813548088073730e-01
2.450000000000000000e+02 6.119672393798828125e+01 -2.673299312591552734e+00 4.766766428947448730e-01 3.589439392089843750e-01 2.506861686706542969e-01 1.638721823692321777e-01
2.460000000000000000e+02 6.163339614868164062e+01 -1.191162204742431641e+01 -1.484422087669372559e+00 -1.466250568628311157e-01 -4.893141388893127441e-01 -3.827317655086517334e-01
2.470000000000000000e+02 5.783769607543945312e+01 4.113224029541015625e+01 -1.736435443162918091e-01 2.946549057960510254e-01 3.630340844392776489e-02 -1.337744388729333878e-02
2.480000000000000000e+02 5.484355163574218750e+01 3.788110733032226562e+01 -1.248256787657737732e-01 2.762928307056427002e-01 4.544014483690261841e-02 -6.763329356908798218e-02
2.490000000000000000e+02 5.556241226196289062e+01 3.497536849975585938e+01 -1.069403290748596191e-01 2.932714223861694336e-01 5.589932575821876526e-02 -1.093604415655136108e-01
2.500000000000000000e+02 5.587998962402343750e+01 3.214413070678710938e+01 -7.062413543462753296e-02 3.055052459239959717e-01 7.046433538198471069e-02 -1.582628637552261353e-01
2.510000000000000000e+02 5.444584655761718750e+01 2.657876586914062500e+01 1.150781586766242981e-01 1.463830024003982544e-01 7.843834906816482544e-02 -1.914720386266708374e-01
2.520000000000000000e+02 5.788259506225585938e+01 2.486215019226074219e+01 2.233132123947143555e-01 3.713952898979187012e-01 1.784125566482543945e-01 -3.733164668083190918e-01
2.530000000000000000e+02 5.456971740722656250e+01 2.155552482604980469e+01 8.652889728546142578e-02 9.696352295577526093e-03 2.886757440865039825e-02 -4.004327952861785889e-02
2.540000000000000000e+02 5.342432022094726562e+01 4.093369293212890625e+01 -1.155301108956336975e-01 2.477078139781951904e-01 3.965331241488456726e-02 -1.870082877576351166e-02
2.550000000000000000e+02 5.200375747680664062e+01 3.730424880981445312e+01 -8.311844617128372192e-02 2.304179668426513672e-01 4.418985545635223389e-02 -6.759708374738693237e-02
2.560000000000000000e+02 5.248713302612304688e+01 3.470231628417968750e+01 -6.082229688763618469e-02 2.251614779233932495e-01 4.930175468325614929e-02 -1.039752811193466187e-01
2.570000000000000000e+02 5.282059478759765625e+01 3.198086357116699219e+01 -1.333234645426273346e-02 2.126967608928680420e-01 5.980932340025901794e-02 -1.470104157924652100e-01
2.580000000000000000e+02 5.288299560546875000e+01 2.935721397399902344e+01 4.219879209995269775e-02 1.702321767807006836e-01 6.372929364442825317e-02 -1.660201698541641235e-01
2.590000000000000000e+02 5.253223037719726562e+01 2.286899185180664062e+01 1.114274188876152039e-01 4.871355835348367691e-03 3.488963097333908081e-02 -6.476118415594100952e-02
2.600000000000000000e+02 5.190419769287109375e+01 2.064405059814453125e+01 -2.205822989344596863e-02 -4.339615814387798309e-03 -7.919353432953357697e-03 -2.771403826773166656e-02
2.610000000000000000e+02 5.046153259277343750e+01 3.970657730102539062e+01 -7.564653456211090088e-02 2.069194465875625610e-01 3.938187286257743835e-02 -3.273670747876167297e-02
2.620000000000000000e+02 4.952407455444335938e+01 3.734214019775390625e+01 -4.724838212132453918e-02 1.758590489625930786e-01 3.858319669961929321e-02 -5.605017393827438354e-02
2.630000000000000000e+02 4.948228073120117188e+01 3.471779251098632812e+01 -2.255812473595142365e-02 1.617353558540344238e-01 4.175317287445068359e-02 -8.395090699195861816e-02
2.640000000000000000e+02 4.961734008789062500e+01 3.196168327331542969e+01 1.093553099781274796e-02 1.285165101289749146e-01 4.183561354875564575e-02 -9.820132702589035034e-02
2.650000000000000000e+02 4.837395858764648438e+01 2.520172882080078125e+01 6.267106533050537109e-02 2.311746031045913696e-02 2.573655731976032257e-02 -5.223589390516281128e-02
2.660000000000000000e+02 5.039726257324218750e+01 2.351799392700195312e+01 7.701326161623001099e-02 5.507604684680700302e-03 2.475626021623611450e-02 -4.849650710821151733e-02
2.670000000000000000e+02 4.936571502685546875e+01 1.943441009521484375e+01 -5.098787322640419006e-02 -1.560186967253684998e-02 -1.997692324221134186e-02 -3.110549971461296082e-02
2.680000000000000000e+02 4.819542694091796875e+01 1.868364715576171875e+01 -4.730124771595001221e-02 -2.041576616466045380e-02 -2.031510509550571442e-02 -2.679041028022766113e-02
2.690000000000000000e+02 4.319320678710937500e+01 1.701213073730468750e+01 -2.265817485749721527e-02 5.290843546390533447e-03 -5.210199393332004547e-03 -7.099960464984178543e-03
2.700000000000000000e+02 3.996318435668945312e+01 1.826368141174316406e+01 -1.759029366075992584e-02 1.200637780129909515e-02 -1.675174455158412457e-03 1.594568020664155483e-03
2.710000000000000000e+02 3.810459136962890625e+01 1.696665763854980469e+01 -1.626198738813400269e-02 9.247004054486751556e-03 -2.104494953528046608e-03 3.704098518937826157e-03
2.720000000000000000e+02 3.074418258666992188e+01 1.750535202026367188e+01 -7.129677571356296539e-03 -2.255862019956111908e-02 -8.906489238142967224e-03 1.167033333331346512e-02
2.730000000000000000e+02 3.268646240234375000e+01 1.392007637023925781e+01 -1.928831799887120724e-03 -3.126047551631927490e-03 -1.516463817097246647e-03 3.410218283534049988e-03
2.740000000000000000e+02 3.214417648315429688e+01 1.373073863983154297e+01 -1.460501225665211678e-03 -3.486073343083262444e-03 -1.483972417190670967e-03 1.917385263368487358e-03
2.750000000000000000e+02 3.302770996093750000e+01 1.148890209197998047e+01 -1.039641065290197730e-04 -1.110519733629189432e-04 -6.450482032960280776e-05 4.939895006828010082e-04
2.760000000000000000e+02 3.348926162719726562e+01 5.781214714050292969e+00 -6.330251198960468173e-05 1.465755776735022664e-04 2.498192043276503682e-05 -1.252531365025788546e-04
2.770000000000000000e+02 3.359960937500000000e+01 1.890635848045349121e+00 -1.131499448092654347e-04 1.947468117577955127e-04 2.447906081215478480e-05 1.316790294367820024e-04
2.780000000000000000e+02 4.714763259887695312e+01 4.097589111328125000e+01 -4.834148287773132324e-02 1.600578129291534424e-01 3.351490199565887451e-02 -1.317432057112455368e-02
2.790000000000000000e+02 4.660740280151367188e+01 3.797473144531250000e+01 -2.707933261990547180e-02 1.377734094858169556e-01 3.320822119712829590e-02 -4.453076422214508057e-02
2.800000000000000000e+02 4.633762359619140625e+01 3.507824707031250000e+01 -6.184418685734272003e-03 1.137601658701896667e-01 3.227272629737854004e-02 -5.630816519260406494e-02
2.810000000000000000e+02 4.625510025024414062e+01 3.222215270996093750e+01 1.471814978867769241e-02 9.340533614158630371e-02 3.243704512715339661e-02 -6.446742266416549683e-02
2.820000000000000000e+02 4.726165771484375000e+01 2.697718238830566406e+01 4.554251208901405334e-02 4.003373160958290100e-02 2.567287348210811615e-02 -5.228029936552047729e-02
2.830000000000000000e+02 4.946065139770507812e+01 2.466918563842773438e+01 7.484679669141769409e-02 1.736414059996604919e-02 2.766328118741512299e-02 -5.570772290229797363e-02
2.840000000000000000e+02 4.749607086181640625e+01 1.997560119628906250e+01 -2.449947036802768707e-02 -3.283736528828740120e-03 -8.334961719810962677e-03 -1.389201451092958450e-02
2.850000000000000000e+02 4.308160018920898438e+01 4.112340164184570312e+01 -1.188615523278713226e-02 9.784615039825439453e-02 2.578799985349178314e-02 -7.242177613079547882e-03
2.860000000000000000e+02 4.342016220092773438e+01 3.841521453857421875e+01 -1.199514046311378479e-02 1.016430780291557312e-01 2.689438126981258392e-02 -2.365028299391269684e-02
2.870000000000000000e+02 4.300482177734375000e+01 3.563106536865234375e+01 7.823581108823418617e-04 8.506352454423904419e-02 2.575376443564891815e-02 -3.402309119701385498e-02
2.880000000000000000e+02 4.272478103637695312e+01 3.268462753295898438e+01 1.347196381539106369e-02 5.978777259588241577e-02 2.197792008519172668e-02 -3.323371335864067078e-02
2.890000000000000000e+02 4.183321380615234375e+01 2.675217437744140625e+01 1.703063957393169403e-02 2.967161312699317932e-02 1.401067618280649185e-02 -1.758269034326076508e-02
2.900000000000000000e+02 4.491027450561523438e+01 2.426002693176269531e+01 2.312395907938480377e-02 1.578524522483348846e-02 1.167276129126548767e-02 -1.544987689703702927e-02
2.910000000000000000e+02 4.269488143920898438e+01 2.027554321289062500e+01 -1.486986503005027771e-02 1.184283569455146790e-02 -9.081086609512567520e-04 6.991362897679209709e-04
2.920000000000000000e+02 4.051725387573242188e+01 3.957329559326171875e+01 5.250200047157704830e-04 7.194484025239944458e-02 2.174095623195171356e-02 -9.730986319482326508e-03
2.930000000000000000e+02 3.965664672851562500e+01 3.647203445434570312e+01 7.781055755913257599e-03 5.415131151676177979e-02 1.857971027493476868e-02 -1.453677657991647720e-02
2.940000000000000000e+02 3.916619110107421875e+01 3.340650939941406250e+01 1.105513144284486771e-02 4.448634386062622070e-02 1.666244305670261383e-02 -1.820378564298152924e-02
2.950000000000000000e+02 3.836364364624023438e+01 3.069496536254882812e+01 1.324448082596063614e-02 2.959721721708774567e-02 1.285250950604677200e-02 -1.441115606576204300e-02
2.960000000000000000e+02 3.907476425170898438e+01 2.726056861877441406e+01 9.554951451718807220e-03 2.233563736081123352e-02 9.567175991833209991e-03 -9.118892252445220947e-03
2.970000000000000000e+02 4.008698272705078125e+01 2.303189277648925781e+01 -3.705497598275542259e-03 1.647213287651538849e-02 3.829990513622760773e-03 6.758602103218436241e-04
2.980000000000000000e+02 4.087403488159179688e+01 1.888339424133300781e+01 -1.914650574326515198e-02 1.112189702689647675e-02 -2.407382940873503685e-03 2.540064509958028793e-03
2.990000000000000000e+02 3.953639602661132812e+01 2.103947830200195312e+01 -1.209017634391784668e-02 1.423373911529779434e-02 6.430688081309199333e-04 4.225541837513446808e-03
3.000000000000000000e+02 3.697144699096679688e+01 4.074837493896484375e+01 8.764138445258140564e-03 4.532993957400321960e-02 1.622822321951389313e-02 -2.512543229386210442e-03
3.010000000000000000e+02 3.613308334350585938e+01 3.741133499145507812e+01 1.126219518482685089e-02 3.538677096366882324e-02 1.399469003081321716e-02 -8.351203985512256622e-03
3.020000000000000000e+02 3.555201339721679688e+01 3.434014129638671875e+01 1.204168889671564102e-02 2.466318570077419281e-02 1.101146172732114792e-02 -7.075026631355285645e-03
3.030000000000000000e+02 3.733438110351562500e+01 2.852624130249023438e+01 7.709485944360494614e-03 1.958742365241050720e-02 8.189072832465171814e-03 -7.736844941973686218e-03
3.040000000000000000e+02 3.787675857543945312e+01 2.338608360290527344e+01 -6.855380721390247345e-03 1.408952381461858749e-02 2.170242834836244583e-03 2.289328724145889282e-03
3.050000000000000000e+02 3.776253890991210938e+01 1.953402709960937500e+01 -1.661030575633049011e-02 1.102500315755605698e-02 -1.675590756349265575e-03 6.576566956937313080e-03
3.060000000000000000e+02 3.859643554687500000e+01 2.029574775695800781e+01 -1.356641389429569244e-02 1.361321937292814255e-02 1.404164595442125574e-05 4.351187497377395630e-03
3.070000000000000000e+02 3.241230773925781250e+01 4.104508209228515625e+01 1.445382833480834961e-02 1.885466836392879486e-02 9.992549195885658264e-03 -8.644869667477905750e-04
3.080000000000000000e+02 3.219145584106445312e+01 3.808363342285156250e+01 1.392469368875026703e-02 1.705672405660152435e-02 9.294426068663597107e-03 -1.024691388010978699e-03
3.090000000000000000e+02 3.186923789978027344e+01 3.511814880371093750e+01 1.188504882156848907e-02 1.325744017958641052e-02 7.542746607214212418e-03 -2.358500380069017410e-03
3.100000000000000000e+02 3.289274597167968750e+01 3.125233650207519531e+01 8.588947355747222900e-03 1.039227284491062164e-02 5.694366060197353363e-03 -1.895416644401848316e-03
3.110000000000000000e+02 3.499145889282226562e+01 2.729192924499511719e+01 1.712322118692100048e-03 1.151756197214126587e-02 3.968965262174606323e-03 -2.991352230310440063e-03
3.120000000000000000e+02 3.319216537475585938e+01 2.208771514892578125e+01 -1.750046387314796448e-02 1.795118558220565319e-03 -4.711603745818138123e-03 5.946417339146137238e-03
3.130000000000000000e+02 3.142608070373535156e+01 1.992958641052246094e+01 -2.446351572871208191e-02 -9.068703278899192810e-03 -1.005966588854789734e-02 1.406125817447900772e-02
3.140000000000000000e+02 2.771006774902343750e+01 4.116756439208984375e+01 1.467292383313179016e-02 3.690853714942932129e-03 5.509133450686931610e-03 6.939552840776741505e-04
3.150000000000000000e+02 2.808795356750488281e+01 3.840929794311523438e+01 1.399104297161102295e-02 3.861932083964347839e-03 5.355892702937126160e-03 7.137311040423810482e-04
3.160000000000000000e+02 2.832215690612792969e+01 3.559389114379882812e+01 1.229793485254049301e-02 2.633064286783337593e-03 4.479299765080213547e-03 2.351117087528109550e-03
3.170000000000000000e+02 2.894037055969238281e+01 3.040077400207519531e+01 5.024380516260862350e-03 -1.611135201528668404e-03 1.023973571136593819e-03 3.603874472901225090e-03
3.180000000000000000e+02 2.729088783264160156e+01 2.926120376586914062e+01 2.443922217935323715e-03 -4.798689857125282288e-03 -7.064302335493266582e-04 5.575497169047594070e-03
3.190000000000000000e+02 2.843755722045898438e+01 2.273494148254394531e+01 -2.505314163863658905e-02 -1.483542192727327347e-02 -1.196656841784715652e-02 1.304455101490020752e-02
3.200000000000000000e+02 2.594679260253906250e+01 2.154063224792480469e+01 -4.299383983016014099e-02 -5.105388350784778595e-03 -1.442976854741573334e-02 1.289770100265741348e-02
3.210000000000000000e+02 2.898875808715820312e+01 2.024997901916503906e+01 -4.582247510552406311e-02 -3.318432718515396118e-02 -2.370204031467437744e-02 3.438561037182807922e-02
3.220000000000000000e+02 2.961939048767089844e+01 2.019687080383300781e+01 -3.522862866520881653e-02 -2.512661181390285492e-02 -1.810657232999801636e-02 2.326552011072635651e-02
3.230000000000000000e+02 3.005395889282226562e+01 1.948651123046875000e+01 -2.329030074179172516e-02 -2.564846351742744446e-02 -1.468162890523672104e-02 2.251859940588474274e-02
3.240000000000000000e+02 2.973206138610839844e+01 1.926893615722656250e+01 -1.793025247752666473e-02 -3.367121890187263489e-02 -1.548044104129076004e-02 2.380943857133388519e-02
3.250000000000000000e+02 2.417551231384277344e+01 3.830231475830078125e+01 1.184037979692220688e-02 -2.741620875895023346e-03 2.729627769440412521e-03 2.989771077409386635e-03
3.260000000000000000e+02 2.221770668029785156e+01 3.511402130126953125e+01 8.319673128426074982e-03 -5.237205885350704193e-03 9.247402776964008808e-04 5.813096649944782257e-03
3.270000000000000000e+02 2.560419464111328125e+01 3.280669021606445312e+01 7.990405894815921783e-03 -3.885436104610562325e-03 1.231490983627736568e-03 5.637352820485830307e-03
3.280000000000000000e+02 2.572159004211425781e+01 2.615967369079589844e+01 -8.983350358903408051e-03 -8.764564059674739838e-03 -5.324374418705701828e-03 9.434053674340248108e-03
3.290000000000000000e+02 2.308026885986328125e+01 4.110391235351562500e+01 1.245260424911975861e-02 -3.661385271698236465e-03 2.637365832924842834e-03 5.079394322820007801e-04
3.300000000000000000e+02 2.079155731201171875e+01 3.773682403564453125e+01 9.506838396191596985e-03 -5.321078468114137650e-03 1.255727955140173435e-03 3.470761002972722054e-03
3.310000000000000000e+02 1.998880767822265625e+01 3.434421920776367188e+01 6.047940347343683243e-03 -5.532220937311649323e-03 1.547157153254374862e-04 5.973329767584800720e-03
3.320000000000000000e+02 2.175220680236816406e+01 3.038606452941894531e+01 1.122614718042314053e-03 -5.756404250860214233e-03 -1.390136894769966602e-03 8.422513492405414581e-03
3.330000000000000000e+02 2.245690727233886719e+01 2.559634017944335938e+01 -1.229212898761034012e-02 -5.837386474013328552e-03 -5.438854917883872986e-03 9.647770784795284271e-03
3.340000000000000000e+02 2.193041419982910156e+01 2.222897338867187500e+01 -3.458800539374351501e-02 -1.845647930167615414e-03 -1.093009579926729202e-02 2.623234875500202179e-03
3.350000000000000000e+02 1.991820335388183594e+01 2.201645278930664062e+01 -1.703032851219177246e-02 -9.684687393018975854e-05 -5.138152744621038437e-03 -1.783025218173861504e-03
3.360000000000000000e+02 2.273440742492675781e+01 2.214167404174804688e+01 -3.312689438462257385e-02 -1.778975711204111576e-03 -1.047176029533147812e-02 6.062613800168037415e-03
3.370000000000000000e+02 1.872070693969726562e+01 4.080716705322265625e+01 8.491109125316143036e-03 -5.719021428376436234e-03 8.316262974403798580e-04 1.507510198280215263e-03
3.380000000000000000e+02 1.828936767578125000e+01 3.662883758544921875e+01 6.662780884653329849e-03 -5.773011129349470139e-03 2.669308742042630911e-04 4.712412133812904358e-03
3.390000000000000000e+02 2.027844810485839844e+01 3.001551628112792969e+01 -3.684218099806457758e-04 -5.321024451404809952e-03 -1.706833834759891033e-03 8.806387893855571747e-03
3.400000000000000000e+02 1.938086509704589844e+01 2.609856414794921875e+01 -9.039551950991153717e-03 -2.795004984363913536e-03 -3.550367197021842003e-03 7.931239902973175049e-03
3.410000000000000000e+02 1.871740913391113281e+01 2.179387474060058594e+01 -1.307193748652935028e-02 -6.104619242250919342e-04 -4.104719962924718857e-03 -2.007679548114538193e-03
3.420000000000000000e+02 1.674437332153320312e+01 2.113373565673828125e+01 -6.208630744367837906e-03 -9.490638622082769871e-04 -2.147308317944407463e-03 -2.133133122697472572e-03
3.430000000000000000e+02 1.574014472961425781e+01 3.925308227539062500e+01 6.511956453323364258e-03 -5.886734463274478912e-03 1.875665475381538272e-04 2.186001511290669441e-03
3.440000000000000000e+02 1.425037670135498047e+01 3.669722366333007812e+01 3.598626470193266869e-03 -5.115145817399024963e-03 -4.549557634163647890e-04 3.833521855995059013e-03
3.450000000000000000e+02 1.446374797821044922e+01 3.159458732604980469e+01 4.674632509704679251e-04 -3.625400131568312645e-03 -9.473810787312686443e-04 5.825811997056007385e-03
3.460000000000000000e+02 1.626487922668457031e+01 2.601127815246582031e+01 -6.317984778434038162e-03 -7.810477982275187969e-04 -2.129709813743829727e-03 5.493911448866128922e-03
3.470000000000000000e+02 1.644207191467285156e+01 2.150765800476074219e+01 -6.842086091637611389e-03 -2.613468968775123358e-04 -2.131029963493347168e-03 -6.965449429117143154e-04
3.480000000000000000e+02 1.578370761871337891e+01 2.041014099121093750e+01 -1.876100548543035984e-03 -6.464392063207924366e-04 -7.567619322799146175e-04 -8.587150950916111469e-04
3.490000000000000000e+02 1.208409976959228516e+01 4.084511947631835938e+01 4.232937470078468323e-03 -5.466919392347335815e-03 -3.701944951899349689e-04 7.717402768321335316e-04
3.500000000000000000e+02 1.136915588378906250e+01 3.771977615356445312e+01 3.245053580030798912e-03 -4.989297129213809967e-03 -5.232730181887745857e-04 2.952793613076210022e-03
3.510000000000000000e+02 1.328841686248779297e+01 3.435804367065429688e+01 2.375405980274081230e-03 -4.454769194126129150e-03 -6.238089408725500107e-04 4.695340059697628021e-03
3.520000000000000000e+02 1.092843246459960938e+01 2.881841468811035156e+01 -1.489949296228587627e-03 -1.744660432450473309e-03 -9.703828836791217327e-04 4.157159011811017990e-03
3.530000000000000000e+02 1.204256629943847656e+01 2.723262786865234375e+01 -2.681965241208672523e-03 -1.024160184897482395e-03 -1.111837686039507389e-03 4.002242349088191986e-03
3.540000000000000000e+02 1.321540164947509766e+01 1.839112281799316406e+01 -3.725298156496137381e-04 6.455505354097113013e-05 -9.239243081538006663e-05 -3.837352051050402224e-05
3.550000000000000000e+02 1.470010185241699219e+01 1.619626998901367188e+01 8.336239261552691460e-05 6.682601524516940117e-04 2.254867576994001865e-04 4.520802394836209714e-05
3.560000000000000000e+02 1.398351860046386719e+01 1.090281867980957031e+01 1.799661731638479978e-05 7.666567398700863123e-05 2.839868648152332753e-05 4.689954585046507418e-05
3.570000000000000000e+02 1.095960044860839844e+01 5.190903663635253906e+00 8.061676453507971019e-06 -8.143119885062333196e-06 -2.443295521459276642e-08 1.798849916667677462e-05
3.580000000000000000e+02 1.041284084320068359e+01 1.832841396331787109e+00 1.378323486278532073e-05 5.126768883201293647e-06 5.673000941897043958e-06 2.523662715248065069e-06
3.590000000000000000e+02 1.410758304595947266e+01 1.868345141410827637e+00 8.894922984836739488e-07 -5.086732926429249346e-06 -1.259172222489723936e-06 3.111564637947594747e-06
3.600000000000000000e+02 1.337548160552978516e+01 1.847743868827819824e+00 7.206060217868071049e-06 7.052517958072712645e-06 4.277573225408559665e-06 3.842641490336973220e-06
3.610000000000000000e+02 1.115601444244384766e+01 1.833797574043273926e+00 6.243828465812839568e-06 -6.803861651860643178e-06 -1.680099472878282540e-07 4.740061285701813176e-06
3.620000000000000000e+02 7.863579273223876953e+00 4.097949218750000000e+01 1.833964022807776928e-03 -4.960838705301284790e-03 -9.380624396726489067e-04 6.550069083459675312e-04
3.630000000000000000e+02 8.244453430175781250e+00 3.795541000366210938e+01 1.828132430091500282e-03 -4.777136258780956268e-03 -8.847010903991758823e-04 1.921209972351789474e-03
3.640000000000000000e+02 9.529343605041503906e+00 3.026325416564941406e+01 -6.070595700293779373e-04 -2.304700436070561409e-03 -8.735280134715139866e-04 3.879878437146544456e-03
3.650000000000000000e+02 8.311091423034667969e+00 2.847361755371093750e+01 -1.029891544021666050e-03 -1.656402135267853737e-03 -8.058880921453237534e-04 3.069420577958226204e-03
3.660000000000000000e+02 8.759366989135742188e+00 2.491606140136718750e+01 -1.993214711546897888e-03 -5.365726538002490997e-04 -7.589361630380153656e-04 1.759351813234388828e-03
3.670000000000000000e+02 6.684896469116210938e+00 2.029578590393066406e+01 -6.432672380469739437e-04 -2.662066835910081863e-04 -2.728421823121607304e-04 2.547280164435505867e-04
3.680000000000000000e+02 7.150780200958251953e+00 1.724185752868652344e+01 -2.601597516331821680e-04 -2.726346137933433056e-04 -1.598383096279576421e-04 2.721860437304712832e-05
3.690000000000000000e+02 8.920263290405273438e+00 1.310470390319824219e+01 1.344224001513794065e-04 -1.560311939101666212e-04 -6.482637218141462654e-06 2.838016735040582716e-05
3.700000000000000000e+02 6.878084659576416016e+00 9.846391677856445312e+00 9.792856144485995173e-05 -5.957464236416853964e-05 1.150617572420742363e-05 -2.424245758447796106e-05
3.710000000000000000e+02 8.058016777038574219e+00 5.257950305938720703e+00 2.880375723179895431e-05 -2.418691292405128479e-05 1.385053110425360501e-06 9.139916983258444816e-07
3.720000000000000000e+02 8.133075714111328125e+00 1.837327837944030762e+00 8.517088645021431148e-06 -8.262027222372125834e-06 7.651824773802218260e-08 1.288110070163384080e-06
3.730000000000000000e+02 6.606982231140136719e+00 1.849822163581848145e+00 6.763940291421022266e-06 -8.022710062505211681e-06 -3.776308972192055080e-07 -1.097008862416259944e-06
3.740000000000000000e+02 4.695751667022705078e+00 4.022412490844726562e+01 7.078606286086142063e-04 -5.175131373107433319e-03 -1.340181333944201469e-03 7.107084966264665127e-04
3.750000000000000000e+02 5.652167320251464844e+00 3.788075256347656250e+01 1.040129223838448524e-03 -4.535882733762264252e-03 -1.048726146109402180e-03 1.534984447062015533e-03
3.760000000000000000e+02 4.740540981292724609e+00 3.384129714965820312e+01 2.698922762647271156e-04 -3.591682994738221169e-03 -9.965372737497091293e-04 1.979544293135404587e-03
3.770000000000000000e+02 6.596696376800537109e+00 2.947445487976074219e+01 -4.964657709933817387e-04 -1.984759466722607613e-03 -7.443675422109663486e-04 2.599556231871247292e-03
3.780000000000000000e+02 6.474316596984863281e+00 2.619438743591308594e+01 -1.003056182526051998e-03 -1.057705027051270008e-03 -6.182283395901322365e-04 1.814107527025043964e-03
3.790000000000000000e+02 4.217775821685791016e+00 2.472726821899414062e+01 -3.558593161869794130e-04 -7.118721259757876396e-04 -3.203194355592131615e-04 9.335327777080237865e-04
3.800000000000000000e+02 5.977776527404785156e+00 2.066148948669433594e+01 -6.515778368338942528e-04 -2.804232644848525524e-04 -2.796003245748579502e-04 3.083863120991736650e-04
3.810000000000000000e+02 5.230546474456787109e+00 1.704025459289550781e+01 -1.758831931510940194e-04 -1.539637742098420858e-04 -9.895409311866387725e-05 -5.549396882997825742e-05
3.820000000000000000e+02 4.950881958007812500e+00 1.443600082397460938e+01 5.575695831794291735e-05 -8.885000715963542461e-05 -9.927913197316229343e-06 -5.174397301743738353e-05
3.830000000000000000e+02 5.888685703277587891e+00 1.079151821136474609e+01 8.208076906157657504e-05 -5.423612310551106930e-05 8.353393241122830659e-06 -5.715679799322970212e-05
3.840000000000000000e+02 5.017290592193603516e+00 7.930495738983154297e+00 4.491204163059592247e-05 -2.014856363530270755e-05 7.429043762385845184e-06 1.124664322560420260e-06
3.850000000000000000e+02 4.311157703399658203e+00 1.931041717529296875e+00 9.722123650135472417e-06 6.826311164331855252e-06 4.964530489814933389e-06 -7.340823685808572918e-06
3.860000000000000000e+02 2.766299247741699219e+00 2.054746150970458984e+00 4.001694833277724683e-07 1.228811470355140045e-05 3.806485210589016788e-06 -7.114914296835195273e-06
3.870000000000000000e+02 4.508655071258544922e+00 2.758142232894897461e+00 5.752513970946893096e-06 -4.012078534287866205e-06 5.221306196290242951e-07 -3.364679741935105994e-06
3.880000000000000000e+02 1.973223328590393066e+00 4.160969543457031250e+01 5.842133759870193899e-05 -6.046054419130086899e-03 -1.796289929188787937e-03 1.485250959376571700e-05
3.890000000000000000e+02 1.754572749137878418e+00 3.794382858276367188e+01 1.619951217435300350e-04 -5.390672944486141205e-03 -1.568603329360485077e-03 4.666807653848081827e-04
3.900000000000000000e+02 2.225372076034545898e+00 3.349613189697265625e+01 1.635368389543145895e-04 -3.626591293141245842e-03 -1.038916292600333691e-03 1.101059140637516975e-03
3.910000000000000000e+02 2.177401065826416016e+00 3.204809188842773438e+01 -1.196830780827440321e-04 -3.016304923221468925e-03 -9.407963952980935574e-04 1.067254110239446163e-03
3.920000000000000000e+02 2.061235189437866211e+00 2.772016716003417969e+01 -3.802162245847284794e-05 -1.298372051678597927e-03 -4.009180993307381868e-04 8.245435310527682304e-04
3.930000000000000000e+02 1.861944079399108887e+00 2.484916114807128906e+01 -3.868144631269387901e-05 -4.120953672099858522e-04 -1.352330436930060387e-04 4.674644442275166512e-04
3.940000000000000000e+02 1.722628355026245117e+00 2.064234352111816406e+01 -1.439932239009067416e-04 1.996381761273369193e-04 1.669348603172693402e-05 4.502466981648467481e-05
3.950000000000000000e+02 1.753160119056701660e+00 1.786897659301757812e+01 -1.010608539218083024e-04 2.392729802522808313e-04 4.146363789914175868e-05 -6.485851918114349246e-05
3.960000000000000000e+02 1.850120663642883301e+00 1.504674243927001953e+01 -6.043946996214799583e-05 1.659690460655838251e-04 3.165887028444558382e-05 -8.566126780351623893e-05
3.970000000000000000e+02 1.693380475044250488e+00 1.083974647521972656e+01 6.653819582425057888e-05 7.070942228892818093e-05 4.117428397876210511e-05 -4.665018423111177981e-05
3.980000000000000000e+02 1.829847931861877441e+00 8.057088851928710938e+00 5.822507955599576235e-05 2.928769936261232942e-05 2.625383422127924860e-05 -2.777619374683126807e-05
3.990000000000000000e+02 2.977485179901123047e+00 3.125533580780029297e+00 9.191538083541672677e-06 -6.459165433625457808e-07 2.563686393841635436e-06 -4.867030838795471936e-06
4.000000000000000000e+02 4.613858461380004883e-01 3.609006643295288086e+00 2.241136826341971755e-05 3.538654709700495005e-06 7.785007255733944476e-06 -3.007585974046378396e-06
4.010000000000000000e+02 1.641901016235351562e+01 3.175169467926025391e+00 5.389736543293111026e-06 6.030544227542122826e-06 3.426084276725305244e-06 1.626605694582394790e-06
4.020000000000000000e+02 1.682000732421875000e+01 9.770002365112304688e+00 -1.695857645245268941e-05 -2.645201220730086789e-06 -5.881133347429567948e-06 -2.085810410790145397e-05
4.030000000000000000e+02 1.608138465881347656e+01 1.073826503753662109e+01 4.133956826990470290e-05 5.062006675871089101e-05 2.758789196377620101e-05 7.348856797761982307e-06
4.040000000000000000e+02 1.585952663421630859e+01 1.108351421356201172e+01 -2.959861194540280849e-05 4.285720569896511734e-05 3.977578217018162832e-06 -4.082874511368572712e-05
4.050000000000000000e+02 1.389988708496093750e+01 1.013752746582031250e+01 1.980125489353667945e-05 5.472735938383266330e-05 2.235858482890762389e-05 4.222613642923533916e-05
4.060000000000000000e+02 1.982820510864257812e+01 2.339089155197143555e+00 -1.411356038261146750e-06 -5.469899861054727808e-06 -2.064376758426078595e-06 -7.869783189562440384e-07
4.070000000000000000e+02 1.629055595397949219e+01 1.961544990539550781e+00 3.250925601605558768e-06 6.703693088638829067e-06 2.986385652548051439e-06 1.324226786891813390e-06
4.080000000000000000e+02 1.424101448059082031e+01 1.320811653137207031e+01 4.549082950688898563e-05 2.181857998948544264e-04 7.910298882052302361e-05 4.222552524879574776e-05
4.090000000000000000e+02 1.479299259185791016e+01 1.417154884338378906e+01 -3.823487350018694997e-05 3.580221091397106647e-04 9.593617141945287585e-05 -3.339542672620154917e-05
4.100000000000000000e+02 1.418376922607421875e+01 1.621639442443847656e+01 -6.803616270190104842e-05 5.017336225137114525e-04 1.301092415815219283e-04 1.226627646246924996e-04
4.110000000000000000e+02 1.476874351501464844e+01 1.894262123107910156e+01 -2.115517418133094907e-04 1.171264564618468285e-03 2.879138337448239326e-04 7.428157550748437643e-05
4.120000000000000000e+02 1.488335418701171875e+01 1.958594131469726562e+01 -2.200526796514168382e-04 8.356327889487147331e-04 1.846740196924656630e-04 -2.055588702205568552e-04
4.130000000000000000e+02 3.587967300415039062e+01 2.340080261230468750e+00 -1.637402892811223865e-04 2.024015411734580994e-04 1.159837484010495245e-05 -8.319850167026743293e-05
4.140000000000000000e+02 3.894631958007812500e+01 3.333836793899536133e+00 1.181067345896735787e-04 1.821543446567375213e-05 4.089664798812009394e-05 1.072505765478126705e-04
4.150000000000000000e+02 3.848872756958007812e+01 4.426689624786376953e+00 9.345962462248280644e-05 -2.179264993174001575e-04 -3.734006168087944388e-05 -5.895474896533414721e-05
4.160000000000000000e+02 3.727286911010742188e+01 2.742460966110229492e+00 4.485112731344997883e-05 1.579115341883152723e-04 6.082879917812533677e-05 -3.067045690841041505e-05
4.170000000000000000e+02 3.834091567993164062e+01 6.136059761047363281e+00 -4.926611436530947685e-04 -3.490910166874527931e-04 -2.525256422813981771e-04 6.149784894660115242e-04
4.180000000000000000e+02 3.827080917358398438e+01 8.459345817565917969e+00 3.771439369302242994e-04 -3.187650290783494711e-04 1.751367744873277843e-05 -1.996090531974914484e-06
4.190000000000000000e+02 3.296306228637695312e+01 1.019297409057617188e+01 2.691344416234642267e-04 8.934391662478446960e-04 3.487720678094774485e-04 -4.646150409826077521e-05
4.200000000000000000e+02 3.933971405029296875e+01 8.057941436767578125e+00 -6.985154468566179276e-04 2.467725425958633423e-04 -1.355228741886094213e-04 7.012073765508830547e-04
4.210000000000000000e+02 3.982092666625976562e+01 9.320333480834960938e+00 6.965210777707397938e-04 9.331509354524314404e-04 4.889016272500157356e-04 -2.836001513060182333e-04
4.220000000000000000e+02 4.051496124267578125e+01 1.049316406250000000e+01 -1.448754686862230301e-03 -1.629328326089307666e-04 -4.835062718484550714e-04 1.866005331976339221e-04
4.230000000000000000e+02 4.040038299560546875e+01 1.205147457122802734e+01 -5.349474493414163589e-03 -3.121262416243553162e-04 -1.698480104096233845e-03 -2.021462423726916313e-03
4.240000000000000000e+02 4.059370422363281250e+01 1.729308891296386719e+01 -1.966563984751701355e-02 8.441491052508354187e-03 -3.367244964465498924e-03 1.278916490264236927e-03
4.250000000000000000e+02 4.092366027832031250e+01 1.307703399658203125e+01 -8.520683273673057556e-03 4.788656369782984257e-04 -2.412545261904597282e-03 -4.456958267837762833e-03
4.260000000000000000e+02 4.135670852661132812e+01 1.511034202575683594e+01 -1.548926625400781631e-02 2.913914388045668602e-03 -3.772605676203966141e-03 -3.266857005655765533e-03
4.270000000000000000e+02 4.392742919921875000e+01 1.540700531005859375e+01 -1.963161863386631012e-02 -8.502972312271595001e-03 -8.440377190709114075e-03 -1.124134846031665802e-02
4.280000000000000000e+02 4.494597625732421875e+01 1.619293022155761719e+01 -2.408687584102153778e-02 -8.316626772284507751e-03 -9.721050970256328583e-03 -1.716914586722850800e-02
4.290000000000000000e+02 5.439081192016601562e+01 -2.944071531295776367e+00 1.171305775642395020e+00 1.101140260696411133e+00 6.817337870597839355e-01 1.112855434417724609e+00
4.300000000000000000e+02 5.103459167480468750e+01 -5.434986591339111328e+00 2.714257955551147461e+00 5.714805126190185547e-01 9.857215285301208496e-01 6.841805577278137207e-01
4.310000000000000000e+02 5.299475097656250000e+01 -5.914327621459960938e+00 1.448818802833557129e+00 7.540876865386962891e-01 6.608719229698181152e-01 4.178482294082641602e-01
4.320000000000000000e+02 5.444824218750000000e+01 -9.280397415161132812e+00 -9.261113405227661133e-02 3.725690543651580811e-01 8.398737013339996338e-02 -1.667583361268043518e-02
4.330000000000000000e+02 5.779138946533203125e+01 -1.165048694610595703e+01 -1.041697144508361816e+00 9.874247014522552490e-02 -2.828864157199859619e-01 -3.557492494583129883e-01
4.340000000000000000e+02 3.961348342895507812e+01 -2.136679172515869141e+00 1.459587514400482178e-01 -4.723488911986351013e-02 2.961715869605541229e-02 -1.965052448213100433e-03
4.350000000000000000e+02 3.932152938842773438e+01 -7.601150274276733398e-01 2.582313865423202515e-02 -1.083301194012165070e-02 4.497038200497627258e-03 3.768109250813722610e-03
4.360000000000000000e+02 3.797746276855468750e+01 -8.199506402015686035e-01 -5.151721183210611343e-03 -1.637731678783893585e-02 -6.458711344748735428e-03 3.629482910037040710e-02
4.370000000000000000e+02 4.051211929321289062e+01 -5.986986756324768066e-01 1.050365250557661057e-02 4.543926101177930832e-03 4.514273256063461304e-03 -6.161419674754142761e-03
4.380000000000000000e+02 3.351442337036132812e+01 -2.282894611358642578e+00 -3.431270420551300049e-01 -8.545125275850296021e-02 -1.285734921693801880e-01 3.662229478359222412e-01
4.390000000000000000e+02 3.238169860839843750e+01 -2.929125785827636719e+00 -3.219432532787322998e-01 -5.029888078570365906e-02 -1.116726398468017578e-01 4.111472070217132568e-01
4.400000000000000000e+02 3.243549346923828125e+01 -8.064024925231933594e+00 5.121466517448425293e-01 -1.677463948726654053e-01 1.033200770616531372e-01 2.038473486900329590e-01
4.410000000000000000e+02 3.228168106079101562e+01 -2.371047019958496094e+00 -4.911958575248718262e-01 -5.366802960634231567e-02 -1.634591668844223022e-01 3.349558711051940918e-01
4.420000000000000000e+02 3.116564559936523438e+01 -1.691811680793762207e+00 -8.103008270263671875e-01 8.501096069812774658e-02 -2.175869643688201904e-01 2.665897607803344727e-01
4.430000000000000000e+02 3.136767959594726562e+01 -1.680857181549072266e+00 -7.628769278526306152e-01 6.472612917423248291e-02 -2.094452381134033203e-01 2.575393319129943848e-01
4.440000000000000000e+02 2.486354827880859375e+01 -2.075687408447265625e+00 -1.187078237533569336e+00 7.216931134462356567e-02 -3.344726860523223877e-01 5.071085412055253983e-03
4.450000000000000000e+02 2.422714805603027344e+01 -1.820216655731201172e+00 -1.225739359855651855e+00 2.192579954862594604e-01 -3.019444048404693604e-01 7.471749931573867798e-02
4.460000000000000000e+02 2.360257530212402344e+01 -4.170701801776885986e-01 -1.166757941246032715e+00 2.609397172927856445e-01 -2.717454433441162109e-01 2.153485566377639771e-01
4.470000000000000000e+02 2.439294052124023438e+01 -1.901583522558212280e-01 -1.059281945228576660e+00 1.531338691711425781e-01 -2.718444168567657471e-01 3.136832118034362793e-01
4.480000000000000000e+02 1.421278762817382812e+01 -1.832317471504211426e+00 -1.278928756713867188e+00 1.687447540462017059e-03 -3.831723928451538086e-01 -2.079297155141830444e-01
4.490000000000000000e+02 1.193794250488281250e+01 -2.599471092224121094e+00 -9.206205010414123535e-01 2.423750422894954681e-02 -2.689149081707000732e-01 -3.279296159744262695e-01
4.500000000000000000e+02 1.267771339416503906e+01 -1.866188168525695801e+00 -1.165606617927551270e+00 5.948004312813282013e-03 -3.478975892066955566e-01 -2.496059685945510864e-01
4.510000000000000000e+02 1.143888282775878906e+01 -5.997889518737792969e+00 -2.600434422492980957e-01 1.627449244260787964e-01 -2.918955124914646149e-02 -4.755565822124481201e-01
4.520000000000000000e+02 1.177059555053710938e+01 -1.146311187744140625e+01 5.109034180641174316e-01 6.414268016815185547e-01 3.456990718841552734e-01 -2.808623909950256348e-01
4.530000000000000000e+02 1.363825416564941406e+01 -1.424888992309570312e+01 7.676181197166442871e-01 1.638220310211181641e+00 7.217515110969543457e-01 3.452096283435821533e-01
4.540000000000000000e+02 1.313164424896240234e+01 -1.705876541137695312e+01 4.763773977756500244e-01 1.956097841262817383e+00 7.297425866127014160e-01 1.926423460245132446e-01
4.550000000000000000e+02 1.224350738525390625e+01 -2.213582229614257812e+01 3.739242851734161377e-01 1.301470756530761719e+00 5.026184916496276855e-01 1.076140627264976501e-02
4.560000000000000000e+02 1.292441749572753906e+01 -2.381261634826660156e+01 2.262587547302246094e-01 1.234622240066528320e+00 4.382643103599548340e-01 -4.306337237358093262e-02
4.570000000000000000e+02 1.189465236663818359e+01 -2.782085037231445312e+01 -5.152766406536102295e-02 6.831095218658447266e-01 1.894745528697967529e-01 1.125827506184577942e-01
4.580000000000000000e+02 1.315858459472656250e+01 -3.325625991821289062e+01 -1.797476112842559814e-01 4.283517301082611084e-01 7.458123564720153809e-02 5.227162688970565796e-02
4.590000000000000000e+02 1.334185981750488281e+01 -3.599763107299804688e+01 -2.053488194942474365e-01 3.475357592105865479e-01 4.265607893466949463e-02 4.254394024610519409e-02
4.600000000000000000e+02 9.444699287414550781e+00 -3.857067108154296875e+01 -1.662404984235763550e-01 4.819866642355918884e-02 -3.541254997253417969e-02 8.356513828039169312e-02
4.610000000000000000e+02 1.269417381286621094e+01 -4.134132385253906250e+01 -2.159412503242492676e-01 2.344939708709716797e-01 5.565812811255455017e-03 1.145642250776290894e-02
4.620000000000000000e+02 1.705689239501953125e+01 -3.888574981689453125e+01 -2.136968076229095459e-01 3.885639905929565430e-01 5.246016010642051697e-02 -2.621863223612308502e-02
4.630000000000000000e+02 1.682881927490234375e+01 -3.614217758178710938e+01 -1.912865638732910156e-01 4.352138042449951172e-01 7.317816466093063354e-02 -5.362949147820472717e-02
4.640000000000000000e+02 1.594197750091552734e+01 -3.066394424438476562e+01 -5.862564221024513245e-02 6.227813363075256348e-01 1.692467033863067627e-01 -1.403384357690811157e-01
4.650000000000000000e+02 1.498376274108886719e+01 -2.820424079895019531e+01 1.537992339581251144e-02 7.948291897773742676e-01 2.430627346038818359e-01 -1.747737675905227661e-01
4.660000000000000000e+02 1.794254493713378906e+01 -2.764109992980957031e+01 2.410641759634017944e-01 6.823903322219848633e-01 2.770363390445709229e-01 -3.941953182220458984e-01
4.670000000000000000e+02 1.711672973632812500e+01 -2.447338485717773438e+01 5.692827701568603516e-01 9.543849825859069824e-01 4.571003317832946777e-01 -6.965065598487854004e-01
4.680000000000000000e+02 1.620471382141113281e+01 -2.338268661499023438e+01 5.925440192222595215e-01 1.191748261451721191e+00 5.352876782417297363e-01 -8.121705651283264160e-01
4.690000000000000000e+02 1.510109901428222656e+01 -2.421857070922851562e+01 2.981293499469757080e-01 1.341286420822143555e+00 4.918247461318969727e-01 -5.206779241561889648e-01
4.700000000000000000e+02 1.468217754364013672e+01 -2.097442054748535156e+01 5.703319311141967773e-01 2.920249223709106445e+00 1.047174334526062012e+00 -7.907055020332336426e-01
4.710000000000000000e+02 1.439894485473632812e+01 -1.957520294189453125e+01 2.102908641099929810e-01 3.025901794433593750e+00 9.708577990531921387e-01 -2.583568692207336426e-01
4.720000000000000000e+02 1.433933830261230469e+01 -1.817958068847656250e+01 9.398535639047622681e-02 2.881869316101074219e+00 8.927564024925231934e-01 5.930012837052345276e-02
4.730000000000000000e+02 1.440381622314453125e+01 -1.689383888244628906e+01 2.417570352554321289e-01 3.026401042938232422e+00 9.804474711418151855e-01 4.055651128292083740e-01
4.740000000000000000e+02 1.389392471313476562e+01 -1.597227096557617188e+01 5.499712824821472168e-01 2.500181436538696289e+00 9.150457978248596191e-01 5.080818533897399902e-01
4.750000000000000000e+02 1.480786609649658203e+01 -1.495090579986572266e+01 7.818948030471801758e-01 2.634822845458984375e+00 1.025015354156494141e+00 9.588422775268554688e-01
4.760000000000000000e+02 1.555461502075195312e+01 -1.382185459136962891e+01 1.082854866981506348e+00 2.018545627593994141e+00 9.304201006889343262e-01 1.307323694229125977e+00
4.770000000000000000e+02 1.263816070556640625e+01 -1.353022480010986328e+01 7.863556742668151855e-01 1.153892874717712402e+00 5.820745825767517090e-01 1.076091676950454712e-01
4.780000000000000000e+02 1.115023994445800781e+01 -1.862195491790771484e+00 -1.018465995788574219e+00 6.357751321047544479e-03 -3.036324977874755859e-01 -2.819019854068756104e-01
4.790000000000000000e+02 7.303556919097900391e+00 -1.920700430870056152e+00 -5.571776032447814941e-01 -1.595734432339668274e-02 -1.719404757022857666e-01 -2.878280282020568848e-01
4.800000000000000000e+02 3.426615476608276367e+00 -1.835967183113098145e+00 -1.660687625408172607e-01 -5.188499018549919128e-02 -6.538612395524978638e-02 -1.661903709173202515e-01
4.810000000000000000e+02 1.258721232414245605e+00 -2.111394166946411133e+00 -3.196066245436668396e-02 -6.883494555950164795e-02 -3.023868240416049957e-02 -5.275278538465499878e-02
4.820000000000000000e+02 5.820326209068298340e-01 -6.506345272064208984e+00 -3.835446550510823727e-04 -5.102198719978332520e-01 -1.531810164451599121e-01 -8.955101668834686279e-02
4.830000000000000000e+02 1.699119925498962402e+00 -8.005617141723632812e+00 -2.153482986614108086e-03 -6.459584236145019531e-01 -1.944335699081420898e-01 -2.500946223735809326e-01
4.840000000000000000e+02 5.712003111839294434e-01 -9.301877021789550781e+00 6.908323266543447971e-04 -9.614281654357910156e-01 -2.882211804389953613e-01 -8.737004548311233521e-02
4.850000000000000000e+02 1.767414450645446777e+00 -1.070201015472412109e+01 1.703438907861709595e-02 -9.581520557403564453e-01 -2.823353111743927002e-01 -2.353283911943435669e-01
4.860000000000000000e+02 4.300679206848144531e+00 -1.190826797485351562e+01 1.164885684847831726e-01 -6.092438101768493652e-01 -1.478265672922134399e-01 -3.988767266273498535e-01
4.870000000000000000e+02 9.121885299682617188e+00 -1.522526550292968750e+01 5.017026066780090332e-01 3.467130959033966064e-01 2.545247077941894531e-01 -1.781541705131530762e-01
4.880000000000000000e+02 1.040655326843261719e+01 -1.500699234008789062e+01 5.882729887962341309e-01 6.989011168479919434e-01 3.861522376537322998e-01 -1.212824508547782898e-01
4.890000000000000000e+02 1.093909549713134766e+01 -1.342635345458984375e+01 6.125801801681518555e-01 6.414701342582702637e-01 3.762151002883911133e-01 -1.794997900724411011e-01
4.900000000000000000e+02 8.502118110656738281e+00 -1.107412624359130859e+01 2.774668037891387939e-01 8.135049045085906982e-02 1.076451912522315979e-01 -4.816157519817352295e-01
4.910000000000000000e+02 4.284928798675537109e+00 -5.094002246856689453e+00 -1.269391328096389771e-01 -2.233798354864120483e-01 -1.050956919789314270e-01 -4.174190461635589600e-01
4.920000000000000000e+02 4.018453598022460938e+00 -9.350238800048828125e+00 3.879843652248382568e-02 -5.148144960403442383e-01 -1.428048163652420044e-01 -4.580521285533905029e-01
4.930000000000000000e+02 2.869822263717651367e+00 -9.373969078063964844e+00 1.851965673267841339e-02 -6.576311588287353516e-01 -1.917334496974945068e-01 -3.675816357135772705e-01
4.940000000000000000e+02 5.802211761474609375e-01 -3.610087633132934570e+00 -1.925766654312610626e-02 -1.513947099447250366e-01 -5.119571089744567871e-02 -6.122688576579093933e-02
4.950000000000000000e+02 6.077332496643066406e-01 -1.209941196441650391e+01 4.858287516981363297e-03 -1.365767359733581543e+00 -4.082727134227752686e-01 -7.348585873842239380e-02
4.960000000000000000e+02 1.894759893417358398e+00 -1.346301078796386719e+01 3.500486165285110474e-02 -1.195508003234863281e+00 -3.481509685516357422e-01 -1.793743222951889038e-01
4.970000000000000000e+02 4.859534740447998047e+00 -1.744123077392578125e+01 1.949790567159652710e-01 -6.380002498626708984e-01 -1.329063624143600464e-01 -8.171828836202621460e-02
4.980000000000000000e+02 9.389480590820312500e+00 -2.218889427185058594e+01 2.700810432434082031e-01 4.547801613807678223e-01 2.174583673477172852e-01 1.999254822731018066e-01
4.990000000000000000e+02 9.029815673828125000e+00 -1.728371238708496094e+01 5.261763930320739746e-01 4.217486381530761719e-01 2.843775153160095215e-01 -4.442754015326499939e-02
5.000000000000000000e+02 6.755521893501281738e-01 -1.632645034790039062e+01 8.604390546679496765e-03 -1.728063464164733887e+00 -5.158377289772033691e-01 -2.699880301952362061e-02
5.010000000000000000e+02 3.480042219161987305e+00 -1.758810997009277344e+01 1.125678047537803650e-01 -9.684040546417236328e-01 -2.567508816719055176e-01 -5.584155768156051636e-02
5.020000000000000000e+02 5.009981155395507812e+00 -1.883547973632812500e+01 1.942200064659118652e-01 -6.053333282470703125e-01 -1.233340054750442505e-01 1.340578496456146240e-02
5.030000000000000000e+02 9.196084976196289062e+00 -2.350505447387695312e+01 2.040845155715942383e-01 4.361993372440338135e-01 1.920851469039916992e-01 2.417812794446945190e-01
5.040000000000000000e+02 7.290194034576416016e-01 -1.916544723510742188e+01 1.081360876560211182e-02 -1.765995502471923828e+00 -5.265545845031738281e-01 1.292115636169910431e-02
5.050000000000000000e+02 2.256892681121826172e+00 -2.059782981872558594e+01 3.553752601146697998e-02 -1.283833503723144531e+00 -3.744888007640838623e-01 6.946523487567901611e-02
5.060000000000000000e+02 6.636801719665527344e+00 -2.302462005615234375e+01 1.645500808954238892e-01 -1.572130173444747925e-01 2.201121998950839043e-03 2.281326353549957275e-01
5.070000000000000000e+02 1.068392753601074219e+01 -2.681941032409667969e+01 -2.666801679879426956e-03 5.484655499458312988e-01 1.637396216392517090e-01 1.922719031572341919e-01
5.080000000000000000e+02 9.186314582824707031e+00 -2.479655265808105469e+01 1.270162463188171387e-01 4.016292989253997803e-01 1.585936546325683594e-01 2.486731559038162231e-01
5.090000000000000000e+02 7.504263520240783691e-01 -2.202106094360351562e+01 3.785541048273444176e-03 -1.665506601333618164e+00 -4.985163211822509766e-01 4.022663831710815430e-02
5.100000000000000000e+02 2.190217256546020508e+00 -2.353909683227539062e+01 2.319898083806037903e-02 -1.192446827888488770e+00 -3.507743477821350098e-01 1.402944028377532959e-01
5.110000000000000000e+02 1.060245227813720703e+01 -2.859842872619628906e+01 -7.510694116353988647e-02 4.513779878616333008e-01 1.128813102841377258e-01 1.830894947052001953e-01
5.120000000000000000e+02 6.445039510726928711e-01 -2.765685844421386719e+01 -1.302466727793216705e-03 -1.246315360069274902e+00 -3.742853701114654541e-01 5.525944754481315613e-02
5.130000000000000000e+02 1.910921931266784668e+00 -2.901870536804199219e+01 -6.379218772053718567e-03 -9.302425384521484375e-01 -2.809865176677703857e-01 1.469661444425582886e-01
5.140000000000000000e+02 4.673568725585937500e+00 -3.133017730712890625e+01 -4.802917689085006714e-02 -4.215010106563568115e-01 -1.408590525388717651e-01 2.346143722534179688e-01
5.150000000000000000e+02 1.011846923828125000e+01 -3.583334732055664062e+01 -1.702902913093566895e-01 1.417408138513565063e-01 -8.564841002225875854e-03 1.222945749759674072e-01
5.160000000000000000e+02 8.688760757446289062e+00 -3.242382812500000000e+01 -1.284513324499130249e-01 8.362689614295959473e-02 -1.344733405858278275e-02 2.005964368581771851e-01
5.170000000000000000e+02 6.356043815612792969e-01 -2.905175018310546875e+01 -1.753925345838069916e-03 -1.128078937530517578e+00 -3.389498591423034668e-01 5.199470743536949158e-02
5.180000000000000000e+02 1.933974146842956543e+00 -3.037888717651367188e+01 -1.013804599642753601e-02 -8.449726104736328125e-01 -2.565332055091857910e-01 1.345426589250564575e-01
5.190000000000000000e+02 7.215703487396240234e+00 -3.363764572143554688e+01 -1.070408299565315247e-01 -8.364135026931762695e-02 -5.720465257763862610e-02 2.009180635213851929e-01
5.200000000000000000e+02 7.065705657005310059e-01 -3.463827514648437500e+01 -2.555087674409151077e-03 -7.394253015518188477e-01 -2.225941270589828491e-01 3.973961994051933289e-02
5.210000000000000000e+02 2.156754493713378906e+00 -3.446316909790039062e+01 -1.059482153505086899e-02 -6.364029645919799805e-01 -1.940993368625640869e-01 1.022605225443840027e-01
5.220000000000000000e+02 5.389075279235839844e+00 -3.572861099243164062e+01 -7.244895398616790771e-02 -2.904500663280487061e-01 -1.088697016239166260e-01 1.474902182817459106e-01
5.230000000000000000e+02 8.235636711120605469e+00 -4.119931030273437500e+01 -1.356357336044311523e-01 -5.739399045705795288e-02 -5.790891870856285095e-02 2.475594356656074524e-02
5.240000000000000000e+02 7.246491909027099609e-01 -3.601984024047851562e+01 -4.709370899945497513e-03 -6.693972945213317871e-01 -2.022320032119750977e-01 3.213522583246231079e-02
5.250000000000000000e+02 7.748994827270507812e-01 -3.738871002197265625e+01 5.822205450385808945e-03 -6.042193770408630371e-01 -1.795191615819931030e-01 3.528845310211181641e-02
5.260000000000000000e+02 2.035948514938354492e+00 -4.164051818847656250e+01 -4.601540789008140564e-02 -4.752918779850006104e-01 -1.563921868801116943e-01 1.303249038755893707e-02
5.270000000000000000e+02 1.332090497016906738e+00 -4.008423614501953125e+01 8.575102314352989197e-03 -4.943832755088806152e-01 -1.457424461841583252e-01 4.043399915099143982e-02
5.280000000000000000e+02 1.735789108276367188e+01 -4.135388183593750000e+01 -2.198190242052078247e-01 3.748524785041809082e-01 4.651002958416938782e-02 -9.799777530133724213e-03
5.290000000000000000e+02 2.096107292175292969e+01 -3.865654373168945312e+01 -1.500131189823150635e-01 3.633067309856414795e-01 6.398808211088180542e-02 -7.820452749729156494e-02
5.300000000000000000e+02 2.010159301757812500e+01 -3.614081954956054688e+01 -1.301792711019515991e-01 4.062896668910980225e-01 8.283311873674392700e-02 -1.230770796537399292e-01
5.310000000000000000e+02 1.747533607482910156e+01 -3.010064888000488281e+01 2.458387054502964020e-02 6.222838759422302246e-01 1.940603107213973999e-01 -2.252165228128433228e-01
5.320000000000000000e+02 2.232199668884277344e+01 -2.931066703796386719e+01 3.281524777412414551e-01 2.569611966609954834e-01 1.755340993404388428e-01 -2.610781490802764893e-01
5.330000000000000000e+02 1.908345603942871094e+01 -2.653586196899414062e+01 4.719274342060089111e-01 5.539880394935607910e-01 3.077746331691741943e-01 -4.985632300376892090e-01
5.340000000000000000e+02 2.011161041259765625e+01 -2.752484321594238281e+01 4.098533093929290771e-01 4.447863101959228516e-01 2.563918828964233398e-01 -4.178105890750885010e-01
5.350000000000000000e+02 2.198745346069335938e+01 -4.123125457763671875e+01 -1.449594050645828247e-01 3.334451317787170410e-01 5.654572322964668274e-02 -2.345634251832962036e-02
5.360000000000000000e+02 2.442667007446289062e+01 -3.793702697753906250e+01 -6.558808684349060059e-02 2.529571950435638428e-01 5.621073022484779358e-02 -9.286922216415405273e-02
5.370000000000000000e+02 2.289184761047363281e+01 -3.539490890502929688e+01 -5.547826364636421204e-02 3.023420870304107666e-01 7.405914366245269775e-02 -1.529070585966110229e-01
5.380000000000000000e+02 2.342643547058105469e+01 -3.051017761230468750e+01 2.044025659561157227e-01 2.035472840070724487e-01 1.223849505186080933e-01 -2.018115669488906860e-01
5.390000000000000000e+02 2.639446258544921875e+01 -4.088541030883789062e+01 -5.425751954317092896e-02 2.013148218393325806e-01 4.411718994379043579e-02 -2.573366649448871613e-02
5.400000000000000000e+02 2.708480453491210938e+01 -3.667253112792968750e+01 -1.304104458540678024e-02 1.600936353206634521e-01 4.411577805876731873e-02 -8.309280872344970703e-02
5.410000000000000000e+02 2.970119667053222656e+01 -3.093398666381835938e+01 9.471147321164608002e-03 -1.427935785613954067e-04 2.798506291583180428e-03 -2.605396322906017303e-02
5.420000000000000000e+02 3.454927062988281250e+01 -2.731929397583007812e+01 -2.041690051555633545e-02 1.177772413939237595e-03 -5.771738477051258087e-03 -7.879748009145259857e-03
5.430000000000000000e+02 3.548255157470703125e+01 -2.615060806274414062e+01 -1.911804825067520142e-02 2.412698697298765182e-03 -5.011605098843574524e-03 -5.884303245693445206e-03
5.440000000000000000e+02 4.094451522827148438e+01 -2.749870681762695312e+01 -1.398825924843549728e-02 6.796949543058872223e-03 -2.157392678782343864e-03 3.871645778417587280e-03
5.450000000000000000e+02 4.182612991333007812e+01 -2.523418045043945312e+01 -9.974274784326553345e-03 3.334564622491598129e-03 -1.991912955418229103e-03 3.864348400384187698e-03
5.460000000000000000e+02 4.419602966308593750e+01 -2.683670806884765625e+01 -1.105439197272062302e-02 8.179770520655438304e-05 -3.291778266429901123e-03 7.199844811111688614e-03
5.470000000000000000e+02 4.572482681274414062e+01 -2.579100608825683594e+01 -7.244840729981660843e-03 -7.983564399182796478e-03 -4.568521399050951004e-03 7.112738676369190216e-03
5.480000000000000000e+02 4.567870330810546875e+01 -1.967924308776855469e+01 -4.589369054883718491e-04 1.342531759291887283e-03 2.650784444995224476e-04 7.078699582052649930e-06
5.490000000000000000e+02 4.432993316650390625e+01 -1.842943954467773438e+01 -5.451340257422998548e-05 5.171023658476769924e-04 1.387766824336722493e-04 -1.992782345041632652e-04
5.500000000000000000e+02 4.309902954101562500e+01 -1.745098304748535156e+01 -5.680940375896170735e-05 2.881692198570817709e-04 6.940794264664873481e-05 -1.422625882696593180e-05
5.510000000000000000e+02 4.131472396850585938e+01 -1.622297286987304688e+01 2.210629754699766636e-04 -1.684693997958675027e-04 1.577807051944546402e-05 -1.673906663199886680e-04
5.520000000000000000e+02 4.071789550781250000e+01 -1.580944633483886719e+01 2.578642452135682106e-04 -1.110116281779482961e-04 4.405578511068597436e-05 -7.373465905402554199e-06
5.530000000000000000e+02 3.980775451660156250e+01 -1.606232833862304688e+01 1.214057483593933284e-04 -1.810777466744184494e-04 -1.790159876691177487e-05 5.560484351008199155e-05
5.540000000000000000e+02 3.832895278930664062e+01 -1.428494739532470703e+01 4.638734390027821064e-05 -7.380569059023400769e-06 1.170203267975011840e-05 -4.221831113682128489e-05
5.550000000000000000e+02 3.708895111083984375e+01 -1.367583656311035156e+01 -1.656568201724439859e-04 1.216276650666259229e-04 -1.320874525845283642e-05 1.181415154860587791e-05
5.560000000000000000e+02 3.541257095336914062e+01 -1.790976333618164062e+01 -5.384801188483834267e-04 6.774052162654697895e-04 4.167751831118948758e-05 -2.571466393419541419e-05
5.570000000000000000e+02 3.628419494628906250e+01 -1.779972839355468750e+01 4.108284483663737774e-04 4.907020484097301960e-04 2.704591606743633747e-04 3.862906305585056543e-04
5.580000000000000000e+02 3.564936065673828125e+01 -2.051999664306640625e+01 -1.099845860153436661e-03 1.633044885238632560e-04 -2.809624129440635443e-04 -7.385446224361658096e-04
5.590000000000000000e+02 3.959644317626953125e+01 -2.327977752685546875e+01 -6.148157175630331039e-03 1.910109422169625759e-03 -1.271414337679743767e-03 -1.120932502089999616e-04
5.600000000000000000e+02 4.313113784790039062e+01 -2.580254745483398438e+01 -9.392363019287586212e-03 1.020739553496241570e-03 -2.511487109586596489e-03 6.043205503374338150e-03
5.610000000000000000e+02 4.392730712890625000e+01 -2.297354698181152344e+01 -2.032547956332564354e-03 -1.643571071326732635e-03 -1.102835754863917828e-03 3.311274107545614243e-03
5.620000000000000000e+02 4.528817367553710938e+01 -2.283770751953125000e+01 -1.481401617638766766e-03 -9.153445716947317123e-04 -7.190238684415817261e-04 9.310379973612725735e-04
5.630000000000000000e+02 4.021473693847656250e+01 -1.834909820556640625e+01 -1.704184687696397305e-04 -3.796973032876849174e-04 -1.650347257964313030e-04 1.288489147555083036e-04
5.640000000000000000e+02 3.774018859863281250e+01 -1.979864120483398438e+01 -1.565967686474323273e-03 -6.884364411234855652e-04 -6.763212149962782860e-04 -6.037809071131050587e-04
5.650000000000000000e+02 2.960433006286621094e+01 -3.928710937500000000e+01 -5.872891284525394440e-03 1.149351820349693298e-01 3.271868824958801270e-02 -3.083564341068267822e-02
5.660000000000000000e+02 3.139445495605468750e+01 -3.676818084716796875e+01 1.560184266418218613e-02 6.159996986389160156e-02 2.316054515540599823e-02 -2.933517098426818848e-02
5.670000000000000000e+02 2.893763542175292969e+01 -3.506089782714843750e+01 2.159663662314414978e-02 7.813209295272827148e-02 2.991862036287784576e-02 -6.236353889107704163e-02
5.680000000000000000e+02 3.099563598632812500e+01 -3.033071136474609375e+01 -1.293455250561237335e-02 -5.021604243665933609e-03 -5.386847071349620819e-03 -6.087264977395534515e-03
5.690000000000000000e+02 2.875492668151855469e+01 -2.949580383300781250e+01 -3.892235085368156433e-02 -8.038587868213653564e-03 -1.408828143030405045e-02 -2.369423024356365204e-02
5.700000000000000000e+02 3.325098800659179688e+01 -4.087882232666015625e+01 7.047178689390420914e-03 6.967068463563919067e-02 2.301535941660404205e-02 -5.909639410674571991e-03
5.710000000000000000e+02 3.451523971557617188e+01 -3.788438034057617188e+01 1.497227326035499573e-02 4.089529439806938171e-02 1.676027104258537292e-02 -1.103843376040458679e-02
5.720000000000000000e+02 3.252186203002929688e+01 -3.455761337280273438e+01 1.843981631100177765e-02 3.053435310721397400e-02 1.469225063920021057e-02 -1.984252221882343292e-02
5.730000000000000000e+02 3.370639419555664062e+01 -3.073107337951660156e+01 -1.128002349287271500e-02 8.436800912022590637e-03 -8.529666229151189327e-04 5.086811725050210953e-04
5.740000000000000000e+02 3.776594924926757812e+01 -4.113169860839843750e+01 1.753261499106884003e-02 2.151313051581382751e-02 1.171372365206480026e-02 1.163520035333931446e-03
5.750000000000000000e+02 3.826222610473632812e+01 -3.833953857421875000e+01 1.390041504055261612e-02 2.093896828591823578e-02 1.045181509107351303e-02 1.830608234740793705e-03
5.760000000000000000e+02 3.854254913330078125e+01 -3.544334793090820312e+01 8.665437810122966766e-03 1.451374404132366180e-02 6.953754462301731110e-03 2.475820947438478470e-03
5.770000000000000000e+02 3.538538360595703125e+01 -3.096215820312500000e+01 -6.827530451118946075e-03 1.330353785306215286e-02 1.942802104167640209e-03 4.801792558282613754e-03
5.780000000000000000e+02 3.464356613159179688e+01 -2.957885742187500000e+01 -1.760206930339336395e-02 7.818272337317466736e-03 -2.935138996690511703e-03 1.032416039379313588e-04
5.790000000000000000e+02 4.244285202026367188e+01 -3.840975952148437500e+01 1.244670525193214417e-02 3.148704534396529198e-03 4.678623285144567490e-03 2.849781420081853867e-03
5.800000000000000000e+02 4.211361312866210938e+01 -3.542518615722656250e+01 5.962865427136421204e-03 5.636978894472122192e-03 3.479953156784176826e-03 5.268503446131944656e-03
5.810000000000000000e+02 4.027279663085937500e+01 -2.978603744506835938e+01 -8.297929540276527405e-03 1.000961009413003922e-02 5.135040264576673508e-04 6.770189851522445679e-03
5.820000000000000000e+02 4.247537994384765625e+01 -4.119326019287109375e+01 1.433075033128261566e-02 4.216507077217102051e-03 5.564177408814430237e-03 4.718688724096864462e-04
5.830000000000000000e+02 4.483939743041992188e+01 -3.480750656127929688e+01 4.301600158214569092e-03 -1.427532988600432873e-03 8.622201858088374138e-04 5.065888166427612305e-03
5.840000000000000000e+02 4.393490219116210938e+01 -3.075055313110351562e+01 -6.940658204257488251e-03 1.984539441764354706e-03 -1.486835768446326256e-03 5.170753225684165955e-03
5.850000000000000000e+02 4.429875183105468750e+01 -3.264344406127929688e+01 -2.058663871139287949e-03 1.952704275026917458e-03 -3.178789120283909142e-05 6.394822150468826294e-03
5.860000000000000000e+02 4.715901947021484375e+01 -4.116670989990234375e+01 1.100145746022462845e-02 -4.914540797472000122e-03 1.826075138524174690e-03 1.234080758877098560e-03
5.870000000000000000e+02 4.658627700805664062e+01 -3.843997955322265625e+01 8.800663985311985016e-03 -3.541600191965699196e-03 1.577719114720821381e-03 3.210627008229494095e-03
5.880000000000000000e+02 4.927225112915039062e+01 -3.581439208984375000e+01 3.857291769236326218e-03 -6.141598336398601532e-03 -6.852920050732791424e-04 5.484486930072307587e-03
5.890000000000000000e+02 4.635480499267578125e+01 -3.192931175231933594e+01 -3.837882308289408684e-03 -5.034538917243480682e-03 -2.661726437509059906e-03 5.451258271932601929e-03
5.900000000000000000e+02 4.650554275512695312e+01 -2.714889335632324219e+01 -1.098397653549909592e-02 -1.042621023952960968e-02 -6.423056125640869141e-03 1.027158275246620178e-02
5.910000000000000000e+02 5.160597229003906250e+01 -4.094363021850585938e+01 6.450087297707796097e-03 -7.137624081224203110e-03 -2.062610292341560125e-04 1.235659001395106316e-03
5.920000000000000000e+02 5.015243530273437500e+01 -3.814030456542968750e+01 6.614202633500099182e-03 -7.134410087019205093e-03 -1.560622185934334993e-04 3.804117906838655472e-03
5.930000000000000000e+02 5.037880706787109375e+01 -3.319570922851562500e+01 -2.726062433794140816e-03 -7.490731775760650635e-03 -3.065038239583373070e-03 7.118890061974525452e-03
5.940000000000000000e+02 5.434460449218750000e+01 -3.078568840026855469e+01 -6.948208436369895935e-03 -1.458258251659572124e-03 -2.521940041333436966e-03 2.324075670912861824e-03
5.950000000000000000e+02 5.581541442871093750e+01 -3.090573501586914062e+01 -4.454742651432752609e-03 -1.585645659361034632e-04 -1.383992261253297329e-03 1.239197095856070518e-03
5.960000000000000000e+02 6.017080307006835938e+01 -2.980046081542968750e+01 -2.516821841709315777e-04 7.983695104485377669e-05 -5.155357212061062455e-05 2.973755763377994299e-04
5.970000000000000000e+02 6.366357803344726562e+01 -2.968165016174316406e+01 -4.942692976328544319e-05 -1.210949631058610976e-05 -1.846092709456570446e-05 1.294011890422552824e-04
5.980000000000000000e+02 6.374609375000000000e+01 -2.739768600463867188e+01 2.976056712213903666e-04 1.689235941739752889e-04 1.399587781634181738e-04 2.085005253320559859e-04
5.990000000000000000e+02 6.670570373535156250e+01 -2.430259132385253906e+01 1.241862191818654537e-04 4.926789188175462186e-05 5.203623368288390338e-05 8.078714017756283283e-05
6.000000000000000000e+02 7.052919006347656250e+01 -2.303317260742187500e+01 1.709770294837653637e-04 -6.755957292625680566e-05 3.102523623965680599e-05 -1.177257217932492495e-05
6.010000000000000000e+02 7.616217041015625000e+01 -2.540701675415039062e+01 7.978478242876008153e-05 4.276621257304213941e-05 3.676529740914702415e-05 -4.516581975622102618e-05
6.020000000000000000e+02 7.833688354492187500e+01 -2.546405029296875000e+01 6.003869202686473727e-05 4.549955338006839156e-05 3.166147143929265440e-05 -2.655960088304709643e-05
6.030000000000000000e+02 7.749033355712890625e+01 -2.047791099548339844e+01 -3.119888788205571473e-05 -2.176515772589482367e-05 -1.588921440998092294e-05 1.216299369843909517e-05
6.040000000000000000e+02 7.769970703125000000e+01 -1.844504737854003906e+01 -2.218587360403034836e-05 -8.341061175087816082e-07 -6.905993814143585041e-06 5.000645614927634597e-06
6.050000000000000000e+02 7.572718048095703125e+01 -1.826613044738769531e+01 1.067988705472089350e-05 8.778749247539963108e-07 3.467328724582330324e-06 4.718725449492922053e-06
6.060000000000000000e+02 7.429003143310546875e+01 -1.817747497558593750e+01 2.694135400815866888e-05 1.097921267501078546e-05 1.137616982305189595e-05 -2.697362617709586630e-07
6.070000000000000000e+02 7.287333679199218750e+01 -1.816676330566406250e+01 2.160362237191293389e-05 2.698184471228159964e-05 1.457564030715730041e-05 -2.961225618491880596e-06
6.080000000000000000e+02 7.218398284912109375e+01 -1.895017051696777344e+01 3.415092942304909229e-05 2.987533662235364318e-05 1.920787872222717851e-05 9.680985613158554770e-07
6.090000000000000000e+02 7.117794799804687500e+01 -2.197317123413085938e+01 1.620450007067120168e-06 5.075530134490691125e-05 1.571272514411248267e-05 6.075831333873793483e-05
6.100000000000000000e+02 7.075984954833984375e+01 -1.835516548156738281e+01 -1.486186556576285511e-05 -3.971207115682773292e-05 -1.637218156247399747e-05 -2.093920375045854598e-05
6.110000000000000000e+02 7.516867065429687500e+01 -2.029273414611816406e+01 -6.792869680793955922e-05 -4.575000275508500636e-06 -2.175110967073123902e-05 1.514244218014937360e-06
6.120000000000000000e+02 7.604985809326171875e+01 -2.307114601135253906e+01 7.092206942616030574e-05 4.809607344213873148e-05 3.570544504327699542e-05 7.776709026074968278e-06
6.130000000000000000e+02 5.287836837768554688e+01 -3.701028442382812500e+01 2.902034902945160866e-03 -6.768685765564441681e-03 -1.159995212219655514e-03 3.936389461159706116e-03
6.140000000000000000e+02 5.317341232299804688e+01 -3.385918426513671875e+01 -2.214362379163503647e-03 -5.601850338280200958e-03 -2.344863722100853920e-03 5.876232404261827469e-03
6.150000000000000000e+02 5.483371734619140625e+01 -3.527070617675781250e+01 1.844715152401477098e-04 -3.632677951827645302e-03 -1.034461893141269684e-03 4.524883348494768143e-03
6.160000000000000000e+02 5.494949722290039062e+01 -3.943290328979492188e+01 3.943297546356916428e-03 -4.950222559273242950e-03 -3.020775911863893270e-04 2.168462844565510750e-03
6.170000000000000000e+02 5.701799011230468750e+01 -3.692522430419921875e+01 2.101110148942098022e-04 -3.833102760836482048e-03 -1.086897565983235836e-03 2.952225971966981888e-03
6.180000000000000000e+02 5.831708908081054688e+01 -4.101559448242187500e+01 2.094770316034555435e-03 -4.365353845059871674e-03 -6.811750936321914196e-04 5.628435174003243446e-04
6.190000000000000000e+02 5.974620056152343750e+01 -3.830675125122070312e+01 1.202052575536072254e-03 -2.516217762604355812e-03 -3.942495386581867933e-04 1.760939834639430046e-03
6.200000000000000000e+02 5.869120025634765625e+01 -3.504468154907226562e+01 -6.053054821677505970e-04 -1.425269292667508125e-03 -6.091724499128758907e-04 2.381153637543320656e-03
6.210000000000000000e+02 6.241069412231445312e+01 -3.063587570190429688e+01 -3.121954505331814289e-04 5.750921263825148344e-05 -7.640587864443659782e-05 1.315149711444973946e-04
6.220000000000000000e+02 6.927386474609375000e+01 -2.962922668457031250e+01 2.737728755164425820e-05 5.464503192342817783e-05 2.460669566062279046e-05 1.082161979866214097e-04
6.230000000000000000e+02 7.785063934326171875e+01 -2.953309822082519531e+01 -6.696859054500237107e-05 8.843375690048560500e-05 6.439550816139671952e-06 -5.082062853034585714e-05
6.240000000000000000e+02 7.935493469238281250e+01 -2.819237709045410156e+01 -4.392370465211570263e-05 1.020524359773844481e-04 1.743862048897426575e-05 -1.954078470589593053e-05
6.250000000000000000e+02 7.944466400146484375e+01 -2.547688674926757812e+01 -3.936389839509502053e-05 4.101205195183865726e-05 4.944458851241506636e-07 -8.932007403927855194e-06
6.260000000000000000e+02 6.272333526611328125e+01 -4.131234741210937500e+01 5.536637036129832268e-04 -1.740282168611884117e-03 -3.559855394996702671e-04 1.301465817959979177e-04
6.270000000000000000e+02 6.687425994873046875e+01 -3.889662170410156250e+01 -1.496472395956516266e-05 -6.240082439035177231e-04 -1.916918990900740027e-04 2.442323311697691679e-04
6.280000000000000000e+02 6.384591293334960938e+01 -3.403931427001953125e+01 -7.878898759372532368e-04 -5.341321229934692383e-04 -3.966065996792167425e-04 3.947314107790589333e-04
6.290000000000000000e+02 6.348038482666015625e+01 -3.636603927612304688e+01 3.583937723306007683e-05 -9.149617399089038372e-04 -2.637366997078061104e-04 9.921485325321555138e-04
6.300000000000000000e+02 6.730561065673828125e+01 -4.131808090209960938e+01 4.900852218270301819e-05 -8.354453602805733681e-04 -2.359310456085950136e-04 1.002750796033069491e-04
6.310000000000000000e+02 7.041452026367187500e+01 -3.830018615722656250e+01 2.683499951672274619e-05 -3.942070761695504189e-04 -1.102116293623112142e-04 -6.996179308771388605e-06
6.320000000000000000e+02 6.624803161621093750e+01 -3.407094192504882812e+01 -7.868272950872778893e-05 -2.531247446313500404e-04 -9.954224515240639448e-05 3.780016850214451551e-04
6.330000000000000000e+02 6.647643280029296875e+01 -3.643877792358398438e+01 -1.521939557278528810e-04 -7.777259452268481255e-04 -2.789759601000696421e-04 1.316116249654442072e-04
6.340000000000000000e+02 7.183942413330078125e+01 -4.101494216918945312e+01 -7.822595216566696763e-05 -2.475559595040977001e-04 -9.773457713890820742e-05 -2.129214044543914497e-05
6.350000000000000000e+02 7.280987548828125000e+01 -3.691982269287109375e+01 -1.730089279590174556e-04 -2.082604041788727045e-04 -1.143807967309840024e-04 -1.144766065408475697e-04
6.360000000000000000e+02 7.298664093017578125e+01 -3.398611450195312500e+01 -6.954746640985831618e-05 -8.528869511792436242e-05 -4.645084845833480358e-05 -1.062880764948204160e-04
6.370000000000000000e+02 7.543689727783203125e+01 -4.023006057739257812e+01 3.549382017808966339e-05 2.089580375468358397e-04 7.333555549848824739e-05 -4.288341369829140604e-05
6.380000000000000000e+02 7.440861511230468750e+01 -3.305091857910156250e+01 -4.313642784836702049e-05 5.832336319144815207e-05 4.556080966722220182e-06 -1.127221330534666777e-04
6.390000000000000000e+02 7.808891296386718750e+01 -4.167312240600585938e+01 -2.224154377472586930e-05 2.608385984785854816e-04 7.157911750255152583e-05 -7.471033768524648622e-06
6.400000000000000000e+02 7.895014953613281250e+01 -4.025597381591796875e+01 7.973975880304351449e-05 2.582604065537452698e-04 1.014000517898239195e-04 5.028606665291590616e-06
6.410000000000000000e+02 7.910929107666015625e+01 -3.776119995117187500e+01 3.447794370003975928e-05 2.950536727439612150e-04 9.885948384180665016e-05 -2.062016847048653290e-06
6.420000000000000000e+02 7.768467712402343750e+01 -3.500422286987304688e+01 -1.105335177271626890e-04 2.009683958021923900e-04 2.713046524149831384e-05 -7.241037383209913969e-05
6.430000000000000000e+02 7.928482055664062500e+01 -3.230626678466796875e+01 6.643762026214972138e-05 2.150992804672569036e-04 8.446106949122622609e-05 -1.946224801940843463e-05
6.440000000000000000e+02 7.900495147705078125e+01 -1.855561447143554688e+01 8.306468771479558200e-06 -1.378378328809048980e-05 -1.643194195821706671e-06 -1.638490903133060783e-05
6.450000000000000000e+02 6.830665588378906250e+01 -2.185809707641601562e+01 1.204550335387466475e-05 7.238459147629328072e-06 5.785188932350138202e-06 3.622626900323666632e-05
6.460000000000000000e+02 6.875878143310546875e+01 -2.390715980529785156e+01 1.358685549348592758e-04 -5.399919700721511617e-06 3.914059197995811701e-05 4.099138823221437633e-05
6.470000000000000000e+02 6.474313354492187500e+01 -2.638222694396972656e+01 2.106191677739843726e-04 1.219109763042069972e-04 9.975903958547860384e-05 1.661327696638181806e-04
6.480000000000000000e+02 6.267470932006835938e+01 -2.834506416320800781e+01 3.498681762721389532e-04 1.670868950895965099e-04 1.550865126773715019e-04 2.419437514618039131e-04
6.490000000000000000e+02 5.878318786621093750e+01 -3.034628295898437500e+01 -1.118153100833296776e-03 -6.950760507606901228e-06 -3.375311498530209064e-04 4.579728993121534586e-04
6.500000000000000000e+02 5.153560638427734375e+01 -3.037284851074218750e+01 -1.527296844869852066e-02 -4.395209252834320068e-03 -5.900453310459852219e-03 6.039564963430166245e-03
6.510000000000000000e+02 4.990443420410156250e+01 -3.164339637756347656e+01 -7.569231092929840088e-03 -9.189850650727748871e-03 -5.027724429965019226e-03 7.887653075158596039e-03
6.520000000000000000e+02 4.870038223266601562e+01 -2.947728538513183594e+01 -1.735901646316051483e-02 -1.061130594462156296e-02 -8.391096256673336029e-03 1.060171052813529968e-02
6.530000000000000000e+02 3.549563598632812500e+01 -2.265192031860351562e+01 -2.480470575392246246e-03 -1.588601619005203247e-03 -1.220721635036170483e-03 -2.503335010260343552e-03
6.540000000000000000e+02 3.678809356689453125e+01 -2.363153457641601562e+01 -8.798235096037387848e-03 1.102055888622999191e-03 -2.308853669092059135e-03 -3.950965590775012970e-03
6.550000000000000000e+02 3.765459823608398438e+01 -2.572990608215332031e+01 -1.533991005271673203e-02 5.889495369046926498e-03 -2.835124265402555466e-03 -1.771871116943657398e-03
6.560000000000000000e+02 3.497631835937500000e+01 -2.388565444946289062e+01 -6.995663978159427643e-03 -5.007308442145586014e-03 -3.600891679525375366e-03 -5.663400050252676010e-03
6.570000000000000000e+02 3.423761367797851562e+01 -2.507884216308593750e+01 -1.188539713621139526e-02 -8.188023231923580170e-03 -6.022025831043720245e-03 -9.952746331691741943e-03
6.580000000000000000e+02 3.333316802978515625e+01 -2.617064666748046875e+01 -2.045449241995811462e-02 -1.085450965911149979e-02 -9.392701089382171631e-03 -1.284230500459671021e-02
6.590000000000000000e+02 3.235097122192382812e+01 -2.721442985534667969e+01 -2.603672817349433899e-02 -1.281107775866985321e-02 -1.165434159338474274e-02 -2.042548917233943939e-02
6.600000000000000000e+02 2.553236007690429688e+01 -3.138303756713867188e+01 8.029490709304809570e-02 9.082817286252975464e-02 5.133692547678947449e-02 -1.653100401163101196e-01
6.610000000000000000e+02 2.585251998901367188e+01 -2.997426605224609375e+01 6.592552363872528076e-02 -1.282658986747264862e-02 1.592968031764030457e-02 -3.755842521786689758e-02
6.620000000000000000e+02 1.822476959228515625e+01 -1.169682788848876953e+01 2.225912809371948242e+00 6.660522222518920898e-01 8.675894737243652344e-01 8.774787783622741699e-01
6.630000000000000000e+02 2.306895065307617188e+01 -9.556653022766113281e+00 1.184912919998168945e+00 7.861688733100891113e-02 3.790589570999145508e-01 5.098375678062438965e-01
6.640000000000000000e+02 2.244446945190429688e+01 -7.530799388885498047e+00 7.314707040786743164e-01 8.439058810472488403e-02 2.447583824396133423e-01 3.558376133441925049e-01
6.650000000000000000e+02 2.384633255004882812e+01 -2.673528909683227539e+00 -9.101572632789611816e-01 1.894072145223617554e-01 -2.162250280380249023e-01 2.538899146020412445e-02
6.660000000000000000e+02 2.345750999450683594e+01 -3.342198371887207031e+00 -6.647483110427856445e-01 1.887399107217788696e-01 -1.428025215864181519e-01 7.348170876502990723e-02
6.670000000000000000e+02 2.342518806457519531e+01 -1.061020660400390625e+01 1.236505389213562012e+00 1.469530016183853149e-01 4.150375127792358398e-01 4.945672750473022461e-01
6.680000000000000000e+02 2.575754737854003906e+01 -9.433765411376953125e+00 1.389815568923950195e+00 4.269438385963439941e-01 5.450278520584106445e-01 7.912223339080810547e-01
6.690000000000000000e+02 2.721990966796875000e+01 -6.809316158294677734e+00 9.301091432571411133e-01 3.701532483100891113e-01 3.900787234306335449e-01 3.468793034553527832e-01
6.700000000000000000e+02 3.061417579650878906e+01 -6.777665138244628906e+00 7.641592025756835938e-01 5.290665850043296814e-02 2.451197654008865356e-01 5.363575220108032227e-01
6.710000000000000000e+02 2.676447105407714844e+01 -7.432260036468505859e+00 1.150902867317199707e+00 3.641193509101867676e-01 4.545066952705383301e-01 3.645619153976440430e-01
6.720000000000000000e+02 2.682383537292480469e+01 -8.760603904724121094e+00 1.900537014007568359e+00 4.917657375335693359e-01 7.176908254623413086e-01 8.291776776313781738e-01
6.730000000000000000e+02 2.755819702148437500e+01 -7.997530937194824219e+00 1.843461155891418457e+00 4.249326884746551514e-01 6.805181503295898438e-01 5.733453035354614258e-01
6.740000000000000000e+02 7.584352874755859375e+01 -5.681986331939697266e+00 -4.464419931173324585e-02 -2.600308358669281006e-01 -9.140250831842422485e-02 -2.703560888767242432e-01
6.750000000000000000e+02 7.365599060058593750e+01 -1.815197587013244629e+00 2.142079733312129974e-02 -2.913425266742706299e-01 -8.097651600837707520e-02 -3.742475509643554688e-01
6.760000000000000000e+02 7.592201995849609375e+01 -3.052915811538696289e+00 -6.832363083958625793e-03 -3.909190595149993896e-01 -1.193254217505455017e-01 -2.917523384094238281e-01
6.770000000000000000e+02 6.854497528076171875e+01 -6.926661014556884766e+00 -2.049931138753890991e-01 -4.217780008912086487e-02 -7.415127009153366089e-02 -4.662123918533325195e-01
6.780000000000000000e+02 6.023085403442382812e+01 -5.480413913726806641e+00 3.098268508911132812e-01 1.523710042238235474e-01 1.386593580245971680e-01 1.197021640837192535e-02
6.790000000000000000e+02 5.722375488281250000e+01 -2.534139156341552734e+00 8.384637832641601562e-01 7.574652433395385742e-01 4.787787199020385742e-01 6.282237172126770020e-01
6.800000000000000000e+02 5.794200134277343750e+01 -3.812955617904663086e+00 7.295489907264709473e-01 4.813767671585083008e-01 3.632777333259582520e-01 4.187715053558349609e-01
6.810000000000000000e+02 4.796118545532226562e+01 -6.658129692077636719e+00 1.111599087715148926e+00 1.676930785179138184e-01 3.837876319885253906e-01 3.679232001304626465e-01
6.820000000000000000e+02 4.639677810668945312e+01 -1.107103443145751953e+01 -3.408238589763641357e-01 1.775114834308624268e-01 -4.899371042847633362e-02 4.284417629241943359e-01
6.830000000000000000e+02 4.803058242797851562e+01 -8.325552940368652344e+00 5.035845637321472168e-01 2.483580857515335083e-01 2.255827933549880981e-01 4.526370465755462646e-01
6.840000000000000000e+02 4.954484176635742188e+01 -9.950263977050781250e+00 -7.699255645275115967e-02 4.057825505733489990e-01 9.863699227571487427e-02 4.226114153861999512e-01
6.850000000000000000e+02 4.309288406372070312e+01 -5.887482643127441406e+00 5.552026033401489258e-01 -1.037116944789886475e-01 1.354472637176513672e-01 1.283970475196838379e-01
6.860000000000000000e+02 4.224801635742187500e+01 -4.313683509826660156e+00 5.406026244163513184e-01 -6.401639431715011597e-02 1.429758667945861816e-01 3.648225218057632446e-02
6.870000000000000000e+02 3.741264343261718750e+01 -1.443362712860107422e+00 -1.069197710603475571e-02 -3.154483065009117126e-02 -1.267104223370552063e-02 7.916118204593658447e-02
6.880000000000000000e+02 3.658188247680664062e+01 -2.443188428878784180e+00 -2.480755187571048737e-02 -6.373535841703414917e-02 -2.656287141144275665e-02 2.040690183639526367e-01
6.890000000000000000e+02 2.047768592834472656e+01 -8.036792755126953125e+00 6.623343229293823242e-01 2.428475320339202881e-01 2.715545594692230225e-01 4.178489744663238525e-01
6.900000000000000000e+02 1.671487617492675781e+01 -5.299958229064941406e+00 -3.243159949779510498e-01 2.612613737583160400e-01 -1.891638524830341339e-02 -2.012930065393447876e-02
6.910000000000000000e+02 1.197496414184570312e+01 -5.600301742553710938e+00 -3.263723254203796387e-01 1.649906039237976074e-01 -4.841451346874237061e-02 -4.462601542472839355e-01
6.920000000000000000e+02 8.855113029479980469e+00 -1.892301201820373535e+00 -7.461652755737304688e-01 -4.684680141508579254e-03 -2.252549827098846436e-01 -2.993993759155273438e-01
6.930000000000000000e+02 3.909963369369506836e+00 -7.032410621643066406e+00 -4.044830054044723511e-02 -3.713386356830596924e-01 -1.235360801219940186e-01 -4.489881694316864014e-01
6.940000000000000000e+02 4.980020999908447266e+00 -1.895562052726745605e+00 -3.028696775436401367e-01 -3.713271394371986389e-02 -1.020007133483886719e-01 -2.303633391857147217e-01
6.950000000000000000e+02 9.825666427612304688e+00 -5.741137027740478516e+00 -2.651776373386383057e-01 7.055170089006423950e-02 -5.838777869939804077e-02 -5.478387475013732910e-01
6.960000000000000000e+02 6.391283988952636719e+00 -8.056643486022949219e+00 9.299564990215003490e-04 -1.905993372201919556e-01 -5.690081417560577393e-02 -5.732281804084777832e-01
6.970000000000000000e+02 8.110877990722656250e+00 -9.441049575805664062e+00 1.263598948717117310e-01 -8.056106045842170715e-03 3.549113869667053223e-02 -5.524078011512756348e-01
6.980000000000000000e+02 4.927918434143066406e+00 -2.679398298263549805e+00 -2.714026272296905518e-01 -6.686741113662719727e-02 -1.014810130000114441e-01 -2.958980798721313477e-01
6.990000000000000000e+02 1.378188514709472656e+01 -9.637409210205078125e+00 4.389220178127288818e-01 7.153036594390869141e-01 3.462677001953125000e-01 -1.090268865227699280e-01
7.000000000000000000e+02 1.557237911224365234e+01 -1.114885520935058594e+01 9.455739259719848633e-01 1.082021355628967285e+00 6.082785725593566895e-01 3.774994313716888428e-01
7.010000000000000000e+02 2.274505615234375000e+01 -8.528063774108886719e+00 1.010735511779785156e+00 7.399237900972366333e-02 3.254183530807495117e-01 4.588557183742523193e-01
7.020000000000000000e+02 3.639889526367187500e+01 -8.426195144653320312e+00 7.166741043329238892e-02 -2.711752057075500488e-01 -5.985233560204505920e-02 3.352971971035003662e-01
7.030000000000000000e+02 5.578694152832031250e+01 -6.693526268005371094e+00 5.574839711189270020e-01 4.059860408306121826e-01 2.890410125255584717e-01 1.730979382991790771e-01
7.040000000000000000e+02 5.994147491455078125e+01 -1.048218917846679688e+01 -8.700189590454101562e-01 5.423339549452066422e-03 -2.593786716461181641e-01 -3.065193593502044678e-01
7.050000000000000000e+02 6.676139831542968750e+01 -8.498540878295898438e+00 -3.846384584903717041e-01 -8.214440941810607910e-02 -1.400348544120788574e-01 -4.823903739452362061e-01
7.060000000000000000e+02 7.010176086425781250e+01 3.867465257644653320e-02 1.316493004560470581e-01 -3.382774814963340759e-02 2.934646420180797577e-02 -3.504922091960906982e-01
7.070000000000000000e+02 7.591271209716796875e+01 -1.726618766784667969e+00 9.701545350253582001e-03 -4.525845944881439209e-01 -1.328649222850799561e-01 -2.918044328689575195e-01
7.080000000000000000e+02 6.805350494384765625e+01 -4.553843021392822266e+00 -2.941809780895709991e-02 -3.552051261067390442e-02 -1.948158442974090576e-02 -4.319512546062469482e-01
7.090000000000000000e+02 6.331040573120117188e+01 -2.925825595855712891e+00 2.904946804046630859e-01 1.967154443264007568e-01 1.461630314588546753e-01 -7.875830680131912231e-02
7.100000000000000000e+02 1.038963222503662109e+01 -1.867595672607421875e+00 -9.329632520675659180e-01 4.561919253319501877e-03 -2.785204052925109863e-01 -2.919608056545257568e-01
7.110000000000000000e+02 7.825564575195312500e+01 -3.061623573303222656e+00 -2.988340798765420914e-03 -5.268304944038391113e-01 -1.589456498622894287e-01 -1.498242318630218506e-01
7.120000000000000000e+02 7.300774383544921875e+01 3.776298284530639648e+00 1.026052087545394897e-01 -3.174788653850555420e-01 -6.446209549903869629e-02 -2.788989543914794922e-01
7.130000000000000000e+02 7.566720581054687500e+01 2.328218698501586914e+00 4.202444106340408325e-02 -5.983291864395141602e-01 -1.668914258480072021e-01 -2.568807601928710938e-01
7.140000000000000000e+02 6.657040405273437500e+01 9.732730686664581299e-03 2.398537099361419678e-01 2.399527430534362793e-01 1.439419388771057129e-01 -2.004847079515457153e-01
7.150000000000000000e+02 6.374643325805664062e+01 3.931382000446319580e-01 3.641204833984375000e-01 4.957078397274017334e-01 2.579484879970550537e-01 5.474076792597770691e-02
7.160000000000000000e+02 6.137244415283203125e+01 -3.424395918846130371e-01 4.764770865440368652e-01 5.958862304687500000e-01 3.217090070247650146e-01 3.080269098281860352e-01
7.170000000000000000e+02 7.940916442871093750e+01 -2.731663286685943604e-01 1.410953118465840816e-03 -8.494998812675476074e-01 -2.544266879558563232e-01 -5.143001675605773926e-02
7.180000000000000000e+02 6.973444366455078125e+01 7.875613689422607422e+00 2.116940319538116455e-01 1.994573622941970825e-01 1.233454123139381409e-01 -1.404967010021209717e-01
7.190000000000000000e+02 7.565034484863281250e+01 5.093723297119140625e+00 5.271883308887481689e-02 -6.767812371253967285e-01 -1.872187256813049316e-01 -2.042262703180313110e-01
7.200000000000000000e+02 6.792185211181640625e+01 4.492643833160400391e+00 2.491906583309173584e-01 3.708442747592926025e-01 1.860104799270629883e-01 -1.441636681556701660e-01
7.210000000000000000e+02 6.369316482543945312e+01 4.733780384063720703e+00 3.949177563190460205e-01 1.042242288589477539e+00 4.311480224132537842e-01 2.084296494722366333e-01
7.220000000000000000e+02 5.945531082153320312e+01 3.847084283828735352e+00 5.879870057106018066e-01 1.185913562774658203e+00 5.321701765060424805e-01 8.190876245498657227e-01
7.230000000000000000e+02 7.816451263427734375e+01 3.850816249847412109e+00 9.947914630174636841e-03 -9.944236278533935547e-01 -2.953427135944366455e-01 -1.206971481442451477e-01
7.240000000000000000e+02 7.057376861572265625e+01 1.049116611480712891e+01 1.962853670120239258e-01 1.244443356990814209e-01 9.621891379356384277e-02 -8.746740967035293579e-02
7.250000000000000000e+02 7.569282531738281250e+01 1.057434844970703125e+01 6.469198316335678101e-02 -7.909789681434631348e-01 -2.178861051797866821e-01 -7.668440788984298706e-02
7.260000000000000000e+02 6.656466674804687500e+01 9.444197654724121094e+00 2.682829797267913818e-01 8.496480584144592285e-01 3.353793323040008545e-01 1.333613414317369461e-02
7.270000000000000000e+02 6.469787597656250000e+01 7.766607284545898438e+00 2.906712889671325684e-01 1.177962422370910645e+00 4.405901134014129639e-01 1.556195020675659180e-01
7.280000000000000000e+02 7.938985443115234375e+01 6.705094814300537109e+00 3.059915499761700630e-03 -1.363470911979675293e+00 -4.081232845783233643e-01 -3.066011145710945129e-02
7.290000000000000000e+02 7.092951202392578125e+01 1.481224155426025391e+01 2.185307294130325317e-01 5.567717924714088440e-02 8.226237446069717407e-02 3.170237317681312561e-02
7.300000000000000000e+02 7.562636566162109375e+01 1.193964958190917969e+01 6.208336353302001953e-02 -7.879283428192138672e-01 -2.177534997463226318e-01 -3.788968548178672791e-02
7.310000000000000000e+02 6.473246002197265625e+01 1.107686042785644531e+01 2.317546159029006958e-01 1.396913766860961914e+00 4.886005222797393799e-01 9.677211195230484009e-02
7.320000000000000000e+02 7.146656799316406250e+01 1.856578636169433594e+01 1.593424677848815918e-01 -7.213383913040161133e-02 2.616258896887302399e-02 1.514203846454620361e-01
7.330000000000000000e+02 7.533578491210937500e+01 1.612705039978027344e+01 7.168640196323394775e-02 -7.313174605369567871e-01 -1.978893280029296875e-01 6.637511402368545532e-02
7.340000000000000000e+02 6.726102447509765625e+01 1.224269390106201172e+01 2.411142736673355103e-01 8.121212124824523926e-01 3.159706592559814453e-01 -1.800178363919258118e-02
7.350000000000000000e+02 7.810084533691406250e+01 1.359890365600585938e+01 1.509513426572084427e-02 -1.272190928459167480e+00 -3.771287202835083008e-01 4.285530885681509972e-04
7.360000000000000000e+02 7.067308044433593750e+01 2.091691589355468750e+01 1.412180662155151367e-01 6.024213135242462158e-02 6.043805927038192749e-02 2.113430351018905640e-01
7.370000000000000000e+02 7.415419006347656250e+01 2.181469154357910156e+01 7.533303648233413696e-02 -4.606433808803558350e-01 -1.155930981040000916e-01 2.081166058778762817e-01
7.380000000000000000e+02 6.408066558837890625e+01 1.684955787658691406e+01 3.177077770233154297e-01 1.650745391845703125e+00 5.905359387397766113e-01 -2.130368351936340332e-01
7.390000000000000000e+02 7.207423400878906250e+01 2.466901397705078125e+01 1.581327803432941437e-02 -1.381581872701644897e-01 -3.670347109436988831e-02 2.538734674453735352e-01
7.400000000000000000e+02 6.358904647827148438e+01 2.421188545227050781e+01 3.060096316039562225e-02 8.967308402061462402e-01 2.781995236873626709e-01 -2.265786007046699524e-02
7.410000000000000000e+02 4.994868850708007812e+01 2.141786575317382812e+01 7.666442543268203735e-03 -6.775312591344118118e-03 2.673390263225883245e-04 -2.138633839786052704e-02
7.420000000000000000e+02 7.827386379241943359e+00 2.052834510803222656e+01 -8.528804755769670010e-04 -2.531774807721376419e-04 -3.318173985462635756e-04 2.969727502204477787e-04
7.430000000000000000e+02 3.993616104125976562e+00 2.203719329833984375e+01 -2.514368388801813126e-04 -2.852799370884895325e-04 -1.610150211490690708e-04 4.008704854641109705e-04
7.440000000000000000e+02 4.134566783905029297e+00 1.680485725402832031e+01 2.893864075304009020e-05 -5.966249591438099742e-05 -9.217156730301212519e-06 -6.916929123690351844e-05
7.450000000000000000e+02 5.757910013198852539e-01 2.060570716857910156e+01 6.522451440105214715e-05 4.982777754776179790e-04 1.690506906015798450e-04 1.705152317299507558e-05
7.460000000000000000e+02 7.048290252685546875e+01 2.733659553527832031e+01 -5.873126164078712463e-02 3.860596567392349243e-02 -6.037588696926832199e-03 2.431508749723434448e-01
7.470000000000000000e+02 7.329985809326171875e+01 2.595364952087402344e+01 -1.325137168169021606e-02 -3.042906820774078369e-01 -9.526261687278747559e-02 2.463801801204681396e-01
7.480000000000000000e+02 6.021176147460937500e+01 2.692444801330566406e+01 -4.542822018265724182e-02 6.075713038444519043e-01 1.686429381370544434e-01 -1.997423470020294189e-01
7.490000000000000000e+02 5.833208084106445312e+01 2.728240585327148438e+01 1.241402793675661087e-02 4.837904870510101318e-01 1.488613635301589966e-01 -2.849263548851013184e-01
7.500000000000000000e+02 5.391327667236328125e+01 2.333850097656250000e+01 1.785760521888732910e-01 7.873713970184326172e-03 5.593493208289146423e-02 -9.198696911334991455e-02
7.510000000000000000e+02 4.550793838500976562e+01 2.558147239685058594e+01 3.482952713966369629e-02 2.031468227505683899e-02 1.654326356947422028e-02 -2.722413651645183563e-02
7.520000000000000000e+02 4.410215759277343750e+01 2.559051132202148438e+01 2.514468692243099213e-02 2.434274926781654358e-02 1.484623085707426071e-02 -2.144855074584484100e-02
7.530000000000000000e+02 3.907917022705078125e+01 2.449232482910156250e+01 1.946788397617638111e-03 1.770761422812938690e-02 5.896320566534996033e-03 -2.311338670551776886e-03
7.540000000000000000e+02 3.493712234497070312e+01 2.459951400756835938e+01 -6.521506700664758682e-03 8.513383567333221436e-03 5.975631065666675568e-04 5.704722716473042965e-04
7.550000000000000000e+02 3.236206817626953125e+01 2.432006645202636719e+01 -1.133729517459869385e-02 6.214565946720540524e-04 -3.214751603081822395e-03 2.609506715089082718e-03
7.560000000000000000e+02 2.924206542968750000e+01 2.316828536987304688e+01 -1.986294798552989960e-02 -1.238653715699911118e-02 -9.674845263361930847e-03 9.625113569200038910e-03
7.570000000000000000e+02 2.233487319946289062e+01 2.219573020935058594e+01 -3.490909561514854431e-02 -1.701084082014858723e-03 -1.098305452615022659e-02 4.981957841664552689e-03
7.580000000000000000e+02 1.911558341979980469e+01 2.188297080993652344e+01 -1.469879969954490662e-02 -5.218447768129408360e-04 -4.566193092614412308e-03 -1.833396847359836102e-03
7.590000000000000000e+02 1.572670936584472656e+01 2.221101570129394531e+01 -6.688758265227079391e-03 5.157044506631791592e-04 -1.851916196756064892e-03 7.758869905956089497e-04
7.600000000000000000e+02 7.770648479461669922e+00 2.580772590637207031e+01 -1.567624392919242382e-03 -8.401106460951268673e-04 -7.223205175250768661e-04 1.980673288926482201e-03
7.610000000000000000e+02 4.070152759552001953e+00 2.337636375427246094e+01 -5.454496713355183601e-04 -4.520202637650072575e-04 -2.992409863509237766e-04 6.290099117904901505e-04
7.620000000000000000e+02 5.998955368995666504e-01 2.342623329162597656e+01 5.006634819437749684e-05 2.450868778396397829e-04 8.854596671881154180e-05 1.059869755408726633e-04
7.630000000000000000e+02 7.803935241699218750e+01 2.333665657043457031e+01 6.426676176488399506e-03 -9.989554882049560547e-01 -2.977586388587951660e-01 1.112694889307022095e-01
7.640000000000000000e+02 7.125850677490234375e+01 3.160603141784667969e+01 -9.848985821008682251e-02 -6.735733151435852051e-02 -4.975415766239166260e-02 1.927788108587265015e-01
7.650000000000000000e+02 7.459683990478515625e+01 3.229089736938476562e+01 -4.682282730937004089e-02 -3.350121080875396729e-01 -1.145504787564277649e-01 1.703306585550308228e-01
7.660000000000000000e+02 6.622064971923828125e+01 2.789902687072753906e+01 -1.173315420746803284e-01 4.353863000869750977e-01 9.541642665863037109e-02 1.363871693611145020e-01
7.670000000000000000e+02 6.391821670532226562e+01 2.993104171752929688e+01 -1.664437353610992432e-01 4.693113267421722412e-01 9.086027741432189941e-02 2.329207584261894226e-02
7.680000000000000000e+02 5.659347915649414062e+01 2.766114997863769531e+01 6.477078795433044434e-02 3.343817591667175293e-01 1.197457611560821533e-01 -2.796144187450408936e-01
7.690000000000000000e+02 5.016271209716796875e+01 2.592098045349121094e+01 8.432362973690032959e-02 4.738219082355499268e-02 3.951174765825271606e-02 -9.339673817157745361e-02
7.700000000000000000e+02 4.594451522827148438e+01 2.964909934997558594e+01 3.256109356880187988e-02 6.194621324539184570e-02 2.835219167172908783e-02 -5.847379937767982483e-02
7.710000000000000000e+02 4.361041641235351562e+01 2.746085929870605469e+01 2.636995352804660797e-02 3.164277598261833191e-02 1.740381866693496704e-02 -2.815235778689384460e-02
7.720000000000000000e+02 4.059428405761718750e+01 2.891620635986328125e+01 1.450508926063776016e-02 3.280006349086761475e-02 1.419154554605484009e-02 -1.711195148527622223e-02
7.730000000000000000e+02 3.326299285888671875e+01 2.915848731994628906e+01 5.219734273850917816e-03 1.016641315072774887e-02 4.615844227373600006e-03 -2.141428412869572639e-03
7.740000000000000000e+02 2.977231597900390625e+01 2.841282463073730469e+01 1.225829240866005421e-03 -2.740779193118214607e-03 -4.544850089587271214e-04 2.708569169044494629e-03
7.750000000000000000e+02 2.636408805847167969e+01 2.758955001831054688e+01 -4.334843251854181290e-03 -7.634722162038087845e-03 -3.590869484469294548e-03 8.480538614094257355e-03
7.760000000000000000e+02 2.091363525390625000e+01 2.649555015563964844e+01 -9.231626056134700775e-03 -4.470298998057842255e-03 -4.110577516257762909e-03 8.932348340749740601e-03
7.770000000000000000e+02 1.572958278656005859e+01 2.750768852233886719e+01 -4.259302280843257904e-03 -1.612178864888846874e-03 -1.761444378644227982e-03 6.126805674284696579e-03
7.780000000000000000e+02 1.073123836517333984e+01 2.621267890930175781e+01 -2.410216024145483971e-03 -7.208240567706525326e-04 -9.393119835294783115e-04 3.115585306659340858e-03
7.790000000000000000e+02 7.445887565612792969e+00 2.681759262084960938e+01 -1.262560137547552586e-03 -1.068486715666949749e-03 -6.993140559643507004e-04 2.313446486368775368e-03
7.800000000000000000e+02 4.796760082244873047e+00 2.760363960266113281e+01 -3.860473225358873606e-04 -1.450643292628228664e-03 -5.510071641765534878e-04 1.704704831354320049e-03
7.810000000000000000e+02 6.876193284988403320e-01 2.768344688415527344e+01 -8.236855501309037209e-05 -1.011291169561445713e-03 -3.280979290138930082e-04 2.780901850201189518e-04
7.820000000000000000e+02 7.787413787841796875e+01 2.613760757446289062e+01 1.702505629509687424e-03 -8.449006080627441406e-01 -2.529594302177429199e-01 1.216902658343315125e-01
7.830000000000000000e+02 6.614144897460937500e+01 3.284913253784179688e+01 -1.775805354118347168e-01 2.654839754104614258e-01 2.637103572487831116e-02 8.803387731313705444e-02
7.840000000000000000e+02 6.324023437500000000e+01 3.249080276489257812e+01 -1.836130470037460327e-01 3.831089138984680176e-01 5.984876677393913269e-02 -3.571715904399752617e-03
7.850000000000000000e+02 3.533409500122070312e+01 3.152384185791015625e+01 1.018782705068588257e-02 2.048593014478683472e-02 9.202127344906330109e-03 -7.354099769145250320e-03
7.860000000000000000e+02 3.123052787780761719e+01 3.267197418212890625e+01 1.076703611761331558e-02 7.074082735925912857e-03 5.352335516363382339e-03 -9.244547109119594097e-04
7.870000000000000000e+02 2.841659545898437500e+01 3.284650039672851562e+01 9.162561967968940735e-03 1.157548511400818825e-03 3.096033353358507156e-03 2.604803070425987244e-03
7.880000000000000000e+02 2.348694038391113281e+01 3.053481483459472656e+01 2.852941630408167839e-03 -5.955243017524480820e-03 -9.306903812102973461e-04 8.290953002870082855e-03
7.890000000000000000e+02 1.948855400085449219e+01 3.160312843322753906e+01 2.206064760684967041e-03 -5.211721640080213547e-03 -9.016970871016383171e-04 7.643944583833217621e-03
7.900000000000000000e+02 1.084224891662597656e+01 3.245044326782226562e+01 5.254116840660572052e-04 -3.311698324978351593e-03 -8.358859922736883163e-04 4.369049798697233200e-03
7.910000000000000000e+02 8.133720397949218750e+00 3.293537902832031250e+01 1.115590857807546854e-04 -3.188661532476544380e-03 -9.231307194568216801e-04 3.265673061832785606e-03
7.920000000000000000e+02 5.064496040344238281e+00 3.088536453247070312e+01 -5.354552558856084943e-05 -2.542661968618631363e-03 -7.788622169755399227e-04 2.252815058454871178e-03
7.930000000000000000e+02 7.238296866416931152e-01 3.052636718750000000e+01 -7.000604819040745497e-05 -2.316982485353946686e-03 -7.160965469665825367e-04 3.640733193606138229e-04
7.940000000000000000e+02 7.759505462646484375e+01 3.032321166992187500e+01 -1.265361346304416656e-02 -6.386631727218627930e-01 -1.953950375318527222e-01 1.157857850193977356e-01
7.950000000000000000e+02 7.034410095214843750e+01 3.821417999267578125e+01 -1.291969567537307739e-01 -4.089276120066642761e-02 -5.102691426873207092e-02 7.436637580394744873e-02
7.960000000000000000e+02 2.504812049865722656e+01 3.554116821289062500e+01 1.069663651287555695e-02 -2.399098360911011696e-03 2.489261329174041748e-03 3.659642999991774559e-03
7.970000000000000000e+02 1.533127403259277344e+01 3.332568740844726562e+01 1.886854995973408222e-03 -4.568292759358882904e-03 -8.044313290156424046e-04 5.844741128385066986e-03
7.980000000000000000e+02 1.089698314666748047e+01 3.489921569824218750e+01 1.423509675078094006e-03 -4.121354315429925919e-03 -8.093533688224852085e-04 3.704565111547708511e-03
7.990000000000000000e+02 6.201636791229248047e+00 3.468196105957031250e+01 7.069109706208109856e-04 -3.885713173076510429e-03 -9.536406723782420158e-04 2.294314093887805939e-03
8.000000000000000000e+02 6.485943317413330078e+00 3.282929229736328125e+01 3.626375109888613224e-04 -3.179771127179265022e-03 -8.451401372440159321e-04 2.849838696420192719e-03
8.010000000000000000e+02 7.872812151908874512e-01 3.482616424560546875e+01 1.176197984023019671e-04 -4.502063617110252380e-03 -1.315333181992173195e-03 3.391961508896201849e-04
8.020000000000000000e+02 7.576587677001953125e+01 3.383370971679687500e+01 -3.176053240895271301e-02 -4.018094241619110107e-01 -1.300709843635559082e-01 1.179538816213607788e-01
8.030000000000000000e+02 6.146017909049987793e-01 3.756171798706054688e+01 2.818336361087858677e-04 -5.491869989782571793e-03 -1.563010970130562782e-03 1.363301853416487575e-04
8.040000000000000000e+02 7.723905181884765625e+01 3.626799392700195312e+01 -1.551157981157302856e-02 -4.587216079235076904e-01 -1.422699540853500366e-01 7.436074316501617432e-02
8.050000000000000000e+02 4.276034355163574219e+00 1.337801742553710938e+01 5.686095755663700402e-05 -3.022338205482810736e-05 7.991272468643728644e-06 -1.176553560071624815e-04
8.060000000000000000e+02 7.052966594696044922e+00 1.388309288024902344e+01 4.499983333516865969e-05 -1.833201822591945529e-04 -4.149610322201624513e-05 -8.802280353847891092e-05
8.070000000000000000e+02 6.010607481002807617e-01 1.638077545166015625e+01 -6.838593981228768826e-05 3.686460258904844522e-04 9.007802145788446069e-05 -3.758270759135484695e-05
8.080000000000000000e+02 3.796964645385742188e+00 9.846250534057617188e+00 -4.797456313099246472e-06 -9.772730663826223463e-06 -4.371056093077640980e-06 -4.736152186524122953e-05
8.090000000000000000e+02 6.932787418365478516e+00 1.165072250366210938e+01 1.007859973469749093e-04 -9.057701390702277422e-05 3.062696123379282653e-06 -2.947357461380306631e-05
8.100000000000000000e+02 6.069585680961608887e-01 1.355699920654296875e+01 -5.663861520588397980e-05 2.144273457815870643e-04 4.733661990030668676e-05 -3.340785406180657446e-05
8.110000000000000000e+02 4.009734153747558594e+00 6.430305480957031250e+00 9.734316336107440293e-06 -2.605911959108198062e-06 2.138521267625037581e-06 -8.677341611473821104e-06
8.120000000000000000e+02 8.433117866516113281e+00 5.773441791534423828e+00 1.918131374623044394e-06 -1.638172398088499904e-05 -4.339077804615953937e-06 -5.444474936666665599e-06
8.130000000000000000e+02 1.132348155975341797e+01 6.370827198028564453e+00 -9.873141607386060059e-06 -5.922518994339043275e-06 -4.738698407891206443e-06 3.983162241638638079e-05
8.140000000000000000e+02 5.770857930183410645e-01 9.334226608276367188e+00 4.467455437406897545e-05 6.140607001725584269e-05 3.182418731739744544e-05 -1.331727071374189109e-05
8.150000000000000000e+02 5.844194412231445312e+00 1.864602446556091309e+00 1.507859451521653682e-05 5.121922185935545713e-06 6.060155101295094937e-06 -5.918156603001989424e-06
8.160000000000000000e+02 8.253830909729003906e+00 2.516297578811645508e+00 1.902814983623102307e-05 2.640124648678465746e-06 6.500482413684949279e-06 -1.895418563435669057e-06
8.170000000000000000e+02 6.145821213722229004e-01 6.476225376129150391e+00 2.701475568755995482e-05 2.359698009968269616e-05 1.518352019047597423e-05 -5.206199148233281448e-06
8.180000000000000000e+02 1.918363571166992188e+01 3.319880008697509766e+00 2.979184955620439723e-06 4.087376510142348707e-06 2.119968485203571618e-06 -2.290969831619804609e-07
8.190000000000000000e+02 3.772880935668945312e+01 1.328763771057128906e+01 -7.905642502009868622e-03 2.681424375623464584e-03 -1.567265600897371769e-03 9.812280768528580666e-04
8.200000000000000000e+02 4.122117233276367188e+01 1.162544631958007812e+01 -1.532368129119277000e-03 -8.562923176214098930e-04 -7.165981223806738853e-04 -2.313785953447222710e-03
8.210000000000000000e+02 3.862592697143554688e+01 1.290488338470458984e+01 -8.339662104845046997e-03 2.007242524996399879e-03 -1.899725873954594135e-03 1.805118245101766661e-06
8.220000000000000000e+02 3.848249435424804688e+01 1.085839653015136719e+01 -2.428369130939245224e-03 5.979260895401239395e-04 -5.491328774951398373e-04 -7.668943144381046295e-04
8.230000000000000000e+02 3.419456100463867188e+01 6.192819595336914062e+00 -2.015956997638568282e-04 8.449782035313546658e-05 -3.512936746119521558e-05 -1.639587135287001729e-04
8.240000000000000000e+02 3.795173263549804688e+01 7.456527233123779297e+00 -5.319103947840631008e-04 -3.003027231898158789e-04 -2.496639499440789223e-04 2.801132213789969683e-04
8.250000000000000000e+02 3.657184982299804688e+01 2.529387950897216797e+00 9.466987830819562078e-05 -2.066189190372824669e-04 -3.358471076353453100e-05 8.879630331648513675e-05
8.260000000000000000e+02 4.577727317810058594e+00 -1.466222095489501953e+01 1.721281856298446655e-01 -6.513310670852661133e-01 -1.437608599662780762e-01 -2.590248286724090576e-01
8.270000000000000000e+02 1.302520179748535156e+01 -1.845045089721679688e+01 3.730333447456359863e-01 2.118276357650756836e+00 7.473929524421691895e-01 1.806109584867954254e-02
8.280000000000000000e+02 5.278660774230957031e+00 -2.253614234924316406e+01 1.251047402620315552e-01 -5.021119117736816406e-01 -1.131021529436111450e-01 1.999489814043045044e-01
8.290000000000000000e+02 1.422836112976074219e+01 -2.295763587951660156e+01 3.195840418338775635e-01 1.721863508224487305e+00 6.124342679977416992e-01 -3.530060350894927979e-01
8.300000000000000000e+02 1.593393421173095703e+01 -2.736503601074218750e+01 1.287564635276794434e-01 8.373599648475646973e-01 2.898349463939666748e-01 -3.006261885166168213e-01
8.310000000000000000e+02 3.177126169204711914e+00 -2.899613189697265625e+01 -2.019063569605350494e-02 -7.212048768997192383e-01 -2.224186509847640991e-01 2.114515751600265503e-01
8.320000000000000000e+02 1.530730342864990234e+01 -3.234736633300781250e+01 -1.417744904756546021e-01 5.547906160354614258e-01 1.239048242568969727e-01 -6.278908252716064453e-02
8.330000000000000000e+02 3.545011758804321289e+00 -3.292168807983398438e+01 -3.239407017827033997e-02 -5.375182032585144043e-01 -1.709736734628677368e-01 1.739219725131988525e-01
8.340000000000000000e+02 2.019246673583984375e+01 -3.237107849121093750e+01 -8.883790113031864166e-03 4.397414028644561768e-01 1.292572766542434692e-01 -2.089769989252090454e-01
8.350000000000000000e+02 4.578979110717773438e+01 -2.990363502502441406e+01 -1.111277192831039429e-02 -2.775343600660562515e-03 -4.166434984654188156e-03 6.485428195446729660e-03
8.360000000000000000e+02 7.645860290527343750e+01 -3.129843711853027344e+01 -5.104873343952931464e-05 9.978402522392570972e-05 1.462058753531891853e-05 -8.960881677921861410e-05
8.370000000000000000e+02 7.537279510498046875e+01 -2.872060394287109375e+01 -2.807456075970549136e-05 -2.878889245039317757e-05 -1.705903559923171997e-05 -7.294330134755000472e-05
8.380000000000000000e+02 7.185176849365234375e+01 -2.655160522460937500e+01 1.469742710469290614e-04 1.665826493990607560e-05 4.908976188744418323e-05 -2.019621024373918772e-05
8.390000000000000000e+02 7.014980316162109375e+01 -2.574065017700195312e+01 2.138868730980902910e-04 3.519516758387908340e-05 7.472461584256961942e-05 1.167412847280502319e-05
8.400000000000000000e+02 6.884420013427734375e+01 -2.640075302124023438e+01 1.180923136416822672e-04 -1.691023207968100905e-04 -1.530300323793198913e-05 -4.797953806701116264e-05
8.410000000000000000e+02 6.680929565429687500e+01 -2.854308891296386719e+01 2.069116890197619796e-04 -9.479143045609816909e-05 3.363607902429066598e-05 -3.728380397660657763e-05
8.420000000000000000e+02 6.641255950927734375e+01 -3.208631896972656250e+01 -4.853432474192231894e-04 -2.644081250764429569e-04 -2.249254175694659352e-04 4.378862286102958024e-05
8.430000000000000000e+02 6.486238098144531250e+01 -3.111382293701171875e+01 -6.010024299030192196e-05 -8.966195309767499566e-05 -4.492865991778671741e-05 4.302683737478218973e-05
8.440000000000000000e+02 3.696207284927368164e+00 -3.429304885864257812e+01 -3.698097914457321167e-02 -4.806239604949951172e-01 -1.552814841270446777e-01 1.528267264366149902e-01
8.450000000000000000e+02 1.306465053558349609e+01 -3.883075332641601562e+01 -2.140374630689620972e-01 2.677517533302307129e-01 1.611428707838058472e-02 2.969457022845745087e-02
8.460000000000000000e+02 2.701647377014160156e+01 -3.306005477905273438e+01 4.542195796966552734e-02 8.395864814519882202e-02 3.881417959928512573e-02 -1.000590547919273376e-01
8.470000000000000000e+02 3.528698730468750000e+01 -3.526248931884765625e+01 1.212316285818815231e-02 2.485677041113376617e-02 1.109397970139980316e-02 -3.391999052837491035e-03
8.480000000000000000e+02 4.665720367431640625e+01 -3.603261566162109375e+01 5.379147827625274658e-03 -4.603114910423755646e-03 2.328097616555169225e-04 3.945877775549888611e-03
8.490000000000000000e+02 6.049781036376953125e+01 -3.410836029052734375e+01 -1.063726027496159077e-03 -7.875622250139713287e-04 -5.553864757530391216e-04 1.563673373311758041e-03
8.500000000000000000e+02 6.708659172058105469e+00 -3.807733154296875000e+01 -1.077313795685768127e-01 -1.389527916908264160e-01 -7.400525361299514771e-02 9.329379349946975708e-02
8.510000000000000000e+02 6.315410614013671875e+01 -3.887937927246093750e+01 3.142607456538826227e-04 -1.832016976550221443e-03 -4.553268954623490572e-04 4.568735603243112564e-04
8.520000000000000000e+02 7.501623535156250000e+01 -3.792243194580078125e+01 3.155500962748192251e-07 1.782634644769132137e-04 5.357370173442177474e-05 -1.683302070887293667e-05
8.530000000000000000e+02 7.600354003906250000e+01 -2.652816772460937500e+01 -4.019428888568654656e-05 -5.564418188441777602e-06 -1.372761198581429198e-05 -5.955605956842191517e-05
8.540000000000000000e+02 7.956860351562500000e+01 -1.997530364990234375e+01 -2.890989890147466213e-05 1.715837584015389439e-06 -8.158218406606465578e-06 -1.682068273112236056e-06
8.550000000000000000e+02 7.553922271728515625e+01 -1.904077148437500000e+01 -1.268337564397370443e-05 1.228543624165467918e-05 -1.193819088030068087e-07 -8.139419946928683203e-07
8.560000000000000000e+02 7.147963714599609375e+01 -1.824759292602539062e+01 5.938477443123701960e-06 4.982828977517783642e-05 1.673002952884417027e-05 6.293717888183891773e-06
8.570000000000000000e+02 4.184330368041992188e+01 -2.976922798156738281e+01 -7.522558793425559998e-03 5.432538222521543503e-03 -6.270062294788658619e-04 5.710416473448276520e-03
8.580000000000000000e+02 4.053929901123046875e+01 -2.484794998168945312e+01 -9.261852130293846130e-03 4.050566349178552628e-03 -1.563385711051523685e-03 2.636353019624948502e-03
8.590000000000000000e+02 3.679352569580078125e+01 -2.012596130371093750e+01 -2.677762531675398350e-04 4.225097945891320705e-04 4.642006751964800060e-05 -1.521378726465627551e-04
8.600000000000000000e+02 3.637492370605468750e+01 -1.339169120788574219e+01 2.723486395552754402e-04 -8.502505079377442598e-05 5.619707371806725860e-05 -6.703412509523332119e-06
8.610000000000000000e+02 4.250965499877929688e+01 -1.968435096740722656e+01 -1.256069052033126354e-03 -6.474570254795253277e-04 -5.710578407160937786e-04 4.165504069533199072e-04
8.620000000000000000e+02 3.474030303955078125e+01 -8.799105644226074219e+00 1.352587342262268066e-01 -1.736285686492919922e-01 -1.151095051318407059e-02 2.395341247320175171e-01
8.630000000000000000e+02 3.794790649414062500e+01 -9.649414062500000000e+00 -1.434352248907089233e-01 -2.988718748092651367e-01 -1.326921284198760986e-01 3.496654331684112549e-01
8.640000000000000000e+02 4.012520980834960938e+01 -1.095964050292968750e+01 -3.949293792247772217e-01 -3.284602165222167969e-01 -2.170168757438659668e-01 3.932771980762481689e-01
8.650000000000000000e+02 4.080439376831054688e+01 -1.137082290649414062e+01 -4.533450901508331299e-01 -2.950433194637298584e-01 -2.245165258646011353e-01 4.091883599758148193e-01
8.660000000000000000e+02 4.309837722778320312e+01 -1.199162387847900391e+01 -5.025340914726257324e-01 -1.032157614827156067e-01 -1.817249506711959839e-01 3.826699554920196533e-01
8.670000000000000000e+02 4.401176452636718750e+01 -1.351549911499023438e+01 -6.900090575218200684e-01 -3.826828673481941223e-02 -2.184831947088241577e-01 3.573366701602935791e-01
8.680000000000000000e+02 4.337619400024414062e+01 -1.308720207214355469e+01 -6.519981622695922852e-01 -9.511337429285049438e-02 -2.241334468126296997e-01 3.869771957397460938e-01
8.690000000000000000e+02 4.273682403564453125e+01 -1.265662193298339844e+01 -6.188409924507141113e-01 -1.745569556951522827e-01 -2.380193769931793213e-01 3.985764980316162109e-01
8.700000000000000000e+02 4.528654098510742188e+01 -1.436747646331787109e+01 -7.540891170501708984e-01 1.206689327955245972e-01 -1.900260597467422485e-01 2.884092330932617188e-01
8.710000000000000000e+02 4.592599868774414062e+01 -1.479523086547851562e+01 -7.795274853706359863e-01 1.786381304264068604e-01 -1.802668124437332153e-01 2.421057969331741333e-01
8.720000000000000000e+02 4.652291488647460938e+01 -1.523646640777587891e+01 -7.859675288200378418e-01 1.690063476562500000e-01 -1.850883513689041138e-01 1.698234379291534424e-01
8.730000000000000000e+02 5.444340515136718750e+01 -1.357859325408935547e+01 -1.535762906074523926e+00 2.120464481413364410e-02 -4.543674886226654053e-01 -2.113337367773056030e-01
8.740000000000000000e+02 5.466459655761718750e+01 -1.467812252044677734e+01 -1.989849448204040527e+00 -1.220954582095146179e-02 -6.006177067756652832e-01 -2.371907681226730347e-01
8.750000000000000000e+02 5.572271728515625000e+01 -1.337526607513427734e+01 -1.447293996810913086e+00 1.771556772291660309e-02 -4.288735389709472656e-01 -2.816602289676666260e-01
8.760000000000000000e+02 5.860659027099609375e+01 -1.412431907653808594e+01 -1.451780080795288086e+00 -1.211100630462169647e-02 -4.391673207283020020e-01 -3.373524248600006104e-01
8.770000000000000000e+02 5.945731353759765625e+01 -1.246880054473876953e+01 -1.307942986488342285e+00 3.633293509483337402e-02 -3.814830183982849121e-01 -4.294253289699554443e-01
8.780000000000000000e+02 6.853144836425781250e+01 -1.381611824035644531e+01 -2.822350561618804932e-01 1.416031457483768463e-02 -8.042241632938385010e-02 4.139812663197517395e-02
8.790000000000000000e+02 6.837773895263671875e+01 -1.471982669830322266e+01 -1.217994317412376404e-01 -3.634591121226549149e-03 -3.763020783662796021e-02 4.639853537082672119e-02
8.800000000000000000e+02 6.974774932861328125e+01 -1.464470672607421875e+01 -1.406359076499938965e-01 2.005676180124282837e-02 -3.617374598979949951e-02 2.168033830821514130e-02
8.810000000000000000e+02 7.270758056640625000e+01 -1.369203853607177734e+01 -1.387414485216140747e-01 1.113669481128454208e-02 -3.828142583370208740e-02 -5.248318612575531006e-02
8.820000000000000000e+02 7.356799316406250000e+01 -1.440420913696289062e+01 -8.847016841173171997e-02 4.371571354568004608e-03 -2.522957883775234222e-02 -3.412799164652824402e-02
8.830000000000000000e+02 7.429383850097656250e+01 -1.363768863677978516e+01 -9.862756729125976562e-02 -4.634224751498550177e-04 -2.972729876637458801e-02 -5.331166461110115051e-02
8.840000000000000000e+02 7.591536712646484375e+01 -1.442396926879882812e+01 -3.901894763112068176e-02 -8.951551280915737152e-03 -1.439114939421415329e-02 -2.277343161404132843e-02
8.850000000000000000e+02 7.661075592041015625e+01 -1.451967144012451172e+01 -2.816930785775184631e-02 -9.274721145629882812e-03 -1.123320870101451874e-02 -1.647853106260299683e-02
8.860000000000000000e+02 7.835195159912109375e+01 -1.447418117523193359e+01 -6.744789890944957733e-03 -1.110571809113025665e-02 -5.355152301490306854e-03 -2.909403527155518532e-03
8.870000000000000000e+02 7.939989471435546875e+01 -1.144378566741943359e+01 -3.778310259804129601e-03 -2.876799739897251129e-02 -9.763891808688640594e-03 -1.558825653046369553e-02
8.880000000000000000e+02 7.897567749023437500e+01 -1.436485958099365234e+01 -1.270924927666783333e-03 -1.570511492900550365e-03 -8.524309378117322922e-04 2.503900323063135147e-03
8.890000000000000000e+02 7.964897155761718750e+01 -1.429600811004638672e+01 2.460833929944783449e-04 8.520596660673618317e-03 2.630003960803151131e-03 4.972168826498091221e-04
8.900000000000000000e+02 7.484899902343750000e+01 4.013763427734375000e+01 -5.077376961708068848e-02 -3.042479753494262695e-01 -1.065065264701843262e-01 2.780552953481674194e-02
8.910000000000000000e+02 7.870828247070312500e+01 4.002119445800781250e+01 6.753482855856418610e-03 -4.260657727718353271e-01 -1.257936805486679077e-01 2.470641210675239563e-02
8.920000000000000000e+02 7.658519744873046875e+01 3.876000976562500000e+01 -1.471855491399765015e-02 -4.101125001907348633e-01 -1.274493187665939331e-01 5.469634011387825012e-02
8.930000000000000000e+02 7.908913421630859375e+01 3.476679229736328125e+01 -3.915346693247556686e-03 -5.777012705802917480e-01 -1.744849979877471924e-01 3.289834782481193542e-02
8.940000000000000000e+02 7.923056030273437500e+01 2.910164642333984375e+01 -3.924340475350618362e-03 -8.378779888153076172e-01 -2.525406777858734131e-01 4.433475434780120850e-02
8.950000000000000000e+02 7.925959014892578125e+01 2.770331954956054688e+01 2.841868204995989799e-03 -9.213528037071228027e-01 -2.755532860755920410e-01 4.604463651776313782e-02
8.960000000000000000e+02 7.935351562500000000e+01 2.209885978698730469e+01 4.064965527504682541e-03 -1.271823406219482422e+00 -3.803275227546691895e-01 3.784897178411483765e-02
8.970000000000000000e+02 7.804788208007812500e+01 2.057803535461425781e+01 1.171051524579524994e-02 -1.120948553085327148e+00 -3.327713906764984131e-01 9.045834094285964966e-02
8.980000000000000000e+02 7.934853363037109375e+01 1.790953636169433594e+01 3.932632971554994583e-04 -1.467199563980102539e+00 -4.400418698787689209e-01 2.246418781578540802e-02
8.990000000000000000e+02 7.804395294189453125e+01 1.640231132507324219e+01 1.485692616552114487e-02 -1.237666606903076172e+00 -3.668429255485534668e-01 4.014139249920845032e-02
9.000000000000000000e+02 7.938346099853515625e+01 1.090567493438720703e+01 2.252574777230620384e-03 -1.519393086433410645e+00 -4.551421403884887695e-01 -1.096362993121147156e-02
9.010000000000000000e+02 7.816306304931640625e+01 9.408182144165039062e+00 1.383004616945981979e-02 -1.228321552276611328e+00 -3.643474578857421875e-01 -5.447523295879364014e-02
9.020000000000000000e+02 7.816571807861328125e+01 6.620338439941406250e+00 1.255721133202314377e-02 -1.132450699806213379e+00 -3.359680473804473877e-01 -9.158033132553100586e-02
9.030000000000000000e+02 7.939116668701171875e+01 3.912996292114257812e+00 1.781266299076378345e-03 -1.188596725463867188e+00 -3.560446202754974365e-01 -4.122254997491836548e-02
9.040000000000000000e+02 7.817832946777343750e+01 2.470223665237426758e+00 8.677460253238677979e-03 -9.135895371437072754e-01 -2.714736163616180420e-01 -1.322116404771804810e-01
9.050000000000000000e+02 7.941970825195312500e+01 -3.065169334411621094e+00 6.367424502968788147e-04 -5.922321677207946777e-01 -1.774786263704299927e-01 -5.270429700613021851e-02
9.060000000000000000e+02 7.826050567626953125e+01 -4.435032844543457031e+00 -3.450034651905298233e-03 -4.259326159954071045e-01 -1.288148015737533569e-01 -1.452175527811050415e-01
9.070000000000000000e+02 7.826770782470703125e+01 -7.149910449981689453e+00 -1.078190933912992477e-02 -2.442279309034347534e-01 -7.650295644998550415e-02 -1.182874813675880432e-01
9.080000000000000000e+02 7.820478057861328125e+01 -1.119287109375000000e+01 -2.171375229954719543e-02 -6.304762512445449829e-02 -2.542841248214244843e-02 -5.041217058897018433e-02
9.090000000000000000e+02 4.042125344276428223e-01 2.201884508132934570e+00 -2.039274113485589623e-05 -3.769402610487304628e-06 -7.248643214552430436e-06 -1.984625441764364950e-06
9.100000000000000000e+02 5.492156744003295898e-01 5.032462596893310547e+00 -2.308922739757690579e-05 1.361789509246591479e-05 -2.841399464159621857e-06 -3.615987907323869877e-06
9.110000000000000000e+02 1.869074583053588867e+00 6.518252849578857422e+00 -2.941624734376091510e-05 1.990543205465655774e-05 -2.853244723155512474e-06 -7.991370694071520120e-06
9.120000000000000000e+02 1.703646779060363770e+00 9.471459388732910156e+00 -4.726220140582881868e-05 5.625956691801548004e-05 2.699210199352819473e-06 -3.366437158547341824e-05
9.130000000000000000e+02 5.867083072662353516e-01 1.214824199676513672e+01 5.858707663719542325e-05 1.521624799352139235e-04 6.322487024590373039e-05 -2.010058415180537850e-05
9.140000000000000000e+02 1.753243446350097656e+00 1.221776866912841797e+01 -4.763321339851245284e-05 1.028753904392942786e-04 1.657265238463878632e-05 -6.264469266170635819e-05
9.150000000000000000e+02 1.801425218582153320e+00 1.646675109863281250e+01 6.639955972786992788e-05 2.052690106211230159e-04 8.150056964950636029e-05 -8.093413634924218059e-05
9.160000000000000000e+02 1.725778818130493164e+00 1.925575065612792969e+01 4.270373028703033924e-05 2.391613234067335725e-04 8.455952047370374203e-05 -1.116523162636440247e-05
9.170000000000000000e+02 5.835421085357666016e-01 2.201450157165527344e+01 -9.492693789070472121e-05 4.237442626617848873e-04 9.864519961411133409e-05 4.426985833561047912e-05
9.180000000000000000e+02 6.250154972076416016e-01 2.484183311462402344e+01 -9.655610483605414629e-05 -5.308790787239558995e-05 -4.489320417633280158e-05 1.520530786365270615e-04
9.190000000000000000e+02 6.563602685928344727e-01 2.626179504394531250e+01 3.080820169998332858e-05 -4.761692252941429615e-04 -1.336083078058436513e-04 2.328451664652675390e-04
9.200000000000000000e+02 7.108309268951416016e-01 2.910478973388671875e+01 3.279684096924029291e-05 -1.628753263503313065e-03 -4.787869402207434177e-04 3.380475682206451893e-04
9.210000000000000000e+02 2.136306047439575195e+00 2.916738128662109375e+01 -1.556509523652493954e-04 -1.858653617091476917e-03 -6.042913882993161678e-04 9.406374883837997913e-04
9.220000000000000000e+02 7.556735277175903320e-01 3.338530349731445312e+01 -3.524476051097735763e-05 -3.825340420007705688e-03 -1.158175524324178696e-03 3.914975386578589678e-04
9.230000000000000000e+02 7.518231272697448730e-01 3.624136352539062500e+01 -8.694722782820463181e-05 -5.052368156611919403e-03 -1.541794626973569393e-03 2.780068025458604097e-04
9.240000000000000000e+02 1.162488222122192383e+00 4.002609634399414062e+01 1.223792496602982283e-04 -6.016118917614221573e-03 -1.768121961504220963e-03 9.319851233158260584e-05
9.250000000000000000e+02 9.659708976745605469e+00 1.832553625106811523e+00 8.224459634220693260e-06 -7.515573088312521577e-06 2.126659239820583025e-07 3.511877139317221008e-06
9.260000000000000000e+02 8.896793365478515625e+00 1.834253191947937012e+00 1.614906977920327336e-05 4.319073923397809267e-06 6.140443019830854610e-06 -1.470600778930020169e-07
9.270000000000000000e+02 5.078880310058593750e+00 1.890669703483581543e+00 5.042944849265040830e-06 -6.949833277758443728e-06 -5.720664830732857808e-07 -2.793351995933335274e-06
9.280000000000000000e+02 1.987890362739562988e+00 2.123856067657470703e+00 6.022617071721469983e-06 -1.082300150301307440e-05 -1.440115283912746236e-06 4.946557510265847668e-06
9.290000000000000000e+02 1.203313589096069336e+00 2.176662206649780273e+00 4.479512426769360900e-06 1.348853311355924234e-05 5.390413662098580971e-06 -4.834204446524381638e-06
9.300000000000000000e+02 1.124869155883789062e+01 2.491037368774414062e+00 1.351425635220948607e-05 4.861683919443748891e-06 5.512782081495970488e-06 4.239806912664789706e-06
9.310000000000000000e+02 1.263918876647949219e+01 1.836457133293151855e+00 3.753973032871726900e-06 -5.867736945219803602e-06 -6.341291509670554660e-07 4.517101388046285138e-06
9.320000000000000000e+02 1.556829166412353516e+01 1.919296979904174805e+00 -8.055552029873069841e-07 -4.571650606521870941e-06 -1.613161771274462808e-06 1.607265062375518028e-06
9.330000000000000000e+02 1.700698661804199219e+01 2.017860412597656250e+00 -1.746508132782764733e-06 -4.789279500982956961e-06 -1.960736199180246331e-06 3.526851912738493411e-07
9.340000000000000000e+02 1.843616485595703125e+01 2.139821767807006836e+00 -1.378153910991386510e-06 -5.134709226695122197e-06 -1.953859054992790334e-06 -3.010682121384888887e-07
9.350000000000000000e+02 2.051742935180664062e+01 2.458785533905029297e+00 1.288097905671747867e-06 4.748342689708806574e-06 1.810932189982850105e-06 1.160311846604145103e-08
9.360000000000000000e+02 2.120377731323242188e+01 2.582740545272827148e+00 -3.432304254147311440e-07 -5.024912297812988982e-06 -1.610442836863512639e-06 -5.849990998285647947e-07
9.370000000000000000e+02 2.291967010498046875e+01 4.059760570526123047e+00 2.256121888422057964e-06 2.097494189001736231e-06 1.306084868701873347e-06 1.625937102289753966e-06
9.380000000000000000e+02 2.341368293762207031e+01 3.541336536407470703e+00 7.428542630805168301e-06 1.513334950686839875e-07 2.273962763865711167e-06 4.353726581030059606e-06
9.390000000000000000e+02 2.361431884765625000e+01 3.246265411376953125e+00 -3.771265539853629889e-07 -2.209833382949000224e-06 -7.760879725537961349e-07 -2.050686362053966150e-06
9.400000000000000000e+02 2.187400817871093750e+01 2.737160921096801758e+00 3.309274632101733005e-07 4.034950507048051804e-06 1.309763433710031677e-06 1.146361000792239793e-06
9.410000000000000000e+02 2.205898666381835938e+01 4.845459461212158203e+00 -4.752761469717370346e-06 -7.985272532096132636e-06 -3.821410246018785983e-06 -6.337013019219739363e-06
9.420000000000000000e+02 2.145708274841308594e+01 5.327339172363281250e+00 -5.539267931453650817e-06 -1.006248749035876244e-05 -4.680526672018459067e-06 -5.863880687684286386e-06
9.430000000000000000e+02 2.047615432739257812e+01 6.086598396301269531e+00 9.785346264834515750e-06 7.105783424776745960e-06 5.067338861408643425e-06 1.059480928233824670e-05
9.440000000000000000e+02 2.017508316040039062e+01 6.353003978729248047e+00 -1.186691406473983079e-05 -9.075520210899412632e-06 -6.282730282691773027e-06 -7.518485290347598493e-06
9.450000000000000000e+02 1.987949562072753906e+01 6.624831199645996094e+00 8.824005817587021738e-06 6.931137249921448529e-06 4.726543011202011257e-06 1.014444933389313519e-05
9.460000000000000000e+02 1.874062347412109375e+01 7.739945411682128906e+00 1.160310785053297877e-05 1.011549284157808870e-05 6.515580025734379888e-06 1.282434823224321008e-05
9.470000000000000000e+02 1.788317108154296875e+01 8.573126792907714844e+00 -1.867087303253356367e-05 -1.034171691571827978e-05 -8.703776984475553036e-06 -1.390756096952827647e-05
9.480000000000000000e+02 1.760271263122558594e+01 8.858713150024414062e+00 1.802047336241230369e-05 1.219689238496357575e-05 9.065210178960114717e-06 1.299240284424740821e-05
9.490000000000000000e+02 1.707059288024902344e+01 9.456446647644042969e+00 1.880419222288765013e-05 1.936323860718403012e-05 1.145022906712256372e-05 9.829915143200196326e-06
9.500000000000000000e+02 1.656939888000488281e+01 1.008903312683105469e+01 2.712232526391744614e-05 3.339781324029900134e-05 1.815604264265857637e-05 1.298978168051689863e-05
9.510000000000000000e+02 1.545971679687500000e+01 1.181360816955566406e+01 -3.427128467592410743e-05 1.076406770152971148e-04 2.201081770181190223e-05 -3.626396573963575065e-05
9.520000000000000000e+02 1.466069507598876953e+01 1.539091300964355469e+01 9.546974615659564734e-05 5.690876860171556473e-04 1.993672340176999569e-04 3.455399564700201154e-05
9.530000000000000000e+02 1.467904376983642578e+01 1.579368782043457031e+01 -7.693050429224967957e-05 6.129237590357661247e-04 1.607979793334379792e-04 4.771981548401527107e-05
9.540000000000000000e+02 1.471534347534179688e+01 1.659478950500488281e+01 -9.084431803785264492e-05 7.408607052639126778e-04 1.950049190782010555e-04 4.735895709018222988e-05
9.550000000000000000e+02 1.473087692260742188e+01 1.818561935424804688e+01 -1.565692655276507139e-04 1.139017171226441860e-03 2.947343746200203896e-04 6.553272396558895707e-05
9.560000000000000000e+02 1.458435153961181641e+01 1.928288650512695312e+01 -2.419560041744261980e-04 8.056246442720293999e-04 1.691005891188979149e-04 8.934735524235293269e-05
9.570000000000000000e+02 1.709536361694335938e+01 2.135807418823242188e+01 -8.089704439043998718e-03 -1.062002847902476788e-03 -2.745512174442410469e-03 -1.749021350406110287e-03
9.580000000000000000e+02 1.832066726684570312e+01 2.169460487365722656e+01 -1.131831109523773193e-02 -3.385645977687090635e-04 -3.497062716633081436e-03 -1.984007423743605614e-03
9.590000000000000000e+02 2.393037223815917969e+01 2.195856475830078125e+01 -3.552917763590812683e-02 -1.878104405477643013e-03 -1.122218463569879532e-02 7.430008612573146820e-03
9.600000000000000000e+02 2.433257484436035156e+01 2.187725639343261719e+01 -3.702202066779136658e-02 -2.358553232625126839e-03 -1.181417144834995270e-02 8.303480222821235657e-03
9.610000000000000000e+02 2.513935661315917969e+01 2.173207855224609375e+01 -4.029461741447448730e-02 -3.395643783733248711e-03 -1.310707908123731613e-02 1.052086520940065384e-02
9.620000000000000000e+02 2.634500312805175781e+01 2.142548370361328125e+01 -4.350680112838745117e-02 -4.886455368250608444e-03 -1.451797690242528915e-02 1.423649676144123077e-02
9.630000000000000000e+02 2.713664436340332031e+01 2.118787002563476562e+01 -4.689466580748558044e-02 -6.045964080840349197e-03 -1.588218845427036285e-02 1.650802418589591980e-02
9.640000000000000000e+02 2.793537902832031250e+01 2.091980552673339844e+01 -5.577887222170829773e-02 -1.314282510429620743e-02 -2.067651040852069855e-02 2.328933030366897583e-02
9.650000000000000000e+02 2.867202568054199219e+01 2.051904869079589844e+01 -5.318874493241310120e-02 -2.627917192876338959e-02 -2.384037524461746216e-02 3.276826441287994385e-02
9.660000000000000000e+02 2.950769233703613281e+01 1.961050224304199219e+01 -2.500820159912109375e-02 -3.697312623262405396e-02 -1.859439909458160400e-02 2.827457711100578308e-02
9.670000000000000000e+02 2.926624488830566406e+01 1.994237899780273438e+01 -3.507757559418678284e-02 -3.718005865812301636e-02 -2.167729102075099945e-02 3.289955854415893555e-02
9.680000000000000000e+02 3.017148971557617188e+01 1.858523559570312500e+01 -1.234129257500171661e-02 -2.795011736452579498e-02 -1.208742335438728333e-02 1.816909015178680420e-02
9.690000000000000000e+02 3.037850952148437500e+01 1.823637962341308594e+01 -1.067590713500976562e-02 -2.648280374705791473e-02 -1.114761363714933395e-02 1.598569378256797791e-02
9.700000000000000000e+02 3.057139968872070312e+01 1.787686729431152344e+01 -8.625465445220470428e-03 -2.462727017700672150e-02 -9.975820779800415039e-03 1.415227632969617844e-02
9.710000000000000000e+02 3.088810920715332031e+01 1.712176132202148438e+01 -5.059504415839910507e-03 -2.014318481087684631e-02 -7.560806348919868469e-03 9.723365306854248047e-03
9.720000000000000000e+02 3.169398880004882812e+01 1.487816524505615234e+01 -1.291774329729378223e-03 -7.348934188485145569e-03 -2.592212520539760590e-03 3.616861999034881592e-03
9.730000000000000000e+02 3.161552429199218750e+01 1.620956611633300781e+01 -4.243284463882446289e-03 -1.126778591424226761e-02 -4.653321113437414169e-03 7.633297704160213470e-03
9.740000000000000000e+02 3.229247283935546875e+01 1.331763076782226562e+01 -5.031468463130295277e-04 -2.393249422311782837e-03 -8.689188980497419834e-04 1.763873035088181496e-03
9.750000000000000000e+02 3.238586425781250000e+01 1.289603519439697266e+01 -1.287649618461728096e-03 -1.640879083424806595e-03 -8.785586105659604073e-04 1.069867634214460850e-03
9.760000000000000000e+02 3.240178298950195312e+01 1.248449039459228516e+01 1.150508833234198391e-04 -8.560293936170637608e-04 -2.222935436293482780e-04 7.376316934823989868e-04
9.770000000000000000e+02 3.245200347900390625e+01 1.209992313385009766e+01 -6.858913693577051163e-04 -1.572411420056596398e-04 -2.529397606849670410e-04 2.129941567545756698e-04
9.780000000000000000e+02 3.285017776489257812e+01 1.058077812194824219e+01 -2.500390983186662197e-04 8.077591191977262497e-04 1.673160004429519176e-04 -2.236650616396218538e-04
9.790000000000000000e+02 3.319738006591796875e+01 8.926836013793945312e+00 -6.589947588508948684e-05 7.949994760565459728e-04 2.187299978686496615e-04 -1.773462136043235660e-04
9.800000000000000000e+02 3.324125671386718750e+01 8.099459648132324219e+00 -9.154469444183632731e-05 6.597071187570691109e-04 1.704487367533147335e-04 -1.658756227698177099e-04
9.810000000000000000e+02 3.330479431152343750e+01 7.368087291717529297e+00 -5.840136509505100548e-05 5.675373831763863564e-04 1.527408021502196789e-04 -4.018713661935180426e-05
9.820000000000000000e+02 3.375450134277343750e+01 6.696403980255126953e+00 -5.822258026455529034e-05 2.942020655609667301e-04 7.079384522512555122e-05 -1.394735154462978244e-04
9.830000000000000000e+02 3.350827026367187500e+01 5.367024421691894531e+00 1.921921066241338849e-04 9.583234350429847836e-05 8.640732994535937905e-05 3.252868918934836984e-05
9.840000000000000000e+02 3.356539535522460938e+01 4.153638839721679688e+00 -2.986416220664978027e-04 2.536684587539639324e-05 -8.198243449442088604e-05 -8.162189624272286892e-05
9.850000000000000000e+02 3.356671142578125000e+01 3.736390352249145508e+00 4.005969385616481304e-04 1.132420152316626627e-06 1.205188091262243688e-04 5.555750612984411418e-05
9.860000000000000000e+02 3.423735427856445312e+01 1.986389040946960449e+00 9.870909707387909293e-06 1.839587494032457471e-04 5.814889664179645479e-05 -8.133501978591084480e-05
9.870000000000000000e+02 3.344680786132812500e+01 2.081930398941040039e+00 -1.466333924327045679e-04 -2.053487842204049230e-04 -1.055946559063158929e-04 2.596096019260585308e-04
9.880000000000000000e+02 3.379429626464843750e+01 1.974400401115417480e+00 2.068295871140435338e-04 -1.909707643790170550e-04 4.757648184749996290e-06 -9.896331903291866183e-05
9.890000000000000000e+02 3.459477233886718750e+01 1.958921313285827637e+00 1.025606907205656171e-04 -1.630470478630741127e-06 3.027906677743885666e-05 1.288318526349030435e-05
9.900000000000000000e+02 3.443048858642578125e+01 1.982244014739990234e+00 -1.697155094007030129e-04 -2.962706203106790781e-04 -1.397958403686061502e-04 1.327298959949985147e-04
9.910000000000000000e+02 3.635740280151367188e+01 3.088348865509033203e+00 -1.614907159819267690e-05 2.825800911523401737e-04 7.992931205080822110e-05 -1.565216662129387259e-04
9.920000000000000000e+02 3.806820297241210938e+01 3.011260271072387695e+00 -9.316550858784466982e-05 -7.335578993661329150e-05 -4.995639028493314981e-05 3.291227358204196207e-06
9.930000000000000000e+02 3.931119537353515625e+01 4.854332447052001953e+00 -2.735415764618664980e-04 1.293933892156928778e-04 -4.324446126702241600e-05 8.199499279726296663e-05
9.940000000000000000e+02 3.925016784667968750e+01 6.122480392456054688e+00 1.287919149035587907e-04 1.996804639929905534e-04 9.854171366896480322e-05 -9.017065167427062988e-06
9.950000000000000000e+02 4.193943786621093750e+01 1.271449470520019531e+01 -6.218161899596452713e-03 -3.486441448330879211e-03 -2.911380957812070847e-03 -3.734185826033353806e-03
9.960000000000000000e+02 4.268347167968750000e+01 1.507210636138916016e+01 -1.720636337995529175e-02 -1.118107582442462444e-03 -5.497341044247150421e-03 -7.756356149911880493e-03
9.970000000000000000e+02 4.599346160888671875e+01 1.703587341308593750e+01 -3.222852945327758789e-02 -1.553202420473098755e-02 -1.432816591113805771e-02 -1.967758871614933014e-02
9.980000000000000000e+02 4.707540130615234375e+01 1.787619781494140625e+01 -3.819572925567626953e-02 -1.455038040876388550e-02 -1.582383178174495697e-02 -2.605281025171279907e-02
9.990000000000000000e+02 5.060548782348632812e+01 2.009752464294433594e+01 -4.834238439798355103e-02 -1.817715726792812347e-02 -1.995586231350898743e-02 -2.560676820576190948e-02
1.000000000000000000e+03 5.322052383422851562e+01 2.112259292602539062e+01 1.653622649610042572e-02 -1.234010327607393265e-02 1.258836826309561729e-03 -2.285390347242355347e-02
1.001000000000000000e+03 5.600251770019531250e+01 2.205644989013671875e+01 2.335793823003768921e-01 4.136069491505622864e-02 8.248202502727508545e-02 -9.934498369693756104e-02
1.002000000000000000e+03 5.755892944335937500e+01 2.234297370910644531e+01 4.473201632499694824e-01 1.358430534601211548e-01 1.749489605426788330e-01 -2.170268446207046509e-01
1.003000000000000000e+03 6.270008087158203125e+01 1.512019348144531250e+01 8.098158240318298340e-02 2.178669929504394531e+00 6.778954863548278809e-01 -6.650958210229873657e-02
1.004000000000000000e+03 6.183634948730468750e+01 9.432641983032226562e+00 1.857158839702606201e-01 2.163702011108398438e+00 7.048253417015075684e-01 4.445365667343139648e-01
1.005000000000000000e+03 5.337993240356445312e+01 -3.935200214385986328e+00 1.565590620040893555e+00 1.187753558158874512e+00 8.260032534599304199e-01 1.254350304603576660e+00
1.006000000000000000e+03 4.757336425781250000e+01 -5.056009292602539062e+00 1.452897906303405762e+00 6.432069092988967896e-02 4.551655650138854980e-01 -2.469296455383300781e-01
1.007000000000000000e+03 4.498503112792968750e+01 -4.173812866210937500e+00 8.853335976600646973e-01 3.874410316348075867e-02 2.772233188152313232e-01 -2.148901969194412231e-01
1.008000000000000000e+03 4.252291488647460938e+01 -3.297406196594238281e+00 5.428520441055297852e-01 8.362824469804763794e-02 1.879440844058990479e-01 -1.836285591125488281e-01
1.009000000000000000e+03 3.726728057861328125e+01 -9.554535746574401855e-01 -3.264473751187324524e-02 -1.396396011114120483e-02 -1.398260891437530518e-02 6.058569252490997314e-02
1.010000000000000000e+03 3.678757476806640625e+01 -1.644097805023193359e+00 -4.703648015856742859e-02 -2.928239852190017700e-02 -2.289566397666931152e-02 1.195328235626220703e-01
1.011000000000000000e+03 3.484668350219726562e+01 -1.283040523529052734e+00 -3.029072880744934082e-01 4.425471648573875427e-02 -7.759577035903930664e-02 1.458982676267623901e-01
1.012000000000000000e+03 3.422070312500000000e+01 -1.633459687232971191e+00 -3.705996572971343994e-01 1.203318964689970016e-02 -1.075699403882026672e-01 2.418947070837020874e-01
1.013000000000000000e+03 3.078126716613769531e+01 -1.710596323013305664e+00 -8.243907690048217773e-01 7.469282299280166626e-02 -2.249093949794769287e-01 2.849018275737762451e-01
1.014000000000000000e+03 3.096899986267089844e+01 -1.680913805961608887e+00 -7.987260818481445312e-01 7.908312231302261353e-02 -2.158928960561752319e-01 2.801747024059295654e-01
1.015000000000000000e+03 2.917462539672851562e+01 -1.831573724746704102e+00 -1.069553971290588379e+00 5.027020350098609924e-02 -3.057851195335388184e-01 2.859269976615905762e-01
1.016000000000000000e+03 2.659676742553710938e+01 -2.146753072738647461e+00 -1.113240480422973633e+00 -2.652623653411865234e-01 -4.135508537292480469e-01 2.231739163398742676e-01
1.017000000000000000e+03 2.436777114868164062e+01 -9.458298087120056152e-01 -1.358515620231628418e+00 2.459573596715927124e-01 -3.337674736976623535e-01 2.093283087015151978e-01
1.018000000000000000e+03 2.276877593994140625e+01 -6.626718044281005859e-01 -1.162225604057312012e+00 2.347518056631088257e-01 -2.782421410083770752e-01 1.552130579948425293e-01
1.019000000000000000e+03 2.042256355285644531e+01 -1.228136062622070312e+00 -1.265085697174072266e+00 6.347343325614929199e-02 -3.604836761951446533e-01 2.954225242137908936e-02
1.020000000000000000e+03 1.730519294738769531e+01 -1.645923137664794922e+00 -1.361767292022705078e+00 -5.656947614625096321e-04 -4.086998999118804932e-01 -9.809410572052001953e-02
1.021000000000000000e+03 1.652581024169921875e+01 -1.703607916831970215e+00 -1.354512453079223633e+00 -5.330747459083795547e-03 -4.079529643058776855e-01 -1.258159726858139038e-01
1.022000000000000000e+03 1.344598770141601562e+01 -1.858545541763305664e+00 -1.226198673248291016e+00 7.870310219004750252e-04 -3.676235079765319824e-01 -2.302140295505523682e-01
1.023000000000000000e+03 1.497904396057128906e+01 -1.794535279273986816e+00 -1.316618561744689941e+00 -6.044868379831314087e-03 -3.967990279197692871e-01 -1.856078654527664185e-01
1.024000000000000000e+03 1.191250705718994141e+01 -1.862920880317687988e+00 -1.094226598739624023e+00 5.365052260458469391e-03 -3.266584575176239014e-01 -2.717077434062957764e-01
1.025000000000000000e+03 8.881011962890625000e+00 -2.674515247344970703e+00 -6.415369510650634766e-01 -7.103427778929471970e-03 -1.945921182632446289e-01 -3.814419209957122803e-01
1.026000000000000000e+03 8.080208778381347656e+00 -1.907959580421447754e+00 -6.494516134262084961e-01 -1.165581028908491135e-02 -1.983322352170944214e-01 -2.940534055233001709e-01
1.027000000000000000e+03 7.297846317291259766e+00 -2.772629976272583008e+00 -4.762375354766845703e-01 -3.300368785858154297e-02 -1.527723670005798340e-01 -3.766795396804809570e-01
1.028000000000000000e+03 2.394641399383544922e+00 -2.834601879119873047e+00 -9.165366739034652710e-02 -1.205992549657821655e-01 -6.367587298154830933e-02 -1.740578263998031616e-01
1.029000000000000000e+03 2.751192331314086914e+00 -1.827495694160461426e+00 -1.126771047711372375e-01 -5.629120022058486938e-02 -5.069049075245857239e-02 -1.281562149524688721e-01
1.030000000000000000e+03 2.038268804550170898e+00 -1.969785809516906738e+00 -7.005797326564788818e-02 -7.196039706468582153e-02 -4.260551184415817261e-02 -9.578007459640502930e-02
1.031000000000000000e+03 5.104478836059570312e+00 -4.036327362060546875e+01 -7.489109784364700317e-02 -3.023559153079986572e-01 -1.131741106510162354e-01 2.951507829129695892e-02
1.032000000000000000e+03 9.537897706031799316e-01 -3.872831344604492188e+01 -4.250819794833660126e-03 -5.440397262573242188e-01 -1.644871532917022705e-01 3.421488404273986816e-02
1.033000000000000000e+03 6.867600679397583008e-01 -3.324852752685546875e+01 8.558622212149202824e-04 -8.213247060775756836e-01 -2.461406439542770386e-01 4.168087244033813477e-02
1.034000000000000000e+03 6.629861593246459961e-01 -3.185215187072753906e+01 -4.631994757801294327e-03 -9.119170904159545898e-01 -2.749647200107574463e-01 4.531982913613319397e-02
1.035000000000000000e+03 6.678938269615173340e-01 -2.626436424255371094e+01 6.149114924483001232e-04 -1.365653276443481445e+00 -4.095115065574645996e-01 5.603149533271789551e-02
1.036000000000000000e+03 2.260281801223754883e+00 -2.207595062255859375e+01 3.125490993261337280e-02 -1.241382956504821777e+00 -3.630384206771850586e-01 1.115923225879669189e-01
1.037000000000000000e+03 2.182168722152709961e+00 -1.912938308715820312e+01 5.018282309174537659e-02 -1.318750381469726562e+00 -3.805702924728393555e-01 2.030724100768566132e-02
1.038000000000000000e+03 1.829210042953491211e+00 -1.207485866546630859e+01 2.671180851757526398e-02 -1.088241696357727051e+00 -3.184589743614196777e-01 -2.146225273609161377e-01
1.039000000000000000e+03 1.739343762397766113e+00 -6.669828891754150391e+00 -7.718416862189769745e-03 -4.854479134082794189e-01 -1.479499042034149170e-01 -2.442744821310043335e-01
1.040000000000000000e+03 1.887365102767944336e+00 -5.341905117034912109e+00 -3.003725595772266388e-02 -3.327419459819793701e-01 -1.088337600231170654e-01 -2.288814038038253784e-01
1.041000000000000000e+03 7.966486358642578125e+01 -1.863647460937500000e+01 3.109218596364371479e-05 1.090417208615690470e-05 1.259890723304124549e-05 4.494146196520887315e-06
1.042000000000000000e+03 7.947524261474609375e+01 -2.276742553710937500e+01 -2.998499076056759804e-05 9.365719961351715028e-06 -6.185781330714235082e-06 -5.190142928768182173e-06
1.043000000000000000e+03 7.839746856689453125e+01 -2.281454277038574219e+01 5.317997420206665993e-05 2.566144030424766243e-05 2.365242471569217741e-05 -2.787026232908829115e-06
1.044000000000000000e+03 7.941014862060546875e+01 -2.683084869384765625e+01 4.670541238738223910e-05 7.024325896054506302e-05 3.508460213197395205e-05 -1.224174684466561303e-05
1.045000000000000000e+03 7.824456787109375000e+01 -2.678409194946289062e+01 -5.317331670084968209e-05 5.288864849717356265e-05 -8.540050799865639419e-08 -3.249676228733733296e-05
1.046000000000000000e+03 7.927609252929687500e+01 -3.093855667114257812e+01 -5.585358667303808033e-05 1.759747974574565887e-04 3.603636287152767181e-05 -1.830859946494456381e-05
1.047000000000000000e+03 7.788160705566406250e+01 -3.236289596557617188e+01 -8.103690197458490729e-05 1.628538884688168764e-04 2.454509558447171003e-05 -6.412854418158531189e-05
1.048000000000000000e+03 7.921755981445312500e+01 -3.502821350097656250e+01 3.567511157598346472e-05 2.862680412363260984e-04 9.658294584369286895e-05 4.214380624034674838e-06
1.049000000000000000e+03 7.742520904541015625e+01 -3.640858459472656250e+01 2.228578705398831517e-05 2.356389741180464625e-04 7.737742998870089650e-05 1.464325487177120522e-05
1.050000000000000000e+03 7.916474151611328125e+01 -3.904909133911132812e+01 -7.629840547451749444e-05 2.782011288218200207e-04 6.057081918697804213e-05 2.279148975503630936e-05
1.051000000000000000e+03 7.674720764160156250e+01 -2.040985107421875000e+01 1.017138856695964932e-05 4.656974124372936785e-05 1.702233930700458586e-05 -1.057354620570549741e-05
1.052000000000000000e+03 7.704925537109375000e+01 -1.840640449523925781e+01 1.233461262017954141e-05 8.128924491757061332e-06 6.139061042631510645e-06 -9.715007763588801026e-06
1.053000000000000000e+03 7.640437316894531250e+01 -1.834329605102539062e+01 3.162207349305390380e-06 -4.523660209088120610e-06 -4.084358806721866131e-07 -1.458861049741244642e-07
1.054000000000000000e+03 7.357782745361328125e+01 -1.816109657287597656e+01 -1.338421770924469456e-05 -2.144555946870241314e-05 -1.044893360813148320e-05 1.912488414745894261e-06
1.055000000000000000e+03 7.500862884521484375e+01 -1.820815277099609375e+01 -1.406075716658961028e-05 -2.428944299026625231e-06 -4.946910394210135564e-06 -4.361733772384468466e-06
1.056000000000000000e+03 7.217727661132812500e+01 -1.819775581359863281e+01 -2.858240804926026613e-06 -3.818650657194666564e-05 -1.231342412211233750e-05 6.380267222994007170e-06
1.057000000000000000e+03 6.572873687744140625e+01 -2.535474777221679688e+01 1.698921696515753865e-04 8.488805178785696626e-05 7.643406570423394442e-05 1.277507690247148275e-04
1.058000000000000000e+03 6.147293472290039062e+01 -2.913675117492675781e+01 2.197320136474445462e-04 1.419393083779141307e-04 1.085013936972245574e-04 2.588086063042283058e-04
1.059000000000000000e+03 5.731389236450195312e+01 -3.075265121459960938e+01 -2.603572094812989235e-03 -2.178566646762192249e-04 -8.464286220259964466e-04 8.358411723747849464e-04
1.060000000000000000e+03 5.267898559570312500e+01 -3.229149246215820312e+01 -5.658708047121763229e-03 -5.286907777190208435e-03 -3.283684840425848961e-03 6.424761842936277390e-03
1.061000000000000000e+03 5.292494201660156250e+01 -3.061913871765136719e+01 -1.089909579604864120e-02 -5.987775512039661407e-04 -3.449362004175782204e-03 3.806162858381867409e-03
1.062000000000000000e+03 4.531998062133789062e+01 -2.430603027343750000e+01 -3.236969001591205597e-03 -4.221142735332250595e-03 -2.237433567643165588e-03 4.228468053042888641e-03
1.063000000000000000e+03 4.358413696289062500e+01 -2.008063316345214844e+01 -1.439194544218480587e-03 -1.411921402905136347e-04 -4.741160082630813122e-04 1.825767503760289401e-05
1.064000000000000000e+03 4.436332702636718750e+01 -1.967479705810546875e+01 3.267642023274675012e-05 4.998355871066451073e-04 1.597535883774980903e-04 3.666802658699452877e-04
1.065000000000000000e+03 4.368934249877929688e+01 -1.789201927185058594e+01 -5.586273255175910890e-05 -2.156468544853851199e-04 -8.145287574734538794e-05 -3.979594330303370953e-04
1.066000000000000000e+03 4.250483703613281250e+01 -1.703610610961914062e+01 1.759217411745339632e-04 -2.055982913589105010e-04 -8.902968147594947368e-06 -3.577697498258203268e-04
1.067000000000000000e+03 3.923056793212890625e+01 -1.567047214508056641e+01 2.845560666173696518e-04 -2.970854984596371651e-04 -3.758828142963466235e-06 1.346554345218464732e-04
1.068000000000000000e+03 3.865863800048828125e+01 -1.531402683258056641e+01 1.199749967781826854e-04 -1.268193154828622937e-04 -2.053297293969080783e-06 3.608874249039217830e-05
1.069000000000000000e+03 3.771478271484375000e+01 -1.397196006774902344e+01 3.491750394459813833e-04 -1.633623032830655575e-04 5.574382157647050917e-05 2.048841561190783978e-04
1.070000000000000000e+03 3.458467483520507812e+01 -1.351651096343994141e+01 2.744377998169511557e-04 1.632354687899351120e-04 1.313019747612997890e-04 1.589018065715208650e-04
1.071000000000000000e+03 3.416571426391601562e+01 -1.256834316253662109e+01 -3.062190662603825331e-04 -1.646969176363199949e-04 -1.412747951690107584e-04 -6.422355363611131907e-05
1.072000000000000000e+03 3.558193969726562500e+01 -1.310081100463867188e+01 -2.485830009391065687e-05 -1.243256178895535413e-06 -7.830466529412660748e-06 1.652742648730054498e-04
1.073000000000000000e+03 3.611050415039062500e+01 -1.436934947967529297e+01 -3.261062956880778074e-04 1.451147545594722033e-04 -5.429746306617744267e-05 6.486952770501375198e-05
1.074000000000000000e+03 3.553373336791992188e+01 -1.923847961425781250e+01 6.140944897197186947e-04 1.048575271852314472e-03 4.988009459339082241e-04 2.069262845907360315e-04
1.075000000000000000e+03 3.627198410034179688e+01 -2.171555900573730469e+01 -1.203323714435100555e-03 4.433467111084610224e-04 -2.279930922668427229e-04 -1.184474909678101540e-03
1.076000000000000000e+03 3.009687614440917969e+01 -2.895834541320800781e+01 -5.639688670635223389e-02 -1.351485867053270340e-02 -2.097352407872676849e-02 -2.606800012290477753e-02
1.077000000000000000e+03 2.117476844787597656e+01 -2.847292518615722656e+01 3.807750642299652100e-01 3.674232065677642822e-01 2.244594693183898926e-01 -3.504177331924438477e-01
1.078000000000000000e+03 1.807658767700195312e+01 -2.552444267272949219e+01 5.435879230499267578e-01 7.376270890235900879e-01 3.843644857406616211e-01 -5.990682244300842285e-01
1.079000000000000000e+03 1.533885288238525391e+01 -2.224417495727539062e+01 6.806554198265075684e-01 1.857649564743041992e+00 7.614914774894714355e-01 -9.674714803695678711e-01
1.080000000000000000e+03 2.085577583312988281e+01 -1.130785655975341797e+01 1.519807934761047363e+00 9.147160500288009644e-02 4.833838641643524170e-01 4.004514515399932861e-01
1.081000000000000000e+03 2.215725898742675781e+01 -1.100627708435058594e+01 1.368452072143554688e+00 8.928434550762176514e-02 4.373209178447723389e-01 4.334037899971008301e-01
1.082000000000000000e+03 2.463241195678710938e+01 -1.009232807159423828e+01 1.176280617713928223e+00 2.379008233547210693e-01 4.242544174194335938e-01 6.006034016609191895e-01
1.083000000000000000e+03 2.733574676513671875e+01 -2.997003173828125000e+01 1.658366061747074127e-02 1.016378216445446014e-02 8.024232462048530579e-03 -4.279856756329536438e-02
1.084000000000000000e+03 3.956068801879882812e+01 3.546424627304077148e+00 4.165302379988133907e-04 9.524811321171000600e-05 1.535335031803697348e-04 -8.357887418242171407e-05
1.085000000000000000e+03 3.519453048706054688e+01 2.170041799545288086e+00 1.781259925337508321e-04 -1.586919825058430433e-04 5.830201644130283967e-06 5.306993261910974979e-05
1.086000000000000000e+03 3.552784347534179688e+01 3.259768486022949219e+00 -4.873084981227293611e-05 3.159017942380160093e-04 8.015128696570172906e-05 -2.710102708078920841e-04
1.087000000000000000e+03 3.322657394409179688e+01 2.500280380249023438e+00 -4.638913669623434544e-04 -3.860726792481727898e-05 -1.507495908299461007e-04 1.443483779439702630e-04
1.088000000000000000e+03 3.321927642822265625e+01 1.862501263618469238e+00 -1.289113424718379974e-04 1.772523828549310565e-04 1.450231411581626162e-05 -1.033724256558343768e-04
1.089000000000000000e+03 3.401553344726562500e+01 1.990600347518920898e+00 -1.985323615372180939e-04 -1.432833378203213215e-04 -1.025447127176448703e-04 2.215169515693560243e-04
1.090000000000000000e+03 3.416293334960937500e+01 2.279999494552612305e+00 6.475592090282589197e-05 3.368969773873686790e-04 1.204958680318668485e-04 -1.669202465564012527e-04
1.091000000000000000e+03 3.389078521728515625e+01 2.600715637207031250e+00 -1.646350574446842074e-04 -2.984431630466133356e-04 -1.389234676025807858e-04 2.492760540917515755e-04
1.092000000000000000e+03 3.058662033081054688e+01 -1.729401111602783203e+00 -8.509651422500610352e-01 8.275388181209564209e-02 -2.304633706808090210e-01 2.891611754894256592e-01
1.093000000000000000e+03 3.019992637634277344e+01 -1.800551891326904297e+00 -9.021082520484924316e-01 8.033187687397003174e-02 -2.465329021215438843e-01 2.944517135620117188e-01
1.094000000000000000e+03 2.818328857421875000e+01 -1.991135358810424805e+00 -1.172810316085815430e+00 -1.468277908861637115e-02 -3.562479317188262939e-01 3.175575733184814453e-01
1.095000000000000000e+03 2.978549194335937500e+01 -1.836677908897399902e+00 -9.607524871826171875e-01 7.688130438327789307e-02 -2.651613652706146240e-01 3.006805777549743652e-01
1.096000000000000000e+03 3.171271705627441406e+01 -1.680729031562805176e+00 -6.983500123023986816e-01 5.870227888226509094e-02 -1.918943226337432861e-01 1.937056034803390503e-01
1.097000000000000000e+03 3.115849876403808594e+01 -2.078807830810546875e+00 -6.884983181953430176e-01 6.261936575174331665e-02 -1.877636909484863281e-01 3.242606818675994873e-01
1.098000000000000000e+03 3.039625549316406250e+01 -1.737317800521850586e+00 -8.834253549575805664e-01 6.796939671039581299e-02 -2.446367889642715454e-01 2.838283777236938477e-01
1.099000000000000000e+03 2.900020790100097656e+01 -1.853945732116699219e+00 -1.095140099525451660e+00 4.782215133309364319e-02 -3.141953647136688232e-01 2.908158302307128906e-01
1.100000000000000000e+03 2.859866523742675781e+01 -1.975707530975341797e+00 -1.121033549308776855e+00 2.195507101714611053e-02 -3.297235667705535889e-01 3.047857582569122314e-01
1.101000000000000000e+03 2.910988998413085938e+01 -2.050793170928955078e+00 -1.006191134452819824e+00 5.062244459986686707e-02 -2.866706252098083496e-01 3.239219486713409424e-01
1.102000000000000000e+03 2.700196647644042969e+01 -2.080601453781127930e+00 -1.182275891304016113e+00 -2.271156907081604004e-01 -4.228174984455108643e-01 2.953278124332427979e-01
1.103000000000000000e+03 2.636940574645996094e+01 -2.201319932937622070e+00 -1.073951959609985352e+00 -3.504697680473327637e-01 -4.273265004158020020e-01 1.787379682064056396e-01
1.104000000000000000e+03 2.680272102355957031e+01 -2.110231637954711914e+00 -1.158466696739196777e+00 -2.799333631992340088e-01 -4.315200150012969971e-01 2.708017826080322266e-01
1.105000000000000000e+03 2.998883056640625000e+01 -1.815821647644042969e+00 -9.264327287673950195e-01 7.433954626321792603e-02 -2.556279599666595459e-01 2.940261662006378174e-01
1.106000000000000000e+03 2.936379432678222656e+01 -1.843716144561767578e+00 -1.042309403419494629e+00 6.359738856554031372e-02 -2.936136126518249512e-01 2.927130162715911865e-01
1.107000000000000000e+03 2.758712005615234375e+01 -2.180563449859619141e+00 -1.144131898880004883e+00 -9.456212818622589111e-02 -3.716082274913787842e-01 3.248537480831146240e-01
1.108000000000000000e+03 2.719904708862304688e+01 -2.045802116394042969e+00 -1.216517448425292969e+00 -1.995254009962081909e-01 -4.248128533363342285e-01 3.088911771774291992e-01
1.109000000000000000e+03 2.591959190368652344e+01 -2.247590065002441406e+00 -1.070192813873291016e+00 -2.148979604244232178e-01 -3.855272233486175537e-01 6.301935762166976929e-02
1.110000000000000000e+03 2.640472602844238281e+01 -2.580085992813110352e+00 -9.159073829650878906e-01 -2.432630658149719238e-01 -3.477511405944824219e-01 1.672266274690628052e-01
1.111000000000000000e+03 3.445996475219726562e+01 -1.368595123291015625e+00 -3.752521276473999023e-01 4.300366342067718506e-02 -9.967453777790069580e-02 1.815550178289413452e-01
1.112000000000000000e+03 3.451258850097656250e+01 -1.762598633766174316e+00 -3.083403110504150391e-01 -2.206134377047419548e-03 -9.316393733024597168e-02 2.613557875156402588e-01
1.113000000000000000e+03 3.465758132934570312e+01 -1.334593534469604492e+00 -3.471355438232421875e-01 4.153074324131011963e-02 -9.168143570423126221e-02 1.746591776609420776e-01
1.114000000000000000e+03 3.300445938110351562e+01 1.820305347442626953e+00 -1.929020509123802185e-04 -5.745127782574854791e-05 -7.510599971283227205e-05 5.191382660996168852e-05
1.115000000000000000e+03 1.440652751922607422e+01 1.991895103454589844e+01 -1.584587967954576015e-03 3.623894299380481243e-04 -3.666595730464905500e-04 -5.594888934865593910e-04
1.116000000000000000e+03 1.422471427917480469e+01 1.859318923950195312e+01 -2.237669395981356502e-04 5.338344490155577660e-04 9.302025864599272609e-05 4.496955807553604245e-05
1.117000000000000000e+03 1.547717475891113281e+01 2.015634918212890625e+01 -1.083274488337337971e-03 6.564516661455854774e-05 -3.052887914236634970e-04 -7.153755286708474159e-04
1.118000000000000000e+03 1.515086078643798828e+01 1.990626907348632812e+01 -8.144699386321008205e-04 1.380854955641552806e-04 -2.029153256444260478e-04 -1.009782572509720922e-04
1.119000000000000000e+03 1.608649826049804688e+01 2.066511917114257812e+01 -2.719813026487827301e-03 -6.274797488003969193e-04 -1.004187855869531631e-03 -1.487255329266190529e-03
1.120000000000000000e+03 1.473925399780273438e+01 1.778701400756835938e+01 1.502456143498420715e-04 1.004870166070759296e-03 3.465347399469465017e-04 5.971811333438381553e-05
1.121000000000000000e+03 1.472746467590332031e+01 1.857847785949707031e+01 2.064828586298972368e-04 1.264729420654475689e-03 4.413636634126305580e-04 9.670040890341624618e-05
1.122000000000000000e+03 1.530125999450683594e+01 1.220050144195556641e+01 4.630608236766420305e-05 1.373871054966002703e-04 5.510795381269417703e-05 -1.408882872055983171e-05
1.123000000000000000e+03 2.032001686096191406e+01 2.208128547668457031e+01 -1.914803311228752136e-02 -3.199735947418957949e-04 -5.840402096509933472e-03 -1.962521346285939217e-03
1.124000000000000000e+03 1.467394161224365234e+01 1.498935222625732422e+01 -6.135198054835200310e-05 5.201693275012075901e-04 1.376452128170058131e-04 1.100830377254169434e-05
1.125000000000000000e+03 1.472503471374511719e+01 1.458210182189941406e+01 7.913860463304445148e-05 4.433210415299981833e-04 1.567378931213170290e-04 7.495386284972482827e-07
1.126000000000000000e+03 1.521493148803710938e+01 2.054735374450683594e+01 -2.322376240044832230e-03 1.516849006293341517e-04 -6.512074032798409462e-04 -5.900525720790028572e-04
1.127000000000000000e+03 1.804039764404296875e+01 2.279889678955078125e+01 -1.166765391826629639e-02 3.148167161270976067e-05 -3.490851726382970810e-03 1.254937727935612202e-03
1.128000000000000000e+03 1.640758132934570312e+01 2.090718269348144531e+01 -4.342535510659217834e-03 -1.102024922147393227e-03 -1.633368083275854588e-03 -1.775717479176819324e-03
1.129000000000000000e+03 1.644717597961425781e+01 9.473419189453125000e+00 1.281289769394788891e-05 4.153704867349006236e-05 1.630498445592820644e-05 1.051179515343392268e-05
1.130000000000000000e+03 1.670415687561035156e+01 9.164384841918945312e+00 -1.832592533901333809e-05 -2.662843314737983746e-07 -5.577663159783696756e-06 -1.343942312814760953e-05
1.131000000000000000e+03 1.469163703918457031e+01 1.310262393951416016e+01 -1.135880665970034897e-05 1.931832666741684079e-04 5.454733764054253697e-05 2.029995084740221500e-05
1.132000000000000000e+03 1.486991500854492188e+01 1.375425338745117188e+01 5.355639223125763237e-05 2.923196589108556509e-04 1.037628171616233885e-04 -2.175242480007000268e-05
1.133000000000000000e+03 1.791823577880859375e+01 2.159866714477539062e+01 -9.935437701642513275e-03 -4.445674130693078041e-04 -3.114001592621207237e-03 -1.780234742909669876e-03
1.134000000000000000e+03 1.517351341247558594e+01 1.260658168792724609e+01 -2.918663813034072518e-05 1.580601965542882681e-04 3.866206679958850145e-05 -2.985495120810810477e-05
1.135000000000000000e+03 2.072127151489257812e+01 2.214705848693847656e+01 -2.264656871557235718e-02 -4.615449579432606697e-04 -6.932434160262346268e-03 -1.981755485758185387e-03
1.136000000000000000e+03 1.958749389648437500e+01 6.902109622955322266e+00 -1.239346966031007469e-05 -9.011739166453480721e-06 -6.421562829928006977e-06 -8.226594218285754323e-06
1.137000000000000000e+03 1.733086776733398438e+01 9.152606964111328125e+00 -1.773905569280032068e-05 -5.352369498723419383e-06 -6.927427421032916754e-06 -1.433186298527289182e-05
1.138000000000000000e+03 1.816881370544433594e+01 8.293483734130859375e+00 1.523760420241160318e-05 1.173541659227339551e-05 8.091906238405499607e-06 1.474540385970612988e-05
1.139000000000000000e+03 1.749447250366210938e+01 2.151389884948730469e+01 -9.013798087835311890e-03 -4.769826773554086685e-04 -2.847234020009636879e-03 -1.755543402396142483e-03
1.140000000000000000e+03 1.631790542602539062e+01 1.040906429290771484e+01 -2.767181831586640328e-05 1.200037331727799028e-05 -4.701433681475464255e-06 -3.227021443308331072e-05
1.141000000000000000e+03 1.930200195312500000e+01 7.182023048400878906e+00 1.074400097422767431e-05 7.036837814666796476e-06 5.334251454769400880e-06 1.065154810930835083e-05
1.142000000000000000e+03 1.918421173095703125e+01 6.552212715148925781e+00 1.056821929523721337e-05 7.007973636063979939e-06 5.272857833915622905e-06 9.010374924400821328e-06
1.143000000000000000e+03 2.304228019714355469e+01 3.028084516525268555e+00 1.969013965208432637e-06 6.949570433789631352e-06 2.675575387911521830e-06 6.137577656772918999e-06
1.144000000000000000e+03 1.558419895172119141e+01 1.043057060241699219e+01 -3.866440601996146142e-05 3.857214687741361558e-05 -2.767828100047609041e-08 -2.348821180930826813e-05
1.145000000000000000e+03 2.228012847900390625e+01 4.003438949584960938e+00 2.862689598259748891e-06 6.559351277246605605e-06 2.826612217177171260e-06 3.690052835736423731e-06
1.146000000000000000e+03 2.181405448913574219e+01 3.206591844558715820e+00 1.104984903577133082e-06 -5.246508408163208514e-06 -1.242456960426352452e-06 -9.037615313900460023e-07
1.147000000000000000e+03 2.297395896911621094e+01 3.551290988922119141e+00 3.507464271024218760e-06 4.943616204400314018e-06 2.535324028940522112e-06 -9.542236512061208487e-07
1.148000000000000000e+03 2.320803260803222656e+01 3.809832096099853516e+00 -8.311985766340512782e-06 -1.435396711713110562e-06 -2.924214641097933054e-06 -1.126278220908716321e-06
1.149000000000000000e+03 1.549448680877685547e+01 2.077030754089355469e+01 -3.180266357958316803e-03 3.501149767544120550e-04 -8.490454056300222874e-04 -8.883594418875873089e-04
1.150000000000000000e+03 2.177197456359863281e+01 5.098531723022460938e+00 5.879819582332856953e-06 8.062242159212473780e-06 4.182618340564658865e-06 6.790542101953178644e-06
1.151000000000000000e+03 1.427484226226806641e+01 1.817952346801757812e+01 1.697680854704231024e-04 6.537394947372376919e-04 2.470522595103830099e-04 1.354587875539436936e-04
1.152000000000000000e+03 1.426326942443847656e+01 1.700523185729980469e+01 -9.821934509091079235e-05 6.123062921687960625e-04 1.542260870337486267e-04 1.162404660135507584e-04
1.153000000000000000e+03 1.511606884002685547e+01 1.300846195220947266e+01 4.478991104406304657e-05 1.898522459669038653e-04 7.039264164632186294e-05 -1.930032703967299312e-05
1.154000000000000000e+03 1.984825325012207031e+01 2.258652687072753906e+01 -1.773981936275959015e-02 -1.147463190136477351e-04 -5.356369540095329285e-03 5.897965165786445141e-04
1.155000000000000000e+03 1.951609992980957031e+01 2.195439529418945312e+01 -1.581526175141334534e-02 -3.528802481014281511e-04 -4.850442521274089813e-03 -1.676760381087660789e-03
1.156000000000000000e+03 2.174379348754882812e+01 4.546205997467041016e+00 3.972957074438454583e-06 3.956185537390410900e-06 2.378742692599189468e-06 6.611034677916904911e-06
1.157000000000000000e+03 2.110454177856445312e+01 5.537322521209716797e+00 4.424552116688573733e-06 9.537681762594729662e-06 4.188670118310255930e-06 7.717902917647734284e-06
1.158000000000000000e+03 1.817466354370117188e+01 2.225621986389160156e+01 -1.173078734427690506e-02 -1.567607541801407933e-04 -3.566264407709240913e-03 -1.707908959360793233e-04
1.159000000000000000e+03 1.845575332641601562e+01 8.016859054565429688e+00 -1.597089794813655317e-05 -1.241447444044752046e-05 -8.515611625625751913e-06 -1.204686395794851705e-05
1.160000000000000000e+03 1.473636913299560547e+01 1.738895225524902344e+01 -1.264771999558433890e-04 9.122170740738511086e-04 2.357219636905938387e-04 4.644583532353863120e-05
1.161000000000000000e+03 1.430319499969482422e+01 1.778586959838867188e+01 -1.311672531301155686e-04 7.109227008186280727e-04 1.739266444928944111e-04 1.064150492311455309e-04
1.162000000000000000e+03 1.902147483825683594e+01 7.461541652679443359e+00 -1.326178698946023360e-05 -1.073382463800953701e-05 -7.198683306341990829e-06 -8.978960977401584387e-06
1.163000000000000000e+03 2.077251815795898438e+01 5.796370983123779297e+00 -7.919903509900905192e-06 -1.030453859129920602e-05 -5.467332812258973718e-06 -8.494154826621524990e-06
1.164000000000000000e+03 1.472705841064453125e+01 1.699198913574218750e+01 1.084926407202146947e-04 8.292539278045296669e-04 2.813239698298275471e-04 5.385297845350578427e-05
1.165000000000000000e+03 1.436854839324951172e+01 1.281723403930664062e+01 -3.901947275153361261e-05 2.000857202801853418e-04 4.831987462239339948e-05 9.705384400149341673e-06
1.166000000000000000e+03 2.826136779785156250e+01 2.141370582580566406e+01 -3.960876539349555969e-02 -1.866127178072929382e-02 -1.748101040720939636e-02 1.971432566642761230e-02
1.167000000000000000e+03 2.831847763061523438e+01 2.074155044555664062e+01 -5.699427053332328796e-02 -1.967366039752960205e-02 -2.300037816166877747e-02 2.809357456862926483e-02
1.168000000000000000e+03 2.313134956359863281e+01 2.208395576477050781e+01 -3.273906186223030090e-02 -1.201605889946222305e-03 -1.018219999969005585e-02 6.489904131740331650e-03
1.169000000000000000e+03 2.316278839111328125e+01 2.263143157958984375e+01 -3.054630570113658905e-02 -2.532551996409893036e-03 -9.923657402396202087e-03 6.585530936717987061e-03
1.170000000000000000e+03 3.286651992797851562e+01 2.080453395843505859e+00 1.766816421877592802e-04 2.215035638073459268e-04 1.194555661641061306e-04 -1.555355411255732179e-04
1.171000000000000000e+03 3.030478477478027344e+01 1.915694427490234375e+01 -1.891521178185939789e-02 -2.434297278523445129e-02 -1.297745574265718460e-02 2.038886211812496185e-02
1.172000000000000000e+03 3.355953979492187500e+01 4.563689231872558594e+00 2.461034746374934912e-04 5.475005673361010849e-05 9.025605686474591494e-05 3.641429066192358732e-05
1.173000000000000000e+03 3.460394287109375000e+01 6.039575099945068359e+00 4.548684519249945879e-04 -9.515929377812426537e-06 1.336057612206786871e-04 -1.819664030335843563e-04
1.174000000000000000e+03 3.368980789184570312e+01 7.460299491882324219e+00 3.063475742237642407e-05 2.138515264960005879e-04 7.334588735830038786e-05 -2.570200012996792793e-04
1.175000000000000000e+03 3.333877944946289062e+01 6.975090503692626953e+00 -5.822092862217687070e-05 4.034216399304568768e-04 1.035602181218564510e-04 -1.353091793134808540e-04
1.176000000000000000e+03 3.078413963317871094e+01 1.847302627563476562e+01 -1.419916655868291855e-02 -2.067885361611843109e-02 -1.046340633183717728e-02 1.625222153961658478e-02
1.177000000000000000e+03 3.100283813476562500e+01 1.673698234558105469e+01 -3.863488091155886650e-03 -1.737920753657817841e-02 -6.372808944433927536e-03 7.708599325269460678e-03
1.178000000000000000e+03 3.284085083007812500e+01 1.355337333679199219e+01 -2.080802805721759796e-03 -2.484630094841122627e-03 -1.369629870168864727e-03 2.595142228528857231e-03
1.179000000000000000e+03 3.354285812377929688e+01 4.967693805694580078e+00 -2.187209465773776174e-04 7.961761002661660314e-05 -4.173100023763254285e-05 -7.065578392939642072e-05
1.180000000000000000e+03 3.324829101562500000e+01 8.495832443237304688e+00 1.108045617002062500e-04 7.151829195208847523e-04 2.477962407283484936e-04 -1.591062900843098760e-04
1.181000000000000000e+03 3.355368423461914062e+01 7.866361618041992188e+00 1.445795351173728704e-04 6.907422211952507496e-04 2.505965239834040403e-04 -2.282099158037453890e-04
1.182000000000000000e+03 2.753716850280761719e+01 2.106297683715820312e+01 -5.149091407656669617e-02 -9.070388972759246826e-03 -1.816838979721069336e-02 1.878746598958969116e-02
1.183000000000000000e+03 3.399224090576171875e+01 5.807593345642089844e+00 1.963868999155238271e-04 1.069835707312449813e-04 9.101114119403064251e-05 1.543107828183565289e-05
1.184000000000000000e+03 3.343822479248046875e+01 6.191602706909179688e+00 -6.349977047648280859e-05 2.269781689392402768e-04 4.904351953882724047e-05 -1.146430076914839447e-05
1.185000000000000000e+03 3.373960494995117188e+01 7.063854694366455078e+00 5.817618875880725682e-05 2.358063065912574530e-04 8.819474896881729364e-05 -6.886572373332455754e-05
1.186000000000000000e+03 2.995393371582031250e+01 1.892704010009765625e+01 -1.438522525131702423e-02 -3.025577589869499207e-02 -1.339230034500360489e-02 2.039287984371185303e-02
1.187000000000000000e+03 3.096278762817382812e+01 1.911038398742675781e+01 -1.980535872280597687e-02 -1.637881994247436523e-02 -1.085525378584861755e-02 1.717224903404712677e-02
1.188000000000000000e+03 2.524785995483398438e+01 2.233769798278808594e+01 -3.450916334986686707e-02 -4.984227009117603302e-03 -1.184801757335662842e-02 1.135843060910701752e-02
1.189000000000000000e+03 2.613199043273925781e+01 2.213209533691406250e+01 -3.658313676714897156e-02 -6.446542683988809586e-03 -1.290890388190746307e-02 1.327333971858024597e-02
1.190000000000000000e+03 2.353053283691406250e+01 2.202828025817871094e+01 -3.393579646944999695e-02 -1.541943172924220562e-03 -1.064332202076911926e-02 6.774594075977802277e-03
1.191000000000000000e+03 2.673980140686035156e+01 2.130794334411621094e+01 -4.439170658588409424e-02 -5.733928177505731583e-03 -1.503769028931856155e-02 1.491447072476148605e-02
1.192000000000000000e+03 3.055775451660156250e+01 1.882598876953125000e+01 -1.604624278843402863e-02 -2.273027785122394562e-02 -1.163295656442642212e-02 1.801877096295356750e-02
1.193000000000000000e+03 2.473632812500000000e+01 2.180282402038574219e+01 -3.860865160822868347e-02 -2.775248372927308083e-03 -1.241516973823308945e-02 9.366288781166076660e-03
1.194000000000000000e+03 3.273312759399414062e+01 1.096202659606933594e+01 1.715884864097461104e-04 7.293654489330947399e-04 2.702861675061285496e-04 4.586220893543213606e-05
1.195000000000000000e+03 3.336696624755859375e+01 6.582709312438964844e+00 1.337998546659946442e-04 2.776093606371432543e-04 1.234227675013244152e-04 -5.529507689061574638e-05
1.196000000000000000e+03 3.157265853881835938e+01 1.525635528564453125e+01 -1.974846469238400459e-03 -8.610359393060207367e-03 -3.175561781972646713e-03 3.749644616618752480e-03
1.197000000000000000e+03 3.204034805297851562e+01 1.417092895507812500e+01 -1.095633720979094505e-03 -4.503177944570779800e-03 -1.679643522948026657e-03 2.791734877973794937e-03
1.198000000000000000e+03 3.112008666992187500e+01 1.636065101623535156e+01 -2.663332503288984299e-03 -1.431375276297330856e-02 -5.093125626444816589e-03 6.231069564819335938e-03
1.199000000000000000e+03 3.126210212707519531e+01 1.599283599853515625e+01 -2.215867396444082260e-03 -1.180455368012189865e-02 -4.206126555800437927e-03 5.046028643846511841e-03
1.200000000000000000e+03 3.291278457641601562e+01 1.183677196502685547e+01 -7.371943211182951927e-04 -2.283046342199668288e-04 -2.896496735047549009e-04 6.299167289398610592e-04
1.201000000000000000e+03 3.439252090454101562e+01 9.610760688781738281e+00 -4.158548545092344284e-04 -7.753675163257867098e-05 -1.480174832977354527e-04 8.367678674403578043e-06
1.202000000000000000e+03 3.380384826660156250e+01 9.331766128540039062e+00 -3.816967364400625229e-04 1.054404638125561178e-04 -8.287688251584768295e-05 1.524092367617413402e-04
1.203000000000000000e+03 3.377647399902343750e+01 8.920466423034667969e+00 1.927546691149473190e-04 4.076705372426658869e-04 1.801275648176670074e-04 -2.212667895946651697e-04
1.204000000000000000e+03 3.316599273681640625e+01 9.352652549743652344e+00 2.352879528189077973e-04 8.236086578108370304e-04 3.176689788233488798e-04 -1.976354833459481597e-04
1.205000000000000000e+03 3.253159332275390625e+01 1.172200202941894531e+01 3.189363342244178057e-04 2.078135294141247869e-04 1.580249663675203919e-04 1.795188436517491937e-04
1.206000000000000000e+03 3.266970443725585938e+01 1.439412689208984375e+01 -3.240707097575068474e-03 -4.146252758800983429e-03 -2.216087887063622475e-03 4.300162661820650101e-03
1.207000000000000000e+03 3.262574386596679688e+01 1.134377002716064453e+01 -3.200370410922914743e-04 4.902157816104590893e-04 5.105362652102485299e-05 -2.652810144354589283e-05
1.208000000000000000e+03 3.141769599914550781e+01 1.562681961059570312e+01 -1.795397023670375347e-03 -9.796936064958572388e-03 -3.477699821814894676e-03 4.603308625519275665e-03
1.209000000000000000e+03 3.320132446289062500e+01 -8.317801475524902344e+00 3.671459853649139404e-01 -1.625002324581146240e-01 6.139372661709785461e-02 1.785161197185516357e-01
1.210000000000000000e+03 3.086411285400390625e+01 -7.276844501495361328e+00 8.802204132080078125e-01 -2.019014582037925720e-02 2.580090761184692383e-01 3.714691996574401855e-01
1.211000000000000000e+03 3.195193481445312500e+01 -7.252493381500244141e+00 6.063178181648254395e-01 -1.477889716625213623e-01 1.375586539506912231e-01 3.557281196117401123e-01
1.212000000000000000e+03 3.140898323059082031e+01 -6.888171195983886719e+00 6.502431035041809082e-01 -7.661666721105575562e-02 1.720879375934600830e-01 4.450498819351196289e-01
1.213000000000000000e+03 7.717189025878906250e+01 -1.459788036346435547e+01 -2.022295631468296051e-02 -7.487930823117494583e-03 -8.313266560435295105e-03 -1.157464832067489624e-02
1.214000000000000000e+03 7.753646850585937500e+01 -1.385424995422363281e+01 -2.584253624081611633e-02 -1.547331083565950394e-02 -1.239475421607494354e-02 -1.627081073820590973e-02
1.215000000000000000e+03 7.784031677246093750e+01 -1.232907962799072266e+01 -2.012359164655208588e-02 -3.406180813908576965e-02 -1.625561900436878204e-02 -3.558707237243652344e-02
1.216000000000000000e+03 7.774835205078125000e+01 -1.454736804962158203e+01 -1.083802338689565659e-02 -7.387719117105007172e-03 -5.467722658067941666e-03 -7.291568908840417862e-03
1.217000000000000000e+03 7.756668090820312500e+01 -1.947252655029296875e+01 3.335735527798533440e-05 1.205440094054210931e-05 1.362352668365929276e-05 -1.298837014473974705e-05
1.218000000000000000e+03 7.835276031494140625e+01 -1.848313903808593750e+01 1.653575054660905153e-05 9.049430218510678969e-07 5.232207968219881877e-06 7.141673904698109254e-06
1.219000000000000000e+03 7.948495483398437500e+01 -2.137124443054199219e+01 2.766472789517138153e-05 6.499566097772913054e-06 1.024928769766120240e-05 1.984648179131909274e-07
1.220000000000000000e+03 2.249113464355468750e+01 2.868632316589355469e+00 2.069180709440843202e-06 -4.707611878984607756e-06 -7.915292599136591889e-07 -3.504686674205004238e-06
1.221000000000000000e+03 2.196616172790527344e+01 4.255810260772705078e+00 -3.044473714908235706e-06 -8.288819117296952754e-06 -3.399987917873659171e-06 -3.778943209908902645e-06
1.222000000000000000e+03 4.031364059448242188e+01 -1.474289894104003906e+00 6.129586696624755859e-02 3.194888122379779816e-03 1.934722624719142914e-02 -2.149728685617446899e-02
1.223000000000000000e+03 4.000038528442382812e+01 -6.562944054603576660e-01 2.706628851592540741e-02 5.985040916129946709e-04 8.299438282847404480e-03 -7.397675421088933945e-03
1.224000000000000000e+03 3.865163421630859375e+01 -7.487474679946899414e-01 1.820670068264007568e-02 -1.402558572590351105e-02 1.254334929399192333e-03 1.809282042086124420e-02
1.225000000000000000e+03 4.100454330444335938e+01 -2.255126237869262695e+00 1.950587332248687744e-01 2.602449990808963776e-02 6.632497161626815796e-02 -6.988757103681564331e-02
1.226000000000000000e+03 3.905196380615234375e+01 -1.599673271179199219e+00 6.530185788869857788e-02 -3.379822522401809692e-02 9.451090358197689056e-03 1.849564351141452789e-02
1.227000000000000000e+03 4.572467422485351562e+01 -1.358991432189941406e+01 -7.574009895324707031e-01 1.799506396055221558e-01 -1.732351034879684448e-01 3.270069062709808350e-01
1.228000000000000000e+03 7.048888397216796875e+01 -1.395487976074218750e+01 -1.994257122278213501e-01 3.595757111907005310e-02 -4.904044046998023987e-02 -7.269461639225482941e-03
1.229000000000000000e+03 6.793507385253906250e+01 -1.357191562652587891e+01 -3.324091136455535889e-01 3.491464629769325256e-02 -8.924834430217742920e-02 4.869334772229194641e-02
1.230000000000000000e+03 3.673640441894531250e+01 -1.549912929534912109e+01 -3.573670110199600458e-04 -9.589611948968013166e-08 -1.072388695320114493e-04 -2.308204420842230320e-05
1.231000000000000000e+03 3.747378921508789062e+01 -1.475431919097900391e+01 -1.338372385362163186e-04 -4.719197022495791316e-06 -4.156693103141151369e-05 -6.855079845990985632e-05
1.232000000000000000e+03 3.807921981811523438e+01 -1.499977016448974609e+01 3.119781031273305416e-04 -1.607821468496695161e-04 4.535878906608559191e-05 3.228051064070314169e-04
1.233000000000000000e+03 3.893218612670898438e+01 -1.461828422546386719e+01 3.343251592013984919e-04 -1.957087370101362467e-04 4.158492811257019639e-05 1.535001501906663179e-04
1.234000000000000000e+03 3.837465286254882812e+01 -1.599461936950683594e+01 2.502232964616268873e-04 -3.073546686209738255e-04 -1.713941674097441137e-05 2.152564993593841791e-04
1.235000000000000000e+03 2.050203132629394531e+01 2.982948303222656250e+00 -1.180625531560508534e-06 -4.795409040525555611e-06 -1.792810394363186788e-06 -6.794718387936882209e-07
1.236000000000000000e+03 1.776670074462890625e+01 2.657576322555541992e+00 -1.884296807475038804e-06 -3.685078809212427586e-06 -1.670812707743607461e-06 3.534208588007459184e-07
1.237000000000000000e+03 1.913752555847167969e+01 2.226881980895996094e+00 1.971483015950070694e-06 5.527846951736137271e-06 2.249798853881657124e-06 -1.528778312831491348e-07
1.238000000000000000e+03 2.117576599121093750e+01 3.111219167709350586e+00 7.668130024285346735e-07 3.845646915578981861e-06 1.383737981086596847e-06 3.944716695514216553e-07
1.239000000000000000e+03 1.977279090881347656e+01 5.982410430908203125e+00 1.068777146429056302e-05 7.766087037452962250e-06 5.536157459573587403e-06 7.365818419202696532e-06
1.240000000000000000e+03 7.148522949218750000e+01 -1.967937469482421875e+01 2.495206354069523513e-05 -1.270788561669178307e-05 3.673253104352625087e-06 -1.826052994147175923e-06
1.241000000000000000e+03 6.995063781738281250e+01 -1.841557884216308594e+01 1.837695708672981709e-05 1.116773546527838334e-05 8.863407856551930308e-06 1.451061052648583427e-05
1.242000000000000000e+03 7.095638275146484375e+01 -1.917379570007324219e+01 2.362642771913670003e-05 8.752811118029057980e-05 3.334636130603030324e-05 2.517403345336788334e-06
1.243000000000000000e+03 7.036725616455078125e+01 -1.973846244812011719e+01 5.948353646090254188e-06 -9.325656719738617539e-05 -2.619246515678241849e-05 9.510696145298425108e-06
1.244000000000000000e+03 1.772281074523925781e+01 2.076632738113403320e+00 1.957674840014078654e-06 6.036966169631341472e-06 2.398392325630993582e-06 1.419390684986865381e-07
1.245000000000000000e+03 1.563568401336669922e+01 2.536673307418823242e+00 4.813677151105366647e-06 6.817643679823959246e-06 3.489396249278797768e-06 2.370948323004995473e-06
1.246000000000000000e+03 1.846641159057617188e+01 2.710146903991699219e+00 2.543533128118724562e-06 5.042693373980000615e-06 2.275867927892250009e-06 -3.019423218120209640e-07
1.247000000000000000e+03 1.635100746154785156e+01 2.571646213531494141e+00 -2.200720018663560040e-06 -3.067352736252360046e-06 -1.580421894686878659e-06 1.450835611649381462e-06
1.248000000000000000e+03 3.607567214965820312e+01 3.562394380569458008e+00 -4.324952897150069475e-05 -3.460912848822772503e-04 -1.168022427009418607e-04 2.622500469442456961e-04
1.249000000000000000e+03 3.572166824340820312e+01 2.819138050079345703e+00 1.446663227397948503e-04 -2.815331390593200922e-04 -4.106004416826181114e-05 1.595026405993849039e-04
1.250000000000000000e+03 3.460883331298828125e+01 2.149557828903198242e+00 -3.458478022366762161e-04 1.656290842220187187e-04 -5.406561103882268071e-05 -1.370556274196133018e-04
1.251000000000000000e+03 4.039401245117187500e+01 -1.647956275939941406e+01 1.394548744428902864e-04 -3.062631876673549414e-04 -5.004249760531820357e-05 6.661540282948408276e-06
1.252000000000000000e+03 4.157966995239257812e+01 -1.728595161437988281e+01 -1.074684678314952180e-05 -2.329791750526055694e-04 -7.311780791496858001e-05 -2.620334271341562271e-04
1.253000000000000000e+03 4.012175750732421875e+01 -1.539425849914550781e+01 3.221837396267801523e-04 -2.197602734668180346e-04 3.072704566875472665e-05 -1.763071281857264694e-06
1.254000000000000000e+03 3.952767562866210938e+01 -1.498840904235839844e+01 2.101898862747475505e-04 -1.008623876259662211e-04 3.279824886703863740e-05 -6.835348813183372840e-06
1.255000000000000000e+03 1.354640197753906250e+01 3.107886075973510742e+00 8.754384907661005855e-06 7.345697667915374041e-06 4.830024863622384146e-06 5.844194674864411354e-06
1.256000000000000000e+03 1.483893299102783203e+01 1.891982674598693848e+00 4.430194621818372980e-06 7.095919499988667667e-06 3.457834282016847283e-06 2.832546442732564174e-06
1.257000000000000000e+03 1.198859596252441406e+01 2.484194755554199219e+00 4.654573785956017673e-06 -5.863391834282083437e-06 -3.626454088134778431e-07 6.739963282598182559e-06
1.258000000000000000e+03 1.491372299194335938e+01 2.510427713394165039e+00 -6.954116429369605612e-07 -3.231775281165027991e-06 -1.178156139758357313e-06 3.226026592528796755e-06
1.259000000000000000e+03 7.487185668945312500e+01 -1.893548202514648438e+01 3.012118031620047987e-05 5.992027581669390202e-06 1.083396273315884173e-05 -3.911607109330361709e-06
1.260000000000000000e+03 7.352501678466796875e+01 -1.893881416320800781e+01 3.532740811351686716e-05 2.156996742996852845e-05 1.706921102595515549e-05 -1.162144781119422987e-05
1.261000000000000000e+03 7.419770050048828125e+01 -1.892318916320800781e+01 -2.623174077598378062e-05 -1.406624141964130104e-05 -1.208939465868752450e-05 -1.283485289604868740e-06
1.262000000000000000e+03 4.244032287597656250e+01 -1.851432418823242188e+01 -6.752909976057708263e-04 6.030236545484513044e-05 -1.844965881900861859e-04 1.883630902739241719e-04
1.263000000000000000e+03 4.191008377075195312e+01 -1.663040351867675781e+01 1.710039068711921573e-04 5.942194093222497031e-06 5.308382969815284014e-05 4.303867899579927325e-05
1.264000000000000000e+03 4.216985702514648438e+01 -1.763623809814453125e+01 -2.116417454089969397e-04 1.504032388766063377e-05 -5.898042581975460052e-05 2.073865180136635900e-04
1.265000000000000000e+03 4.098691558837890625e+01 -1.689991188049316406e+01 1.045818644342944026e-04 -2.118255360983312130e-04 -3.217310222680680454e-05 7.830359390936791897e-05
1.266000000000000000e+03 1.189816379547119141e+01 1.834397435188293457e+00 1.025656638375949115e-05 6.185561232996406034e-06 4.932638603349914774e-06 3.885118076141225174e-06
1.267000000000000000e+03 1.363957309722900391e+01 3.720230579376220703e+00 8.185295996554486919e-07 -1.720620161904662382e-06 -2.706271686747641070e-07 7.699203706579282880e-06
1.268000000000000000e+03 1.272544574737548828e+01 2.480354070663452148e+00 9.629237865738105029e-06 6.529788606712827459e-06 4.847707714361604303e-06 4.888646344625158235e-06
1.269000000000000000e+03 1.119047927856445312e+01 -3.297494888305664062e+00 -7.228759527206420898e-01 3.984347730875015259e-02 -2.049097418785095215e-01 -4.001867175102233887e-01
1.270000000000000000e+03 1.117151069641113281e+01 -2.589094161987304688e+00 -8.654208779335021973e-01 1.956054568290710449e-02 -2.537581026554107666e-01 -3.513248860836029053e-01
1.271000000000000000e+03 1.271690559387207031e+01 -2.623502969741821289e+00 -9.659005403518676758e-01 2.909197472035884857e-02 -2.810425758361816406e-01 -3.081231713294982910e-01
1.272000000000000000e+03 9.625535011291503906e+00 -1.878301382064819336e+00 -8.409107327461242676e-01 -6.582803325727581978e-04 -2.524707019329071045e-01 -2.958427369594573975e-01
1.273000000000000000e+03 4.645560073852539062e+01 -1.396822834014892578e+01 -8.276799917221069336e-01 2.220254242420196533e-01 -1.816963702440261841e-01 2.979407012462615967e-01
1.274000000000000000e+03 4.504771423339843750e+01 -1.320093250274658203e+01 -6.908128261566162109e-01 1.107007712125778198e-01 -1.740336120128631592e-01 3.474367558956146240e-01
1.275000000000000000e+03 4.439763259887695312e+01 -1.280544853210449219e+01 -6.266760230064392090e-01 4.008734971284866333e-02 -1.759766042232513428e-01 3.588841855525970459e-01
1.276000000000000000e+03 7.278872680664062500e+01 -1.442748355865478516e+01 -1.060423105955123901e-01 1.028066873550415039e-02 -2.872849255800247192e-02 -2.271847240626811981e-02
1.277000000000000000e+03 7.506999206542968750e+01 -1.365303993225097656e+01 -7.391131669282913208e-02 -9.878514334559440613e-03 -2.513694949448108673e-02 -4.711930826306343079e-02
1.278000000000000000e+03 7.585903167724609375e+01 -1.357265663146972656e+01 -5.271871015429496765e-02 -1.650101318955421448e-02 -2.076591737568378448e-02 -4.204190894961357117e-02
1.279000000000000000e+03 7.666614532470703125e+01 -1.327785491943359375e+01 -4.290945455431938171e-02 -2.255926840007305145e-02 -1.964061707258224487e-02 -3.612230345606803894e-02
1.280000000000000000e+03 1.436909675598144531e+01 -3.463329792022705078e+00 -8.128656744956970215e-01 8.946657180786132812e-02 -2.170197367668151855e-01 -2.474402040243148804e-01
1.281000000000000000e+03 1.350403308868408203e+01 -2.645447254180908203e+00 -1.009103894233703613e+00 3.406046330928802490e-02 -2.925130426883697510e-01 -2.706174850463867188e-01
1.282000000000000000e+03 1.428300857543945312e+01 -2.623560667037963867e+00 -1.042387962341308594e+00 2.578678913414478302e-02 -3.049803376197814941e-01 -2.359216660261154175e-01
1.283000000000000000e+03 1.582789516448974609e+01 -2.479760169982910156e+00 -1.099485754966735840e+00 2.610945515334606171e-02 -3.220128715038299561e-01 -1.520680487155914307e-01
1.284000000000000000e+03 6.754281520843505859e+00 2.548842191696166992e+00 1.929032805492170155e-05 2.936776354545145296e-06 6.668131391052156687e-06 -6.546003078256035224e-06
1.285000000000000000e+03 7.369522094726562500e+00 1.841978073120117188e+00 1.686430368863511831e-05 4.637704478227533400e-06 6.450602541008265689e-06 -3.462478161964099854e-06
1.286000000000000000e+03 5.261237621307373047e+00 2.650949954986572266e+00 1.624278957024216652e-05 2.951941496576182544e-06 5.758419320045504719e-06 -9.573684110364411026e-06
1.287000000000000000e+03 9.006876945495605469e+00 2.507504701614379883e+00 8.452698239125311375e-06 -9.099208909901790321e-06 -1.939532836559010320e-07 3.579070380510529503e-06
1.288000000000000000e+03 3.541009664535522461e+00 1.986672997474670410e+00 5.931703071837546304e-06 -6.912696790095651522e-06 -2.942980188436195021e-07 -2.673466042324434966e-06
1.289000000000000000e+03 3.327364206314086914e+00 4.078862190246582031e+00 2.344964741496369243e-06 -1.309079152633785270e-06 3.107656993961427361e-07 -1.759178667271044105e-05
1.290000000000000000e+03 6.009587287902832031e+00 2.585123777389526367e+00 5.717916792491450906e-06 -7.564634870504960418e-06 -5.540154575101041701e-07 -1.806787508940033149e-06
1.291000000000000000e+03 1.351894497871398926e+00 3.537157535552978516e+00 -9.837973266257904470e-06 5.749342903982324060e-07 -2.778911721179611050e-06 4.236010681779589504e-06
1.292000000000000000e+03 1.050617504119873047e+01 2.496876001358032227e+00 6.959095117053948343e-06 -7.560460744571173564e-06 -1.804096854129966232e-07 6.159231816127430648e-06
1.293000000000000000e+03 9.758702278137207031e+00 2.501524209976196289e+00 1.704991700535174459e-05 3.224179408789495938e-06 6.082228992454474792e-06 1.979474973268224858e-06
1.294000000000000000e+03 1.041116905212402344e+01 -2.601201772689819336e+00 -7.964397668838500977e-01 1.287598907947540283e-02 -2.350691407918930054e-01 -3.651821315288543701e-01
1.295000000000000000e+03 6.528675079345703125e+00 -1.923734784126281738e+00 -4.644946455955505371e-01 -2.555324323475360870e-02 -1.470143646001815796e-01 -2.728695273399353027e-01
1.296000000000000000e+03 5.754927158355712891e+00 -1.913284301757812500e+00 -3.824523091316223145e-01 -2.872320078313350677e-02 -1.233526542782783508e-01 -2.532835006713867188e-01
1.297000000000000000e+03 4.560987949371337891e+00 -4.260159492492675781e+00 -1.766401082277297974e-01 -1.650391072034835815e-01 -1.025037616491317749e-01 -3.914220035076141357e-01
1.298000000000000000e+03 4.179794788360595703e+00 -1.898967862129211426e+00 -2.275309115648269653e-01 -4.226288571953773499e-02 -8.093813806772232056e-02 -2.005056142807006836e-01
1.299000000000000000e+03 3.727056741714477539e+00 -3.970509767532348633e+00 -1.377917528152465820e-01 -1.714126169681549072e-01 -9.276130795478820801e-02 -3.195261955261230469e-01
1.300000000000000000e+03 7.323729991912841797e+00 -3.660037517547607422e+00 -3.972927033901214600e-01 -4.695868119597434998e-02 -1.332754194736480713e-01 -4.555812478065490723e-01
1.301000000000000000e+03 8.095403671264648438e+00 -2.722663879394531250e+00 -5.598272681236267090e-01 -1.688260212540626526e-02 -1.730129569768905640e-01 -3.861464560031890869e-01
1.302000000000000000e+03 6.499184131622314453e+00 -2.786846637725830078e+00 -4.072588682174682617e-01 -4.407496750354766846e-02 -1.354001462459564209e-01 -3.618707060813903809e-01
1.303000000000000000e+03 4.287979006767272949e-01 -2.192363500595092773e+00 -8.594456128776073456e-03 -2.865627780556678772e-02 -1.117521990090608597e-02 -1.879427023231983185e-02
1.304000000000000000e+03 6.421049833297729492e-01 -5.069525241851806641e+00 -3.144265385344624519e-03 -3.023275136947631836e-01 -9.164153784513473511e-02 -8.483339101076126099e-02
1.305000000000000000e+03 4.374842834472656250e+01 -1.240442371368408203e+01 -5.730544924736022949e-01 -3.987138718366622925e-02 -1.838777661323547363e-01 3.697870671749114990e-01
1.306000000000000000e+03 4.245783615112304688e+01 -1.156721305847167969e+01 -4.397856891155242920e-01 -1.806205064058303833e-01 -1.861218661069869995e-01 3.805608749389648438e-01
1.307000000000000000e+03 4.182515335083007812e+01 -1.113704204559326172e+01 -3.717901706695556641e-01 -2.229318171739578247e-01 -1.784165948629379272e-01 3.845283687114715576e-01
1.308000000000000000e+03 3.282971954345703125e+01 -2.350467205047607422e+00 -4.000381529331207275e-01 -8.174484223127365112e-02 -1.445349007844924927e-01 3.398607969284057617e-01
1.309000000000000000e+03 3.198303794860839844e+01 -1.900473713874816895e+00 -6.248710751533508301e-01 5.448893643915653229e-03 -1.858266443014144897e-01 2.632171511650085449e-01
1.310000000000000000e+03 3.526842117309570312e+01 -2.570948123931884766e+00 -1.340949386358261108e-01 -4.909253865480422974e-02 -5.495624616742134094e-02 2.940521538257598877e-01
1.311000000000000000e+03 3.295048522949218750e+01 -2.953532934188842773e+00 -2.777622640132904053e-01 -7.740855962038040161e-02 -1.065512448549270630e-01 4.249652326107025146e-01
1.312000000000000000e+03 3.583723831176757812e+01 -1.293465733528137207e+00 -1.459587514400482178e-01 4.151525441557168961e-03 -4.254216700792312622e-02 1.214248463511466980e-01
1.313000000000000000e+03 3.569980621337890625e+01 -2.214410305023193359e+00 -1.215258166193962097e-01 -3.064703010022640228e-02 -4.565185680985450745e-02 2.293774783611297607e-01
1.314000000000000000e+03 1.818754196166992188e+01 -2.376641750335693359e+00 -1.080551505088806152e+00 3.946758061647415161e-02 -3.123251795768737793e-01 -2.366452477872371674e-02
1.315000000000000000e+03 1.743169593811035156e+01 -3.165808677673339844e+00 -8.674567937850952148e-01 8.082701265811920166e-02 -2.359889298677444458e-01 -3.644653037190437317e-02
1.316000000000000000e+03 1.660676383972167969e+01 -2.429723978042602539e+00 -1.110992074012756348e+00 3.297039121389389038e-02 -3.234065175056457520e-01 -1.093544587492942810e-01
1.317000000000000000e+03 1.739437484741210938e+01 -2.406034946441650391e+00 -1.091859579086303711e+00 3.204471245408058167e-02 -3.179444372653961182e-01 -6.539293378591537476e-02
1.318000000000000000e+03 7.123635101318359375e+01 -1.454301929473876953e+01 -1.362167447805404663e-01 2.585394680500030518e-02 -3.310883790254592896e-02 -3.545932937413454056e-03
1.319000000000000000e+03 7.193518066406250000e+01 -1.378351879119873047e+01 -1.656078100204467773e-01 2.699898555874824524e-02 -4.158264771103858948e-02 -3.067329153418540955e-02
1.320000000000000000e+03 7.119695281982421875e+01 -1.388158035278320312e+01 -1.734896600246429443e-01 2.017614059150218964e-02 -4.599405825138092041e-02 -3.141006454825401306e-02
1.321000000000000000e+03 7.350382232666015625e+01 -1.363611030578613281e+01 -1.164871454238891602e-01 6.759343203157186508e-03 -3.291834145784378052e-02 -4.660326987504959106e-02
1.322000000000000000e+03 2.133951950073242188e+01 -1.712333798408508301e+00 -1.111348748207092285e+00 1.562633365392684937e-01 -2.865256369113922119e-01 1.105260103940963745e-01
1.323000000000000000e+03 2.196397972106933594e+01 -8.820638060569763184e-01 -1.201073408126831055e+00 1.740546375513076782e-01 -3.081056475639343262e-01 1.055997088551521301e-01
1.324000000000000000e+03 2.359984397888183594e+01 -1.069883704185485840e+00 -1.204041838645935059e+00 2.777873873710632324e-01 -2.778763473033905029e-01 1.730605363845825195e-01
1.325000000000000000e+03 1.978833389282226562e+01 -2.123469352722167969e+00 -1.072664737701416016e+00 8.385288715362548828e-02 -2.966435551643371582e-01 5.575288459658622742e-02
1.326000000000000000e+03 2.057576560974121094e+01 -1.933323264122009277e+00 -1.082008957862854004e+00 1.098070219159126282e-01 -2.916605770587921143e-01 8.717717975378036499e-02
1.327000000000000000e+03 4.099064636230468750e+01 -9.614424705505371094e+00 -1.063390076160430908e-01 -2.849081158638000488e-01 -1.173741370439529419e-01 3.492567837238311768e-01
1.328000000000000000e+03 3.991456985473632812e+01 -9.842397689819335938e+00 -1.719440370798110962e-01 -3.242154717445373535e-01 -1.488478481769561768e-01 3.604962825775146484e-01
1.329000000000000000e+03 3.931671524047851562e+01 -9.261772155761718750e+00 -6.041483208537101746e-02 -3.209137916564941406e-01 -1.143985837697982788e-01 3.601792454719543457e-01
1.330000000000000000e+03 3.874414825439453125e+01 -1.002358436584472656e+01 -2.118600159883499146e-01 -3.298729956150054932e-01 -1.625199019908905029e-01 3.656562864780426025e-01
1.331000000000000000e+03 3.710443496704101562e+01 -9.450058937072753906e+00 -8.503568172454833984e-02 -2.768935859203338623e-01 -1.085787788033485413e-01 3.289757072925567627e-01
1.332000000000000000e+03 3.419883728027343750e+01 -7.317254543304443359e+00 2.745465636253356934e-01 -2.272902578115463257e-01 1.417689304798841476e-02 3.519851565361022949e-01
1.333000000000000000e+03 3.721128845214843750e+01 -8.524170875549316406e+00 3.706005960702896118e-02 -2.933232188224792480e-01 -7.687894254922866821e-02 3.510881662368774414e-01
1.334000000000000000e+03 3.484659194946289062e+01 -8.135024070739746094e+00 1.732229590415954590e-01 -2.186945676803588867e-01 -1.364148221909999847e-02 2.950207591056823730e-01
1.335000000000000000e+03 3.409603118896484375e+01 -7.950365543365478516e+00 2.751352787017822266e-01 -2.041019350290298462e-01 2.130999974906444550e-02 2.779226005077362061e-01
1.336000000000000000e+03 3.807257080078125000e+01 -8.582391738891601562e+00 3.301632776856422424e-02 -3.235955834388732910e-01 -8.717378228902816772e-02 3.592889904975891113e-01
1.337000000000000000e+03 3.264312744140625000e+01 -7.509206295013427734e+00 4.888742268085479736e-01 -1.712406277656555176e-01 9.529008716344833374e-02 2.972755432128906250e-01
1.338000000000000000e+03 2.685258102416992188e+01 -3.105424404144287109e+00 -6.652113795280456543e-01 -1.108986735343933105e-01 -2.328330129384994507e-01 2.523551881313323975e-01
1.339000000000000000e+03 3.514491653442382812e+01 -1.528053379058837891e+01 -4.176197398919612169e-04 1.051268263836391270e-04 -9.374787623528391123e-05 7.469587580999359488e-05
1.340000000000000000e+03 6.925669097900390625e+01 -1.902989959716796875e+01 4.074219759786501527e-05 -6.858458800707012415e-05 -8.352715667570009828e-06 -1.497188895882572979e-05
1.341000000000000000e+03 6.863282775878906250e+01 -2.049728012084960938e+01 3.706222560140304267e-05 -2.097472588502569124e-06 1.048942613124381751e-05 -8.180732947948854417e-06
1.342000000000000000e+03 4.528440856933593750e+01 -2.152821540832519531e+01 8.009854354895651340e-04 8.134494419209659100e-04 4.843304632231593132e-04 7.591507164761424065e-04
1.343000000000000000e+03 4.495015335083007812e+01 -2.048292350769042969e+01 -1.147979754023253918e-03 1.440834012100822292e-06 -3.439616994000971317e-04 -3.752644988708198071e-04
1.344000000000000000e+03 4.503052139282226562e+01 -1.907929039001464844e+01 1.034316373988986015e-04 -6.586593372048810124e-05 1.126971255871467292e-05 -1.834657159633934498e-04
1.345000000000000000e+03 3.700341796875000000e+01 3.431698560714721680e+00 2.485208142388728447e-06 -3.151266719214618206e-04 -9.379244147567078471e-05 1.242074795300140977e-04
1.346000000000000000e+03 2.327849006652832031e+01 -2.489838838577270508e+00 -9.690247178077697754e-01 2.470396310091018677e-01 -2.165955156087875366e-01 7.808852195739746094e-02
1.347000000000000000e+03 2.434477615356445312e+01 -2.958220958709716797e+00 -7.711510062217712402e-01 1.506101489067077637e-01 -1.861622631549835205e-01 2.917758375406265259e-02
1.348000000000000000e+03 5.986861038208007812e+01 -1.379903030395507812e+01 -1.302103281021118164e+00 -5.342818051576614380e-02 -4.066594541072845459e-01 -4.765918850898742676e-01
1.349000000000000000e+03 5.698532104492187500e+01 -1.313596057891845703e+01 -1.351462125778198242e+00 1.255127973854541779e-02 -4.016732573509216309e-01 -3.531365692615509033e-01
1.350000000000000000e+03 5.822105026245117188e+01 -1.284424400329589844e+01 -1.283584237098693848e+00 5.664262920618057251e-02 -3.680824637413024902e-01 -4.365606904029846191e-01
1.351000000000000000e+03 5.203934097290039062e+01 -1.500288772583007812e+01 -1.963895440101623535e+00 -3.808249160647392273e-02 -6.005933880805969238e-01 -2.281104922294616699e-01
1.352000000000000000e+03 6.770024108886718750e+01 -1.241474628448486328e+01 -5.560120940208435059e-01 8.983778953552246094e-02 -1.398523002862930298e-01 6.810067594051361084e-02
1.353000000000000000e+03 5.194573211669921875e+01 -1.392442417144775391e+01 -1.498927116394042969e+00 4.268529638648033142e-02 -4.368725717067718506e-01 -5.101714655756950378e-02
1.354000000000000000e+03 5.317873382568359375e+01 -1.375638389587402344e+01 -1.535517334938049316e+00 1.413890253752470016e-02 -4.564135372638702393e-01 -1.511635482311248779e-01
1.355000000000000000e+03 5.521176910400390625e+01 2.396799468994140625e+01 2.468663454055786133e-01 8.337779343128204346e-02 9.907323867082595825e-02 -1.929011940956115723e-01
1.356000000000000000e+03 7.822718048095703125e+01 -1.949241256713867188e+01 -4.276113395462743938e-05 9.851355571299791336e-06 -9.872933333099354059e-06 -8.354663805221207440e-06
1.357000000000000000e+03 7.780436706542968750e+01 -3.098171806335449219e+01 7.649248436791822314e-05 1.237309334101155400e-04 6.006702460581436753e-05 -5.867041545570828021e-05
1.358000000000000000e+03 7.929443359375000000e+01 -2.956419181823730469e+01 4.818928573513403535e-05 1.442627108190208673e-04 5.773560042143799365e-05 -1.913442429213318974e-05
1.359000000000000000e+03 7.946294403076171875e+01 -2.412390136718750000e+01 3.651535371318459511e-05 2.671662878128699958e-05 1.896959474834147841e-05 -5.516083092516055331e-06
1.360000000000000000e+03 7.914636993408203125e+01 -3.640194702148437500e+01 -3.086686410824768245e-05 2.857787767425179482e-04 7.647357415407896042e-05 -7.068876129778800532e-06
1.361000000000000000e+03 7.926904296875000000e+01 -3.366497039794921875e+01 -6.509452941827476025e-05 2.589862269815057516e-04 5.816750854137353599e-05 -3.023567478521727026e-05
1.362000000000000000e+03 7.783819580078125000e+01 -3.367547225952148438e+01 7.614360947627574205e-05 1.674176310189068317e-04 7.306837505893781781e-05 -3.386645767022855580e-05
1.363000000000000000e+03 7.837805938720703125e+01 -2.414061927795410156e+01 -4.531109516392461956e-05 1.457621328881941736e-05 -9.220464562531560659e-06 -1.854856600402854383e-05
1.364000000000000000e+03 7.808493804931640625e+01 -2.812273025512695312e+01 7.198153616627678275e-05 8.189055370166897774e-05 4.616162550519220531e-05 -4.828990859095938504e-05
1.365000000000000000e+03 7.756585693359375000e+01 -3.934460830688476562e+01 -1.001145119516877457e-05 2.143431338481605053e-04 6.129950634203851223e-05 1.273909492738312110e-05
1.366000000000000000e+03 4.228590393066406250e+01 -2.402873039245605469e+01 -6.626854650676250458e-03 1.503542647697031498e-03 -1.536993659101426601e-03 3.897269722074270248e-03
1.367000000000000000e+03 3.978617477416992188e+01 1.102908897399902344e+01 -2.090618945658206940e-03 5.790029536001384258e-04 -4.534847685135900974e-04 -1.559375203214585781e-03
1.368000000000000000e+03 4.744069671630859375e+01 -2.849044036865234375e+01 -1.436244789510965347e-02 -1.133363880217075348e-02 -7.708826102316379547e-03 1.142281852662563324e-02
1.369000000000000000e+03 5.014760589599609375e+01 -2.998451805114746094e+01 -1.791343651711940765e-02 -5.621114745736122131e-03 -7.060365285724401474e-03 9.539840742945671082e-03
1.370000000000000000e+03 5.575724792480468750e+01 -3.311611938476562500e+01 -3.216859884560108185e-03 -2.330821007490158081e-03 -1.664304290898144245e-03 3.866072511300444603e-03
1.371000000000000000e+03 5.127724838256835938e+01 -3.199670791625976562e+01 -6.831920240074396133e-03 -5.367353558540344238e-03 -3.659782232716679573e-03 7.693264633417129517e-03
1.372000000000000000e+03 4.261103820800781250e+01 1.375198364257812500e+01 -1.022932212799787521e-02 -5.274535622447729111e-03 -4.651157185435295105e-03 -7.778871804475784302e-03
1.373000000000000000e+03 4.128342437744140625e+01 1.406378746032714844e+01 -1.419307012110948563e-02 2.459662733599543571e-03 -3.520022146403789520e-03 -3.822132246568799019e-03
1.374000000000000000e+03 3.884508132934570312e+01 7.014461040496826172e+00 1.006199279800057411e-03 5.655024433508515358e-04 4.715105169452726841e-04 -2.795621112454682589e-04
1.375000000000000000e+03 3.710571670532226562e+01 7.748400211334228516e+00 4.136147908866405487e-04 -1.830858091125264764e-04 6.915869744261726737e-05 -3.837316035060212016e-05
1.376000000000000000e+03 4.674686050415039062e+01 2.137102508544921875e+01 -3.742306027561426163e-03 1.460886443965137005e-03 -6.844259332865476608e-04 -6.097220815718173981e-03
1.377000000000000000e+03 6.759552001953125000e+01 -2.315858840942382812e+01 7.415654545184224844e-05 5.208064976613968611e-05 3.787115929299034178e-05 4.343895125202834606e-05
1.378000000000000000e+03 4.829795837402343750e+01 -3.161378479003906250e+01 -6.345819681882858276e-03 -8.181316778063774109e-03 -4.358141217380762100e-03 6.843490060418844223e-03
1.379000000000000000e+03 5.123288345336914062e+01 2.213048553466796875e+01 4.180771857500076294e-02 -8.661710657179355621e-03 9.943801909685134888e-03 -2.999812178313732147e-02
1.380000000000000000e+03 4.419948577880859375e+01 1.764521026611328125e+01 -2.639591507613658905e-02 1.946574338944628835e-04 -7.860377430915832520e-03 -7.544282823801040649e-03
1.381000000000000000e+03 3.907422256469726562e+01 1.006716728210449219e+01 -1.493489136919379234e-03 -6.311859469860792160e-04 -6.374025251716375351e-04 -1.340253038506489247e-05
1.382000000000000000e+03 4.869351196289062500e+01 2.071084213256835938e+01 -1.748560741543769836e-02 -9.425820782780647278e-03 -8.073428645730018616e-03 -1.184322778135538101e-02
1.383000000000000000e+03 4.635100936889648438e+01 1.919399070739746094e+01 -2.948112227022647858e-02 -4.101132508367300034e-03 -1.007467694580554962e-02 -1.060405466705560684e-02
1.384000000000000000e+03 4.525265121459960938e+01 1.839674949645996094e+01 -2.714318409562110901e-02 1.482212101109325886e-03 -7.698291447013616562e-03 -1.119999308139085770e-02
1.385000000000000000e+03 3.234400558471679688e+01 -2.956537818908691406e+01 -2.214528247714042664e-02 2.656859811395406723e-03 -5.846526939421892166e-03 -5.023967940360307693e-03
1.386000000000000000e+03 6.209099960327148438e+01 -3.318450546264648438e+01 -5.956687382422387600e-04 -2.440328098600730300e-04 -2.519104455132037401e-04 7.235479424707591534e-04
1.387000000000000000e+03 6.103210067749023438e+01 -3.149221611022949219e+01 -8.582707960158586502e-04 -1.371885591652244329e-04 -2.986378094647079706e-04 6.096696015447378159e-04
1.388000000000000000e+03 5.769516754150390625e+01 -3.300870895385742188e+01 -2.114258473739027977e-03 -1.033378299325704575e-03 -9.442910086363554001e-04 2.328461268916726112e-03
1.389000000000000000e+03 5.949628067016601562e+01 -3.226854324340820312e+01 -1.452811527997255325e-03 -1.354008709313347936e-04 -4.764637269545346498e-04 1.079749665223062038e-03
1.390000000000000000e+03 1.952577018737792969e+01 -1.150030803680419922e+01 1.907510519027709961e+00 1.169727444648742676e-01 6.073449850082397461e-01 4.789600074291229248e-01
1.391000000000000000e+03 4.498611450195312500e+01 -2.827401542663574219e+01 -1.219568867236375809e-02 -1.983023714274168015e-03 -4.253613762557506561e-03 7.401204667985439301e-03
1.392000000000000000e+03 5.409896469116210938e+01 -3.252726745605468750e+01 -4.806397017091512680e-03 -1.815300900489091873e-03 -1.986509421840310097e-03 4.417494405061006546e-03
1.393000000000000000e+03 6.475852203369140625e+01 -2.859941673278808594e+01 2.107829932356253266e-04 -6.564914656337350607e-06 6.126542575657367706e-05 4.639874896383844316e-05
1.394000000000000000e+03 7.023098754882812500e+01 -2.130760765075683594e+01 -5.519705155165866017e-06 -6.340078834909945726e-05 -2.067614877887535840e-05 -3.321529584354721010e-05
1.395000000000000000e+03 6.677505493164062500e+01 -2.639418220520019531e+01 1.707725605228915811e-04 -2.368018067500088364e-05 4.412771522765979171e-05 3.807917892117984593e-05
1.396000000000000000e+03 6.785892486572265625e+01 -2.525398826599121094e+01 1.346412755083292723e-04 1.115310897148447111e-05 4.373831689008511603e-05 6.808637408539652824e-05
1.397000000000000000e+03 4.382289123535156250e+01 -1.898118019104003906e+01 -4.477065231185406446e-04 -3.171669377479702234e-04 -2.294620353495702147e-04 -3.393577353563159704e-04
1.398000000000000000e+03 4.387486648559570312e+01 -2.087048149108886719e+01 2.055029472103342414e-04 -9.011760266730561852e-05 3.461560118012130260e-05 4.737580311484634876e-04
1.399000000000000000e+03 2.859205627441406250e+01 -8.225764274597167969e+00 2.372440814971923828e+00 2.784261703491210938e-01 7.952600717544555664e-01 4.912007451057434082e-01
1.400000000000000000e+03 2.456411552429199219e+01 -2.983961486816406250e+01 2.010295093059539795e-01 9.544487297534942627e-02 8.894231170415878296e-02 -1.218152642250061035e-01
1.401000000000000000e+03 6.260758590698242188e+01 2.521013832092285156e+01 -8.575661107897758484e-03 7.956938743591308594e-01 2.361354678869247437e-01 -1.198606342077255249e-01
1.402000000000000000e+03 1.444294738769531250e+01 -1.321844291687011719e+01 9.982616901397705078e-01 1.622668623924255371e+00 7.862790822982788086e-01 5.758047103881835938e-01
1.403000000000000000e+03 2.190723800659179688e+01 -9.905742645263671875e+00 1.225387215614318848e+00 9.985444694757461548e-02 3.975724875926971436e-01 4.941990077495574951e-01
1.404000000000000000e+03 3.731159973144531250e+01 -2.113197708129882812e+01 -2.826072275638580322e-03 -2.550307835917919874e-04 -9.243309032171964645e-04 -1.050227205269038677e-03
1.405000000000000000e+03 1.824006462097167969e+01 -1.033083629608154297e+01 1.077657818794250488e+00 7.195594310760498047e-01 5.391651988029479980e-01 5.959362983703613281e-01
1.406000000000000000e+03 1.511267662048339844e+01 -1.220066165924072266e+01 1.067760348320007324e+00 1.237285971641540527e+00 6.915138959884643555e-01 5.032779574394226074e-01
1.407000000000000000e+03 2.519511413574218750e+01 -8.589791297912597656e+00 1.357899069786071777e+00 1.329443603754043579e-01 4.472530186176300049e-01 4.891974031925201416e-01
1.408000000000000000e+03 2.846809577941894531e+01 -3.186500549316406250e+01 2.697455696761608124e-02 1.941335014998912811e-02 1.391637232154607773e-02 -5.506320297718048096e-02
1.409000000000000000e+03 3.348329162597656250e+01 -2.841154479980468750e+01 -2.961998060345649719e-02 2.585917944088578224e-03 -8.110218681395053864e-03 -5.949829705059528351e-03
1.410000000000000000e+03 3.130441093444824219e+01 -2.821074104309082031e+01 -4.638533294200897217e-02 -1.975747570395469666e-02 -1.984284259378910065e-02 -2.333720773458480835e-02
1.411000000000000000e+03 2.070235252380371094e+01 -1.015765857696533203e+01 1.351864814758300781e+00 1.111357659101486206e-01 4.389001727104187012e-01 5.186084508895874023e-01
1.412000000000000000e+03 3.600248718261718750e+01 -1.542675876617431641e+01 4.343220207374542952e-04 1.813751005101948977e-04 1.847091334639117122e-04 2.008082083193585277e-04
1.413000000000000000e+03 3.528297424316406250e+01 -1.657573699951171875e+01 4.698723205365240574e-04 4.342326428741216660e-04 2.712314890231937170e-04 7.214392826426774263e-05
1.414000000000000000e+03 1.889363288879394531e+01 -2.883055114746093750e+01 2.062984853982925415e-01 5.600796937942504883e-01 2.299134582281112671e-01 -3.368201553821563721e-01
1.415000000000000000e+03 2.417051696777343750e+01 -9.114885330200195312e+00 1.233914017677307129e+00 1.095208898186683655e-01 4.030304849147796631e-01 5.484583973884582520e-01
1.416000000000000000e+03 1.604435348510742188e+01 -2.536407852172851562e+01 3.163162469863891602e-01 1.006341934204101562e+00 3.967974781990051270e-01 -4.881355762481689453e-01
1.417000000000000000e+03 3.651518249511718750e+01 -1.901058578491210938e+01 -6.499937153421342373e-04 -2.026198199018836021e-04 -2.557840489316731691e-04 -2.074084331979975104e-04
1.418000000000000000e+03 3.731829071044921875e+01 -2.266634941101074219e+01 -5.228346213698387146e-03 -1.939121575560420752e-04 -1.626677578315138817e-03 -2.982146339491009712e-03
1.419000000000000000e+03 5.403133010864257812e+01 -8.298003196716308594e+00 2.524346709251403809e-01 4.878700673580169678e-01 2.220914214849472046e-01 7.109966129064559937e-02
1.420000000000000000e+03 5.417171859741210938e+01 -4.998609542846679688e+00 1.442521214485168457e+00 7.027367949485778809e-01 6.435773968696594238e-01 7.098863720893859863e-01
1.421000000000000000e+03 7.926325225830078125e+01 3.753785705566406250e+01 3.613182809203863144e-03 -4.996624290943145752e-01 -1.488147675991058350e-01 1.933946087956428528e-02
1.422000000000000000e+03 7.722404479980468750e+01 3.469759750366210938e+01 -1.629565842449665070e-02 -4.828217923641204834e-01 -1.497352272272109985e-01 8.136096596717834473e-02
1.423000000000000000e+03 7.918150329589843750e+01 3.051387214660644531e+01 2.477545524016022682e-03 -7.594787478446960449e-01 -2.271003723144531250e-01 4.369812458753585815e-02
1.424000000000000000e+03 7.777256011962890625e+01 2.753461456298828125e+01 -8.449171669781208038e-03 -7.756556272506713867e-01 -2.352314442396163940e-01 1.189949885010719299e-01
1.425000000000000000e+03 7.825997161865234375e+01 -9.848361968994140625e+00 -1.348176132887601852e-02 -1.080294176936149597e-01 -3.645335510373115540e-02 -7.335439324378967285e-02
1.426000000000000000e+03 7.826773071289062500e+01 -8.501506805419921875e+00 -1.912865601480007172e-02 -1.673033386468887329e-01 -5.592959746718406677e-02 -9.750600904226303101e-02
1.427000000000000000e+03 7.942769622802734375e+01 -7.233891963958740234e+00 -4.769184160977602005e-03 -2.382804006338119507e-01 -7.291487604379653931e-02 -4.036192595958709717e-02
1.428000000000000000e+03 7.938988494873046875e+01 5.308310508728027344e+00 2.259540837258100510e-03 -1.282123088836669922e+00 -3.839590549468994141e-01 -3.660181537270545959e-02
1.429000000000000000e+03 7.937709808349609375e+01 1.230635261535644531e+01 3.418213455006480217e-03 -1.540326952934265137e+00 -4.610726237297058105e-01 -4.583646077662706375e-03
1.430000000000000000e+03 7.812989807128906250e+01 1.220152568817138672e+01 1.444335281848907471e-02 -1.270681262016296387e+00 -3.768713772296905518e-01 -1.694448851048946381e-02
1.431000000000000000e+03 7.936816406250000000e+01 1.370747947692871094e+01 3.324913792312145233e-03 -1.544925212860107422e+00 -4.624800980091094971e-01 3.051361767575144768e-03
1.432000000000000000e+03 7.934909820556640625e+01 1.930714416503906250e+01 4.937425255775451660e-03 -1.413668036460876465e+00 -4.226191937923431396e-01 2.870572917163372040e-02
1.433000000000000000e+03 7.934402465820312500e+01 2.349708366394042969e+01 -7.926916005089879036e-04 -1.187423706054687500e+00 -3.564649224281311035e-01 4.080544412136077881e-02
1.434000000000000000e+03 7.932197570800781250e+01 2.490013885498046875e+01 3.386322641745209694e-03 -1.098268151283264160e+00 -3.284645378589630127e-01 4.409750923514366150e-02
1.435000000000000000e+03 7.929088592529296875e+01 2.630438423156738281e+01 -2.108344575390219688e-03 -1.008719563484191895e+00 -3.032483756542205811e-01 4.480597004294395447e-02
1.436000000000000000e+03 7.911805725097656250e+01 3.193192672729492188e+01 -5.737858824431896210e-03 -6.906507015228271484e-01 -2.089165598154067993e-01 4.047815501689910889e-02
1.437000000000000000e+03 7.909991455078125000e+01 3.335009765625000000e+01 -1.763360050972551107e-04 -6.319697499275207520e-01 -1.896438300609588623e-01 3.619501367211341858e-02
1.438000000000000000e+03 7.917345428466796875e+01 3.875425338745117188e+01 -3.191158408299088478e-03 -4.580815732479095459e-01 -1.383818238973617554e-01 1.860518567264080048e-02
1.439000000000000000e+03 7.824432373046875000e+01 -1.681248426437377930e+00 3.063207957893610001e-03 -6.293870210647583008e-01 -1.878971457481384277e-01 -1.518099606037139893e-01
1.440000000000000000e+03 7.940206146240234375e+01 1.123337030410766602e+00 1.123262685723602772e-03 -9.712891578674316406e-01 -2.910497784614562988e-01 -4.876731336116790771e-02
1.441000000000000000e+03 7.938930511474609375e+01 8.103840827941894531e+00 2.323007909581065178e-03 -1.430848836898803711e+00 -4.285577535629272461e-01 -2.452496811747550964e-02
1.442000000000000000e+03 7.803225708007812500e+01 1.919114303588867188e+01 1.064006052911281586e-02 -1.166719198226928711e+00 -3.468237519264221191e-01 7.703268527984619141e-02
1.443000000000000000e+03 7.935250854492187500e+01 2.070336341857910156e+01 -2.886046131607145071e-04 -1.348098993301391602e+00 -4.045162796974182129e-01 3.318461403250694275e-02
1.444000000000000000e+03 7.806906890869140625e+01 1.500094223022460938e+01 1.591859199106693268e-02 -1.259451985359191895e+00 -3.730600178241729736e-01 2.265158109366893768e-02
1.445000000000000000e+03 7.935153198242187500e+01 1.651039886474609375e+01 4.948897287249565125e-03 -1.507987737655639648e+00 -4.509116709232330322e-01 1.714483276009559631e-02
1.446000000000000000e+03 7.816734313964843750e+01 8.011547088623046875e+00 1.462757028639316559e-02 -1.187129974365234375e+00 -3.517507314682006836e-01 -7.321245968341827393e-02
1.447000000000000000e+03 7.938738250732421875e+01 9.504545211791992188e+00 3.690274432301521301e-03 -1.483078122138977051e+00 -4.438163638114929199e-01 -1.769708655774593353e-02
1.448000000000000000e+03 7.820088195800781250e+01 1.087928295135498047e+00 7.713121362030506134e-03 -8.253357410430908203e-01 -2.452867925167083740e-01 -1.415021270513534546e-01
1.449000000000000000e+03 7.939555358886718750e+01 2.518543004989624023e+00 1.950764562934637070e-03 -1.084772229194641113e+00 -3.248464167118072510e-01 -4.524915665388107300e-02
1.450000000000000000e+03 7.826396942138671875e+01 -5.797126293182373047e+00 -1.121660042554140091e-02 -3.306483626365661621e-01 -1.025594919919967651e-01 -1.335968524217605591e-01
1.451000000000000000e+03 7.942314147949218750e+01 -4.458016872406005859e+00 -2.606061520054936409e-03 -4.652450978755950928e-01 -1.403553485870361328e-01 -5.016704276204109192e-02
1.452000000000000000e+03 7.949255371093750000e+01 -1.289625072479248047e+01 -4.019120708107948303e-03 -3.422013949602842331e-03 -2.232340397313237190e-03 -6.883028429001569748e-03
1.453000000000000000e+03 5.067646408081054688e+01 -7.392012119293212891e+00 9.441931843757629395e-01 6.744422912597656250e-01 4.855906665325164795e-01 5.352836251258850098e-01
1.454000000000000000e+03 6.391925430297851562e+01 1.828155708312988281e+01 4.698724746704101562e-01 1.464758396148681641e+00 5.803892612457275391e-01 -2.422321140766143799e-01
1.455000000000000000e+03 4.692554092407226562e+01 -6.072380542755126953e+00 1.216221928596496582e+00 1.954807899892330170e-02 3.707309961318969727e-01 1.211414933204650879e-01
1.456000000000000000e+03 1.958345770835876465e+00 2.627818679809570312e+01 -2.033713099081069231e-04 -8.122224826365709305e-04 -3.046781348530203104e-04 6.173392757773399353e-04
1.457000000000000000e+03 2.410888671875000000e+00 3.501325988769531250e+01 9.634176967665553093e-05 -4.323929082602262497e-03 -1.268276129849255085e-03 1.041557756252586842e-03
1.458000000000000000e+03 7.338896393775939941e-01 3.195011520385742188e+01 3.901627133018337190e-05 -3.062441945075988770e-03 -9.070277446880936623e-04 4.063396190758794546e-04
1.459000000000000000e+03 2.953738451004028320e+00 3.890718078613281250e+01 1.903729134937748313e-04 -5.397333763539791107e-03 -1.562088262289762497e-03 6.736983195878565311e-04
1.460000000000000000e+03 7.034930586814880371e-01 3.875913619995117188e+01 -2.344801905564963818e-04 -5.847162101417779922e-03 -1.824492588639259338e-03 1.336306158918887377e-04
1.461000000000000000e+03 1.789070963859558105e+00 2.343613815307617188e+01 -1.861679193098098040e-04 -1.086088086594827473e-04 -8.843301475280895829e-05 2.772269945126026869e-04
1.462000000000000000e+03 2.167903184890747070e+00 3.061264610290527344e+01 2.640479760884772986e-05 -2.440325450152158737e-03 -7.241762359626591206e-04 1.041745999827980995e-03
1.463000000000000000e+03 3.442080736160278320e+00 -3.703223037719726562e+01 -2.268378622829914093e-02 -4.743632972240447998e-01 -1.491141170263290405e-01 1.152770668268203735e-01
1.464000000000000000e+03 6.431112289428710938e-01 -3.045169448852539062e+01 2.092590730171650648e-04 -1.014943957328796387e+00 -3.044204115867614746e-01 5.027041584253311157e-02
1.465000000000000000e+03 1.944516181945800781e+00 -2.767630386352539062e+01 -1.726776012219488621e-03 -1.012296080589294434e+00 -3.042068481445312500e-01 1.520248204469680786e-01
1.466000000000000000e+03 1.630223274230957031e+00 4.964197635650634766e+00 2.330314600840210915e-05 7.154467311920598149e-06 9.137283996096812189e-06 -2.096659773087594658e-05
1.467000000000000000e+03 2.342350959777832031e+00 -4.259756088256835938e+00 -6.131642684340476990e-02 -2.248718589544296265e-01 -8.585648238658905029e-02 -2.291899919509887695e-01
1.468000000000000000e+03 5.869382619857788086e-01 -1.069830608367919922e+01 3.368746256455779076e-03 -1.174953579902648926e+00 -3.514754474163055420e-01 -8.303504437208175659e-02
1.469000000000000000e+03 1.718177795410156250e+00 -9.348128318786621094e+00 1.010939478874206543e-02 -8.094229698181152344e-01 -2.397940605878829956e-01 -2.493588626384735107e-01
1.470000000000000000e+03 6.302425861358642578e-01 -1.350471401214599609e+01 6.242214702069759369e-03 -1.524853706359863281e+00 -4.555834531784057617e-01 -6.121128425002098083e-02
1.471000000000000000e+03 7.016989588737487793e-01 -1.774285507202148438e+01 1.012159325182437897e-02 -1.767653822898864746e+00 -5.272596478462219238e-01 -7.642849348485469818e-03
1.472000000000000000e+03 2.024642467498779297e+00 -1.627092552185058594e+01 4.480572417378425598e-02 -1.322323203086853027e+00 -3.832552433013916016e-01 -8.667162060737609863e-02
1.473000000000000000e+03 7.497203946113586426e-01 -2.059313583374023438e+01 7.070294581353664398e-03 -1.728266239166259766e+00 -5.163587927818298340e-01 3.009659983217716217e-02
1.474000000000000000e+03 2.098937749862670898e+00 -1.768910026550292969e+01 4.611642658710479736e-02 -1.335703372955322266e+00 -3.868761062622070312e-01 -3.476653620600700378e-02
1.475000000000000000e+03 7.297917008399963379e-01 -2.344619560241699219e+01 6.363842636346817017e-03 -1.582449078559875488e+00 -4.728255569934844971e-01 4.994904994964599609e-02
1.476000000000000000e+03 2.017918109893798828e+00 -2.634057807922363281e+01 1.451278571039438248e-03 -1.080377340316772461e+00 -3.236778080463409424e-01 1.573204696178436279e-01
1.477000000000000000e+03 2.089373826980590820e+00 -3.310721206665039062e+01 -1.171494182199239731e-02 -6.907672882080078125e-01 -2.107446640729904175e-01 1.162296086549758911e-01
1.478000000000000000e+03 2.183037042617797852e+00 -3.579211807250976562e+01 -1.150586456060409546e-02 -5.839914083480834961e-01 -1.786491721868515015e-01 9.912918508052825928e-02
1.479000000000000000e+03 1.743385553359985352e+00 2.203516387939453125e+01 7.129758614610182121e-07 8.493856876157224178e-05 2.569546450104098767e-05 1.665604504523798823e-04
1.480000000000000000e+03 5.767136216163635254e-01 1.919888114929199219e+01 -8.465859718853607774e-05 4.965953412465751171e-04 1.235810341313481331e-04 -1.716597034828737378e-05
1.481000000000000000e+03 5.860136747360229492e-01 1.779170227050781250e+01 6.812306673964485526e-05 4.445794038474559784e-04 1.538107462693005800e-04 -2.531709833419881761e-05
1.482000000000000000e+03 6.126619577407836914e-01 1.496792411804199219e+01 6.404538726201280951e-05 2.890938194468617439e-04 1.059417554643005133e-04 -3.146903327433392406e-05
1.483000000000000000e+03 5.706085562705993652e-01 1.074228000640869141e+01 -4.902602086076512933e-05 1.026864920277148485e-04 1.609814171388279647e-05 -2.020546708081383258e-05
1.484000000000000000e+03 6.088249087333679199e-01 7.915011882781982422e+00 -3.107787415501661599e-05 3.759705941774882376e-05 1.955754896698636003e-06 -7.163383997976779938e-06
1.485000000000000000e+03 1.832828640937805176e+00 1.362394428253173828e+01 7.035004819044843316e-05 1.337417197646573186e-04 6.122753256931900978e-05 -7.512199226766824722e-05
1.486000000000000000e+03 3.521424293518066406e+00 -3.908749389648437500e+01 -2.676166221499443054e-02 -4.519862830638885498e-01 -1.436243802309036255e-01 6.899993866682052612e-02
1.487000000000000000e+03 2.570551156997680664e+00 -3.808417510986328125e+01 -5.779384635388851166e-03 -4.866692721843719482e-01 -1.477345973253250122e-01 8.563236892223358154e-02
1.488000000000000000e+03 2.002961397171020508e+00 -3.174300575256347656e+01 -1.133899949491024017e-02 -7.645672559738159180e-01 -2.327718734741210938e-01 1.258587837219238281e-01
1.489000000000000000e+03 2.104067802429199219e+00 -2.496676445007324219e+01 9.421618655323982239e-03 -1.139891386032104492e+00 -3.391409218311309814e-01 1.548577547073364258e-01
1.490000000000000000e+03 6.992145180702209473e-01 -2.486272621154785156e+01 -6.124774226918816566e-04 -1.480022192001342773e+00 -4.441904127597808838e-01 5.593593418598175049e-02
1.491000000000000000e+03 1.958484292030334473e+00 -1.486271572113037109e+01 4.076764732599258423e-02 -1.274618983268737793e+00 -3.701553940773010254e-01 -1.365358978509902954e-01
1.492000000000000000e+03 6.523849964141845703e-01 -1.491391849517822266e+01 8.498826995491981506e-03 -1.646812796592712402e+00 -4.914942085742950439e-01 -4.496831446886062622e-02
1.493000000000000000e+03 2.862091302871704102e+00 -6.872684001922607422e+00 -2.818327397108078003e-02 -4.307712912559509277e-01 -1.376863718032836914e-01 -3.638420403003692627e-01
1.494000000000000000e+03 5.661467313766479492e-01 -7.906966209411621094e+00 1.120706205256283283e-03 -7.361366152763366699e-01 -2.205047756433486938e-01 -8.937508612871170044e-02
1.495000000000000000e+03 1.598255157470703125e+00 -3.329836130142211914e+00 -4.300958663225173950e-02 -1.580810099840164185e-01 -6.032717972993850708e-02 -1.350563019514083862e-01
1.496000000000000000e+03 4.154604721069335938e+01 -3.413536310195922852e+00 4.075663089752197266e-01 -2.817933633923530579e-02 1.138160973787307739e-01 -5.622088909149169922e-02
1.497000000000000000e+03 4.340056610107421875e+01 -4.759949684143066406e+00 6.229049563407897949e-01 -1.322417892515659332e-02 1.829042285680770874e-01 -3.209701180458068848e-02
1.498000000000000000e+03 6.250133514404296875e+01 4.110025405883789062e+00 4.135882854461669922e-01 1.082397460937500000e+00 4.487957060337066650e-01 3.170942962169647217e-01
1.499000000000000000e+03 6.163704299926757812e+01 5.451751232147216797e+00 4.743245244026184082e-01 1.561344385147094727e+00 6.107006669044494629e-01 5.489722490310668945e-01
1.500000000000000000e+03 5.919835662841796875e+01 -2.749585211277008057e-01 6.215839385986328125e-01 7.380483150482177734e-01 4.078896641731262207e-01 5.814090967178344727e-01
1.501000000000000000e+03 5.635543823242187500e+01 -1.075985789299011230e+00 8.988142609596252441e-01 1.169394969940185547e+00 6.204627752304077148e-01 9.624027013778686523e-01
1.502000000000000000e+03 6.273077011108398438e+01 6.978707790374755859e+00 3.370859920978546143e-01 1.454269289970397949e+00 5.374065637588500977e-01 3.987058699131011963e-01
1.503000000000000000e+03 6.306306838989257812e+01 5.855369567871093750e+00 3.482686281204223633e-01 1.236354589462280273e+00 4.753869771957397461e-01 3.072415888309478760e-01
1.504000000000000000e+03 4.579037475585937500e+01 -5.544163703918457031e+00 9.616569280624389648e-01 -1.561593450605869293e-02 2.838123142719268799e-01 -3.814667463302612305e-02
1.505000000000000000e+03 5.520159530639648438e+01 -4.033747673034667969e+00 1.150854229927062988e+00 7.982825040817260742e-01 5.847409963607788086e-01 8.248601555824279785e-01
1.506000000000000000e+03 4.887475585937500000e+01 -7.369357585906982422e+00 8.418695926666259766e-01 3.555026054382324219e-01 3.592116534709930420e-01 4.162706732749938965e-01
1.507000000000000000e+03 5.881637191772460938e+01 7.873668074607849121e-01 6.341114640235900879e-01 9.228357672691345215e-01 4.670841693878173828e-01 7.524606585502624512e-01
1.508000000000000000e+03 5.745815658569335938e+01 7.988350987434387207e-01 6.409233808517456055e-01 1.185024142265319824e+00 5.477842688560485840e-01 8.181452751159667969e-01
1.509000000000000000e+03 6.556001281738281250e+01 1.707853889465332031e+01 3.789128363132476807e-01 1.115696668624877930e+00 4.483828544616699219e-01 -6.978116184473037720e-02
1.510000000000000000e+03 5.621704483032226562e+01 -3.219264745712280273e+00 9.427748322486877441e-01 8.122491836547851562e-01 5.265071988105773926e-01 7.465382814407348633e-01
1.511000000000000000e+03 6.418509674072265625e+01 1.300041294097900391e+01 1.766054779291152954e-01 1.634382128715515137e+00 5.432962775230407715e-01 3.031734190881252289e-02
1.512000000000000000e+03 6.513648986816406250e+01 1.409049320220947266e+01 2.169450223445892334e-01 1.396243572235107422e+00 4.839566051959991455e-01 -2.963490225374698639e-02
1.513000000000000000e+03 5.952149581909179688e+01 2.752075433731079102e+00 4.842558801174163818e-01 1.148859500885009766e+00 4.899346232414245605e-01 7.371944189071655273e-01
1.514000000000000000e+03 6.050937652587890625e+01 2.309356451034545898e+00 4.606990516185760498e-01 1.114524841308593750e+00 4.725671708583831787e-01 5.957097411155700684e-01
1.515000000000000000e+03 3.622200012207031250e+01 -2.485871505737304688e+01 -1.183101069182157516e-02 2.003753557801246643e-03 -2.948177047073841095e-03 -5.135702434927225113e-03
1.516000000000000000e+03 2.120627403259277344e+01 -3.090470314025878906e+01 8.831890672445297241e-02 4.136732816696166992e-01 1.505976617336273193e-01 -2.431045174598693848e-01
1.517000000000000000e+03 2.261288070678710938e+01 -3.198144721984863281e+01 5.769710987806320190e-02 3.116317987442016602e-01 1.107986718416213989e-01 -2.179313153028488159e-01
1.518000000000000000e+03 1.321828842163085938e+01 -1.996041107177734375e+01 5.015352964401245117e-01 2.038261890411376953e+00 7.619391083717346191e-01 -2.434368878602981567e-01
1.519000000000000000e+03 1.169786071777343750e+01 -1.887162971496582031e+01 5.366966724395751953e-01 1.352291226387023926e+00 5.666963458061218262e-01 -1.510108727961778641e-02
1.520000000000000000e+03 6.499423980712890625e+01 -1.038324642181396484e+01 -7.817655801773071289e-01 -2.910102605819702148e-01 -3.218327462673187256e-01 -4.518964588642120361e-01
1.521000000000000000e+03 2.797817611694335938e+01 -2.005906105041503906e+00 -1.196794390678405762e+00 -4.008203744888305664e-02 -3.710629045963287354e-01 3.162708282470703125e-01
1.522000000000000000e+03 2.957522201538085938e+01 -1.861336946487426758e+00 -9.941357374191284180e-01 6.765110045671463013e-02 -2.779453992843627930e-01 2.999145686626434326e-01
1.523000000000000000e+03 2.739381790161132812e+01 -2.011840581893920898e+00 -1.234924912452697754e+00 -1.439465582370758057e-01 -4.136614501476287842e-01 3.168442547321319580e-01
1.524000000000000000e+03 2.804439926147460938e+01 -2.494239330291748047e+00 -9.362159371376037598e-01 -2.153728343546390533e-02 -2.873259782791137695e-01 3.610441088676452637e-01
1.525000000000000000e+03 3.190298271179199219e+01 -2.403875112533569336e+00 -5.247815251350402832e-01 1.922180876135826111e-02 -1.516679078340530396e-01 3.431319594383239746e-01
1.526000000000000000e+03 2.789601707458496094e+01 -2.290713310241699219e+00 -1.062719106674194336e+00 -6.001608818769454956e-02 -3.368205428123474121e-01 3.363452255725860596e-01
1.527000000000000000e+03 3.052091789245605469e+01 -1.977973580360412598e+00 -8.292317390441894531e-01 8.224655687808990479e-02 -2.240955531597137451e-01 3.180177509784698486e-01
1.528000000000000000e+03 2.827643203735351562e+01 -2.261168241500854492e+00 -1.040130734443664551e+00 -1.032766886055469513e-02 -3.151375055313110352e-01 3.407112658023834229e-01
1.529000000000000000e+03 2.777806091308593750e+01 -1.981587529182434082e+00 -1.229612708091735840e+00 -7.023931294679641724e-02 -3.899555802345275879e-01 3.257106244564056396e-01
1.530000000000000000e+03 2.838487052917480469e+01 -1.981389045715332031e+00 -1.146564841270446777e+00 6.505656987428665161e-03 -3.420177400112152100e-01 3.112053275108337402e-01
1.531000000000000000e+03 2.565151786804199219e+01 -3.189348459243774414e+00 -6.576566696166992188e-01 -4.413219541311264038e-02 -2.105366587638854980e-01 9.150192141532897949e-02
1.532000000000000000e+03 2.354052734375000000e+01 2.318541145324707031e+01 -2.735942602157592773e-02 -4.341812338680028915e-03 -9.510371834039688110e-03 8.316770195960998535e-03
1.533000000000000000e+03 3.454639053344726562e+01 2.449040174484252930e+00 1.727354538161307573e-04 -2.880328684113919735e-04 -3.458922219579108059e-05 1.839950709836557508e-04
1.534000000000000000e+03 3.488203048706054688e+01 6.434189319610595703e+00 -2.574151440057903528e-04 -7.452101272065192461e-05 -9.958084410754963756e-05 -2.300732157891616225e-04
1.535000000000000000e+03 3.387036514282226562e+01 6.392481803894042969e+00 2.597350685391575098e-04 1.503060484537854791e-04 1.230123452842235565e-04 -1.333427353529259562e-04
1.536000000000000000e+03 2.739534378051757812e+01 2.176263046264648438e+01 -3.968107700347900391e-02 -1.101425290107727051e-02 -1.520859915763139725e-02 1.779262162744998932e-02
1.537000000000000000e+03 2.262488174438476562e+01 4.319808959960937500e+00 -2.354402113269316033e-06 -3.547197593434248120e-06 -1.770479912011069246e-06 -2.389503606536891311e-06
1.538000000000000000e+03 2.233563423156738281e+01 4.581022262573242188e+00 3.258851847931509838e-06 6.157527423056308180e-06 2.824913735821610317e-06 4.175234153080964461e-06
1.539000000000000000e+03 1.412942218780517578e+01 1.580915641784667969e+01 9.263051470043137670e-05 4.485091776587069035e-04 1.623419084353372455e-04 8.710453403182327747e-05
1.540000000000000000e+03 1.390021705627441406e+01 1.777899551391601562e+01 1.232597278431057930e-04 4.615071229636669159e-04 1.754300465108826756e-04 1.669735065661370754e-04
1.541000000000000000e+03 2.193481063842773438e+01 3.630881786346435547e+00 -2.733132077992195264e-06 -7.277553322637686506e-06 -3.003205620188964531e-06 -3.355600483700982295e-06
1.542000000000000000e+03 1.858499717712402344e+01 2.235495185852050781e+01 -1.301396172493696213e-02 -1.274567621294409037e-04 -3.942425362765789032e-03 1.026556565193459392e-04
1.543000000000000000e+03 1.807172584533691406e+01 7.697692871093750000e+00 1.368784614896867424e-05 1.228587279911153018e-05 7.792115866323001683e-06 1.224203970195958391e-05
1.544000000000000000e+03 1.860202980041503906e+01 7.107336044311523438e+00 1.208483809023164213e-05 1.134839658334385604e-05 7.029970674921059981e-06 1.032402997225290164e-05
1.545000000000000000e+03 1.888419914245605469e+01 6.826383113861083984e+00 -1.184595021186396480e-05 -8.890508070180658251e-06 -6.220937393663916737e-06 -8.403839274251367897e-06
1.546000000000000000e+03 2.158719635009765625e+01 3.863279104232788086e+00 2.142853190889582038e-06 1.058159250533208251e-05 3.817333436018088832e-06 2.624764420033898205e-06
1.547000000000000000e+03 2.077023315429687500e+01 4.608410358428955078e+00 -5.100461294205160812e-06 4.146952960581984371e-06 -2.860524830339272739e-07 -1.789036332411342300e-06
1.548000000000000000e+03 1.455661392211914062e+01 1.243141841888427734e+01 3.646594632300548255e-05 1.636000961298123002e-04 6.001981455483473837e-05 2.881484761019237339e-05
1.549000000000000000e+03 1.382906818389892578e+01 1.811431503295898438e+01 -1.476135948905721307e-04 3.697809588629752398e-04 6.665020919172093272e-05 1.607337435416411608e-05
1.550000000000000000e+03 3.182831573486328125e+01 1.587360763549804688e+01 -3.987089730799198151e-03 -9.544660337269306183e-03 -4.059525206685066223e-03 6.579563487321138382e-03
1.551000000000000000e+03 3.274693298339843750e+01 1.645177841186523438e+01 -9.363706223666667938e-03 -5.476991645991802216e-03 -4.452209454029798508e-03 9.646188467741012573e-03
1.552000000000000000e+03 1.616818046569824219e+01 9.776443481445312500e+00 -1.363155115541303530e-05 8.132286893669515848e-06 -1.649779278523055837e-06 -2.390177542110905051e-05
1.553000000000000000e+03 2.358426856994628906e+01 2.261749267578125000e+01 -3.072331100702285767e-02 -2.753822831436991692e-03 -1.004314050078392029e-02 8.000708185136318207e-03
1.554000000000000000e+03 2.400758552551269531e+01 2.253388786315917969e+01 -3.147768601775169373e-02 -3.384762210771441460e-03 -1.045873388648033142e-02 8.695732802152633667e-03
1.555000000000000000e+03 1.584141540527343750e+01 1.007271766662597656e+01 1.791262548067606986e-05 5.311882705427706242e-05 2.130943539668805897e-05 1.819334283936768770e-05
1.556000000000000000e+03 1.564828014373779297e+01 1.144136714935302734e+01 5.312534267432056367e-05 8.740099292481318116e-05 4.215789886075071990e-05 -1.892921204671438318e-06
1.557000000000000000e+03 3.316773223876953125e+01 1.113281631469726562e+01 -3.638709022197872400e-04 -1.223152503371238708e-05 -1.128307267208583653e-04 3.318085800856351852e-04
1.558000000000000000e+03 3.206618118286132812e+01 1.550281143188476562e+01 -3.742355154827237129e-03 -7.377624977380037308e-03 -3.335993969812989235e-03 6.143366452306509018e-03
1.559000000000000000e+03 2.112353515625000000e+01 2.220119476318359375e+01 -2.700113132596015930e-02 -9.926871862262487411e-04 -8.398145437240600586e-03 -1.314485911279916763e-03
1.560000000000000000e+03 2.027442741394042969e+01 2.263075828552246094e+01 -1.993838883936405182e-02 -1.191152332467027009e-04 -6.017250940203666687e-03 1.231172238476574421e-03
1.561000000000000000e+03 3.494206237792968750e+01 3.052863121032714844e+00 1.671166828600689769e-04 -2.906247391365468502e-04 -3.705242124851793051e-05 2.283832000102847815e-04
1.562000000000000000e+03 3.355624008178710938e+01 3.296461820602416992e+00 -4.336348793003708124e-04 5.908421735512092710e-05 -1.123651964007876813e-04 1.991085628105793148e-05
1.563000000000000000e+03 1.373887538909912109e+01 1.665429687500000000e+01 -7.941180228954181075e-05 3.686394775286316872e-04 8.676830475451424718e-05 1.550839224364608526e-04
1.564000000000000000e+03 1.988423538208007812e+01 5.340175151824951172e+00 -1.751044692355208099e-06 -2.844299729076738004e-07 -6.106423597884713672e-07 7.439267619702150114e-07
1.565000000000000000e+03 2.782671928405761719e+01 2.160196113586425781e+01 -3.965684026479721069e-02 -1.434327661991119385e-02 -1.620003581047058105e-02 1.950086839497089386e-02
1.566000000000000000e+03 2.766052627563476562e+01 2.235326957702636719e+01 -3.134520351886749268e-02 -1.296625658869743347e-02 -1.329343765974044800e-02 1.590372435748577118e-02
1.567000000000000000e+03 1.780183410644531250e+01 7.990571022033691406e+00 -1.658341170696076006e-05 -6.789272447349503636e-06 -7.011805337242549285e-06 -1.314112159889191389e-05
1.568000000000000000e+03 3.191134071350097656e+01 1.647697448730468750e+01 -6.409294903278350830e-03 -1.023745164275169373e-02 -4.994024056941270828e-03 8.964456617832183838e-03
1.569000000000000000e+03 3.186655616760253906e+01 1.454457187652587891e+01 -1.477332669310271740e-03 -5.757783539593219757e-03 -2.170534804463386536e-03 2.920167520642280579e-03
1.570000000000000000e+03 3.308561706542968750e+01 9.782537460327148438e+00 -2.436524082440882921e-04 9.048006613738834858e-04 1.983444672077894211e-04 -2.474161447025835514e-04
1.571000000000000000e+03 3.296242904663085938e+01 1.284617710113525391e+01 -9.497311548329889774e-04 -1.518346136435866356e-03 -7.404232164844870567e-04 1.806312124244868755e-03
1.572000000000000000e+03 3.062772941589355469e+01 1.941912269592285156e+01 -2.248286083340644836e-02 -1.874390244483947754e-02 -1.236802898347377777e-02 1.884876564145088196e-02
1.573000000000000000e+03 3.414529418945312500e+01 7.562391281127929688e+00 8.605592302046716213e-05 2.668990637175738811e-04 1.058864945662207901e-04 -2.412058383924886584e-04
1.574000000000000000e+03 3.034470176696777344e+01 1.969761276245117188e+01 -2.588186226785182953e-02 -2.037624269723892212e-02 -1.387743186205625534e-02 2.037244476377964020e-02
1.575000000000000000e+03 3.395726394653320312e+01 9.693135261535644531e+00 2.001517859753221273e-04 4.059087077621370554e-04 1.818181481212377548e-04 -3.039955627173185349e-04
1.576000000000000000e+03 1.349015140533447266e+01 1.273748016357421875e+01 2.972132460854481906e-05 1.388530654367059469e-04 5.057231828686781228e-05 6.438517448259517550e-05
1.577000000000000000e+03 3.366196823120117188e+01 9.994870185852050781e+00 -1.142480541602708399e-04 -6.916918209753930569e-05 -5.502517160493880510e-05 1.985022972803562880e-04
1.578000000000000000e+03 3.324286270141601562e+01 7.744954109191894531e+00 1.639398542465642095e-04 5.300447228364646435e-04 2.081953716697171330e-04 -6.822661089245229959e-05
1.579000000000000000e+03 3.431200027465820312e+01 8.875465393066406250e+00 -2.519406261853873730e-04 -2.901757834479212761e-04 -1.626349258003756404e-04 -7.583154911117162555e-06
1.580000000000000000e+03 1.468823719024658203e+01 1.198640918731689453e+01 -4.371320028440095484e-05 1.296802511205896735e-04 2.579011379566509277e-05 8.493969289702363312e-06
1.581000000000000000e+03 3.136936950683593750e+01 1.686170959472656250e+01 -6.093993317335844040e-03 -1.445777714252471924e-02 -6.165530998259782791e-03 9.606015868484973907e-03
1.582000000000000000e+03 1.899936485290527344e+01 2.245806312561035156e+01 -1.427668426185846329e-02 -3.476508427411317825e-04 -4.387300461530685425e-03 1.477227342547848821e-04
1.583000000000000000e+03 1.844099044799804688e+01 2.291340065002441406e+01 -1.250168401747941971e-02 -2.514519146643579006e-04 -3.825940890237689018e-03 1.533920643851161003e-03
1.584000000000000000e+03 3.413177490234375000e+01 4.217008113861083984e+00 2.456068759784102440e-04 3.711727913469076157e-05 8.481724944431334734e-05 1.095406769309192896e-04
1.585000000000000000e+03 2.449182128906250000e+01 2.287561035156250000e+01 -3.018611855804920197e-02 -4.866117611527442932e-03 -1.051567029207944870e-02 1.009919121861457825e-02
1.586000000000000000e+03 1.942113304138183594e+01 2.253621864318847656e+01 -1.586614176630973816e-02 -1.770704839145764709e-04 -4.812963306903839111e-03 1.996180799324065447e-04
1.587000000000000000e+03 3.099453735351562500e+01 1.810338020324707031e+01 -1.213308423757553101e-02 -1.880532875657081604e-02 -9.281523525714874268e-03 1.411547418683767319e-02
1.588000000000000000e+03 2.038314437866210938e+01 5.017572402954101562e+00 -8.142261322063859552e-06 4.704498678620439023e-06 -1.031328906719863880e-06 -2.195639581259456463e-06
1.589000000000000000e+03 2.697194290161132812e+01 2.190043067932128906e+01 -3.910513967275619507e-02 -8.109514601528644562e-03 -1.416439563035964966e-02 1.618415117263793945e-02
1.590000000000000000e+03 2.675672721862792969e+01 2.265208816528320312e+01 -3.136422485113143921e-02 -9.186093695461750031e-03 -1.216509565711021423e-02 1.422553509473800659e-02
1.591000000000000000e+03 1.512740421295166016e+01 2.095777130126953125e+01 -3.780325641855597496e-03 5.643542390316724777e-04 -9.647913975641131401e-04 -5.608080537058413029e-04
1.592000000000000000e+03 1.507657814025878906e+01 1.024517726898193359e+01 3.559638571459800005e-05 6.431956717278808355e-05 2.997478623001370579e-05 1.461515876144403592e-05
1.593000000000000000e+03 1.539333629608154297e+01 1.082648468017578125e+01 3.425703107495792210e-05 7.394010754069313407e-05 3.245914194849319756e-05 2.005214264499954879e-05
1.594000000000000000e+03 3.281222915649414062e+01 1.216109180450439453e+01 -8.028218871913850307e-05 -7.527500274591147900e-04 -2.499096735846251249e-04 8.709435351192951202e-04
1.595000000000000000e+03 2.655525779724121094e+01 2.202061271667480469e+01 -3.783400356769561768e-02 -7.474060636013746262e-03 -1.359241921454668045e-02 1.427343767136335373e-02
1.596000000000000000e+03 1.369417095184326172e+01 1.851131629943847656e+01 -4.118226934224367142e-05 2.711660636123269796e-04 6.899514119140803814e-05 1.901375981105957180e-05
1.597000000000000000e+03 3.313925933837890625e+01 1.391597080230712891e+01 -3.345193807035684586e-03 -2.854460617527365685e-03 -1.859896350651979446e-03 4.116243682801723480e-03
1.598000000000000000e+03 2.152651214599609375e+01 2.223080635070800781e+01 -3.139670193195343018e-02 -1.005008351057767868e-03 -9.720513597130775452e-03 1.959901856025680900e-04
1.599000000000000000e+03 1.681424522399902344e+01 7.698890209197998047e+00 1.372705628455150872e-05 1.593336310179438442e-05 8.898125088308006525e-06 1.358119152428116649e-05
1.600000000000000000e+03 3.118374443054199219e+01 1.771047401428222656e+01 -1.038150396198034286e-02 -1.713280007243156433e-02 -8.254291489720344543e-03 1.293208450078964233e-02
1.601000000000000000e+03 3.120723533630371094e+01 1.873327827453613281e+01 -1.721761934459209442e-02 -1.530103012919425964e-02 -9.755594655871391296e-03 1.564769819378852844e-02
1.602000000000000000e+03 2.153844070434570312e+01 2.270936775207519531e+01 -2.603957243263721466e-02 -2.915937919169664383e-03 -8.686653338372707367e-03 3.678167471662163734e-03
1.603000000000000000e+03 3.409497070312500000e+01 6.711378097534179688e+00 -1.207456953125074506e-04 3.633732194430194795e-05 -2.532251164666377008e-05 -1.508715795353055000e-04
1.604000000000000000e+03 3.419116973876953125e+01 7.113937377929687500e+00 1.643221330596134067e-04 1.821954647311940789e-04 1.039552735164761543e-04 -2.029140450758859515e-04
1.605000000000000000e+03 3.409221649169921875e+01 5.059429168701171875e+00 1.936360204126685858e-04 5.500898259924724698e-05 7.459350308636203408e-05 1.385573978041065857e-05
1.606000000000000000e+03 3.436017227172851562e+01 5.669537544250488281e+00 -2.134897804353386164e-04 -3.797840327024459839e-05 -7.544045365648344159e-05 -1.455776441616762895e-07
1.607000000000000000e+03 3.401237106323242188e+01 5.442906379699707031e+00 -5.261374462861567736e-05 1.467845431761816144e-04 2.825123738148249686e-05 -2.292652206961065531e-04
1.608000000000000000e+03 2.983439636230468750e+01 1.983226966857910156e+01 -2.937334217131137848e-02 -2.604701370000839233e-02 -1.662610657513141632e-02 2.403588779270648956e-02
1.609000000000000000e+03 1.673313140869140625e+01 2.177093315124511719e+01 -7.437610533088445663e-03 -1.376730942865833640e-04 -2.272585174068808556e-03 -5.188226932659745216e-04
1.610000000000000000e+03 1.373659420013427734e+01 1.409271907806396484e+01 -3.371859565959312022e-05 2.063088613795116544e-04 5.177707862458191812e-05 1.113766411435790360e-04
1.611000000000000000e+03 1.578516483306884766e+01 2.103101348876953125e+01 -4.234935622662305832e-03 -2.419012162135913968e-05 -1.277737785130739212e-03 -8.243884076364338398e-04
1.612000000000000000e+03 1.418989944458007812e+01 1.453039550781250000e+01 -3.688953438540920615e-05 3.279468510299921036e-04 8.731719572097063065e-05 5.776991747552528977e-05
1.613000000000000000e+03 3.420191955566406250e+01 3.333029031753540039e+00 2.567106275819242001e-04 -1.086249467334710062e-04 4.442570570972748101e-05 1.126314091379754245e-04
1.614000000000000000e+03 2.069212150573730469e+01 2.319440269470214844e+01 -2.015488035976886749e-02 -1.529511879198253155e-03 -6.505317520350217819e-03 4.255885258316993713e-03
1.615000000000000000e+03 1.483668041229248047e+01 2.041121864318847656e+01 -2.235613530501723289e-03 5.887054139748215675e-04 -4.940724465996026993e-04 -7.099928916431963444e-04
1.616000000000000000e+03 2.905256462097167969e+01 2.090413284301757812e+01 -3.993627801537513733e-02 -2.323820255696773529e-02 -1.895234547555446625e-02 2.016492933034896851e-02
1.617000000000000000e+03 2.276095390319824219e+01 2.265244674682617188e+01 -3.029071167111396790e-02 -2.405323786661028862e-03 -9.808811359107494354e-03 5.491409450769424438e-03
1.618000000000000000e+03 2.235730552673339844e+01 2.266167259216308594e+01 -2.884579263627529144e-02 -3.341856645420193672e-03 -9.656294248998165131e-03 4.568138159811496735e-03
1.619000000000000000e+03 2.936033821105957031e+01 2.056298446655273438e+01 -3.848740831017494202e-02 -2.420237474143505096e-02 -1.880693435668945312e-02 2.187119796872138977e-02
1.620000000000000000e+03 2.860067939758300781e+01 2.194002151489257812e+01 -3.101322613656520844e-02 -1.748182997107505798e-02 -1.454851683229207993e-02 1.526775397360324860e-02
1.621000000000000000e+03 1.611663818359375000e+01 2.186793518066406250e+01 -6.637147162109613419e-03 5.005879211239516735e-04 -1.840967684984207153e-03 1.044381424435414374e-04
1.622000000000000000e+03 1.680120086669921875e+01 2.219083023071289062e+01 -8.413494564592838287e-03 5.451167453429661691e-05 -2.507694764062762260e-03 2.980801218654960394e-04
1.623000000000000000e+03 2.980370521545410156e+01 2.086549186706542969e+01 -3.299337625503540039e-02 -1.802707649767398834e-02 -1.530613563954830170e-02 1.547864917665719986e-02
1.624000000000000000e+03 3.004192352294921875e+01 2.042194938659667969e+01 -3.213843330740928650e-02 -1.854803599417209625e-02 -1.520594023168087006e-02 1.792664267122745514e-02
1.625000000000000000e+03 1.415675830841064453e+01 1.958760070800781250e+01 -6.074849516153335571e-04 3.200136416126042604e-04 -8.624138718005269766e-05 -5.441809189505875111e-04
1.626000000000000000e+03 3.343350601196289062e+01 2.865450382232666016e+00 4.225472512189298868e-04 1.275866907235467806e-05 1.305917830904945731e-04 -1.163744600489735603e-04
1.627000000000000000e+03 3.435124206542968750e+01 2.875853300094604492e+00 -1.010038249660283327e-04 2.838362706825137138e-04 5.484973007696680725e-05 -2.759381022769957781e-04
1.628000000000000000e+03 2.441585350036621094e+01 2.240916824340820312e+01 -3.308600932359695435e-02 -3.804091364145278931e-03 -1.106703095138072968e-02 9.552739560604095459e-03
1.629000000000000000e+03 1.439177989959716797e+01 2.035316276550292969e+01 -1.818261807784438133e-03 3.946832730434834957e-04 -4.270735662430524826e-04 -5.033279885537922382e-04
1.630000000000000000e+03 3.531739425659179688e+01 -1.342197656631469727e+00 -2.118164598941802979e-01 1.828703656792640686e-02 -5.805882811546325684e-02 1.436822712421417236e-01
1.631000000000000000e+03 3.509047698974609375e+01 2.609978914260864258e+00 -1.387664960930123925e-04 2.729453262872993946e-04 4.025364614790305495e-05 -1.723064488032832742e-04
1.632000000000000000e+03 1.346132946014404297e+01 1.956808853149414062e+01 -9.470048826187849045e-04 1.662179565755650401e-04 -2.342360676266252995e-04 -4.506208933889865875e-04
1.633000000000000000e+03 1.429404735565185547e+01 1.899091148376464844e+01 -7.758811261737719178e-05 5.613906541839241982e-04 1.451407588319852948e-04 -1.699620625004172325e-04
1.634000000000000000e+03 2.122134590148925781e+01 4.939735889434814453e+00 2.738055172812892124e-06 1.026996051223250106e-05 3.902404841937823221e-06 6.942595973669085652e-07
1.635000000000000000e+03 7.685712432861328125e+01 -1.942757797241210938e+01 -7.903675395937170833e-06 -9.539196071273181587e-06 -5.232861440163105726e-06 -2.527560809539863840e-06
1.636000000000000000e+03 7.617861938476562500e+01 -1.925940132141113281e+01 7.190738870122004300e-06 -1.312265430897241458e-05 -1.779574631655123085e-06 5.958152087259804830e-06
1.637000000000000000e+03 2.121726989746093750e+01 4.057559967041015625e+00 -4.259369688952574506e-06 -6.878319709358038381e-06 -3.341306637594243512e-06 -3.246891765229520388e-06
1.638000000000000000e+03 7.805638885498046875e+01 -1.363705539703369141e+01 -1.668373867869377136e-02 -1.525124348700046539e-02 -9.580494835972785950e-03 -1.610071957111358643e-02
1.639000000000000000e+03 7.746342468261718750e+01 -1.316387844085693359e+01 -3.018047474324703217e-02 -2.401129715144634247e-02 -1.625753194093704224e-02 -3.050590306520462036e-02
1.640000000000000000e+03 7.284838104248046875e+01 -1.893297576904296875e+01 -2.432503151794662699e-06 -3.735916106961667538e-05 -1.193749903904972598e-05 2.807958935591159388e-06
1.641000000000000000e+03 7.416592407226562500e+01 -1.968885231018066406e+01 6.396624667104333639e-05 3.143653520965017378e-05 2.862083601939957589e-05 6.241175924515118822e-06
1.642000000000000000e+03 1.915388488769531250e+01 2.779776811599731445e+00 -1.821201522034243681e-06 -4.491645995585713536e-06 -1.893854232548619621e-06 -5.447836315397580620e-07
1.643000000000000000e+03 1.782445716857910156e+01 3.238169431686401367e+00 3.854779606626834720e-06 4.683625775214750320e-06 2.561521569077740423e-06 -2.911769456659385469e-07
1.644000000000000000e+03 2.300269126892089844e+01 -3.072912454605102539e+00 -7.768138051033020020e-01 2.083726227283477783e-01 -1.705323606729507446e-01 7.372950762510299683e-02
1.645000000000000000e+03 3.926958465576171875e+01 -3.428467750549316406e+00 2.331439405679702759e-01 -1.446270197629928589e-01 2.655507437884807587e-02 1.222017556428909302e-01
1.646000000000000000e+03 3.410326766967773438e+01 -2.230295181274414062e+00 -3.174773156642913818e-01 -3.848377987742424011e-02 -1.067883297801017761e-01 3.407390713691711426e-01
1.647000000000000000e+03 7.694187927246093750e+01 -1.401863288879394531e+01 -2.406046353280544281e-02 -1.084367930889129639e-02 -1.047124247997999191e-02 -2.020167373120784760e-02
1.648000000000000000e+03 1.499032974243164062e+01 3.121636629104614258e+00 6.714027676935074851e-06 7.303922302526189014e-06 4.205384811939438805e-06 4.101786089449888095e-06
1.649000000000000000e+03 6.981710052490234375e+01 -1.396392917633056641e+01 -2.184208035469055176e-01 2.332331053912639618e-02 -5.852925032377243042e-02 4.588287323713302612e-03
1.650000000000000000e+03 3.751616668701171875e+01 -1.622084426879882812e+01 6.727858362864935771e-06 -3.917869471479207277e-04 -1.155177233158610761e-04 9.092535765375941992e-05
1.651000000000000000e+03 3.683034133911132812e+01 -1.456787014007568359e+01 4.442686040420085192e-04 -3.902668686350807548e-05 1.215725715155713260e-04 2.752047730609774590e-04
1.652000000000000000e+03 3.609259414672851562e+01 -1.657972908020019531e+01 -4.101661324966698885e-04 1.345955533906817436e-04 -8.267117664217948914e-05 1.238400291185826063e-04
1.653000000000000000e+03 6.937281799316406250e+01 -1.314592552185058594e+01 -3.340217173099517822e-01 5.040524899959564209e-02 -8.508493751287460327e-02 -7.566312793642282486e-03
1.654000000000000000e+03 1.983049774169921875e+01 2.871969461441040039e+00 2.464666522428160533e-06 4.353402800916228443e-06 2.045420842478051782e-06 -2.985850855452554242e-08
1.655000000000000000e+03 7.103220367431640625e+01 -2.044707679748535156e+01 4.377481309347786009e-05 4.501502189668826759e-05 2.663695158844348043e-05 2.933697032858617604e-05
1.656000000000000000e+03 3.786266326904296875e+01 -1.567157459259033203e+01 9.226924157701432705e-05 -1.100871377275325358e-04 -5.345368208509171382e-06 6.498199945781379938e-05
1.657000000000000000e+03 4.004616546630859375e+01 -1.714703941345214844e+01 -6.521058094222098589e-05 -2.607649075798690319e-04 -9.779264655662700534e-05 4.584731141221709549e-05
1.658000000000000000e+03 1.345825672149658203e+01 2.482841968536376953e+00 1.684338144514185842e-06 -4.307748895371332765e-06 -7.870231684137252159e-07 5.401389898906927556e-06
1.659000000000000000e+03 1.208514976501464844e+01 3.131000757217407227e+00 1.270593656954588369e-05 5.603843419521581382e-06 5.492934178619179875e-06 5.919274826737819239e-06
1.660000000000000000e+03 1.712583541870117188e+01 3.207454919815063477e+00 -3.041251147806178778e-06 -1.629303937988879625e-06 -1.401166514369833749e-06 1.144105794992356095e-06
1.661000000000000000e+03 1.706059265136718750e+01 2.612803220748901367e+00 3.722619112522806972e-06 5.856065399711951613e-06 2.873605353670427576e-06 6.180239893183170352e-07
1.662000000000000000e+03 1.851235008239746094e+01 3.271081447601318359e+00 -1.803080976969795302e-06 -3.034068868146277964e-06 -1.451144953534821980e-06 2.680681063793599606e-07
1.663000000000000000e+03 4.125191879272460938e+01 -1.800977897644042969e+01 -2.393126196693629026e-04 -3.445431357249617577e-04 -1.751567178871482611e-04 3.099336463492363691e-04
1.664000000000000000e+03 4.187145996093750000e+01 -1.829220008850097656e+01 7.007166459516156465e-06 -4.052818694617599249e-04 -1.194824071717448533e-04 -3.424645401537418365e-04
1.665000000000000000e+03 7.576963043212890625e+01 -1.999010658264160156e+01 2.988096275657881051e-05 5.864575359737500548e-05 2.655801472428720444e-05 1.163767501566326246e-05
1.666000000000000000e+03 3.661229324340820312e+01 3.988892555236816406e+00 2.356330660404637456e-04 2.868463052436709404e-04 1.567438157508149743e-04 -2.208193909609690309e-04
1.667000000000000000e+03 3.800053024291992188e+01 -1.744840049743652344e+01 3.558920288924127817e-04 4.547262506093829870e-05 1.204093932756222785e-04 2.813338069245219231e-04
1.668000000000000000e+03 1.427120876312255859e+01 3.108702421188354492e+00 -4.530210730990802404e-07 -2.128884034391376190e-06 -7.745715606688463595e-07 5.182087534194579348e-06
1.669000000000000000e+03 1.418746852874755859e+01 2.492706060409545898e+00 6.745452537870733067e-06 7.204217581602279097e-06 4.184901172266108915e-06 4.241638180246809497e-06
1.670000000000000000e+03 1.570612430572509766e+01 3.145134210586547852e+00 -2.536161218813504092e-06 -1.161562749985023402e-06 -1.109317167902190704e-06 2.763141992545570247e-06
1.671000000000000000e+03 7.474565124511718750e+01 -1.959931564331054688e+01 -5.359711963137669954e-07 -2.185752782679628581e-05 -6.718049462506314740e-06 2.124985257978551090e-05
1.672000000000000000e+03 3.416053771972656250e+01 3.788603305816650391e+00 -2.193913096562027931e-04 2.487330311851110309e-05 -5.835539923282340169e-05 -1.745674671838060021e-04
1.673000000000000000e+03 4.329536819458007812e+01 -1.842603874206542969e+01 -1.624453725526109338e-04 3.254112671129405499e-04 4.888976400252431631e-05 4.203070056973956525e-05
1.674000000000000000e+03 4.275000762939453125e+01 -1.799422454833984375e+01 -5.827438144478946924e-06 -4.045300011057406664e-04 -1.231072383234277368e-04 -4.001625929959118366e-04
1.675000000000000000e+03 4.063579940795898438e+01 -1.761181259155273438e+01 -2.971455978695303202e-04 -2.906922309193760157e-04 -1.763513428159058094e-04 1.188601618196116760e-05
1.676000000000000000e+03 1.134769439697265625e+01 3.148691654205322266e+00 5.690669240721035749e-06 -6.709070930810412392e-06 -3.055205013424711069e-07 8.766970495344139636e-06
1.677000000000000000e+03 1.281740951538085938e+01 3.116482496261596680e+00 2.794588226606720127e-06 -4.214708951622014865e-06 -4.260361947672208771e-07 7.949724022182635963e-06
1.678000000000000000e+03 1.060637760162353516e+01 3.165030241012573242e+00 1.745025474519934505e-05 2.793475232465425506e-06 6.073118584026815370e-06 4.380770405987277627e-06
1.679000000000000000e+03 7.636148929595947266e+00 3.221341371536254883e+00 2.203106123488396406e-05 1.026605900733557064e-06 6.917300197528675199e-06 -4.941571660310728475e-06
1.680000000000000000e+03 3.491237640380859375e+01 -7.456408977508544922e+00 2.227124720811843872e-01 -2.386208623647689819e-01 -4.772515967488288879e-03 3.494266569614410400e-01
1.681000000000000000e+03 1.053241157531738281e+01 -4.029198646545410156e+00 -5.531079173088073730e-01 4.453558847308158875e-02 -1.525717079639434814e-01 -4.611142575740814209e-01
1.682000000000000000e+03 1.045018291473388672e+01 -3.323107481002807617e+00 -6.671369671821594238e-01 2.528703212738037109e-02 -1.925549656152725220e-01 -4.245099425315856934e-01
1.683000000000000000e+03 4.607373428344726562e+01 -1.282459926605224609e+01 -6.932114362716674805e-01 2.116371393203735352e-01 -1.444722861051559448e-01 3.741097748279571533e-01
1.684000000000000000e+03 4.541270446777343750e+01 -1.246010303497314453e+01 -6.080062389373779297e-01 1.351966708898544312e-01 -1.418428719043731689e-01 3.727836906909942627e-01
1.685000000000000000e+03 4.682640457153320312e+01 -1.309474754333496094e+01 -7.977105975151062012e-01 2.135459631681442261e-01 -1.752493977546691895e-01 3.603333234786987305e-01
1.686000000000000000e+03 7.501982879638671875e+01 -1.295740032196044922e+01 -9.117178618907928467e-02 -1.488158013671636581e-02 -3.181600943207740784e-02 -6.794522702693939209e-02
1.687000000000000000e+03 7.428505706787109375e+01 -1.283971309661865234e+01 -1.110274866223335266e-01 -6.172057241201400757e-03 -3.515986353158950806e-02 -7.418198138475418091e-02
1.688000000000000000e+03 7.628922271728515625e+01 -1.244742298126220703e+01 -4.837705940008163452e-02 -3.615332022309303284e-02 -2.535911276936531067e-02 -6.044898554682731628e-02
1.689000000000000000e+03 7.564039611816406250e+01 -1.284982776641845703e+01 -7.484459877014160156e-02 -2.416058257222175598e-02 -2.970155328512191772e-02 -6.362614035606384277e-02
1.690000000000000000e+03 1.516564178466796875e+01 -3.312238454818725586e+00 -8.585388660430908203e-01 6.874396651983261108e-02 -2.369384616613388062e-01 -1.921700239181518555e-01
1.691000000000000000e+03 9.650843620300292969e+00 -2.633676528930664062e+00 -7.208171486854553223e-01 3.295225556939840317e-03 -2.152565717697143555e-01 -3.781353831291198730e-01
1.692000000000000000e+03 7.501736640930175781e+00 2.529004573822021484e+00 8.041705768846441060e-06 -9.489911462878808379e-06 -4.344618957929924363e-07 6.132285648163815495e-07
1.693000000000000000e+03 6.905408859252929688e+00 3.246963024139404297e+00 7.671530511288437992e-06 -1.113597500079777092e-05 -1.039333142216491979e-06 -6.335454116879191133e-08
1.694000000000000000e+03 9.120045661926269531e+00 3.188806533813476562e+00 2.110307104885578156e-05 1.042272060658433475e-06 6.643603228440042585e-06 1.229310100825387053e-06
1.695000000000000000e+03 8.377222061157226562e+00 3.202172517776489258e+00 9.460998626309446990e-06 -1.178335969598265365e-05 -6.967082981645944528e-07 2.841382865881314501e-06
1.696000000000000000e+03 5.472570896148681641e+00 3.368005990982055664e+00 6.817738267272943631e-06 -6.512992513307835907e-06 9.142365797742968425e-08 -8.970262683760665823e-07
1.697000000000000000e+03 4.759520530700683594e+00 3.509799003601074219e+00 1.519751458545215428e-05 -3.003000514922860020e-08 4.550245193968294188e-06 -1.647871249588206410e-05
1.698000000000000000e+03 3.750813484191894531e+00 2.915272235870361328e+00 8.864040864864364266e-06 4.197573161945911124e-06 3.918484253517817706e-06 -1.057263216353021562e-05
1.699000000000000000e+03 4.402221679687500000e+00 4.417731285095214844e+00 7.115493644960224628e-06 -3.324390036141267046e-06 1.137330968958849553e-06 -2.859611413441598415e-05
1.700000000000000000e+03 6.187997341156005859e+00 3.288044214248657227e+00 2.162690361728891730e-05 1.740479433465225156e-06 7.010214631009148434e-06 -1.102171518141403794e-05
1.701000000000000000e+03 6.358320713043212891e+00 3.979030847549438477e+00 7.101407845766516402e-06 -1.350848378933733329e-05 -1.922122919495450333e-06 -1.977931560759316199e-06
1.702000000000000000e+03 9.863420486450195312e+00 3.177772998809814453e+00 7.715008905506692827e-06 -9.337094525108113885e-06 -4.866256517743750010e-07 6.650886462011840194e-06
1.703000000000000000e+03 5.705604076385498047e+00 -2.747517585754394531e+00 -3.339089155197143555e-01 -5.840583145618438721e-02 -1.176944300532341003e-01 -3.347300887107849121e-01
1.704000000000000000e+03 6.456437110900878906e+00 -3.705563306808471680e+00 -3.292006254196166992e-01 -7.248761504888534546e-02 -1.205064803361892700e-01 -4.380160570144653320e-01
1.705000000000000000e+03 3.535088300704956055e+00 -2.901885986328125000e+00 -1.603435128927230835e-01 -1.034816801548004150e-01 -7.914756238460540771e-02 -2.401787340641021729e-01
1.706000000000000000e+03 5.602964878082275391e+00 -3.600462675094604492e+00 -2.746919691562652588e-01 -9.602923691272735596e-02 -1.112163588404655457e-01 -4.001543223857879639e-01
1.707000000000000000e+03 4.798282623291015625e+00 -3.462476968765258789e+00 -2.226444035768508911e-01 -1.127154305577278137e-01 -1.006079539656639099e-01 -3.503874242305755615e-01
1.708000000000000000e+03 3.071826696395874023e+00 -2.390475749969482422e+00 -1.396845132112503052e-01 -7.920968532562255859e-02 -6.566825509071350098e-02 -1.849032938480377197e-01
1.709000000000000000e+03 4.175063610076904297e+00 -2.631096601486206055e+00 -2.105998992919921875e-01 -7.686498016119003296e-02 -8.623946458101272583e-02 -2.558194398880004883e-01
1.710000000000000000e+03 5.416250705718994141e+00 -4.464188575744628906e+00 -2.131552845239639282e-01 -1.397499144077301025e-01 -1.058715581893920898e-01 -4.447352588176727295e-01
1.711000000000000000e+03 7.515991687774658203e+00 -4.435997009277343750e+00 -3.301976621150970459e-01 -5.526435002684593201e-02 -1.156385987997055054e-01 -5.026782155036926270e-01
1.712000000000000000e+03 8.150768280029296875e+00 -3.524750471115112305e+00 -4.734773039817810059e-01 -2.155271545052528381e-02 -1.485090106725692749e-01 -4.538571238517761230e-01
1.713000000000000000e+03 8.937123298645019531e+00 -3.451120138168334961e+00 -5.452948212623596191e-01 -2.513112500309944153e-03 -1.643423885107040405e-01 -4.498439729213714600e-01
1.714000000000000000e+03 4.442827606201171875e+01 -1.104161167144775391e+01 -3.415538370609283447e-01 2.602493949234485626e-02 -9.465867280960083008e-02 3.783203065395355225e-01
1.715000000000000000e+03 4.379015731811523438e+01 -1.071018409729003906e+01 -2.717571556568145752e-01 -3.228190913796424866e-02 -9.121171385049819946e-02 3.821049928665161133e-01
1.716000000000000000e+03 4.345109939575195312e+01 -1.133661746978759766e+01 -3.900321125984191895e-01 -6.941630691289901733e-02 -1.378345191478729248e-01 3.720262646675109863e-01
1.717000000000000000e+03 4.118714523315429688e+01 -1.071145153045654297e+01 -3.068763613700866699e-01 -2.817360758781433105e-01 -1.765837371349334717e-01 3.741029798984527588e-01
1.718000000000000000e+03 7.605162048339843750e+01 -2.063279914855957031e+01 7.881412784627173096e-07 -7.357836148003116250e-05 -2.183706601499579847e-05 -3.861552249873057008e-05
1.719000000000000000e+03 3.358649444580078125e+01 -2.947850942611694336e+00 -2.144562304019927979e-01 -8.346592634916305542e-02 -8.937664330005645752e-02 4.070796668529510498e-01
1.720000000000000000e+03 3.090869712829589844e+01 -1.954960227012634277e+00 -7.671849131584167480e-01 8.014997839927673340e-02 -2.061104774475097656e-01 3.181963264942169189e-01
1.721000000000000000e+03 3.189619255065917969e+01 -2.860917329788208008e+00 -4.205974042415618896e-01 -1.207834668457508087e-02 -1.298027336597442627e-01 4.063039422035217285e-01
1.722000000000000000e+03 3.799835205078125000e+01 -1.295143961906433105e+00 1.144325826317071915e-02 -2.728175558149814606e-02 -4.751549102365970612e-03 5.320820212364196777e-02
1.723000000000000000e+03 4.476554107666015625e+01 -1.208584117889404297e+01 -5.448666810989379883e-01 7.911065965890884399e-02 -1.397268027067184448e-01 3.748275339603424072e-01
1.724000000000000000e+03 4.410466384887695312e+01 -1.172197723388671875e+01 -4.584850668907165527e-01 6.344992667436599731e-03 -1.356420218944549561e-01 3.798921108245849609e-01
1.725000000000000000e+03 1.734659004211425781e+01 -3.913333415985107422e+00 -6.779729127883911133e-01 1.266158819198608398e-01 -1.654071062803268433e-01 -2.123368158936500549e-02
1.726000000000000000e+03 1.826649856567382812e+01 -3.230999469757080078e+00 -8.151588439941406250e-01 9.028629958629608154e-02 -2.174617648124694824e-01 2.024168334901332855e-02
1.727000000000000000e+03 1.194382572174072266e+01 -3.319585561752319336e+00 -7.687629461288452148e-01 4.851916432380676270e-02 -2.160731405019760132e-01 -3.784950673580169678e-01
1.728000000000000000e+03 1.272021770477294922e+01 -3.366407394409179688e+00 -7.917564511299133301e-01 6.361569464206695557e-02 -2.184422314167022705e-01 -3.371050059795379639e-01
1.729000000000000000e+03 3.611837387084960938e+01 -2.777331590652465820e+00 -3.394808992743492126e-02 -7.748121023178100586e-02 -3.342878818511962891e-02 2.526107728481292725e-01
1.730000000000000000e+03 3.364933013916015625e+01 -6.534341335296630859e+00 3.030377924442291260e-01 -2.104143649339675903e-01 2.778702415525913239e-02 4.293655455112457275e-01
1.731000000000000000e+03 7.180758666992187500e+01 -1.305237770080566406e+01 -2.022468596696853638e-01 2.689632587134838104e-02 -5.260515958070755005e-02 -7.188291847705841064e-02
1.732000000000000000e+03 7.258171081542968750e+01 -1.292203330993652344e+01 -1.812499165534973145e-01 2.328675240278244019e-02 -4.738895222544670105e-02 -6.936501711606979370e-02
1.733000000000000000e+03 7.110034179687500000e+01 -1.319228267669677734e+01 -2.386129349470138550e-01 4.374938830733299255e-02 -5.845906585454940796e-02 -4.183230176568031311e-02
1.734000000000000000e+03 3.998678588867187500e+01 -8.798420906066894531e+00 2.860917709767818451e-02 -3.126301765441894531e-01 -8.520629256963729858e-02 3.425199687480926514e-01
1.735000000000000000e+03 4.142142868041992188e+01 -8.824111938476562500e+00 4.680719226598739624e-02 -2.439608871936798096e-01 -5.914610624313354492e-02 3.288984000682830811e-01
1.736000000000000000e+03 1.591631317138671875e+01 -3.183386087417602539e+00 -8.967478275299072266e-01 7.550172507762908936e-02 -2.463738322257995605e-01 -1.452751159667968750e-01
1.737000000000000000e+03 7.047534942626953125e+01 -1.332169628143310547e+01 -2.382540553808212280e-01 3.535735607147216797e-02 -6.086901202797889709e-02 -3.641113638877868652e-02
1.738000000000000000e+03 3.882099533081054688e+01 -7.440275669097900391e+00 1.698762923479080200e-01 -3.112201392650604248e-01 -4.240315034985542297e-02 3.408160507678985596e-01
1.739000000000000000e+03 3.641273498535156250e+01 -7.623363494873046875e+00 1.416777968406677246e-01 -2.778388857841491699e-01 -4.084832593798637390e-02 3.628197312355041504e-01
1.740000000000000000e+03 3.770668792724609375e+01 3.868465185165405273e+00 9.287388093071058393e-05 2.658123266883194447e-04 1.076058615581132472e-04 1.789225461834575981e-05
1.741000000000000000e+03 3.784247589111328125e+01 5.246509075164794922e+00 4.263904702384024858e-04 4.042563086841255426e-04 2.491940394975244999e-04 -1.570301683386787772e-04
1.742000000000000000e+03 7.343486022949218750e+01 -1.282011127471923828e+01 -1.483574956655502319e-01 4.884917754679918289e-03 -4.304177314043045044e-02 -8.651386201381683350e-02
1.743000000000000000e+03 3.351624298095703125e+01 -7.147489547729492188e+00 3.574586808681488037e-01 -2.076471745967864990e-01 4.494345560669898987e-02 3.590608239173889160e-01
1.744000000000000000e+03 3.286973190307617188e+01 -6.939744949340820312e+00 4.237581491470336914e-01 -1.923312395811080933e-01 6.942807883024215698e-02 3.970593810081481934e-01
1.745000000000000000e+03 4.222128677368164062e+01 -1.046773052215576172e+01 -2.312865555286407471e-01 -1.977440118789672852e-01 -1.287091672420501709e-01 3.631279766559600830e-01
1.746000000000000000e+03 7.215525054931640625e+01 -1.971923828125000000e+01 -3.338927854201756418e-05 -4.431010893313214183e-05 -2.330981624254491180e-05 -2.460480209265369922e-05
1.747000000000000000e+03 3.494253921508789062e+01 -6.776233673095703125e+00 2.228066772222518921e-01 -2.462472319602966309e-01 -7.032164372503757477e-03 3.936311304569244385e-01
1.748000000000000000e+03 2.896884155273437500e+01 -6.705335617065429688e+00 8.452273607254028320e-01 3.181687891483306885e-01 3.490188419818878174e-01 4.628777801990509033e-01
1.749000000000000000e+03 2.793536949157714844e+01 -7.137591361999511719e+00 1.137935042381286621e+00 3.917967975139617920e-01 4.589195549488067627e-01 3.527448773384094238e-01
1.750000000000000000e+03 2.480328559875488281e+01 -3.354772090911865234e+00 -6.413415670394897461e-01 8.772521466016769409e-02 -1.660849004983901978e-01 3.168181329965591431e-02
1.751000000000000000e+03 3.894490814208984375e+01 -8.417527198791503906e+00 5.133146792650222778e-02 -3.243515789508819580e-01 -8.190602809190750122e-02 3.470766246318817139e-01
1.752000000000000000e+03 2.282226181030273438e+01 -1.231739282608032227e+00 -1.163048863410949707e+00 2.657686471939086914e-01 -2.691840827465057373e-01 1.554995924234390259e-01
1.753000000000000000e+03 2.155908203125000000e+01 -2.398788213729858398e+00 -9.547603130340576172e-01 1.952988058328628540e-01 -2.278384566307067871e-01 1.298823803663253784e-01
1.754000000000000000e+03 6.960292816162109375e+01 -2.039963531494140625e+01 1.019759874907322228e-04 8.666811481816694140e-05 5.659323142026551068e-05 6.171891436679288745e-05
1.755000000000000000e+03 6.934864044189453125e+01 -1.959308624267578125e+01 -1.364180352538824081e-04 8.445202183793298900e-06 -3.839184864773415029e-05 -2.165688783861696720e-05
1.756000000000000000e+03 2.574707412719726562e+01 -4.158853054046630859e+00 -2.733011841773986816e-01 4.051803424954414368e-02 -6.983494013547897339e-02 1.321293562650680542e-01
1.757000000000000000e+03 1.913565063476562500e+01 -3.118180513381958008e+00 -8.112101554870605469e-01 1.084342896938323975e-01 -2.108327597379684448e-01 6.180515512824058533e-02
1.758000000000000000e+03 4.398521041870117188e+01 -2.181032180786132812e+01 -1.934765256009995937e-03 -1.093455008231103420e-03 -9.084660559892654419e-04 8.767584222368896008e-04
1.759000000000000000e+03 2.351227569580078125e+01 -1.790475964546203613e+00 -1.152229785919189453e+00 2.797696590423583984e-01 -2.617380321025848389e-01 1.323510706424713135e-01
1.760000000000000000e+03 1.996947669982910156e+01 -2.876507043838500977e+00 -8.571344614028930664e-01 1.211572587490081787e-01 -2.207931727170944214e-01 9.324564039707183838e-02
1.761000000000000000e+03 2.076827239990234375e+01 -2.663172006607055664e+00 -9.042004942893981934e-01 1.482965350151062012e-01 -2.267711758613586426e-01 1.117475777864456177e-01
1.762000000000000000e+03 4.843819427490234375e+01 -1.517858505249023438e+01 -1.266304969787597656e+00 -4.029019549489021301e-02 -3.919785618782043457e-01 -1.647876389324665070e-02
1.763000000000000000e+03 4.963985443115234375e+01 -1.414423084259033203e+01 -1.208087325096130371e+00 7.637127488851547241e-02 -3.395148217678070068e-01 9.901480376720428467e-02
1.764000000000000000e+03 5.150833129882812500e+01 2.447569656372070312e+01 1.161076724529266357e-01 2.367497421801090240e-02 4.193479567766189575e-02 -9.081495553255081177e-02
1.765000000000000000e+03 6.233459854125976562e+01 2.288716316223144531e+00 4.169813692569732666e-01 8.737214803695678711e-01 3.872108459472656250e-01 3.089144825935363770e-01
1.766000000000000000e+03 4.460966110229492188e+01 -5.130940914154052734e+00 8.025298714637756348e-01 -4.250642377883195877e-03 2.394837588071823120e-01 -5.861026048660278320e-02
1.767000000000000000e+03 4.716685485839843750e+01 -7.634235382080078125e+00 6.424514651298522949e-01 1.641715914011001587e-01 2.419869154691696167e-01 3.467506170272827148e-01
1.768000000000000000e+03 6.272070693969726562e+01 8.102355003356933594e+00 2.502894699573516846e-01 1.733249783515930176e+00 5.950617790222167969e-01 3.902541995048522949e-01
1.769000000000000000e+03 1.395775890350341797e+01 -2.515425491333007812e+01 1.190209761261940002e-01 1.159757971763610840e+00 3.836337029933929443e-01 -1.825564205646514893e-01
1.770000000000000000e+03 6.732244110107421875e+01 -1.340122890472412109e+01 -3.380990624427795410e-01 -5.311579629778862000e-02 -1.173644512891769409e-01 8.060182631015777588e-02
1.771000000000000000e+03 5.387890243530273438e+01 2.491497421264648438e+01 1.682721376419067383e-01 8.494050800800323486e-02 7.596379518508911133e-02 -1.741515547037124634e-01
1.772000000000000000e+03 5.663098144531250000e+01 -1.197017669677734375e+01 -1.049118638038635254e+00 9.584352374076843262e-02 -2.859825491905212402e-01 -3.278474807739257812e-01
1.773000000000000000e+03 1.020679473876953125e+01 -1.731104087829589844e+01 5.288276672363281250e-01 8.444032073020935059e-01 4.119692742824554443e-01 6.001530215144157410e-03
1.774000000000000000e+03 2.058093643188476562e+01 -9.061264991760253906e+00 1.007115364074707031e+00 2.311419099569320679e-01 3.714771568775177002e-01 5.554600954055786133e-01
1.775000000000000000e+03 4.375101089477539062e+01 -2.438500404357910156e+01 -6.666641216725111008e-03 -8.946696761995553970e-04 -2.268393291160464287e-03 4.974673967808485031e-03
1.776000000000000000e+03 1.945433616638183594e+01 -9.163889884948730469e+00 8.687414526939392090e-01 4.059564769268035889e-01 3.824093937873840332e-01 4.981189370155334473e-01
1.777000000000000000e+03 6.576739501953125000e+01 -2.749407958984375000e+01 1.932354207383468747e-04 -4.293520396458916366e-05 4.509006248554214835e-05 9.274288458982482553e-05
1.778000000000000000e+03 7.065473937988281250e+01 -2.701296997070312500e+01 2.890350515372119844e-05 -1.605354336788877845e-04 -3.948957964894361794e-05 -1.015516318148002028e-04
1.779000000000000000e+03 6.350632095336914062e+01 -3.218595886230468750e+01 -3.638072812464088202e-04 -2.031532058026641607e-04 -1.700881548458710313e-04 4.467283724807202816e-04
1.780000000000000000e+03 3.612063598632812500e+01 4.397544384002685547e+00 -3.390559286344796419e-04 -1.813592243706807494e-04 -1.561245444463565946e-04 1.932849991135299206e-04
1.781000000000000000e+03 5.182073211669921875e+01 -1.277863788604736328e+01 -1.107783675193786621e+00 1.367227882146835327e-01 -2.913182675838470459e-01 3.133260086178779602e-02
1.782000000000000000e+03 5.071604156494140625e+01 -1.296062469482421875e+01 -1.042530894279479980e+00 1.612600982189178467e-01 -2.643812298774719238e-01 1.596692651510238647e-01
1.783000000000000000e+03 3.023755645751953125e+01 -7.466527462005615234e+00 1.207948327064514160e+00 8.533415943384170532e-02 3.879847228527069092e-01 4.013565778732299805e-01
1.784000000000000000e+03 2.168254280090332031e+01 -8.841666221618652344e+00 1.017868041992187500e+00 9.591594338417053223e-02 3.341351747512817383e-01 4.776192307472229004e-01
1.785000000000000000e+03 1.861614418029785156e+01 -3.149181175231933594e+01 -1.223918423056602478e-02 5.452404022216796875e-01 1.599003523588180542e-01 -2.091024816036224365e-01
1.786000000000000000e+03 6.674380493164062500e+01 -1.021467018127441406e+01 -6.775732040405273438e-01 -5.861680954694747925e-02 -2.208569943904876709e-01 -3.900038301944732666e-01
1.787000000000000000e+03 6.693318939208984375e+01 -1.190515041351318359e+01 -1.020019173622131348e+00 1.060277074575424194e-01 -2.741974592208862305e-01 -7.888046652078628540e-02
1.788000000000000000e+03 5.420494461059570312e+01 -1.246909904479980469e+01 -1.105315208435058594e+00 1.023007482290267944e-01 -3.009043633937835693e-01 -1.706661880016326904e-01
1.789000000000000000e+03 5.543437194824218750e+01 -1.225249958038330078e+01 -1.085031151771545410e+00 8.431535214185714722e-02 -3.002147376537322998e-01 -2.491903454065322876e-01
1.790000000000000000e+03 5.298695373535156250e+01 -1.262003231048583984e+01 -1.120914101600646973e+00 1.238328069448471069e-01 -2.991243898868560791e-01 -4.674185439944267273e-02
1.791000000000000000e+03 6.064173889160156250e+01 -1.223433876037597656e+01 -1.327876687049865723e+00 -9.352798573672771454e-03 -4.011688530445098877e-01 -4.764245748519897461e-01
1.792000000000000000e+03 6.541624450683593750e+01 1.991033172607421875e+01 3.249498009681701660e-01 9.675795435905456543e-01 3.877588212490081787e-01 1.058361679315567017e-02
1.793000000000000000e+03 7.842525482177734375e+01 -2.147116088867187500e+01 -4.624212670023553073e-05 -9.361777301819529384e-06 -1.668117147346492857e-05 -2.403926919214427471e-05
1.794000000000000000e+03 7.724140167236328125e+01 -2.286337280273437500e+01 -4.381388134788721800e-05 -1.258378233615076169e-05 -1.691929901426192373e-05 -2.625837623781990260e-05
1.795000000000000000e+03 7.727693176269531250e+01 -2.416797256469726562e+01 7.297570118680596352e-05 3.474762343103066087e-05 3.231699884054251015e-05 -2.120891622325871140e-05
1.796000000000000000e+03 7.724023437500000000e+01 -2.543337249755859375e+01 -4.818594970856793225e-05 1.383712697133887559e-05 -1.030464682116871700e-05 -4.024587542517110705e-05
1.797000000000000000e+03 7.573320770263671875e+01 -3.036938667297363281e+01 -1.753634933265857399e-05 2.749141458480153233e-05 2.986519575642887503e-06 -6.736882642144337296e-05
1.798000000000000000e+03 7.711153411865234375e+01 -2.667734146118164062e+01 7.680062844883650541e-05 5.633367982227355242e-05 3.994029248133301735e-05 -5.492417767527513206e-05
1.799000000000000000e+03 7.645679473876953125e+01 -3.364567947387695312e+01 -1.219789992319419980e-04 1.352151157334446907e-04 3.970837042288621888e-06 -7.824053318472579122e-05
1.800000000000000000e+03 7.687996673583984375e+01 -2.792343139648437500e+01 -5.068042810307815671e-05 2.930985647253692150e-05 -6.411171398212900385e-06 -4.572267789626494050e-05
1.801000000000000000e+03 7.652289581298828125e+01 -3.246073150634765625e+01 7.842462946427986026e-05 1.111004603444598615e-04 5.685752694262191653e-05 -6.462104647653177381e-05
1.802000000000000000e+03 7.650330352783203125e+01 -2.922108459472656250e+01 6.391102942870929837e-05 9.059892909135669470e-05 4.635298682842403650e-05 -9.652083826949819922e-05
1.803000000000000000e+03 6.942946624755859375e+01 -2.245357131958007812e+01 3.548392487573437393e-05 2.876597136491909623e-05 1.927497032738756388e-05 3.634927270468324423e-05
1.804000000000000000e+03 4.163430786132812500e+01 -2.144521713256835938e+01 -3.192624775692820549e-03 1.376505406369687989e-05 -9.536579600535333157e-04 1.111042685806751251e-03
1.805000000000000000e+03 2.608898925781250000e+01 -8.023956298828125000e+00 1.284618258476257324e+00 2.364590167999267578e-01 4.563231766223907471e-01 3.881193995475769043e-01
1.806000000000000000e+03 4.347474288940429688e+01 1.901422500610351562e+01 -1.990070752799510956e-02 9.830849245190620422e-03 -3.020957577973604202e-03 -3.849828150123357773e-03
1.807000000000000000e+03 4.250173187255859375e+01 1.835355758666992188e+01 -2.205129154026508331e-02 8.116796612739562988e-03 -4.180348478257656097e-03 -1.105239614844322205e-03
1.808000000000000000e+03 7.691450500488281250e+01 3.782490730285644531e+00 2.502433583140373230e-02 -8.112136721611022949e-01 -2.358568012714385986e-01 -1.844921857118606567e-01
1.809000000000000000e+03 7.693971252441406250e+01 2.410276412963867188e+00 2.204127050936222076e-02 -7.522177100181579590e-01 -2.190529406070709229e-01 -2.019182294607162476e-01
1.810000000000000000e+03 7.692006683349609375e+01 1.069555377960205078e+01 3.468085080385208130e-02 -1.013906240463256836e+00 -2.937676012516021729e-01 -5.563613772392272949e-02
1.811000000000000000e+03 7.694279479980468750e+01 9.306062698364257812e+00 3.642832115292549133e-02 -9.963673949241638184e-01 -2.879817187786102295e-01 -8.612801879644393921e-02
1.812000000000000000e+03 7.667751312255859375e+01 1.767793464660644531e+01 3.656018152832984924e-02 -9.544534087181091309e-01 -2.753679752349853516e-01 8.520777523517608643e-02
1.813000000000000000e+03 7.670993804931640625e+01 1.627800941467285156e+01 3.909076377749443054e-02 -9.815728068351745605e-01 -2.827446162700653076e-01 5.976069718599319458e-02
1.814000000000000000e+03 7.676369476318359375e+01 2.182178115844726562e+01 1.977319456636905670e-02 -8.625806570053100586e-01 -2.528422474861145020e-01 1.495026648044586182e-01
1.815000000000000000e+03 7.676024627685546875e+01 2.316331100463867188e+01 1.127772685140371323e-02 -8.202940225601196289e-01 -2.427048981189727783e-01 1.587956547737121582e-01
1.816000000000000000e+03 7.571068572998046875e+01 3.130497550964355469e+01 -3.185552358627319336e-02 -4.682511091232299805e-01 -1.500319987535476685e-01 1.472200751304626465e-01
1.817000000000000000e+03 7.667057037353515625e+01 2.452287483215332031e+01 6.974294781684875488e-03 -7.574765086174011230e-01 -2.251506745815277100e-01 1.732846498489379883e-01
1.818000000000000000e+03 7.668209838867187500e+01 1.908164596557617188e+01 3.246257454156875610e-02 -9.306843876838684082e-01 -2.694665491580963135e-01 1.126507818698883057e-01
1.819000000000000000e+03 7.676719665527343750e+01 1.487164497375488281e+01 3.905520215630531311e-02 -1.003945589065551758e+00 -2.894671261310577393e-01 2.627754770219326019e-02
1.820000000000000000e+03 7.682726287841796875e+01 1.346885871887207031e+01 3.783059865236282349e-02 -1.016470789909362793e+00 -2.935920357704162598e-01 -1.559406751766800880e-03
1.821000000000000000e+03 7.688004302978515625e+01 1.208073902130126953e+01 3.418904170393943787e-02 -1.021517395973205566e+00 -2.961984872817993164e-01 -3.130416944622993469e-02
1.822000000000000000e+03 7.694611358642578125e+01 7.917711257934570312e+00 3.309098258614540100e-02 -9.609354734420776367e-01 -2.783533334732055664e-01 -1.140685304999351501e-01
1.823000000000000000e+03 7.693389129638671875e+01 6.536523818969726562e+00 3.151131421327590942e-02 -9.183916449546813965e-01 -2.660641074180603027e-01 -1.387137472629547119e-01
1.824000000000000000e+03 7.698847961425781250e+01 1.038284659385681152e+00 1.825212500989437103e-02 -6.883421540260314941e-01 -2.010270059108734131e-01 -2.157511711120605469e-01
1.825000000000000000e+03 7.703827667236328125e+01 -3.339006602764129639e-01 1.294233091175556183e-02 -6.155665516853332520e-01 -1.807872653007507324e-01 -2.265782058238983154e-01
1.826000000000000000e+03 7.707310485839843750e+01 -1.700105071067810059e+00 3.132614074274897575e-03 -5.391531586647033691e-01 -1.608061492443084717e-01 -2.292303591966629028e-01
1.827000000000000000e+03 7.707477569580078125e+01 -7.058957576751708984e+00 -3.534459695219993591e-02 -2.300383746623992920e-01 -7.961489260196685791e-02 -1.859132945537567139e-01
1.828000000000000000e+03 7.707521820068359375e+01 -8.369232177734375000e+00 -3.683833405375480652e-02 -1.679005026817321777e-01 -6.142165139317512512e-02 -1.582406014204025269e-01
1.829000000000000000e+03 7.689650726318359375e+01 -1.180384063720703125e+01 -4.984851181507110596e-02 -5.047883465886116028e-02 -3.009820356965065002e-02 -6.785506755113601685e-02
1.830000000000000000e+03 7.704077148437500000e+01 -9.679615974426269531e+00 -4.907314106822013855e-02 -1.116151362657546997e-01 -4.820648580789566040e-02 -1.243283599615097046e-01
1.831000000000000000e+03 7.707787322998046875e+01 -1.087215614318847656e+01 -4.542230442166328430e-02 -7.419144362211227417e-02 -3.588412329554557800e-02 -9.082661569118499756e-02
1.832000000000000000e+03 7.708607482910156250e+01 -3.059864282608032227e+00 -1.994761871173977852e-03 -4.585627317428588867e-01 -1.381672471761703491e-01 -2.301436960697174072e-01
1.833000000000000000e+03 7.708114624023437500e+01 -4.410800933837890625e+00 -1.513317320495843887e-02 -3.777874708175659180e-01 -1.178761944174766541e-01 -2.217728644609451294e-01
1.834000000000000000e+03 7.729287719726562500e+01 3.328010177612304688e+01 -1.277445349842309952e-02 -5.263435244560241699e-01 -1.617354005575180054e-01 1.002054587006568909e-01
1.835000000000000000e+03 7.515391540527343750e+01 2.553688430786132812e+01 4.569469019770622253e-03 -5.419461131095886230e-01 -1.612129956483840942e-01 2.192344814538955688e-01
1.836000000000000000e+03 7.647695159912109375e+01 2.590850830078125000e+01 -5.681197158992290497e-03 -6.800630688667297363e-01 -2.057232707738876343e-01 1.770459562540054321e-01
1.837000000000000000e+03 3.993438720703125000e+01 1.338817024230957031e+01 -1.058883592486381531e-02 2.449542051181197166e-03 -2.441788092255592346e-03 -1.672345795668661594e-03
1.838000000000000000e+03 4.449408340454101562e+01 1.976858901977539062e+01 -1.944526471197605133e-02 5.962722934782505035e-03 -4.044762812554836273e-03 -2.740579657256603241e-03
1.839000000000000000e+03 3.802035522460937500e+01 -1.666409492492675781e+01 -2.833503822330385447e-04 6.569237302755936980e-05 -6.529740494443103671e-05 2.578414860181510448e-04
1.840000000000000000e+03 3.688764953613281250e+01 -1.651036262512207031e+01 4.793707921635359526e-04 2.224541676696389914e-04 2.105474850395694375e-04 4.310865770094096661e-04
1.841000000000000000e+03 3.616135120391845703e+00 3.071671676635742188e+01 -2.004725538427010179e-04 -2.500251634046435356e-03 -8.102172287181019783e-04 1.620728173293173313e-03
1.842000000000000000e+03 3.589831590652465820e+00 3.217049789428710938e+01 1.164893110399134457e-04 -3.060361836105585098e-03 -8.831617305986583233e-04 1.628814265131950378e-03
1.843000000000000000e+03 2.949500799179077148e+00 2.341794776916503906e+01 -1.457265170756727457e-04 -3.392828803043812513e-04 -1.455028250347822905e-04 4.867775132879614830e-04
1.844000000000000000e+03 3.063258647918701172e+00 2.481050682067871094e+01 -3.796334785874933004e-04 -5.998326232656836510e-04 -2.938398392871022224e-04 6.928374641574919224e-04
1.845000000000000000e+03 2.326936721801757812e+00 3.656579589843750000e+01 3.069832746405154467e-04 -4.843796603381633759e-03 -1.361044007353484631e-03 8.057716186158359051e-04
1.846000000000000000e+03 3.227149248123168945e+00 2.623546791076660156e+01 -2.014209603657945991e-04 -9.772203629836440086e-04 -3.535923897288739681e-04 1.006193459033966064e-03
1.847000000000000000e+03 3.431636095046997070e+00 2.770720100402832031e+01 -3.691878519020974636e-04 -1.450326526537537575e-03 -5.458543309941887856e-04 1.255739363841712475e-03
1.848000000000000000e+03 3.579160690307617188e+00 2.921096611022949219e+01 -1.167788723250851035e-04 -1.935264328494668007e-03 -6.156129529699683189e-04 1.511088688857853413e-03
1.849000000000000000e+03 3.267863035202026367e+00 -2.774690246582031250e+01 -3.821606747806072235e-03 -7.648132443428039551e-01 -2.305904626846313477e-01 2.281949520111083984e-01
1.850000000000000000e+03 3.409786701202392578e+00 -2.649103355407714844e+01 6.577157881110906601e-03 -7.999204993247985840e-01 -2.380030006170272827e-01 2.294973433017730713e-01
1.851000000000000000e+03 2.884020566940307617e+00 2.204052925109863281e+01 -2.956553944386541843e-04 -1.354325067950412631e-04 -1.293263630941510201e-04 2.616936399135738611e-04
1.852000000000000000e+03 3.355719089508056641e+00 -3.158255577087402344e+01 -2.169444411993026733e-02 -6.024407148361206055e-01 -1.872405558824539185e-01 1.855898201465606689e-01
1.853000000000000000e+03 2.984567880630493164e+00 1.659539031982421875e+01 -1.065768155967816710e-04 6.572032725671306252e-05 -1.225694632012164220e-05 -9.948077786248177290e-05
1.854000000000000000e+03 2.905736207962036133e+00 1.797086715698242188e+01 3.008241765201091766e-05 6.073575059417635202e-05 2.724545083765406162e-05 -4.951394294039346278e-05
1.855000000000000000e+03 3.094085454940795898e+00 1.364707756042480469e+01 -4.312377495807595551e-05 4.049211565870791674e-05 -7.894976761235739104e-07 -8.806689584162086248e-05
1.856000000000000000e+03 3.066528081893920898e+00 6.512812614440917969e+00 4.181482290732674301e-05 1.006489310384495184e-05 1.556391543999779969e-05 -3.566592567949555814e-05
1.857000000000000000e+03 2.963395118713378906e+00 8.449992179870605469e+00 -2.888705239456612617e-05 1.061872444552136585e-05 -5.480498657561838627e-06 -4.884441659669391811e-05
1.858000000000000000e+03 3.027401208877563477e+00 -5.738430500030517578e+00 -5.912612751126289368e-02 -3.285154402256011963e-01 -1.162924692034721375e-01 -3.531300723552703857e-01
1.859000000000000000e+03 2.960858821868896484e+00 -1.067150783538818359e+01 4.454711824655532837e-02 -7.565613389015197754e-01 -2.136042714118957520e-01 -3.544974625110626221e-01
1.860000000000000000e+03 3.166826725006103516e+00 -1.338693809509277344e+01 8.404088765382766724e-02 -9.029552936553955078e-01 -2.456743270158767700e-01 -2.704231142997741699e-01
1.861000000000000000e+03 3.062572002410888672e+00 -1.201313781738281250e+01 6.322529911994934082e-02 -8.398754596710205078e-01 -2.329950481653213501e-01 -3.172958493232727051e-01
1.862000000000000000e+03 3.798665523529052734e+00 -2.057046890258789062e+01 1.032697483897209167e-01 -8.719032406806945801e-01 -2.305900454521179199e-01 1.017501130700111389e-01
1.863000000000000000e+03 3.612935304641723633e+00 -1.903207969665527344e+01 1.104580014944076538e-01 -9.373908638954162598e-01 -2.480798661708831787e-01 1.846535503864288330e-02
1.864000000000000000e+03 3.636572122573852539e+00 -2.370056152343750000e+01 4.793753847479820251e-02 -8.351368904113769531e-01 -2.361598014831542969e-01 1.970792859792709351e-01
1.865000000000000000e+03 3.805215120315551758e+00 -2.216718101501464844e+01 7.305534929037094116e-02 -8.359788060188293457e-01 -2.288770377635955811e-01 1.611184775829315186e-01
1.866000000000000000e+03 2.779587030410766602e+00 1.091114139556884766e+01 -3.100893809460103512e-05 3.852267400361597538e-05 2.254120772704482079e-06 -5.605872138403356075e-05
1.867000000000000000e+03 2.891314029693603516e+00 1.222206020355224609e+01 8.148647611960768700e-05 4.087174966116435826e-05 3.670746809802949429e-05 -8.903792331693693995e-05
1.868000000000000000e+03 3.127679347991943359e+00 1.514597797393798828e+01 8.268923556897789240e-05 4.191528569208458066e-05 3.738135637831874192e-05 -1.056246765074320138e-04
1.869000000000000000e+03 5.047715663909912109e+00 -2.396032905578613281e+01 6.731764227151870728e-02 -5.295569300651550293e-01 -1.386717855930328369e-01 2.502893507480621338e-01
1.870000000000000000e+03 3.369746685028076172e+00 -1.617975807189941406e+01 1.077320352196693420e-01 -9.719946980476379395e-01 -2.592788040637969971e-01 -1.343619674444198608e-01
1.871000000000000000e+03 2.561597347259521484e+00 4.592779636383056641e+00 2.001590291911270469e-05 9.662339834903832525e-06 8.903472917154431343e-06 -3.942342118534725159e-06
1.872000000000000000e+03 3.244894981384277344e+00 5.445355892181396484e+00 -4.432567220646888018e-05 5.137304015079280362e-06 -1.175651050289161503e-05 -1.145057831308804452e-05
1.873000000000000000e+03 2.821938991546630859e+00 -8.105143547058105469e+00 7.674163207411766052e-04 -5.510874986648559570e-01 -1.650960296392440796e-01 -3.724155724048614502e-01
1.874000000000000000e+03 3.267741680145263672e+00 -1.477844047546386719e+01 9.933085739612579346e-02 -9.489466547966003418e-01 -2.548847496509552002e-01 -2.060227543115615845e-01
1.875000000000000000e+03 2.865678310394287109e+00 1.932007026672363281e+01 -1.907652476802468300e-04 4.672314025810919702e-05 -4.321263259043917060e-05 1.176890123133489396e-06
1.876000000000000000e+03 2.777231454849243164e+00 9.663304328918457031e+00 6.794617365812882781e-05 3.131634730380028486e-05 2.977875556098297238e-05 -4.350059680291451514e-05
1.877000000000000000e+03 3.316060638427734375e+01 -3.248026275634765625e+01 9.051877073943614960e-03 1.488128118216991425e-02 7.179947569966316223e-03 -4.380161873996257782e-03
1.878000000000000000e+03 7.006913757324218750e+01 -2.433913230895996094e+01 -2.801473056024406105e-05 -8.523562428308650851e-05 -3.397510590730234981e-05 -2.912069066951517016e-05
1.879000000000000000e+03 7.829925537109375000e+01 -2.037514114379882812e+01 7.520291546825319529e-05 3.794782242039218545e-05 3.394521991140209138e-05 3.251780753998900764e-06
1.880000000000000000e+03 5.610157012939453125e+01 2.559384536743164062e+01 1.877642273902893066e-01 2.196440249681472778e-01 1.222224757075309753e-01 -2.650071978569030762e-01
1.881000000000000000e+03 3.952408981323242188e+01 1.248119544982910156e+01 -6.837263237684965134e-03 1.814952818676829338e-03 -1.506693195551633835e-03 -2.174240536987781525e-03
1.882000000000000000e+03 3.904012298583984375e+01 1.160000896453857422e+01 -4.635550547391176224e-03 2.020134706981480122e-04 -1.330061000771820545e-03 -7.845270447432994843e-04
1.883000000000000000e+03 3.527653121948242188e+01 -1.410863971710205078e+01 2.339597995160147548e-04 -5.037198570789769292e-05 5.507634705281816423e-05 -1.358464942313730717e-04
1.884000000000000000e+03 3.749962997436523438e+01 -1.876453781127929688e+01 -4.461657590582035482e-05 2.226427895948290825e-04 5.340786447050049901e-05 1.588910090504214168e-04
1.885000000000000000e+03 6.796103668212890625e+01 -2.948896217346191406e+01 -1.290203654207289219e-04 -1.595503708813339472e-04 -8.657122089061886072e-05 -5.095829328638501465e-05
1.886000000000000000e+03 5.895665359497070312e+01 -3.292980670928955078e+00 6.336323618888854980e-01 4.698382914066314697e-01 3.310411870479583740e-01 3.498012125492095947e-01
1.887000000000000000e+03 3.026531791687011719e+01 -3.342753219604492188e+01 3.040148504078388214e-02 3.353118896484375000e-02 1.917980238795280457e-02 -3.523690626025199890e-02
1.888000000000000000e+03 3.114466285705566406e+01 -3.185461616516113281e+01 9.018016979098320007e-03 8.764323778450489044e-03 5.334702320396900177e-03 -1.645598001778125763e-02
1.889000000000000000e+03 1.195661354064941406e+01 -2.039376068115234375e+01 5.068143606185913086e-01 1.388683795928955078e+00 5.686494708061218262e-01 1.024303492158651352e-02
1.890000000000000000e+03 3.585959625244140625e+01 -2.860644340515136719e+01 -2.134181000292301178e-02 1.038036402314901352e-02 -3.288434119895100594e-03 7.200448890216648579e-04
1.891000000000000000e+03 6.752623748779296875e+01 -1.479050922393798828e+01 -9.577725082635879517e-02 -6.327454745769500732e-02 -4.771554097533226013e-02 5.763125792145729065e-02
1.892000000000000000e+03 1.996483230590820312e+01 -2.993048667907714844e+01 1.601429879665374756e-01 4.709366858005523682e-01 1.893239021301269531e-01 -2.761123478412628174e-01
1.893000000000000000e+03 4.029241561889648438e+01 1.512120628356933594e+01 -1.614562235772609711e-02 6.291643250733613968e-03 -2.956193871796131134e-03 -1.188023481518030167e-03
1.894000000000000000e+03 3.933729553222656250e+01 1.447389411926269531e+01 -1.324334368109703064e-02 4.569956101477146149e-03 -2.602016320452094078e-03 1.488726702518761158e-04
1.895000000000000000e+03 5.834332656860351562e+01 -2.001013755798339844e+00 7.603510618209838867e-01 6.558558344841003418e-01 4.248620569705963135e-01 5.605467557907104492e-01
1.896000000000000000e+03 5.966811752319335938e+01 -1.589273571968078613e+00 6.382573843002319336e-01 6.152535080909729004e-01 3.760532736778259277e-01 4.469281136989593506e-01
1.897000000000000000e+03 2.469098663330078125e+01 -7.696282386779785156e+00 9.789682030677795410e-01 1.110635623335838318e-01 3.270095288753509521e-01 3.404789566993713379e-01
1.898000000000000000e+03 2.159655570983886719e+01 -3.345231246948242188e+01 -2.534129470586776733e-02 3.667162656784057617e-01 1.024124920368194580e-01 -1.894279271364212036e-01
1.899000000000000000e+03 7.186394500732421875e+01 -2.105624389648437500e+01 3.677864515339024365e-05 -5.591610533883795142e-05 -5.741238510381663218e-06 -3.333128552185371518e-05
1.900000000000000000e+03 1.402037715911865234e+01 -1.168863868713378906e+01 7.467528581619262695e-01 1.141606926918029785e+00 5.665079355239868164e-01 1.499679982662200928e-01
1.901000000000000000e+03 1.341686916351318359e+01 -1.261246871948242188e+01 7.694393992424011230e-01 1.113340973854064941e+00 5.648341178894042969e-01 8.421438932418823242e-02
1.902000000000000000e+03 4.866544723510742188e+01 -3.373775482177734375e+01 2.963124425150454044e-04 -6.985232699662446976e-03 -2.006676048040390015e-03 5.311463959515094757e-03
1.903000000000000000e+03 2.183187723159790039e+00 3.360520362854003906e+00 -3.574537686290568672e-06 1.347291618003509939e-05 2.969513616335461847e-06 -1.194823744299355894e-05
1.904000000000000000e+03 4.969771194458007812e+01 -8.249562263488769531e+00 6.043559312820434570e-01 4.884933233261108398e-01 3.278547823429107666e-01 4.543214738368988037e-01
1.905000000000000000e+03 5.176464843750000000e+01 -6.636646270751953125e+00 1.133777856826782227e+00 8.738892078399658203e-01 6.023001074790954590e-01 4.371151328086853027e-01
1.906000000000000000e+03 6.316831970214843750e+01 1.049508857727050781e+01 1.818426847457885742e-01 1.807313919067382812e+00 5.967469811439514160e-01 2.567099034786224365e-01
1.907000000000000000e+03 1.702157402038574219e+01 -1.021227455139160156e+01 9.706792831420898438e-01 8.125966191291809082e-01 5.349828004837036133e-01 3.788951933383941650e-01
1.908000000000000000e+03 5.506840133666992188e+01 -5.868698596954345703e+00 9.688617587089538574e-01 5.323897600173950195e-01 4.503754675388336182e-01 3.194356858730316162e-01
1.909000000000000000e+03 6.568084716796875000e+01 1.584171390533447266e+01 3.141660392284393311e-01 1.154159665107727051e+00 4.404977262020111084e-01 -7.282856851816177368e-02
1.910000000000000000e+03 4.186402893066406250e+01 -5.383228778839111328e+00 4.510192573070526123e-01 -1.394594460725784302e-01 9.346795082092285156e-02 1.212108805775642395e-01
1.911000000000000000e+03 1.581906890869140625e+01 -9.994408607482910156e+00 8.008069396018981934e-01 8.993687033653259277e-01 5.100526809692382812e-01 2.367062419652938843e-01
1.912000000000000000e+03 6.329954528808593750e+01 -1.057870388031005859e+01 -9.201227426528930664e-01 -4.032267630100250244e-01 -3.970048427581787109e-01 -3.393304049968719482e-01
1.913000000000000000e+03 5.893427276611328125e+01 -1.121326065063476562e+01 -9.412899613380432129e-01 6.372445821762084961e-02 -2.632696628570556641e-01 -3.575774431228637695e-01
1.914000000000000000e+03 6.588629150390625000e+01 -2.974112319946289062e+01 -5.565503306570462883e-05 -1.211992275784723461e-04 -5.305627928464673460e-05 6.770956679247319698e-05
1.915000000000000000e+03 5.359772109985351562e+01 -7.132993221282958984e+00 7.259020805358886719e-01 6.323834061622619629e-01 4.074856340885162354e-01 2.334537655115127563e-01
1.916000000000000000e+03 6.752086639404296875e+01 -1.412560462951660156e+01 -2.459017932415008545e-01 -6.405068188905715942e-02 -9.298574179410934448e-02 7.542850822210311890e-02
1.917000000000000000e+03 2.869553375244140625e+01 -2.347052335739135742e+00 -9.598699212074279785e-01 2.752766199409961700e-02 -2.797026634216308594e-01 3.606177866458892822e-01
1.918000000000000000e+03 3.105463600158691406e+01 -2.507663488388061523e+00 -6.092624068260192871e-01 5.955507606267929077e-02 -1.649121940135955811e-01 3.911533653736114502e-01
1.919000000000000000e+03 2.606611633300781250e+01 -2.789254426956176758e+00 -8.018532395362854004e-01 -1.194405853748321533e-01 -2.763881385326385498e-01 1.141699776053428650e-01
1.920000000000000000e+03 2.860430526733398438e+01 -2.829445838928222656e+00 -7.639042735099792480e-01 3.459193184971809387e-02 -2.187936902046203613e-01 4.032851457595825195e-01
1.921000000000000000e+03 2.991409683227539062e+01 -2.112957715988159180e+00 -8.599908947944641113e-01 7.322048395872116089e-02 -2.360311150550842285e-01 3.405723869800567627e-01
1.922000000000000000e+03 2.951257133483886719e+01 -2.186280250549316406e+00 -8.915452957153320312e-01 6.977643072605133057e-02 -2.465306520462036133e-01 3.479917943477630615e-01
1.923000000000000000e+03 2.084990119934082031e+01 5.055225372314453125e+00 1.924545586007297970e-06 -1.195534787257201970e-05 -3.009240572282578796e-06 -6.570299433406034950e-07
1.924000000000000000e+03 2.032713699340820312e+01 5.447176456451416016e+00 1.006033744488377124e-05 3.183269882356398739e-06 3.973082129959948361e-06 7.823138730600476265e-06
1.925000000000000000e+03 1.933790588378906250e+01 2.314410400390625000e+01 -1.525477319955825806e-02 -3.533203853294253349e-04 -4.682428203523159027e-03 2.623795997351408005e-03
1.926000000000000000e+03 3.476231002807617188e+01 -2.801157712936401367e+00 -1.648757755756378174e-01 -5.513940751552581787e-02 -6.600455939769744873e-02 3.502564430236816406e-01
1.927000000000000000e+03 1.724872398376464844e+01 8.570589065551757812e+00 -2.010475691349711269e-05 -3.621771043071930762e-07 -6.140080586192198098e-06 -1.393060756527120247e-05
1.928000000000000000e+03 1.833691596984863281e+01 7.400760650634765625e+00 -1.307582624576753005e-05 -1.022764263325370848e-05 -6.991040663706371561e-06 -1.116023395297816023e-05
1.929000000000000000e+03 1.814978218078613281e+01 6.740762710571289062e+00 -1.335783599643036723e-05 -8.677576261106878519e-06 -6.610623586311703548e-06 -9.590508852852508426e-06
1.930000000000000000e+03 2.389962196350097656e+01 2.341300201416015625e+01 -2.600114047527313232e-02 -4.689224064350128174e-03 -9.207109920680522919e-03 8.910739794373512268e-03
1.931000000000000000e+03 2.069842338562011719e+01 2.267170333862304688e+01 -2.201381884515285492e-02 -8.326278766617178917e-04 -6.853933911770582199e-03 2.088217064738273621e-03
1.932000000000000000e+03 1.361886405944824219e+01 1.587966632843017578e+01 -1.918653651955537498e-05 2.898766251746565104e-04 8.120702113956212997e-05 1.663208822719752789e-04
1.933000000000000000e+03 2.139693069458007812e+01 4.452120304107666016e+00 5.004991635360056534e-06 4.351076768216444179e-06 2.806820475598215126e-06 -3.099626837865798734e-06
1.934000000000000000e+03 1.343373394012451172e+01 1.749303817749023438e+01 5.418052387540228665e-05 2.619664301164448261e-04 9.484408656135201454e-05 1.028997503453865647e-04
1.935000000000000000e+03 2.720556831359863281e+01 2.253063011169433594e+01 -3.115998581051826477e-02 -1.123827043920755386e-02 -1.271947752684354782e-02 1.493550650775432587e-02
1.936000000000000000e+03 3.445730590820312500e+01 6.590102672576904297e+00 3.171558200847357512e-04 1.336964342044666409e-04 1.352556864731013775e-04 -1.540067751193419099e-04
1.937000000000000000e+03 1.584553718566894531e+01 9.454541206359863281e+00 -6.227635367395123467e-07 4.847147283726371825e-05 1.435461217624833807e-05 1.384305778628913686e-05
1.938000000000000000e+03 3.217541503906250000e+01 1.619222450256347656e+01 -6.338317878544330597e-03 -8.260219357907772064e-03 -4.379561170935630798e-03 8.513663895428180695e-03
1.939000000000000000e+03 1.716660499572753906e+01 7.990486145019531250e+00 -1.855031405284535140e-05 1.958629354703589343e-06 -4.977505795977776870e-06 -1.360510032100137323e-05
1.940000000000000000e+03 1.429237651824951172e+01 1.739537048339843750e+01 1.251117791980504990e-04 6.771932239644229412e-04 2.406915009487420321e-04 1.337831054115667939e-04
1.941000000000000000e+03 1.404821109771728516e+01 1.538467216491699219e+01 -5.470822361530736089e-05 3.889885265380144119e-04 1.002840945147909224e-04 1.116331259254366159e-04
1.942000000000000000e+03 1.493158721923828125e+01 1.157697868347167969e+01 3.668376302812248468e-05 1.046719407895579934e-04 4.240671114530414343e-05 2.110987406922504306e-05
1.943000000000000000e+03 3.273036956787109375e+01 1.502264881134033203e+01 -3.956752363592386246e-03 -5.091406404972076416e-03 -2.714447444304823875e-03 5.782260093837976456e-03
1.944000000000000000e+03 3.249131774902343750e+01 1.590491867065429688e+01 -5.871441680938005447e-03 -6.840607617050409317e-03 -3.813614835962653160e-03 7.689137477427721024e-03
1.945000000000000000e+03 1.608736228942871094e+01 9.184668540954589844e+00 -1.632978091947734356e-05 -1.721170974633423612e-06 -5.415285158960614353e-06 -1.316883572144433856e-05
1.946000000000000000e+03 1.411906242370605469e+01 1.165614700317382812e+01 1.848990359576418996e-05 1.034135566442273557e-04 3.657103661680594087e-05 5.449295713333413005e-05
1.947000000000000000e+03 1.334884643554687500e+01 1.711017990112304688e+01 -9.446191688766703010e-05 1.976916682906448841e-04 3.096892760368064046e-05 1.634028885746374726e-04
1.948000000000000000e+03 1.730297851562500000e+01 2.212381744384765625e+01 -9.151712991297245026e-03 -2.999570860993117094e-04 -2.835500985383987427e-03 -2.314438024768605828e-04
1.949000000000000000e+03 1.775481414794921875e+01 2.217444038391113281e+01 -1.063845958560705185e-02 -2.265916918986476958e-05 -3.198335645720362663e-03 -4.090791044291108847e-04
1.950000000000000000e+03 2.107994079589843750e+01 4.569562911987304688e+00 -4.656953933590557426e-06 -9.994825632020365447e-06 -4.395533778733806685e-06 6.032849341863766313e-06
1.951000000000000000e+03 2.111273002624511719e+01 3.611974477767944336e+00 -2.514047103829852858e-08 -5.594118647422874346e-06 -1.685777760940254666e-06 1.140494873652642127e-06
1.952000000000000000e+03 1.980816078186035156e+01 2.314598083496093750e+01 -1.711467094719409943e-02 -4.720741126220673323e-04 -5.276023410260677338e-03 2.977447817102074623e-03
1.953000000000000000e+03 1.886958312988281250e+01 2.306102752685546875e+01 -1.386297680437564850e-02 -1.615876244613900781e-04 -4.207369405776262283e-03 2.172046341001987457e-03
1.954000000000000000e+03 3.216330718994140625e+01 1.500798892974853516e+01 -3.340469207614660263e-03 -6.042488384991884232e-03 -2.814887324348092079e-03 4.953694529831409454e-03
1.955000000000000000e+03 2.315579986572265625e+01 2.318460273742675781e+01 -2.678017877042293549e-02 -3.651543520390987396e-03 -9.129516780376434326e-03 7.386043202131986618e-03
1.956000000000000000e+03 1.424944210052490234e+01 1.410798072814941406e+01 7.218704558908939362e-05 3.056274144910275936e-04 1.133443365688435733e-04 6.620373460464179516e-05
1.957000000000000000e+03 1.401141166687011719e+01 1.248286533355712891e+01 -1.185307064588414505e-05 1.143650297308340669e-04 3.075358836213126779e-05 8.273508137790486217e-05
1.958000000000000000e+03 3.127385139465332031e+01 1.949171638488769531e+01 -2.174852229654788971e-02 -1.231113169342279434e-02 -1.021789666265249252e-02 1.536093745380640030e-02
1.959000000000000000e+03 3.104300117492675781e+01 2.005625534057617188e+01 -2.504279837012290955e-02 -1.202219910919666290e-02 -1.111949887126684189e-02 1.489742845296859741e-02
1.960000000000000000e+03 3.179710388183593750e+01 1.744251060485839844e+01 -1.063250005245208740e-02 -1.155629660934209824e-02 -6.656638812273740768e-03 1.197091769427061081e-02
1.961000000000000000e+03 3.439841079711914062e+01 9.246402740478515625e+00 4.766076381201855838e-05 2.714677066251169890e-06 1.511263235443038866e-05 -2.813411119859665632e-04
1.962000000000000000e+03 1.948661422729492188e+01 6.278975963592529297e+00 -1.019675437419209629e-05 -8.037738552957307547e-06 -5.470347787195350975e-06 -8.757679097470827401e-06
1.963000000000000000e+03 2.035884284973144531e+01 4.518906116485595703e+00 8.359526873391587287e-06 -3.694261977216228843e-06 1.399579559802077711e-06 -5.369217319639574271e-07
1.964000000000000000e+03 3.374814224243164062e+01 1.107616519927978516e+01 -3.957408480346202850e-04 -5.067835081717930734e-05 -1.339257578365504742e-04 5.557863623835146427e-04
1.965000000000000000e+03 3.379841995239257812e+01 8.487564086914062500e+00 -1.186689314636169001e-05 4.191257467027753592e-04 1.221776474267244339e-04 -2.053979696938768029e-04
1.966000000000000000e+03 3.503931808471679688e+01 9.295069694519042969e+00 -4.412916023284196854e-04 -1.028403858072124422e-04 -1.632396015338599682e-04 2.134485985152423382e-04
1.967000000000000000e+03 1.368539237976074219e+01 2.047174835205078125e+01 -2.336035715416073799e-03 3.637187182903289795e-04 -5.916950758546590805e-04 -3.897495917044579983e-04
1.968000000000000000e+03 2.692654800415039062e+01 2.341103172302246094e+01 -2.376374974846839905e-02 -1.078434009104967117e-02 -1.036442723125219345e-02 1.270937919616699219e-02
1.969000000000000000e+03 3.352740859985351562e+01 1.040472126007080078e+01 -3.498215810395777225e-04 1.129115407820791006e-04 -7.107300916686654091e-05 1.165875000879168510e-04
1.970000000000000000e+03 3.329796600341796875e+01 1.441083145141601562e+01 -4.048726055771112442e-03 -2.998112933710217476e-03 -2.114051720127463341e-03 5.089003592729568481e-03
1.971000000000000000e+03 1.911877059936523438e+01 5.939873695373535156e+00 9.164610673906281590e-06 6.035284059180412441e-06 4.559968601824948564e-06 8.903482921596150845e-06
1.972000000000000000e+03 3.328686904907226562e+01 1.199722480773925781e+01 -7.071655709296464920e-04 -8.880699751898646355e-04 -4.785706696566194296e-04 1.238785684108734131e-03
1.973000000000000000e+03 3.472974014282226562e+01 3.891177892684936523e+00 1.746711495798081160e-04 3.988617663708282635e-06 5.359793067327700555e-05 1.436869933968409896e-04
1.974000000000000000e+03 2.112141418457031250e+01 2.270189666748046875e+01 -2.420164458453655243e-02 -1.616983674466609955e-03 -7.745588663965463638e-03 2.848132979124784470e-03
1.975000000000000000e+03 2.025292587280273438e+01 2.316529273986816406e+01 -1.861628890037536621e-02 -9.167873649857938290e-04 -5.859922617673873901e-03 3.554548835381865501e-03
1.976000000000000000e+03 1.879514694213867188e+01 6.175066947937011719e+00 -8.336307473655324429e-06 -9.481240340392105281e-06 -5.345264526113169268e-06 -5.665894605044741184e-06
1.977000000000000000e+03 1.697263908386230469e+01 8.863966941833496094e+00 1.905402314150705934e-05 1.919601345434784889e-05 1.147501097875647247e-05 8.633919605927076191e-06
1.978000000000000000e+03 1.372398185729980469e+01 1.446869850158691406e+01 8.722526399651542306e-05 2.773861342575401068e-04 1.093834216590039432e-04 1.358098379569128156e-04
1.979000000000000000e+03 3.167329216003417969e+01 1.676330566406250000e+01 -7.130291778594255447e-03 -1.202841755002737045e-02 -5.747613031417131424e-03 1.001905463635921478e-02
1.980000000000000000e+03 3.132395744323730469e+01 1.727687644958496094e+01 -8.553797379136085510e-03 -1.545673888176679611e-02 -7.203160785138607025e-03 1.114663295447826385e-02
1.981000000000000000e+03 2.512056541442871094e+01 2.350855636596679688e+01 -2.567301131784915924e-02 -6.495370995253324509e-03 -9.650514461100101471e-03 1.060531195253133774e-02
1.982000000000000000e+03 2.523921012878417969e+01 2.294312858581542969e+01 -2.930896729230880737e-02 -6.779114715754985809e-03 -1.082642469555139542e-02 1.168789248913526535e-02
1.983000000000000000e+03 3.473057937622070312e+01 5.516711235046386719e+00 3.784385335166007280e-04 7.171769311753450893e-07 1.137467188527807593e-04 -1.755559496814385056e-04
1.984000000000000000e+03 2.561355209350585938e+01 2.314191246032714844e+01 -2.804563194513320923e-02 -6.756561342626810074e-03 -1.044065784662961960e-02 1.174269150942564011e-02
1.985000000000000000e+03 1.512047481536865234e+01 2.142650985717773438e+01 -4.490213934332132339e-03 6.517376168631017208e-04 -1.151542877778410912e-03 -2.298744948348030448e-04
1.986000000000000000e+03 1.845320510864257812e+01 6.442451477050781250e+00 8.180968507076613605e-06 1.131492899730801582e-05 5.848768978466978297e-06 9.404086085851304233e-06
1.987000000000000000e+03 1.936592483520507812e+01 5.687763214111328125e+00 -9.894828508549835533e-06 -8.775255082582589239e-06 -5.601025350188137963e-06 -2.884200284825055860e-06
1.988000000000000000e+03 3.073597145080566406e+01 2.026734924316406250e+01 -2.768329903483390808e-02 -1.347686070948839188e-02 -1.234804838895797729e-02 1.558735501021146774e-02
1.989000000000000000e+03 3.018571853637695312e+01 2.001656150817871094e+01 -2.930214256048202515e-02 -1.944072358310222626e-02 -1.462285965681076050e-02 1.960360072553157806e-02
1.990000000000000000e+03 3.325592422485351562e+01 1.326577854156494141e+01 -2.530496567487716675e-03 -1.971547491848468781e-03 -1.350613310933113098e-03 3.068469464778900146e-03
1.991000000000000000e+03 3.465923309326171875e+01 4.707827091217041016e+00 1.882030192064121366e-04 5.539292033063247800e-05 7.307877967832610011e-05 9.106859215535223484e-05
1.992000000000000000e+03 3.411103439331054688e+01 4.637636184692382812e+00 -1.745108602335676551e-04 1.516449356131488457e-05 -4.780390736414119601e-05 -1.555153721710667014e-04
1.993000000000000000e+03 3.427209091186523438e+01 8.525737762451171875e+00 1.566459250170737505e-04 -2.148802159354090691e-04 -1.747028727550059557e-05 -2.413636975688859820e-04
1.994000000000000000e+03 3.343909072875976562e+01 1.258034706115722656e+01 -1.964158844202756882e-03 -1.309426734223961830e-03 -9.820756968110799789e-04 2.296965103596448898e-03
1.995000000000000000e+03 2.603108596801757812e+01 -3.605625629425048828e+00 -4.945955872535705566e-01 -2.554332651197910309e-02 -1.560416817665100098e-01 1.366115957498550415e-01
1.996000000000000000e+03 3.497747039794921875e+01 7.328269481658935547e+00 4.526599077507853508e-04 -2.178622162318788469e-05 1.292621018365025520e-04 -3.279279626440256834e-04
1.997000000000000000e+03 3.463941192626953125e+01 7.010193347930908203e+00 -1.111328747356310487e-04 -2.019163948716595769e-04 -9.391477942699566483e-05 -1.026576937874779105e-04
1.998000000000000000e+03 3.465896987915039062e+01 5.122996330261230469e+00 -1.351062528556212783e-04 -2.920444239862263203e-05 -4.929320857627317309e-05 -1.155241188826039433e-04
1.999000000000000000e+03 1.612960815429687500e+01 2.125921058654785156e+01 -5.482039880007505417e-03 1.305756304645910859e-04 -1.605439232662320137e-03 -1.014749985188245773e-03
2.000000000000000000e+03 1.586643123626708984e+01 2.159638023376464844e+01 -5.891573615372180939e-03 2.387151180300861597e-04 -1.695857499726116657e-03 -1.651903148740530014e-04
2.001000000000000000e+03 2.194804191589355469e+01 2.268578147888183594e+01 -2.761002443730831146e-02 -3.243049373850226402e-03 -9.255922399461269379e-03 4.153358284384012222e-03
2.002000000000000000e+03 1.467907714843750000e+01 2.094812774658203125e+01 -3.226877655833959579e-03 5.631775711663067341e-04 -7.991100428625941277e-04 -4.148914886172860861e-04
2.003000000000000000e+03 1.407457160949707031e+01 1.495523929595947266e+01 1.138667576014995575e-04 3.405452298466116190e-04 1.363235933240503073e-04 1.056558830896392465e-04
2.004000000000000000e+03 1.356743144989013672e+01 1.481106948852539062e+01 3.009668716913438402e-06 2.362186205573379993e-04 7.176848885137587786e-05 9.037031122716143727e-05
2.005000000000000000e+03 3.050440597534179688e+01 2.063943481445312500e+01 -2.915642224252223969e-02 -1.357232686132192612e-02 -1.281862426549196243e-02 1.420818641781806946e-02
2.006000000000000000e+03 2.868325614929199219e+01 2.118869018554687500e+01 -3.995794430375099182e-02 -2.148655429482460022e-02 -1.843334920704364777e-02 1.995013654232025146e-02
2.007000000000000000e+03 2.198782730102539062e+01 2.315509986877441406e+01 -2.386309951543807983e-02 -3.874288639053702354e-03 -8.321216329932212830e-03 5.363761913031339645e-03
2.008000000000000000e+03 2.113309860229492188e+01 2.322101020812988281e+01 -2.136330306529998779e-02 -2.588633215054869652e-03 -7.185580674558877945e-03 5.064175464212894440e-03
2.009000000000000000e+03 1.306172370910644531e+01 1.871855354309082031e+01 -3.216483455616980791e-04 -1.310182233282830566e-05 -1.004250516416504979e-04 -7.846264452382456511e-06
2.010000000000000000e+03 1.763597679138183594e+01 2.271655082702636719e+01 -1.034503336995840073e-02 -1.010538544505834579e-04 -3.133826190605759621e-03 1.135102589614689350e-03
2.011000000000000000e+03 1.639106369018554688e+01 2.214104270935058594e+01 -7.602313999086618423e-03 1.447699323762208223e-04 -2.237263135612010956e-03 4.915046738460659981e-04
2.012000000000000000e+03 1.555947399139404297e+01 2.142693519592285156e+01 -5.124048329889774323e-03 6.627878174185752869e-04 -1.338378177024424076e-03 -3.817839024122804403e-04
2.013000000000000000e+03 1.937359619140625000e+01 4.830774784088134766e+00 -4.728377007268136367e-06 3.106364829363883473e-06 -4.866036533712758683e-07 3.350023462189710699e-06
2.014000000000000000e+03 2.274988555908203125e+01 2.319710540771484375e+01 -2.573934197425842285e-02 -4.051483236253261566e-03 -8.937247097492218018e-03 6.585231050848960876e-03
2.015000000000000000e+03 2.235422897338867188e+01 2.311611175537109375e+01 -2.551342174410820007e-02 -3.684960072860121727e-03 -8.759514428675174713e-03 5.794596858322620392e-03
2.016000000000000000e+03 2.910865402221679688e+01 2.169708442687988281e+01 -3.071209229528903961e-02 -1.831252314150333405e-02 -1.470738463103771210e-02 1.382217183709144592e-02
2.017000000000000000e+03 2.952508354187011719e+01 2.132686805725097656e+01 -3.184136748313903809e-02 -1.820835657417774200e-02 -1.501491758972406387e-02 1.402856875211000443e-02
2.018000000000000000e+03 1.513159275054931641e+01 2.193846511840820312e+01 -5.647330079227685928e-03 7.813695701770484447e-04 -1.459788181819021702e-03 3.329510800540447235e-04
2.019000000000000000e+03 2.677065467834472656e+01 -2.652141809463500977e+00 -8.936297297477722168e-01 -1.978883296251296997e-01 -3.274554312229156494e-01 2.555607855319976807e-01
2.020000000000000000e+03 2.658430099487304688e+01 -2.893193960189819336e+00 -7.409772276878356934e-01 -1.432508528232574463e-01 -2.652684152126312256e-01 2.084814906120300293e-01
2.021000000000000000e+03 3.031101989746093750e+01 2.111216354370117188e+01 -2.933607250452041626e-02 -1.376328431069850922e-02 -1.292980648577213287e-02 1.259004976600408554e-02
2.022000000000000000e+03 1.420292377471923828e+01 2.090315628051757812e+01 -3.215960459783673286e-03 6.403683801181614399e-04 -7.726775947958230972e-04 -4.326224152464419603e-04
2.023000000000000000e+03 2.416702270507812500e+01 2.301693344116210938e+01 -2.888267114758491516e-02 -4.654820077121257782e-03 -1.006124727427959442e-02 9.645272977650165558e-03
2.024000000000000000e+03 3.299452209472656250e+01 -3.601860761642456055e+00 -1.363476365804672241e-01 -8.305808901786804199e-02 -6.582172214984893799e-02 4.669772386550903320e-01
2.025000000000000000e+03 1.249282741546630859e+01 2.039783287048339844e+01 -1.927237375639379025e-03 1.522833044873550534e-04 -5.324862431734800339e-04 -2.832064819813240319e-05
2.026000000000000000e+03 3.237457656860351562e+01 -3.503663063049316406e+00 -2.126893699169158936e-01 -5.359894782304763794e-02 -7.988649606704711914e-02 4.765664637088775635e-01
2.027000000000000000e+03 3.434541702270507812e+01 -3.593705654144287109e+00 -6.854656338691711426e-02 -1.071101129055023193e-01 -5.269700288772583008e-02 4.273256361484527588e-01
2.028000000000000000e+03 1.660993385314941406e+01 8.558952331542968750e+00 -2.231542202935088426e-05 6.942763775441562757e-06 -4.611797521647531539e-06 -1.004652312985854223e-05
2.029000000000000000e+03 3.167778015136718750e+01 1.878659439086914062e+01 -1.778180710971355438e-02 -1.109507586807012558e-02 -8.663064800202846527e-03 1.468563172966241837e-02
2.030000000000000000e+03 7.647219085693359375e+01 -2.131653213500976562e+01 2.007129842240829021e-05 3.609909981605596840e-05 1.685111965343821794e-05 -6.271037733540651971e-08
2.031000000000000000e+03 7.529917144775390625e+01 -1.970395088195800781e+01 4.406926382216624916e-05 -2.081542152154725045e-05 6.976152235438348725e-06 -3.961342372349463403e-05
2.032000000000000000e+03 3.618555450439453125e+01 -1.883058667182922363e+00 -9.050606191158294678e-02 -2.866120263934135437e-02 -3.575018048286437988e-02 1.712798774242401123e-01
2.033000000000000000e+03 1.858215904235839844e+01 3.823273420333862305e+00 2.969389015561318956e-06 3.049290398848825134e-06 1.805603801585675683e-06 -5.095071742289292160e-07
2.034000000000000000e+03 1.983750915527343750e+01 3.398547172546386719e+00 -2.305797806911868975e-06 -4.032401193398982286e-06 -1.901459654618520290e-06 -7.997517741387127899e-07
2.035000000000000000e+03 1.720216751098632812e+01 3.800476789474487305e+00 6.168389063532231376e-06 4.457758677745005116e-06 3.187844413332641125e-06 3.714995102654938819e-07
2.036000000000000000e+03 3.565188980102539062e+01 -7.560808181762695312e+00 1.676408648490905762e-01 -2.606353461742401123e-01 -2.789834700524806976e-02 3.542522788047790527e-01
2.037000000000000000e+03 1.577683258056640625e+01 3.741686344146728516e+00 7.033615929685765877e-06 6.739189302606973797e-06 4.131841706112027168e-06 3.394222630959120579e-06
2.038000000000000000e+03 1.649024581909179688e+01 3.768068313598632812e+00 -4.306599748815642670e-06 8.815382557258999441e-07 -1.027518464979948476e-06 1.877209342637797818e-06
2.039000000000000000e+03 3.851591110229492188e+01 -1.330725312232971191e+00 3.136404603719711304e-02 -2.933353371918201447e-02 6.091541144996881485e-04 3.719414398074150085e-02
2.040000000000000000e+03 1.987372970581054688e+01 4.896768093109130859e+00 6.497713002318050712e-06 -3.119148004770977423e-06 1.013569544738857076e-06 -4.272089597634476377e-07
2.041000000000000000e+03 1.302863883972167969e+01 4.366863727569580078e+00 3.157632818329147995e-06 -2.640818593135918491e-06 1.550442760844816803e-07 1.149555191659601405e-05
2.042000000000000000e+03 2.048838233947753906e+01 3.515872478485107422e+00 3.217491212126333266e-06 3.316074298709281720e-06 1.960069766937522218e-06 -4.136433062740252353e-07
2.043000000000000000e+03 3.966832351684570312e+01 -1.775131416320800781e+01 -3.561865014489740133e-04 -5.155199905857443810e-04 -2.615119447000324726e-04 1.831329282140359282e-04
2.044000000000000000e+03 1.145487880706787109e+01 3.805117845535278320e+00 1.646000600885599852e-05 3.861200639221351594e-06 6.096361630625324324e-06 6.963380656088702381e-06
2.045000000000000000e+03 3.848460769653320312e+01 -2.161936283111572266e+00 9.936155378818511963e-02 -7.082546502351760864e-02 8.560826070606708527e-03 6.721459329128265381e-02
2.046000000000000000e+03 3.889189529418945312e+01 -2.726797580718994141e+00 1.676387637853622437e-01 -1.114027723670005798e-01 1.687080040574073792e-02 9.151840209960937500e-02
2.047000000000000000e+03 1.790328598022460938e+01 3.819942951202392578e+00 -2.750001613094354980e-06 -7.341096761592780240e-07 -1.045233375407406129e-06 1.286533574784698430e-06
2.048000000000000000e+03 3.812809371948242188e+01 -2.063273429870605469e+01 -1.322208088822662830e-03 1.510280853835865855e-04 -3.513540141284465790e-04 -2.347001864109188318e-04
2.049000000000000000e+03 3.891635131835937500e+01 -1.634934234619140625e+01 6.064678473194362596e-06 -1.454800949431955814e-04 -4.182462726021185517e-05 1.173478303826414049e-04
2.050000000000000000e+03 3.856867218017578125e+01 -1.703719329833984375e+01 7.803658081684261560e-05 -5.600402946583926678e-04 -1.446011156076565385e-04 2.837795764207839966e-04
2.051000000000000000e+03 3.719058990478515625e+01 4.543572425842285156e+00 -1.390917605021968484e-04 -3.981915942858904600e-04 -1.611850020708516240e-04 2.390883018961176276e-04
2.052000000000000000e+03 1.291702938079833984e+01 3.744637489318847656e+00 1.110651282942853868e-05 7.179418389569036663e-06 5.485779183800332248e-06 7.441321940859779716e-06
2.053000000000000000e+03 1.506700515747070312e+01 3.722350835800170898e+00 -3.266213298047659919e-06 5.178791298021678813e-07 -8.245002049989125226e-07 4.139815246162470430e-06
2.054000000000000000e+03 1.435726642608642578e+01 3.712138414382934570e+00 8.430390153080224991e-06 8.167706255335360765e-06 4.979428922524675727e-06 6.556169410032453015e-06
2.055000000000000000e+03 3.711622619628906250e+01 -6.814759731292724609e+00 1.790467351675033569e-01 -2.882130146026611328e-01 -3.274988755583763123e-02 3.624713122844696045e-01
2.056000000000000000e+03 1.071299076080322266e+01 3.836632490158081055e+00 6.967578883632086217e-06 -8.670763236295897514e-06 -5.109552034809894394e-07 1.056079145200783387e-05
2.057000000000000000e+03 9.971291542053222656e+00 3.860802650451660156e+00 2.300799133081454784e-05 -4.181946735570818419e-07 6.776938789698760957e-06 4.439397798705613241e-06
2.058000000000000000e+03 1.219110965728759766e+01 3.774093389511108398e+00 3.792871666519204155e-06 -4.920548235531896353e-06 -3.383029252290725708e-07 1.060732029145583510e-05
2.059000000000000000e+03 4.049544811248779297e+00 3.734263420104980469e+00 1.024145331030013040e-05 2.169885419789352454e-06 3.723401505340007134e-06 -1.073102566806483082e-06
2.060000000000000000e+03 3.803736686706542969e+00 4.803423404693603516e+00 3.874427420669235289e-05 4.664021616918034852e-06 1.302248892898205668e-05 -5.942796974522934761e-07
2.061000000000000000e+03 2.526530647277832031e+01 -3.793250322341918945e+00 -4.401762187480926514e-01 2.477292530238628387e-02 -1.246209889650344849e-01 7.418417185544967651e-02
2.062000000000000000e+03 3.480681228637695312e+01 3.475750207901000977e+00 -1.289923093281686306e-04 1.628537575015798211e-04 1.015843463392229751e-05 -2.268279204145073891e-04
2.063000000000000000e+03 3.708755874633789062e+01 -2.152697324752807617e+00 3.609906882047653198e-03 -6.377051770687103271e-02 -1.804818212985992432e-02 1.516543030738830566e-01
2.064000000000000000e+03 1.119961929321289062e+01 -3.985644578933715820e+00 -5.991427302360534668e-01 5.962078273296356201e-02 -1.618565917015075684e-01 -4.384694993495941162e-01
2.065000000000000000e+03 1.267195034027099609e+01 -4.061810970306396484e+00 -6.446009278297424316e-01 1.027661859989166260e-01 -1.625504195690155029e-01 -3.764103055000305176e-01
2.066000000000000000e+03 7.624047088623046875e+01 -1.112605667114257812e+01 -6.600528955459594727e-02 -6.276559084653854370e-02 -3.863126412034034729e-02 -1.061832606792449951e-01
2.067000000000000000e+03 7.422932434082031250e+01 -1.096470928192138672e+01 -1.522623896598815918e-01 -3.019160404801368713e-02 -5.473620072007179260e-02 -1.530755758285522461e-01
2.068000000000000000e+03 4.635743713378906250e+01 -1.213642787933349609e+01 -5.891376137733459473e-01 1.918304413557052612e-01 -1.191921532154083252e-01 4.126021862030029297e-01
2.069000000000000000e+03 9.704177856445312500e+00 -3.390639305114746094e+00 -6.076028347015380859e-01 9.167575277388095856e-03 -1.795305758714675903e-01 -4.351681470870971680e-01
2.070000000000000000e+03 4.467774200439453125e+01 -1.035234928131103516e+01 -2.070866674184799194e-01 2.596793882548809052e-02 -5.433562025427818298e-02 4.060558676719665527e-01
2.071000000000000000e+03 1.431500434875488281e+01 -5.444146633148193359e+00 -3.519537448883056641e-01 2.335188090801239014e-01 -3.553048521280288696e-02 -2.526396811008453369e-01
2.072000000000000000e+03 9.232336997985839844e+00 3.875876903533935547e+00 8.565999451093375683e-06 -1.237782635143958032e-05 -1.143547933679656126e-06 5.588132353295804933e-06
2.073000000000000000e+03 1.353719902038574219e+01 -3.471887111663818359e+00 -7.901698350906372070e-01 7.280121743679046631e-02 -2.152105867862701416e-01 -3.013989925384521484e-01
2.074000000000000000e+03 1.339893054962158203e+01 -4.209510803222656250e+00 -6.332356333732604980e-01 1.159403622150421143e-01 -1.551885902881622314e-01 -3.233532607555389404e-01
2.075000000000000000e+03 7.048020362854003906e+00 3.954850673675537109e+00 2.651090471772477031e-05 -1.661313149270426948e-07 7.903431651357095689e-06 -1.011244239634834230e-05
2.076000000000000000e+03 7.665641307830810547e+00 -5.126307010650634766e+00 -2.769888043403625488e-01 -5.397158488631248474e-02 -9.928811341524124146e-02 -5.462389588356018066e-01
2.077000000000000000e+03 8.253226280212402344e+00 -4.293370246887207031e+00 -3.953118324279785156e-01 -2.467084303498268127e-02 -1.259948015213012695e-01 -5.028704404830932617e-01
2.078000000000000000e+03 7.036282539367675781e+00 -4.951355934143066406e+00 -2.655318081378936768e-01 -8.083701878786087036e-02 -1.039106473326683044e-01 -5.230797529220581055e-01
2.079000000000000000e+03 3.339184761047363281e+00 -4.774364471435546875e+00 -9.550382196903228760e-02 -2.472890466451644897e-01 -1.028378605842590332e-01 -3.382239341735839844e-01
2.080000000000000000e+03 2.976741552352905273e+00 -3.511525630950927734e+00 -1.106972992420196533e-01 -1.479398459196090698e-01 -7.759114354848861694e-02 -2.402414828538894653e-01
2.081000000000000000e+03 1.092692565917968750e+01 -4.548891544342041016e+00 -4.784299433231353760e-01 6.721428781747817993e-02 -1.233646944165229797e-01 -4.730446636676788330e-01
2.082000000000000000e+03 1.813216590881347656e+01 -4.109508037567138672e+00 -5.891284942626953125e-01 1.495996713638305664e-01 -1.318586468696594238e-01 5.106841400265693665e-02
2.083000000000000000e+03 8.499003410339355469e+00 3.890602827072143555e+00 2.487932761141564697e-05 -7.189164534793235362e-07 7.248122983583016321e-06 3.703707136537559563e-07
2.084000000000000000e+03 3.427346420288085938e+01 -6.667996883392333984e+00 2.700928747653961182e-01 -2.255872189998626709e-01 1.335170213133096695e-02 4.035689830780029297e-01
2.085000000000000000e+03 4.693264770507812500e+01 -1.230291175842285156e+01 -6.432549953460693359e-01 2.318938523530960083e-01 -1.234083473682403564e-01 4.126233458518981934e-01
2.086000000000000000e+03 1.665900039672851562e+01 -3.130360841751098633e+00 -8.950522541999816895e-01 7.209803909063339233e-02 -2.468862682580947876e-01 -8.898575603961944580e-02
2.087000000000000000e+03 6.882925415039062500e+01 -1.231875324249267578e+01 -4.386920332908630371e-01 6.476323306560516357e-02 -1.121786385774612427e-01 -5.739735439419746399e-02
2.088000000000000000e+03 7.159877014160156250e+01 -1.229718017578125000e+01 -2.625118494033813477e-01 4.203567281365394592e-02 -6.614285707473754883e-02 -1.057002469897270203e-01
2.089000000000000000e+03 7.238825225830078125e+01 -1.211116981506347656e+01 -2.155511826276779175e-01 2.127983421087265015e-02 -5.828140676021575928e-02 -1.231323331594467163e-01
2.090000000000000000e+03 7.566924285888671875e+01 -1.179747867584228516e+01 -9.304275363683700562e-02 -4.184281826019287109e-02 -4.046567156910896301e-02 -1.005123630166053772e-01
2.091000000000000000e+03 7.452293395996093750e+01 -1.206003952026367188e+01 -1.305993348360061646e-01 -1.877797394990921021e-02 -4.481319338083267212e-02 -1.069438830018043518e-01
2.092000000000000000e+03 4.039690399169921875e+01 -9.263980865478515625e+00 -4.786955565214157104e-02 -2.950733304023742676e-01 -1.028828620910644531e-01 3.491548895835876465e-01
2.093000000000000000e+03 4.158779907226562500e+01 -6.507120132446289062e+00 3.661068081855773926e-01 -2.070834189653396606e-01 4.770701751112937927e-02 2.320257276296615601e-01
2.094000000000000000e+03 1.458310890197753906e+01 -4.290778636932373047e+00 -6.120944619178771973e-01 1.428951770067214966e-01 -1.407597959041595459e-01 -2.358495146036148071e-01
2.095000000000000000e+03 1.536452674865722656e+01 -4.056512355804443359e+00 -6.745204925537109375e-01 1.215239018201828003e-01 -1.658989638090133667e-01 -1.738606989383697510e-01
2.096000000000000000e+03 4.763417434692382812e+01 -1.487856006622314453e+01 -9.480277299880981445e-01 1.663209795951843262e-01 -2.345120161771774292e-01 1.717649400234222412e-01
2.097000000000000000e+03 7.101738739013671875e+01 -1.176822090148925781e+01 -2.913027107715606689e-01 5.181132256984710693e-02 -7.184741646051406860e-02 -1.231320872902870178e-01
2.098000000000000000e+03 4.161128997802734375e+01 -1.002077960968017578e+01 -1.623229533433914185e-01 -2.361299693584442139e-01 -1.195358783006668091e-01 3.582612574100494385e-01
2.099000000000000000e+03 4.209454345703125000e+01 -9.287346839904785156e+00 -1.099818851798772812e-02 -2.091905027627944946e-01 -6.605660915374755859e-02 3.375082314014434814e-01
2.100000000000000000e+03 2.874965476989746094e+01 -7.417321205139160156e+00 1.232888698577880859e+00 4.138047397136688232e-01 4.940080344676971436e-01 3.998745083808898926e-01
2.101000000000000000e+03 2.616569900512695312e+01 -5.020085334777832031e+00 8.104904741048812866e-02 1.235234066843986511e-01 6.137173622846603394e-02 1.979834884405136108e-01
2.102000000000000000e+03 3.522822952270507812e+01 5.169536590576171875e+00 1.930023136083036661e-04 9.210128337144851685e-05 8.553107909392565489e-05 -9.121259063249453902e-05
2.103000000000000000e+03 3.468366622924804688e+01 4.298985004425048828e+00 -1.133318946813233197e-04 7.961379537846369203e-07 -3.376072709215804935e-05 -2.186994242947548628e-04
2.104000000000000000e+03 3.799914932250976562e+01 -7.581839084625244141e+00 1.425822377204895020e-01 -3.099894821643829346e-01 -5.022217333316802979e-02 3.507227599620819092e-01
2.105000000000000000e+03 7.386611938476562500e+01 -1.168422222137451172e+01 -1.431865841150283813e-01 -8.610610850155353546e-03 -4.553915932774543762e-02 -1.210567355155944824e-01
2.106000000000000000e+03 2.246635818481445312e+01 -2.965980291366577148e+00 -8.150473833084106445e-01 2.297008633613586426e-01 -1.756039559841156006e-01 1.093715950846672058e-01
2.107000000000000000e+03 3.719689559936523438e+01 -7.635233402252197266e+00 1.338275521993637085e-01 -3.049494922161102295e-01 -5.133658275008201599e-02 3.619260787963867188e-01
2.108000000000000000e+03 3.564434814453125000e+01 -6.841230392456054688e+00 1.975490003824234009e-01 -2.591199278831481934e-01 -1.847127638757228851e-02 3.855730593204498291e-01
2.109000000000000000e+03 1.889702415466308594e+01 -4.493326663970947266e+00 -4.611307382583618164e-01 1.650071144104003906e-01 -8.883708715438842773e-02 9.726715832948684692e-02
2.110000000000000000e+03 6.826043701171875000e+01 -1.282416915893554688e+01 -4.362840056419372559e-01 2.674928493797779083e-02 -1.228604167699813843e-01 -9.351878426969051361e-03
2.111000000000000000e+03 4.321701431274414062e+01 -1.029845619201660156e+01 -1.807071864604949951e-01 -1.015137657523155212e-01 -8.466628938913345337e-02 3.696950674057006836e-01
2.112000000000000000e+03 7.326268768310546875e+01 -1.206390953063964844e+01 -1.737984269857406616e-01 4.647640511393547058e-03 -5.074523761868476868e-02 -1.079996302723884583e-01
2.113000000000000000e+03 6.963439941406250000e+01 -1.231022930145263672e+01 -3.818768858909606934e-01 7.810972630977630615e-02 -9.113014489412307739e-02 -6.111652404069900513e-02
2.114000000000000000e+03 7.348128509521484375e+01 -1.978770446777343750e+01 -1.697070729278493673e-05 -2.947595748992171139e-05 -1.393399907101411372e-05 2.068057801807299256e-05
2.115000000000000000e+03 7.420416259765625000e+01 -2.103313446044921875e+01 -1.551818604639265686e-05 -5.309704192768549547e-06 -6.248366844374686480e-06 1.148867704614531249e-05
2.116000000000000000e+03 3.228734588623046875e+01 -6.683410167694091797e+00 4.667199254035949707e-01 -1.409349590539932251e-01 9.773548692464828491e-02 4.450187683105468750e-01
2.117000000000000000e+03 4.278281784057617188e+01 -2.179827690124511719e+01 -1.845197053626179695e-03 -6.399945123121142387e-04 -7.455574814230203629e-04 1.842929050326347351e-03
2.118000000000000000e+03 3.820247268676757812e+01 9.513002395629882812e+00 -8.166984189301729202e-04 4.585068090818822384e-04 -1.074574756785295904e-04 -4.297948034945875406e-04
2.119000000000000000e+03 2.224149894714355469e+01 -2.046725034713745117e+00 -1.032815337181091309e+00 2.380992621183395386e-01 -2.384148389101028442e-01 1.346558779478073120e-01
2.120000000000000000e+03 3.717331695556640625e+01 -1.761999702453613281e+01 -4.571107274387031794e-04 -3.207141708116978407e-04 -2.333474694751203060e-04 1.079431385733187199e-04
2.121000000000000000e+03 4.365019607543945312e+01 -9.773465156555175781e+00 -6.456784158945083618e-02 -5.646100640296936035e-02 -3.630865365266799927e-02 3.758148550987243652e-01
2.122000000000000000e+03 4.454865646362304688e+01 -7.148013591766357422e+00 5.135735273361206055e-01 -5.050735175609588623e-02 1.389198601245880127e-01 2.649371325969696045e-01
2.123000000000000000e+03 1.350655555725097656e+01 -1.038039684295654297e+01 5.054883360862731934e-01 8.022085428237915039e-01 3.923090696334838867e-01 -1.174102649092674255e-01
2.124000000000000000e+03 3.016167831420898438e+01 -6.908180713653564453e+00 8.460201621055603027e-01 1.969347596168518066e-01 3.128864765167236328e-01 5.335676074028015137e-01
2.125000000000000000e+03 3.560261154174804688e+01 -6.147785663604736328e+00 1.905883103609085083e-01 -2.485563606023788452e-01 -1.739041693508625031e-02 4.012592136859893799e-01
2.126000000000000000e+03 4.286705780029296875e+01 -1.885777091979980469e+01 -5.879077361896634102e-04 -5.267536616884171963e-04 -3.343984135426580906e-04 -1.595678477315232158e-04
2.127000000000000000e+03 3.256210708618164062e+01 -6.151291847229003906e+00 3.457126021385192871e-01 -1.510719954967498779e-01 5.839218199253082275e-02 4.911622107028961182e-01
2.128000000000000000e+03 3.180121612548828125e+01 -6.377869606018066406e+00 4.704061448574066162e-01 -1.014879047870635986e-01 1.106754764914512634e-01 4.985250830650329590e-01
2.129000000000000000e+03 2.097401237487792969e+01 -3.456915855407714844e+00 -6.837580204010009766e-01 1.726198792457580566e-01 -1.533414423465728760e-01 1.336679011583328247e-01
2.130000000000000000e+03 2.349292373657226562e+01 -4.271315574645996094e+00 -3.310811817646026611e-01 1.543078869581222534e-01 -5.303198844194412231e-02 1.096990406513214111e-01
2.131000000000000000e+03 4.865108489990234375e+01 -1.410209274291992188e+01 -1.091299057006835938e+00 1.077607348561286926e-01 -2.950614690780639648e-01 2.068765163421630859e-01
2.132000000000000000e+03 4.968309402465820312e+01 -1.307518577575683594e+01 -1.005831480026245117e+00 1.872356534004211426e-01 -2.455787360668182373e-01 2.327763289213180542e-01
2.133000000000000000e+03 3.892592620849609375e+01 -2.141829299926757812e+01 -3.578478936105966568e-03 9.297736141888890415e-06 -1.070754369720816612e-03 -9.334926726296544075e-04
2.134000000000000000e+03 2.017325782775878906e+01 -3.623256206512451172e+00 -6.587877273559570312e-01 1.522621661424636841e-01 -1.519576758146286011e-01 1.218739449977874756e-01
2.135000000000000000e+03 6.102786254882812500e+01 -1.499719500541687012e+00 5.050486922264099121e-01 5.082235932350158691e-01 3.039816915988922119e-01 2.724066078662872314e-01
2.136000000000000000e+03 3.816080856323242188e+01 -1.710665583610534668e+00 3.605164960026741028e-02 -4.329001158475875854e-02 -2.171508502215147018e-03 6.110867857933044434e-02
2.137000000000000000e+03 3.829364395141601562e+01 -3.161577939987182617e+00 1.521665900945663452e-01 -1.295810490846633911e-01 6.775664631277322769e-03 1.524585932493209839e-01
2.138000000000000000e+03 3.424184417724609375e+01 1.467178630828857422e+01 -6.694656331092119217e-03 -8.031844045035541058e-04 -2.249352168291807175e-03 5.503032822161912918e-03
2.139000000000000000e+03 1.165882682800292969e+01 -1.442494106292724609e+01 6.361119151115417480e-01 1.046257853507995605e+00 5.047109723091125488e-01 -1.411911472678184509e-02
2.140000000000000000e+03 2.960869407653808594e+01 -6.853305339813232422e+00 8.436779379844665527e-01 2.821196913719177246e-01 3.377392888069152832e-01 4.830367565155029297e-01
2.141000000000000000e+03 4.679297256469726562e+01 -1.167327785491943359e+01 -5.077441334724426270e-01 2.153670489788055420e-01 -8.771312981843948364e-02 4.319893121719360352e-01
2.142000000000000000e+03 6.404405212402343750e+01 -8.731089591979980469e+00 -4.369716942310333252e-01 -3.244636356830596924e-01 -2.284305989742279053e-01 -3.876670300960540771e-01
2.143000000000000000e+03 6.249175262451171875e+01 -1.128463268280029297e+01 -1.221168637275695801e+00 -2.868671119213104248e-01 -4.524107277393341064e-01 -2.562217712402343750e-01
2.144000000000000000e+03 4.165919303894042969e+00 -1.059079837799072266e+01 6.952950358390808105e-02 -5.643309950828552246e-01 -1.484404504299163818e-01 -4.364646375179290771e-01
2.145000000000000000e+03 3.513252639770507812e+01 8.789681434631347656e+00 -6.855143146822229028e-05 -4.873695143032819033e-04 -1.667762844590470195e-04 -2.634678385220468044e-04
2.146000000000000000e+03 6.080734634399414062e+01 -9.640972137451171875e+00 -6.373350620269775391e-01 -7.216560840606689453e-02 -2.128501981496810913e-01 -2.376129776239395142e-01
2.147000000000000000e+03 1.676015472412109375e+01 -2.857818794250488281e+01 8.715215325355529785e-02 7.217910289764404297e-01 2.426829487085342407e-01 -2.757336199283599854e-01
2.148000000000000000e+03 1.699932861328125000e+01 -2.648073768615722656e+01 2.860712409019470215e-01 8.330801129341125488e-01 3.357454240322113037e-01 -4.374324381351470947e-01
2.149000000000000000e+03 6.958605194091796875e+01 -2.766001129150390625e+01 5.638699440169148147e-05 3.014380854438059032e-05 2.595924161141738296e-05 3.409480996197089553e-05
2.150000000000000000e+03 6.774621582031250000e+01 -2.743534469604492188e+01 1.331750681856647134e-04 -5.090405466035008430e-05 2.468130332999862731e-05 4.081230508745647967e-05
2.151000000000000000e+03 6.839089202880859375e+01 -1.161139202117919922e+01 -6.915780305862426758e-01 1.388596594333648682e-01 -1.658155173063278198e-01 -1.296763271093368530e-01
2.152000000000000000e+03 7.543527221679687500e+01 2.427010726928710938e+01 6.693652365356683731e-03 -6.023313999176025391e-01 -1.786913275718688965e-01 1.995893716812133789e-01
2.153000000000000000e+03 7.627579498291015625e+01 -3.480780792236328125e+01 9.901275916490703821e-05 9.674583998275920749e-05 5.872757901670411229e-05 -5.597526615019887686e-05
2.154000000000000000e+03 7.547174835205078125e+01 -3.210217666625976562e+01 1.028027145366650075e-05 -2.381538251938764006e-05 -4.060533228766871616e-06 -8.748744585318490863e-05
2.155000000000000000e+03 3.826517486572265625e+01 1.209051132202148438e+01 -5.533472169190645218e-03 1.568139181472361088e-03 -1.189599977806210518e-03 -5.895002977922558784e-04
2.156000000000000000e+03 4.459097385406494141e+00 -3.012946128845214844e+01 -2.988121658563613892e-02 -5.047980546951293945e-01 -1.604037880897521973e-01 2.455613613128662109e-01
2.157000000000000000e+03 6.605016231536865234e+00 -1.985956382751464844e+01 2.808113992214202881e-01 -1.884552091360092163e-01 2.770685590803623199e-02 9.625909477472305298e-02
2.158000000000000000e+03 4.012524127960205078e+00 5.788744926452636719e+00 5.303425496094860137e-05 1.206211982207605615e-05 1.952891216205898672e-05 -5.338450864655897021e-05
2.159000000000000000e+03 4.299964904785156250e+00 8.320634841918945312e+00 1.534410074555125902e-07 2.970086541154159931e-07 1.351348970501931035e-07 -6.868570926599204540e-05
2.160000000000000000e+03 2.375416374206542969e+01 -8.135866165161132812e+00 1.028699994087219238e+00 5.075557902455329895e-02 3.238366544246673584e-01 3.903221189975738525e-01
2.161000000000000000e+03 7.554989624023437500e+01 1.330943965911865234e+01 6.350281834602355957e-02 -7.770347595214843750e-01 -2.140595912933349609e-01 -9.662735275924205780e-03
2.162000000000000000e+03 7.545591735839843750e+01 1.471038341522216797e+01 7.318501174449920654e-02 -7.570263743400573730e-01 -2.051524221897125244e-01 2.923581562936306000e-02
2.163000000000000000e+03 2.857570409774780273e+00 2.067440795898437500e+01 -5.844921179232187569e-05 -2.409760782029479742e-05 -2.476404551998712122e-05 1.306224294239655137e-04
2.164000000000000000e+03 3.995182991027832031e+00 1.939282989501953125e+01 -9.230057185050100088e-05 -1.094735634978860617e-04 -6.053223842172883451e-05 6.276735075516626239e-05
2.165000000000000000e+03 5.116102981567382812e+01 -1.030925655364990234e+01 -2.880531847476959229e-01 4.192747473716735840e-01 3.936646878719329834e-02 2.445892095565795898e-01
2.166000000000000000e+03 5.056450271606445312e+01 -1.186872196197509766e+01 -7.352682948112487793e-01 2.741121947765350342e-01 -1.383468359708786011e-01 2.324136495590209961e-01
2.167000000000000000e+03 2.303346824645996094e+01 -6.239783763885498047e+00 3.593483567237854004e-01 1.023856699466705322e-01 1.385202109813690186e-01 2.300085127353668213e-01
2.168000000000000000e+03 5.514126586914062500e+01 -1.118008422851562500e+01 -7.634279131889343262e-01 1.772828400135040283e-01 -1.758435219526290894e-01 -1.972612440586090088e-01
2.169000000000000000e+03 5.280939483642578125e+01 -1.140969276428222656e+01 -7.110955119132995605e-01 2.681238353252410889e-01 -1.328915059566497803e-01 2.253665775060653687e-02
2.170000000000000000e+03 1.267842483520507812e+01 -1.530219554901123047e+01 7.464135289192199707e-01 1.487916827201843262e+00 6.702991127967834473e-01 2.230892777442932129e-01
2.171000000000000000e+03 5.066834449768066406e+00 2.923425674438476562e+01 -5.266944644972681999e-04 -1.946446718648076057e-03 -7.419423782266676426e-04 2.000902779400348663e-03
2.172000000000000000e+03 6.416696166992187500e+01 1.010948753356933594e+01 2.017281204462051392e-01 1.515464425086975098e+00 5.151577591896057129e-01 1.382495909929275513e-01
2.173000000000000000e+03 7.474355316162109375e+01 -2.972468185424804688e+01 8.466078725177794695e-05 -3.621635755735042039e-07 2.528958611947018653e-05 -1.177602825919166207e-04
2.174000000000000000e+03 7.369461822509765625e+01 -3.186134529113769531e+01 5.241367034614086151e-05 1.650543345022015274e-05 2.067573223030194640e-05 -1.132238830905407667e-04
2.175000000000000000e+03 7.734354400634765625e+01 -2.158749198913574219e+01 5.203522232477553189e-05 9.041010343935340643e-06 1.832286943681538105e-05 -1.149351101048523560e-05
2.176000000000000000e+03 7.617877960205078125e+01 3.001522827148437500e+01 -2.230975031852722168e-02 -5.302396416664123535e-01 -1.657648086547851562e-01 1.492262184619903564e-01
2.177000000000000000e+03 4.215903854370117188e+01 1.655447959899902344e+01 -2.130854316055774689e-02 4.013631958514451981e-03 -5.188473034650087357e-03 -3.862814512103796005e-03
2.178000000000000000e+03 4.213257598876953125e+01 -2.690882110595703125e+01 -1.236787065863609314e-02 5.161548499017953873e-03 -2.161896787583827972e-03 5.757707636803388596e-03
2.179000000000000000e+03 5.726881980895996094e+00 -1.312166309356689453e+01 2.209098637104034424e-01 -3.895049691200256348e-01 -5.057853087782859802e-02 -3.773312866687774658e-01
2.180000000000000000e+03 3.941528701782226562e+01 1.515748596191406250e+01 -1.361688505858182907e-02 4.833073820918798447e-03 -2.635143464431166649e-03 5.832276656292378902e-04
2.181000000000000000e+03 4.021422576904296875e+01 1.425666236877441406e+01 -1.222814619541168213e-02 3.535686992108821869e-03 -2.607737667858600616e-03 -2.165950601920485497e-03
2.182000000000000000e+03 7.587431335449218750e+01 -8.226179122924804688e+00 -7.689090073108673096e-02 -1.477745920419692993e-01 -6.739965081214904785e-02 -2.130548357963562012e-01
2.183000000000000000e+03 7.529137420654296875e+01 1.899143218994140625e+01 6.320193409919738770e-02 -6.862953901290893555e-01 -1.869280338287353516e-01 1.379979252815246582e-01
2.184000000000000000e+03 6.583145904541015625e+01 -9.353716850280761719e+00 -6.264029145240783691e-01 -1.497245579957962036e-01 -2.328382432460784912e-01 -4.773748517036437988e-01
2.185000000000000000e+03 6.505003356933593750e+01 -8.295351982116699219e+00 -3.560619652271270752e-01 -1.797642558813095093e-01 -1.607478559017181396e-01 -4.728903770446777344e-01
2.186000000000000000e+03 3.974532604217529297e+00 1.210717010498046875e+01 3.757341801247093827e-06 -1.750029514369089156e-05 -4.122886366531020030e-06 -6.043083340045996010e-05
2.187000000000000000e+03 7.573058319091796875e+01 7.829536437988281250e+00 6.024896353483200073e-02 -7.540135979652404785e-01 -2.081293910741806030e-01 -1.449819505214691162e-01
2.188000000000000000e+03 2.617641830444335938e+01 -6.810446262359619141e+00 8.082401752471923828e-01 2.030955255031585693e-01 3.034007251262664795e-01 2.577038109302520752e-01
2.189000000000000000e+03 4.421408653259277344e+00 2.611235427856445312e+01 -6.557088927365839481e-04 -9.807882597669959068e-04 -4.909491399303078651e-04 1.243602833710610867e-03
2.190000000000000000e+03 1.079280853271484375e+01 -2.235613059997558594e+01 3.234499990940093994e-01 8.537752032279968262e-01 3.531675636768341064e-01 1.368945986032485962e-01
2.191000000000000000e+03 4.472071075439453125e+01 2.198727798461914062e+01 -5.495430086739361286e-04 9.771035984158515930e-03 2.766447840258479118e-03 -3.390307771041989326e-03
2.192000000000000000e+03 3.545565605163574219e+00 3.351393508911132812e+01 -3.947256118408404291e-05 -3.532466245815157890e-03 -1.071581616997718811e-03 1.590214786119759083e-03
2.193000000000000000e+03 4.262982177734375000e+01 -6.993473052978515625e+00 3.806581497192382812e-01 -1.468953639268875122e-01 7.012884318828582764e-02 2.369678467512130737e-01
2.194000000000000000e+03 4.621905517578125000e+01 -7.017275333404541016e+00 7.414211034774780273e-01 4.228722676634788513e-02 2.351124882698059082e-01 2.825083136558532715e-01
2.195000000000000000e+03 4.091650772094726562e+01 -2.365943145751953125e+01 -8.279695175588130951e-03 2.505921293050050735e-03 -1.732132048346102238e-03 1.429033931344747543e-03
2.196000000000000000e+03 1.831324195861816406e+01 -9.128689765930175781e+00 8.149601817131042480e-01 5.181210041046142578e-01 3.999243378639221191e-01 4.229179024696350098e-01
2.197000000000000000e+03 6.550880432128906250e+01 1.847100257873535156e+01 3.612194657325744629e-01 1.030700445175170898e+00 4.175759553909301758e-01 -3.644235199317336082e-03
2.198000000000000000e+03 6.376400756835937500e+01 1.964234352111816406e+01 4.375014901161193848e-01 1.300748229026794434e+00 5.214748978614807129e-01 -1.053594052791595459e-01
2.199000000000000000e+03 5.828209686279296875e+01 -1.015265464782714844e+01 -6.451972723007202148e-01 1.054413914680480957e-01 -1.619267612695693970e-01 -2.734196484088897705e-01
2.200000000000000000e+03 6.360752487182617188e+01 1.172232151031494141e+01 1.343016326427459717e-01 1.808386802673339844e+00 5.828065276145935059e-01 1.208240166306495667e-01
2.201000000000000000e+03 4.068675231933593750e+01 -5.190731525421142578e+00 3.722167015075683594e-01 -1.853772103786468506e-01 5.605184659361839294e-02 1.703112721443176270e-01
2.202000000000000000e+03 3.955786514282226562e+01 -5.340305328369140625e+00 2.868066132068634033e-01 -2.379264384508132935e-01 1.466405298560857773e-02 2.270349413156509399e-01
2.203000000000000000e+03 6.085644531250000000e+01 -1.124136734008789062e+01 -1.090742945671081543e+00 -7.054829597473144531e-02 -3.483873903751373291e-01 -2.839787304401397705e-01
2.204000000000000000e+03 1.947245979309082031e+01 -8.123283386230468750e+00 6.378019452095031738e-01 3.229102790355682373e-01 2.882136702537536621e-01 4.133652448654174805e-01
2.205000000000000000e+03 4.558426284790039062e+01 2.057629013061523438e+01 -1.160882599651813507e-02 6.983951665461063385e-03 -1.387462485581636429e-03 -5.836187396198511124e-03
2.206000000000000000e+03 4.257535552978515625e+01 2.244105339050292969e+01 -1.442350680008530617e-03 1.498180720955133438e-02 4.061836749315261841e-03 -1.588417217135429382e-03
2.207000000000000000e+03 5.146216583251953125e+01 -3.492987442016601562e+01 1.652212115004658699e-03 -6.939096376299858093e-03 -1.586065278388559818e-03 6.181318778544664383e-03
2.208000000000000000e+03 5.243190765380859375e+01 -7.765308380126953125e+00 6.148214936256408691e-01 6.581820249557495117e-01 3.819010555744171143e-01 2.598958313465118408e-01
2.209000000000000000e+03 4.053627014160156250e+01 -3.999470949172973633e+00 3.535878360271453857e-01 -1.496766358613967896e-01 6.117335706949234009e-02 9.380517899990081787e-02
2.210000000000000000e+03 2.416736030578613281e+01 -3.222946548461914062e+01 3.716111183166503906e-02 1.967139840126037598e-01 7.016252726316452026e-02 -1.788901835680007935e-01
2.211000000000000000e+03 5.696406936645507812e+01 -4.413824558258056641e+00 8.307365775108337402e-01 5.108759403228759766e-01 4.024837613105773926e-01 4.473616778850555420e-01
2.212000000000000000e+03 5.956118011474609375e+01 -4.455567359924316406e+00 4.819288551807403564e-01 2.682395875453948975e-01 2.250505238771438599e-01 1.583887189626693726e-01
2.213000000000000000e+03 4.552823638916015625e+01 -9.900342941284179688e+00 -5.941610410809516907e-02 8.560581505298614502e-02 7.856912910938262939e-03 4.321905970573425293e-01
2.214000000000000000e+03 5.598976898193359375e+01 -5.088773727416992188e+00 9.768962264060974121e-01 5.107066035270690918e-01 4.462808370590209961e-01 4.455802738666534424e-01
2.215000000000000000e+03 4.257895660400390625e+01 -2.284403800964355469e+01 -5.142442882061004639e-03 1.647283643251284957e-04 -1.493314397521317005e-03 2.553503960371017456e-03
2.216000000000000000e+03 4.127214813232421875e+01 -2.251634407043457031e+01 -4.509252961724996567e-03 8.037171792238950729e-04 -1.111660618335008621e-03 1.467815483920276165e-03
2.217000000000000000e+03 7.567413330078125000e+01 -3.615109634399414062e+01 -1.805742067517712712e-04 8.178812277037650347e-05 -2.963582483062054962e-05 -8.833059837343171239e-05
2.218000000000000000e+03 5.738317871093750000e+01 -7.373222827911376953e+00 1.922233104705810547e-01 2.434292584657669067e-01 1.306957751512527466e-01 -2.620204119011759758e-03
2.219000000000000000e+03 3.839768981933593750e+01 -1.841711807250976562e+01 -7.610953762196004391e-04 -7.932877051644027233e-04 -4.663149302359670401e-04 1.226413296535611153e-04
2.220000000000000000e+03 3.890599489212036133e+00 3.731788253784179688e+01 5.147850024513900280e-04 -4.844014532864093781e-03 -1.298768795095384121e-03 1.178571023046970367e-03
2.221000000000000000e+03 5.059214115142822266e+00 3.608807754516601562e+01 5.322662764228880405e-04 -4.286347888410091400e-03 -1.126224407926201820e-03 1.789050409570336342e-03
2.222000000000000000e+03 3.554657745361328125e+01 -3.289884948730468750e+01 4.147113300859928131e-03 1.533365249633789062e-02 5.844229832291603088e-03 3.396611718926578760e-04
2.223000000000000000e+03 6.760774230957031250e+01 -1.094283103942871094e+01 -6.874567866325378418e-01 5.971758812665939331e-02 -1.883217692375183105e-01 -3.515981435775756836e-01
2.224000000000000000e+03 6.755228424072265625e+01 -9.325371742248535156e+00 -5.337858200073242188e-01 -8.989867754280567169e-03 -1.628326922655105591e-01 -4.591279625892639160e-01
2.225000000000000000e+03 4.890172958374023438e+00 -8.136367797851562500e+00 -6.916024722158908844e-03 -3.503268659114837646e-01 -1.071728691458702087e-01 -5.122205615043640137e-01
2.226000000000000000e+03 6.426446533203125000e+01 6.326293468475341797e+00 3.221865296363830566e-01 1.131223320960998535e+00 4.360229372978210449e-01 1.831678003072738647e-01
2.227000000000000000e+03 4.434145450592041016e+00 7.166996955871582031e+00 2.265258444822393358e-05 -1.238763252331409603e-05 3.079485622947686352e-06 -4.851075937040150166e-05
2.228000000000000000e+03 3.571911096572875977e+00 7.602065563201904297e+00 3.336002919240854681e-05 1.242061989614740014e-05 1.373419490846572444e-05 6.737921466992702335e-06
2.229000000000000000e+03 5.140305709838867188e+01 -8.487223625183105469e+00 3.468099832534790039e-01 6.205493807792663574e-01 2.902078032493591309e-01 3.146907687187194824e-01
2.230000000000000000e+03 4.881769943237304688e+01 -9.108643531799316406e+00 1.909265369176864624e-01 3.537686765193939209e-01 1.634085625410079956e-01 4.782845675945281982e-01
2.231000000000000000e+03 4.549283218383789062e+01 -7.887078285217285156e+00 4.324808716773986816e-01 2.525802329182624817e-02 1.373216658830642700e-01 3.088860213756561279e-01
2.232000000000000000e+03 6.443415832519531250e+01 3.685613870620727539e+00 3.449856638908386230e-01 7.814772129058837891e-01 3.379388451576232910e-01 8.083562552928924561e-02
2.233000000000000000e+03 1.187095832824707031e+01 -1.658872795104980469e+01 5.473547577857971191e-01 1.433481574058532715e+00 5.942509174346923828e-01 9.084849804639816284e-02
2.234000000000000000e+03 7.427098083496093750e+01 3.488140487670898438e+01 -5.861974507570266724e-02 -3.036096096038818359e-01 -1.086688041687011719e-01 1.218127906322479248e-01
2.235000000000000000e+03 3.928516769409179688e+01 -2.457523918151855469e+01 -1.206935290247201920e-02 4.429944325238466263e-03 -2.291822573170065880e-03 -4.685772291850298643e-04
2.236000000000000000e+03 3.837267303466796875e+01 -2.306623840332031250e+01 -8.519286289811134338e-03 2.033337950706481934e-03 -1.945784431882202625e-03 -1.888865255750715733e-03
2.237000000000000000e+03 4.716873645782470703e+00 -1.605718994140625000e+01 1.927603483200073242e-01 -6.490364670753479004e-01 -1.368828415870666504e-01 -1.684552878141403198e-01
2.238000000000000000e+03 6.050773620605468750e+01 -4.007625579833984375e+00 4.395799040794372559e-01 2.602584958076477051e-01 2.099515199661254883e-01 1.210174784064292908e-01
2.239000000000000000e+03 6.005348205566406250e+01 -2.890522480010986328e+00 5.447937250137329102e-01 3.929961025714874268e-01 2.813369333744049072e-01 2.589614093303680420e-01
2.240000000000000000e+03 2.909288215637207031e+01 -2.533280372619628906e+00 -8.339178562164306641e-01 5.479088053107261658e-02 -2.337380945682525635e-01 3.903906643390655518e-01
2.241000000000000000e+03 2.820617103576660156e+01 -2.743943691253662109e+00 -8.256118893623352051e-01 2.518270630389451981e-03 -2.469280809164047241e-01 3.781150877475738525e-01
2.242000000000000000e+03 2.972409057617187500e+01 -2.375910997390747070e+00 -8.121203780174255371e-01 7.518927752971649170e-02 -2.210793346166610718e-01 3.728453516960144043e-01
2.243000000000000000e+03 2.925776863098144531e+01 -2.860170125961303711e+00 -6.861870884895324707e-01 7.426290214061737061e-02 -1.835772544145584106e-01 4.314635992050170898e-01
2.244000000000000000e+03 2.730577278137207031e+01 -2.531554460525512695e+00 -9.565421938896179199e-01 -1.477968096733093262e-01 -3.313016891479492188e-01 3.164612352848052979e-01
2.245000000000000000e+03 2.741901397705078125e+01 -2.229191303253173828e+00 -1.115264177322387695e+00 -1.422384679317474365e-01 -3.772507905960083008e-01 3.170249164104461670e-01
2.246000000000000000e+03 2.696551513671875000e+01 -2.795901536941528320e+00 -8.168764710426330566e-01 -1.456354409456253052e-01 -2.887535691261291504e-01 2.771852910518646240e-01
2.247000000000000000e+03 3.016032981872558594e+01 -2.340541839599609375e+00 -7.538709044456481934e-01 8.035340160131454468e-02 -2.020552605390548706e-01 3.720715045928955078e-01
2.248000000000000000e+03 1.894417762756347656e+01 2.394977951049804688e+01 -1.298918761312961578e-02 -5.706304218620061874e-04 -4.067945294082164764e-03 4.236238542944192886e-03
2.249000000000000000e+03 3.497010040283203125e+01 5.849156856536865234e+00 -3.239013894926756620e-04 2.131245310010854155e-05 -9.077668073587119579e-05 7.602183177368715405e-05
2.250000000000000000e+03 2.795758819580078125e+01 2.297732353210449219e+01 -2.426118031144142151e-02 -1.350327767431735992e-02 -1.132933702319860458e-02 1.295271515846252441e-02
2.251000000000000000e+03 1.428119468688964844e+01 1.367028427124023438e+01 -5.350888386601582170e-05 2.416019415250048041e-04 5.642791802529245615e-05 5.672395855071954429e-05
2.252000000000000000e+03 2.703453826904296875e+01 -2.366770982742309570e+00 -1.033214926719665527e+00 -2.080210149288177490e-01 -3.723707795143127441e-01 2.866908013820648193e-01
2.253000000000000000e+03 2.633353614807128906e+01 -3.196840524673461914e+00 -6.223335862159729004e-01 -1.005572304129600525e-01 -2.168672382831573486e-01 1.665457785129547119e-01
2.254000000000000000e+03 1.354534149169921875e+01 1.786886978149414062e+01 -1.043408701661974192e-04 2.090473135467618704e-04 3.141193519695661962e-05 9.963567572413012385e-05
2.255000000000000000e+03 2.365554618835449219e+01 2.391872406005859375e+01 -2.263943850994110107e-02 -5.816030781716108322e-03 -8.536640554666519165e-03 9.318755939602851868e-03
2.256000000000000000e+03 3.340856552124023438e+01 1.165305805206298828e+01 -9.777395753189921379e-04 -4.249174962751567364e-04 -4.207971214782446623e-04 9.843346197158098221e-04
2.257000000000000000e+03 3.385615539550781250e+01 1.141974925994873047e+01 -1.502193044871091843e-03 -2.549744676798582077e-04 -5.271502304822206497e-04 1.201578066684305668e-03
2.258000000000000000e+03 3.352750015258789062e+01 1.132493305206298828e+01 -5.354558816179633141e-04 -2.946885360870510340e-04 -2.490433107595890760e-04 6.828310433775186539e-04
2.259000000000000000e+03 1.752641296386718750e+01 8.280773162841796875e+00 1.696933395578525960e-05 1.296650953008793294e-05 8.980753591458778828e-06 1.197044639411615208e-05
2.260000000000000000e+03 1.689090728759765625e+01 8.273249626159667969e+00 1.843231621023733169e-05 1.691735087661072612e-05 1.060490012605441734e-05 1.021726711769588292e-05
2.261000000000000000e+03 1.380237579345703125e+01 1.704228210449218750e+01 1.001583223114721477e-04 4.203827120363712311e-04 1.561623066663742065e-04 1.440568885300308466e-04
2.262000000000000000e+03 3.215460586547851562e+01 1.676823616027832031e+01 -8.409981615841388702e-03 -8.617622777819633484e-03 -5.108281038701534271e-03 1.000217162072658539e-02
2.263000000000000000e+03 1.385768127441406250e+01 1.742162132263183594e+01 -9.528463124297559261e-05 4.206925514154136181e-04 9.762237459653988481e-05 1.351314276689663529e-04
2.264000000000000000e+03 1.248122501373291016e+01 1.768509864807128906e+01 -5.274515569908544421e-05 -4.079710561200045049e-05 -2.806267730193212628e-05 3.147591633023694158e-05
2.265000000000000000e+03 3.073926734924316406e+01 -2.246377706527709961e+00 -7.092384099960327148e-01 7.784937322139739990e-02 -1.894167214632034302e-01 3.625373542308807373e-01
2.266000000000000000e+03 1.371821022033691406e+01 1.368304443359375000e+01 6.200953794177621603e-05 2.202275936724618077e-04 8.467114093946292996e-05 8.398874342674389482e-05
2.267000000000000000e+03 2.025207328796386719e+01 2.368907356262207031e+01 -1.712232455611228943e-02 -1.531379530206322670e-03 -5.596111062914133072e-03 5.160561762750148773e-03
2.268000000000000000e+03 3.345723342895507812e+01 1.565659236907958984e+01 -7.289625238627195358e-03 -3.405723953619599342e-03 -3.208604641258716583e-03 7.773508783429861069e-03
2.269000000000000000e+03 3.510581207275390625e+01 6.893500804901123047e+00 2.261665504192933440e-04 3.288215884822420776e-05 7.771461241645738482e-05 -1.499176846664340701e-06
2.270000000000000000e+03 1.929415512084960938e+01 4.352204322814941406e+00 5.347870683181099594e-06 -2.328194568690378219e-06 9.059028229785326403e-07 -1.223793788085458800e-06
2.271000000000000000e+03 3.730578231811523438e+01 8.567877769470214844e+00 -6.265352712944149971e-04 -2.954766096081584692e-04 -2.766035613603889942e-04 2.098137192660942674e-04
2.272000000000000000e+03 3.410919189453125000e+01 1.019848251342773438e+01 -5.808997084386646748e-04 3.463833418209105730e-04 -7.035490125417709351e-05 -7.733519305475056171e-05
2.273000000000000000e+03 3.465389633178710938e+01 8.656374931335449219e+00 -1.379703608108684421e-04 5.156496772542595863e-04 1.133037949330173433e-04 1.280171563848853111e-04
2.274000000000000000e+03 3.404920578002929688e+01 1.053409481048583984e+01 -1.941869559232145548e-04 -1.169942479464225471e-04 -9.335435606772080064e-05 3.726140712387859821e-04
2.275000000000000000e+03 3.316195678710937500e+01 1.637173271179199219e+01 -8.919612504541873932e-03 -4.588517826050519943e-03 -4.052439238876104355e-03 9.267440997064113617e-03
2.276000000000000000e+03 3.292734527587890625e+01 1.571662616729736328e+01 -7.086697965860366821e-03 -4.711428191512823105e-03 -3.539437893778085709e-03 7.888690568506717682e-03
2.277000000000000000e+03 1.768082237243652344e+01 7.401839733123779297e+00 -1.573746885696891695e-05 -4.476372396311489865e-06 -6.064152330509386957e-06 -1.180672916234470904e-05
2.278000000000000000e+03 1.516905212402343750e+01 1.119844150543212891e+01 -4.239441841491498053e-05 8.713299757800996304e-05 1.342157338513061404e-05 -1.307728962274268270e-05
2.279000000000000000e+03 1.464561843872070312e+01 1.032043170928955078e+01 -5.849850381878241024e-08 5.366481491364538670e-05 1.608189450053032488e-05 3.042014213860966265e-05
2.280000000000000000e+03 1.631606674194335938e+01 8.859202384948730469e+00 1.615583823877386749e-05 3.523118357406929135e-05 1.541610618005506694e-05 3.775396407945663668e-06
2.281000000000000000e+03 3.231231307983398438e+01 1.710480499267578125e+01 -1.008454896509647369e-02 -8.377439342439174652e-03 -5.538596305996179581e-03 1.115556713193655014e-02
2.282000000000000000e+03 3.193725776672363281e+01 1.702998161315917969e+01 -9.054354391992092133e-03 -1.054873690009117126e-02 -5.880927667021751404e-03 1.051936764270067215e-02
2.283000000000000000e+03 3.109906005859375000e+01 2.040926551818847656e+01 -2.681858465075492859e-02 -9.465706534683704376e-03 -1.088528707623481750e-02 1.292954757809638977e-02
2.284000000000000000e+03 2.789002990722656250e+01 2.397130393981933594e+01 -1.825971156358718872e-02 -1.152215804904699326e-02 -8.934561163187026978e-03 1.069416105747222900e-02
2.285000000000000000e+03 1.753473472595214844e+01 2.321980667114257812e+01 -1.050052419304847717e-02 1.148743249359540641e-04 -3.115694969892501831e-03 2.254968043416738510e-03
2.286000000000000000e+03 1.825441932678222656e+01 2.347400474548339844e+01 -1.205882709473371506e-02 -5.437901199911721051e-05 -3.633961779996752739e-03 2.960226032882928848e-03
2.287000000000000000e+03 1.814531898498535156e+01 6.044018268585205078e+00 2.894996669056126848e-06 -5.017344392399536446e-06 -6.367043283717066515e-07 -6.858746928628534079e-06
2.288000000000000000e+03 1.769134521484375000e+01 6.031110763549804688e+00 -1.422584045940311626e-05 3.632067546277539805e-06 -3.178131692038732581e-06 1.910313187636347720e-07
2.289000000000000000e+03 3.462834548950195312e+01 7.725817680358886719e+00 -1.954089821083471179e-04 -1.675876847002655268e-04 -1.088989956770092249e-04 -1.965402479982003570e-04
2.290000000000000000e+03 3.369527816772460938e+01 1.219460010528564453e+01 -1.891552237793803215e-03 -7.876792806200683117e-04 -8.037694497033953667e-04 1.707430346868932247e-03
2.291000000000000000e+03 3.177594947814941406e+01 1.933852577209472656e+01 -2.086766622960567474e-02 -8.546967990696430206e-03 -8.824390359222888947e-03 1.405868958681821823e-02
2.292000000000000000e+03 3.143424606323242188e+01 1.836533927917480469e+01 -1.519480254501104355e-02 -1.357524190098047256e-02 -8.631013333797454834e-03 1.440356485545635223e-02
2.293000000000000000e+03 1.856009101867675781e+01 5.483833312988281250e+00 -8.807041012914851308e-06 -6.603648216696456075e-06 -4.623206677933922037e-06 -2.963989231830055360e-07
2.294000000000000000e+03 1.942908287048339844e+01 5.292601585388183594e+00 6.925236448296345770e-06 1.269200538445147686e-06 2.458331209709285758e-06 -7.804111987752548885e-07
2.295000000000000000e+03 2.477958297729492188e+01 2.342252922058105469e+01 -2.625623345375061035e-02 -6.732754409313201904e-03 -9.896696545183658600e-03 1.110294181853532791e-02
2.296000000000000000e+03 2.545276260375976562e+01 2.372657012939453125e+01 -2.322629652917385101e-02 -8.196658454835414886e-03 -9.426887147128582001e-03 1.148842461407184601e-02
2.297000000000000000e+03 1.316098499298095703e+01 1.631649971008300781e+01 -6.712741742376238108e-05 1.655988016864284873e-04 2.954141564259771258e-05 1.485218817833811045e-04
2.298000000000000000e+03 1.982056236267089844e+01 2.368748474121093750e+01 -1.584105379879474640e-02 -1.088668243028223515e-03 -5.078916903585195541e-03 4.665319807827472687e-03
2.299000000000000000e+03 3.380739212036132812e+01 1.297532558441162109e+01 -2.472986467182636261e-03 -1.148678595200181007e-03 -1.086499541997909546e-03 2.688969718292355537e-03
2.300000000000000000e+03 3.267367553710937500e+01 1.689948272705078125e+01 -1.078047789633274078e-02 -6.187868770211935043e-03 -5.090503953397274017e-03 1.112136710435152054e-02
2.301000000000000000e+03 1.346621036529541016e+01 1.893337249755859375e+01 -4.857817257288843393e-04 1.819596946006640792e-04 -9.114660497289150953e-05 -2.429768064757809043e-04
2.302000000000000000e+03 1.313363647460937500e+01 1.800000000000000000e+01 -3.213486706954427063e-05 1.119704902521334589e-04 2.395068622718099505e-05 2.466809200996067375e-05
2.303000000000000000e+03 3.166829681396484375e+01 1.794981956481933594e+01 -1.326109282672405243e-02 -1.233902480453252792e-02 -7.680035196244716644e-03 1.297062821686267853e-02
2.304000000000000000e+03 1.936875152587890625e+01 2.373035049438476562e+01 -1.465239375829696655e-02 -8.074374636635184288e-04 -4.637949168682098389e-03 4.316879436373710632e-03
2.305000000000000000e+03 1.864308738708496094e+01 2.361811256408691406e+01 -1.318714395165443420e-02 -4.980775993317365646e-04 -4.105566535145044327e-03 3.662056988105177879e-03
2.306000000000000000e+03 1.459383392333984375e+01 2.150404357910156250e+01 -4.471253603696823120e-03 7.666858728043735027e-04 -1.111370278522372246e-03 -2.485170625732280314e-05
2.307000000000000000e+03 2.158003997802734375e+01 2.323043632507324219e+01 -2.273523621261119843e-02 -3.314438508823513985e-03 -7.814901880919933319e-03 5.324811674654483795e-03
2.308000000000000000e+03 3.053118515014648438e+01 1.996922874450683594e+01 -2.742287144064903259e-02 -1.630997657775878906e-02 -1.311985403299331665e-02 1.764029450714588165e-02
2.309000000000000000e+03 1.625535774230957031e+01 8.230765342712402344e+00 1.749316652421839535e-05 2.527748438296839595e-05 1.283119581785285845e-05 3.730391426870482974e-06
2.310000000000000000e+03 1.366288852691650391e+01 1.322366905212402344e+01 -3.208906491636298597e-05 1.460359635530039668e-04 3.418406777200289071e-05 1.110484081436879933e-04
2.311000000000000000e+03 1.342333793640136719e+01 2.015946197509765625e+01 -1.597084570676088333e-03 2.951648202724754810e-04 -3.905759076587855816e-04 -4.161285178270190954e-04
2.312000000000000000e+03 1.280779743194580078e+01 1.846854019165039062e+01 -3.022302989847958088e-04 4.646242814487777650e-05 -7.673035725019872189e-05 -1.242712169187143445e-04
2.313000000000000000e+03 2.066043472290039062e+01 2.422633361816406250e+01 -1.612813770771026611e-02 -2.804364310577511787e-03 -5.679750815033912659e-03 6.970137357711791992e-03
2.314000000000000000e+03 1.599690341949462891e+01 2.259415435791015625e+01 -7.175954058766365051e-03 6.399837438948452473e-04 -1.960791181772947311e-03 1.113921636715531349e-03
2.315000000000000000e+03 3.188537216186523438e+01 1.986194229125976562e+01 -2.253312617540359497e-02 -6.750127766281366348e-03 -8.784975856542587280e-03 1.297527272254228592e-02
2.316000000000000000e+03 3.087370109558105469e+01 1.972832870483398438e+01 -2.472944743931293488e-02 -1.429223082959651947e-02 -1.170650310814380646e-02 1.683842577040195465e-02
2.317000000000000000e+03 1.569891262054443359e+01 9.105593681335449219e+00 -2.091506530632614158e-06 4.828083547181449831e-05 1.385679843224352226e-05 7.005931479397986550e-07
2.318000000000000000e+03 1.403231143951416016e+01 2.019761085510253906e+01 -1.732376986183226109e-03 4.861354827880859375e-04 -3.738724626600742340e-04 -4.955628537572920322e-04
2.319000000000000000e+03 1.869232368469238281e+01 4.366725444793701172e+00 -1.119810804084409028e-06 3.428053105380968191e-06 6.924726676516002044e-07 9.022808740155596752e-07
2.320000000000000000e+03 2.221139907836914062e+01 2.349232101440429688e+01 -2.271675504744052887e-02 -4.351266659796237946e-03 -8.120406419038772583e-03 6.732054520398378372e-03
2.321000000000000000e+03 2.945204925537109375e+01 2.230624580383300781e+01 -2.538468502461910248e-02 -1.453702803701162338e-02 -1.197651401162147522e-02 1.049417816102504730e-02
2.322000000000000000e+03 2.812447929382324219e+01 2.215302467346191406e+01 -3.125441819429397583e-02 -1.568987965583801270e-02 -1.408328954130411148e-02 1.564564928412437439e-02
2.323000000000000000e+03 2.299918556213378906e+01 2.405844116210937500e+01 -2.083589322865009308e-02 -5.367756355553865433e-03 -7.861094549298286438e-03 8.650163188576698303e-03
2.324000000000000000e+03 2.201053810119628906e+01 2.387256050109863281e+01 -2.045463398098945618e-02 -3.965449519455432892e-03 -7.326025050133466721e-03 6.896609906107187271e-03
2.325000000000000000e+03 3.012709999084472656e+01 2.163780403137207031e+01 -2.728099189698696136e-02 -1.312706246972084045e-02 -1.212241593748331070e-02 1.033448614180088043e-02
2.326000000000000000e+03 1.405760765075683594e+01 2.149296569824218750e+01 -3.736403770744800568e-03 6.520368624478578568e-04 -9.253100724890828133e-04 1.159275780082680285e-04
2.327000000000000000e+03 1.468060111999511719e+01 2.256181716918945312e+01 -5.885620135813951492e-03 8.638058789074420929e-04 -1.506544300355017185e-03 1.067541074007749557e-03
2.328000000000000000e+03 1.495722961425781250e+01 9.781747817993164062e+00 -3.244202525820583105e-05 5.542538201552815735e-05 6.895006208651466295e-06 1.507388242316665128e-05
2.329000000000000000e+03 3.008780670166015625e+01 2.224629592895507812e+01 -2.385231107473373413e-02 -1.253639720380306244e-02 -1.091661304235458374e-02 8.976198732852935791e-03
2.330000000000000000e+03 3.523131561279296875e+01 4.392546653747558594e+00 7.919640484033152461e-05 -7.466733950423076749e-05 1.358718009214499034e-06 2.141684090020135045e-04
2.331000000000000000e+03 3.585762405395507812e+01 5.220577716827392578e+00 -1.572608161950483918e-04 -2.032184274867177010e-04 -1.081437731045298278e-04 -1.027937978506088257e-04
2.332000000000000000e+03 3.084804916381835938e+01 2.127898025512695312e+01 -2.619417943060398102e-02 -9.098160080611705780e-03 -1.058770157396793365e-02 9.996279142796993256e-03
2.333000000000000000e+03 3.078079986572265625e+01 2.178699111938476562e+01 -2.407326176762580872e-02 -8.979194797575473785e-03 -9.915736503899097443e-03 8.795949630439281464e-03
2.334000000000000000e+03 3.321634292602539062e+01 -5.828173637390136719e+00 2.494268417358398438e-01 -1.761716157197952271e-01 2.197656966745853424e-02 4.848744273185729980e-01
2.335000000000000000e+03 1.712893295288085938e+01 2.321956062316894531e+01 -9.385189041495323181e-03 8.436806092504411936e-05 -2.790246391668915749e-03 2.218656241893768311e-03
2.336000000000000000e+03 1.543105697631835938e+01 2.303802871704101562e+01 -7.025742437690496445e-03 5.887296865694224834e-04 -1.931103761307895184e-03 1.886162091977894306e-03
2.337000000000000000e+03 3.534024810791015625e+01 3.637256383895874023e+00 4.911413270747289062e-05 -2.020403626374900341e-04 -4.587787043419666588e-05 2.920420665759593248e-04
2.338000000000000000e+03 2.717218399047851562e+01 -2.855658769607543945e+00 -7.854467630386352539e-01 -1.196234151721000671e-01 -2.715210616588592529e-01 2.994324266910552979e-01
2.339000000000000000e+03 3.133405494689941406e+01 -3.192626237869262695e+00 -4.024909436702728271e-01 2.998752333223819733e-02 -1.117510274052619934e-01 4.580527842044830322e-01
2.340000000000000000e+03 3.145613288879394531e+01 -2.702338933944702148e+00 -5.060526132583618164e-01 4.132581129670143127e-02 -1.394180506467819214e-01 3.943773806095123291e-01
2.341000000000000000e+03 1.372077655792236328e+01 2.087849998474121094e+01 -2.559030894190073013e-03 4.721915465779602528e-04 -6.260517984628677368e-04 -2.662951010279357433e-04
2.342000000000000000e+03 3.699232101440429688e+01 -2.917347669601440430e+00 4.369013011455535889e-02 -1.040586903691291809e-01 -1.811056770384311676e-02 2.149169743061065674e-01
2.343000000000000000e+03 1.922831344604492188e+01 3.844975471496582031e+00 -2.395855062786722556e-06 -1.621513092686655000e-06 -1.205210423904645722e-06 -4.037490271002752706e-07
2.344000000000000000e+03 3.502565383911132812e+01 -3.455881357192993164e+00 -4.471483454108238220e-02 -1.110143959522247314e-01 -4.671876877546310425e-02 3.811470866203308105e-01
2.345000000000000000e+03 3.656530761718750000e+01 -3.275521993637084961e+00 2.867968007922172546e-02 -1.098365336656570435e-01 -2.434705570340156555e-02 2.691027522087097168e-01
2.346000000000000000e+03 3.654890441894531250e+01 5.029433250427246094e+00 5.875252536498010159e-04 1.103374888771213591e-04 2.093588118441402912e-04 -1.685011666268110275e-04
2.347000000000000000e+03 3.432058715820312500e+01 -6.009724617004394531e+00 2.209476679563522339e-01 -2.165857404470443726e-01 1.308575505390763283e-03 4.489484429359436035e-01
2.348000000000000000e+03 1.985004234313964844e+01 4.414783954620361328e+00 -5.753472578362561762e-06 1.808082060961169191e-06 -1.183617087008315139e-06 1.290527507080696523e-06
2.349000000000000000e+03 1.584582710266113281e+01 4.323052406311035156e+00 -4.941343831887934357e-06 2.476208919688360766e-06 -7.395404395538207609e-07 3.858419404423329979e-06
2.350000000000000000e+03 1.655526733398437500e+01 4.338346481323242188e+00 7.302266567421611398e-06 6.989462690398795530e-06 4.287518549972446635e-06 2.582606612122617662e-06
2.351000000000000000e+03 2.262581062316894531e+01 -3.498522043228149414e+00 -6.247464418411254883e-01 1.920921504497528076e-01 -1.297962814569473267e-01 1.099353879690170288e-01
2.352000000000000000e+03 1.316415405273437500e+01 4.996786594390869141e+00 7.092436135280877352e-06 9.461362424190156162e-06 4.966139385942369699e-06 1.152466120402095839e-05
2.353000000000000000e+03 2.573436546325683594e+01 -6.112106323242187500e+00 5.062268972396850586e-01 1.504527479410171509e-01 1.970038861036300659e-01 2.082865089178085327e-01
2.354000000000000000e+03 1.983938598632812500e+01 3.911592960357666016e+00 5.017599505663383752e-06 2.058951849903678522e-06 2.122965497619588859e-06 -6.173364681671955623e-07
2.355000000000000000e+03 4.168691635131835938e+01 -1.903808212280273438e+01 -1.260883407667279243e-03 -3.612287691794335842e-04 -4.866336530540138483e-04 2.577998093329370022e-04
2.356000000000000000e+03 1.373907279968261719e+01 4.315098285675048828e+00 8.553957741241902113e-06 9.236144251190125942e-06 5.337030415830668062e-06 9.779509127838537097e-06
2.357000000000000000e+03 4.719478988647460938e+01 -1.058001613616943359e+01 -2.594028413295745850e-01 2.311315983533859253e-01 -8.481377735733985901e-03 4.557963013648986816e-01
2.358000000000000000e+03 1.728217887878417969e+01 4.388924121856689453e+00 -6.587948064407100901e-06 1.823136472012265585e-06 -1.429443500455818139e-06 -3.132900161517682136e-08
2.359000000000000000e+03 3.913523864746093750e+01 -1.810540390014648438e+01 6.810029299231246114e-05 -1.142023684224113822e-04 -1.383062226523179561e-05 -8.506526501150801778e-05
2.360000000000000000e+03 1.008033943176269531e+01 4.551672935485839844e+00 7.234657914523268119e-06 -1.190172588394489139e-05 -1.400120481775957160e-06 1.137780509452568367e-05
2.361000000000000000e+03 1.514135646820068359e+01 4.313258171081542969e+00 9.960526767827104777e-06 7.433146947732893750e-06 5.218102160142734647e-06 5.691874321200884879e-06
2.362000000000000000e+03 1.444287967681884766e+01 4.298854827880859375e+00 -3.927045781892957166e-06 2.292429599037859589e-06 -4.903848775938968174e-07 5.142511781741632149e-06
2.363000000000000000e+03 7.326049804687500000e+01 -2.069417190551757812e+01 5.593858077190816402e-05 -2.046030385827179998e-05 1.064348361978773028e-05 -2.940447120636235923e-05
2.364000000000000000e+03 7.278910064697265625e+01 -1.968325042724609375e+01 3.294627049399423413e-06 4.276273102732375264e-05 1.381720721838064492e-05 -4.061313063630223041e-07
2.365000000000000000e+03 1.230888462066650391e+01 4.413809776306152344e+00 1.562007673783227801e-05 5.887906354473670945e-06 6.452394700318109244e-06 9.020595825859345496e-06
2.366000000000000000e+03 1.157120323181152344e+01 4.454763412475585938e+00 5.589775810221908614e-06 -6.414142717403592542e-06 -2.473100835231889505e-07 1.309551407757680863e-05
2.367000000000000000e+03 1.262279129028320312e+01 -4.687150001525878906e+00 -4.970085918903350830e-01 1.354164779186248779e-01 -1.084776297211647034e-01 -3.888807594776153564e-01
2.368000000000000000e+03 9.336515426635742188e+00 4.568461418151855469e+00 3.025028127012774348e-05 -4.706133950094226748e-06 7.663244105060584843e-06 4.895739948551636189e-06
2.369000000000000000e+03 9.803928375244140625e+00 -4.171581268310546875e+00 -4.982770681381225586e-01 2.439890615642070770e-02 -1.421634554862976074e-01 -4.857051670551300049e-01
2.370000000000000000e+03 1.149122238159179688e+01 -5.022628307342529297e+00 -4.227547645568847656e-01 1.159949079155921936e-01 -9.202795475721359253e-02 -4.588849544525146484e-01
2.371000000000000000e+03 4.047803401947021484e+00 -6.006056308746337891e+00 -8.077304810285568237e-02 -2.956950962543487549e-01 -1.129404380917549133e-01 -4.348096847534179688e-01
2.372000000000000000e+03 6.031477451324462891e+00 -5.545749664306640625e+00 -1.681379526853561401e-01 -1.528715342283248901e-01 -9.630284458398818970e-02 -5.235832929611206055e-01
2.373000000000000000e+03 4.409099578857421875e+01 -1.013093566894531250e+01 -1.499349027872085571e-01 -2.293090894818305969e-02 -5.185974389314651489e-02 3.750625550746917725e-01
2.374000000000000000e+03 1.491328907012939453e+01 -4.981413841247558594e+00 -4.611698687076568604e-01 1.920143812894821167e-01 -8.074665069580078125e-02 -2.061876505613327026e-01
2.375000000000000000e+03 6.286237239837646484e+00 -4.652609348297119141e+00 -2.497358918190002441e-01 -1.074499338865280151e-01 -1.071557477116584778e-01 -4.909160137176513672e-01
2.376000000000000000e+03 4.883605957031250000e+00 5.565373897552490234e+00 4.694203744293190539e-05 1.069641893991502002e-05 1.729153700580354780e-05 -4.453687142813578248e-05
2.377000000000000000e+03 5.031719684600830078e+00 4.188109397888183594e+00 1.314828932663658634e-05 -6.325305093923816457e-06 2.046895360763301142e-06 6.532737643283326179e-06
2.378000000000000000e+03 9.011973381042480469e+00 -4.222532749176025391e+00 -4.413424730300903320e-01 3.885503392666578293e-03 -1.312370896339416504e-01 -4.976947307586669922e-01
2.379000000000000000e+03 1.054029750823974609e+01 -5.079069614410400391e+00 -3.932982087135314941e-01 7.933719456195831299e-02 -9.418831020593643188e-02 -5.061385035514831543e-01
2.380000000000000000e+03 7.766554832458496094e+00 3.919189214706420898e+00 1.267144398298114538e-05 -1.634561886021401733e-05 -1.102252440432494041e-06 2.085028199871885590e-06
2.381000000000000000e+03 6.467172145843505859e+00 4.677171707153320312e+00 3.838391785393469036e-05 3.306190365037764423e-06 1.250703189725754783e-05 -1.033674470818368718e-05
2.382000000000000000e+03 1.390102767944335938e+01 -4.716912746429443359e+00 -5.237906575202941895e-01 1.769101768732070923e-01 -1.040641441941261292e-01 -2.916500568389892578e-01
2.383000000000000000e+03 1.192542743682861328e+01 -4.036890029907226562e+00 -6.122663617134094238e-01 8.099052309989929199e-02 -1.593827456235885620e-01 -4.100883305072784424e-01
2.384000000000000000e+03 5.685309886932373047e+00 4.043140411376953125e+00 1.721635271678678691e-05 4.232888386468403041e-06 6.434772330976556987e-06 -1.845617953222244978e-05
2.385000000000000000e+03 4.313404560089111328e+00 5.288567543029785156e+00 -2.493416104698553681e-05 -3.564637609088094905e-06 -8.549639460397884250e-06 -6.904587280587293208e-06
2.386000000000000000e+03 5.180460929870605469e+00 -5.324234008789062500e+00 -1.544052511453628540e-01 -1.915331035852432251e-01 -1.037815064191818237e-01 -4.775830507278442383e-01
2.387000000000000000e+03 8.333620071411132812e+00 -5.060395717620849609e+00 -2.993435263633728027e-01 -2.469231002032756805e-02 -9.721074998378753662e-02 -5.432528853416442871e-01
2.388000000000000000e+03 9.061195373535156250e+00 -4.995068073272705078e+00 -3.471964299678802490e-01 1.214417535811662674e-02 -1.005156710743904114e-01 -5.389106869697570801e-01
2.389000000000000000e+03 7.159339427947998047e+00 4.710021972656250000e+00 1.510723541287006810e-05 -2.349324859096668661e-05 -2.515803771530045196e-06 3.433254505580407567e-06
2.390000000000000000e+03 8.612559318542480469e+00 4.571175098419189453e+00 1.029707618727115914e-05 -1.736017657094635069e-05 -2.118930069627822377e-06 1.629077246434462722e-06
2.391000000000000000e+03 7.895308494567871094e+00 4.611772537231445312e+00 2.410942761343903840e-05 -5.059464456280693412e-07 7.081044259393820539e-06 -1.794557988432643469e-06
2.392000000000000000e+03 1.778192329406738281e+01 -4.930466175079345703e+00 -3.750445544719696045e-01 2.080248892307281494e-01 -5.010589957237243652e-02 4.845616593956947327e-02
2.393000000000000000e+03 3.307309722900390625e+01 -6.374204635620117188e+00 3.402892649173736572e-01 -1.794011145830154419e-01 4.826644062995910645e-02 4.535340070724487305e-01
2.394000000000000000e+03 1.665985870361328125e+01 -3.771856069564819336e+00 -7.294392585754394531e-01 1.202606111764907837e-01 -1.827535927295684814e-01 -7.506614923477172852e-02
2.395000000000000000e+03 1.847574234008789062e+01 -5.267364501953125000e+00 -2.544894516468048096e-01 2.205694466829299927e-01 -1.017599646002054214e-02 1.241482421755790710e-01
2.396000000000000000e+03 3.573878479003906250e+01 3.925502061843872070e+00 4.199928953312337399e-04 1.870815030997619033e-04 1.821223268052563071e-04 -2.761980576906353235e-04
2.397000000000000000e+03 1.326479244232177734e+01 -4.885813236236572266e+00 -4.659657180309295654e-01 1.847602874040603638e-01 -8.436162769794464111e-02 -3.487782180309295654e-01
2.398000000000000000e+03 1.614000892639160156e+01 -4.832672119140625000e+00 -4.731079936027526855e-01 2.018516957759857178e-01 -8.137688785791397095e-02 -9.796383231878280640e-02
2.399000000000000000e+03 4.773831939697265625e+01 -1.308816051483154297e+01 -8.169526457786560059e-01 2.182702273130416870e-01 -1.796047240495681763e-01 3.580005764961242676e-01
2.400000000000000000e+03 3.947478485107421875e+01 -1.672942924499511719e+01 1.628048921702429652e-04 -4.152297624386847019e-04 -7.572746108053252101e-05 1.291110966121777892e-04
2.401000000000000000e+03 7.520451354980468750e+01 -1.237263488769531250e+01 -8.267695456743240356e-02 -2.419347688555717468e-02 -3.206112980842590332e-02 -7.970698177814483643e-02
2.402000000000000000e+03 4.763533782958984375e+01 -1.217556762695312500e+01 -6.797611713409423828e-01 2.272247970104217529e-01 -1.357609182596206665e-01 3.983120620250701904e-01
2.403000000000000000e+03 3.976950454711914062e+01 -8.103509902954101562e+00 1.056051999330520630e-01 -3.074453473091125488e-01 -6.055204570293426514e-02 3.432642817497253418e-01
2.404000000000000000e+03 3.790175247192382812e+01 -6.702240467071533203e+00 1.930003315210342407e-01 -2.936568856239318848e-01 -3.019696846604347229e-02 3.422496318817138672e-01
2.405000000000000000e+03 4.486449050903320312e+01 -9.620168685913085938e+00 -1.707363128662109375e-02 2.698618732392787933e-02 2.973766764625906944e-03 3.803104758262634277e-01
2.406000000000000000e+03 1.604870033264160156e+01 -3.843163251876831055e+00 -7.117136120796203613e-01 1.218776255846023560e-01 -1.769507974386215210e-01 -1.301854252815246582e-01
2.407000000000000000e+03 1.644884109497070312e+01 -4.314643859863281250e+00 -5.894412398338317871e-01 1.665161848068237305e-01 -1.268775165081024170e-01 -8.868347853422164917e-02
2.408000000000000000e+03 7.239328765869140625e+01 -1.129120445251464844e+01 -2.278014570474624634e-01 2.077342383563518524e-02 -6.210840865969657898e-02 -1.489639431238174438e-01
2.409000000000000000e+03 3.897758865356445312e+01 -1.924940490722656250e+01 -8.549139020033180714e-04 -1.417087041772902012e-04 -2.989867934957146645e-04 -1.611386105651035905e-04
2.410000000000000000e+03 1.577174091339111328e+01 -5.238963603973388672e+00 -3.865463137626647949e-01 2.429230064153671265e-01 -4.308699443936347961e-02 -1.223262995481491089e-01
2.411000000000000000e+03 2.391694259643554688e+01 -3.667526721954345703e+00 -5.586598515510559082e-01 1.577083617448806763e-01 -1.202854365110397339e-01 6.645304709672927856e-02
2.412000000000000000e+03 2.491272735595703125e+01 -4.490282535552978516e+00 -1.727649420499801636e-01 9.179966896772384644e-02 -2.428958006203174591e-02 9.154003113508224487e-02
2.413000000000000000e+03 3.636764526367187500e+01 -6.856233119964599609e+00 1.788156926631927490e-01 -2.787108421325683594e-01 -2.996854856610298157e-02 3.750347793102264404e-01
2.414000000000000000e+03 3.628190994262695312e+01 -6.132833480834960938e+00 1.882272213697433472e-01 -2.588706612586975098e-01 -2.119303680956363678e-02 3.842232525348663330e-01
2.415000000000000000e+03 2.302516746520996094e+01 -3.901325941085815430e+00 -5.109940767288208008e-01 1.795439869165420532e-01 -9.943503141403198242e-02 1.067753508687019348e-01
2.416000000000000000e+03 3.904536724090576172e+00 -8.163198471069335938e+00 -3.395321778953075409e-03 -4.419309198856353760e-01 -1.335978657007217407e-01 -4.597366750240325928e-01
2.417000000000000000e+03 4.972518444061279297e+00 -6.195398807525634766e+00 -9.541348367929458618e-02 -2.481482028961181641e-01 -1.030685082077980042e-01 -4.986121058464050293e-01
2.418000000000000000e+03 4.326290130615234375e+01 -9.192390441894531250e+00 4.658243805170059204e-02 -1.166325062513351440e-01 -2.101502008736133575e-02 3.449615836143493652e-01
2.419000000000000000e+03 4.267783737182617188e+01 -9.804214477539062500e+00 -9.287140518426895142e-02 -1.545019447803497314e-01 -7.421199977397918701e-02 3.565533459186553955e-01
2.420000000000000000e+03 5.198856830596923828e+00 6.722507953643798828e+00 5.061917181592434645e-05 -1.671287463977932930e-05 1.017188969854032621e-05 -1.056104974850313738e-05
2.421000000000000000e+03 7.025950622558593750e+01 -1.273615360260009766e+01 -3.376269042491912842e-01 6.087642908096313477e-02 -8.302514255046844482e-02 -6.168472394347190857e-02
2.422000000000000000e+03 3.438720321655273438e+01 -5.360096454620361328e+00 1.518918424844741821e-01 -1.894199997186660767e-01 -1.125844568014144897e-02 4.588389396667480469e-01
2.423000000000000000e+03 3.366640853881835938e+01 -3.643072366714477539e+00 -1.015522032976150513e-01 -1.071826741099357605e-01 -6.262046098709106445e-02 4.599521458148956299e-01
2.424000000000000000e+03 3.592785263061523438e+01 -4.160007953643798828e+00 6.902120262384414673e-02 -1.611578762531280518e-01 -2.764100022614002228e-02 3.596892058849334717e-01
2.425000000000000000e+03 3.295494079589843750e+01 -4.278089046478271484e+00 -1.116205379366874695e-02 -1.052147373557090759e-01 -3.491303697228431702e-02 5.106702446937561035e-01
2.426000000000000000e+03 3.763506698608398438e+01 -1.926143407821655273e+00 3.262695297598838806e-02 -5.540392175316810608e-02 -6.833091378211975098e-03 9.515854716300964355e-02
2.427000000000000000e+03 2.002990150451660156e+01 -4.307759284973144531e+00 -4.389998912811279297e-01 1.672942191362380981e-01 -8.151169866323471069e-02 1.386720091104507446e-01
2.428000000000000000e+03 1.945000839233398438e+01 -3.864399433135986328e+00 -6.042204499244689941e-01 1.470220386981964111e-01 -1.371595263481140137e-01 1.100853458046913147e-01
2.429000000000000000e+03 3.139245414733886719e+01 -6.047234058380126953e+00 4.242275953292846680e-01 -2.726838923990726471e-02 1.190877631306648254e-01 5.575362443923950195e-01
2.430000000000000000e+03 6.244425201416015625e+01 -9.770707130432128906e+00 -7.181053161621093750e-01 -2.426025718450546265e-01 -2.882123589515686035e-01 -2.785401940345764160e-01
2.431000000000000000e+03 2.979039382934570312e+01 -6.240443706512451172e+00 5.655928850173950195e-01 2.048745900392532349e-01 2.311402559280395508e-01 5.490214824676513672e-01
2.432000000000000000e+03 3.133357810974121094e+01 -5.359433174133300781e+00 2.364238351583480835e-01 -2.024728339165449142e-03 7.031973451375961304e-02 5.724527239799499512e-01
2.433000000000000000e+03 3.932146072387695312e+01 1.599108123779296875e+01 -1.713637821376323700e-02 8.382465690374374390e-03 -2.626174129545688629e-03 1.779231941327452660e-03
2.434000000000000000e+03 4.291446685791015625e+01 -2.097990036010742188e+01 -2.173882443457841873e-03 -5.800162907689809799e-04 -8.261696202680468559e-04 8.921431144699454308e-04
2.435000000000000000e+03 4.092580413818359375e+01 -1.884090232849121094e+01 -5.191669915802776814e-04 -3.004209138453006744e-04 -2.458763774484395981e-04 -2.162876189686357975e-04
2.436000000000000000e+03 3.960831451416015625e+01 -1.883581161499023438e+01 -1.458158018067479134e-03 -3.881052252836525440e-04 -5.538789555430412292e-04 3.772043564822524786e-04
2.437000000000000000e+03 1.471874237060546875e+01 -9.790769577026367188e+00 5.441268086433410645e-01 7.667395472526550293e-01 3.932599127292633057e-01 1.871529384516179562e-03
2.438000000000000000e+03 2.177230072021484375e+01 -3.142828941345214844e+00 -7.670868039131164551e-01 2.102556973695755005e-01 -1.670493334531784058e-01 1.271379441022872925e-01
2.439000000000000000e+03 4.997652530670166016e+00 3.244089889526367188e+01 6.242915696930140257e-05 -3.176557365804910660e-03 -9.342384291812777519e-04 2.147778403013944626e-03
2.440000000000000000e+03 3.892986774444580078e+00 3.479468917846679688e+01 4.651973140425980091e-04 -3.934987355023622513e-03 -1.040937029756605625e-03 1.593609107658267021e-03
2.441000000000000000e+03 5.387650680541992188e+01 -1.044676494598388672e+01 -4.961096942424774170e-01 2.861148416996002197e-01 -6.299845874309539795e-02 -5.301063507795333862e-02
2.442000000000000000e+03 7.114026641845703125e+01 -2.811875915527343750e+01 1.554580667288973927e-04 -3.217593621229752898e-05 3.698463842738419771e-05 3.323690179968252778e-05
2.443000000000000000e+03 4.046947479248046875e+00 1.810006523132324219e+01 -2.042560663539916277e-04 -6.829074118286371231e-05 -8.176403935067355633e-05 -4.275269748177379370e-05
2.444000000000000000e+03 7.559531402587890625e+01 -2.201045417785644531e+01 -4.510347935138270259e-05 -3.514483978506177664e-05 -2.407449574093334377e-05 -4.748630817630328238e-05
2.445000000000000000e+03 7.450880432128906250e+01 -2.020056724548339844e+01 1.934123429236933589e-05 -8.072971468209289014e-06 3.380478801773278974e-06 -5.569869608734734356e-05
2.446000000000000000e+03 5.743275833129882812e+01 -9.408221244812011719e+00 -3.454324305057525635e-01 1.747624725103378296e-01 -5.120098590850830078e-02 -1.868907362222671509e-01
2.447000000000000000e+03 5.577345657348632812e+01 -9.820404052734375000e+00 -3.967934250831604004e-01 2.440594285726547241e-01 -4.582020267844200134e-02 -1.526276916265487671e-01
2.448000000000000000e+03 6.526340484619140625e+01 6.929943084716796875e+00 2.945795953273773193e-01 9.522792696952819824e-01 3.740576505661010742e-01 5.968904867768287659e-02
2.449000000000000000e+03 3.733873367309570312e+01 1.165973186492919922e+01 -4.134350456297397614e-03 4.992919275537133217e-04 -1.090517500415444374e-03 5.311302957125008106e-04
2.450000000000000000e+03 2.253642082214355469e+01 -4.458927154541015625e+00 -3.082534372806549072e-01 1.697155535221099854e-01 -4.156136140227317810e-02 1.418771594762802124e-01
2.451000000000000000e+03 5.433118820190429688e+00 1.597519016265869141e+01 4.235384403727948666e-05 -1.515146286692470312e-04 -3.274823393439874053e-05 -7.675842061871662736e-05
2.452000000000000000e+03 6.916448974609375000e+01 -1.079276847839355469e+01 -4.855351448059082031e-01 8.080571144819259644e-02 -1.214188337326049805e-01 -2.677932083606719971e-01
2.453000000000000000e+03 6.385926437377929688e+01 7.229237556457519531e+00 3.062645792961120605e-01 1.277188539505004883e+00 4.750359356403350830e-01 2.080138325691223145e-01
2.454000000000000000e+03 6.617948913574218750e+01 7.591455459594726562e+00 2.864862382411956787e-01 8.228307962417602539e-01 3.327951133251190186e-01 2.639850601553916931e-02
2.455000000000000000e+03 4.360308170318603516e+00 1.549012184143066406e+01 -7.051881402730941772e-05 -6.715511699439957738e-05 -4.130218076170422137e-05 -1.147810762631706893e-04
2.456000000000000000e+03 3.945087051391601562e+01 -4.324873924255371094e+00 2.755219638347625732e-01 -1.919726878404617310e-01 2.506478503346443176e-02 1.738468110561370850e-01
2.457000000000000000e+03 3.853694915771484375e+01 -3.669343233108520508e+00 1.980545073747634888e-01 -1.650792956352233887e-01 9.892563335597515106e-03 1.770041733980178833e-01
2.458000000000000000e+03 4.427780914306640625e+01 -6.157274246215820312e+00 6.303445696830749512e-01 -7.045219093561172485e-02 1.679677218198776245e-01 9.807035326957702637e-02
2.459000000000000000e+03 2.427966117858886719e+01 -6.742213249206542969e+00 6.313865184783935547e-01 8.843851834535598755e-02 2.159475088119506836e-01 2.518247961997985840e-01
2.460000000000000000e+03 2.551224899291992188e+01 -7.257174491882324219e+00 9.423680305480957031e-01 1.478862166404724121e-01 3.270762562751770020e-01 3.106349110603332520e-01
2.461000000000000000e+03 7.275695037841796875e+01 -2.160465049743652344e+01 -4.288167019694810733e-06 3.587927858461625874e-05 9.477334060647990555e-06 2.408930595265701413e-05
2.462000000000000000e+03 1.212325000762939453e+01 -1.078746700286865234e+01 4.423697590827941895e-01 6.559774279594421387e-01 3.295041322708129883e-01 -2.722961008548736572e-01
2.463000000000000000e+03 1.303767776489257812e+01 -1.115933990478515625e+01 6.016145944595336914e-01 7.778145670890808105e-01 4.138287305831909180e-01 -1.235159933567047119e-01
2.464000000000000000e+03 5.302682113647460938e+01 -8.814466476440429688e+00 1.229070201516151428e-01 5.370623469352722168e-01 1.979908049106597900e-01 1.254032701253890991e-01
2.465000000000000000e+03 2.551045799255371094e+01 -4.874076366424560547e+00 -4.633034579455852509e-03 9.012828767299652100e-02 2.564857713878154755e-02 1.429505497217178345e-01
2.466000000000000000e+03 4.887680816650390625e+01 -1.206298923492431641e+01 -6.787402033805847168e-01 2.545122206211090088e-01 -1.272683888673782349e-01 3.754037320613861084e-01
2.467000000000000000e+03 5.001513957977294922e+00 1.190094566345214844e+01 7.055214518913999200e-05 -4.252979124430567026e-05 8.406705092056654394e-06 -8.485936268698424101e-05
2.468000000000000000e+03 3.830749750137329102e+00 1.092800903320312500e+01 7.049183477647602558e-05 9.166368727164808661e-06 2.389746077824383974e-05 -7.814681885065510869e-05
2.469000000000000000e+03 4.110010528564453125e+01 1.624324798583984375e+01 -1.868446543812751770e-02 6.999061442911624908e-03 -3.505621338263154030e-03 -2.540959045290946960e-03
2.470000000000000000e+03 7.471105194091796875e+01 -8.138667106628417969e+00 -1.039708033204078674e-01 -1.211065202951431274e-01 -6.752319633960723877e-02 -2.575564384460449219e-01
2.471000000000000000e+03 7.584455108642578125e+01 -6.966784477233886719e+00 -5.232574418187141418e-02 -2.046778351068496704e-01 -7.710107415914535522e-02 -2.484138906002044678e-01
2.472000000000000000e+03 7.569429016113281250e+01 6.464801788330078125e+00 5.308475345373153687e-02 -7.171490192413330078e-01 -1.992192715406417847e-01 -1.764622926712036133e-01
2.473000000000000000e+03 7.426879882812500000e+01 3.639827966690063477e+00 7.851174473762512207e-02 -4.577361345291137695e-01 -1.137673109769821167e-01 -2.689957916736602783e-01
2.474000000000000000e+03 5.626594543457031250e+01 -1.079710769653320312e+01 -7.159246206283569336e-01 1.605867743492126465e-01 -1.666013449430465698e-01 -2.455961704254150391e-01
2.475000000000000000e+03 1.180988502502441406e+01 -1.277164745330810547e+01 5.975680947303771973e-01 8.295747041702270508e-01 4.281428456306457520e-01 -1.678238511085510254e-01
2.476000000000000000e+03 4.690868377685546875e+00 9.019509315490722656e+00 2.681693149497732520e-05 -3.153422221657820046e-05 -1.415187284692365211e-06 -2.135861541319172829e-05
2.477000000000000000e+03 6.678420066833496094e+00 -1.159460830688476562e+01 2.128409743309020996e-01 -2.139433026313781738e-01 -3.306978906039148569e-04 -4.748504459857940674e-01
2.478000000000000000e+03 4.647411346435546875e+01 -8.481269836425781250e+00 3.499092161655426025e-01 1.160998418927192688e-01 1.398027241230010986e-01 4.215896725654602051e-01
2.479000000000000000e+03 6.863470458984375000e+01 -2.844703674316406250e+01 1.683656737441197038e-04 -2.042164123849943280e-04 -1.075522050086874515e-05 -1.570823224028572440e-04
2.480000000000000000e+03 7.030424499511718750e+01 -2.882214736938476562e+01 1.991156605072319508e-04 -2.404038532404229045e-04 -1.238646109413821250e-05 -6.592570571228861809e-05
2.481000000000000000e+03 5.132601737976074219e+00 2.331167984008789062e+01 -5.406609852798283100e-04 -4.937141784466803074e-04 -3.103125491179525852e-04 7.897743489593267441e-04
2.482000000000000000e+03 2.025185775756835938e+01 -6.166682243347167969e+00 9.569044411182403564e-02 2.208276987075805664e-01 9.495544433593750000e-02 2.450759559869766235e-01
2.483000000000000000e+03 2.147347831726074219e+01 -7.831808090209960938e+00 7.232141494750976562e-01 1.524155884981155396e-01 2.626889348030090332e-01 4.314795732498168945e-01
2.484000000000000000e+03 3.743095779418945312e+01 1.240725898742675781e+01 -6.419663317501544952e-03 1.374593237414956093e-03 -1.513520954176783562e-03 1.005444442853331566e-03
2.485000000000000000e+03 6.138414764404296875e+01 1.430473685264587402e+00 4.193352460861206055e-01 8.274056911468505859e-01 3.740222752094268799e-01 3.603113591670989990e-01
2.486000000000000000e+03 3.900526428222656250e+01 1.374322700500488281e+01 -1.030579116195440292e-02 3.846426028758287430e-03 -1.937809516675770283e-03 -6.590326665900647640e-04
2.487000000000000000e+03 3.869501113891601562e+01 1.494247150421142578e+01 -1.310357823967933655e-02 6.265541072934865952e-03 -2.051411196589469910e-03 9.180798078887164593e-04
2.488000000000000000e+03 3.859286880493164062e+01 -1.996610069274902344e+01 -1.477855141274631023e-03 -1.665716263232752681e-04 -4.933280288241803646e-04 3.442252818786073476e-06
2.489000000000000000e+03 7.440684509277343750e+01 -2.835406494140625000e+01 8.292707934742793441e-05 5.154113750904798508e-05 4.034046651213429868e-05 -9.237424819730222225e-05
2.490000000000000000e+03 7.417135620117187500e+01 1.450405883789062500e+01 1.051164492964744568e-01 -5.269381403923034668e-01 -1.265465021133422852e-01 2.729395590722560883e-02
2.491000000000000000e+03 7.520452880859375000e+01 -2.107289886474609375e+01 9.088443039217963815e-05 2.284555375808849931e-05 3.411899524508044124e-05 2.453606975905131549e-05
2.492000000000000000e+03 7.400470733642578125e+01 -2.352539825439453125e+01 8.334709855262190104e-05 1.713655547064263374e-05 3.014509638887830079e-05 1.313443863182328641e-05
2.493000000000000000e+03 7.617307281494140625e+01 -2.425610733032226562e+01 -2.757352194748818874e-05 -3.085524804191663861e-05 -1.752863136061932892e-05 -5.223702464718371630e-05
2.494000000000000000e+03 7.497800445556640625e+01 -2.343811225891113281e+01 1.281990444113034755e-05 -8.313151192851364613e-05 -2.109348133672028780e-05 -8.090144547168165445e-05
2.495000000000000000e+03 7.585906219482421875e+01 -3.915423154830932617e-01 1.887100934982299805e-02 -5.072724223136901855e-01 -1.465204209089279175e-01 -2.839873135089874268e-01
2.496000000000000000e+03 5.559611797332763672e+00 8.797236442565917969e+00 4.148714288021437824e-05 -2.313462391612119973e-05 5.505755780177423730e-06 -5.723385038436390460e-05
2.497000000000000000e+03 6.164745712280273438e+01 -1.046458435058593750e+01 -8.853569030761718750e-01 -1.770772784948348999e-01 -3.187302350997924805e-01 -3.129715025424957275e-01
2.498000000000000000e+03 3.702992248535156250e+01 5.770743370056152344e+00 -4.079863138031214476e-04 -3.260960220359265804e-04 -2.202246978413313627e-04 1.876895403256639838e-04
2.499000000000000000e+03 7.524415588378906250e+01 -3.413257980346679688e+01 -5.560909630730748177e-05 2.012950608332175761e-05 -1.064387652149889618e-05 -5.588684871327131987e-05
2.500000000000000000e+03 6.313425827026367188e+01 1.333759665489196777e+00 3.495550453662872314e-01 6.771577596664428711e-01 3.080138564109802246e-01 1.593058705329895020e-01
2.501000000000000000e+03 1.066169738769531250e+01 -2.070087623596191406e+01 4.566297531127929688e-01 9.018034338951110840e-01 4.075299501419067383e-01 7.930174469947814941e-02
2.502000000000000000e+03 1.044067382812500000e+01 -1.933406448364257812e+01 4.855923950672149658e-01 8.536739945411682129e-01 4.017799198627471924e-01 2.991933375597000122e-02
2.503000000000000000e+03 1.357652854919433594e+01 -2.150727844238281250e+01 5.307402610778808594e-01 1.858869910240173340e+00 7.168830633163452148e-01 -2.146090567111968994e-01
2.504000000000000000e+03 3.970974445343017578e+00 2.070647621154785156e+01 -3.778467071242630482e-04 -1.605543802725151181e-04 -1.615203364053741097e-04 1.833882124628871679e-04
2.505000000000000000e+03 5.045191287994384766e+00 2.074763107299804688e+01 -3.185383684467524290e-04 -2.742480719462037086e-04 -1.778359292075037956e-04 2.871030301321297884e-04
2.506000000000000000e+03 4.133802413940429688e+01 -2.859723091125488281e+01 -1.273890025913715363e-02 8.206311613321304321e-03 -1.359776593744754791e-03 6.298428867012262344e-03
2.507000000000000000e+03 6.542029571533203125e+01 1.210582256317138672e+01 2.191604077816009521e-01 1.248684167861938477e+00 4.403533637523651123e-01 3.411967679858207703e-02
2.508000000000000000e+03 1.161329460144042969e+01 -2.511931610107421875e+01 1.081048771739006042e-01 8.300150632858276367e-01 2.814359962940216064e-01 1.166322529315948486e-01
2.509000000000000000e+03 5.768175125122070312e+01 -5.576940536499023438e+00 5.736818909645080566e-01 3.128850460052490234e-01 2.659700810909271240e-01 1.920142620801925659e-01
2.510000000000000000e+03 5.477595520019531250e+01 -6.883013725280761719e+00 6.869564652442932129e-01 5.399154424667358398e-01 3.680615723133087158e-01 1.823175698518753052e-01
2.511000000000000000e+03 4.936618041992187500e+01 -1.136919307708740234e+01 -5.118932127952575684e-01 3.070881366729736328e-01 -6.144151464104652405e-02 3.676521778106689453e-01
2.512000000000000000e+03 7.454268646240234375e+01 -1.015271663665771484e+01 -1.280782371759414673e-01 -5.600063875317573547e-02 -5.522366240620613098e-02 -1.797000765800476074e-01
2.513000000000000000e+03 2.337946891784667969e+01 -7.166686058044433594e+00 6.814539432525634766e-01 8.967945724725723267e-02 2.313400208950042725e-01 3.176634609699249268e-01
2.514000000000000000e+03 2.287665176391601562e+01 -5.423439025878906250e+00 5.622319132089614868e-02 1.388513743877410889e-01 5.852236971259117126e-02 1.806996911764144897e-01
2.515000000000000000e+03 5.286391258239746094e+00 1.290610408782958984e+01 2.912591844506096095e-05 -9.051997039932757616e-05 -1.841821540438104421e-05 -5.662354305968619883e-05
2.516000000000000000e+03 5.279499053955078125e+01 2.723154449462890625e+01 1.020240858197212219e-01 1.203428208827972412e-01 6.671006977558135986e-02 -1.674438416957855225e-01
2.517000000000000000e+03 7.390859985351562500e+01 2.048472404479980469e+01 6.765560805797576904e-02 -4.465610086917877197e-01 -1.136716157197952271e-01 1.809341907501220703e-01
2.518000000000000000e+03 7.552485656738281250e+01 2.300420188903808594e+01 2.309878915548324585e-02 -6.408317089080810547e-01 -1.853198856115341187e-01 2.008786201477050781e-01
2.519000000000000000e+03 5.879936695098876953e+00 -2.141775512695312500e+01 1.754511743783950806e-01 -3.831957876682281494e-01 -6.232338398694992065e-02 1.652212291955947876e-01
2.520000000000000000e+03 6.073076725006103516e+00 -1.590079593658447266e+01 2.806142866611480713e-01 -3.414145708084106445e-01 -1.824008673429489136e-02 -1.925438940525054932e-01
2.521000000000000000e+03 1.049971580505371094e+01 -1.621007728576660156e+01 6.019665598869323730e-01 8.020421862602233887e-01 4.212026298046112061e-01 -1.739980094134807587e-02
2.522000000000000000e+03 7.454705047607421875e+01 9.097140312194824219e+00 9.116682410240173340e-02 -5.704206824302673340e-01 -1.437761485576629639e-01 -1.300321519374847412e-01
2.523000000000000000e+03 7.436412048339843750e+01 5.066839218139648438e+00 7.681243866682052612e-02 -5.004207491874694824e-01 -1.270824968814849854e-01 -2.346406579017639160e-01
2.524000000000000000e+03 4.371116638183593750e+00 -2.900149536132812500e+01 -3.494238853454589844e-02 -5.451340079307556152e-01 -1.740229278802871704e-01 2.417940646409988403e-01
2.525000000000000000e+03 5.910478591918945312e+01 -9.465196609497070312e+00 -5.134738087654113770e-01 6.067513301968574524e-02 -1.358396112918853760e-01 -2.328701615333557129e-01
2.526000000000000000e+03 5.819758987426757812e+01 -8.483513832092285156e+00 -1.558249145746231079e-01 1.481528729200363159e-01 -2.301609376445412636e-03 -1.688006073236465454e-01
2.527000000000000000e+03 4.050605392456054688e+01 -2.097686004638671875e+01 -2.408638130873441696e-03 6.633882003370672464e-05 -7.026897510513663292e-04 1.698674313956871629e-04
2.528000000000000000e+03 5.044908142089843750e+01 -9.228671073913574219e+00 1.209544092416763306e-01 5.316779613494873047e-01 1.957897245883941650e-01 4.112080037593841553e-01
2.529000000000000000e+03 7.466530609130859375e+01 2.688980484008789062e+01 -2.349998243153095245e-02 -4.393959045410156250e-01 -1.388687640428543091e-01 2.202988713979721069e-01
2.530000000000000000e+03 4.672899627685546875e+01 -3.404758834838867188e+01 7.409086101688444614e-04 -5.067753605544567108e-03 -1.298053422942757607e-03 5.120662972331047058e-03
2.531000000000000000e+03 1.713164710998535156e+01 -8.936877250671386719e+00 5.806093215942382812e-01 6.576796770095825195e-01 3.714866936206817627e-01 3.051390349864959717e-01
2.532000000000000000e+03 3.966400909423828125e+01 -7.266838550567626953e+00 2.033789753913879395e-01 -2.981377840042114258e-01 -2.842764183878898621e-02 3.119805455207824707e-01
2.533000000000000000e+03 4.058089828491210938e+01 -7.904652118682861328e+00 1.570282429456710815e-01 -2.788236439228057861e-01 -3.653861954808235168e-02 3.247328400611877441e-01
2.534000000000000000e+03 4.176099014282226562e+01 2.138365554809570312e+01 -7.119936402887105942e-03 1.499783340841531754e-02 2.363369334489107132e-03 -1.822484955482650548e-05
2.535000000000000000e+03 4.364305114746093750e+01 2.111806869506835938e+01 -7.055817171931266785e-03 1.244581397622823715e-02 1.616999157704412937e-03 -2.267264993861317635e-03
2.536000000000000000e+03 7.230609893798828125e+01 -2.399556922912597656e+01 7.971917511895298958e-05 -1.455162564525380731e-04 -1.973912549146916717e-05 -2.939718979177996516e-05
2.537000000000000000e+03 7.326692962646484375e+01 1.024244213104248047e+01 1.285138279199600220e-01 -3.614362478256225586e-01 -6.987672299146652222e-02 -1.083725914359092712e-01
2.538000000000000000e+03 7.573842620849609375e+01 -2.763240814208984375e+01 7.348009239649400115e-05 6.599632615689188242e-05 4.184292265563271940e-05 -7.650480984011664987e-05
2.539000000000000000e+03 5.261993885040283203e+00 -2.026705169677734375e+01 1.755257546901702881e-01 -5.253384709358215332e-01 -1.049438267946243286e-01 9.730902314186096191e-02
2.540000000000000000e+03 7.710763454437255859e+00 -1.723542022705078125e+01 4.010125100612640381e-01 5.330060794949531555e-02 1.362939327955245972e-01 -8.978167176246643066e-02
2.541000000000000000e+03 7.453234863281250000e+01 7.762497901916503906e+00 8.944737911224365234e-02 -5.530741810798645020e-01 -1.390880346298217773e-01 -1.607117354869842529e-01
2.542000000000000000e+03 6.982869625091552734e+00 -1.452218246459960938e+01 3.239503800868988037e-01 -1.607192009687423706e-01 4.896935448050498962e-02 -2.974585294723510742e-01
2.543000000000000000e+03 7.130534362792968750e+01 -2.435935211181640625e+01 1.489595451857894659e-04 4.854633880313485861e-05 5.925176446908153594e-05 1.680798231973312795e-05
2.544000000000000000e+03 1.497782993316650391e+01 -2.628886222839355469e+01 1.287060827016830444e-01 1.004888415336608887e+00 3.400783538818359375e-01 -2.842063307762145996e-01
2.545000000000000000e+03 7.562507629394531250e+01 3.708502292633056641e+00 4.612426459789276123e-02 -6.383925676345825195e-01 -1.776804774999618530e-01 -2.333077788352966309e-01
2.546000000000000000e+03 7.412633514404296875e+01 -3.532526397705078125e+01 2.416293864371255040e-05 6.971201219130307436e-05 2.816248525050468743e-05 -1.044859818648546934e-04
2.547000000000000000e+03 2.521323776245117188e+01 -3.429475784301757812e+01 1.405283063650131226e-02 1.873335689306259155e-01 6.041591987013816833e-02 -1.470538973808288574e-01
2.548000000000000000e+03 4.443472385406494141e+00 -1.327447414398193359e+01 1.448482125997543335e-01 -6.408393979072570801e-01 -1.487973630428314209e-01 -3.305220007896423340e-01
2.549000000000000000e+03 5.863091278076171875e+01 -4.992797374725341797e+00 5.257608890533447266e-01 3.050107061862945557e-01 2.492314726114273071e-01 1.810797899961471558e-01
2.550000000000000000e+03 6.890472412109375000e+00 -2.095278358459472656e+01 2.319670021533966064e-01 -1.252387911081314087e-01 3.201846405863761902e-02 1.435879617929458618e-01
2.551000000000000000e+03 4.280269622802734375e+01 -2.787872505187988281e+01 -1.153558585792779922e-02 3.541705198585987091e-03 -2.398164244368672371e-03 6.286465097218751907e-03
2.552000000000000000e+03 7.398007965087890625e+01 2.496091270446777344e+01 1.283757761120796204e-02 -3.830917775630950928e-01 -1.110762581229209900e-01 2.405167669057846069e-01
2.553000000000000000e+03 6.485384368896484375e+01 2.357283401489257812e+01 9.565642476081848145e-02 7.868317365646362305e-01 2.647464573383331299e-01 9.921748191118240356e-02
2.554000000000000000e+03 6.099642944335937500e+01 -4.936546325683593750e+00 2.996170222759246826e-01 1.216376200318336487e-01 1.263763904571533203e-01 -1.238182466477155685e-02
2.555000000000000000e+03 5.027502059936523438e+00 -3.263230514526367188e+01 -5.782440304756164551e-02 -3.499110937118530273e-01 -1.223206445574760437e-01 2.070528715848922729e-01
2.556000000000000000e+03 7.389038848876953125e+01 -3.071400642395019531e+01 -1.128811272792518139e-04 -2.380666956014465541e-05 -4.100633668713271618e-05 -1.202404091600328684e-04
2.557000000000000000e+03 4.154353332519531250e+01 1.779223251342773438e+01 -1.952883042395114899e-02 1.028451323509216309e-02 -2.773295156657695770e-03 -1.606918987818062305e-03
2.558000000000000000e+03 7.356169891357421875e+01 -6.197062134742736816e-01 4.441576078534126282e-02 -3.156980872154235840e-01 -8.138469606637954712e-02 -3.595770597457885742e-01
2.559000000000000000e+03 6.730041503906250000e+01 1.414383983612060547e+01 2.735342681407928467e-01 8.074983954429626465e-01 3.243097960948944092e-01 -2.703690342605113983e-02
2.560000000000000000e+03 6.624011230468750000e+01 1.490434741973876953e+01 2.861154675483703613e-01 1.053185343742370605e+00 4.017902314662933350e-01 -5.138681828975677490e-02
2.561000000000000000e+03 2.884780120849609375e+01 -2.689760446548461914e+00 -7.900437116622924805e-01 5.155545845627784729e-02 -2.215464711189270020e-01 4.068357348442077637e-01
2.562000000000000000e+03 2.923228836059570312e+01 -6.082766056060791016e+00 4.748903512954711914e-01 2.661876976490020752e-01 2.223234176635742188e-01 5.127343535423278809e-01
2.563000000000000000e+03 2.776355171203613281e+01 -2.972573518753051758e+00 -7.410099506378173828e-01 -3.396042436361312866e-02 -2.324911057949066162e-01 3.639937639236450195e-01
2.564000000000000000e+03 2.845223617553710938e+01 -2.513790607452392578e+00 -9.090433716773986816e-01 1.836293376982212067e-02 -2.672041356563568115e-01 3.774645030498504639e-01
2.565000000000000000e+03 2.717068862915039062e+01 -3.184747695922851562e+00 -6.480718255043029785e-01 -7.202925533056259155e-02 -2.160303294658660889e-01 2.967641949653625488e-01
2.566000000000000000e+03 3.046330833435058594e+01 -2.444340229034423828e+00 -6.828216910362243652e-01 8.277256041765213013e-02 -1.800147444009780884e-01 3.934746980667114258e-01
2.567000000000000000e+03 1.311506080627441406e+01 1.987868118286132812e+01 -1.413555466569960117e-03 1.360377937089651823e-04 -3.832553047686815262e-04 -2.277211024193093181e-04
2.568000000000000000e+03 1.748603820800781250e+01 6.823025226593017578e+00 -1.765518391039222479e-05 -3.612870500546705443e-07 -5.404941020969999954e-06 -8.891584002412855625e-06
2.569000000000000000e+03 1.791769981384277344e+01 7.083306789398193359e+00 1.384711686114314944e-05 1.218777197209419683e-05 7.810466740920674056e-06 1.082447761291405186e-05
2.570000000000000000e+03 1.596340274810791016e+01 8.517169952392578125e+00 -1.936447370098903775e-05 1.521212288935203105e-05 -1.245705107066896744e-06 3.965452378906775266e-06
2.571000000000000000e+03 1.947912216186523438e+01 2.423561668395996094e+01 -1.328504364937543869e-02 -1.376359257847070694e-03 -4.398420918732881546e-03 5.530393216758966446e-03
2.572000000000000000e+03 2.971282958984375000e+01 -2.913442611694335938e+00 -6.335531473159790039e-01 8.135668188333511353e-02 -1.656589359045028687e-01 4.406296610832214355e-01
2.573000000000000000e+03 2.950590705871582031e+01 -2.641924142837524414e+00 -7.444463968276977539e-01 7.431270927190780640e-02 -2.010401189327239990e-01 4.139006733894348145e-01
2.574000000000000000e+03 3.428870010375976562e+01 1.144083499908447266e+01 -1.037031412124633789e-03 -8.329809643328189850e-04 -5.610036896541714668e-04 1.185503439046442509e-03
2.575000000000000000e+03 1.245680236816406250e+01 1.719721984863281250e+01 -1.503227977082133293e-04 -6.818675319664180279e-05 -6.555286381626501679e-05 6.428866618080064654e-05
2.576000000000000000e+03 1.195210742950439453e+01 1.707188415527343750e+01 -1.598032213223632425e-05 -8.044123387662693858e-05 -2.892646807595156133e-05 1.008006584015674889e-04
2.577000000000000000e+03 2.763507080078125000e+01 -2.332914113998413086e+00 -1.049327373504638672e+00 -8.478847891092300415e-02 -3.402347564697265625e-01 3.297723531723022461e-01
2.578000000000000000e+03 1.860982894897460938e+01 5.069998264312744141e+00 1.101541874959366396e-05 1.065824653778690845e-05 6.502099495264701545e-06 3.562784513633232564e-06
2.579000000000000000e+03 3.338078689575195312e+01 1.502009582519531250e+01 -6.389257963746786118e-03 -2.768759382888674736e-03 -2.747405320405960083e-03 6.505862809717655182e-03
2.580000000000000000e+03 3.417945098876953125e+01 1.185499572753906250e+01 -2.147646853700280190e-03 -2.773914020508527756e-04 -7.275114767253398895e-04 1.411607139743864536e-03
2.581000000000000000e+03 3.378801345825195312e+01 1.178365325927734375e+01 -9.896099800243973732e-04 -7.702072034589946270e-04 -5.279451142996549606e-04 1.424875226803123951e-03
2.582000000000000000e+03 1.290944766998291016e+01 1.720560455322265625e+01 2.009126001212280244e-05 1.109698860091157258e-04 3.931834362447261810e-05 7.042071956675499678e-05
2.583000000000000000e+03 1.515320587158203125e+01 8.817780494689941406e+00 5.736321782023878768e-06 4.711316069005988538e-05 1.585484460520092398e-05 5.567550033447332680e-06
2.584000000000000000e+03 1.559016418457031250e+01 8.728642463684082031e+00 -2.559590484452201054e-06 2.394538933003786951e-05 6.415739335352554917e-06 7.168423508119303733e-06
2.585000000000000000e+03 3.446969604492187500e+01 1.040554523468017578e+01 -8.781952201388776302e-04 -7.899182965047657490e-04 -5.004340782761573792e-04 8.370145224034786224e-04
2.586000000000000000e+03 1.324498271942138672e+01 1.414815139770507812e+01 7.371324318228289485e-05 1.895160385174676776e-04 7.896878378232941031e-05 1.159667590400204062e-04
2.587000000000000000e+03 3.362553787231445312e+01 1.624637413024902344e+01 -1.042856648564338684e-02 -2.271876670420169830e-03 -3.810133086517453194e-03 9.275817312300205231e-03
2.588000000000000000e+03 3.428848648071289062e+01 9.913794517517089844e+00 -3.661451919469982386e-04 -4.286297771614044905e-04 -2.384324907325208187e-04 5.284836515784263611e-04
2.589000000000000000e+03 1.296808338165283203e+01 1.292532157897949219e+01 3.789799393416615203e-06 7.178555824793875217e-05 2.267260788357816637e-05 1.304794568568468094e-04
2.590000000000000000e+03 3.469095230102539062e+01 1.008148765563964844e+01 -6.840851856395602226e-04 -7.747050403850153089e-05 -2.284666988998651505e-04 3.102455229964107275e-04
2.591000000000000000e+03 3.420473861694335938e+01 1.096792411804199219e+01 -1.338598318397998810e-03 -4.513494204729795456e-04 -5.369842983782291412e-04 8.148655761033296585e-04
2.592000000000000000e+03 1.343589305877685547e+01 1.551331996917724609e+01 6.280548404902219772e-05 2.331647556275129318e-04 8.879107190296053886e-05 9.766710718395188451e-05
2.593000000000000000e+03 1.471585273742675781e+01 1.092363929748535156e+01 2.796540684357751161e-05 7.897164323367178440e-05 3.208111229469068348e-05 2.931475864897947758e-05
2.594000000000000000e+03 1.443463325500488281e+01 1.127292251586914062e+01 -3.280921737314201891e-05 9.417044202564284205e-05 1.840836739575024694e-05 1.935660839080810547e-05
2.595000000000000000e+03 1.899325180053710938e+01 5.218543529510498047e+00 5.983118853691848926e-07 -8.127135515678673983e-06 -2.258647100461530499e-06 3.153326360916253179e-06
2.596000000000000000e+03 1.843859863281250000e+01 5.842278957366943359e+00 9.600515113561414182e-06 1.620454713702201843e-05 7.741518857073970139e-06 -3.344784147429891163e-07
2.597000000000000000e+03 3.388339996337890625e+01 1.422070789337158203e+01 -5.456767976284027100e-03 -1.907606609165668488e-03 -2.209312282502651215e-03 5.535308271646499634e-03
2.598000000000000000e+03 1.743146133422851562e+01 7.701636791229248047e+00 1.531122143205720931e-05 1.403085843776352704e-05 8.802623597148340195e-06 1.145661462942371145e-05
2.599000000000000000e+03 3.569165420532226562e+01 6.709164619445800781e+00 -2.545356983318924904e-04 -3.051056410185992718e-04 -1.678924018051475286e-04 -1.782955077942460775e-04
2.600000000000000000e+03 2.068627357482910156e+01 2.371506690979003906e+01 -1.808604225516319275e-02 -2.296983730047941208e-03 -6.114907562732696533e-03 5.817685741931200027e-03
2.601000000000000000e+03 2.026053237915039062e+01 2.421807098388671875e+01 -1.505111530423164368e-02 -2.203704556450247765e-03 -5.176445934921503067e-03 6.414359901100397110e-03
2.602000000000000000e+03 3.018053817749023438e+01 -2.961310863494873047e+00 -5.933866500854492188e-01 8.451653271913528442e-02 -1.526610255241394043e-01 4.429605603218078613e-01
2.603000000000000000e+03 2.331081008911132812e+01 2.362014389038085938e+01 -2.333902940154075623e-02 -4.830719437450170517e-03 -8.450924418866634369e-03 8.096083998680114746e-03
2.604000000000000000e+03 1.808617782592773438e+01 5.678735256195068359e+00 -4.871200417255749926e-06 -1.186213830806082115e-05 -5.020001935918116942e-06 6.935486453585326672e-06
2.605000000000000000e+03 2.746589469909667969e+01 2.327441978454589844e+01 -2.387322299182415009e-02 -1.185744069516658783e-02 -1.071919873356819153e-02 1.303033903241157532e-02
2.606000000000000000e+03 2.631207656860351562e+01 2.403729629516601562e+01 -2.014218829572200775e-02 -9.711111895740032196e-03 -8.955989964306354523e-03 1.191637851297855377e-02
2.607000000000000000e+03 1.319397544860839844e+01 1.375628948211669922e+01 -1.136109585786471143e-05 1.020798299578018486e-04 2.721562123042531312e-05 1.492093288106843829e-04
2.608000000000000000e+03 3.304553222656250000e+01 1.728469467163085938e+01 -1.200816966593265533e-02 -4.515142645686864853e-03 -4.956993740051984787e-03 1.063303463160991669e-02
2.609000000000000000e+03 3.360349655151367188e+01 1.371483707427978516e+01 -3.342184005305171013e-03 -1.908410806208848953e-03 -1.575178466737270355e-03 3.807208733633160591e-03
2.610000000000000000e+03 1.540577316284179688e+01 8.407162666320800781e+00 -2.663568193383980542e-05 4.511552833719179034e-05 5.543954102904535830e-06 3.005054622917668894e-06
2.611000000000000000e+03 3.440336608886718750e+01 8.141424179077148438e+00 1.119653679779730737e-04 2.247562952106818557e-04 1.010164996841922402e-04 -1.043724987539462745e-04
2.612000000000000000e+03 1.827344131469726562e+01 2.404115486145019531e+01 -1.130696199834346771e-02 -3.866589395329356194e-04 -3.508086316287517548e-03 4.469398409128189087e-03
2.613000000000000000e+03 1.628728866577148438e+01 2.299345016479492188e+01 -8.158413693308830261e-03 3.257057978771626949e-04 -2.349812537431716919e-03 1.855871523730456829e-03
2.614000000000000000e+03 1.757309150695800781e+01 2.369228935241699219e+01 -1.031445804983377457e-02 4.448933759704232216e-05 -3.080990631133317947e-03 3.178861690685153008e-03
2.615000000000000000e+03 3.218966293334960938e+01 1.811063385009765625e+01 -1.507085654884576797e-02 -8.397500962018966675e-03 -7.040507160127162933e-03 1.343958918005228043e-02
2.616000000000000000e+03 3.228905105590820312e+01 1.756122207641601562e+01 -1.256822422146797180e-02 -7.825390435755252838e-03 -6.118084304034709930e-03 1.157955173403024673e-02
2.617000000000000000e+03 3.182275199890136719e+01 -3.368379831314086914e+00 -2.872816026210784912e-01 -7.561257109045982361e-03 -8.845286071300506592e-02 4.640888571739196777e-01
2.618000000000000000e+03 3.568821716308593750e+01 8.199862480163574219e+00 1.791583927115425467e-04 -1.798785087885335088e-04 -2.160359997560590273e-07 -2.153868990717455745e-04
2.619000000000000000e+03 3.478858566284179688e+01 8.292452812194824219e+00 -1.472169969929382205e-04 -3.449387149885296822e-04 -1.476467150496318936e-04 -4.795005370397120714e-04
2.620000000000000000e+03 1.555647373199462891e+01 2.182194328308105469e+01 -5.667358171194791794e-03 7.090815925039350986e-04 -1.487483037635684013e-03 2.000047825276851654e-04
2.621000000000000000e+03 1.464480018615722656e+01 2.203218460083007812e+01 -4.841172136366367340e-03 7.822745828889310360e-04 -1.217669341713190079e-03 4.823299823328852654e-04
2.622000000000000000e+03 1.268101978302001953e+01 1.384938144683837891e+01 8.367158443434163928e-05 9.768803283805027604e-05 5.440788663690909743e-05 1.112402169383130968e-04
2.623000000000000000e+03 1.274147605895996094e+01 1.963489151000976562e+01 -1.194954849779605865e-03 1.079640351235866547e-04 -3.260972443968057632e-04 -3.213997406419366598e-04
2.624000000000000000e+03 1.271723556518554688e+01 1.902198791503906250e+01 -6.522157345898449421e-04 2.737409158726222813e-05 -1.874524896265938878e-04 -2.614912227727472782e-04
2.625000000000000000e+03 2.158494377136230469e+01 2.378684997558593750e+01 -1.989286765456199646e-02 -3.928336780518293381e-03 -7.146361283957958221e-03 6.974506191909313202e-03
2.626000000000000000e+03 1.254040431976318359e+01 1.588059139251708984e+01 -4.398130840854719281e-05 2.957929973490536213e-05 -4.320602329244138673e-06 1.619249378563836217e-04
2.627000000000000000e+03 3.314779663085937500e+01 -5.294959545135498047e+00 1.657519787549972534e-01 -1.453715413808822632e-01 6.114132702350616455e-03 5.083295702934265137e-01
2.628000000000000000e+03 2.260699844360351562e+01 2.371465492248535156e+01 -2.190568856894969940e-02 -4.316079430282115936e-03 -7.866530679166316986e-03 7.246005348861217499e-03
2.629000000000000000e+03 1.298926639556884766e+01 1.759295272827148438e+01 -1.510189758846536279e-04 4.037356484332121909e-05 -3.319362076581455767e-05 9.095037239603698254e-05
2.630000000000000000e+03 1.382851314544677734e+01 2.207031440734863281e+01 -4.391983617097139359e-03 7.663510623387992382e-04 -1.087689772248268127e-03 5.383980460464954376e-04
2.631000000000000000e+03 3.518425369262695312e+01 4.762368202209472656e+00 -3.762922460737172514e-06 -1.758270227583125234e-04 -5.387698183767497540e-05 -2.443427802063524723e-04
2.632000000000000000e+03 3.145419120788574219e+01 2.097876167297363281e+01 -2.461682818830013275e-02 -6.333251018077135086e-03 -9.285023435950279236e-03 9.878697805106639862e-03
2.633000000000000000e+03 3.098893928527832031e+01 2.081885719299316406e+01 -2.669024281203746796e-02 -9.543265216052532196e-03 -1.087005250155925751e-02 1.228262390941381454e-02
2.634000000000000000e+03 2.113131713867187500e+01 2.375784492492675781e+01 -1.901643164455890656e-02 -3.046969417482614517e-03 -6.619020365178585052e-03 6.234888453036546707e-03
2.635000000000000000e+03 1.441902637481689453e+01 2.313235473632812500e+01 -5.578489974141120911e-03 5.893110646866261959e-04 -1.496753655374050140e-03 1.820454141125082970e-03
2.636000000000000000e+03 2.234291648864746094e+01 2.412199974060058594e+01 -1.964833587408065796e-02 -5.035467911511659622e-03 -7.405141368508338928e-03 8.260692469775676727e-03
2.637000000000000000e+03 2.200616836547851562e+01 2.433050727844238281e+01 -1.737826317548751831e-02 -4.810077138245105743e-03 -6.656501907855272293e-03 8.122207596898078918e-03
2.638000000000000000e+03 3.304187774658203125e+01 1.991901397705078125e+01 -1.986675895750522614e-02 -6.212935550138354301e-04 -6.146416068077087402e-03 1.090569328516721725e-02
2.639000000000000000e+03 3.045822906494140625e+01 2.351477241516113281e+01 -1.599831320345401764e-02 -7.708930876106023788e-03 -7.112172897905111313e-03 5.772747565060853958e-03
2.640000000000000000e+03 2.892127799987792969e+01 2.251916122436523438e+01 -2.537379041314125061e-02 -1.564495265483856201e-02 -1.230562292039394379e-02 1.191579643636941910e-02
2.641000000000000000e+03 3.242557907104492188e+01 1.988164901733398438e+01 -2.138791978359222412e-02 -3.310465253889560699e-03 -7.409515790641307831e-03 1.154142804443836212e-02
2.642000000000000000e+03 3.028722953796386719e+01 -6.431005001068115234e+00 5.978242158889770508e-01 1.615571826696395874e-01 2.278144210577011108e-01 5.510611534118652344e-01
2.643000000000000000e+03 3.267543411254882812e+01 1.814707183837890625e+01 -1.590128615498542786e-02 -4.988410510122776031e-03 -6.266909185796976089e-03 1.216475013643503189e-02
2.644000000000000000e+03 3.277724456787109375e+01 1.866193199157714844e+01 -1.714773662388324738e-02 -3.932349849492311478e-03 -6.324025802314281464e-03 1.243327092379331589e-02
2.645000000000000000e+03 1.318244743347167969e+01 1.227568244934082031e+01 5.747790964960586280e-06 7.541393279097974300e-05 2.434851739963050932e-05 1.132132601924240589e-04
2.646000000000000000e+03 1.368939018249511719e+01 1.200328159332275391e+01 6.265703973440395202e-07 1.171456024167127907e-04 3.533165363478474319e-05 4.364217966212891042e-05
2.647000000000000000e+03 3.170475196838378906e+01 -3.899375438690185547e+00 -1.774767488241195679e-01 -9.264318272471427917e-03 -5.602231994271278381e-02 5.163323879241943359e-01
2.648000000000000000e+03 1.674639892578125000e+01 2.270877647399902344e+01 -8.469115011394023895e-03 2.273431891808286309e-04 -2.472531516104936600e-03 1.179226092062890530e-03
2.649000000000000000e+03 1.526738739013671875e+01 2.406423377990722656e+01 -6.635136902332305908e-03 2.011224714806303382e-04 -1.930204336531460285e-03 3.161361441016197205e-03
2.650000000000000000e+03 1.566004085540771484e+01 8.185459136962890625e+00 2.310391573701053858e-05 1.953887294803280383e-05 1.279283605981618166e-05 4.986565727449487895e-06
2.651000000000000000e+03 1.713976860046386719e+01 6.301204681396484375e+00 -1.239966059074504301e-05 -2.642811978148529306e-06 -4.512741725193336606e-06 5.641097118314064573e-07
2.652000000000000000e+03 3.074198150634765625e+01 2.296458435058593750e+01 -1.889934763312339783e-02 -7.457667030394077301e-03 -7.907104678452014923e-03 6.219100672751665115e-03
2.653000000000000000e+03 3.577640914916992188e+01 8.770547866821289062e+00 -5.374572938308119774e-04 -2.755052410066127777e-04 -2.438887604512274265e-04 1.912495354190468788e-04
2.654000000000000000e+03 3.077006340026855469e+01 2.235516357421875000e+01 -2.194936200976371765e-02 -7.965411059558391571e-03 -8.974432013928890228e-03 7.385602686554193497e-03
2.655000000000000000e+03 1.888124084472656250e+01 4.837762355804443359e+00 -1.494429625381599180e-06 -4.689343313657445833e-06 -1.855131927186448593e-06 -6.246993052627658471e-06
2.656000000000000000e+03 1.801535797119140625e+01 4.411353111267089844e+00 5.077121386420913041e-06 5.506767593033146113e-07 1.688339352767798118e-06 -5.136399181537854020e-07
2.657000000000000000e+03 2.831135940551757812e+01 2.356554222106933594e+01 -2.042597718536853790e-02 -1.285667717456817627e-02 -9.984796866774559021e-03 1.091722212731838226e-02
2.658000000000000000e+03 3.604412841796875000e+01 -4.789825439453125000e+00 1.197804287075996399e-01 -1.935342550277709961e-01 -2.212614938616752625e-02 3.802689313888549805e-01
2.659000000000000000e+03 3.749860763549804688e+01 -4.707354068756103516e+00 1.722477376461029053e-01 -2.055087238550186157e-01 -9.978298097848892212e-03 2.906766235828399658e-01
2.660000000000000000e+03 1.592097663879394531e+01 4.896577835083007812e+00 6.983524144743569195e-06 6.897801085870014504e-06 4.164397523709340021e-06 1.598500261934532318e-06
2.661000000000000000e+03 1.707455825805664062e+01 6.638968467712402344e+00 1.386389612889615819e-05 1.332315423496766016e-05 8.156115654855966568e-06 6.356272024277132004e-06
2.662000000000000000e+03 4.068052673339843750e+01 -8.612839698791503906e+00 6.606303155422210693e-02 -2.813886702060699463e-01 -6.459769606590270996e-02 3.368913829326629639e-01
2.663000000000000000e+03 1.578921699523925781e+01 2.349454879760742188e+01 -7.369902916252613068e-03 6.200745701789855957e-04 -2.024948364123702049e-03 2.331563737243413925e-03
2.664000000000000000e+03 3.564318466186523438e+01 4.675415515899658203e+00 5.009192973375320435e-04 8.417407661909237504e-05 1.755280100042000413e-04 -5.224320921115577221e-05
2.665000000000000000e+03 1.520837783813476562e+01 4.906900882720947266e+00 -1.069728386937640607e-05 6.670044967904686928e-06 -1.208171738653618377e-06 4.577648269332712516e-06
2.666000000000000000e+03 1.726423454284667969e+01 4.944712162017822266e+00 1.133725982072064653e-05 9.555731594446115196e-06 6.267897333600558341e-06 -1.166428589272072713e-07
2.667000000000000000e+03 3.770623397827148438e+01 -4.124899864196777344e+00 1.541080325841903687e-01 -1.801432371139526367e-01 -7.810563780367374420e-03 2.585037350654602051e-01
2.668000000000000000e+03 3.552154541015625000e+01 -5.478095531463623047e+00 1.666846275329589844e-01 -2.225075364112854004e-01 -1.674687303602695465e-02 4.139660298824310303e-01
2.669000000000000000e+03 1.169117069244384766e+01 5.077594280242919922e+00 1.822487865865696222e-05 4.412655925989383832e-06 6.791260602767579257e-06 1.034201432048575953e-05
2.670000000000000000e+03 3.563070678710937500e+01 -3.161697864532470703e+00 -4.375159740447998047e-02 -8.946017175912857056e-02 -3.996353223919868469e-02 3.174914419651031494e-01
2.671000000000000000e+03 4.580700683593750000e+01 -1.170887279510498047e+01 -4.984911978244781494e-01 1.661117672920227051e-01 -9.971382468938827515e-02 4.113554060459136963e-01
2.672000000000000000e+03 4.533876800537109375e+01 -1.057101726531982422e+01 -2.525860965251922607e-01 1.009446308016777039e-01 -4.549243673682212830e-02 4.012628793716430664e-01
2.673000000000000000e+03 1.451568794250488281e+01 4.859691143035888672e+00 1.305956084252102301e-05 9.179649168800096959e-06 6.671763458143686876e-06 1.174446424556663260e-05
2.674000000000000000e+03 4.872606658935546875e+01 -1.070843029022216797e+01 -3.180252909660339355e-01 3.031252026557922363e-01 -4.470024723559617996e-03 4.404196739196777344e-01
2.675000000000000000e+03 2.397120475769042969e+01 -4.702742099761962891e+00 -1.413396298885345459e-01 1.290154755115509033e-01 -3.697248408570885658e-03 1.204797923564910889e-01
2.676000000000000000e+03 2.439468955993652344e+01 -4.058985233306884766e+00 -3.665354847908020020e-01 1.224751099944114685e-01 -7.321811467409133911e-02 7.596763223409652710e-02
2.677000000000000000e+03 2.425494194030761719e+01 2.373403358459472656e+01 -2.388206496834754944e-02 -6.322097033262252808e-03 -9.061248973011970520e-03 1.031760033220052719e-02
2.678000000000000000e+03 2.155576515197753906e+01 -5.062253475189208984e+00 -1.522044390439987183e-01 1.810547709465026855e-01 8.655101060867309570e-03 1.966848522424697876e-01
2.679000000000000000e+03 1.243165779113769531e+01 5.056251525878906250e+00 -1.113711576294917904e-07 -3.814975116256391630e-06 -1.177903868665453047e-06 1.477289060858311132e-05
2.680000000000000000e+03 3.523414611816406250e+01 -4.161694526672363281e+00 4.030843079090118408e-02 -1.480987071990966797e-01 -3.233708441257476807e-02 3.975769281387329102e-01
2.681000000000000000e+03 2.444617271423339844e+01 2.328563690185546875e+01 -2.657333761453628540e-02 -5.291967187076807022e-03 -9.559591300785541534e-03 9.857947938144207001e-03
2.682000000000000000e+03 3.533827590942382812e+01 6.201031208038330078e+00 6.176072638481855392e-04 -1.570293825352564454e-04 1.381733600283041596e-04 -1.464468514313921332e-04
2.683000000000000000e+03 1.103416824340820312e+01 -5.450146198272705078e+00 -3.393648564815521240e-01 1.158542633056640625e-01 -6.705317646265029907e-02 -4.928994178771972656e-01
2.684000000000000000e+03 4.271812057495117188e+01 -8.532255172729492188e+00 1.280715167522430420e-01 -1.621870994567871094e-01 -1.023467350751161575e-02 3.198307156562805176e-01
2.685000000000000000e+03 7.582360839843750000e+01 -9.448277473449707031e+00 -7.923604547977447510e-02 -1.017736196517944336e-01 -5.430290102958679199e-02 -1.720393747091293335e-01
2.686000000000000000e+03 5.303633213043212891e+00 4.834173679351806641e+00 9.406931894773151726e-06 9.710047379485331476e-06 5.735093964176485315e-06 -3.955173451686277986e-05
2.687000000000000000e+03 5.557692050933837891e+00 5.522581100463867188e+00 3.114396895398385823e-05 -2.801904884108807892e-05 9.374755904900666792e-07 1.049583624990191311e-05
2.688000000000000000e+03 1.018829059600830078e+01 5.252178668975830078e+00 3.348490645294077694e-05 -4.752954737341497093e-06 8.619585969427134842e-06 1.218160741700557992e-05
2.689000000000000000e+03 8.685954093933105469e+00 5.239094734191894531e+00 4.026452734251506627e-05 -3.292389465059386566e-06 1.109164077206514776e-05 8.390649782086256891e-06
2.690000000000000000e+03 3.194024467468261719e+01 -5.122247219085693359e+00 1.500872969627380371e-01 -5.592363327741622925e-02 2.824910171329975128e-02 5.530368685722351074e-01
2.691000000000000000e+03 3.211492538452148438e+01 -5.876277923583984375e+00 3.234875500202178955e-01 -9.376736730337142944e-02 6.891605257987976074e-02 5.315607786178588867e-01
2.692000000000000000e+03 2.516473197937011719e+01 -5.643062114715576172e+00 2.983405590057373047e-01 1.100010424852371216e-01 1.225024834275245667e-01 1.580911129713058472e-01
2.693000000000000000e+03 4.632260322570800781e+00 6.120127201080322266e+00 -1.580756543262396008e-05 -6.510707407869631425e-06 -6.695482170471223071e-06 -1.155737209046492353e-05
2.694000000000000000e+03 7.057816314697265625e+01 -9.123037338256835938e+00 -3.222931325435638428e-01 1.926136575639247894e-02 -9.090952575206756592e-02 -3.595132231712341309e-01
2.695000000000000000e+03 5.689546108245849609e+00 -7.186957359313964844e+00 -4.467244818806648254e-02 -2.411356419324874878e-01 -8.574242889881134033e-02 -5.514363050460815430e-01
2.696000000000000000e+03 1.526417922973632812e+01 -5.504758358001708984e+00 -3.206066787242889404e-01 2.514366805553436279e-01 -2.075099758803844452e-02 -1.701164692640304565e-01
2.697000000000000000e+03 1.548524379730224609e+01 -6.020209789276123047e+00 -1.980165690183639526e-01 3.394586443901062012e-01 4.243262112140655518e-02 -1.106109321117401123e-01
2.698000000000000000e+03 1.252278327941894531e+01 -6.176006317138671875e+00 -2.323127090930938721e-01 2.415754348039627075e-01 2.778815571218729019e-03 -4.091839790344238281e-01
2.699000000000000000e+03 4.419598007202148438e+01 -9.526828765869140625e+00 -2.665601670742034912e-02 -2.346480078995227814e-02 -1.503624487668275833e-02 3.833288252353668213e-01
2.700000000000000000e+03 3.494586944580078125e+01 -6.113215446472167969e+00 2.056203633546829224e-01 -2.311857342720031738e-01 -7.669611368328332901e-03 4.218764007091522217e-01
2.701000000000000000e+03 2.308229064941406250e+01 -4.802765846252441406e+00 -1.779774278402328491e-01 1.531287282705307007e-01 -7.454611826688051224e-03 1.486623138189315796e-01
2.702000000000000000e+03 1.986163902282714844e+01 2.421769905090332031e+01 -1.451733708381652832e-02 -1.812622300349175930e-03 -4.898987710475921631e-03 5.974712315946817398e-03
2.703000000000000000e+03 2.832133674621582031e+01 -6.416904449462890625e+00 6.808413863182067871e-01 3.438491523265838623e-01 3.074071705341339111e-01 4.324128031730651855e-01
2.704000000000000000e+03 1.781359481811523438e+01 -6.891341686248779297e+00 1.272731423377990723e-01 3.557878136634826660e-01 1.449182778596878052e-01 1.798436939716339111e-01
2.705000000000000000e+03 1.553803920745849609e+01 -4.714999675750732422e+00 -5.124424099922180176e-01 1.722062081098556519e-01 -1.020708680152893066e-01 -1.606202125549316406e-01
2.706000000000000000e+03 1.958974647521972656e+01 -5.010707378387451172e+00 -2.569031715393066406e-01 2.026107758283615112e-01 -1.628771610558032990e-02 1.704403907060623169e-01
2.707000000000000000e+03 4.060073089599609375e+01 -6.295056819915771484e+00 3.150563836097717285e-01 -2.395623475313186646e-01 2.264821529388427734e-02 2.424852252006530762e-01
2.708000000000000000e+03 3.753003311157226562e+01 6.579471588134765625e+00 7.634109933860599995e-04 6.130553083494305611e-05 2.474149514455348253e-04 -6.763420242350548506e-05
2.709000000000000000e+03 3.603491210937500000e+01 7.329305171966552734e+00 4.560742818284779787e-04 -9.882589074550196528e-05 1.071745209628716111e-04 -4.532319871941581368e-05
2.710000000000000000e+03 7.247107696533203125e+01 -2.033164978027343750e+01 5.631393651128746569e-05 2.042011510638985783e-05 2.302021675859577954e-05 2.698685602808836848e-05
2.711000000000000000e+03 1.913791084289550781e+01 -5.665697097778320312e+00 -1.071606427431106567e-01 2.223426997661590576e-01 3.455461561679840088e-02 1.677967309951782227e-01
2.712000000000000000e+03 4.234636688232421875e+01 -1.906221961975097656e+01 -1.220691410708241165e-04 -1.112667960114777088e-04 -7.000078039709478617e-05 5.350877836463041604e-05
2.713000000000000000e+03 3.978092575073242188e+01 -1.963511466979980469e+01 -1.040549133904278278e-03 -1.166956863016821444e-04 -3.471734526101499796e-04 7.358798484347062185e-06
2.714000000000000000e+03 3.912262725830078125e+01 -1.739814567565917969e+01 -3.159733896609395742e-04 -3.311540640424937010e-04 -1.941382361110299826e-04 8.502124546794220805e-05
2.715000000000000000e+03 3.632096481323242188e+01 6.268462181091308594e+00 5.968873738311231136e-04 3.565904262359254062e-05 1.897639303933829069e-04 -8.821603842079639435e-05
2.716000000000000000e+03 4.357569885253906250e+01 -7.786661624908447266e+00 3.249302506446838379e-01 -1.053041294217109680e-01 6.588783115148544312e-02 2.751101255416870117e-01
2.717000000000000000e+03 2.130130577087402344e+01 -4.275435447692871094e+00 -4.179825484752655029e-01 1.849892288446426392e-01 -6.989799439907073975e-02 1.558943092823028564e-01
2.718000000000000000e+03 7.368608856201171875e+01 -9.977421760559082031e+00 -1.871070563793182373e-01 -3.305890038609504700e-02 -6.604978442192077637e-02 -2.174794375896453857e-01
2.719000000000000000e+03 3.699347305297851562e+01 -6.071803092956542969e+00 1.896608620882034302e-01 -2.684649825096130371e-01 -2.364123240113258362e-02 3.598383367061614990e-01
2.720000000000000000e+03 3.685704040527343750e+01 -5.383378505706787109e+00 1.782554239034652710e-01 -2.388192415237426758e-01 -1.816914789378643036e-02 3.527234792709350586e-01
2.721000000000000000e+03 7.123136138916015625e+01 -9.722879409790039062e+00 -3.205021023750305176e-01 2.314611151814460754e-02 -8.920679241418838501e-02 -2.817493379116058350e-01
2.722000000000000000e+03 7.089331817626953125e+01 -1.248240756988525391e+01 -2.967377007007598877e-01 5.592421442270278931e-02 -7.224404811859130859e-02 -9.581705182790756226e-02
2.723000000000000000e+03 6.694287109375000000e+01 -6.836137294769287109e+00 -1.884131282567977905e-01 -6.526593118906021118e-02 -7.610371708869934082e-02 -4.731095731258392334e-01
2.724000000000000000e+03 1.051289081573486328e+01 -5.707527160644531250e+00 -2.800341546535491943e-01 1.016291081905364990e-01 -5.352151766419410706e-02 -5.201280713081359863e-01
2.725000000000000000e+03 7.266910552978515625e+01 -1.053572654724121094e+01 -2.464521080255508423e-01 5.880040116608142853e-03 -7.217162102460861206e-02 -2.120927125215530396e-01
2.726000000000000000e+03 7.345761108398437500e+01 -1.072835063934326172e+01 -1.776168793439865112e-01 -1.402292307466268539e-02 -5.749193951487541199e-02 -1.683539897203445435e-01
2.727000000000000000e+03 2.670150947570800781e+01 -6.392766952514648438e+00 6.890643239021301270e-01 2.760509550571441650e-01 2.895345985889434814e-01 2.609005570411682129e-01
2.728000000000000000e+03 2.782089996337890625e+01 -5.921652317047119141e+00 4.624992907047271729e-01 2.884251773357391357e-01 2.252773344516754150e-01 3.648528456687927246e-01
2.729000000000000000e+03 2.724862861633300781e+01 -6.173000335693359375e+00 6.067804098129272461e-01 3.162578642368316650e-01 2.769114971160888672e-01 3.065049946308135986e-01
2.730000000000000000e+03 6.241414546966552734e+00 1.717846679687500000e+01 -4.970404916093684733e-05 -2.193135151173919439e-04 -8.070527110248804092e-05 -6.819624832132831216e-05
2.731000000000000000e+03 5.782358169555664062e+00 1.376550102233886719e+01 4.268190241418778896e-05 -1.302001764997839928e-04 -2.625548222567886114e-05 -1.087265700334683061e-04
2.732000000000000000e+03 1.614815902709960938e+01 -5.792541027069091797e+00 -2.143280655145645142e-01 3.068933784961700439e-01 2.776959724724292755e-02 -6.175445765256881714e-02
2.733000000000000000e+03 1.845621299743652344e+01 -8.063748359680175781e+00 4.763729572296142578e-01 4.572221040725708008e-01 2.800785005092620850e-01 3.513641357421875000e-01
2.734000000000000000e+03 6.912113189697265625e+01 -9.239770889282226562e+00 -4.214188158512115479e-01 3.284341469407081604e-02 -1.165726184844970703e-01 -4.033818840980529785e-01
2.735000000000000000e+03 6.232158279418945312e+01 -2.584575653076171875e+00 3.839085698127746582e-01 3.074560761451721191e-01 2.074093967676162720e-01 4.631742089986801147e-02
2.736000000000000000e+03 4.729448699951171875e+01 -9.152357101440429688e+00 1.545273065567016602e-01 2.252995520830154419e-01 1.139480546116828918e-01 4.485216140747070312e-01
2.737000000000000000e+03 4.593291854858398438e+01 -9.235003471374511719e+00 1.142904385924339294e-01 1.133130267262458801e-01 6.828103959560394287e-02 4.018882513046264648e-01
2.738000000000000000e+03 3.373486709594726562e+01 -5.893301963806152344e+00 2.483066767454147339e-01 -1.912943273782730103e-01 1.710370555520057678e-02 4.660706520080566406e-01
2.739000000000000000e+03 3.449834823608398438e+01 -4.317998409271240234e+00 3.600130230188369751e-02 -1.512249708175659180e-01 -3.456709906458854675e-02 4.482640027999877930e-01
2.740000000000000000e+03 1.082728481292724609e+01 4.510193824768066406e+00 2.138224590453319252e-05 9.874105444396263920e-07 6.710896741424221545e-06 7.640669537067878991e-06
2.741000000000000000e+03 5.511373519897460938e+00 2.592060089111328125e+01 -6.309348973445594311e-04 -9.805136360228061676e-04 -4.834345600102096796e-04 1.423906651325523853e-03
2.742000000000000000e+03 3.730004882812500000e+01 9.386498451232910156e+00 -3.972451959270983934e-04 -8.685888024047017097e-04 -3.797502140514552593e-04 5.801094448543153703e-05
2.743000000000000000e+03 3.575290679931640625e+01 9.362591743469238281e+00 -2.766268735285848379e-04 -6.731816683895885944e-04 -2.849425654858350754e-04 -6.569807737832888961e-05
2.744000000000000000e+03 5.294955062866210938e+01 -1.032915019989013672e+01 -3.749893903732299805e-01 3.571247756481170654e-01 -5.359380505979061127e-03 6.303193420171737671e-02
2.745000000000000000e+03 7.457811737060546875e+01 -2.263343238830566406e+01 4.659055412048473954e-05 3.555305374902673066e-05 2.464308090566191822e-05 1.011147469398565590e-05
2.746000000000000000e+03 3.816216659545898438e+01 1.422172451019287109e+01 -1.157711911946535110e-02 3.778774989768862724e-03 -2.339503029361367226e-03 2.068120520561933517e-03
2.747000000000000000e+03 5.163013839721679688e+01 -1.153591442108154297e+01 -6.864971518516540527e-01 2.837229371070861816e-01 -1.208322569727897644e-01 1.594021767377853394e-01
2.748000000000000000e+03 4.852941513061523438e+00 -7.125627994537353516e+00 -4.845710098743438721e-02 -3.062974214553833008e-01 -1.064263582229614258e-01 -5.050498247146606445e-01
2.749000000000000000e+03 6.856823444366455078e+00 -5.835949897766113281e+00 -1.786043792963027954e-01 -1.099572107195854187e-01 -8.656847476959228516e-02 -5.524078011512756348e-01
2.750000000000000000e+03 7.150437927246093750e+01 -2.541462898254394531e+01 3.276235656812787056e-05 -1.654759544180706143e-04 -3.981407644459977746e-05 -3.910090890713036060e-05
2.751000000000000000e+03 7.154145050048828125e+01 -2.342767333984375000e+01 -4.429477121448144317e-05 3.956980799557641149e-05 -1.417490011590416543e-06 -1.931194674398284405e-06
2.752000000000000000e+03 5.698464870452880859e+00 -8.022445678710937500e+00 -1.035573706030845642e-02 -2.756405770778656006e-01 -8.579889684915542603e-02 -5.462643504142761230e-01
2.753000000000000000e+03 3.665538024902343750e+01 1.157892799377441406e+01 -3.605756675824522972e-03 5.176811828278005123e-04 -9.264226537197828293e-04 4.425278748385608196e-04
2.754000000000000000e+03 3.748031616210937500e+01 1.104674243927001953e+01 -2.624835353344678879e-03 3.758187522180378437e-04 -6.747049628756940365e-04 -4.036565078422427177e-04
2.755000000000000000e+03 6.012392425537109375e+01 -7.068350315093994141e+00 1.841562800109386444e-02 5.125644430518150330e-02 2.090162225067615509e-02 -1.192164123058319092e-01
2.756000000000000000e+03 7.372821044921875000e+01 -2.207126045227050781e+01 5.612100358121097088e-05 -3.958219531341455877e-05 4.961642844136804342e-06 -3.986849696957506239e-05
2.757000000000000000e+03 7.478127288818359375e+01 -3.029876947402954102e+00 -3.993895836174488068e-03 -3.242706358432769775e-01 -9.847936034202575684e-02 -3.437611162662506104e-01
2.758000000000000000e+03 7.477457427978515625e+01 -1.762572526931762695e+00 1.392114255577325821e-02 -3.716133236885070801e-01 -1.073076501488685608e-01 -3.360004127025604248e-01
2.759000000000000000e+03 5.839563846588134766e+00 1.509963035583496094e+01 -6.431563815567642450e-05 -1.460729545215144753e-04 -6.311658216873183846e-05 -9.914797556120902300e-05
2.760000000000000000e+03 6.376268386840820312e+00 1.629956245422363281e+01 -1.485933462390676141e-04 -2.173154061893001199e-04 -1.097726271837018430e-04 -3.341993578942492604e-05
2.761000000000000000e+03 7.397804737091064453e+00 5.483616352081298828e+00 1.860207157733384520e-05 -8.901909495762083679e-06 2.910048578996793367e-06 -1.488344059907831252e-05
2.762000000000000000e+03 5.402368545532226562e+00 -1.043379020690917969e+01 1.056815311312675476e-01 -3.801237940788269043e-01 -8.233268558979034424e-02 -5.022552013397216797e-01
2.763000000000000000e+03 5.520001888275146484e+00 -1.176147079467773438e+01 1.664687991142272949e-01 -3.968495130538940430e-01 -6.911421567201614380e-02 -4.469734132289886475e-01
2.764000000000000000e+03 4.016988372802734375e+01 1.600359535217285156e+01 -1.669089496135711670e-02 6.199139170348644257e-03 -3.147526644170284271e-03 -3.297713992651551962e-04
2.765000000000000000e+03 4.793070793151855469e+00 9.890486717224121094e+00 6.034479156369343400e-05 -7.988404831849038601e-06 1.570691529195755720e-05 -6.482968456111848354e-05
2.766000000000000000e+03 3.891459465026855469e+00 8.925517082214355469e+00 6.717444921378046274e-05 1.059467831510119140e-05 2.333073825866449624e-05 -4.230854756315238774e-05
2.767000000000000000e+03 3.963849258422851562e+01 -6.340477466583251953e+00 2.758543789386749268e-01 -2.691055834293365479e-01 2.024637768045067787e-03 2.787265479564666748e-01
2.768000000000000000e+03 7.213889312744140625e+01 -2.252582740783691406e+01 1.270315697183832526e-04 -9.593048889655619860e-05 9.330325156042817980e-06 -2.181596937589347363e-05
2.769000000000000000e+03 6.835632324218750000e+01 -1.007509422302246094e+01 -5.606811046600341797e-01 4.393223300576210022e-02 -1.550246626138687134e-01 -3.346813619136810303e-01
2.770000000000000000e+03 3.946922683715820312e+01 -2.052427482604980469e+01 -2.272592391818761826e-03 -7.837295561330392957e-05 -7.052895962260663509e-04 3.306651706225238740e-05
2.771000000000000000e+03 5.986931800842285156e+00 2.212715339660644531e+01 -6.577015155926346779e-04 -3.501710598357021809e-04 -3.023617609869688749e-04 6.113849813118577003e-04
2.772000000000000000e+03 5.061882495880126953e+00 2.203488922119140625e+01 -6.566634401679039001e-04 -3.493268450256437063e-04 -3.017970884684473276e-04 4.693169321399182081e-04
2.773000000000000000e+03 5.625216674804687500e+01 -7.806275367736816406e+00 2.039816975593566895e-01 3.145877718925476074e-01 1.555708348751068115e-01 -2.110466733574867249e-02
2.774000000000000000e+03 5.357814025878906250e+01 -9.661281585693359375e+00 -1.742050051689147949e-01 4.061101377010345459e-01 6.957153975963592529e-02 4.188689216971397400e-02
2.775000000000000000e+03 6.644297790527343750e+01 1.125995445251464844e+01 2.550104558467864990e-01 9.535177946090698242e-01 3.625584840774536133e-01 1.992869935929775238e-02
2.776000000000000000e+03 1.232297611236572266e+01 -7.297765731811523438e+00 -2.266635559499263763e-02 3.289839029312133789e-01 9.189526736736297607e-02 -4.086075425148010254e-01
2.777000000000000000e+03 8.943024635314941406e+00 -1.201230144500732422e+01 3.559074699878692627e-01 1.875571906566619873e-01 1.630394011735916138e-01 -4.192908704280853271e-01
2.778000000000000000e+03 6.440503692626953125e+01 -7.201922416687011719e+00 -1.747627258300781250e-01 -1.728983521461486816e-01 -1.042983233928680420e-01 -3.831885755062103271e-01
2.779000000000000000e+03 4.863292217254638672e+00 1.087277984619140625e+01 2.530066194594837725e-05 -5.322759898263029754e-05 -8.378080565307755023e-06 -4.400089164846576750e-05
2.780000000000000000e+03 6.540786743164062500e+00 1.328513145446777344e+01 4.612257180269807577e-05 -1.323692558798938990e-04 -2.587400558695662767e-05 -1.231904752785339952e-05
2.781000000000000000e+03 9.184080123901367188e+00 -1.954659080505371094e+01 4.299119710922241211e-01 4.789124131202697754e-01 2.726473212242126465e-01 5.879203602671623230e-02
2.782000000000000000e+03 7.472256469726562500e+01 -9.215674400329589844e+00 -1.327061504125595093e-01 -8.214205503463745117e-02 -6.445446610450744629e-02 -2.202805429697036743e-01
2.783000000000000000e+03 4.513676834106445312e+01 -1.132922267913818359e+01 -3.978950083255767822e-01 8.958833664655685425e-02 -9.249200671911239624e-02 4.039183855056762695e-01
2.784000000000000000e+03 4.213477706909179688e+01 -3.124433517456054688e+01 -6.544573698192834854e-03 5.371219944208860397e-03 -3.520060854498296976e-04 5.363289732486009598e-03
2.785000000000000000e+03 4.341675567626953125e+01 -2.916081047058105469e+01 -1.122437696903944016e-02 3.468060400336980820e-03 -2.326895017176866531e-03 6.057418882846832275e-03
2.786000000000000000e+03 7.455012512207031250e+01 -6.918545722961425781e+00 -9.665867686271667480e-02 -1.594646275043487549e-01 -7.683698832988739014e-02 -3.028777539730072021e-01
2.787000000000000000e+03 7.507284545898437500e+01 -2.441833114624023438e+01 4.721139339380897582e-05 8.121244900394231081e-05 3.852715235552750528e-05 -2.079135447274893522e-05
2.788000000000000000e+03 6.838555145263671875e+01 -8.497472763061523438e+00 -3.624953329563140869e-01 -2.018408291041851044e-02 -1.148038282990455627e-01 -4.382275938987731934e-01
2.789000000000000000e+03 7.513841247558593750e+01 -2.540003585815429688e+01 -4.558861292025540024e-06 -5.675321517628617585e-05 -1.839362266764510423e-05 -3.129714241367764771e-05
2.790000000000000000e+03 5.122014045715332031e+00 1.948041152954101562e+01 -4.127860884182155132e-04 -1.868078543338924646e-04 -1.798781886463984847e-04 8.830634033074602485e-05
2.791000000000000000e+03 3.795639419555664062e+01 -3.600878953933715820e+00 1.499098539352416992e-01 -1.614921092987060547e-01 -3.474678611382842064e-03 2.180681824684143066e-01
2.792000000000000000e+03 7.470323944091796875e+01 -4.299709796905517578e+00 -3.189446777105331421e-02 -2.719243168830871582e-01 -9.114563465118408203e-02 -3.388249874114990234e-01
2.793000000000000000e+03 4.592239379882812500e+01 2.291271209716796875e+01 1.848743110895156860e-02 1.042926777154207230e-02 8.675009943544864655e-03 -1.178953237831592560e-02
2.794000000000000000e+03 6.223979187011718750e+01 -1.643337488174438477e+00 4.048794209957122803e-01 3.945535421371459961e-01 2.398298978805541992e-01 1.127279400825500488e-01
2.795000000000000000e+03 6.237924957275390625e+01 -8.015330433845520020e-01 4.139253795146942139e-01 5.127680897712707520e-01 2.780080437660217285e-01 1.653511673212051392e-01
2.796000000000000000e+03 5.509902572631835938e+01 -7.998632431030273438e+00 2.627426385879516602e-01 4.273532032966613770e-01 2.070287615060806274e-01 1.431033946573734283e-02
2.797000000000000000e+03 6.395397949218750000e+01 9.139882087707519531e+00 2.349185496568679810e-01 1.486723065376281738e+00 5.164924860000610352e-01 2.146046608686447144e-01
2.798000000000000000e+03 6.490698242187500000e+01 9.448229789733886719e+00 2.747992575168609619e-01 1.221373677253723145e+00 4.488518834114074707e-01 1.217675954103469849e-01
2.799000000000000000e+03 3.863050079345703125e+01 -2.874985122680664062e+01 -1.437250245362520218e-02 1.072677876800298691e-02 -1.093717175535857677e-03 3.678100882098078728e-03
2.800000000000000000e+03 7.527133941650390625e+01 1.754646492004394531e+01 6.784062832593917847e-02 -7.103978395462036133e-01 -1.927671581506729126e-01 1.040702089667320251e-01
2.801000000000000000e+03 7.377729797363281250e+01 1.741163063049316406e+01 1.149218231439590454e-01 -4.453744888305664062e-01 -9.913580119609832764e-02 1.124549657106399536e-01
2.802000000000000000e+03 1.863635635375976562e+01 -7.118686676025390625e+00 2.433680593967437744e-01 3.412097096443176270e-01 1.753733307123184204e-01 2.423359304666519165e-01
2.803000000000000000e+03 3.902788925170898438e+01 -2.598471450805664062e+01 -1.242184359580278397e-02 7.568643428385257721e-03 -1.455959980376064777e-03 1.998189138248562813e-03
2.804000000000000000e+03 6.438154697418212891e+00 -2.427891921997070312e+01 1.003143042325973511e-01 -2.189267277717590332e-01 -3.558372706174850464e-02 2.685784399509429932e-01
2.805000000000000000e+03 7.944909572601318359e+00 -2.331527328491210938e+01 1.905026882886886597e-01 1.353382468223571777e-01 9.775228053331375122e-02 2.287927567958831787e-01
2.806000000000000000e+03 1.037117767333984375e+01 -2.403267478942871094e+01 1.698648780584335327e-01 6.712227463722229004e-01 2.523262798786163330e-01 2.005501240491867065e-01
2.807000000000000000e+03 7.435239410400390625e+01 1.177288150787353516e+01 1.000359803438186646e-01 -5.688760876655578613e-01 -1.406520307064056396e-01 -5.573706328868865967e-02
2.808000000000000000e+03 6.683392333984375000e+01 1.585792636871337891e+01 3.153543770313262939e-01 8.695423007011413574e-01 3.554690182209014893e-01 -2.846661210060119629e-02
2.809000000000000000e+03 6.395763397216796875e+00 -1.860682868957519531e+01 2.886123955249786377e-01 -2.528221309185028076e-01 1.073708012700080872e-02 1.783247571438550949e-03
2.810000000000000000e+03 6.181218338012695312e+01 -4.675691604614257812e+00 2.749981880187988281e-01 1.130172908306121826e-01 1.164046376943588257e-01 -5.881765484809875488e-02
2.811000000000000000e+03 5.935219955444335938e+01 -6.081694602966308594e+00 2.780731618404388428e-01 1.576033085584640503e-01 1.307029426097869873e-01 1.911542937159538269e-02
2.812000000000000000e+03 7.535521697998046875e+01 2.041382598876953125e+01 4.440573975443840027e-02 -6.770389080047607422e-01 -1.897899359464645386e-01 1.630632579326629639e-01
2.813000000000000000e+03 4.801201629638671875e+01 -9.937883377075195312e+00 -5.833747610449790955e-02 2.777490615844726562e-01 6.582348048686981201e-02 4.598473012447357178e-01
2.814000000000000000e+03 7.433471679687500000e+01 2.198089838027954102e+00 6.596382707357406616e-02 -4.374078810214996338e-01 -1.114332154393196106e-01 -2.983707785606384277e-01
2.815000000000000000e+03 7.392355346679687500e+01 -2.915692329406738281e+01 -1.153956145572010428e-05 2.283826461280114017e-06 -2.776720521069364622e-06 -5.458165833260864019e-05
2.816000000000000000e+03 6.627210998535156250e+01 1.311378097534179688e+01 2.520093321800231934e-01 1.056087613105773926e+00 3.924290835857391357e-01 2.460408955812454224e-03
2.817000000000000000e+03 6.711463165283203125e+01 2.022392654418945312e+01 2.668956816196441650e-01 6.146479249000549316e-01 2.644630670547485352e-01 1.357132792472839355e-01
2.818000000000000000e+03 6.707676696777343750e+01 1.856178855895996094e+01 3.081223368644714355e-01 6.967146992683410645e-01 3.014511168003082275e-01 6.313022226095199585e-02
2.819000000000000000e+03 6.495755195617675781e+00 -2.685927772521972656e+01 1.112330704927444458e-02 -1.716695427894592285e-01 -4.816387221217155457e-02 2.952204942703247070e-01
2.820000000000000000e+03 5.497563171386718750e+01 2.853671836853027344e+01 5.817007645964622498e-02 2.343043982982635498e-01 8.774234354496002197e-02 -2.167479842901229858e-01
2.821000000000000000e+03 1.130752468109130859e+01 -1.084251689910888672e+01 4.231209158897399902e-01 4.728958308696746826e-01 2.688050270080566406e-01 -3.416343033313751221e-01
2.822000000000000000e+03 1.111294078826904297e+01 -1.200700092315673828e+01 5.393711924552917480e-01 5.528728961944580078e-01 3.276732265949249268e-01 -2.610176205635070801e-01
2.823000000000000000e+03 6.564956665039062500e+01 4.349773406982421875e+00 3.292751312255859375e-01 6.647436022758483887e-01 2.982056140899658203e-01 -1.112766936421394348e-02
2.824000000000000000e+03 6.487624359130859375e+01 5.353072166442871094e+00 3.161107301712036133e-01 8.798010349273681641e-01 3.587735295295715332e-01 8.835416287183761597e-02
2.825000000000000000e+03 6.420193481445312500e+01 1.957344412803649902e+00 3.503592014312744141e-01 6.271945834159851074e-01 2.932661175727844238e-01 5.476326495409011841e-02
2.826000000000000000e+03 5.481930541992187500e+01 -1.020324611663818359e+01 -4.784403741359710693e-01 2.778875231742858887e-01 -6.016585603356361389e-02 -1.069903746247291565e-01
2.827000000000000000e+03 6.409028053283691406e+00 1.441764926910400391e+01 6.148252577986568213e-05 -1.658950495766475797e-04 -3.132375786663033068e-05 -1.813739982026163489e-05
2.828000000000000000e+03 5.202692508697509766e+00 1.823357582092285156e+01 -9.657909686211496592e-05 -1.834929571487009525e-04 -8.402161620324477553e-05 -7.177799830060394015e-07
2.829000000000000000e+03 5.022517013549804688e+01 2.924412536621093750e+01 4.732602089643478394e-02 1.061463654041290283e-01 4.604171589016914368e-02 -1.129550337791442871e-01
2.830000000000000000e+03 5.123016738891601562e+01 2.705583572387695312e+01 8.735110610723495483e-02 7.341056317090988159e-02 4.822850227355957031e-02 -1.201473101973533630e-01
2.831000000000000000e+03 6.136672210693359375e+01 2.367918777465820312e+01 8.357538282871246338e-02 9.188517332077026367e-01 3.007281422615051270e-01 -1.887296885251998901e-01
2.832000000000000000e+03 4.001239395141601562e+01 -2.207495880126953125e+01 -5.158828105777502060e-03 1.156746293418109417e-03 -1.200624508783221245e-03 3.865224425680935383e-04
2.833000000000000000e+03 7.328292846679687500e+01 -5.286107540130615234e+00 -7.189281284809112549e-02 -1.756361424922943115e-01 -7.425868511199951172e-02 -3.729740977287292480e-01
2.834000000000000000e+03 7.455655670166015625e+01 8.277033567428588867e-01 4.594974219799041748e-02 -4.303867816925048828e-01 -1.153311133384704590e-01 -3.145520389080047607e-01
2.835000000000000000e+03 7.338821411132812500e+01 5.963569283485412598e-01 6.188728660345077515e-02 -3.251245021820068359e-01 -7.897116988897323608e-02 -3.442168533802032471e-01
2.836000000000000000e+03 1.286712360382080078e+01 -2.635097885131835938e+01 4.304752871394157410e-02 9.093876481056213379e-01 2.857305705547332764e-01 -1.303429715335369110e-02
2.837000000000000000e+03 5.536965179443359375e+01 -8.983630180358886719e+00 -4.307951405644416809e-02 3.532621860504150391e-01 9.305480122566223145e-02 -6.873796135187149048e-02
2.838000000000000000e+03 3.803974151611328125e+01 -2.426075744628906250e+01 -8.607909083366394043e-03 2.829922828823328018e-03 -1.733395853079855442e-03 -1.894735498353838921e-03
2.839000000000000000e+03 5.159845829010009766e+00 -9.218666076660156250e+00 4.588017612695693970e-02 -3.590322136878967285e-01 -9.394561499357223511e-02 -5.194832086563110352e-01
2.840000000000000000e+03 7.047095489501953125e+01 -3.313553619384765625e+01 -1.527629792690277100e-04 1.114620954467682168e-05 -4.248503319104202092e-05 1.574740963405929506e-05
2.841000000000000000e+03 1.560989665985107422e+01 -2.919386291503906250e+01 4.342416767030954361e-03 7.071309089660644531e-01 2.134419977664947510e-01 -1.802263706922531128e-01
2.842000000000000000e+03 8.856967926025390625e+00 -1.424041461944580078e+01 4.820647537708282471e-01 2.531527578830718994e-01 2.205652594566345215e-01 -2.583671212196350098e-01
2.843000000000000000e+03 6.939803123474121094e+00 -1.279799175262451172e+01 2.821013331413269043e-01 -1.653238087892532349e-01 3.503325581550598145e-02 -4.053223431110382080e-01
2.844000000000000000e+03 2.801634979248046875e+01 -3.035611629486083984e+00 -7.081852555274963379e-01 -3.996939864009618759e-03 -2.136546522378921509e-01 3.837081491947174072e-01
2.845000000000000000e+03 2.711330604553222656e+01 -2.618747472763061523e+00 -9.109217524528503418e-01 -1.584637761116027832e-01 -3.208156526088714600e-01 3.005851507186889648e-01
2.846000000000000000e+03 3.106798934936523438e+01 -5.065730094909667969e+00 1.227204874157905579e-01 4.276697337627410889e-02 4.964623600244522095e-02 5.744280219078063965e-01
2.847000000000000000e+03 2.669281768798828125e+01 -3.511956691741943359e+00 -4.987317621707916260e-01 -4.436967521905899048e-02 -1.629304289817810059e-01 2.257167845964431763e-01
2.848000000000000000e+03 2.997235107421875000e+01 -2.643949508666992188e+00 -6.937572360038757324e-01 7.663077116012573242e-02 -1.851379424333572388e-01 4.165853261947631836e-01
2.849000000000000000e+03 1.313675308227539062e+01 1.587308692932128906e+01 1.097312269848771393e-04 1.970695011550560594e-04 9.204021625919267535e-05 1.665749296080321074e-04
2.850000000000000000e+03 1.276136779785156250e+01 1.685147666931152344e+01 -7.675326196476817131e-05 5.265157233225181699e-05 -7.230508344946429133e-06 1.829883694881573319e-04
2.851000000000000000e+03 2.643176651000976562e+01 -3.920306682586669922e+00 -3.474806845188140869e-01 4.299266263842582703e-03 -1.029544249176979065e-01 1.976099163293838501e-01
2.852000000000000000e+03 2.763924217224121094e+01 -3.296437740325927734e+00 -5.840868949890136719e-01 -8.023771457374095917e-03 -1.776332110166549683e-01 3.595844507217407227e-01
2.853000000000000000e+03 1.138934040069580078e+01 1.707583236694335938e+01 -1.843463396653532982e-04 -2.090744092129170895e-04 -1.180262261186726391e-04 7.171009201556444168e-05
2.854000000000000000e+03 1.815525817871093750e+01 5.334980487823486328e+00 5.487760972755495459e-06 1.380070625600637868e-05 5.786540441476972774e-06 -7.469592219422338530e-06
2.855000000000000000e+03 2.822804069519042969e+01 -3.155678749084472656e+00 -6.335990428924560547e-01 2.974727749824523926e-02 -1.811555325984954834e-01 4.070891737937927246e-01
2.856000000000000000e+03 1.311917018890380859e+01 1.334505558013916016e+01 5.382042218116112053e-05 1.366898504784330726e-04 5.715307997888885438e-05 9.753268386702984571e-05
2.857000000000000000e+03 1.332305240631103516e+01 1.451419258117675781e+01 1.270576103706844151e-05 1.348653458990156651e-04 4.427133171702735126e-05 1.545035775052383542e-04
2.858000000000000000e+03 1.618238830566406250e+01 6.204377651214599609e+00 -7.190481937868753448e-06 -4.865014489041641355e-07 -2.303095016031875275e-06 9.505860361969098449e-06
2.859000000000000000e+03 3.410214233398437500e+01 1.617631912231445312e+01 -1.001948583871126175e-02 -1.027347985655069351e-03 -3.314050147309899330e-03 8.434287272393703461e-03
2.860000000000000000e+03 1.470393657684326172e+01 8.417892456054687500e+00 3.114674109383486211e-05 3.574230868252925575e-05 2.006671456911135465e-05 7.272752100107027218e-06
2.861000000000000000e+03 1.768170547485351562e+01 5.578742980957031250e+00 1.315792542300187051e-05 8.537739631719887257e-06 6.508699698315467685e-06 -5.712597612728131935e-07
2.862000000000000000e+03 3.475232315063476562e+01 1.080026054382324219e+01 -8.804279495961964130e-04 -6.143408245407044888e-05 -2.825586125254631042e-04 3.704202244989573956e-04
2.863000000000000000e+03 3.601307296752929688e+01 1.128557395935058594e+01 -3.198266262188553810e-03 -2.075595111818984151e-04 -1.021747710183262825e-03 1.147402101196348667e-03
2.864000000000000000e+03 3.384139633178710938e+01 1.676727867126464844e+01 -1.140220556408166885e-02 -1.604640972800552845e-03 -3.902053926140069962e-03 9.327328763902187347e-03
2.865000000000000000e+03 3.344444274902343750e+01 1.697014045715332031e+01 -1.256681792438030243e-02 -2.607351401820778847e-03 -4.552250728011131287e-03 1.078438572585582733e-02
2.866000000000000000e+03 3.397787475585937500e+01 1.511777687072753906e+01 -6.952255032956600189e-03 -1.995301572605967522e-03 -2.684267004951834679e-03 6.886620074510574341e-03
2.867000000000000000e+03 3.514417648315429688e+01 1.006880092620849609e+01 -3.914866247214376926e-04 -2.762258809525519609e-04 -2.003137487918138504e-04 -3.426419789320789278e-05
2.868000000000000000e+03 3.650386428833007812e+01 9.355555534362792969e+00 -1.038173795677721500e-03 -7.681389251956716180e-05 -3.344963188283145428e-04 1.901991781778633595e-04
2.869000000000000000e+03 1.430507850646972656e+01 1.057723808288574219e+01 -3.117360756732523441e-05 7.617648225277662277e-05 1.350086313323117793e-05 2.639284684846643358e-05
2.870000000000000000e+03 1.728988075256347656e+01 7.140049457550048828e+00 1.677574618952348828e-05 1.286932638322468847e-05 8.893522135622333735e-06 9.402762771060224622e-06
2.871000000000000000e+03 1.653380966186523438e+01 7.959205627441406250e+00 -2.306037276866845787e-05 1.307912862102966756e-05 -2.994373289766372181e-06 -1.062192495737690479e-05
2.872000000000000000e+03 1.777727890014648438e+01 5.146290779113769531e+00 -9.483518624620046467e-06 -1.341424922429723665e-05 -6.869330263725714758e-06 1.182215214612369891e-06
2.873000000000000000e+03 1.813850021362304688e+01 4.935683727264404297e+00 -3.136828581773443148e-06 4.037814960611285642e-06 2.702959420730621787e-07 3.846888830594252795e-06
2.874000000000000000e+03 3.437490844726562500e+01 1.268919086456298828e+01 -3.532622708007693291e-03 -8.265032083727419376e-04 -1.307737780734896660e-03 2.808761782944202423e-03
2.875000000000000000e+03 3.415438079833984375e+01 1.224798202514648438e+01 -1.738720107823610306e-03 -7.922771037556231022e-04 -7.592991460114717484e-04 1.998437568545341492e-03
2.876000000000000000e+03 3.383102798461914062e+01 1.748712348937988281e+01 -1.351819653064012527e-02 -8.144375751726329327e-04 -4.299790132790803909e-03 9.882929734885692596e-03
2.877000000000000000e+03 3.500912094116210938e+01 7.985607624053955078e+00 3.426196926739066839e-04 3.440352156758308411e-05 1.131069657276384532e-04 -9.339900861959904432e-05
2.878000000000000000e+03 2.828496742248535156e+01 -5.494287967681884766e+00 2.849668562412261963e-01 2.525534033775329590e-01 1.612560749053955078e-01 4.274476468563079834e-01
2.879000000000000000e+03 2.996417427062988281e+01 -5.651717185974121094e+00 3.080964386463165283e-01 1.652498543262481689e-01 1.420038938522338867e-01 5.565618276596069336e-01
2.880000000000000000e+03 3.474951171875000000e+01 1.316539764404296875e+01 -4.267463460564613342e-03 -1.866206876002252102e-04 -1.336225308477878571e-03 3.208082634955644608e-03
2.881000000000000000e+03 1.354572772979736328e+01 2.139697837829589844e+01 -3.501639934256672859e-03 6.331754848361015320e-04 -8.605393813923001289e-04 4.847927266382612288e-05
2.882000000000000000e+03 3.307144927978515625e+01 1.803943443298339844e+01 -1.485585793852806091e-02 -3.217733930796384811e-03 -5.422077607363462448e-03 1.140080764889717102e-02
2.883000000000000000e+03 1.188866043090820312e+01 1.602330780029296875e+01 8.403470565099269152e-05 -7.649764302186667919e-05 2.261118652313598432e-06 1.070390353561379015e-04
2.884000000000000000e+03 3.135860633850097656e+01 2.136718940734863281e+01 -2.387239970266819000e-02 -6.392276845872402191e-03 -9.079403243958950043e-03 9.388666599988937378e-03
2.885000000000000000e+03 2.109966468811035156e+01 2.432436180114746094e+01 -1.686916314065456390e-02 -3.445470472797751427e-03 -6.094390060752630234e-03 7.620390970259904861e-03
2.886000000000000000e+03 2.048314285278320312e+01 2.468701362609863281e+01 -1.445920858532190323e-02 -2.999611198902130127e-03 -5.237645935267210007e-03 7.607161067426204681e-03
2.887000000000000000e+03 1.284028434753417969e+01 1.467881393432617188e+01 7.634033681824803352e-05 1.221869606524705887e-04 5.955819142400287092e-05 1.218405595864169300e-04
2.888000000000000000e+03 1.264613533020019531e+01 1.811437797546386719e+01 -3.534652641974389553e-04 -6.833454244770109653e-05 -1.265399332623928785e-04 2.074566691590007395e-05
2.889000000000000000e+03 1.215666866302490234e+01 1.832798767089843750e+01 -3.503194020595401525e-04 -6.891883094795048237e-05 -1.257714757230132818e-04 -9.815785597311332822e-05
2.890000000000000000e+03 1.310341548919677734e+01 1.511849212646484375e+01 1.600043833605013788e-05 1.607365411473438144e-04 5.302109639160335064e-05 1.854557194747030735e-04
2.891000000000000000e+03 1.649577331542968750e+01 7.401954174041748047e+00 -1.035367131407838315e-05 9.829201189859304577e-06 -1.573409207367149065e-07 -1.387731481372611597e-05
2.892000000000000000e+03 1.310083675384521484e+01 2.043268203735351562e+01 -2.076274715363979340e-03 2.609944494906812906e-04 -5.445841234177350998e-04 -2.128654596162959933e-04
2.893000000000000000e+03 1.231468391418457031e+01 1.938519859313964844e+01 -8.849734440445899963e-04 -8.737168536754325032e-05 -2.917035308200865984e-04 -6.452001252910122275e-05
2.894000000000000000e+03 1.425510501861572266e+01 2.233120727539062500e+01 -4.959691781550645828e-03 7.132115424610674381e-04 -1.273944042623043060e-03 8.520716219209134579e-04
2.895000000000000000e+03 1.521651268005371094e+01 2.249279594421386719e+01 -5.966108292341232300e-03 7.543880492448806763e-04 -1.563515979796648026e-03 1.009212573990225792e-03
2.896000000000000000e+03 2.218026161193847656e+01 2.487133789062500000e+01 -1.613776572048664093e-02 -5.079781636595726013e-03 -6.365264300256967545e-03 8.635515347123146057e-03
2.897000000000000000e+03 2.340048217773437500e+01 2.445610237121582031e+01 -1.852572709321975708e-02 -5.902898963540792465e-03 -7.328587584197521210e-03 9.286250919103622437e-03
2.898000000000000000e+03 2.528330612182617188e+01 2.500777244567871094e+01 -1.648521609604358673e-02 -8.240247145295143127e-03 -7.417639251798391342e-03 1.082957535982131958e-02
2.899000000000000000e+03 2.509658050537109375e+01 2.412159919738769531e+01 -2.058925479650497437e-02 -7.991963997483253479e-03 -8.574365638196468353e-03 1.098493393510580063e-02
2.900000000000000000e+03 3.146612930297851562e+01 -4.948799610137939453e+00 9.382037818431854248e-02 -8.621003478765487671e-03 2.555981278419494629e-02 5.708095431327819824e-01
2.901000000000000000e+03 3.234456634521484375e+01 1.929260444641113281e+01 -1.973783038556575775e-02 -5.151929333806037903e-03 -7.466928102076053619e-03 1.299171987920999527e-02
2.902000000000000000e+03 3.238559341430664062e+01 2.045637893676757812e+01 -2.243026904761791229e-02 -3.183364402502775192e-03 -7.684090174734592438e-03 1.067539118230342865e-02
2.903000000000000000e+03 3.542498779296875000e+01 7.674798965454101562e+00 -3.178823099005967379e-04 -4.452572320587933064e-04 -2.289418625878170133e-04 -1.435593148926272988e-04
2.904000000000000000e+03 3.633805847167968750e+01 7.989886283874511719e+00 -3.449970099609345198e-04 -5.201833555474877357e-04 -2.595541009213775396e-04 5.947948375251144171e-05
2.905000000000000000e+03 1.354606914520263672e+01 2.257758331298828125e+01 -4.506379365921020508e-03 6.399460253305733204e-04 -1.159929903224110603e-03 1.093601807951927185e-03
2.906000000000000000e+03 2.749698638916015625e+01 -5.333751201629638672e+00 2.201764434576034546e-01 2.180795371532440186e-01 1.314767897129058838e-01 3.385674655437469482e-01
2.907000000000000000e+03 1.251664829254150391e+01 1.309082317352294922e+01 4.812193583347834647e-05 6.857294647488743067e-05 3.500846287352032959e-05 1.069505742634646595e-04
2.908000000000000000e+03 2.401152610778808594e+01 2.418261528015136719e+01 -2.093399688601493835e-02 -6.288953591138124466e-03 -8.166885003447532654e-03 9.275676682591438293e-03
2.909000000000000000e+03 1.239314937591552734e+01 1.871119308471679688e+01 -5.296528688631951809e-04 -1.178135935333557427e-04 -1.942399394465610385e-04 -2.016832149820402265e-05
2.910000000000000000e+03 1.193897438049316406e+01 1.788597488403320312e+01 -3.285066923126578331e-04 -1.595277426531538367e-04 -1.464103261241689324e-04 5.821180820930749178e-05
2.911000000000000000e+03 1.325175189971923828e+01 1.156296539306640625e+01 1.712475932436063886e-05 5.802674786536954343e-05 2.254545142932329327e-05 9.659786155680194497e-05
2.912000000000000000e+03 3.228963470458984375e+01 -4.075116634368896484e+00 -8.109743148088455200e-02 -5.141407623887062073e-02 -3.975345194339752197e-02 5.160750150680541992e-01
2.913000000000000000e+03 3.519176101684570312e+01 5.562739849090576172e+00 2.043345739366486669e-05 6.346584268612787127e-05 2.516979111533146352e-05 -1.583229459356516600e-04
2.914000000000000000e+03 1.669193267822265625e+01 6.601750373840332031e+00 -1.212506390402268153e-06 1.814028223634522874e-06 1.804565670227020746e-07 4.364378582977224141e-06
2.915000000000000000e+03 3.616988754272460938e+01 -5.443270683288574219e+00 1.642297506332397461e-01 -2.318925410509109497e-01 -2.029883489012718201e-02 3.830538690090179443e-01
2.916000000000000000e+03 2.877873802185058594e+01 2.336593437194824219e+01 -1.959716156125068665e-02 -1.324500050395727158e-02 -9.852648712694644928e-03 1.002720929682254791e-02
2.917000000000000000e+03 3.090111351013183594e+01 -2.993014335632324219e+00 -4.940166175365447998e-01 6.077732890844345093e-02 -1.299717873334884644e-01 4.386873841285705566e-01
2.918000000000000000e+03 2.157123184204101562e+01 2.436207962036132812e+01 -1.722199842333793640e-02 -4.012941848486661911e-03 -6.370482034981250763e-03 7.491846568882465363e-03
2.919000000000000000e+03 1.788454437255859375e+01 2.334397888183593750e+01 -1.109778508543968201e-02 -1.735031255520880222e-04 -3.381386399269104004e-03 2.637287834659218788e-03
2.920000000000000000e+03 1.864077186584472656e+01 2.440744018554687500e+01 -1.174543239176273346e-02 -8.943236898630857468e-04 -3.791926894336938858e-03 5.225429777055978775e-03
2.921000000000000000e+03 1.422345352172851562e+01 8.278717994689941406e+00 -3.858274794765748084e-05 2.303291148564312607e-05 -4.664951120503246784e-06 2.392171882092952728e-05
2.922000000000000000e+03 3.222048187255859375e+01 1.869861412048339844e+01 -1.790442690253257751e-02 -6.933252327144145966e-03 -7.451303303241729736e-03 1.319828536361455917e-02
2.923000000000000000e+03 1.968991470336914062e+01 2.463471221923828125e+01 -1.373804640024900436e-02 -1.993643585592508316e-03 -4.719506949186325073e-03 6.919364910572767258e-03
2.924000000000000000e+03 1.271276855468750000e+01 1.251517295837402344e+01 2.923284955613780767e-05 6.837968248873949051e-05 2.928375943156424910e-05 8.161852019838988781e-05
2.925000000000000000e+03 1.364433574676513672e+01 1.124435329437255859e+01 -1.996444734686519951e-05 8.422543032793328166e-05 1.927829544001724571e-05 4.739071664516814053e-05
2.926000000000000000e+03 1.332764530181884766e+01 2.193420600891113281e+01 -3.505128435790538788e-03 4.749984655063599348e-04 -9.090389939956367016e-04 5.249255918897688389e-04
2.927000000000000000e+03 3.141609382629394531e+01 2.184615707397460938e+01 -2.258462458848953247e-02 -5.275073461234569550e-03 -8.357909508049488068e-03 7.636313326656818390e-03
2.928000000000000000e+03 2.847682380676269531e+01 2.447533988952636719e+01 -1.528184395283460617e-02 -1.064154878258705139e-02 -7.777017541229724884e-03 9.209861978888511658e-03
2.929000000000000000e+03 2.751565551757812500e+01 2.466673088073730469e+01 -1.544657256454229355e-02 -1.058662869036197662e-02 -7.809960283339023590e-03 1.057930290699005127e-02
2.930000000000000000e+03 2.981140327453613281e+01 2.363613700866699219e+01 -1.652262173593044281e-02 -9.284150786697864532e-03 -7.742031943053007126e-03 6.731592584401369095e-03
2.931000000000000000e+03 2.968458557128906250e+01 2.296041488647460938e+01 -2.050784975290298462e-02 -1.203857176005840302e-02 -9.763926267623901367e-03 8.278183639049530029e-03
2.932000000000000000e+03 1.908967971801757812e+01 2.439842033386230469e+01 -1.288518123328685760e-02 -1.160373329184949398e-03 -4.213666543364524841e-03 5.726445931941270828e-03
2.933000000000000000e+03 2.463757133483886719e+01 2.404466247558593750e+01 -2.137427590787410736e-02 -6.595993414521217346e-03 -8.391081355512142181e-03 1.014544256031513214e-02
2.934000000000000000e+03 1.660178375244140625e+01 4.872990608215332031e+00 -7.224989985843421891e-06 2.498247795301722363e-06 -1.418022634425142314e-06 3.210391923857969232e-06
2.935000000000000000e+03 2.449824714660644531e+01 -5.239863395690917969e+00 1.015756279230117798e-01 9.965659677982330322e-02 6.036966666579246521e-02 1.423870921134948730e-01
2.936000000000000000e+03 3.372017669677734375e+01 -4.401832580566406250e+00 3.384736180305480957e-02 -1.325698643922805786e-01 -2.961675263941287994e-02 4.807399511337280273e-01
2.937000000000000000e+03 3.272446441650390625e+01 -4.874348640441894531e+00 9.313921630382537842e-02 -1.039542183279991150e-01 -3.244499675929546356e-03 5.247144103050231934e-01
2.938000000000000000e+03 3.538251876831054688e+01 -4.833655357360839844e+00 1.099863499402999878e-01 -1.905591189861297607e-01 -2.417182922363281250e-02 4.154038131237030029e-01
2.939000000000000000e+03 3.077313232421875000e+01 -5.408447742462158203e+00 2.433084994554519653e-01 6.265493482351303101e-02 9.178902953863143921e-02 5.836111307144165039e-01
2.940000000000000000e+03 3.049217414855957031e+01 -5.202472209930419922e+00 1.525386720895767212e-01 1.117382794618606567e-01 7.928308099508285522e-02 5.760816335678100586e-01
2.941000000000000000e+03 3.148974990844726562e+01 2.245210838317871094e+01 -1.970343105494976044e-02 -4.619715735316276550e-03 -7.296944037079811096e-03 6.318601779639720917e-03
2.942000000000000000e+03 3.120319938659667969e+01 2.404385948181152344e+01 -1.370526757091283798e-02 -4.745436366647481918e-03 -5.535211414098739624e-03 4.669309593737125397e-03
2.943000000000000000e+03 3.019550895690917969e+01 2.288425636291503906e+01 -2.081019058823585510e-02 -1.050707791000604630e-02 -9.395180270075798035e-03 7.635842543095350266e-03
2.944000000000000000e+03 2.871803665161132812e+01 -5.841970920562744141e+00 4.042493700981140137e-01 2.579248249530792236e-01 1.986522525548934937e-01 4.571203887462615967e-01
2.945000000000000000e+03 3.104002952575683594e+01 -5.722168445587158203e+00 3.259585201740264893e-01 2.781568840146064758e-02 1.061322614550590515e-01 5.718662142753601074e-01
2.946000000000000000e+03 3.155349349975585938e+01 -4.444115161895751953e+00 -2.819120883941650391e-02 -4.350919334683567286e-04 -8.587890304625034332e-03 5.492987036705017090e-01
2.947000000000000000e+03 1.399247074127197266e+01 5.383695125579833984e+00 2.230539166703238152e-06 9.386361853103153408e-06 3.485070237729814835e-06 1.039566359395394102e-05
2.948000000000000000e+03 1.241819763183593750e+01 5.631737232208251953e+00 2.838857290043961257e-05 1.154395249614026397e-05 1.197975780087290332e-05 1.365662592434091493e-05
2.949000000000000000e+03 1.120908164978027344e+01 5.812777519226074219e+00 1.953544597199652344e-05 -6.452530669776024297e-06 3.924874363292474300e-06 -5.356706651582499035e-07
2.950000000000000000e+03 3.740171051025390625e+01 -2.587398290634155273e+00 4.826572164893150330e-02 -8.760632574558258057e-02 -1.180218067020177841e-02 1.681686639785766602e-01
2.951000000000000000e+03 3.706619262695312500e+01 -3.754035472869873047e+00 1.040637642145156860e-01 -1.558121442794799805e-01 -1.552451308816671371e-02 2.752425372600555420e-01
2.952000000000000000e+03 1.516423797607421875e+01 5.506423473358154297e+00 1.837768650148063898e-05 1.274122860195348039e-05 9.335673894383944571e-06 7.011784873611759394e-06
2.953000000000000000e+03 3.280099487304687500e+01 -5.662301063537597656e+00 2.378795295953750610e-01 -1.336834728717803955e-01 3.125881403684616089e-02 5.139585137367248535e-01
2.954000000000000000e+03 8.384658813476562500e+00 -5.863923072814941406e+00 -2.187516391277313232e-01 -1.612290553748607635e-02 -7.046236097812652588e-02 -5.752172470092773438e-01
2.955000000000000000e+03 9.769665718078613281e+00 -6.423856258392333984e+00 -1.744216382503509521e-01 7.822242379188537598e-02 -2.885976433753967285e-02 -5.643232464790344238e-01
2.956000000000000000e+03 9.403181076049804688e+00 5.279177188873291016e+00 1.150178104580845684e-05 -2.031131407420616597e-05 -2.642859953994047828e-06 9.691968443803489208e-06
2.957000000000000000e+03 7.193746566772460938e+00 6.580904960632324219e+00 1.132127545133698732e-05 -1.768713627825491130e-05 -1.909758339024847373e-06 -1.861278360593132675e-05
2.958000000000000000e+03 4.663008117675781250e+01 -9.843847274780273438e+00 -2.550140023231506348e-02 1.740182340145111084e-01 4.455504938960075378e-02 4.499971568584442139e-01
2.959000000000000000e+03 1.711285972595214844e+01 2.376921844482421875e+01 -9.943883866071701050e-03 1.117932552006095648e-04 -2.949627116322517395e-03 3.299947595223784447e-03
2.960000000000000000e+03 1.550708198547363281e+01 2.504275512695312500e+01 -6.565350573509931564e-03 -2.511222264729440212e-04 -2.044941997155547142e-03 4.267291165888309479e-03
2.961000000000000000e+03 1.950042915344238281e+01 -7.170915126800537109e+00 3.257035613059997559e-01 2.997238337993621826e-01 1.876282244920730591e-01 3.153458237648010254e-01
2.962000000000000000e+03 6.991892242431640625e+01 -8.448086738586425781e+00 -3.075573742389678955e-01 -5.754578392952680588e-03 -9.399358183145523071e-02 -3.897354602813720703e-01
2.963000000000000000e+03 2.881974601745605469e+01 2.398377990722656250e+01 -1.671938598155975342e-02 -1.180906035006046295e-02 -8.558534085750579834e-03 8.267453871667385101e-03
2.964000000000000000e+03 2.821572113037109375e+01 2.506678009033203125e+01 -1.097298506647348404e-02 -9.174857288599014282e-03 -6.044352427124977112e-03 8.266814984381198883e-03
2.965000000000000000e+03 1.719423484802246094e+01 5.447597026824951172e+00 -1.195676395582268015e-05 3.433317942835856229e-06 -2.557033894845517352e-06 2.959820449177641422e-06
2.966000000000000000e+03 1.666712188720703125e+01 5.818496704101562500e+00 -8.465111022815108299e-06 2.437118382658809423e-06 -1.808397882996359840e-06 9.055263944901525974e-06
2.967000000000000000e+03 3.781918716430664062e+01 -2.868544578552246094e+00 1.044558510184288025e-01 -1.144859343767166138e-01 -3.009024541825056076e-03 1.611367017030715942e-01
2.968000000000000000e+03 3.754816436767578125e+01 -5.293941497802734375e+00 1.988906860351562500e-01 -2.452405691146850586e-01 -1.390496455132961273e-02 3.196876049041748047e-01
2.969000000000000000e+03 9.542729377746582031e+00 5.939983367919921875e+00 2.249796307296492159e-05 -1.116416478907922283e-05 3.400139348741504364e-06 3.821782684099161997e-06
2.970000000000000000e+03 5.820095062255859375e+00 -6.367729187011718750e+00 -1.114161536097526550e-01 -1.939775198698043823e-01 -9.161810576915740967e-02 -5.399073958396911621e-01
2.971000000000000000e+03 3.873659896850585938e+01 -6.517134189605712891e+00 2.247395217418670654e-01 -2.902225255966186523e-01 -1.964489743113517761e-02 3.096093833446502686e-01
2.972000000000000000e+03 5.944126129150390625e+00 6.273842811584472656e+00 7.963220923556946218e-06 -5.844910447194706649e-06 6.354932224894582760e-07 -3.065076816710643470e-05
2.973000000000000000e+03 3.857645797729492188e+01 -5.638006687164306641e+00 2.379846572875976562e-01 -2.546355724334716797e-01 -4.995271097868680954e-03 2.815500199794769287e-01
2.974000000000000000e+03 2.696121788024902344e+01 -5.544448375701904297e+00 2.710977196693420410e-01 2.204994708299636841e-01 1.474791616201400757e-01 2.690338492393493652e-01
2.975000000000000000e+03 4.503899383544921875e+01 -8.769978523254394531e+00 1.888509243726730347e-01 1.629362069070339203e-02 6.154336035251617432e-02 3.828681409358978271e-01
2.976000000000000000e+03 4.407025146484375000e+01 -8.740913391113281250e+00 1.896635591983795166e-01 -5.441237986087799072e-02 4.057535529136657715e-02 3.538372218608856201e-01
2.977000000000000000e+03 2.061855506896972656e+01 -4.693732261657714844e+00 -3.393675982952117920e-01 1.876413822174072266e-01 -4.551786929368972778e-02 1.809620112180709839e-01
2.978000000000000000e+03 1.771426010131835938e+01 2.434781837463378906e+01 -1.029921136796474457e-02 -4.836486186832189560e-04 -3.234858158975839615e-03 4.658708814531564713e-03
2.979000000000000000e+03 7.191763305664062500e+01 -1.021556472778320312e+01 -2.593850493431091309e-01 1.172435004264116287e-02 -7.429821044206619263e-02 -2.456439882516860962e-01
2.980000000000000000e+03 7.862109184265136719e+00 -6.990267276763916016e+00 -9.464016556739807129e-02 -5.265599489212036133e-02 -4.418884590268135071e-02 -5.881106257438659668e-01
2.981000000000000000e+03 2.126338958740234375e+01 -6.893880844116210938e+00 4.124092757701873779e-01 1.718805283308029175e-01 1.752869486808776855e-01 3.199773728847503662e-01
2.982000000000000000e+03 2.026625633239746094e+01 -5.336356163024902344e+00 -1.283071637153625488e-01 1.958760619163513184e-01 2.027066983282566071e-02 1.924006789922714233e-01
2.983000000000000000e+03 7.306703186035156250e+01 -2.311340522766113281e+01 1.078982859326060861e-05 1.991550016100518405e-05 9.211598808178678155e-06 -3.551895861164666712e-05
2.984000000000000000e+03 3.375006866455078125e+01 -5.182509899139404297e+00 1.385525614023208618e-01 -1.664415895938873291e-01 -8.366708643734455109e-03 4.923513233661651611e-01
2.985000000000000000e+03 3.474703979492187500e+01 -4.952820777893066406e+00 1.172317266464233398e-01 -1.827728450298309326e-01 -1.966233737766742706e-02 4.462540149688720703e-01
2.986000000000000000e+03 3.904808044433593750e+01 1.757314682006835938e+01 -1.785703748464584351e-02 9.275978431105613708e-03 -2.574317855760455132e-03 4.090832080692052841e-03
2.987000000000000000e+03 3.970919036865234375e+01 1.675696754455566406e+01 -1.697889901697635651e-02 9.078804403543472290e-03 -2.370028290897607803e-03 5.580338765867054462e-04
2.988000000000000000e+03 6.684744834899902344e+00 5.846608638763427734e+00 4.411795089254155755e-05 -2.151964872609823942e-05 6.779490377084584907e-06 2.416640541014203336e-07
2.989000000000000000e+03 7.063967895507812500e+01 -1.050002765655517578e+01 -3.501066863536834717e-01 4.953563958406448364e-02 -9.017131477594375610e-02 -2.574245333671569824e-01
2.990000000000000000e+03 1.488018703460693359e+01 -5.926560401916503906e+00 -2.515403628349304199e-01 2.866394221782684326e-01 1.052971836179494858e-02 -1.891919821500778198e-01
2.991000000000000000e+03 1.707422447204589844e+01 -6.552485942840576172e+00 7.206509821116924286e-03 3.751371502876281738e-01 1.147031038999557495e-01 8.658808469772338867e-02
2.992000000000000000e+03 1.378591728210449219e+01 -6.181462764739990234e+00 -2.151547968387603760e-01 3.042376637458801270e-01 2.672485820949077606e-02 -2.975794076919555664e-01
2.993000000000000000e+03 2.593865585327148438e+01 2.458962821960449219e+01 -1.707631535828113556e-02 -9.027899242937564850e-03 -7.831264287233352661e-03 1.093087997287511826e-02
2.994000000000000000e+03 2.431937980651855469e+01 2.456689643859863281e+01 -1.951207593083381653e-02 -7.049839012324810028e-03 -7.968573831021785736e-03 1.063442323356866837e-02
2.995000000000000000e+03 1.738341712951660156e+01 -5.727088928222656250e+00 -1.753465831279754639e-01 2.892249524593353271e-01 3.416351601481437683e-02 7.076428085565567017e-02
2.996000000000000000e+03 1.880113601684570312e+01 -6.302310943603515625e+00 4.478145390748977661e-02 2.785535454750061035e-01 9.700050204992294312e-02 2.071859091520309448e-01
2.997000000000000000e+03 7.272439002990722656e+00 1.650914192199707031e+01 -3.581444980227388442e-05 -2.359051140956580639e-04 -8.151587098836898804e-05 -6.420900899684056640e-05
2.998000000000000000e+03 6.300029277801513672e+00 1.816876411437988281e+01 -3.292615583632141352e-04 -2.496564702596515417e-04 -1.736754056764766574e-04 5.758866245741955936e-05
2.999000000000000000e+03 6.171554183959960938e+01 -5.566266536712646484e+00 1.873555481433868408e-01 5.336777865886688232e-02 7.221699506044387817e-02 -1.055734157562255859e-01
3.000000000000000000e+03 6.347369766235351562e+01 -7.727793216705322266e+00 -2.129115611314773560e-01 -1.853785663843154907e-01 -1.194870397448539734e-01 -3.386886715888977051e-01
3.001000000000000000e+03 7.097502136230468750e+01 -6.260816574096679688e+00 -1.515784114599227905e-01 -7.436629384756088257e-02 -6.778340786695480347e-02 -4.297406971454620361e-01
3.002000000000000000e+03 1.031953430175781250e+01 -1.250868988037109375e+01 4.770692884922027588e-01 4.692695140838623047e-01 2.839016318321228027e-01 -3.074024915695190430e-01
3.003000000000000000e+03 6.605130672454833984e+00 -6.609499454498291016e+00 -1.072132512927055359e-01 -1.374869346618652344e-01 -7.341005653142929077e-02 -5.766667723655700684e-01
3.004000000000000000e+03 6.500165939331054688e+00 7.035118579864501953e+00 5.674594285665079951e-05 -3.096373984590172768e-05 7.734660357527900487e-06 -1.899108610814437270e-06
3.005000000000000000e+03 5.829440593719482422e+00 9.794691085815429688e+00 3.100445610471069813e-05 -6.316318467725068331e-05 -9.647618753660935909e-06 -1.661927126406226307e-05
3.006000000000000000e+03 7.139958190917968750e+01 -2.085664272308349609e+00 3.788001462817192078e-02 -1.352732181549072266e-01 -2.921796217560768127e-02 -4.149302840232849121e-01
3.007000000000000000e+03 7.367499542236328125e+01 -2.985882282257080078e+00 -2.815968124195933342e-03 -2.628100514411926270e-01 -7.968780398368835449e-02 -3.758403360843658447e-01
3.008000000000000000e+03 6.601907348632812500e+01 -7.571516513824462891e+00 -2.961637973785400391e-01 -1.292162984609603882e-01 -1.276140213012695312e-01 -4.655994772911071777e-01
3.009000000000000000e+03 6.531576538085937500e+01 -6.582315921783447266e+00 -1.162421628832817078e-01 -1.042030975222587585e-01 -6.613357365131378174e-02 -4.208464324474334717e-01
3.010000000000000000e+03 2.386821556091308594e+01 -5.870557785034179688e+00 2.789611220359802246e-01 1.095792725682258606e-01 1.165621206164360046e-01 1.751508265733718872e-01
3.011000000000000000e+03 2.509514808654785156e+01 -6.436745166778564453e+00 5.641041398048400879e-01 1.243942603468894958e-01 2.065495103597640991e-01 2.159578353166580200e-01
3.012000000000000000e+03 7.655136585235595703e+00 -5.972463607788085938e+00 -1.883137375116348267e-01 -6.484844535589218140e-02 -7.594865560531616211e-02 -5.678223371505737305e-01
3.013000000000000000e+03 3.648964309692382812e+01 8.675547599792480469e+00 2.230277823400683701e-05 -5.205683992244303226e-04 -1.494796742917969823e-04 -1.800024328986182809e-04
3.014000000000000000e+03 7.845106124877929688e+00 6.168328762054443359e+00 5.014774433220736682e-05 -2.676445183169562370e-05 7.014987204456701875e-06 1.352684648736612871e-05
3.015000000000000000e+03 1.313115596771240234e+01 -6.876892566680908203e+00 -8.709727227687835693e-02 3.351774215698242188e-01 7.442405074834823608e-02 -3.501784503459930420e-01
3.016000000000000000e+03 8.009406089782714844e+00 -1.238878154754638672e+01 3.344241082668304443e-01 2.268728613853454590e-02 1.071334257721900940e-01 -4.246717691421508789e-01
3.017000000000000000e+03 6.560226440429687500e+01 8.540627479553222656e+00 2.690605819225311279e-01 1.006138682365417480e+00 3.825597763061523438e-01 5.049659311771392822e-02
3.018000000000000000e+03 3.712308120727539062e+01 1.014999485015869141e+01 -1.539290882647037506e-03 1.865908852778375149e-04 -4.058100166730582714e-04 -3.321679250802844763e-04
3.019000000000000000e+03 3.642420578002929688e+01 1.002095890045166016e+01 -1.105480710975825787e-03 -6.357817328535020351e-04 -5.223787156865000725e-04 2.575838589109480381e-04
3.020000000000000000e+03 1.189209461212158203e+01 -6.609386920928955078e+00 -1.484022885560989380e-01 2.267575860023498535e-01 2.350658923387527466e-02 -4.566757380962371826e-01
3.021000000000000000e+03 1.357160472869873047e+01 -7.790485858917236328e+00 8.909420669078826904e-02 4.633480310440063477e-01 1.657326668500900269e-01 -2.683899104595184326e-01
3.022000000000000000e+03 3.611261749267578125e+01 -3.650582075119018555e+00 3.307692706584930420e-02 -1.293566823005676270e-01 -2.888392657041549683e-02 3.225221335887908936e-01
3.023000000000000000e+03 3.493119049072265625e+01 -5.502621650695800781e+00 1.692677885293960571e-01 -2.143622189760208130e-01 -1.352833025157451630e-02 4.332875013351440430e-01
3.024000000000000000e+03 6.112946987152099609e+00 2.318321609497070312e+01 -9.727712604217231274e-04 -5.014519556425511837e-04 -4.422669589985162020e-04 8.520962437614798546e-04
3.025000000000000000e+03 6.982846260070800781e+00 2.529472541809082031e+01 -1.236569602042436600e-03 -8.093112264759838581e-04 -6.137642194516956806e-04 1.644165371544659138e-03
3.026000000000000000e+03 3.574701690673828125e+01 1.223222541809082031e+01 -4.434324335306882858e-03 6.801232811994850636e-04 -1.126260263845324516e-03 1.825554296374320984e-03
3.027000000000000000e+03 3.512460708618164062e+01 1.125696945190429688e+01 -2.409421838819980621e-03 -5.141354049555957317e-04 -8.770672138780355453e-04 1.371716614812612534e-03
3.028000000000000000e+03 5.979076385498046875e+00 1.171196365356445312e+01 3.549315078998915851e-05 -1.025388919515535235e-04 -2.011372089327778667e-05 -3.759430182981304824e-05
3.029000000000000000e+03 6.635130405426025391e+00 1.554178810119628906e+01 5.133070226293057203e-05 -2.095806703437119722e-04 -4.747499042423442006e-05 -5.298580435919575393e-05
3.030000000000000000e+03 2.204594421386718750e+01 -3.893407344818115234e+00 -5.127753615379333496e-01 1.993601620197296143e-01 -9.402456134557723999e-02 1.352452486753463745e-01
3.031000000000000000e+03 2.215059661865234375e+01 -6.568004608154296875e+00 3.824344575405120850e-01 1.412256509065628052e-01 1.570980250835418701e-01 2.967906892299652100e-01
3.032000000000000000e+03 6.843830108642578125e+01 1.692300796508789062e+01 2.714461982250213623e-01 4.907937049865722656e-01 2.286719828844070435e-01 5.141944065690040588e-02
3.033000000000000000e+03 6.859933471679687500e+01 1.845491600036621094e+01 2.739581465721130371e-01 4.264733195304870605e-01 2.101294249296188354e-01 1.117172464728355408e-01
3.034000000000000000e+03 4.747411346435546875e+01 -1.139410305023193359e+01 -4.316523671150207520e-01 2.557559013366699219e-01 -5.276894196867942810e-02 4.370661377906799316e-01
3.035000000000000000e+03 1.179086589813232422e+01 -8.310986518859863281e+00 1.112934798002243042e-01 3.576210737228393555e-01 1.406743675470352173e-01 -4.214407801628112793e-01
3.036000000000000000e+03 4.599599456787109375e+01 -1.041383457183837891e+01 -2.256478518247604370e-01 1.493315249681472778e-01 -2.289490029215812683e-02 4.329106509685516357e-01
3.037000000000000000e+03 6.166580677032470703e+00 1.255788803100585938e+01 8.214763511205092072e-05 -1.062804585671983659e-04 -7.239847036544233561e-06 -7.039916090434417129e-05
3.038000000000000000e+03 7.364044952392578125e+01 -8.235535621643066406e+00 -1.556873321533203125e-01 -8.546990901231765747e-02 -7.234717160463333130e-02 -2.952542603015899658e-01
3.039000000000000000e+03 4.279478836059570312e+01 -2.032405090332031250e+01 -4.218484536977484822e-05 -4.916251637041568756e-04 -1.601430121809244156e-04 1.454150878998916596e-05
3.040000000000000000e+03 4.170122146606445312e+01 -1.990310859680175781e+01 -6.340190302580595016e-04 -3.076832217629998922e-05 -1.994362100958824158e-04 3.289142041467130184e-04
3.041000000000000000e+03 1.742843055725097656e+01 -7.823626518249511719e+00 3.205985724925994873e-01 4.883897006511688232e-01 2.426964938640594482e-01 1.848701387643814087e-01
3.042000000000000000e+03 2.090544319152832031e+01 -5.297857761383056641e+00 -1.214534565806388855e-01 1.848775446414947510e-01 1.902722753584384918e-02 1.947015374898910522e-01
3.043000000000000000e+03 5.359171390533447266e+00 2.461677360534667969e+01 -8.368782000616192818e-04 -7.506436668336391449e-04 -4.762565658893436193e-04 1.135243801400065422e-03
3.044000000000000000e+03 5.898332118988037109e+00 2.713597297668457031e+01 -8.627280476503074169e-04 -1.335804932750761509e-03 -6.595599115826189518e-04 1.952939899638295174e-03
3.045000000000000000e+03 7.393857574462890625e+01 -2.460384941101074219e+01 2.441485048620961607e-05 -1.328017824562266469e-04 -3.251607995480298996e-05 -6.808037869632244110e-05
3.046000000000000000e+03 7.458049774169921875e+01 -2.733003807067871094e+01 -1.161732780019519851e-05 -7.634932990185916424e-05 -2.638999831106048077e-05 -8.805112156551331282e-05
3.047000000000000000e+03 7.337162780761718750e+01 -2.733553504943847656e+01 9.104865603148937225e-05 5.648833757732063532e-05 4.426109808264300227e-05 -2.781272269203327596e-05
3.048000000000000000e+03 2.221463584899902344e+01 -5.181584835052490234e+00 -6.622621417045593262e-02 1.662214100360870361e-01 2.999855764210224152e-02 1.838720589876174927e-01
3.049000000000000000e+03 7.350215148925781250e+01 -2.839496803283691406e+01 1.757038808136712760e-05 -1.368669036310166121e-04 -3.578895484679378569e-05 -1.366790675092488527e-04
3.050000000000000000e+03 6.719765472412109375e+01 -3.069346046447753906e+01 1.899778289953246713e-04 -2.361753722652792931e-04 -1.385926043440122157e-05 -1.084579562302678823e-04
3.051000000000000000e+03 9.031447410583496094e+00 -1.838312339782714844e+01 4.655501842498779297e-01 4.529945552349090576e-01 2.755634188652038574e-01 1.756638661026954651e-02
3.052000000000000000e+03 9.146104812622070312e+00 -1.623431968688964844e+01 4.734040498733520508e-01 4.095493555068969727e-01 2.648860216140747070e-01 -1.274002343416213989e-01
3.053000000000000000e+03 7.274990081787109375e+01 -2.497087478637695312e+01 8.262713527074083686e-05 8.430231537204235792e-05 5.007883737562224269e-05 -9.681772098701912910e-06
3.054000000000000000e+03 8.351047515869140625e+00 3.509659576416015625e+01 1.217116485349833965e-03 -3.935666754841804504e-03 -8.155651157721877098e-04 3.065503668040037155e-03
3.055000000000000000e+03 7.671946716308593750e+01 2.047072029113769531e+01 2.613192796707153320e-02 -8.996676206588745117e-01 -2.620607018470764160e-01 1.344853192567825317e-01
3.056000000000000000e+03 1.018361568450927734e+01 -1.825329208374023438e+01 5.272219777107238770e-01 8.147564530372619629e-01 4.025935232639312744e-01 -1.424322836101055145e-02
3.057000000000000000e+03 7.909974098205566406e+00 -1.967095756530761719e+01 3.624040484428405762e-01 1.211486458778381348e-01 1.450658142566680908e-01 8.493658155202865601e-02
3.058000000000000000e+03 6.739359855651855469e+00 1.906524658203125000e+01 -3.885895130224525928e-04 -2.675231662578880787e-04 -1.968338037841022015e-04 3.785266744671389461e-05
3.059000000000000000e+03 5.840141296386718750e+01 -6.711004734039306641e+00 2.255647778511047363e-01 2.042257934808731079e-01 1.289371699094772339e-01 -1.014794223010540009e-02
3.060000000000000000e+03 6.105061721801757812e+01 -6.365568637847900391e+00 8.060814440250396729e-02 2.168299444019794464e-02 3.068734146654605865e-02 -1.157810166478157043e-01
3.061000000000000000e+03 1.475850391387939453e+01 -8.750614166259765625e+00 3.633635342121124268e-01 6.600683331489562988e-01 3.070295453071594238e-01 -6.770515441894531250e-02
3.062000000000000000e+03 1.555086708068847656e+01 -6.727434635162353516e+00 -5.154664814472198486e-02 3.914701044559478760e-01 1.019770354032516479e-01 -9.440071880817413330e-02
3.063000000000000000e+03 4.048477554321289062e+01 -7.182312011718750000e+00 2.514159679412841797e-01 -2.677621245384216309e-01 -4.903841763734817505e-03 2.934792041778564453e-01
3.064000000000000000e+03 7.135190582275390625e+01 -3.502309799194335938e+01 5.380604852689430118e-05 -2.871974138543009758e-04 -7.001741323620080948e-05 -3.876505616062786430e-06
3.065000000000000000e+03 1.116084098815917969e+01 -1.774827766418457031e+01 5.107754468917846680e-01 1.192467927932739258e+00 5.109729766845703125e-01 -1.057293172925710678e-02
3.066000000000000000e+03 7.795968055725097656e+00 -2.461339759826660156e+01 1.203724965453147888e-01 9.677549451589584351e-02 6.514439731836318970e-02 2.626787424087524414e-01
3.067000000000000000e+03 7.230212402343750000e+01 1.760819625854492188e+01 1.574023216962814331e-01 -2.114840149879455566e-01 -1.622450724244117737e-02 1.183265224099159241e-01
3.068000000000000000e+03 7.266124725341796875e+01 1.539700794219970703e+01 1.508103013038635254e-01 -2.803465723991394043e-01 -3.886088356375694275e-02 5.253966525197029114e-02
3.069000000000000000e+03 6.671237945556640625e+01 6.797325134277343750e+00 2.728131711483001709e-01 6.616653800010681152e-01 2.803435623645782471e-01 -2.471488527953624725e-02
3.070000000000000000e+03 4.966062164306640625e+01 -1.212226486206054688e+01 -7.376949787139892578e-01 2.405814677476882935e-01 -1.491340547800064087e-01 3.060431480407714844e-01
3.071000000000000000e+03 1.811475372314453125e+01 -6.044136524200439453e+00 -4.520547389984130859e-02 2.859805226325988770e-01 7.223251461982727051e-02 1.352316886186599731e-01
3.072000000000000000e+03 5.917262268066406250e+01 -7.757111072540283203e+00 -5.319210886955261230e-02 9.536510705947875977e-02 1.265189982950687408e-02 -1.048198267817497253e-01
3.073000000000000000e+03 4.276596069335937500e+01 2.491361236572265625e+01 1.559117808938026428e-02 2.018439583480358124e-02 1.073267217725515366e-02 -1.248479913920164108e-02
3.074000000000000000e+03 3.520087718963623047e+00 -2.514187812805175781e+01 2.497517503798007965e-02 -8.233345746994018555e-01 -2.395078241825103760e-01 2.185715436935424805e-01
3.075000000000000000e+03 7.355734252929687500e+01 -4.131342411041259766e+00 -3.339993581175804138e-02 -2.196042686700820923e-01 -7.590126246213912964e-02 -3.831623196601867676e-01
3.076000000000000000e+03 7.120676422119140625e+01 1.538678556680679321e-01 1.022400036454200745e-01 -1.167721822857856750e-01 -4.359653219580650330e-03 -3.699190318584442139e-01
3.077000000000000000e+03 1.058199596405029297e+01 -3.315439987182617188e+01 -1.627004295587539673e-01 2.369331568479537964e-01 2.226981893181800842e-02 1.493602991104125977e-01
3.078000000000000000e+03 5.863406658172607422e+00 -3.092208480834960938e+01 -7.283016294240951538e-02 -2.599459886550903320e-01 -9.983284026384353638e-02 2.553265988826751709e-01
3.079000000000000000e+03 6.901113128662109375e+01 1.237840175628662109e+01 2.222750335931777954e-01 4.103247821331024170e-01 1.897799521684646606e-01 -2.899559214711189270e-02
3.080000000000000000e+03 7.458412170410156250e+00 -1.372851943969726562e+01 3.455652296543121338e-01 -7.374051958322525024e-02 8.154740929603576660e-02 -3.488107621669769287e-01
3.081000000000000000e+03 9.043857574462890625e+00 -2.647193717956542969e+01 1.417039241641759872e-02 3.050109446048736572e-01 9.575439989566802979e-02 2.531074285507202148e-01
3.082000000000000000e+03 1.281170940399169922e+01 -3.084142112731933594e+01 -1.400563418865203857e-01 5.502187609672546387e-01 1.230487301945686340e-01 6.133110448718070984e-02
3.083000000000000000e+03 7.295285034179687500e+01 1.296898269653320312e+01 1.448719203472137451e-01 -3.183416426181793213e-01 -5.204091593623161316e-02 -2.884446270763874054e-02
3.084000000000000000e+03 7.249774932861328125e+01 -2.885070610046386719e+01 2.026953006861731410e-05 7.465589442290365696e-05 2.847762698365841061e-05 1.007446599032846279e-06
3.085000000000000000e+03 7.219869232177734375e+01 -2.770595741271972656e+01 2.565179420344065875e-05 -1.703643793007358909e-04 -4.341377643868327141e-05 -1.603245182195678353e-04
3.086000000000000000e+03 6.434822559356689453e+00 2.431755638122558594e+01 -9.467013296671211720e-04 -6.295427447184920311e-04 -4.728732164949178696e-04 1.278350246138870716e-03
3.087000000000000000e+03 6.873623657226562500e+01 2.502700614929199219e+01 2.379924803972244263e-02 2.909656465053558350e-01 9.442946314811706543e-02 2.391799390316009521e-01
3.088000000000000000e+03 6.674214172363281250e+01 2.194808959960937500e+01 1.779531240463256836e-01 6.285327672958374023e-01 2.419457584619522095e-01 1.513054817914962769e-01
3.089000000000000000e+03 4.018794250488281250e+01 1.993895530700683594e+01 -1.422171946614980698e-02 1.421711035072803497e-02 -1.382863842991355341e-06 2.517936984077095985e-03
3.090000000000000000e+03 5.848719406127929688e+01 2.965330123901367188e+01 -7.896737754344940186e-02 4.401246905326843262e-01 1.083471924066543579e-01 -1.826238185167312622e-01
3.091000000000000000e+03 6.821697998046875000e+01 9.770899772644042969e+00 2.520157098770141602e-01 5.312082767486572266e-01 2.349672019481658936e-01 -5.204553157091140747e-02
3.092000000000000000e+03 3.050473594665527344e+01 -2.867015361785888672e+00 -5.789719820022583008e-01 7.659212499856948853e-02 -1.507139503955841064e-01 4.326434731483459473e-01
3.093000000000000000e+03 2.832820701599121094e+01 -4.765476703643798828e+00 -9.166787378489971161e-03 1.757254600524902344e-01 4.996760562062263489e-02 4.360471069812774658e-01
3.094000000000000000e+03 2.871310806274414062e+01 -3.172172784805297852e+00 -5.973494648933410645e-01 6.576081365346908569e-02 -1.594765931367874146e-01 4.321078360080718994e-01
3.095000000000000000e+03 2.865049362182617188e+01 -5.077012538909912109e+00 1.099694967269897461e-01 1.889988183975219727e-01 8.969049155712127686e-02 4.642332196235656738e-01
3.096000000000000000e+03 3.499140548706054688e+01 1.594020175933837891e+01 -1.103321742266416550e-02 1.703163376078009605e-03 -2.799016190692782402e-03 7.182380650192499161e-03
3.097000000000000000e+03 1.618334579467773438e+01 5.794918060302734375e+00 4.246024673193460330e-06 1.886879908852279186e-05 6.934446901141200215e-06 -6.728524112986633554e-06
3.098000000000000000e+03 2.899514198303222656e+01 -3.035010099411010742e+00 -6.487964987754821777e-01 6.291756778955459595e-02 -1.757636815309524536e-01 4.324620664119720459e-01
3.099000000000000000e+03 3.573708343505859375e+01 9.963002204895019531e+00 -1.265930361114442348e-03 -2.698932366911321878e-04 -4.607471055351197720e-04 3.946038777939975262e-04
3.100000000000000000e+03 3.469652938842773438e+01 1.437905216217041016e+01 -7.091594859957695007e-03 -4.355072451289743185e-04 -2.258130582049489021e-03 5.747464951127767563e-03
3.101000000000000000e+03 1.476761531829833984e+01 9.282790184020996094e+00 1.327786412730347365e-05 4.952456583851017058e-05 1.884072844404727221e-05 1.118109230446862057e-05
3.102000000000000000e+03 1.500350666046142578e+01 7.119792938232421875e+00 2.023739580181427300e-05 2.608169961604289711e-05 1.389572844345821068e-05 1.201383565785363317e-05
3.103000000000000000e+03 3.441055679321289062e+01 1.567027187347412109e+01 -9.254412725567817688e-03 -2.876657526940107346e-04 -2.862623659893870354e-03 7.378184236586093903e-03
3.104000000000000000e+03 3.443816375732421875e+01 1.530935764312744141e+01 -8.974227122962474823e-03 1.716121478239074349e-04 -2.640784485265612602e-03 6.625667680054903030e-03
3.105000000000000000e+03 3.452714157104492188e+01 1.202931594848632812e+01 -2.482408424839377403e-03 -1.007959595881402493e-03 -1.047110417857766151e-03 2.175394911319017410e-03
3.106000000000000000e+03 3.488339614868164062e+01 1.237776851654052734e+01 -3.090938786044716835e-03 -2.680441502889152616e-05 -9.353229543194174767e-04 2.042706590145826340e-03
3.107000000000000000e+03 3.118400764465332031e+01 -3.713423252105712891e+00 -2.546299993991851807e-01 3.526707738637924194e-02 -6.580887734889984131e-02 5.057973861694335938e-01
3.108000000000000000e+03 1.209709453582763672e+01 1.430572128295898438e+01 9.970665996661409736e-05 2.536159263399895281e-05 3.752047632588073611e-05 1.219931145897135139e-04
3.109000000000000000e+03 1.417641353607177734e+01 9.313024520874023438e+00 -3.041911440959665924e-05 3.633077358244918287e-05 1.773497046997363213e-06 3.423476300667971373e-05
3.110000000000000000e+03 1.240322780609130859e+01 1.533726501464843750e+01 1.061385773937217891e-04 2.401253732386976480e-05 3.904533514287322760e-05 1.284809259232133627e-04
3.111000000000000000e+03 1.924154472351074219e+01 2.495205116271972656e+01 -1.151406671851873398e-02 -1.727201510220766068e-03 -3.972380422055721283e-03 6.859820336103439331e-03
3.112000000000000000e+03 1.076678752899169922e+01 1.732830429077148438e+01 -1.737878046697005630e-04 -2.223541378043591976e-04 -1.188425812870264053e-04 -7.309618013096041977e-07
3.113000000000000000e+03 1.671040916442871094e+01 7.160763263702392578e+00 1.419856107531813905e-05 1.998791776713915169e-05 1.025594428938347846e-05 7.095159617165336385e-06
3.114000000000000000e+03 1.573371505737304688e+01 5.673826217651367188e+00 -1.706523289612960070e-05 -2.745775418588891625e-06 -5.943302767263958231e-06 2.337124215046060272e-06
3.115000000000000000e+03 1.263353729248046875e+01 1.346391010284423828e+01 4.461369826458394527e-06 3.796151213464327157e-05 1.272686495212838054e-05 1.441787608200684190e-04
3.116000000000000000e+03 1.229800415039062500e+01 1.273909187316894531e+01 4.348526272224262357e-05 1.484816584707004949e-05 1.750002775224857032e-05 1.352498511550948024e-04
3.117000000000000000e+03 3.519948959350585938e+01 1.420833492279052734e+01 -7.284247782081365585e-03 7.528887363150715828e-04 -1.959407702088356018e-03 4.702514968812465668e-03
3.118000000000000000e+03 3.639084625244140625e+01 1.311781883239746094e+01 -6.470058113336563110e-03 1.676921383477747440e-03 -1.437940984033048153e-03 2.247760538011789322e-03
3.119000000000000000e+03 3.536378860473632812e+01 1.278308868408203125e+01 -4.951623734086751938e-03 -1.102417518268339336e-04 -1.518559525720775127e-03 2.954438095912337303e-03
3.120000000000000000e+03 3.424530029296875000e+01 1.800905990600585938e+01 -1.669808290898799896e-02 1.711096963845193386e-03 -4.496095702052116394e-03 1.080621499568223953e-02
3.121000000000000000e+03 3.344084167480468750e+01 1.777712249755859375e+01 -1.567343436181545258e-02 -1.478654798120260239e-03 -5.145626608282327652e-03 1.162846479564905167e-02
3.122000000000000000e+03 1.214660549163818359e+01 1.387513732910156250e+01 -1.684238122834358364e-05 -1.408450089002144523e-06 -5.475249054143205285e-06 1.422141212970018387e-04
3.123000000000000000e+03 1.219126319885253906e+01 1.353618144989013672e+01 7.437240128638222814e-05 4.000308399554342031e-05 3.431264849496074021e-05 1.402530615450814366e-04
3.124000000000000000e+03 3.292525482177734375e+01 1.925162124633789062e+01 -1.954286731779575348e-02 -1.838151947595179081e-03 -6.414305884391069412e-03 1.154340803623199463e-02
3.125000000000000000e+03 2.711714172363281250e+01 -3.653552532196044922e+00 -4.448214769363403320e-01 -3.063449170440435410e-03 -1.343654841184616089e-01 2.939811646938323975e-01
3.126000000000000000e+03 1.336023139953613281e+01 2.072732162475585938e+01 -2.405459061264991760e-03 4.570310120470821857e-04 -5.845283740200102329e-04 -1.893666048999875784e-04
3.127000000000000000e+03 1.245887088775634766e+01 2.003171157836914062e+01 -1.340193441137671471e-03 3.063611075049266219e-05 -3.928671940229833126e-04 -1.461489300709217787e-04
3.128000000000000000e+03 1.166594696044921875e+01 1.550230407714843750e+01 -1.976274143089540303e-05 -9.077813592739403248e-05 -3.316226138849742711e-05 1.394093415001407266e-04
3.129000000000000000e+03 1.608569145202636719e+01 2.394524002075195312e+01 -7.904252968728542328e-03 1.981920649996027350e-04 -2.311818301677703857e-03 3.336108755320310593e-03
3.130000000000000000e+03 1.666354370117187500e+01 2.321550559997558594e+01 -9.015575051307678223e-03 4.446472739800810814e-04 -2.571278484538197517e-03 2.152441302314400673e-03
3.131000000000000000e+03 2.947901916503906250e+01 -5.518434047698974609e+00 2.812671959400177002e-01 1.923186182975769043e-01 1.420757472515106201e-01 5.264227986335754395e-01
3.132000000000000000e+03 2.915460205078125000e+01 -3.402059793472290039e+00 -4.908605217933654785e-01 8.562275022268295288e-02 -1.215713247656822205e-01 4.631122648715972900e-01
3.133000000000000000e+03 3.004827690124511719e+01 -3.944593429565429688e+00 -2.783796787261962891e-01 9.009409695863723755e-02 -5.648567155003547668e-02 5.128760933876037598e-01
3.134000000000000000e+03 2.024898338317871094e+01 2.562493515014648438e+01 -1.125284656882286072e-02 -3.314260160550475121e-03 -4.370131995528936386e-03 8.100745268166065216e-03
3.135000000000000000e+03 1.187606143951416016e+01 1.905000114440917969e+01 -7.196649094112217426e-04 -9.310847235610708594e-05 -2.438320079818367958e-04 -1.781093451427295804e-04
3.136000000000000000e+03 1.272169303894042969e+01 1.425099182128906250e+01 4.573495516524417326e-06 4.043321678182110190e-05 1.350201364402892068e-05 1.648841716814786196e-04
3.137000000000000000e+03 1.220285606384277344e+01 1.481881523132324219e+01 1.811305537557927892e-06 -4.777063622896093875e-06 -8.897274028640822507e-07 1.630994811421260238e-04
3.138000000000000000e+03 9.492026329040527344e+00 6.861843585968017578e+00 8.891470315575134009e-07 -1.633665851841215044e-05 -4.634253855329006910e-06 5.664669060934102163e-06
3.139000000000000000e+03 1.182041168212890625e+01 5.647417545318603516e+00 1.691754368948750198e-05 -1.174694898509187624e-05 1.551178570480260532e-06 2.703290192584972829e-05
3.140000000000000000e+03 3.676468276977539062e+01 6.974869728088378906e+00 -3.103136550635099411e-04 -4.767411737702786922e-04 -2.361164515605196357e-04 5.165106267668306828e-05
3.141000000000000000e+03 1.617026329040527344e+01 7.603332042694091797e+00 1.620586226636078209e-05 1.231034912052564323e-05 8.554863597964867949e-06 1.409460855938959867e-05
3.142000000000000000e+03 1.607810592651367188e+01 5.390697002410888672e+00 1.364741819998016581e-06 1.050018363457638770e-05 3.559477590897586197e-06 1.364335730613674968e-05
3.143000000000000000e+03 1.283439636230468750e+01 1.053317546844482422e+01 -1.554195114294998348e-05 3.818289042101241648e-05 6.792281965317670256e-06 6.275326450122520328e-05
3.144000000000000000e+03 1.437325954437255859e+01 9.870469093322753906e+00 4.602586614055326208e-06 5.437123036244884133e-05 1.769214577507227659e-05 1.627031633688602597e-05
3.145000000000000000e+03 2.168986701965332031e+01 2.568844795227050781e+01 -1.156978309154510498e-02 -4.984787665307521820e-03 -4.966371227055788040e-03 9.143236093223094940e-03
3.146000000000000000e+03 2.161530113220214844e+01 2.497882461547851562e+01 -1.440462097525596619e-02 -4.632663913071155548e-03 -5.711185280233621597e-03 8.843048475682735443e-03
3.147000000000000000e+03 2.960930824279785156e+01 2.451515769958496094e+01 -1.273381896317005157e-02 -8.872429840266704559e-03 -6.481874734163284302e-03 6.698783487081527710e-03
3.148000000000000000e+03 2.646291542053222656e+01 2.529894447326660156e+01 -1.291075441986322403e-02 -9.711237624287605286e-03 -6.786597426980733871e-03 1.030998863279819489e-02
3.149000000000000000e+03 2.685918807983398438e+01 2.430487823486328125e+01 -1.793225854635238647e-02 -1.005610544234514236e-02 -8.396509103477001190e-03 1.142690796405076981e-02
3.150000000000000000e+03 3.655986404418945312e+01 -4.102635383605957031e+00 1.007538512349128723e-01 -1.648299992084503174e-01 -1.922284439206123352e-02 3.144003450870513916e-01
3.151000000000000000e+03 3.031628417968750000e+01 -4.588545799255371094e+00 -5.818188935518264771e-02 9.766502678394317627e-02 1.184493955224752426e-02 5.512946248054504395e-01
3.152000000000000000e+03 1.861636924743652344e+01 2.509437179565429688e+01 -1.049160119146108627e-02 -1.550994813442230225e-03 -3.612778848037123680e-03 6.392074283212423325e-03
3.153000000000000000e+03 2.094110870361328125e+01 2.565841674804687500e+01 -1.124981604516506195e-02 -4.371718969196081161e-03 -4.686460364609956741e-03 8.815329521894454956e-03
3.154000000000000000e+03 1.308703422546386719e+01 2.248296356201171875e+01 -4.231615923345088959e-03 6.292472826316952705e-04 -1.080710557289421558e-03 9.797809179872274399e-04
3.155000000000000000e+03 1.964819717407226562e+01 2.544540214538574219e+01 -1.100211869925260544e-02 -2.569093601778149605e-03 -4.071363713592290878e-03 7.608441170305013657e-03
3.156000000000000000e+03 2.007646369934082031e+01 2.504405975341796875e+01 -1.235662121325731277e-02 -2.803706796839833260e-03 -4.548098426312208176e-03 7.557734381407499313e-03
3.157000000000000000e+03 1.082297801971435547e+01 -6.339384555816650391e+00 -1.933963745832443237e-01 1.459279358386993408e-01 -1.424053218215703964e-02 -5.194121599197387695e-01
3.158000000000000000e+03 9.088001251220703125e+00 -5.753413200378417969e+00 -2.396601587533950806e-01 2.101400494575500488e-02 -6.559384614229202271e-02 -5.618859529495239258e-01
3.159000000000000000e+03 3.230818939208984375e+01 2.239196968078613281e+01 -1.888496242463588715e-02 -9.349910542368888855e-04 -5.945986136794090271e-03 5.839483346790075302e-03
3.160000000000000000e+03 2.306091880798339844e+01 2.513454055786132812e+01 -1.511394605040550232e-02 -6.444750353693962097e-03 -6.467608734965324402e-03 9.593880735337734222e-03
3.161000000000000000e+03 1.400970363616943359e+01 2.360153007507324219e+01 -5.397040862590074539e-03 6.563018541783094406e-04 -1.422221772372722626e-03 1.885011675767600536e-03
3.162000000000000000e+03 1.484551048278808594e+01 2.358803367614746094e+01 -6.195902824401855469e-03 7.236075471155345440e-04 -1.641688519157469273e-03 2.204460790380835533e-03
3.163000000000000000e+03 3.170279312133789062e+01 -5.600059986114501953e+00 2.819666862487792969e-01 -5.287133529782295227e-02 6.872861087322235107e-02 5.575126409530639648e-01
3.164000000000000000e+03 3.239751434326171875e+01 -5.376346111297607422e+00 2.095098793506622314e-01 -1.078405454754829407e-01 3.050079941749572754e-02 5.405053496360778809e-01
3.165000000000000000e+03 1.395111274719238281e+01 2.283641624450683594e+01 -4.922188818454742432e-03 7.717815460637211800e-04 -1.245122170075774193e-03 1.140875625424087048e-03
3.166000000000000000e+03 2.622207832336425781e+01 -4.372970104217529297e+00 -1.886295974254608154e-01 5.952123180031776428e-02 -3.873251006007194519e-02 1.782691627740859985e-01
3.167000000000000000e+03 1.355561065673828125e+01 1.051559543609619141e+01 -2.492705425538588315e-05 5.815000622533261776e-05 9.966885954781901091e-06 4.771369640366174281e-05
3.168000000000000000e+03 1.298174095153808594e+01 5.957018852233886719e+00 -9.226307156495749950e-06 -3.800515742113930173e-06 -3.908046892320271581e-06 1.427788356522796676e-05
3.169000000000000000e+03 1.384991073608398438e+01 4.879320144653320312e+00 7.658614435968047474e-07 2.980279759867698886e-06 1.123842366723692976e-06 7.190231826825765893e-06
3.170000000000000000e+03 1.544656181335449219e+01 7.255749225616455078e+00 -1.380452249577501789e-05 6.400066922651603818e-06 -2.221336671937024221e-06 2.414312984910793602e-05
3.171000000000000000e+03 1.625061798095703125e+01 6.646273136138916016e+00 4.730273758468683809e-06 1.645655902393627912e-05 6.356049652822548524e-06 -3.320560836073127575e-06
3.172000000000000000e+03 2.633396530151367188e+01 -5.746760845184326172e+00 4.066862165927886963e-01 1.802216321229934692e-01 1.760723590850830078e-01 2.039788812398910522e-01
3.173000000000000000e+03 1.344374561309814453e+01 5.592215538024902344e+00 1.402818270435091108e-05 8.955490557127632201e-06 6.895101705595152453e-06 1.790683018043637276e-05
3.174000000000000000e+03 1.215146064758300781e+01 6.053202629089355469e+00 -2.152439628844149411e-05 1.157320002675987780e-05 -2.985358605656074360e-06 1.233683997270418331e-05
3.175000000000000000e+03 1.282098770141601562e+01 -8.910248756408691406e+00 2.450315952301025391e-01 5.175224542617797852e-01 2.287662029266357422e-01 -2.968364059925079346e-01
3.176000000000000000e+03 1.263874435424804688e+01 -8.079331398010253906e+00 9.563137590885162354e-02 4.117970168590545654e-01 1.522285193204879761e-01 -3.674855232238769531e-01
3.177000000000000000e+03 1.259574604034423828e+01 1.642473602294921875e+01 9.103079355554655194e-05 3.815364834736101329e-05 3.875533366226591170e-05 1.192563577205874026e-04
3.178000000000000000e+03 8.373725891113281250e+00 6.769457817077636719e+00 1.028146925818873569e-05 -2.137307274097111076e-05 -3.327480953885242343e-06 -8.683047781232744455e-06
3.179000000000000000e+03 1.249149227142333984e+01 2.094865989685058594e+01 -2.421008655801415443e-03 2.471259795129299164e-04 -6.521648028865456581e-04 1.244922373189183418e-06
3.180000000000000000e+03 2.900877189636230469e+01 2.629588317871093750e+01 -6.096100900322198868e-03 -6.851527374237775803e-03 -3.884288482367992401e-03 5.566930398344993591e-03
3.181000000000000000e+03 2.801520919799804688e+01 2.594865226745605469e+01 -7.969438098371028900e-03 -8.657024241983890533e-03 -4.987938795238733292e-03 7.540228776633739471e-03
3.182000000000000000e+03 3.147030830383300781e+01 2.318482017517089844e+01 -1.687050983309745789e-02 -4.073422402143478394e-03 -6.283179391175508499e-03 4.930642899125814438e-03
3.183000000000000000e+03 2.348392868041992188e+01 -5.217965126037597656e+00 2.484037354588508606e-02 1.238776072859764099e-01 4.461539536714553833e-02 1.568341553211212158e-01
3.184000000000000000e+03 1.077228069305419922e+01 6.177260398864746094e+00 4.188132152194157243e-05 4.087418972176237730e-07 1.268701817025430501e-05 2.494833097443915904e-05
3.185000000000000000e+03 9.934554100036621094e+00 6.418575286865234375e+00 5.722418063669465482e-05 -1.930557664309162647e-05 1.137558137997984886e-05 2.551035686337854713e-05
3.186000000000000000e+03 1.664406967163085938e+01 -7.291677951812744141e+00 1.853446662425994873e-01 4.737739861011505127e-01 1.977355927228927612e-01 9.061681479215621948e-02
3.187000000000000000e+03 3.675684738159179688e+01 -4.712511539459228516e+00 1.426139473915100098e-01 -2.018268108367919922e-01 -1.776386238634586334e-02 3.299693763256072998e-01
3.188000000000000000e+03 7.376773071289062500e+01 -9.153661727905273438e+00 -1.559696942567825317e-01 -6.395990401506423950e-02 -6.597887724637985229e-02 -2.459421604871749878e-01
3.189000000000000000e+03 3.329541778564453125e+01 1.854031753540039062e+01 -1.774046383798122406e-02 -1.068060519173741341e-03 -5.642557516694068909e-03 1.155390962958335876e-02
3.190000000000000000e+03 3.269833374023437500e+01 2.135269165039062500e+01 -2.134448662400245667e-02 -1.663709117565304041e-04 -6.453257519751787186e-03 8.076263591647148132e-03
3.191000000000000000e+03 3.189475822448730469e+01 2.031562614440917969e+01 -2.362900972366333008e-02 -5.022178869694471359e-03 -8.595356717705726624e-03 1.142071280628442764e-02
3.192000000000000000e+03 3.351624679565429688e+01 1.914587211608886719e+01 -1.775356940925121307e-02 9.144357318291440606e-05 -5.298637785017490387e-03 1.095582917332649231e-02
3.193000000000000000e+03 1.664659118652343750e+01 2.437721443176269531e+01 -8.410534821450710297e-03 -3.299193849670700729e-05 -2.533057937398552895e-03 4.195013083517551422e-03
3.194000000000000000e+03 1.428093528747558594e+01 2.403959655761718750e+01 -5.921164061874151230e-03 4.230668710079044104e-04 -1.649429206736385822e-03 2.822554437443614006e-03
3.195000000000000000e+03 1.666697120666503906e+01 6.225861549377441406e+00 5.153939582669408992e-06 1.970339508261531591e-05 7.457200354110682383e-06 -3.853059752145782113e-06
3.196000000000000000e+03 3.213459396362304688e+01 -4.616721153259277344e+00 2.511180378496646881e-02 -6.143591925501823425e-02 -1.089723501354455948e-02 5.410345196723937988e-01
3.197000000000000000e+03 6.083354473114013672e+00 1.974139404296875000e+01 -3.540903562679886818e-04 -2.826379495672881603e-04 -1.910184946609660983e-04 1.846145751187577844e-04
3.198000000000000000e+03 6.357765197753906250e+00 2.140608215332031250e+01 -6.690358277410268784e-04 -3.385416639503091574e-04 -3.022732562385499477e-04 3.815401287283748388e-04
3.199000000000000000e+03 1.948581886291503906e+01 -6.297266483306884766e+00 9.417695552110671997e-02 2.433852851390838623e-01 1.012686714529991150e-01 2.429393529891967773e-01
3.200000000000000000e+03 7.523250102996826172e+00 1.248746967315673828e+01 9.461775334784761071e-05 -1.081745358533225954e-04 -4.067035661137197167e-06 1.945153599081095308e-06
3.201000000000000000e+03 2.384851264953613281e+01 2.468731498718261719e+01 -1.811563782393932343e-02 -6.858955137431621552e-03 -7.492377888411283493e-03 1.036769431084394455e-02
3.202000000000000000e+03 1.635483169555664062e+01 -6.522128105163574219e+00 -6.568978726863861084e-02 3.995606303215026855e-01 1.001612544059753418e-01 -3.523111576214432716e-03
3.203000000000000000e+03 6.039890766143798828e+00 -8.785494804382324219e+00 4.112992808222770691e-02 -2.554030418395996094e-01 -6.428193300962448120e-02 -5.515120029449462891e-01
3.204000000000000000e+03 3.696930313110351562e+01 1.367733287811279297e+01 -8.793951012194156647e-03 2.048010472208261490e-03 -2.023782348260283470e-03 2.696416806429624557e-03
3.205000000000000000e+03 2.720804595947265625e+01 2.569257354736328125e+01 -1.013936568051576614e-02 -8.620114065706729889e-03 -5.627844016999006271e-03 8.869240991771221161e-03
3.206000000000000000e+03 5.776473522186279297e+00 7.503597259521484375e+00 1.016084388538729399e-05 -1.261772376892622560e-05 -7.370641128545685206e-07 -3.717185973073355854e-05
3.207000000000000000e+03 9.606079101562500000e+00 9.980644226074218750e+00 7.455161721736658365e-06 -3.816079333773814142e-05 -9.211688848154153675e-06 2.708418833208270371e-05
3.208000000000000000e+03 9.164859771728515625e+00 -7.974239826202392578e+00 1.486651878803968430e-02 7.299333065748214722e-02 2.635795436799526215e-02 -5.762615203857421875e-01
3.209000000000000000e+03 6.424865245819091797e+00 -7.287010669708251953e+00 -4.541008919477462769e-02 -1.737064421176910400e-01 -6.573496013879776001e-02 -5.727538466453552246e-01
3.210000000000000000e+03 3.733880615234375000e+01 1.458362388610839844e+01 -1.067249663174152374e-02 3.948998637497425079e-03 -2.017049351707100868e-03 2.744731493294239044e-03
3.211000000000000000e+03 1.453294658660888672e+01 5.383155345916748047e+00 -1.276938201044686139e-05 2.547186113588395528e-06 -3.066658564421231858e-06 3.117479764114250429e-06
3.212000000000000000e+03 1.384836292266845703e+01 6.077489852905273438e+00 -1.353308471152558923e-05 9.471773410041350871e-06 -1.218393208546331152e-06 7.421731879730941728e-06
3.213000000000000000e+03 6.959209918975830078e+00 2.800672340393066406e+01 -9.243859094567596912e-04 -1.513471710495650768e-03 -7.313572568818926811e-04 2.308280207216739655e-03
3.214000000000000000e+03 7.299045562744140625e+01 -2.997576522827148438e+01 7.869847468100488186e-05 -1.271311921300366521e-04 -1.452981541660847142e-05 -1.169307288364507258e-04
3.215000000000000000e+03 1.712741279602050781e+01 2.439645767211914062e+01 -8.893360383808612823e-03 -3.069459926337003708e-04 -2.760092029348015785e-03 4.431278444826602936e-03
3.216000000000000000e+03 3.688359069824218750e+01 1.085857105255126953e+01 -2.674931427463889122e-03 -1.840611948864534497e-04 -8.576977998018264771e-04 6.002864683978259563e-04
3.217000000000000000e+03 3.652706146240234375e+01 1.239980506896972656e+01 -5.235995166003704071e-03 6.611639983020722866e-04 -1.372449449263513088e-03 1.677352003753185272e-03
3.218000000000000000e+03 1.575131034851074219e+01 -7.660895824432373047e+00 1.722158789634704590e-01 5.247197151184082031e-01 2.090806812047958374e-01 1.136996783316135406e-02
3.219000000000000000e+03 3.816358184814453125e+01 -4.989136219024658203e+00 2.142809629440307617e-01 -2.267105728387832642e-01 -3.728882875293493271e-03 2.684352397918701172e-01
3.220000000000000000e+03 3.850439453125000000e+01 -4.352342605590820312e+00 2.174380421638488770e-01 -2.038955986499786377e-01 4.062731750309467316e-03 2.277643829584121704e-01
3.221000000000000000e+03 9.922401428222656250e+00 -1.391703414916992188e+01 5.317870378494262695e-01 4.964047670364379883e-01 3.084575235843658447e-01 -2.145592719316482544e-01
3.222000000000000000e+03 9.418887138366699219e+00 -1.293971252441406250e+01 4.612034261226654053e-01 2.983043789863586426e-01 2.278523445129394531e-01 -3.304088711738586426e-01
3.223000000000000000e+03 3.838995742797851562e+01 1.586889934539794922e+01 -1.439488120377063751e-02 5.847340449690818787e-03 -2.564262133091688156e-03 2.914898330345749855e-03
3.224000000000000000e+03 3.651627349853515625e+01 1.548463249206542969e+01 -1.154081709682941437e-02 3.346632700413465500e-03 -2.458255272358655930e-03 5.293203517794609070e-03
3.225000000000000000e+03 6.923823547363281250e+01 -7.711919784545898438e+00 -2.906402945518493652e-01 -1.573783159255981445e-02 -9.191343933343887329e-02 -4.473814070224761963e-01
3.226000000000000000e+03 7.758345127105712891e+00 7.241768360137939453e+00 6.421790749300271273e-05 -3.711905446834862232e-05 8.129655725497286767e-06 1.298093047807924449e-05
3.227000000000000000e+03 7.101883411407470703e+00 7.754411220550537109e+00 1.500014514022041112e-05 -2.981094985443633050e-05 -4.443241778062656522e-06 -2.277001294714864343e-05
3.228000000000000000e+03 3.775088119506835938e+01 -5.934266090393066406e+00 2.018200010061264038e-01 -2.695011496543884277e-01 -2.030434086918830872e-02 3.320445120334625244e-01
3.229000000000000000e+03 7.175952911376953125e+01 -5.598605155944824219e+00 -9.643606841564178467e-02 -1.160648241639137268e-01 -6.375026702880859375e-02 -4.134718179702758789e-01
3.230000000000000000e+03 7.331398010253906250e+01 -7.199168682098388672e+00 -1.230371817946434021e-01 -1.172979846596717834e-01 -7.210054993629455566e-02 -3.364968597888946533e-01
3.231000000000000000e+03 3.745264816284179688e+01 -3.305060625076293945e+00 1.058916151523590088e-01 -1.350162476301193237e-01 -8.737390860915184021e-03 2.173487842082977295e-01
3.232000000000000000e+03 7.372764110565185547e+00 1.581120109558105469e+01 -1.121544337365776300e-04 -2.480891125742346048e-04 -1.080730653484351933e-04 -9.726516509545035660e-06
3.233000000000000000e+03 2.179281234741210938e+01 -5.773492336273193359e+00 1.259175837039947510e-01 1.540543884038925171e-01 8.399159461259841919e-02 2.168865799903869629e-01
3.234000000000000000e+03 2.105291938781738281e+01 -6.045975208282470703e+00 1.494362801313400269e-01 1.764118671417236328e-01 9.775444120168685913e-02 2.580860555171966553e-01
3.235000000000000000e+03 7.776198863983154297e+00 1.001422691345214844e+01 2.886163383664097637e-05 -8.331799472216516733e-05 -1.633690771996043622e-05 4.360913862910820171e-06
3.236000000000000000e+03 1.462862205505371094e+01 -7.674329757690429688e+00 1.014878898859024048e-01 5.025016069412231445e-01 1.811968386173248291e-01 -1.612727344036102295e-01
3.237000000000000000e+03 1.463835811614990234e+01 -6.667683124542236328e+00 -8.673857897520065308e-02 3.826357722282409668e-01 8.876916021108627319e-02 -1.847673207521438599e-01
3.238000000000000000e+03 6.090279769897460938e+01 -8.002714157104492188e+00 -2.257840633392333984e-01 -4.903566464781761169e-02 -8.244591951370239258e-02 -1.832697391510009766e-01
3.239000000000000000e+03 5.998813247680664062e+01 -8.727084159851074219e+00 -3.629937171936035156e-01 2.544652903452515602e-03 -1.081347241997718811e-01 -2.286530584096908569e-01
3.240000000000000000e+03 9.785043716430664062e+00 -1.161617088317871094e+01 4.021185934543609619e-01 2.805518209934234619e-01 2.048011124134063721e-01 -3.985903263092041016e-01
3.241000000000000000e+03 9.309036254882812500e+00 -1.069919681549072266e+01 2.655249834060668945e-01 1.762021929025650024e-01 1.325181573629379272e-01 -4.818548858165740967e-01
3.242000000000000000e+03 7.164838409423828125e+01 -3.208948612213134766e+00 -1.069330610334873199e-02 -1.423517465591430664e-01 -4.591351747512817383e-02 -4.176250994205474854e-01
3.243000000000000000e+03 7.262394714355468750e+01 -2.948513269424438477e+00 2.905998611822724342e-03 -2.008102238178253174e-01 -5.937126651406288147e-02 -4.060395956039428711e-01
3.244000000000000000e+03 6.185513305664062500e+01 -7.288298130035400391e+00 -9.652391821146011353e-02 -8.833914250135421753e-02 -5.545891821384429932e-02 -2.158304899930953979e-01
3.245000000000000000e+03 6.815848541259765625e+01 7.222472667694091797e+00 2.439302802085876465e-01 4.463938176631927490e-01 2.070972174406051636e-01 -1.045098155736923218e-01
3.246000000000000000e+03 8.057174682617187500e+00 -1.533533191680908203e+01 4.325265288352966309e-01 1.205736920237541199e-01 1.659300625324249268e-01 -2.159863263368606567e-01
3.247000000000000000e+03 7.310861968994140625e+01 -2.614702796936035156e+01 2.674200368346646428e-05 -1.325798511970788240e-04 -3.175135134370066226e-05 -8.145323226926848292e-05
3.248000000000000000e+03 7.154515075683593750e+01 1.624280357360839844e+01 1.795383542776107788e-01 -8.407913893461227417e-02 2.863776311278343201e-02 7.846722006797790527e-02
3.249000000000000000e+03 7.012348175048828125e+01 1.828591537475585938e+01 2.104220539331436157e-01 1.586441546678543091e-01 1.107198596000671387e-01 1.203403398394584656e-01
3.250000000000000000e+03 7.929687500000000000e+00 -1.618446540832519531e+01 4.118273258209228516e-01 7.777985185384750366e-02 1.468821465969085693e-01 -1.505523473024368286e-01
3.251000000000000000e+03 7.294165039062500000e+01 -9.868913650512695312e+00 -2.014128714799880981e-01 -2.261441946029663086e-02 -6.720818579196929932e-02 -2.310760468244552612e-01
3.252000000000000000e+03 7.226554107666015625e+01 -7.776598930358886719e+00 -1.937412619590759277e-01 -5.495397374033927917e-02 -7.460857182741165161e-02 -3.616010844707489014e-01
3.253000000000000000e+03 6.590469360351562500e+01 6.045917510986328125e+00 3.067680299282073975e-01 7.730069160461425781e-01 3.239324986934661865e-01 1.120924390852451324e-02
3.254000000000000000e+03 6.289891815185546875e+01 -4.617685794830322266e+00 2.217282801866531372e-01 6.384591758251190186e-02 8.567225933074951172e-02 -1.431338638067245483e-01
3.255000000000000000e+03 6.372322082519531250e+01 -6.230591297149658203e+00 9.470286313444375992e-04 -7.518202066421508789e-02 -2.227049693465232849e-02 -2.995564937591552734e-01
3.256000000000000000e+03 7.234130859375000000e+01 2.823173046112060547e+00 1.154144033789634705e-01 -2.340867072343826294e-01 -3.560169041156768799e-02 -3.081528246402740479e-01
3.257000000000000000e+03 8.075256347656250000e+00 -2.086840820312500000e+01 2.925145030021667480e-01 1.564784944057464600e-01 1.346978992223739624e-01 1.498821675777435303e-01
3.258000000000000000e+03 8.442581176757812500e+00 -1.330819129943847656e+01 3.872059285640716553e-01 1.441186815500259399e-01 1.593973934650421143e-01 -3.468967676162719727e-01
3.259000000000000000e+03 6.399258613586425781e+00 8.338858604431152344e+00 7.082064257701858878e-05 -4.413245551404543221e-05 8.006457392184529454e-06 -5.045351826993282884e-06
3.260000000000000000e+03 7.134278106689453125e+01 -9.281231760978698730e-01 7.767512649297714233e-02 -1.335195600986480713e-01 -1.675332896411418915e-02 -3.878574371337890625e-01
3.261000000000000000e+03 7.033856964111328125e+01 -2.043543338775634766e+00 5.495890229940414429e-02 -8.276349306106567383e-02 -8.341376669704914093e-03 -4.065867364406585693e-01
3.262000000000000000e+03 6.293344879150390625e+01 -6.886829435825347900e-02 3.975692093372344971e-01 5.157725811004638672e-01 2.740025222301483154e-01 1.238712444901466370e-01
3.263000000000000000e+03 6.371190261840820312e+01 -5.231303572654724121e-01 3.431935310363769531e-01 4.154319465160369873e-01 2.275876402854919434e-01 1.359081827104091644e-02
3.264000000000000000e+03 7.433060169219970703e+00 2.388139152526855469e+01 -1.500726677477359772e-03 -4.907912807539105415e-04 -5.974553641863167286e-04 1.271037617698311806e-03
3.265000000000000000e+03 4.179085922241210938e+01 1.952645492553710938e+01 -1.586481183767318726e-02 1.305480208247900009e-02 -8.430029265582561493e-04 1.035069872159510851e-04
3.266000000000000000e+03 7.158163452148437500e+01 -3.069074630737304688e+01 4.577578692988026887e-06 3.246929554734379053e-05 1.111406254494795576e-05 -1.193568550661439076e-05
3.267000000000000000e+03 6.715331268310546875e+01 7.692687988281250000e+00 2.724150717258453369e-01 6.602241992950439453e-01 2.797918021678924561e-01 -3.658884763717651367e-02
3.268000000000000000e+03 6.311758041381835938e+01 -1.325451731681823730e+00 3.537803888320922852e-01 3.408516347408294678e-01 2.083895951509475708e-01 1.142566651105880737e-02
3.269000000000000000e+03 6.852854156494140625e+01 -3.381287384033203125e+01 -5.947999306954443455e-05 -5.040153046138584614e-04 -1.690485805738717318e-04 -6.287275027716532350e-05
3.270000000000000000e+03 3.843022537231445312e+01 1.856956481933593750e+01 -1.640591211616992950e-02 1.163830514997243881e-02 -1.430282020010054111e-03 4.393671639263629913e-03
3.271000000000000000e+03 3.427865219116210938e+01 1.670524215698242188e+01 -1.275729015469551086e-02 4.344542685430496931e-04 -3.696850733831524849e-03 9.281635284423828125e-03
3.272000000000000000e+03 7.237441253662109375e+01 -9.588141441345214844e+00 -2.479350268840789795e-01 -9.971721097826957703e-03 -7.737202197313308716e-02 -2.651048898696899414e-01
3.273000000000000000e+03 9.314501762390136719e+00 -9.723147392272949219e+00 1.951192617416381836e-01 1.391221284866333008e-01 1.002724245190620422e-01 -5.289895534515380859e-01
3.274000000000000000e+03 1.056394481658935547e+01 -1.120798492431640625e+01 3.818701505661010742e-01 4.093886017799377441e-01 2.373776286840438843e-01 -3.934429585933685303e-01
3.275000000000000000e+03 7.767180919647216797e+00 -1.051022243499755859e+01 2.043593078851699829e-01 -3.982686623930931091e-02 4.935973137617111206e-02 -5.318571329116821289e-01
3.276000000000000000e+03 6.815352630615234375e+01 1.143449878692626953e+01 2.488879412412643433e-01 5.652548670768737793e-01 2.442428469657897949e-01 -3.794220462441444397e-02
3.277000000000000000e+03 7.064643859863281250e+01 1.345181465148925781e+01 2.205319106578826904e-01 1.275163143873214722e-01 1.044144704937934875e-01 -1.956201530992984772e-02
3.278000000000000000e+03 8.099152565002441406e+00 2.989903831481933594e+01 -7.466613315045833588e-04 -2.150949090719223022e-03 -8.692831615917384624e-04 3.097003092989325523e-03
3.279000000000000000e+03 8.808415412902832031e+00 -2.854185295104980469e+01 -5.782344192266464233e-02 1.831066012382507324e-01 3.758494928479194641e-02 2.510482370853424072e-01
3.280000000000000000e+03 7.221026611328125000e+01 -3.237203979492187500e+01 1.263392277905950323e-06 -1.970842859009280801e-04 -5.874627095181494951e-05 -1.105140836443752050e-04
3.281000000000000000e+03 1.313385677337646484e+01 -2.884836006164550781e+01 -7.681001722812652588e-02 6.838219761848449707e-01 1.821035891771316528e-01 2.501798234879970551e-02
3.282000000000000000e+03 4.796752166748046875e+01 2.207145118713378906e+01 1.494413707405328751e-02 1.005682395771145821e-03 4.784945864230394363e-03 -1.436953619122505188e-02
3.283000000000000000e+03 6.961087799072265625e+01 2.406985664367675781e+01 4.343524947762489319e-02 1.702300459146499634e-01 6.409958750009536743e-02 2.404075711965560913e-01
3.284000000000000000e+03 6.550579833984375000e+01 2.491951560974121094e+01 -2.311369962990283966e-02 6.288546323776245117e-01 1.817222833633422852e-01 1.179800555109977722e-01
3.285000000000000000e+03 6.277749633789062500e+01 -5.772038459777832031e+00 8.194568008184432983e-02 -3.881954029202461243e-02 1.293784100562334061e-02 -2.147872895002365112e-01
3.286000000000000000e+03 6.898029327392578125e+01 1.067661094665527344e+01 2.290209531784057617e-01 4.065937101840972900e-01 1.906844079494476318e-01 -5.509084835648536682e-02
3.287000000000000000e+03 4.041042327880859375e+01 -3.182561302185058594e+01 -3.414620179682970047e-03 8.537555113434791565e-03 1.536880503408610821e-03 5.662677809596061707e-03
3.288000000000000000e+03 3.929580307006835938e+01 1.926357460021972656e+01 -1.711468957364559174e-02 1.207384001463651657e-02 -1.512254937551915646e-03 4.833577200770378113e-03
3.289000000000000000e+03 7.521421909332275391e+00 -2.602058029174804688e+01 2.787718735635280609e-02 1.540685258805751801e-02 1.298521272838115692e-02 2.849996984004974365e-01
3.290000000000000000e+03 7.184852600097656250e+01 4.920518398284912109e+00 1.461162269115447998e-01 -1.566790342330932617e-01 -3.168844617903232574e-03 -2.529262304306030273e-01
3.291000000000000000e+03 7.316585540771484375e+01 6.460775852203369141e+00 1.162585914134979248e-01 -3.346240520477294922e-01 -6.550963968038558960e-02 -2.043156772851943970e-01
3.292000000000000000e+03 4.700162506103515625e+01 2.528050422668457031e+01 4.772299528121948242e-02 2.463802322745323181e-02 2.170830592513084412e-02 -3.739595785737037659e-02
3.293000000000000000e+03 4.921274566650390625e+01 2.272922325134277344e+01 3.423449024558067322e-02 -1.137140672653913498e-03 9.929204359650611877e-03 -2.210488729178905487e-02
3.294000000000000000e+03 7.119828796386718750e+01 2.601336097717285156e+01 -1.322095096111297607e-02 -3.396346420049667358e-02 -1.415532454848289490e-02 2.519599795341491699e-01
3.295000000000000000e+03 6.808498382568359375e+01 1.543001365661621094e+01 2.846777439117431641e-01 5.860524177551269531e-01 2.612190246582031250e-01 8.543399162590503693e-03
3.296000000000000000e+03 4.853480148315429688e+01 2.396722221374511719e+01 5.656360089778900146e-02 1.050772890448570251e-02 2.012139931321144104e-02 -3.564758226275444031e-02
3.297000000000000000e+03 6.513606548309326172e+00 3.114493942260742188e+01 -3.232308081351220608e-04 -2.565047936514019966e-03 -8.664836059324443340e-04 2.663801657035946846e-03
3.298000000000000000e+03 2.770505332946777344e+01 -4.610140323638916016e+00 -6.683599948883056641e-02 1.413341760635375977e-01 2.234945446252822876e-02 3.632077574729919434e-01
3.299000000000000000e+03 2.790449905395507812e+01 -3.361575603485107422e+00 -5.500245094299316406e-01 1.779158785939216614e-02 -1.596698760986328125e-01 3.879949450492858887e-01
3.300000000000000000e+03 2.726970672607421875e+01 -4.780734539031982422e+00 -4.157116636633872986e-03 1.451353877782821655e-01 4.229348152875900269e-02 3.055588901042938232e-01
3.301000000000000000e+03 1.281010055541992188e+01 1.185023593902587891e+01 1.388636064802994952e-05 6.123638013377785683e-05 2.253682214359287173e-05 6.102458428358659148e-05
3.302000000000000000e+03 1.359482383728027344e+01 2.331067085266113281e+01 -4.958149977028369904e-03 5.445588612928986549e-04 -1.324077253229916096e-03 1.895178109407424927e-03
3.303000000000000000e+03 1.286710166931152344e+01 2.179568481445312500e+01 -3.413755213841795921e-03 5.842632381245493889e-04 -8.488475577905774117e-04 3.096510190516710281e-04
3.304000000000000000e+03 1.414355659484863281e+01 8.761692047119140625e+00 3.048915823455899954e-05 3.835736060864292085e-05 2.065395528916269541e-05 1.913897358463145792e-05
3.305000000000000000e+03 1.511211490631103516e+01 6.067262172698974609e+00 -2.331134601263329387e-05 1.575076566950883716e-05 -2.268174512209952809e-06 7.400582489935914055e-06
3.306000000000000000e+03 3.495611572265625000e+01 1.475913810729980469e+01 -8.113267831504344940e-03 6.861450383439660072e-04 -2.228136872872710228e-03 5.442723631858825684e-03
3.307000000000000000e+03 3.502402114868164062e+01 1.368864822387695312e+01 -6.339097861200571060e-03 6.981923070270568132e-05 -1.880783587694168091e-03 4.293493460863828659e-03
3.308000000000000000e+03 1.177794933319091797e+01 1.363740348815917969e+01 4.242286740918643773e-05 -4.971574890078045428e-05 -2.187865220548701473e-06 1.248600310645997524e-04
3.309000000000000000e+03 1.468516921997070312e+01 8.825436592102050781e+00 -3.005974213010631502e-05 2.483029493305366486e-05 -1.568834250065265223e-06 2.420085547782946378e-05
3.310000000000000000e+03 3.577690505981445312e+01 1.316247081756591797e+01 -5.349860992282629013e-03 7.973432657308876514e-04 -1.365755335427820683e-03 2.390929730609059334e-03
3.311000000000000000e+03 3.653341293334960938e+01 1.469222068786621094e+01 -1.052416395395994186e-02 3.242681967094540596e-03 -2.184444572776556015e-03 4.553977865725755692e-03
3.312000000000000000e+03 1.197186088562011719e+01 1.240628814697265625e+01 2.209349258919246495e-05 1.131483622884843498e-05 1.002249882731121033e-05 8.261474431492388248e-05
3.313000000000000000e+03 2.667062377929687500e+01 -4.341454505920410156e+00 -1.927879303693771362e-01 7.549429684877395630e-02 -3.518809005618095398e-02 2.415281385183334351e-01
3.314000000000000000e+03 1.321927928924560547e+01 1.086313533782958984e+01 2.654814670677296817e-05 4.845392322749830782e-05 2.250062061648350209e-05 7.311984518310055137e-05
3.315000000000000000e+03 1.145550155639648438e+01 1.494100666046142578e+01 9.310276072937995195e-05 -7.532503514084964991e-05 5.333315584721276537e-06 1.082012095139361918e-04
3.316000000000000000e+03 3.100358963012695312e+01 -4.260957241058349609e+00 -1.174072548747062683e-01 4.450511932373046875e-02 -2.187063917517662048e-02 5.448422431945800781e-01
3.317000000000000000e+03 1.632955169677734375e+01 7.063795566558837891e+00 -8.193784196919295937e-06 5.209523351368261501e-06 -8.952783332460967358e-07 1.200970746140228584e-05
3.318000000000000000e+03 1.588613796234130859e+01 7.882378101348876953e+00 -2.807494456646963954e-05 1.355161839455831796e-05 -4.356998033472336829e-06 5.636814876197604463e-06
3.319000000000000000e+03 2.903763961791992188e+01 -5.328508377075195312e+00 1.979494690895080566e-01 2.062736153602600098e-01 1.212669238448143005e-01 4.998637735843658447e-01
3.320000000000000000e+03 3.011061286926269531e+01 -5.099558353424072266e+00 1.252726167440414429e-01 1.163470670580863953e-01 7.248590141534805298e-02 5.572173595428466797e-01
3.321000000000000000e+03 3.378043746948242188e+01 1.831570243835449219e+01 -1.563630066812038422e-02 4.225251814204966649e-06 -4.689622670412063599e-03 1.048952061682939529e-02
3.322000000000000000e+03 3.572248840332031250e+01 1.050953769683837891e+01 -1.472965697757899761e-03 -4.941600491292774677e-04 -5.901377298869192600e-04 5.501413252204656601e-04
3.323000000000000000e+03 1.120604705810546875e+01 1.376849746704101562e+01 9.468877397011965513e-05 -6.455224502133205533e-05 9.040960321726743132e-06 1.033304142765700817e-04
3.324000000000000000e+03 1.070077896118164062e+01 1.603663444519042969e+01 -8.429688750766217709e-05 -2.203495387220755219e-04 -9.139392932411283255e-05 7.057463517412543297e-05
3.325000000000000000e+03 3.006747245788574219e+01 -3.492017507553100586e+00 -3.980974555015563965e-01 8.581398427486419678e-02 -9.368504583835601807e-02 4.933653473854064941e-01
3.326000000000000000e+03 1.352232456207275391e+01 9.237543106079101562e+00 3.714854028658010066e-05 3.734383790288120508e-05 2.234771272924263030e-05 3.531431138981133699e-05
3.327000000000000000e+03 1.175032520294189453e+01 1.324226284027099609e+01 9.165226947516202927e-05 1.385957239108392969e-05 3.165355155942961574e-05 1.146985305240377784e-04
3.328000000000000000e+03 1.212703990936279297e+01 1.322280120849609375e+01 4.304680260247550905e-05 -2.705499355215579271e-05 4.797542260348564014e-06 1.334344124188646674e-04
3.329000000000000000e+03 3.407971572875976562e+01 2.168888854980468750e+01 -1.825323700904846191e-02 4.653530661016702652e-03 -4.079911857843399048e-03 6.432240828871726990e-03
3.330000000000000000e+03 1.317836189270019531e+01 2.296448326110839844e+01 -4.177189432084560394e-03 5.636170972138643265e-04 -1.084071584045886993e-03 1.199486432597041130e-03
3.331000000000000000e+03 1.309597110748291016e+01 2.133962631225585938e+01 -2.791179576888680458e-03 4.261396243236958981e-04 -7.095119799487292767e-04 1.014949011732824147e-04
3.332000000000000000e+03 1.194590091705322266e+01 1.987818336486816406e+01 -1.396347885020077229e-03 3.852886948152445257e-05 -4.073457093909382820e-04 -1.629723556106910110e-04
3.333000000000000000e+03 1.162236118316650391e+01 1.861290168762207031e+01 -6.398573750630021095e-04 -2.080596896121278405e-04 -2.543751033954322338e-04 1.244435225089546293e-05
3.334000000000000000e+03 2.890832138061523438e+01 -3.848677635192871094e+00 -3.489127457141876221e-01 1.070702895522117615e-01 -7.255274057388305664e-02 4.719565510749816895e-01
3.335000000000000000e+03 1.305073261260986328e+01 2.097264862060546875e+01 -2.728962106630206108e-03 3.546472871676087379e-04 -7.122944225557148457e-04 -6.601833592867478728e-05
3.336000000000000000e+03 1.135389614105224609e+01 1.435182094573974609e+01 1.215618794958572835e-05 -1.034735614666715264e-04 -2.739521187322679907e-05 1.441411732230335474e-04
3.337000000000000000e+03 1.197172641754150391e+01 1.174691772460937500e+01 2.064568980131298304e-05 1.036254434438887984e-05 9.302470061811618507e-06 6.678112549707293510e-05
3.338000000000000000e+03 2.989210319519042969e+01 -4.466914653778076172e+00 -9.397801011800765991e-02 1.077114790678024292e-01 4.120039287954568863e-03 5.354080200195312500e-01
3.339000000000000000e+03 2.969546127319335938e+01 -4.983643054962158203e+00 6.483425199985504150e-02 1.483595073223114014e-01 6.395813077688217163e-02 5.405981540679931641e-01
3.340000000000000000e+03 3.569504165649414062e+01 1.621112632751464844e+01 -1.200869772583246231e-02 2.916604280471801758e-03 -2.727627987042069435e-03 6.762685719877481461e-03
3.341000000000000000e+03 3.074955749511718750e+01 2.517703819274902344e+01 -8.831299841403961182e-03 -4.156749695539474487e-03 -3.896414767950773239e-03 3.846890293061733246e-03
3.342000000000000000e+03 3.206632232666015625e+01 2.172541999816894531e+01 -2.065082080662250519e-02 -2.532272832468152046e-03 -6.954927928745746613e-03 7.448431570082902908e-03
3.343000000000000000e+03 2.371167373657226562e+01 2.550550460815429688e+01 -1.357920840382575989e-02 -6.837439257651567459e-03 -6.124994251877069473e-03 9.566857479512691498e-03
3.344000000000000000e+03 1.868821716308593750e+01 2.586827278137207031e+01 -8.912083692848682404e-03 -2.021113643422722816e-03 -3.279959317296743393e-03 7.353405933827161789e-03
3.345000000000000000e+03 2.171125030517578125e+01 2.650403213500976562e+01 -9.062517434358596802e-03 -5.563806742429733276e-03 -4.387897439301013947e-03 9.262961335480213165e-03
3.346000000000000000e+03 1.347711277008056641e+01 7.217577457427978516e+00 2.178189060941804200e-05 2.376857810304500163e-05 1.366514061373891309e-05 2.710427543206606060e-05
3.347000000000000000e+03 1.566348552703857422e+01 6.169902801513671875e+00 1.885207166196778417e-05 1.266450090042781085e-05 9.454971404920797795e-06 9.021869118441827595e-07
3.348000000000000000e+03 2.252075767517089844e+01 2.662593269348144531e+01 -8.667105808854103088e-03 -5.955646280199289322e-03 -4.386825487017631531e-03 9.415325708687305450e-03
3.349000000000000000e+03 2.350743293762207031e+01 2.854093551635742188e+01 -2.713650465011596680e-03 -6.422933191061019897e-03 -2.740975003689527512e-03 9.054484777152538300e-03
3.350000000000000000e+03 1.374771499633789062e+01 2.408158874511718750e+01 -5.037292838096618652e-03 3.642408701125532389e-04 -1.401915680617094040e-03 2.673691837117075920e-03
3.351000000000000000e+03 1.616572761535644531e+01 2.447731018066406250e+01 -7.656759582459926605e-03 4.873820671491557732e-07 -2.296881517395377159e-03 3.815924515947699547e-03
3.352000000000000000e+03 1.574785041809082031e+01 6.679888725280761719e+00 -8.141379112203139812e-06 1.102226724469801411e-05 8.642663829050434288e-07 2.040968320216052234e-05
3.353000000000000000e+03 3.465797424316406250e+01 1.500889301300048828e+01 -8.333281613886356354e-03 -5.631768726743757725e-04 -2.668937435373663902e-03 7.109391503036022186e-03
3.354000000000000000e+03 2.451012992858886719e+01 2.538259696960449219e+01 -1.381262112408876419e-02 -7.947300560772418976e-03 -6.527976132929325104e-03 1.010100636631250381e-02
3.355000000000000000e+03 3.469065475463867188e+01 1.760101318359375000e+01 -1.448117103427648544e-02 2.509678015485405922e-03 -3.591448068618774414e-03 8.817746303975582123e-03
3.356000000000000000e+03 8.747420310974121094e+00 1.059617805480957031e+01 4.995519702788442373e-05 -9.177168976748362184e-05 -1.254494782187975943e-05 3.673166793305426836e-05
3.357000000000000000e+03 3.359334945678710938e+01 2.312831306457519531e+01 -1.447947416454553604e-02 4.628789145499467850e-03 -2.955205505713820457e-03 3.822202095761895180e-03
3.358000000000000000e+03 8.953385353088378906e+00 6.295703887939453125e+00 4.819942114409059286e-05 -2.091347960231360048e-05 8.185782462533097714e-06 1.578595765749923885e-05
3.359000000000000000e+03 1.018357944488525391e+01 5.905320167541503906e+00 -8.644898343845852651e-07 -1.642006100155413151e-05 -5.185365353099768981e-06 8.019989763852208853e-06
3.360000000000000000e+03 1.374360942840576172e+01 -8.764827728271484375e+00 2.809375822544097900e-01 5.824054479598999023e-01 2.590028941631317139e-01 -2.052529901266098022e-01
3.361000000000000000e+03 1.214897727966308594e+01 2.072596549987792969e+01 -2.119447803124785423e-03 1.966781856026500463e-04 -5.768309347331523895e-04 6.538809429912362248e-06
3.362000000000000000e+03 3.701194000244140625e+01 1.882887840270996094e+01 -1.599140651524066925e-02 9.887084364891052246e-03 -1.831296714954078197e-03 6.108243484050035477e-03
3.363000000000000000e+03 8.366879463195800781e+00 7.838201522827148438e+00 8.635745871288236231e-06 -2.858669540728442371e-05 -5.985285042697796598e-06 -5.743931978940963745e-06
3.364000000000000000e+03 7.764419078826904297e+00 8.375012397766113281e+00 8.671418618177995086e-05 -5.524453808902762830e-05 9.440895155421458185e-06 1.289051670028129593e-05
3.365000000000000000e+03 1.786328697204589844e+01 2.520681571960449219e+01 -9.052217938005924225e-03 -9.013742674142122269e-04 -2.986077684909105301e-03 5.889257416129112244e-03
3.366000000000000000e+03 1.709304618835449219e+01 2.558478736877441406e+01 -7.910866290330886841e-03 -1.065725693479180336e-03 -2.692977664992213249e-03 5.885628052055835724e-03
3.367000000000000000e+03 1.157281303405761719e+01 -7.604477405548095703e+00 -2.720890333876013756e-03 2.680673003196716309e-01 7.960392534732818604e-02 -4.662874341011047363e-01
3.368000000000000000e+03 7.174535274505615234e+00 9.008606910705566406e+00 3.741631360298924847e-07 -4.157070361543446779e-05 -1.235896252183010802e-05 -1.720414911687839776e-05
3.369000000000000000e+03 7.961937904357910156e+00 9.418437957763671875e+00 1.106165218516252935e-04 -7.821816689101979136e-05 9.719506124383769929e-06 4.334111054049571976e-06
3.370000000000000000e+03 3.741548156738281250e+01 1.559850215911865234e+01 -1.379971858114004135e-02 6.288025993853807449e-03 -2.253507962450385094e-03 4.157200455665588379e-03
3.371000000000000000e+03 3.410033035278320312e+01 1.893775367736816406e+01 -1.859891973435878754e-02 2.609735587611794472e-03 -4.796755034476518631e-03 1.050337217748165131e-02
3.372000000000000000e+03 3.441383361816406250e+01 1.966987800598144531e+01 -1.739035546779632568e-02 3.835488809272646904e-03 -4.066459834575653076e-03 9.152694605290889740e-03
3.373000000000000000e+03 7.921132564544677734e+00 1.487142944335937500e+01 2.457628033880610019e-05 -2.149024367099627852e-04 -5.709784818463958800e-05 -6.030609074514359236e-05
3.374000000000000000e+03 1.012055587768554688e+01 1.773916625976562500e+01 -3.460409643594175577e-04 -2.905707515310496092e-04 -1.909835118567571044e-04 3.575326263671740890e-05
3.375000000000000000e+03 1.163072395324707031e+01 1.748347663879394531e+01 -1.595737994648516178e-04 -1.770243543433025479e-04 -1.009794432320632041e-04 -4.465239544515497983e-05
3.376000000000000000e+03 3.243953323364257812e+01 2.326399421691894531e+01 -1.502027176320552826e-02 -5.044387653470039368e-04 -4.657413344830274582e-03 4.589342512190341949e-03
3.377000000000000000e+03 7.136582946777343750e+01 -8.407952308654785156e+00 -2.456476688385009766e-01 -2.508481405675411224e-02 -8.121974766254425049e-02 -3.476649224758148193e-01
3.378000000000000000e+03 1.207024765014648438e+01 -9.934704780578613281e+00 3.649982511997222900e-01 5.306653380393981934e-01 2.686990797519683838e-01 -3.076243698596954346e-01
3.379000000000000000e+03 3.371769714355468750e+01 1.986702537536621094e+01 -1.986197568476200104e-02 2.424857346341013908e-03 -5.231135524809360504e-03 9.745942428708076477e-03
3.380000000000000000e+03 3.304116821289062500e+01 2.068680763244628906e+01 -2.055597677826881409e-02 8.259890018962323666e-04 -5.918996408581733704e-03 8.531781844794750214e-03
3.381000000000000000e+03 3.030974769592285156e+01 2.667922973632812500e+01 -3.625879995524883270e-03 -4.043260589241981506e-03 -2.300742315128445625e-03 4.206846468150615692e-03
3.382000000000000000e+03 7.543933868408203125e+00 1.440600013732910156e+01 4.004192305728793144e-05 -1.938058558152988553e-04 -4.612917837221175432e-05 1.658993460296187550e-05
3.383000000000000000e+03 7.021975040435791016e+00 1.490597915649414062e+01 -3.496487624943256378e-05 -1.983513939194381237e-04 -6.999487959546968341e-05 -7.497172191506251693e-05
3.384000000000000000e+03 1.229114627838134766e+01 6.733745098114013672e+00 -7.075077519402839243e-06 2.772193738564965315e-06 -1.290865043301892001e-06 2.237076478195376694e-05
3.385000000000000000e+03 1.060345363616943359e+01 -7.283157825469970703e+00 -5.178727209568023682e-02 1.733623892068862915e-01 3.647253662347793579e-02 -5.199524760246276855e-01
3.386000000000000000e+03 6.640876770019531250e+00 -1.037787055969238281e+01 1.463063061237335205e-01 -2.072817832231521606e-01 -1.829264126718044281e-02 -5.276766419410705566e-01
3.387000000000000000e+03 6.391379928588867188e+01 -1.979453206062316895e+00 3.075867593288421631e-01 2.742548286914825439e-01 1.745524704456329346e-01 -6.906547397375106812e-02
3.388000000000000000e+03 8.314135551452636719e+00 1.816168212890625000e+01 -3.823740698862820864e-04 -2.730609849095344543e-04 -1.966305135283619165e-04 8.543528565496671945e-06
3.389000000000000000e+03 7.198003292083740234e+00 1.793540954589843750e+01 -2.378689532633870840e-04 -2.732916036620736122e-04 -1.533481699880212545e-04 -9.471509656577836722e-06
3.390000000000000000e+03 2.742763519287109375e+01 2.677987289428710938e+01 -5.386189091950654984e-03 -7.743566762655973434e-03 -3.938926849514245987e-03 7.632924709469079971e-03
3.391000000000000000e+03 2.012765121459960938e+01 2.636678504943847656e+01 -8.878202177584171295e-03 -3.740101354196667671e-03 -3.785490989685058594e-03 8.930115960538387299e-03
3.392000000000000000e+03 1.846035385131835938e+01 2.652292442321777344e+01 -7.277119439095258713e-03 -2.339892787858843803e-03 -2.885103691369295120e-03 7.619954179972410202e-03
3.393000000000000000e+03 7.094675064086914062e+00 -7.217876434326171875e+00 -6.149653345346450806e-02 -1.070225089788436890e-01 -5.055571347475051880e-02 -5.837554931640625000e-01
3.394000000000000000e+03 6.914552211761474609e+00 -9.241262435913085938e+00 7.404774427413940430e-02 -1.724821776151657104e-01 -2.953032962977886200e-02 -5.644076466560363770e-01
3.395000000000000000e+03 1.806645011901855469e+01 2.598184585571289062e+01 -8.224864490330219269e-03 -1.876607420854270458e-03 -3.030441701412200928e-03 7.025562692433595657e-03
3.396000000000000000e+03 7.587440013885498047e+00 1.862299346923828125e+01 -4.374876443762332201e-04 -2.914628421422094107e-04 -2.186851488659158349e-04 9.670805593486875296e-05
3.397000000000000000e+03 1.263157463073730469e+01 6.383781909942626953e+00 3.171677963109686971e-05 6.905419013492064551e-06 1.158665872935671359e-05 2.323486660316120833e-05
3.398000000000000000e+03 6.422955322265625000e+01 -3.489466905593872070e+00 2.340073138475418091e-01 1.114732995629310608e-01 1.036441847681999207e-01 -1.842533200979232788e-01
3.399000000000000000e+03 6.166274642944335938e+01 -8.912007331848144531e+00 -4.614895284175872803e-01 -1.389315575361251831e-01 -1.801263242959976196e-01 -2.680639028549194336e-01
3.400000000000000000e+03 7.245369720458984375e+01 -3.871510982513427734e+00 -2.903014980256557465e-02 -1.736159771680831909e-01 -6.079383566975593567e-02 -4.073259532451629639e-01
3.401000000000000000e+03 2.898758316040039062e+01 2.514023208618164062e+01 -9.337623603641986847e-03 -8.678570389747619629e-03 -5.404858384281396866e-03 6.672937888652086258e-03
3.402000000000000000e+03 7.800781726837158203e+00 2.487058448791503906e+01 -1.385359792038798332e-03 -6.073207478038966656e-04 -5.978041444905102253e-04 1.704468857496976852e-03
3.403000000000000000e+03 8.542587280273437500e+00 2.719884300231933594e+01 -1.614025444723665714e-03 -1.172561198472976685e-03 -8.359759813174605370e-04 2.600305480882525444e-03
3.404000000000000000e+03 6.909449100494384766e+00 1.236631774902343750e+01 3.353051215526647866e-05 -1.354156556772068143e-04 -3.056554123759269714e-05 -2.254468381579499692e-05
3.405000000000000000e+03 6.943006896972656250e+01 -6.180212497711181641e+00 -1.627157181501388550e-01 -4.838001728057861328e-02 -6.332872062921524048e-02 -4.561724364757537842e-01
3.406000000000000000e+03 3.760156631469726562e+01 1.794787406921386719e+01 -1.701110601425170898e-02 8.726010099053382874e-03 -2.485528821125626564e-03 6.529741454869508743e-03
3.407000000000000000e+03 3.476883697509765625e+01 1.662248802185058594e+01 -1.194356940686702728e-02 1.313110697083175182e-03 -3.189137438312172890e-03 8.067435584962368011e-03
3.408000000000000000e+03 9.748280525207519531e+00 -7.013699531555175781e+00 -8.942409604787826538e-02 1.140516623854637146e-01 7.388269528746604919e-03 -5.642579197883605957e-01
3.409000000000000000e+03 6.863417053222656250e+01 8.251655578613281250e+00 2.434182316064834595e-01 4.052675664424896240e-01 1.946057379245758057e-01 -8.976159989833831787e-02
3.410000000000000000e+03 7.262620544433593750e+01 -6.272065162658691406e+00 -1.202878579497337341e-01 -1.161642745137214661e-01 -7.093563675880432129e-02 -3.873362541198730469e-01
3.411000000000000000e+03 7.217412567138671875e+01 -4.792960166931152344e+00 -6.500440090894699097e-02 -1.378191411495208740e-01 -6.084706261754035950e-02 -4.199994206428527832e-01
3.412000000000000000e+03 1.090110301971435547e+01 -7.838665962219238281e+00 3.128189221024513245e-02 2.279044538736343384e-01 7.775590568780899048e-02 -4.987224042415618896e-01
3.413000000000000000e+03 6.905904388427734375e+01 9.201746940612792969e+00 2.327297627925872803e-01 3.684583902359008789e-01 1.803564429283142090e-01 -8.779437094926834106e-02
3.414000000000000000e+03 7.203501892089843750e+01 1.330577135086059570e+00 1.033113375306129456e-01 -2.025658488273620605e-01 -2.977635525166988373e-02 -3.449758291244506836e-01
3.415000000000000000e+03 7.141950988769531250e+01 2.080706119537353516e+00 1.217830553650856018e-01 -1.328261792659759521e-01 -3.312936518341302872e-03 -3.220223784446716309e-01
3.416000000000000000e+03 6.675740814208984375e+01 5.173797607421875000e+00 2.791386246681213379e-01 5.612229704856872559e-01 2.521084845066070557e-01 -6.700764596462249756e-02
3.417000000000000000e+03 7.163799285888671875e+00 -1.558819866180419922e+01 3.548201024532318115e-01 -1.043491214513778687e-01 7.514129579067230225e-02 -2.100962698459625244e-01
3.418000000000000000e+03 3.520558166503906250e+01 1.819538307189941406e+01 -1.703992299735546112e-02 4.708209540694952011e-03 -3.699514083564281464e-03 9.729318320751190186e-03
3.419000000000000000e+03 1.100292015075683594e+01 -1.001426219940185547e+01 2.950578927993774414e-01 3.906888961791992188e-01 2.057240456342697144e-01 -4.353749454021453857e-01
3.420000000000000000e+03 7.228244018554687500e+01 3.254112303256988525e-01 8.358667790889739990e-02 -2.185316234827041626e-01 -4.048348590731620789e-02 -3.623877763748168945e-01
3.421000000000000000e+03 6.516345977783203125e+01 2.708431243896484375e+00 3.035899698734283447e-01 6.150543689727783203e-01 2.755933105945587158e-01 -4.862193949520587921e-03
3.422000000000000000e+03 6.612393951416015625e+01 2.265523672103881836e+00 3.007412850856781006e-01 4.289400577545166016e-01 2.189044058322906494e-01 -9.398733824491500854e-02
3.423000000000000000e+03 8.275381088256835938e+00 2.333766174316406250e+01 -1.553064095787703991e-03 -3.413399390410631895e-04 -5.683212075382471085e-04 1.133917598053812981e-03
3.424000000000000000e+03 8.965044021606445312e+00 2.395322990417480469e+01 -1.923956326209008694e-03 -3.216158074792474508e-04 -6.736716022714972496e-04 1.596803660504519939e-03
3.425000000000000000e+03 7.185889434814453125e+01 3.766593694686889648e+00 1.430965662002563477e-01 -1.711922138929367065e-01 -8.428697474300861359e-03 -2.807115614414215088e-01
3.426000000000000000e+03 7.009697437286376953e+00 2.291571044921875000e+01 -1.037050038576126099e-03 -3.965130017604678869e-04 -4.300689033698290586e-04 8.715377771295607090e-04
3.427000000000000000e+03 6.893255615234375000e+01 -3.821574926376342773e+00 1.104708109050989151e-02 -3.879015892744064331e-02 -8.322923444211483002e-03 -4.327977001667022705e-01
3.428000000000000000e+03 7.119657135009765625e+01 -4.845904350280761719e+00 -7.714780420064926147e-02 -1.101311668753623962e-01 -5.618369206786155701e-02 -4.316457211971282959e-01
3.429000000000000000e+03 6.458464050292968750e+01 -5.575186252593994141e+00 2.016243897378444672e-02 -6.482567638158798218e-02 -1.339897233992815018e-02 -3.250195980072021484e-01
3.430000000000000000e+03 7.189546203613281250e+01 -9.053473472595214844e+00 -2.489914745092391968e-01 -1.026139408349990845e-02 -7.777585834264755249e-02 -3.209137320518493652e-01
3.431000000000000000e+03 6.953321838378906250e+01 1.507966518402099609e+01 2.410393357276916504e-01 3.100983500480651855e-01 1.653413027524948120e-01 1.302953250706195831e-02
3.432000000000000000e+03 7.190143585205078125e+01 2.187697982788085938e+01 9.554892778396606445e-02 -1.360124498605728149e-01 -1.213905680924654007e-02 2.308939844369888306e-01
3.433000000000000000e+03 7.261812591552734375e+01 1.891368865966796875e+01 1.059163212776184082e-01 -2.898462712764739990e-01 -5.517898872494697571e-02 1.538921594619750977e-01
3.434000000000000000e+03 4.871508407592773438e+01 2.664373970031738281e+01 6.220420449972152710e-02 5.429952964186668396e-02 3.495112061500549316e-02 -7.375277578830718994e-02
3.435000000000000000e+03 6.991526031494140625e+01 2.540691184997558594e+01 -1.150076836347579956e-02 1.164010912179946899e-01 3.147009760141372681e-02 2.615232765674591064e-01
3.436000000000000000e+03 6.952935028076171875e+01 2.173814201354980469e+01 1.466558575630187988e-01 2.253860384225845337e-01 1.116125732660293579e-01 2.135672718286514282e-01
3.437000000000000000e+03 9.351436614990234375e+00 -2.081973648071289062e+01 3.779670596122741699e-01 4.868319928646087646e-01 2.594397068023681641e-01 1.258004456758499146e-01
3.438000000000000000e+03 8.091628074645996094e+00 -2.207672882080078125e+01 2.283141911029815674e-01 1.761626601219177246e-01 1.213430613279342651e-01 2.023220062255859375e-01
3.439000000000000000e+03 7.246572113037109375e+01 2.035489654541015625e+01 1.057730168104171753e-01 -2.467957288026809692e-01 -4.230681434273719788e-02 1.978280097246170044e-01
3.440000000000000000e+03 6.254062271118164062e+01 -8.259166717529296875e+00 -3.459647595882415771e-01 -2.098218798637390137e-01 -1.667359918355941772e-01 -2.622055709362030029e-01
3.441000000000000000e+03 7.100688171386718750e+01 9.350479125976562500e+00 1.893241256475448608e-01 2.247763238847255707e-02 6.354052573442459106e-02 -1.205462738871574402e-01
3.442000000000000000e+03 6.921207427978515625e+01 -3.594775772094726562e+01 -1.688210031716153026e-04 -1.626515149837359786e-04 -9.944174962583929300e-05 1.063326781149953604e-04
3.443000000000000000e+03 7.920902252197265625e+00 3.139323425292968750e+01 -1.400223409291356802e-04 -2.626910572871565819e-03 -8.300798945128917694e-04 3.203760599717497826e-03
3.444000000000000000e+03 4.557779693603515625e+01 2.748670578002929688e+01 3.793380036950111389e-02 3.739162161946296692e-02 2.259762585163116455e-02 -4.245219379663467407e-02
3.445000000000000000e+03 6.620295715332031250e+01 2.355185890197753906e+01 1.073028072714805603e-01 6.256869435310363770e-01 2.198969274759292603e-01 1.664634197950363159e-01
3.446000000000000000e+03 6.785119628906250000e+01 -6.102556228637695312e+00 -1.493550837039947510e-01 -5.328151211142539978e-02 -6.079097837209701538e-02 -4.618719816207885742e-01
3.447000000000000000e+03 4.206362533569335938e+01 -3.298003005981445312e+01 -1.480977050960063934e-03 5.894436966627836227e-03 1.324037904851138592e-03 5.289027001708745956e-03
3.448000000000000000e+03 1.095910930633544922e+01 3.046397590637207031e+01 -1.026196172460913658e-03 -2.390277106314897537e-03 -1.024941913783550262e-03 4.344517365097999573e-03
3.449000000000000000e+03 3.880687332153320312e+01 2.220796012878417969e+01 -8.012038655579090118e-03 1.521970331668853760e-02 2.162299351766705513e-03 2.354532247409224510e-03
3.450000000000000000e+03 6.726858520507812500e+01 2.267061471939086914e+00 2.402568012475967407e-01 3.123288154602050781e-01 1.657756716012954712e-01 -1.780382692813873291e-01
3.451000000000000000e+03 2.752524566650390625e+01 -3.678858041763305664e+00 -4.271946847438812256e-01 2.579467184841632843e-02 -1.204200088977813721e-01 3.433539271354675293e-01
3.452000000000000000e+03 2.712352371215820312e+01 -4.215835094451904297e+00 -2.120255678892135620e-01 6.837923824787139893e-02 -4.309389740228652954e-02 2.901611328125000000e-01
3.453000000000000000e+03 3.072201347351074219e+01 -3.512903928756713867e+00 -3.606802523136138916e-01 6.603913009166717529e-02 -8.839233964681625366e-02 4.970394670963287354e-01
3.454000000000000000e+03 2.755629920959472656e+01 -4.144979953765869141e+00 -2.498163580894470215e-01 7.329564541578292847e-02 -5.295621231198310852e-02 3.440389931201934814e-01
3.455000000000000000e+03 1.516327285766601562e+01 8.211147308349609375e+00 3.829511115327477455e-05 1.407046056556282565e-05 1.570967106090392917e-05 -1.929988457050058059e-06
3.456000000000000000e+03 1.305364799499511719e+01 6.795287609100341797e+00 -8.180030818039085716e-06 4.511518056915519992e-07 -2.318663746336824261e-06 1.889062514237593859e-05
3.457000000000000000e+03 1.057928752899169922e+01 1.441128349304199219e+01 1.070268699550069869e-04 -1.349360682070255280e-04 -8.372760930797085166e-06 7.999718218343332410e-05
3.458000000000000000e+03 2.929540824890136719e+01 -4.841663837432861328e+00 2.432343922555446625e-02 1.566412895917892456e-01 5.428941920399665833e-02 5.115553140640258789e-01
3.459000000000000000e+03 2.913702964782714844e+01 -4.257755756378173828e+00 -1.888793855905532837e-01 1.264613717794418335e-01 -1.872540451586246490e-02 4.937133491039276123e-01
3.460000000000000000e+03 2.863245391845703125e+01 -4.453948497772216797e+00 -1.260984987020492554e-01 1.364331245422363281e-01 3.100388683378696442e-03 4.612777531147003174e-01
3.461000000000000000e+03 9.067732810974121094e+00 1.241945934295654297e+01 2.664383100636769086e-05 -1.389868120895698667e-04 -3.370289414306171238e-05 2.256259176647290587e-05
3.462000000000000000e+03 3.558717727661132812e+01 1.361168670654296875e+01 -6.511933635920286179e-03 8.922317065298557281e-04 -1.685910625383257866e-03 3.576246788725256920e-03
3.463000000000000000e+03 3.633775711059570312e+01 1.400166416168212891e+01 -8.407221175730228424e-03 2.311671851202845573e-03 -1.828664797358214855e-03 3.630489809438586235e-03
3.464000000000000000e+03 1.283660221099853516e+01 1.116575908660888672e+01 5.758959559898357838e-06 4.910372445010580122e-05 1.645880547584965825e-05 4.807602817891165614e-05
3.465000000000000000e+03 1.338934230804443359e+01 9.764596939086914062e+00 -4.194959547021426260e-05 4.359688682598061860e-05 4.941873044117528480e-07 4.479479321162216365e-05
3.466000000000000000e+03 3.627155685424804688e+01 1.066893577575683594e+01 -1.905805431306362152e-03 3.686430773086613044e-06 -5.706357187591493130e-04 1.950971782207489014e-04
3.467000000000000000e+03 3.555088043212890625e+01 1.673784446716308594e+01 -1.368039939552545547e-02 4.364031832665205002e-03 -2.794910455122590065e-03 7.034948095679283142e-03
3.468000000000000000e+03 3.504187011718750000e+01 1.532264041900634766e+01 -9.620004333555698395e-03 1.476221601478755474e-03 -2.443134784698486328e-03 5.992856342345476151e-03
3.469000000000000000e+03 1.534067344665527344e+01 7.966433525085449219e+00 -4.703566446551121771e-05 4.298382918932475150e-05 -1.215550128108588979e-06 1.614005122974049300e-05
3.470000000000000000e+03 1.112363624572753906e+01 1.576854228973388672e+01 2.150147702195681632e-05 -1.691774814389646053e-04 -4.430280023370869458e-05 1.049214479280635715e-04
3.471000000000000000e+03 1.067079162597656250e+01 1.501501369476318359e+01 -1.832168891269247979e-05 -1.905954268295317888e-04 -6.267513526836410165e-05 1.088751378119923174e-04
3.472000000000000000e+03 1.310365676879882812e+01 1.018049812316894531e+01 4.815672218683175743e-05 3.196156103513203561e-05 2.403548569418489933e-05 5.315092130331322551e-05
3.473000000000000000e+03 2.922743034362792969e+01 -3.821556806564331055e+00 -3.550906479358673096e-01 9.732016175985336304e-02 -7.733114808797836304e-02 4.852217137813568115e-01
3.474000000000000000e+03 3.466558074951171875e+01 1.861940765380859375e+01 -1.608250290155410767e-02 3.447800874710083008e-03 -3.790410701185464859e-03 9.146390482783317566e-03
3.475000000000000000e+03 3.419813537597656250e+01 1.716005134582519531e+01 -1.375779137015342712e-02 -1.775626515154726803e-05 -4.132664296776056290e-03 1.053920853883028030e-02
3.476000000000000000e+03 1.247063064575195312e+01 1.076907634735107422e+01 7.486370577680645511e-06 2.283042158524040133e-05 9.095037967199459672e-06 9.668814891483634710e-05
3.477000000000000000e+03 1.305626964569091797e+01 7.650183200836181641e+00 -1.066237564373295754e-05 5.792618139821570367e-06 -1.460927251173416153e-06 1.876892383734229952e-05
3.478000000000000000e+03 1.164603710174560547e+01 1.270642566680908203e+01 7.665881275897845626e-05 -1.587373299116734415e-05 1.823552338464651257e-05 1.221124693984165788e-04
3.479000000000000000e+03 3.051420593261718750e+01 -4.053331375122070312e+00 -2.018247395753860474e-01 7.833754271268844604e-02 -3.704616054892539978e-02 5.291216969490051270e-01
3.480000000000000000e+03 3.075092124938964844e+01 -4.768464088439941406e+00 3.091687522828578949e-02 6.814607977867126465e-02 2.971888519823551178e-02 5.683492422103881836e-01
3.481000000000000000e+03 1.135852050781250000e+01 1.618402099609375000e+01 -7.834531425032764673e-05 -1.374676357954740524e-04 -6.474388646893203259e-05 8.774128218647092581e-05
3.482000000000000000e+03 1.066286277770996094e+01 1.212563705444335938e+01 1.064729149220511317e-04 -8.281663758680224419e-05 7.096881290635792539e-06 1.003418583422899246e-04
3.483000000000000000e+03 1.040074348449707031e+01 1.323660850524902344e+01 1.242373546119779348e-04 -1.148590963566675782e-04 2.813478658936219290e-06 7.725159957772120833e-05
3.484000000000000000e+03 1.214666366577148438e+01 2.306418800354003906e+01 -3.644482232630252838e-03 3.852602094411849976e-04 -9.777665836736559868e-04 1.227453234605491161e-03
3.485000000000000000e+03 1.273888015747070312e+01 2.346064949035644531e+01 -4.161815159022808075e-03 3.439940628595650196e-04 -1.145346323028206825e-03 1.795286778360605240e-03
3.486000000000000000e+03 1.047679615020751953e+01 1.381795120239257812e+01 1.500463713455246761e-05 -1.405774091836065054e-04 -3.767183079617097974e-05 1.015424932120367885e-04
3.487000000000000000e+03 2.840144729614257812e+01 -4.189539909362792969e+00 -2.372276782989501953e-01 1.221424713730812073e-01 -3.452556580305099487e-02 4.379940629005432129e-01
3.488000000000000000e+03 2.852321243286132812e+01 -3.699311256408691406e+00 -4.141183197498321533e-01 8.859688043594360352e-02 -9.765642881393432617e-02 4.410521388053894043e-01
3.489000000000000000e+03 1.161718368530273438e+01 2.050862693786621094e+01 -1.638202113099396229e-03 4.567796713672578335e-05 -4.777572466991841793e-04 1.028704791679047048e-04
3.490000000000000000e+03 1.124223136901855469e+01 6.972846984863281250e+00 4.722933590528555214e-05 -5.282294296193867922e-06 1.258411248272750527e-05 8.295878615172114223e-06
3.491000000000000000e+03 1.495548439025878906e+01 6.485925197601318359e+00 2.628898982948157936e-05 1.058963698596926406e-05 1.106358831748366356e-05 1.792230614228174090e-05
3.492000000000000000e+03 9.814821243286132812e+00 2.154394912719726562e+01 -1.644781092181801796e-03 -8.003837865544483066e-05 -5.174458492547273636e-04 6.132099661044776440e-04
3.493000000000000000e+03 1.135747432708740234e+01 1.956211853027343750e+01 -9.985466022044420242e-04 -1.374397543258965015e-04 -3.407959011383354664e-04 1.340392191195860505e-05
3.494000000000000000e+03 1.054146289825439453e+01 6.791635990142822266e+00 -8.880417226464487612e-06 -1.525658899481641129e-05 -7.241101684485329315e-06 1.440184041712200269e-05
3.495000000000000000e+03 3.605847549438476562e+01 1.351493835449218750e+01 -7.957823574542999268e-03 1.628572354093194008e-03 -1.898775226436555386e-03 3.269224660471081734e-03
3.496000000000000000e+03 1.472768211364746094e+01 7.475807189941406250e+00 -3.207153713447041810e-05 2.323650915059261024e-05 -2.650507894941256382e-06 1.074653573596151546e-05
3.497000000000000000e+03 1.423252391815185547e+01 6.472640514373779297e+00 2.083165236399509013e-05 1.516792326583527029e-05 1.079987214325228706e-05 2.006818795052822679e-05
3.498000000000000000e+03 3.612079620361328125e+01 1.705096244812011719e+01 -1.479689311236143112e-02 4.772127140313386917e-03 -3.007429884746670723e-03 7.997068576514720917e-03
3.499000000000000000e+03 1.993139266967773438e+01 2.724686622619628906e+01 -6.373191252350807190e-03 -4.056656267493963242e-03 -3.128954209387302399e-03 8.820897899568080902e-03
3.500000000000000000e+03 1.544760990142822266e+01 7.661759853363037109e+00 2.148982821381650865e-05 2.775686516542918980e-05 1.477400837757159024e-05 -9.429002602701075375e-06
3.501000000000000000e+03 1.394745635986328125e+01 7.578370094299316406e+00 -2.689142274903133512e-05 1.740314291964750737e-05 -2.846483766916207969e-06 1.269799668079940602e-05
3.502000000000000000e+03 1.680550003051757812e+01 2.491629219055175781e+01 -8.091843686997890472e-03 -2.834205806721001863e-04 -2.512579318135976791e-03 4.780679475516080856e-03
3.503000000000000000e+03 1.428801822662353516e+01 2.480373764038085938e+01 -5.288548767566680908e-03 9.424177551409229636e-05 -1.558292075060307980e-03 3.263529855757951736e-03
3.504000000000000000e+03 1.344098091125488281e+01 6.418327331542968750e+00 2.262627094751223922e-05 1.662478643993381411e-05 1.177531703433487564e-05 1.890075509436428547e-05
3.505000000000000000e+03 3.636995697021484375e+01 1.629839134216308594e+01 -1.384230516850948334e-02 5.563502199947834015e-03 -2.483641030266880989e-03 6.138073746114969254e-03
3.506000000000000000e+03 1.357328224182128906e+01 2.479797554016113281e+01 -5.079671274870634079e-03 1.978584477910771966e-04 -1.464543747715651989e-03 2.997235627844929695e-03
3.507000000000000000e+03 1.216278171539306641e+01 2.117975425720214844e+01 -2.249363576993346214e-03 2.667757216840982437e-04 -5.947763565927743912e-04 1.903695083456113935e-04
3.508000000000000000e+03 1.210250186920166016e+01 2.195159912109375000e+01 -2.919973572716116905e-03 3.967459488194435835e-04 -7.569682784378528595e-04 5.441611283458769321e-04
3.509000000000000000e+03 3.603651809692382812e+01 2.122199630737304688e+01 -1.573255099356174469e-02 9.855560027062892914e-03 -1.763097126968204975e-03 6.259658839553594589e-03
3.510000000000000000e+03 3.719359588623046875e+01 1.657594680786132812e+01 -1.454458944499492645e-02 5.739107262343168259e-03 -2.641644794493913651e-03 5.783420987427234650e-03
3.511000000000000000e+03 3.682555389404296875e+01 1.744904708862304688e+01 -1.569503545761108398e-02 7.975336164236068726e-03 -2.315909834578633308e-03 5.929438397288322449e-03
3.512000000000000000e+03 1.109036731719970703e+01 1.780859184265136719e+01 -3.385079326108098030e-04 -2.124622842529788613e-04 -1.652910723350942135e-04 5.268922905088402331e-05
3.513000000000000000e+03 1.056676197052001953e+01 1.823240852355957031e+01 -4.659808182623237371e-04 -2.436511131236329675e-04 -2.128895866917446256e-04 -4.310665099183097482e-05
3.514000000000000000e+03 9.564692497253417969e+00 7.869175434112548828e+00 8.204767254937905818e-06 -2.645802305778488517e-05 -5.475976649904623628e-06 1.007329592539463192e-05
3.515000000000000000e+03 3.509659576416015625e+01 1.933180427551269531e+01 -1.845061220228672028e-02 6.125652696937322617e-03 -3.697487758472561836e-03 9.228250943124294281e-03
3.516000000000000000e+03 1.495621967315673828e+01 2.479811096191406250e+01 -6.308552809059619904e-03 2.141028235200792551e-04 -1.828334992751479149e-03 3.692997852340340614e-03
3.517000000000000000e+03 1.324903488159179688e+01 2.384583282470703125e+01 -4.758196417242288589e-03 4.486469551920890808e-04 -1.292864908464252949e-03 2.100473502650856972e-03
3.518000000000000000e+03 7.076802062988281250e+01 -7.708240985870361328e+00 -2.415759265422821045e-01 -2.641798369586467743e-02 -8.039817214012145996e-02 -4.085772037506103516e-01
3.519000000000000000e+03 3.210736083984375000e+01 2.559099197387695312e+01 -6.116735283285379410e-03 3.310970496386289597e-04 -1.735691563226282597e-03 2.487034304067492485e-03
3.520000000000000000e+03 7.165996074676513672e+00 1.292220497131347656e+01 6.626638787565752864e-05 -1.533410541014745831e-04 -2.612239950394723564e-05 -6.747147563146427274e-05
3.521000000000000000e+03 1.100295162200927734e+01 1.281985473632812500e+01 1.131519384216517210e-04 -6.464674515882506967e-05 1.455155779694905505e-05 8.574139792472124100e-05
3.522000000000000000e+03 1.142525482177734375e+01 1.819715881347656250e+01 -3.580103802960366011e-04 -1.994089689105749130e-04 -1.672258076723664999e-04 -8.918495586840435863e-05
3.523000000000000000e+03 3.347882080078125000e+01 2.577832412719726562e+01 -4.153240006417036057e-03 5.703428294509649277e-03 4.650564515031874180e-04 1.331918028881773353e-04
3.524000000000000000e+03 2.070974159240722656e+01 2.859828567504882812e+01 -3.080049064010381699e-03 -5.124935880303382874e-03 -2.461495343595743179e-03 8.994145318865776062e-03
3.525000000000000000e+03 6.282423973083496094e+00 -1.726735115051269531e+01 3.039487302303314209e-01 -2.947042584419250488e-01 2.773338230326771736e-03 -9.488511085510253906e-02
3.526000000000000000e+03 3.468116378784179688e+01 2.255368995666503906e+01 -1.301855221390724182e-02 6.871712394058704376e-03 -1.844051759690046310e-03 3.669463563710451126e-03
3.527000000000000000e+03 1.123581504821777344e+01 -6.958830356597900391e+00 -8.402530103921890259e-02 2.089906483888626099e-01 3.748960793018341064e-02 -4.881570041179656982e-01
3.528000000000000000e+03 1.027231788635253906e+01 -6.715738773345947266e+00 -1.350835412740707397e-01 1.394923627376556396e-01 1.322649652138352394e-03 -5.329459905624389648e-01
3.529000000000000000e+03 7.030986785888671875e+01 -5.466334342956542969e+00 -9.323675930500030518e-02 -7.379435747861862183e-02 -5.010933429002761841e-02 -4.478482007980346680e-01
3.530000000000000000e+03 7.090094089508056641e+00 2.097449302673339844e+01 -8.313475409522652626e-04 -3.262785321567207575e-04 -3.472878306638449430e-04 4.198393726255744696e-04
3.531000000000000000e+03 7.453311920166015625e+00 2.169893264770507812e+01 -9.883661987259984016e-04 -2.920106344390660524e-04 -3.841130528599023819e-04 5.411416641436517239e-04
3.532000000000000000e+03 8.163105010986328125e+00 -8.181111335754394531e+00 2.676671743392944336e-02 -2.330828458070755005e-02 1.037530135363340378e-03 -5.811772942543029785e-01
3.533000000000000000e+03 9.085902214050292969e+00 9.470158576965332031e+00 8.992419316200539470e-05 -6.940891034901142120e-05 6.154584752948721871e-06 3.098334855167195201e-05
3.534000000000000000e+03 8.953230857849121094e+00 7.337438583374023438e+00 6.354870129143819213e-05 -3.384251613169908524e-05 8.911855729820672423e-06 2.243412563984747976e-05
3.535000000000000000e+03 1.742165946960449219e+01 2.640161323547363281e+01 -6.868805736303329468e-03 -1.489004469476640224e-03 -2.507342956960201263e-03 6.672556512057781219e-03
3.536000000000000000e+03 1.911815834045410156e+01 2.691643142700195312e+01 -6.943694781512022018e-03 -3.185292240232229233e-03 -3.038696246221661568e-03 8.414993062615394592e-03
3.537000000000000000e+03 6.497923278808593750e+01 -4.100512504577636719e+00 1.211205199360847473e-01 1.348372921347618103e-02 4.038127511739730835e-02 -2.980649471282958984e-01
3.538000000000000000e+03 7.807417392730712891e+00 2.249947738647460938e+01 -1.348159043118357658e-03 -3.711374884005635977e-04 -5.157889681868255138e-04 8.731443667784333229e-04
3.539000000000000000e+03 7.825052261352539062e+00 1.756030654907226562e+01 -2.232035185443237424e-04 -3.037033311557024717e-04 -1.580720563651993871e-04 1.329735732724657282e-05
3.540000000000000000e+03 2.468737983703613281e+01 2.665761947631835938e+01 -8.645756170153617859e-03 -7.660151459276676178e-03 -4.891772288829088211e-03 9.769541211426258087e-03
3.541000000000000000e+03 2.353675079345703125e+01 2.680135154724121094e+01 -8.136909455060958862e-03 -7.220677565783262253e-03 -4.607276059687137604e-03 9.971065446734428406e-03
3.542000000000000000e+03 3.570448684692382812e+01 1.767817497253417969e+01 -1.523028034716844559e-02 5.646114237606525421e-03 -2.875249832868576050e-03 7.432642858475446701e-03
3.543000000000000000e+03 8.076327323913574219e+00 1.534251499176025391e+01 -5.643717304337769747e-05 -2.672314876690506935e-04 -9.710060112411156297e-05 3.446505797910504043e-05
3.544000000000000000e+03 9.631722450256347656e+00 2.873798561096191406e+01 -1.516462303698062897e-03 -1.677026972174644470e-03 -9.580468176864087582e-04 3.457716666162014008e-03
3.545000000000000000e+03 1.041859340667724609e+01 1.264673519134521484e+01 9.079364645003806800e-06 -9.284099360229447484e-05 -2.512848914193455130e-05 8.560208516428247094e-05
3.546000000000000000e+03 8.642763137817382812e+00 1.525239181518554688e+01 4.914339297101832926e-05 -2.263070928165689111e-04 -5.314910958986729383e-05 -3.949182064388878644e-05
3.547000000000000000e+03 7.024771118164062500e+01 6.283718109130859375e+00 1.954713761806488037e-01 9.002410620450973511e-02 8.564864099025726318e-02 -1.908024251461029053e-01
3.548000000000000000e+03 7.078828430175781250e+01 4.841633796691894531e+00 1.876890659332275391e-01 -1.253906823694705963e-02 5.254499986767768860e-02 -2.425280511379241943e-01
3.549000000000000000e+03 6.812319183349609375e+01 -3.057162165641784668e-01 1.781799197196960449e-01 1.128936335444450378e-01 8.732207119464874268e-02 -3.028035163879394531e-01
3.550000000000000000e+03 6.613452911376953125e+01 1.160313844680786133e+00 2.635723352432250977e-01 3.569447398185729980e-01 1.861551254987716675e-01 -1.465959399938583374e-01
3.551000000000000000e+03 7.175694465637207031e+00 -8.193522453308105469e+00 1.351459883153438568e-02 -1.162581145763397217e-01 -3.082305565476417542e-02 -5.816342830657958984e-01
3.552000000000000000e+03 9.847432136535644531e+00 -8.829893112182617188e+00 1.163490265607833862e-01 1.725222915410995483e-01 8.666139841079711914e-02 -5.251054763793945312e-01
3.553000000000000000e+03 6.734969329833984375e+01 -3.724902629852294922e+00 6.157398223876953125e-02 6.579538341611623764e-03 2.044605650007724762e-02 -3.960745036602020264e-01
3.554000000000000000e+03 6.875034332275390625e+01 -5.370873451232910156e+00 -7.907629758119583130e-02 -4.742954298853874207e-02 -3.795175254344940186e-02 -4.576342701911926270e-01
3.555000000000000000e+03 9.423202514648437500e+00 2.321881866455078125e+01 -2.010132884606719017e-03 -1.931741862790659070e-04 -6.609921110793948174e-04 1.075688633136451244e-03
3.556000000000000000e+03 1.664550209045410156e+01 2.693920135498046875e+01 -5.731193814426660538e-03 -1.779697486199438572e-03 -2.253267448395490646e-03 6.692160852253437042e-03
3.557000000000000000e+03 1.504062366485595703e+01 2.556190490722656250e+01 -5.644828546792268753e-03 -2.437219372950494289e-04 -1.766565139405429363e-03 4.401451908051967621e-03
3.558000000000000000e+03 1.011190223693847656e+01 -1.035155963897705078e+01 2.951255440711975098e-01 2.793844938278198242e-01 1.723530143499374390e-01 -4.423967599868774414e-01
3.559000000000000000e+03 1.089681529998779297e+01 -9.142177581787109375e+00 2.038880884647369385e-01 3.098085522651672363e-01 1.541089862585067749e-01 -4.566312730312347412e-01
3.560000000000000000e+03 1.100451564788818359e+01 -8.418034553527832031e+00 8.274933695793151855e-02 2.710874676704406738e-01 1.061510443687438965e-01 -4.835457503795623779e-01
3.561000000000000000e+03 7.476618194580078125e+01 -3.128853225708007812e+01 -9.820942977967206389e-06 5.625769335892982781e-05 1.393102593283401802e-05 -6.885104085085913539e-05
3.562000000000000000e+03 2.840869522094726562e+01 2.772362518310546875e+01 -1.807773835025727749e-03 -5.612945184111595154e-03 -2.226215787231922150e-03 5.604594480246305466e-03
3.563000000000000000e+03 6.918903350830078125e+01 6.745246410369873047e+00 2.237981706857681274e-01 2.594903111457824707e-01 1.449865549802780151e-01 -1.417537331581115723e-01
3.564000000000000000e+03 2.500601768493652344e+01 2.829067611694335938e+01 -2.260455163195729256e-03 -7.521073799580335617e-03 -2.934458665549755096e-03 8.634461089968681335e-03
3.565000000000000000e+03 6.952430725097656250e+01 -1.505243778228759766e+00 8.995953202247619629e-02 -2.458908408880233765e-02 1.961113512516021729e-02 -3.834679722785949707e-01
3.566000000000000000e+03 7.031304931640625000e+01 -1.034914970397949219e+00 9.406640380620956421e-02 -6.357781589031219482e-02 9.146576747298240662e-03 -3.888336718082427979e-01
3.567000000000000000e+03 8.061141014099121094e+00 1.651584625244140625e+01 -1.378206361550837755e-04 -3.436506085563451052e-04 -1.444413646822795272e-04 4.506634650169871747e-05
3.568000000000000000e+03 8.402224540710449219e+00 1.707270622253417969e+01 -2.322601649211719632e-04 -2.604692708700895309e-04 -1.478188351029530168e-04 -2.937854515039362013e-05
3.569000000000000000e+03 9.688835144042968750e+00 2.738964271545410156e+01 -1.695116283372044563e-03 -1.205869484692811966e-03 -8.702957420609891415e-04 3.255987772718071938e-03
3.570000000000000000e+03 8.705192565917968750e+00 2.603094673156738281e+01 -1.685689436271786690e-03 -8.023749105632305145e-04 -7.464193040505051613e-04 2.428616397082805634e-03
3.571000000000000000e+03 5.878327369689941406e+00 -1.451540374755859375e+01 2.537775039672851562e-01 -3.793064355850219727e-01 -3.765867277979850769e-02 -2.873800396919250488e-01
3.572000000000000000e+03 7.887699604034423828e+00 -1.449056053161621094e+01 4.169119298458099365e-01 7.462227344512939453e-02 1.474602669477462769e-01 -2.672843039035797119e-01
3.573000000000000000e+03 7.176255035400390625e+01 1.319349861145019531e+01 1.768815666437149048e-01 -1.067599877715110779e-01 2.103647403419017792e-02 -1.822439581155776978e-02
3.574000000000000000e+03 7.203450012207031250e+01 1.440563678741455078e+01 1.727139055728912354e-01 -1.503352969884872437e-01 6.713581737130880356e-03 1.369023602455854416e-02
3.575000000000000000e+03 6.990765380859375000e+01 1.155839252471923828e+01 2.202557474374771118e-01 2.486368119716644287e-01 1.406677663326263428e-01 -5.342738702893257141e-02
3.576000000000000000e+03 6.925377655029296875e+01 4.038122177124023438e+00 2.225225716829299927e-01 1.498562544584274292e-01 1.117136478424072266e-01 -2.208047658205032349e-01
3.577000000000000000e+03 7.754665851593017578e+00 -1.846616935729980469e+01 3.974919319152832031e-01 7.786056399345397949e-02 1.426057517528533936e-01 1.104535907506942749e-02
3.578000000000000000e+03 7.123348236083984375e+01 1.988204956054687500e+01 1.419904232025146484e-01 -2.181842923164367676e-02 3.605159744620323181e-02 1.845443248748779297e-01
3.579000000000000000e+03 3.555370330810546875e+01 2.017360115051269531e+01 -1.596435159444808960e-02 7.504249457269906998e-03 -2.538030501455068588e-03 7.170754950493574142e-03
3.580000000000000000e+03 3.574419403076171875e+01 1.884652709960937500e+01 -1.608972810208797455e-02 6.900197826325893402e-03 -2.756859175860881805e-03 7.547151297330856323e-03
3.581000000000000000e+03 7.082515716552734375e+01 2.318967247009277344e+01 5.983208864927291870e-02 1.299993600696325302e-02 2.184960618615150452e-02 2.526478767395019531e-01
3.582000000000000000e+03 7.010879516601562500e+01 -6.965171813964843750e+00 -1.931989639997482300e-01 -4.592084884643554688e-02 -7.173594087362289429e-02 -4.332924187183380127e-01
3.583000000000000000e+03 6.541806793212890625e+01 -4.092855155467987061e-01 2.737260162830352783e-01 2.823875844478607178e-01 1.668340712785720825e-01 -1.488715559244155884e-01
3.584000000000000000e+03 6.420191955566406250e+01 2.225396919250488281e+01 2.535143494606018066e-01 1.005289435386657715e+00 3.776411414146423340e-01 -1.957432925701141357e-02
3.585000000000000000e+03 4.816002655029296875e+01 2.839565849304199219e+01 4.610666632652282715e-02 6.632172316312789917e-02 3.372851759195327759e-02 -7.520417124032974243e-02
3.586000000000000000e+03 1.243383789062500000e+01 3.036029624938964844e+01 -7.210270850919187069e-04 -2.619571518152952194e-03 -1.002179575152695179e-03 5.020374432206153870e-03
3.587000000000000000e+03 1.273872280120849609e+01 3.223371505737304688e+01 2.007114235311746597e-04 -3.458251710981130600e-03 -9.772620396688580513e-04 5.078911315649747849e-03
3.588000000000000000e+03 6.730525970458984375e+01 1.392436742782592773e+00 2.325128614902496338e-01 2.464471161365509033e-01 1.436879932880401611e-01 -2.057434171438217163e-01
3.589000000000000000e+03 6.823055267333984375e+01 1.900887012481689453e+00 2.124916017055511475e-01 1.930701136589050293e-01 1.216685175895690918e-01 -2.494558691978454590e-01
3.590000000000000000e+03 2.881941223144531250e+01 -3.522758960723876953e+00 -4.647744596004486084e-01 8.002193272113800049e-02 -1.154257580637931824e-01 4.535191655158996582e-01
3.591000000000000000e+03 2.961222267150878906e+01 -3.869803190231323242e+00 -3.201334476470947266e-01 1.013482213020324707e-01 -6.563556939363479614e-02 5.025735497474670410e-01
3.592000000000000000e+03 2.792477989196777344e+01 -4.046587467193603516e+00 -2.884194254875183105e-01 9.199351072311401367e-02 -5.892777442932128906e-02 3.899198770523071289e-01
3.593000000000000000e+03 2.835442733764648438e+01 -3.488001346588134766e+00 -4.939017891883850098e-01 5.978879332542419434e-02 -1.302338987588882446e-01 4.266456365585327148e-01
3.594000000000000000e+03 2.893636703491210938e+01 -4.668486595153808594e+00 -4.817426204681396484e-02 1.580354720354080200e-01 3.295836597681045532e-02 4.866287112236022949e-01
3.595000000000000000e+03 1.349284648895263672e+01 8.621645927429199219e+00 -3.064998236368410289e-05 2.413408037682529539e-05 -1.954770596057642251e-06 2.922913699876517057e-05
3.596000000000000000e+03 1.261377429962158203e+01 9.928346633911132812e+00 -3.883030149154365063e-05 3.303420089650899172e-05 -1.738830178510397673e-06 6.682283856207504869e-05
3.597000000000000000e+03 1.284756278991699219e+01 9.550197601318359375e+00 6.292036414379253983e-05 1.130327291321009398e-05 2.226709148089867085e-05 3.825862950179725885e-05
3.598000000000000000e+03 1.240910434722900391e+01 1.144655799865722656e+01 3.411287980270572007e-05 1.920908653119113296e-05 1.599659117346163839e-05 1.116789862862788141e-04
3.599000000000000000e+03 1.200652217864990234e+01 1.101341342926025391e+01 1.643543328100349754e-05 1.254196013178443536e-05 8.693218660482671112e-06 5.308084291755221784e-05
3.600000000000000000e+03 1.013547134399414062e+01 7.362190246582031250e+00 6.166019011288881302e-05 -2.461411168042104691e-05 1.111382243834668770e-05 3.503790139802731574e-05
3.601000000000000000e+03 1.186688899993896484e+01 6.926849842071533203e+00 6.669010872428771108e-07 -1.434151045032194816e-06 -2.301749901789662545e-07 3.956402724725194275e-05
3.602000000000000000e+03 1.094416809082031250e+01 2.022965812683105469e+01 -1.464631408452987671e-03 -5.482626511366106570e-05 -4.558373184408992529e-04 6.670370930805802345e-05
3.603000000000000000e+03 1.106733131408691406e+01 1.860938453674316406e+01 -5.195636767894029617e-04 -1.977986248675733805e-04 -2.152086817659437656e-04 2.792546411001239903e-06
3.604000000000000000e+03 9.262438774108886719e+00 1.515004539489746094e+01 -4.066425026394426823e-05 -2.549448108766227961e-04 -8.868271834217011929e-05 7.363371696555987000e-05
3.605000000000000000e+03 1.154639148712158203e+01 1.135795497894287109e+01 5.358865382731892169e-05 -1.608674392628017813e-05 1.125057315221056342e-05 1.040807183017022908e-04
3.606000000000000000e+03 1.095075035095214844e+01 1.644967460632324219e+01 -5.407970820670016110e-05 -2.233500126749277115e-04 -8.322891517309471965e-05 7.019568147370591760e-05
3.607000000000000000e+03 3.579431152343750000e+01 1.527500152587890625e+01 -1.096114143729209900e-02 3.261300036683678627e-03 -2.309952396899461746e-03 5.822247825562953949e-03
3.608000000000000000e+03 3.472183990478515625e+01 2.052572250366210938e+01 -1.833319664001464844e-02 6.549532059580087662e-03 -3.535099560394883156e-03 7.935324683785438538e-03
3.609000000000000000e+03 9.738619804382324219e+00 1.381467914581298828e+01 1.208271787618286908e-04 -1.623844582354649901e-04 -1.246718238689936697e-05 5.126126779941841960e-05
3.610000000000000000e+03 1.591113376617431641e+01 7.171700954437255859e+00 -5.972916369501035661e-06 2.717607640079222620e-05 6.360948191286297515e-06 -1.062652700056787580e-05
3.611000000000000000e+03 8.184214591979980469e+00 1.401328372955322266e+01 7.589839515276253223e-05 -1.988259900826960802e-04 -3.687827847898006439e-05 -4.236131280777044594e-05
3.612000000000000000e+03 8.448221206665039062e+00 8.907491683959960938e+00 5.882728601136477664e-06 -3.572892092051915824e-05 -8.953857104643248022e-06 1.756107167238951661e-06
3.613000000000000000e+03 9.628874778747558594e+00 8.907239913940429688e+00 7.700309652136638761e-06 -3.853582893498241901e-05 -9.250655239156913012e-06 2.547273106756620109e-05
3.614000000000000000e+03 1.442553710937500000e+01 7.852420330047607422e+00 3.354337604832835495e-05 2.152234083041548729e-05 1.651971615501679480e-05 1.783177140168845654e-05
3.615000000000000000e+03 1.461338520050048828e+01 6.814975261688232422e+00 -2.336677789571695030e-05 1.414018788636894897e-05 -2.767977093753870577e-06 5.069400685897562653e-06
3.616000000000000000e+03 3.514473724365234375e+01 1.716655921936035156e+01 -1.472611259669065475e-02 2.928413217887282372e-03 -3.539309836924076080e-03 9.404885582625865936e-03
3.617000000000000000e+03 1.252426815032958984e+01 2.235227584838867188e+01 -3.383872099220752716e-03 3.727191360667347908e-04 -9.033458773046731949e-04 9.079502196982502937e-04
3.618000000000000000e+03 1.385857772827148438e+01 6.824853420257568359e+00 -1.835289913287851959e-05 9.321443940280005336e-06 -2.709436557779554278e-06 1.079135381587548181e-05
3.619000000000000000e+03 2.086187934875488281e+01 2.744062995910644531e+01 -5.845004692673683167e-03 -4.885959438979625702e-03 -3.219289239495992661e-03 9.699134156107902527e-03
3.620000000000000000e+03 1.959921264648437500e+01 2.827693367004394531e+01 -3.954622428864240646e-03 -4.353803582489490509e-03 -2.492527710273861885e-03 8.952229283750057220e-03
3.621000000000000000e+03 3.521303558349609375e+01 1.637588691711425781e+01 -1.259782724082469940e-02 2.012480515986680984e-03 -3.175604157149791718e-03 8.648851886391639709e-03
3.622000000000000000e+03 3.545389556884765625e+01 1.569892024993896484e+01 -1.159805897623300552e-02 2.079298254102468491e-03 -2.855628263205289841e-03 7.366096135228872299e-03
3.623000000000000000e+03 1.036656188964843750e+01 -8.192500114440917969e+00 5.491307377815246582e-02 1.931110769510269165e-01 7.440724968910217285e-02 -5.224253535270690918e-01
3.624000000000000000e+03 3.633025360107421875e+01 1.821556854248046875e+01 -1.694522239267826080e-02 7.086893543601036072e-03 -2.957498654723167419e-03 8.404903113842010498e-03
3.625000000000000000e+03 1.198327159881591797e+01 2.481754875183105469e+01 -3.594746813178062439e-03 -1.677958207437768579e-04 -1.128762727603316307e-03 2.648021327331662178e-03
3.626000000000000000e+03 1.612712860107421875e+01 2.516213989257812500e+01 -7.428067270666360855e-03 -3.212234878446906805e-04 -2.324787201359868050e-03 4.897170234471559525e-03
3.627000000000000000e+03 1.423160266876220703e+01 2.576181602478027344e+01 -5.326526239514350891e-03 -3.307647712063044310e-04 -1.697187311947345734e-03 4.367241170257329941e-03
3.628000000000000000e+03 8.736468315124511719e+00 1.651764106750488281e+01 -7.439668115694075823e-05 -2.442894328851252794e-04 -9.560583566781133413e-05 -9.558644705975893885e-06
3.629000000000000000e+03 1.065808486938476562e+01 1.557078838348388672e+01 6.999166362220421433e-05 -1.754127733875066042e-04 -3.162633220199495554e-05 6.562983617186546326e-05
3.630000000000000000e+03 1.016945362091064453e+01 1.992799186706542969e+01 -1.042879652231931686e-03 -1.853050198405981064e-04 -3.684553958009928465e-04 1.625815202714875340e-04
3.631000000000000000e+03 3.586069107055664062e+01 1.469143486022949219e+01 -9.333536960184574127e-03 1.954239094629883766e-03 -2.213789382949471474e-03 5.023968871682882309e-03
3.632000000000000000e+03 9.361562728881835938e+00 1.579183483123779297e+01 1.535839510324876755e-05 -2.262846828671172261e-04 -6.327788287308067083e-05 -1.016496480588102713e-05
3.633000000000000000e+03 7.705372810363769531e+00 1.342120552062988281e+01 7.277158874785527587e-05 -1.593442575540393591e-04 -2.597180173324886709e-05 3.230604852433316410e-05
3.634000000000000000e+03 9.428383827209472656e+00 1.944837951660156250e+01 -8.258066372945904732e-04 -2.246961084892973304e-04 -3.151508281007409096e-04 8.308267570100724697e-05
3.635000000000000000e+03 1.069279098510742188e+01 1.920135688781738281e+01 -8.607508498243987560e-04 -1.786701322998851538e-04 -3.118262975476682186e-04 -4.253744191373698413e-05
3.636000000000000000e+03 8.998574256896972656e+00 8.386219978332519531e+00 7.993408507900312543e-05 -4.883860674453899264e-05 9.328644409833941609e-06 2.341010258533060551e-05
3.637000000000000000e+03 1.293496322631835938e+01 2.454591560363769531e+01 -4.439282696694135666e-03 1.364644122077152133e-04 -1.290845451876521111e-03 2.781751099973917007e-03
3.638000000000000000e+03 6.877807617187500000e+01 -9.087566733360290527e-01 1.486768126487731934e-01 2.900691330432891846e-02 5.330511927604675293e-02 -3.514212965965270996e-01
3.639000000000000000e+03 9.926155090332031250e+00 2.357430267333984375e+01 -2.200444461777806282e-03 -2.242723276140168309e-04 -7.274150266312062740e-04 1.462375861592590809e-03
3.640000000000000000e+03 7.719384670257568359e+00 1.189549827575683594e+01 5.298445830703713000e-05 -1.585541467647999525e-04 -3.167090471833944321e-05 -1.592860644450411201e-05
3.641000000000000000e+03 8.243608474731445312e+00 1.151942348480224609e+01 4.484245073399506509e-05 -9.728549048304557800e-05 -1.573291046952363104e-05 2.876943653973285109e-05
3.642000000000000000e+03 9.734436035156250000e+00 1.256393432617187500e+01 1.224720035679638386e-04 -1.155854988610371947e-04 2.065950411633821204e-06 3.528267188812606037e-05
3.643000000000000000e+03 6.624456787109375000e+01 -5.924000263214111328e+00 -9.067387133836746216e-02 -7.710220664739608765e-02 -5.033282563090324402e-02 -4.314517974853515625e-01
3.644000000000000000e+03 3.632876968383789062e+01 1.959043121337890625e+01 -1.741915941238403320e-02 8.902474306523799896e-03 -2.555005252361297607e-03 7.995176129043102264e-03
3.645000000000000000e+03 7.351802825927734375e+00 1.980434608459472656e+01 -6.594482110813260078e-04 -3.087354416493326426e-04 -2.904550929088145494e-04 2.410889574093744159e-04
3.646000000000000000e+03 6.740217685699462891e+00 2.206236076354980469e+01 -9.742794209159910679e-04 -4.128451109863817692e-04 -4.161373653914779425e-04 6.779908435419201851e-04
3.647000000000000000e+03 1.141702938079833984e+01 7.609597682952880859e+00 1.247124873771099374e-05 -1.659747908888675738e-06 3.243450237278011627e-06 4.886373426415957510e-05
3.648000000000000000e+03 1.073242855072021484e+01 7.909025192260742188e+00 1.020809304463909939e-05 -1.524936487840022892e-05 -1.512381572865706403e-06 1.376887212245492265e-05
3.649000000000000000e+03 8.473943710327148438e+00 9.902793884277343750e+00 4.739418727695010602e-05 -5.705614967155270278e-05 -2.898587808886077255e-06 1.657212351346970536e-06
3.650000000000000000e+03 3.367174148559570312e+01 2.437038230895996094e+01 -9.184580296277999878e-03 4.398602526634931564e-03 -1.435793237760663033e-03 2.718940842896699905e-03
3.651000000000000000e+03 1.867413330078125000e+01 2.778778457641601562e+01 -4.764987621456384659e-03 -3.317904891446232796e-03 -2.424867590889334679e-03 8.218557573854923248e-03
3.652000000000000000e+03 1.793727493286132812e+01 2.715485572814941406e+01 -5.978676024824380875e-03 -2.656390191987156868e-03 -2.590519841760396957e-03 7.733934558928012848e-03
3.653000000000000000e+03 1.721986389160156250e+01 2.786977386474609375e+01 -4.298399202525615692e-03 -2.467234851792454720e-03 -2.029690193012356758e-03 7.286401931196451187e-03
3.654000000000000000e+03 1.435135555267333984e+01 2.682549667358398438e+01 -4.174039233475923538e-03 -9.087601210922002792e-04 -1.524839899502694607e-03 4.931486211717128754e-03
3.655000000000000000e+03 9.742309570312500000e+00 2.508130645751953125e+01 -2.194866305217146873e-03 -4.483787924982607365e-04 -7.929735002107918262e-04 2.222857903689146042e-03
3.656000000000000000e+03 6.455938720703125000e+01 -1.038926959037780762e+00 2.907894849777221680e-01 2.976556420326232910e-01 1.765335351228713989e-01 -9.863699227571487427e-02
3.657000000000000000e+03 3.679118728637695312e+01 2.232740974426269531e+01 -1.049013528972864151e-02 1.162537094205617905e-02 3.405707248020917177e-04 3.505255561321973801e-03
3.658000000000000000e+03 3.501172256469726562e+01 2.154185295104980469e+01 -1.489413063973188400e-02 7.351769134402275085e-03 -2.262708498165011406e-03 6.341605447232723236e-03
3.659000000000000000e+03 2.202930641174316406e+01 2.863653373718261719e+01 -2.528349403291940689e-03 -6.006909534335136414e-03 -2.560577588155865669e-03 9.509505704045295715e-03
3.660000000000000000e+03 7.151084136962890625e+01 8.368083000183105469e+00 1.642538011074066162e-01 -6.849627941846847534e-02 2.872725576162338257e-02 -1.502273082733154297e-01
3.661000000000000000e+03 7.000309753417968750e+01 1.242257952690124512e+00 1.518659591674804688e-01 1.281181466765701771e-03 4.594414308667182922e-02 -3.213095664978027344e-01
3.662000000000000000e+03 7.111553955078125000e+01 1.168483614921569824e+00 1.296400129795074463e-01 -1.029345989227294922e-01 8.011624217033386230e-03 -3.425227403640747070e-01
3.663000000000000000e+03 6.405644989013671875e+01 -4.499673843383789062e+00 1.577390581369400024e-01 3.910047560930252075e-02 5.905186012387275696e-02 -2.340547591447830200e-01
3.664000000000000000e+03 6.557351684570312500e+01 -4.990746974945068359e+00 4.561815783381462097e-02 -1.382434181869029999e-02 9.538143873214721680e-03 -3.617406785488128662e-01
3.665000000000000000e+03 9.712970733642578125e+00 2.618036460876464844e+01 -2.367926295846700668e-03 -7.228392641991376877e-04 -9.272297029383480549e-04 2.586744027212262154e-03
3.666000000000000000e+03 7.389559936523437500e+01 1.893793106079101562e+01 9.101680666208267212e-02 -4.493629336357116699e-01 -1.075038388371467590e-01 1.554491072893142700e-01
3.667000000000000000e+03 6.970252990722656250e+01 5.179652690887451172e+00 2.078825384378433228e-01 1.337944269180297852e-01 1.025030836462974548e-01 -1.995695084333419800e-01
3.668000000000000000e+03 7.022525024414062500e+01 2.477205753326416016e+00 1.657749563455581665e-01 -4.021443426609039307e-03 4.852605238556861877e-02 -2.929163575172424316e-01
3.669000000000000000e+03 7.058589935302734375e+01 3.708984136581420898e+00 1.661936789751052856e-01 -1.168039720505475998e-02 4.635398089885711670e-02 -2.686939537525177002e-01
3.670000000000000000e+03 6.965883636474609375e+01 9.906607627868652344e+00 2.213700711727142334e-01 2.640920877456665039e-01 1.456386446952819824e-01 -8.254863321781158447e-02
3.671000000000000000e+03 6.492833709716796875e+01 -2.587295532226562500e+00 2.134378999471664429e-01 1.357424855232238770e-01 1.047541126608848572e-01 -2.108933478593826294e-01
3.672000000000000000e+03 6.745527648925781250e+01 -2.338776826858520508e+00 1.187790632247924805e-01 6.081874296069145203e-02 5.387934297323226929e-02 -3.491350114345550537e-01
3.673000000000000000e+03 6.966069030761718750e+01 -4.627584457397460938e+00 -5.852300301194190979e-02 -6.247318536043167114e-02 -3.629885613918304443e-02 -4.456963837146759033e-01
3.674000000000000000e+03 6.370940399169921875e+01 2.097299194335937500e+01 3.124586343765258789e-01 1.262916684150695801e+00 4.726125895977020264e-01 -9.302884340286254883e-02
3.675000000000000000e+03 6.513642120361328125e+01 2.131201744079589844e+01 2.776604592800140381e-01 8.938983082771301270e-01 3.514676392078399658e-01 5.684940516948699951e-02
3.676000000000000000e+03 4.037650680541992188e+01 2.564888572692871094e+01 8.181874640285968781e-03 2.170458249747753143e-02 8.965937420725822449e-03 -7.073447573930025101e-03
3.677000000000000000e+03 4.145268249511718750e+01 2.395119667053222656e+01 5.822210572659969330e-03 1.981229521334171295e-02 7.690351456403732300e-03 -5.061021074652671814e-03
3.678000000000000000e+03 2.550612831115722656e+01 3.031553268432617188e+01 2.831749152392148972e-03 -5.222443025559186935e-03 -7.172081386670470238e-04 6.908039562404155731e-03
3.679000000000000000e+03 1.085003662109375000e+01 2.741031646728515625e+01 -2.515123458579182625e-03 -1.085064955987036228e-03 -1.080056536011397839e-03 3.531557274982333183e-03
3.680000000000000000e+03 6.416844940185546875e+01 2.560008430480957031e+01 -4.182026907801628113e-02 6.576521992683410645e-01 1.847495734691619873e-01 6.388694047927856445e-02
3.681000000000000000e+03 6.218501663208007812e+01 2.708914756774902344e+01 -7.523376494646072388e-02 6.450155377388000488e-01 1.709345430135726929e-01 -9.495497494935989380e-02
3.682000000000000000e+03 3.779340744018554688e+01 2.132501029968261719e+01 -1.317478995770215988e-02 1.256225723773241043e-02 -1.837597374105826020e-04 5.379606038331985474e-03
3.683000000000000000e+03 4.905179977416992188e+00 -2.677274131774902344e+01 9.296420030295848846e-03 -4.874631762504577637e-01 -1.434500366449356079e-01 2.745004594326019287e-01
3.684000000000000000e+03 7.301660156250000000e+01 1.157077884674072266e+01 1.442680507898330688e-01 -3.186224400997161865e-01 -5.230631679296493530e-02 -6.728763133287429810e-02
3.685000000000000000e+03 2.813996696472167969e+01 -3.641538858413696289e+00 -4.248036444187164307e-01 6.008233502507209778e-02 -1.094163879752159119e-01 4.063677489757537842e-01
3.686000000000000000e+03 2.786219024658203125e+01 -3.690949678421020508e+00 -4.175297617912292480e-01 4.713240638375282288e-02 -1.111192107200622559e-01 3.728638887405395508e-01
3.687000000000000000e+03 1.362809276580810547e+01 8.051402091979980469e+00 3.600681156967766583e-05 2.578738894953858107e-05 1.853825961006805301e-05 2.833679354807827622e-05
3.688000000000000000e+03 2.865770149230957031e+01 -3.968796968460083008e+00 -3.080212771892547607e-01 1.013072133064270020e-01 -6.201421469449996948e-02 4.574254453182220459e-01
3.689000000000000000e+03 1.180163002014160156e+01 8.208765983581542969e+00 2.010351636272389442e-05 -2.863781219275551848e-06 5.171920747670810670e-06 1.756029450916685164e-05
3.690000000000000000e+03 1.291535282135009766e+01 9.136608123779296875e+00 -1.811156107578426600e-05 1.930189318954944611e-05 3.570997648694174131e-07 5.192883327254094183e-05
3.691000000000000000e+03 1.428264236450195312e+01 7.173856258392333984e+00 2.643266452651005238e-05 1.927985977090429515e-05 1.371375674352748320e-05 2.050441980827599764e-05
3.692000000000000000e+03 1.026929759979248047e+01 9.290081977844238281e+00 8.782463555689901114e-05 -3.476165875326842070e-05 1.591889304108917713e-05 2.458428389218170196e-05
3.693000000000000000e+03 1.109145164489746094e+01 1.171943759918212891e+01 3.228227069485001266e-05 -4.182550765108317137e-05 -2.862971541617298499e-06 5.819733269163407385e-05
3.694000000000000000e+03 1.210086917877197266e+01 7.424430847167968750e+00 1.623161733732558787e-05 -4.574716854222060647e-07 4.732243723992723972e-06 1.283455640077590942e-05
3.695000000000000000e+03 1.263068962097167969e+01 7.154510498046875000e+00 2.332653275516349822e-05 1.150709704234031960e-05 1.045008866640273482e-05 3.102311529801227152e-05
3.696000000000000000e+03 1.010902309417724609e+01 1.167631816864013672e+01 5.227365909377112985e-05 -7.991343591129407287e-05 -8.291934136650525033e-06 3.139145701425150037e-05
3.697000000000000000e+03 1.243437957763671875e+01 9.267258644104003906e+00 -1.177323792944662273e-05 2.762624535534996539e-05 4.755902409669943154e-06 3.871665103361010551e-05
3.698000000000000000e+03 1.278652763366699219e+01 8.593856811523437500e+00 2.269325523229781538e-05 2.040265644609462470e-05 1.292877368541667238e-05 2.751425381575245410e-05
3.699000000000000000e+03 8.107130050659179688e+00 1.932478332519531250e+01 -5.884001147933304310e-04 -2.682755584828555584e-04 -2.570026845205575228e-04 8.504052675561979413e-05
3.700000000000000000e+03 1.155087757110595703e+01 8.963965415954589844e+00 2.905848123191390187e-05 -1.856121230048302095e-06 8.160707693605218083e-06 2.781406874419189990e-05
3.701000000000000000e+03 1.239904403686523438e+01 1.034508705139160156e+01 6.867895717732608318e-05 1.710714604996610433e-05 2.573583151388447732e-05 4.513020758167840540e-05
3.702000000000000000e+03 9.123904228210449219e+00 1.450674533843994141e+01 9.626035171095281839e-05 -2.087953471345826983e-04 -3.376049789949320257e-05 -2.327072706975741312e-06
3.703000000000000000e+03 8.156230926513671875e+00 1.285241699218750000e+01 2.774308268271852285e-05 -1.698308624327182770e-04 -4.262633592588827014e-05 -1.753826654748991132e-05
3.704000000000000000e+03 9.490031242370605469e+00 1.197789669036865234e+01 6.585568917216733098e-05 -1.006925667752511799e-04 -1.045106182573363185e-05 8.774295565672218800e-05
3.705000000000000000e+03 1.015014457702636719e+01 8.372643470764160156e+00 6.346000009216368198e-05 -2.884261084545869380e-05 1.038521804730407894e-05 3.913441469194367528e-05
3.706000000000000000e+03 1.085385799407958984e+01 9.567741394042968750e+00 2.137230694643221796e-06 -3.362550341989845037e-05 -9.446482181374449283e-06 6.720445526298135519e-05
3.707000000000000000e+03 1.111343479156494141e+01 1.096135234832763672e+01 3.127443051198497415e-05 -3.345354343764483929e-05 -6.537338776979595423e-07 4.998172880732454360e-05
3.708000000000000000e+03 8.472619056701660156e+00 1.464707469940185547e+01 -8.638580339948020992e-08 -2.300392079632729292e-04 -6.903767643962055445e-05 5.412068276200443506e-05
3.709000000000000000e+03 9.693735122680664062e+00 1.111133193969726562e+01 5.425504787126556039e-05 -7.743213063804432750e-05 -6.953123829589458182e-06 7.224538421723991632e-05
3.710000000000000000e+03 1.903878402709960938e+01 2.944600868225097656e+01 -1.592220738530158997e-03 -4.360774531960487366e-03 -1.785898581147193909e-03 8.292759768664836884e-03
3.711000000000000000e+03 1.801984977722167969e+01 2.872139930725097656e+01 -3.191062947735190392e-03 -3.667194396257400513e-03 -2.057477133348584175e-03 8.113737218081951141e-03
3.712000000000000000e+03 9.837071418762207031e+00 1.444449424743652344e+01 -3.659980848169652745e-06 -1.985749549930915236e-04 -6.067048161639831960e-05 8.136905671562999487e-05
3.713000000000000000e+03 9.449884414672851562e+00 1.648342132568359375e+01 -1.564242411404848099e-04 -3.083557239733636379e-04 -1.394339924445375800e-04 5.293139111017808318e-05
3.714000000000000000e+03 1.534787273406982422e+01 2.643833160400390625e+01 -5.530908238142728806e-03 -9.818559046834707260e-04 -1.953829312697052956e-03 5.497237667441368103e-03
3.715000000000000000e+03 9.030873298645019531e+00 1.134071922302246094e+01 8.660527237225323915e-05 -1.025821111397817731e-04 -4.793050720763858408e-06 7.617707524332217872e-06
3.716000000000000000e+03 9.943913459777832031e+00 1.041068840026855469e+01 7.408889359794557095e-05 -8.185300248442217708e-05 -2.329231620024074800e-06 6.113050039857625961e-05
3.717000000000000000e+03 1.001363658905029297e+01 1.566042900085449219e+01 -6.217214831849560142e-05 -2.607696806080639362e-04 -9.688254795037209988e-05 8.874521154211834073e-05
3.718000000000000000e+03 9.700161933898925781e+00 1.715991020202636719e+01 -1.851887209340929985e-04 -2.694919239729642868e-04 -1.364041963825002313e-04 -1.129524844145635143e-05
3.719000000000000000e+03 1.043004322052001953e+01 1.680209350585937500e+01 -1.611239567864686251e-04 -2.574562677182257175e-04 -1.255740644410252571e-04 5.950157355982810259e-05
3.720000000000000000e+03 1.063862800598144531e+01 2.093466758728027344e+01 -1.605081488378345966e-03 -2.556456638558302075e-05 -4.891938297078013420e-04 3.155877639073878527e-04
3.721000000000000000e+03 8.652916908264160156e+00 2.005556106567382812e+01 -9.480684529989957809e-04 -2.726358070503920317e-04 -3.662112867459654808e-04 2.627547946758568287e-04
3.722000000000000000e+03 8.192216873168945312e+00 2.127225303649902344e+01 -1.145238173194229603e-03 -3.189162234775722027e-04 -4.392463306430727243e-04 5.227292422205209732e-04
3.723000000000000000e+03 1.593491077423095703e+01 3.071128082275390625e+01 -6.281828391365706921e-04 -3.714945167303085327e-03 -1.302938326261937618e-03 6.875412538647651672e-03
3.724000000000000000e+03 1.466678714752197266e+01 2.803470611572265625e+01 -3.623791271820664406e-03 -1.753244083374738693e-03 -1.613110653124749660e-03 5.858356133103370667e-03
3.725000000000000000e+03 9.184787750244140625e+00 2.162536048889160156e+01 -1.594815170392394066e-03 -2.013225603150203824e-04 -5.388413555920124054e-04 6.310454336926341057e-04
3.726000000000000000e+03 1.003915691375732422e+01 1.878114509582519531e+01 -6.235871114768087864e-04 -2.603662433102726936e-04 -2.651860122568905354e-04 5.131609577802009881e-05
3.727000000000000000e+03 1.044143390655517578e+01 2.163684272766113281e+01 -2.088593784719705582e-03 1.189460090245120227e-05 -6.230097496882081032e-04 5.117210093885660172e-04
3.728000000000000000e+03 1.128081321716308594e+01 2.118167114257812500e+01 -2.133465139195322990e-03 9.777191735338419676e-05 -6.107079680077731609e-04 2.564536116551607847e-04
3.729000000000000000e+03 1.236586380004882812e+01 2.415784835815429688e+01 -3.955924417823553085e-03 2.120803546858951449e-04 -1.123153255321085453e-03 2.205201191827654839e-03
3.730000000000000000e+03 1.179898071289062500e+01 2.381646347045898438e+01 -3.322702832520008087e-03 6.017308260197751224e-05 -9.787589078769087791e-04 1.941529684700071812e-03
3.731000000000000000e+03 1.070302486419677734e+01 2.338048171997070312e+01 -2.616232493892312050e-03 -7.026642560958862305e-05 -8.059496758505702019e-04 1.493985415436327457e-03
3.732000000000000000e+03 1.034609699249267578e+01 2.395816993713378906e+01 -2.651207614690065384e-03 -6.190651765791699290e-05 -8.139341953210532665e-04 1.582870259881019592e-03
3.733000000000000000e+03 1.711731910705566406e+01 2.971678733825683594e+01 -1.417195773683488369e-03 -3.534590359777212143e-03 -1.485535758547484875e-03 7.353125140070915222e-03
3.734000000000000000e+03 7.447030639648437500e+01 1.043463802337646484e+01 9.926760196685791016e-02 -5.682607293128967285e-01 -1.406979411840438843e-01 -9.264820814132690430e-02
3.735000000000000000e+03 6.579363250732421875e+01 -3.384527444839477539e+00 1.512946784496307373e-01 5.408814176917076111e-02 6.161484867334365845e-02 -3.020640015602111816e-01
3.736000000000000000e+03 6.551984405517578125e+01 -1.540489196777343750e+00 2.398132979869842529e-01 1.952520608901977539e-01 1.305196136236190796e-01 -1.966090053319931030e-01
3.737000000000000000e+03 6.749251556396484375e+01 3.320587635040283203e+00 2.787009179592132568e-01 3.637297749519348145e-01 1.927292048931121826e-01 -1.523389518260955811e-01
3.738000000000000000e+03 6.809252929687500000e+01 -1.635548472404479980e+00 1.178912073373794556e-01 3.859986364841461182e-02 4.694732278585433960e-02 -3.578639030456542969e-01
3.739000000000000000e+03 3.385778045654296875e+01 2.073282814025878906e+01 -1.813449710607528687e-02 2.941904356703162193e-03 -4.557778127491474152e-03 8.270598016679286957e-03
3.740000000000000000e+03 6.817198944091796875e+01 -3.062348842620849609e+00 6.450853496789932251e-02 -6.075632758438587189e-03 1.752987131476402283e-02 -3.921333253383636475e-01
3.741000000000000000e+03 6.659696960449218750e+01 -1.830501675605773926e+00 1.801459342241287231e-01 1.084387227892875671e-01 8.657539635896682739e-02 -2.807200253009796143e-01
3.742000000000000000e+03 6.669154357910156250e+01 -2.842210531234741211e+00 1.325405538082122803e-01 5.991969257593154907e-02 5.773807317018508911e-02 -3.212957978248596191e-01
3.743000000000000000e+03 9.754927635192871094e+00 2.420100402832031250e+01 -2.608724171295762062e-03 -1.900785719044506550e-04 -8.396408520638942719e-04 1.668539596721529961e-03
3.744000000000000000e+03 1.221847629547119141e+01 2.871319961547851562e+01 -2.388470340520143509e-03 -1.679501263424754143e-03 -1.220391481183469296e-03 4.702573642134666443e-03
3.745000000000000000e+03 7.129795074462890625e+01 5.773301601409912109e+00 1.661752015352249146e-01 -7.904583960771560669e-02 2.613880671560764313e-02 -2.154215276241302490e-01
3.746000000000000000e+03 3.337973785400390625e+01 2.734973526000976562e+01 4.512487212195992470e-04 6.644340232014656067e-03 2.128676744177937508e-03 -4.893848090432584286e-04
3.747000000000000000e+03 6.997306823730468750e+01 8.985231399536132812e+00 2.058436274528503418e-01 1.871553361415863037e-01 1.178996860980987549e-01 -1.150950416922569275e-01
3.748000000000000000e+03 7.239071655273437500e+01 8.841750144958496094e+00 1.511768251657485962e-01 -2.220932245254516602e-01 -2.127491869032382965e-02 -1.433897465467453003e-01
3.749000000000000000e+03 3.180065536499023438e+01 2.711079406738281250e+01 -1.309649902395904064e-03 1.836900250054895878e-03 1.581751275807619095e-04 1.246451400220394135e-03
3.750000000000000000e+03 3.143907165527343750e+01 2.885371589660644531e+01 3.392047481611371040e-03 1.703545451164245605e-03 1.528677879832684994e-03 1.455480698496103287e-03
3.751000000000000000e+03 1.518506622314453125e+01 2.934806442260742188e+01 -1.885204925201833248e-03 -2.630587667226791382e-03 -1.354737789370119572e-03 6.275611929595470428e-03
3.752000000000000000e+03 6.647972106933593750e+01 -4.349550247192382812e+00 3.102936595678329468e-02 -1.654918678104877472e-02 4.344053566455841064e-03 -3.816291987895965576e-01
3.753000000000000000e+03 6.883927917480468750e+01 2.872665405273437500e+00 2.042591720819473267e-01 1.642324328422546387e-01 1.105474829673767090e-01 -2.440294474363327026e-01
3.754000000000000000e+03 6.617749786376953125e+01 3.311731100082397461e+00 2.777835726737976074e-01 5.246793031692504883e-01 2.407388687133789062e-01 -8.352895081043243408e-02
3.755000000000000000e+03 6.926836013793945312e+00 -2.848379135131835938e+01 -4.271558672189712524e-02 -1.112245246767997742e-01 -4.618203267455101013e-02 2.801913022994995117e-01
3.756000000000000000e+03 6.285485744476318359e+00 -2.555869483947753906e+01 4.083789512515068054e-02 -2.507085502147674561e-01 -6.296119093894958496e-02 2.976650297641754150e-01
3.757000000000000000e+03 6.880258941650390625e+01 1.014853954315185547e+00 1.797981560230255127e-01 9.909840673208236694e-02 8.366896957159042358e-02 -2.932470440864562988e-01
3.758000000000000000e+03 6.903804016113281250e+01 -3.412117063999176025e-02 1.481235921382904053e-01 4.129023104906082153e-02 5.682414770126342773e-02 -3.332300782203674316e-01
3.759000000000000000e+03 3.685093688964843750e+01 2.449895668029785156e+01 -2.733220113441348076e-03 1.311771757900714874e-02 3.115349216386675835e-03 -2.825686242431402206e-04
3.760000000000000000e+03 1.212826919555664062e+01 8.780580520629882812e+00 2.060604856524150819e-05 -4.019261723442468792e-06 4.976036052539711818e-06 5.557127951760776341e-05
3.761000000000000000e+03 1.155370903015136719e+01 1.059118938446044922e+01 6.203150405781343579e-05 -1.403253463649889454e-05 1.439969219063641503e-05 8.436259668087586761e-05
3.762000000000000000e+03 8.978645324707031250e+00 1.762775230407714844e+01 -2.899486571550369263e-04 -3.220590588171035051e-04 -1.836023147916421294e-04 3.564002690836787224e-05
3.763000000000000000e+03 8.384056091308593750e+00 1.218897628784179688e+01 1.202946950797922909e-04 -1.198402169393375516e-04 1.363430186529512866e-07 2.040861363639123738e-05
3.764000000000000000e+03 1.248334693908691406e+01 7.986891746520996094e+00 1.042691019392805174e-05 1.272873669222462922e-05 6.946694156795274466e-06 4.824435382033698261e-05
3.765000000000000000e+03 1.347922134399414062e+01 2.844418144226074219e+01 -2.383028389886021614e-03 -1.768876332789659500e-03 -1.245571416802704334e-03 5.166753195226192474e-03
3.766000000000000000e+03 8.834040641784667969e+00 1.879961585998535156e+01 -5.490302573889493942e-04 -3.101994807366281748e-04 -2.577689301688224077e-04 9.817721729632467031e-05
3.767000000000000000e+03 9.933264732360839844e+00 1.506085205078125000e+01 7.279776764335110784e-05 -1.904260134324431419e-04 -3.528847082634456456e-05 3.100807589362375438e-05
3.768000000000000000e+03 1.014700412750244141e+01 9.779624938964843750e+00 2.619318365759681910e-05 -6.310067692538723350e-05 -1.107224670704454184e-05 7.026144885458052158e-05
3.769000000000000000e+03 1.159218120574951172e+01 9.429756164550781250e+00 -1.529393193777650595e-05 -1.056558357959147543e-05 -7.757854291412513703e-06 7.263413135660812259e-05
3.770000000000000000e+03 1.055989074707031250e+01 2.224316024780273438e+01 -2.067608758807182312e-03 -3.137645762762986124e-05 -6.296955398283898830e-04 7.776200072839856148e-04
3.771000000000000000e+03 1.156148910522460938e+01 2.209441184997558594e+01 -2.841063309460878372e-03 2.120271674357354641e-04 -7.887108367867767811e-04 6.327589508146047592e-04
3.772000000000000000e+03 9.870375633239746094e+00 2.074898338317871094e+01 -1.482009422034025192e-03 -1.490590657340362668e-04 -4.893205477856099606e-04 2.773512678686529398e-04
3.773000000000000000e+03 9.434513092041015625e+00 1.050708389282226562e+01 8.840100053930655122e-05 -5.863246769877150655e-05 8.930560397857334465e-06 2.547703843447379768e-05
3.774000000000000000e+03 1.187712287902832031e+01 1.014759826660156250e+01 -1.527776294096838683e-05 1.815742393773689400e-06 -4.038606221001828089e-06 6.279005901888012886e-05
3.775000000000000000e+03 1.174225044250488281e+01 2.603347396850585938e+01 -3.572358284145593643e-03 -4.625862347893416882e-04 -1.210483373142778873e-03 3.348628990352153778e-03
3.776000000000000000e+03 1.143431949615478516e+01 2.517964172363281250e+01 -3.001066623255610466e-03 -2.762894146144390106e-04 -9.832067880779504776e-04 2.580962609499692917e-03
3.777000000000000000e+03 1.119108104705810547e+01 8.465389251708984375e+00 4.040601561428047717e-05 -1.376126510876929387e-05 7.993425242602825165e-06 5.413095277617685497e-05
3.778000000000000000e+03 9.009186744689941406e+00 2.086050987243652344e+01 -1.165690715424716473e-03 -1.718166895443573594e-04 -4.012522404082119465e-04 3.505506902001798153e-04
3.779000000000000000e+03 1.066228675842285156e+01 2.517886734008789062e+01 -3.110993187874555588e-03 -2.519235131330788136e-04 -1.008874969556927681e-03 2.343364758417010307e-03
3.780000000000000000e+03 1.031109333038330078e+01 2.308054161071777344e+01 -2.359873615205287933e-03 -1.894012530101463199e-05 -7.136441417969763279e-04 1.120149041526019573e-03
3.781000000000000000e+03 9.515731811523437500e+00 2.215878295898437500e+01 -1.811911584809422493e-03 -1.207353125209920108e-04 -5.797940539196133614e-04 6.736248615197837353e-04
3.782000000000000000e+03 8.521651268005371094e+00 2.202472877502441406e+01 -1.399140222929418087e-03 -2.084308507619425654e-04 -4.822713090106844902e-04 6.663050153292715549e-04
3.783000000000000000e+03 9.953083038330078125e+00 2.261692619323730469e+01 -2.212592866271734238e-03 -5.868724110769107938e-05 -6.813840009272098541e-04 1.050891703926026821e-03
3.784000000000000000e+03 7.341907501220703125e+01 8.988712310791015625e+00 1.181088835000991821e-01 -3.816653788089752197e-01 -7.906694710254669189e-02 -1.348115950822830200e-01
3.785000000000000000e+03 1.331079578399658203e+01 2.578381729125976562e+01 -4.146561026573181152e-03 -3.757934027817100286e-04 -1.356706372462213039e-03 3.806548658758401871e-03
3.786000000000000000e+03 1.630623626708984375e+01 2.862312316894531250e+01 -3.262727987021207809e-03 -2.737327944487333298e-03 -1.800016732886433601e-03 7.071278057992458344e-03
3.787000000000000000e+03 1.695458030700683594e+01 3.205785369873046875e+01 1.725829672068357468e-03 -4.540180787444114685e-03 -8.443053811788558960e-04 6.696871481835842133e-03
3.788000000000000000e+03 6.725798034667968750e+01 -9.278373718261718750e-01 2.040544897317886353e-01 1.392205059528350830e-01 1.029824987053871155e-01 -2.765580415725708008e-01
3.789000000000000000e+03 7.193228149414062500e+01 6.786766052246093750e+00 1.513328552246093750e-01 -1.666583567857742310e-01 -4.597654566168785095e-03 -1.985606551170349121e-01
3.790000000000000000e+03 7.234127807617187500e+01 7.873373508453369141e+00 1.417801231145858765e-01 -2.152458429336547852e-01 -2.203971706330776215e-02 -1.649501025676727295e-01
3.791000000000000000e+03 3.571535491943359375e+01 2.341947174072265625e+01 -1.067988015711307526e-02 9.706206619739532471e-03 -2.921021077781915665e-04 3.549363696947693825e-03
3.792000000000000000e+03 3.476165390014648438e+01 2.581785202026367188e+01 -2.769348444417119026e-03 8.529996499419212341e-03 1.728194416500627995e-03 -1.958266366273164749e-04
3.793000000000000000e+03 3.654267883300781250e+01 2.676549148559570312e+01 3.462881082668900490e-03 1.417356915771961212e-02 5.290934816002845764e-03 -4.023408982902765274e-03
3.794000000000000000e+03 1.817384338378906250e+01 3.072906303405761719e+01 3.713926344062201679e-05 -4.633704200387001038e-03 -1.378969405777752399e-03 7.891228422522544861e-03
3.795000000000000000e+03 1.210867881774902344e+01 9.654099464416503906e+00 6.162814679555594921e-05 3.568443162293988280e-06 1.955897823791019619e-05 4.666697350330650806e-05
3.796000000000000000e+03 1.070611953735351562e+01 1.057432651519775391e+01 6.192625005496665835e-05 -3.952379483962431550e-05 6.720736109855351970e-06 7.814117270754650235e-05
3.797000000000000000e+03 1.251151847839355469e+01 2.540373611450195312e+01 -3.883795347064733505e-03 -1.572792825754731894e-04 -1.212322385981678963e-03 3.129895078018307686e-03
3.798000000000000000e+03 1.067700099945068359e+01 8.823060989379882812e+00 6.161454621178563684e-06 -2.317144753760658205e-05 -5.102997420181054622e-06 3.433420351939275861e-05
3.799000000000000000e+03 1.112869071960449219e+01 9.200038909912109375e+00 6.117347220424562693e-05 -1.801435792003758252e-05 1.294773392146453261e-05 3.735393693204969168e-05
3.800000000000000000e+03 1.024003601074218750e+01 1.086625766754150391e+01 5.155467079021036625e-05 -5.854382470715790987e-05 -2.096746129609527998e-06 3.940675014746375382e-05
3.801000000000000000e+03 1.080091190338134766e+01 2.280348014831542969e+01 -2.776036504656076431e-03 9.197785402648150921e-05 -8.052175980992615223e-04 1.070024911314249039e-03
3.802000000000000000e+03 1.122001171112060547e+01 2.357653999328613281e+01 -3.277154173702001572e-03 1.896035973913967609e-04 -9.262651437893509865e-04 1.459494582377374172e-03
3.803000000000000000e+03 1.014568805694580078e+01 1.625003433227539062e+01 -3.658348941826261580e-05 -2.193763648392632604e-04 -7.678795373067259789e-05 2.448313171043992043e-05
3.804000000000000000e+03 1.064279079437255859e+01 9.930446624755859375e+00 6.650052819168195128e-05 -1.743396751407999545e-05 1.471996802138164639e-05 4.837103915633633733e-05
3.805000000000000000e+03 1.107709026336669922e+01 1.023737335205078125e+01 9.293339644500520080e-06 -2.710672924877144396e-05 -5.344017154129687697e-06 5.312395660439506173e-05
3.806000000000000000e+03 9.487653732299804688e+00 1.824185752868652344e+01 -4.632114723790436983e-04 -2.640572784002870321e-04 -2.181806194130331278e-04 1.912315838126232848e-06
3.807000000000000000e+03 1.323947715759277344e+01 2.702831649780273438e+01 -3.885597689077258110e-03 -9.006209438666701317e-04 -1.435865531675517559e-03 4.531033337116241455e-03
3.808000000000000000e+03 7.338273620605468750e+01 7.751967906951904297e+00 1.203789114952087402e-01 -3.748335242271423340e-01 -7.633638381958007812e-02 -1.743246465921401978e-01
3.809000000000000000e+03 3.790893554687500000e+01 2.577737045288085938e+01 1.943469746038317680e-03 1.640710420906543732e-02 5.505172070115804672e-03 -2.796666929498314857e-03
3.810000000000000000e+03 3.584894180297851562e+01 2.541843223571777344e+01 -3.424235386773943901e-03 1.154601294547319412e-02 2.436533337458968163e-03 -3.886469639837741852e-04
3.811000000000000000e+03 2.110093116760253906e+01 3.227629852294921875e+01 4.017229191958904266e-03 -5.733839236199855804e-03 -5.149830249138176441e-04 7.732194382697343826e-03
3.812000000000000000e+03 1.828809165954589844e+01 3.330124282836914062e+01 3.524223342537879944e-03 -5.376861896365880966e-03 -5.557915428653359413e-04 6.796107161790132523e-03
3.813000000000000000e+03 7.210449981689453125e+01 9.904264450073242188e+00 1.493055522441864014e-01 -1.759556382894515991e-01 -7.995028048753738403e-03 -1.128619015216827393e-01
3.814000000000000000e+03 1.387429141998291016e+01 2.995999908447265625e+01 -1.629954087547957897e-03 -2.632221439853310585e-03 -1.278652693144977093e-03 5.801393650472164154e-03
3.815000000000000000e+03 1.148773288726806641e+01 2.449721145629882812e+01 -3.524870146065950394e-03 6.453662354033440351e-05 -1.038099988363683224e-03 2.138790441676974297e-03
3.816000000000000000e+03 2.311009597778320312e+01 3.271913146972656250e+01 5.763705819845199585e-03 -5.158001556992530823e-03 1.817113225115463138e-04 6.630076561123132706e-03
3.817000000000000000e+03 3.526119232177734375e+01 2.916052246093750000e+01 7.388181984424591064e-03 1.449947804212570190e-02 6.566298194229602814e-03 -5.460656248033046722e-03
3.818000000000000000e+03 4.936882495880126953e+00 -2.537208747863769531e+01 4.168995097279548645e-02 -4.978614449501037598e-01 -1.368514448404312134e-01 2.653034925460815430e-01
3.819000000000000000e+03 7.148011016845703125e+01 2.854150581359863281e+01 -6.350883096456527710e-02 -7.434522360563278198e-02 -4.135621711611747742e-02 2.334830015897750854e-01
3.820000000000000000e+03 6.741605281829833984e+00 -3.005490684509277344e+01 -6.862790137529373169e-02 -1.243989914655685425e-01 -5.790806934237480164e-02 2.652401626110076904e-01
3.821000000000000000e+03 1.084307289123535156e+01 -3.069694328308105469e+01 -1.311524957418441772e-01 3.803054392337799072e-01 7.474587857723236084e-02 1.667770892381668091e-01
3.822000000000000000e+03 2.198175668716430664e+00 -3.703968048095703125e+01 -1.531365048140287399e-02 -5.425295829772949219e-01 -1.673529744148254395e-01 7.801851630210876465e-02
3.823000000000000000e+03 3.100700569152832031e+01 3.072806739807128906e+01 6.578346248716115952e-03 3.530429676175117493e-03 3.032632870599627495e-03 -1.323364413110539317e-04
3.824000000000000000e+03 1.446566581726074219e+01 -2.928455352783203125e+01 -5.889615789055824280e-02 6.952655911445617676e-01 1.909108310937881470e-01 -7.376460731029510498e-02
3.825000000000000000e+03 1.657658767700195312e+01 3.506467437744140625e+01 4.633907694369554520e-03 -5.351268686354160309e-03 -2.152082743123173714e-04 5.052791442722082138e-03
3.826000000000000000e+03 6.200514602661132812e+01 2.932949447631835938e+01 -1.445568203926086426e-01 5.190214514732360840e-01 1.123393848538398743e-01 -6.764845550060272217e-02
3.827000000000000000e+03 3.716392135620117188e+01 -3.026589202880859375e+01 -9.112237952649593353e-03 1.092419028282165527e-02 5.435858038254082203e-04 4.209247883409261703e-03
3.828000000000000000e+03 7.526593780517578125e+01 3.682525634765625000e+01 -3.290586546063423157e-02 -3.524777889251708984e-01 -1.156150996685028076e-01 7.931214570999145508e-02
3.829000000000000000e+03 3.819326019287109375e+01 -3.259988021850585938e+01 -1.082514761947095394e-03 1.321183517575263977e-02 3.638796275481581688e-03 5.603543482720851898e-03
3.830000000000000000e+03 4.298322677612304688e+01 2.986165428161621094e+01 2.109147608280181885e-02 4.852773249149322510e-02 2.088576368987560272e-02 -3.355516493320465088e-02
3.831000000000000000e+03 4.828580856323242188e+00 -3.749552154541015625e+01 -5.275973305106163025e-02 -3.430313467979431152e-01 -1.187373250722885132e-01 9.258872270584106445e-02
3.832000000000000000e+03 3.699940681457519531e+00 -3.568529129028320312e+01 -3.060736507177352905e-02 -4.688962399959564209e-01 -1.498510837554931641e-01 1.208932846784591675e-01
3.833000000000000000e+03 1.971870422363281250e+01 -3.400423049926757812e+01 -9.218141436576843262e-02 4.302119314670562744e-01 1.014091596007347107e-01 -1.589136570692062378e-01
3.834000000000000000e+03 6.108787918090820312e+01 3.123635292053222656e+01 -1.596164852380752563e-01 4.328276813030242920e-01 8.196336030960083008e-02 -7.529687881469726562e-02
3.835000000000000000e+03 6.945726776123046875e+01 2.805030632019042969e+01 -8.169335126876831055e-02 1.362033933401107788e-01 1.635301485657691956e-02 2.310483306646347046e-01
3.836000000000000000e+03 7.621007537841796875e+01 2.736310386657714844e+01 -9.922203607857227325e-03 -6.053805351257324219e-01 -1.845908313989639282e-01 1.803588271141052246e-01
3.837000000000000000e+03 7.622806549072265625e+01 2.876509857177734375e+01 -1.790864951908588409e-02 -5.615856647491455078e-01 -1.738483011722564697e-01 1.710027605295181274e-01
3.838000000000000000e+03 6.893251037597656250e+01 3.262810134887695312e+01 -1.432139426469802856e-01 1.020240560173988342e-01 -1.235696580260992050e-02 1.520361900329589844e-01
3.839000000000000000e+03 7.277236938476562500e+01 2.993990325927734375e+01 -6.247746199369430542e-02 -2.112592309713363647e-01 -8.212100714445114136e-02 2.185842692852020264e-01
3.840000000000000000e+03 6.947111511230468750e+01 2.673602676391601562e+01 -4.681089892983436584e-02 1.542401760816574097e-01 3.222878649830818176e-02 2.381251901388168335e-01
3.841000000000000000e+03 7.009671020507812500e+01 2.964785194396972656e+01 -9.885006397962570190e-02 6.512585282325744629e-02 -1.011726353317499161e-02 2.138018012046813965e-01
3.842000000000000000e+03 6.674756622314453125e+01 2.590105056762695312e+01 -3.617820516228675842e-02 4.847983717918395996e-01 1.345860511064529419e-01 1.660175770521163940e-01
3.843000000000000000e+03 3.482749176025390625e+01 -1.276850605010986328e+01 -1.264189777430146933e-04 1.689160271780565381e-04 1.274911392101785168e-05 7.435278803313849494e-06
3.844000000000000000e+03 6.875308227539062500e+01 -1.957684707641601562e+01 -6.872069934615865350e-05 -8.213000546675175428e-05 -4.525521217146888375e-05 -2.715611844905652106e-05
3.845000000000000000e+03 2.260670661926269531e+01 3.767889976501464844e+00 -3.880972144543193281e-06 -6.348391707433620468e-06 -3.068809064643573947e-06 -2.869712488973164000e-06
3.846000000000000000e+03 2.268856811523437500e+01 3.221656799316406250e+00 -3.350957740622106940e-06 -4.668733708967920393e-06 -2.405907480351743288e-06 -1.701787482488725800e-06
3.847000000000000000e+03 2.152834701538085938e+01 4.783738613128662109e+00 -6.283685252128634602e-06 -6.785736786696361378e-06 -3.920826657122233883e-06 -2.198598849645350128e-06
3.848000000000000000e+03 3.315620422363281250e+01 2.169818878173828125e+00 3.682740498334169388e-04 -1.178532911580987275e-04 7.512621959904208779e-05 -4.048686605528928339e-05
3.849000000000000000e+03 3.342420578002929688e+01 1.861759185791015625e+00 1.792089460650458932e-04 -1.319880393566563725e-04 1.416627219441579655e-05 -6.190115527715533972e-05
3.850000000000000000e+03 3.476755905151367188e+01 2.028061151504516602e+00 -3.904073673766106367e-05 3.438155399635434151e-04 9.143244824372231960e-05 -1.027340113068930805e-04
3.851000000000000000e+03 3.529135131835937500e+01 -1.782815575599670410e+00 -1.965025067329406738e-01 -1.898342247841355857e-06 -5.895132198929786682e-02 1.994051635265350342e-01
3.852000000000000000e+03 2.007802009582519531e+01 5.723089218139648438e+00 -1.040397637552814558e-05 -6.425982064683921635e-06 -5.048987532063620165e-06 -8.425105079368222505e-06
3.853000000000000000e+03 1.501287746429443359e+01 1.337122917175292969e+01 -3.830611240118741989e-05 2.359941281611099839e-04 5.930640327278524637e-05 -4.478525443118996918e-05
3.854000000000000000e+03 6.788675689697265625e+01 -1.479469680786132812e+01 -1.066288352012634277e-01 -4.598523490130901337e-03 -3.336820751428604126e-02 6.623240560293197632e-02
3.855000000000000000e+03 1.422617340087890625e+01 1.661219787597656250e+01 9.988065721699967980e-05 5.691171973012387753e-04 2.006993599934503436e-04 1.195513759739696980e-04
3.856000000000000000e+03 3.032641983032226562e+01 -2.120837688446044922e+00 -8.163036704063415527e-01 7.382816076278686523e-02 -2.227426469326019287e-01 3.331180512905120850e-01
3.857000000000000000e+03 3.156302452087402344e+01 -1.663704276084899902e+00 -7.567222714424133301e-01 8.015197515487670898e-02 -2.029710859060287476e-01 2.564817965030670166e-01
3.858000000000000000e+03 2.930535697937011719e+01 -2.127984762191772461e+00 -9.606711268424987793e-01 6.174727901816368103e-02 -2.696771621704101562e-01 3.328934907913208008e-01
3.859000000000000000e+03 2.881315994262695312e+01 -1.915875434875488281e+00 -1.109287142753601074e+00 3.072380460798740387e-02 -3.235689997673034668e-01 2.936702072620391846e-01
3.860000000000000000e+03 2.893242645263671875e+01 -2.221287250518798828e+00 -9.773135185241699219e-01 4.904516413807868958e-02 -2.784804999828338623e-01 3.444832563400268555e-01
3.861000000000000000e+03 2.758617782592773438e+01 -1.986070990562438965e+00 -1.238369226455688477e+00 -1.137371510267257690e-01 -4.056318998336791992e-01 3.198980689048767090e-01
3.862000000000000000e+03 2.773866462707519531e+01 -2.194599390029907227e+00 -1.128941059112548828e+00 -8.135683089494705200e-02 -3.630893826484680176e-01 3.306300938129425049e-01
3.863000000000000000e+03 2.723450088500976562e+01 -2.292927265167236328e+00 -1.069865822792053223e+00 -1.658772230148315430e-01 -3.707229197025299072e-01 3.038415312767028809e-01
3.864000000000000000e+03 2.482272529602050781e+01 2.235350227355957031e+01 -3.401260077953338623e-02 -4.500625655055046082e-03 -1.155396830290555954e-02 1.045577321201562881e-02
3.865000000000000000e+03 2.554333305358886719e+01 2.164681625366210938e+01 -4.197421669960021973e-02 -3.808528650552034378e-03 -1.373482402414083481e-02 1.172140054404735565e-02
3.866000000000000000e+03 2.569267845153808594e+01 2.226302146911621094e+01 -3.494755923748016357e-02 -6.282988470047712326e-03 -1.236916426569223404e-02 1.230611838400363922e-02
3.867000000000000000e+03 6.911587524414062500e+01 -1.844675636291503906e+01 -4.505094693740829825e-06 -3.727246166818076745e-06 -2.469702167218201794e-06 -2.232788210676517338e-05
3.868000000000000000e+03 6.883248138427734375e+01 -1.905249214172363281e+01 -2.758493792498484254e-05 -8.601025911048054695e-06 -1.085578878701198846e-05 -1.216165128425927833e-05
3.869000000000000000e+03 6.848644256591796875e+01 -1.899444198608398438e+01 -3.323569671920267865e-06 4.381327016744762659e-06 3.173271920786646660e-07 5.040978430770337582e-05
3.870000000000000000e+03 6.861851501464843750e+01 -1.851151657104492188e+01 3.398941771592944860e-05 8.499539399053901434e-05 3.569544423953630030e-05 -2.717680899877450429e-06
3.871000000000000000e+03 3.143622207641601562e+01 1.652243804931640625e+01 -4.695887211710214615e-03 -1.316563785076141357e-02 -5.358457565307617188e-03 7.936011068522930145e-03
3.872000000000000000e+03 3.336490249633789062e+01 1.078557586669921875e+01 -2.898273814935237169e-04 7.120333611965179443e-05 -6.558721361216157675e-05 4.412937269080430269e-04
3.873000000000000000e+03 5.898799514770507812e+01 1.698366284370422363e+00 5.550759434700012207e-01 1.092665314674377441e+00 4.943223595619201660e-01 7.966192960739135742e-01
3.874000000000000000e+03 3.457755661010742188e+01 -2.228452444076538086e+00 -2.361024618148803711e-01 -2.524809725582599640e-02 -7.840517163276672363e-02 2.942410111427307129e-01
3.875000000000000000e+03 3.159712219238281250e+01 -2.023229598999023438e+00 -6.246656775474548340e-01 2.913802117109298706e-02 -1.786583065986633301e-01 2.885787487030029297e-01
3.876000000000000000e+03 3.180456161499023438e+01 -2.021369695663452148e+00 -6.384906172752380371e-01 2.730059809982776642e-02 -1.833570003509521484e-01 3.161030709743499756e-01
3.877000000000000000e+03 3.157097244262695312e+01 -2.326584815979003906e+00 -5.917212367057800293e-01 3.089242056012153625e-02 -1.682486534118652344e-01 3.684231936931610107e-01
3.878000000000000000e+03 3.139641571044921875e+01 -2.065125226974487305e+00 -6.731776595115661621e-01 6.293980032205581665e-02 -1.830713599920272827e-01 3.205930292606353760e-01
3.879000000000000000e+03 3.497861480712890625e+01 -2.081448316574096680e+00 -2.093970775604248047e-01 -1.756124943494796753e-02 -6.808749586343765259e-02 2.656651139259338379e-01
3.880000000000000000e+03 3.499059295654296875e+01 -1.539770960807800293e+00 -2.752024233341217041e-01 2.605325728654861450e-02 -7.474474608898162842e-02 1.922737807035446167e-01
3.881000000000000000e+03 3.478112411499023438e+01 -1.693273305892944336e+00 -2.812864482402801514e-01 1.628295145928859711e-02 -7.950104773044586182e-02 2.180711328983306885e-01
3.882000000000000000e+03 2.284444808959960938e+01 -1.813386559486389160e+00 -1.102453827857971191e+00 2.645406723022460938e-01 -2.513739466667175293e-01 1.366077810525894165e-01
3.883000000000000000e+03 1.377026653289794922e+01 1.987404060363769531e+01 -1.475630793720483780e-03 2.887185837607830763e-04 -3.560736658982932568e-04 -3.847853513434529305e-04
3.884000000000000000e+03 1.385164451599121094e+01 1.924109649658203125e+01 -5.170786171220242977e-04 2.381397498538717628e-04 -8.368165435967966914e-05 -1.186929584946483374e-04
3.885000000000000000e+03 2.955625915527343750e+01 -7.511278152465820312e+00 1.323192238807678223e+00 3.134387433528900146e-01 4.909892976284027100e-01 4.745519161224365234e-01
3.886000000000000000e+03 2.228630447387695312e+01 3.421612262725830078e+00 2.210788807133212686e-06 8.712284397915937006e-06 3.276921916040009819e-06 2.543928530940320343e-06
3.887000000000000000e+03 2.630774307250976562e+01 2.272011566162109375e+01 -3.105697967112064362e-02 -8.297498337924480438e-03 -1.180634275078773499e-02 1.325031649321317673e-02
3.888000000000000000e+03 2.484746170043945312e+01 2.288532447814941406e+01 -3.008594736456871033e-02 -5.259110592305660248e-03 -1.060351729393005371e-02 1.045355200767517090e-02
3.889000000000000000e+03 5.975552368164062500e+01 1.279674053192138672e+00 5.376673936843872070e-01 8.827627301216125488e-01 4.261290431022644043e-01 6.120966076850891113e-01
3.890000000000000000e+03 2.663611793518066406e+01 -2.447345256805419922e+00 -9.804681539535522461e-01 -2.396620512008666992e-01 -3.660390675067901611e-01 2.351713776588439941e-01
3.891000000000000000e+03 6.981522369384765625e+01 -1.916428565979003906e+01 -2.565477916505187750e-05 9.959156886907294393e-05 2.218103691120631993e-05 8.847434401104692370e-06
3.892000000000000000e+03 7.227590179443359375e+01 3.524650955200195312e+01 -9.547740221023559570e-02 -1.426364779472351074e-01 -7.143416255712509155e-02 1.356924772262573242e-01
3.893000000000000000e+03 2.683167076110839844e+01 -2.399662494659423828e+00 -9.967999458312988281e-01 -2.085693627595901489e-01 -3.616107702255249023e-01 2.543043196201324463e-01
3.894000000000000000e+03 3.360847854614257812e+01 2.299599170684814453e+00 1.454396115150302649e-04 3.137750609312206507e-04 1.377644075546413660e-04 -2.611980307847261429e-04
3.895000000000000000e+03 2.266135787963867188e+01 -2.376713275909423828e+00 -9.745624065399169922e-01 2.527656555175781250e-01 -2.165390253067016602e-01 1.277546882629394531e-01
3.896000000000000000e+03 2.759327507019042969e+01 -2.616832971572875977e+00 -8.885954618453979492e-01 -6.801109015941619873e-02 -2.869819700717926025e-01 3.419680595397949219e-01
3.897000000000000000e+03 7.725993347167968750e+01 -3.788370132446289062e+01 -3.383546209079213440e-05 1.923005038406699896e-04 4.753951361635699868e-05 1.243939095729729161e-05
3.898000000000000000e+03 2.933224678039550781e+01 -2.385894298553466797e+00 -8.546518683433532715e-01 6.592918187379837036e-02 -2.366168051958084106e-01 3.742969036102294922e-01
3.899000000000000000e+03 5.361394405364990234e+00 -3.408655166625976562e+01 -7.124338299036026001e-02 -3.150569200515747070e-01 -1.158900931477546692e-01 1.797005981206893921e-01
3.900000000000000000e+03 3.216943264007568359e+00 -3.027988243103027344e+01 -2.625487744808197021e-02 -6.680627465248107910e-01 -2.082952857017517090e-01 1.943982541561126709e-01
3.901000000000000000e+03 4.624117851257324219e+00 -2.796359443664550781e+01 -2.240747585892677307e-02 -5.134615302085876465e-01 -1.607607007026672363e-01 2.664770483970642090e-01
3.902000000000000000e+03 2.773706817626953125e+01 -2.466027021408081055e+00 -9.685810208320617676e-01 -7.302272319793701172e-02 -3.124811351299285889e-01 3.406053781509399414e-01
3.903000000000000000e+03 6.042742156982421875e+01 4.301698505878448486e-01 5.112972855567932129e-01 8.426119089126586914e-01 4.061727523803710938e-01 4.996375441551208496e-01
3.904000000000000000e+03 7.155102539062500000e+01 -1.897827529907226562e+01 6.702940481773111969e-06 -4.895873644272796810e-05 -1.267673906113486737e-05 2.309617957507725805e-05
3.905000000000000000e+03 7.884110260009765625e+01 -1.970781517028808594e+01 -2.225122216259478591e-06 -2.924757245637010783e-05 -9.441808288102038205e-06 2.154100729967467487e-05
3.906000000000000000e+03 3.102044677734375000e+01 -6.449697017669677734e+00 6.030212044715881348e-01 1.398220937699079514e-02 1.851010322570800781e-01 5.336205363273620605e-01
3.907000000000000000e+03 3.394408035278320312e+01 8.023778915405273438e+00 4.387355147628113627e-06 9.746511932462453842e-05 3.055574052268639207e-05 -1.450522540835663676e-04
3.908000000000000000e+03 1.309755802154541016e+01 1.928882980346679688e+01 -7.446988020092248917e-04 1.652671198826283216e-05 -2.184516197303310037e-04 -1.146989816334098577e-04
3.909000000000000000e+03 3.696936798095703125e+01 -2.731547927856445312e+01 -1.566720940172672272e-02 7.897783070802688599e-03 -2.330827992409467697e-03 -6.799971451982855797e-04
3.910000000000000000e+03 7.466053962707519531e+00 -3.570770263671875000e+01 -1.270961612462997437e-01 -7.981789112091064453e-02 -6.207421422004699707e-02 1.550627499818801880e-01
3.911000000000000000e+03 3.809047317504882812e+01 -2.205996894836425781e+01 -2.614202909171581268e-03 2.990177017636597157e-04 -6.945555214770138264e-04 -9.608092368580400944e-04
3.912000000000000000e+03 6.275502777099609375e+01 2.282588577270507812e+01 2.312000691890716553e-01 9.766415357589721680e-01 3.623524904251098633e-01 -9.105034917593002319e-02
3.913000000000000000e+03 1.367500782012939453e+01 1.626468849182128906e+01 1.037078691297210753e-04 3.587506362237036228e-04 1.387375523336231709e-04 1.406323281116783619e-04
3.914000000000000000e+03 2.086578750610351562e+01 4.247689247131347656e+00 9.895746188703924417e-06 6.864984243293292820e-06 5.028219220548635349e-06 -4.407851292853592895e-07
3.915000000000000000e+03 1.546529293060302734e+01 9.658975601196289062e+00 -2.225390289822826162e-06 3.520814425428397954e-05 9.894825780065730214e-06 -8.081698069872800261e-06
3.916000000000000000e+03 1.496144104003906250e+01 1.060405540466308594e+01 -4.995279959985055029e-05 7.934421591926366091e-05 8.817424713924992830e-06 -3.762995447686989792e-06
3.917000000000000000e+03 3.281772232055664062e+01 1.247616386413574219e+01 -1.351198181509971619e-03 -9.814344812184572220e-04 -6.997897871769964695e-04 1.264890423044562340e-03
3.918000000000000000e+03 3.311463165283203125e+01 1.230419921875000000e+01 -9.697829373180866241e-04 -7.410565158352255821e-04 -5.132518126629292965e-04 1.205072971060872078e-03
3.919000000000000000e+03 4.072395801544189453e+00 -3.281200170516967773e+00 -1.859074085950851440e-01 -1.177283078432083130e-01 -9.109071642160415649e-02 -2.999475896358489990e-01
3.920000000000000000e+03 2.588189125061035156e+01 2.280868530273437500e+01 -3.063555620610713959e-02 -7.141597103327512741e-03 -1.133314613252878189e-02 1.250159274786710739e-02
3.921000000000000000e+03 2.584783935546875000e+01 2.391138648986816406e+01 -2.228528261184692383e-02 -8.033704012632369995e-03 -9.095695801079273224e-03 1.158250961452722549e-02
3.922000000000000000e+03 2.596929168701171875e+01 2.330729484558105469e+01 -2.585920505225658417e-02 -8.606705814599990845e-03 -1.033977326005697250e-02 1.229616347700357437e-02
3.923000000000000000e+03 2.794865226745605469e+01 -5.066409587860107422e+00 1.129261255264282227e-01 2.003938108682632446e-01 9.399598091840744019e-02 3.853226006031036377e-01
3.924000000000000000e+03 6.072629928588867188e+01 -3.604389190673828125e+01 -5.960364360362291336e-04 -1.653881976380944252e-03 -6.749755120836198330e-04 1.405537710525095463e-03
3.925000000000000000e+03 6.151155853271484375e+01 -3.724128246307373047e+00 3.647984266281127930e-01 2.052984833717346191e-01 1.710290759801864624e-01 3.671056777238845825e-02
3.926000000000000000e+03 3.734545898437500000e+01 -1.551190948486328125e+01 3.535939031280577183e-04 1.180599720100872219e-04 1.414961589034646749e-04 5.216642748564481735e-04
3.927000000000000000e+03 6.398969268798828125e+01 -9.728176116943359375e+00 -7.509101033210754395e-01 -3.920544385910034180e-01 -3.428893685340881348e-01 -4.021147787570953369e-01
3.928000000000000000e+03 2.640020561218261719e+01 2.335358810424804688e+01 -2.512840554118156433e-02 -8.738782256841659546e-03 -1.016015652567148209e-02 1.251714956015348434e-02
3.929000000000000000e+03 3.487444305419921875e+01 9.724363327026367188e+00 -7.140799425542354584e-04 -4.878791514784097672e-04 -3.605877282097935677e-04 3.451109805610030890e-04
3.930000000000000000e+03 3.065129661560058594e+01 -6.056852340698242188e+00 4.651193916797637939e-01 8.266526460647583008e-02 1.643353998661041260e-01 5.752649307250976562e-01
3.931000000000000000e+03 2.837783813476562500e+01 -2.964780807495117188e+00 -7.161999344825744629e-01 3.799445927143096924e-02 -2.034616470336914062e-01 4.009609818458557129e-01
3.932000000000000000e+03 4.321533966064453125e+01 -1.940400123596191406e+01 6.012012090650387108e-05 1.472174881200771779e-05 2.245256109745241702e-05 1.054758031386882067e-04
3.933000000000000000e+03 2.945518302917480469e+01 -3.194205284118652344e+00 -5.510301589965820312e-01 8.042064309120178223e-02 -1.411828547716140747e-01 4.567527770996093750e-01
3.934000000000000000e+03 2.972331237792968750e+01 -3.448800802230834961e+00 -4.453480243682861328e-01 8.803814649581909180e-02 -1.071929633617401123e-01 4.796963632106781006e-01
3.935000000000000000e+03 2.992135429382324219e+01 -3.178504467010498047e+00 -5.522592067718505859e-01 7.623197883367538452e-02 -1.428081691265106201e-01 4.541308283805847168e-01
3.936000000000000000e+03 3.528200149536132812e+01 4.013017177581787109e+00 -1.283271994907408953e-04 -3.821811696980148554e-05 -4.996359712094999850e-05 -1.911573635879904032e-04
3.937000000000000000e+03 6.993345642089843750e+01 -1.330398368835449219e+01 -2.799037694931030273e-01 5.252546817064285278e-02 -6.821349263191223145e-02 -1.770019344985485077e-02
3.938000000000000000e+03 4.017074966430664062e+01 -2.604099273681640625e+01 -1.213678810745477676e-02 5.155580118298530579e-03 -2.094362396746873856e-03 3.070205450057983398e-03
3.939000000000000000e+03 3.783038711547851562e+01 1.038452625274658203e+01 -2.227385528385639191e-03 -4.981529782526195049e-04 -8.176615810953080654e-04 2.674958959687501192e-04
3.940000000000000000e+03 3.792858123779296875e+01 1.142573738098144531e+01 -4.360378254204988480e-03 2.059130056295543909e-04 -1.246339525096118450e-03 1.705103641143068671e-04
3.941000000000000000e+03 2.748229026794433594e+01 -2.432757139205932617e+00 -9.888534545898437500e-01 -1.070475131273269653e-01 -3.287702798843383789e-01 3.175252377986907959e-01
3.942000000000000000e+03 2.779234695434570312e+01 -2.667300701141357422e+00 -8.673462867736816406e-01 -4.898332804441452026e-02 -2.748988866806030273e-01 3.608942627906799316e-01
3.943000000000000000e+03 2.740736579895019531e+01 -2.774940252304077148e+00 -8.202217817306518555e-01 -9.598062932491302490e-02 -2.748607099056243896e-01 3.312834501266479492e-01
3.944000000000000000e+03 2.041955184936523438e+01 4.029432296752929688e+00 -6.387514531525084749e-06 -3.527371518430300057e-06 -2.974465814986615442e-06 1.555082008053432219e-06
3.945000000000000000e+03 1.325232315063476562e+01 1.672163963317871094e+01 1.044853997882455587e-04 1.956464257091283798e-04 9.003954619402065873e-05 1.287779887206852436e-04
3.946000000000000000e+03 1.720928955078125000e+01 2.268659591674804688e+01 -9.653772227466106415e-03 1.655414089327678084e-04 -2.846469171345233917e-03 1.109438017010688782e-03
3.947000000000000000e+03 7.504930114746093750e+01 2.933980369567871094e+01 -3.535728529095649719e-02 -4.243484735488891602e-01 -1.379117220640182495e-01 1.928687542676925659e-01
3.948000000000000000e+03 3.788557052612304688e+01 -2.404782533645629883e+00 8.351583778858184814e-02 -9.131411463022232056e-02 -2.339483704417943954e-03 1.232588812708854675e-01
3.949000000000000000e+03 3.042730903625488281e+01 -5.639402866363525391e+00 3.235518634319305420e-01 1.246419697999954224e-01 1.344581544399261475e-01 5.799026489257812500e-01
3.950000000000000000e+03 1.252005290985107422e+01 -1.201094150543212891e+01 6.347258687019348145e-01 8.852732181549072266e-01 4.559997320175170898e-01 -7.917665690183639526e-02
3.951000000000000000e+03 4.125328826904296875e+01 -2.636130714416503906e+01 -1.106923166662454605e-02 4.656638018786907196e-03 -1.923778210766613483e-03 4.025406204164028168e-03
3.952000000000000000e+03 5.610822200775146484e+00 -2.990654182434082031e+01 -3.912196680903434753e-02 -3.025839924812316895e-01 -1.025117859244346619e-01 2.845545411109924316e-01
3.953000000000000000e+03 5.471079826354980469e+00 -2.874656867980957031e+01 -3.741439431905746460e-02 -3.718787133693695068e-01 -1.227879375219345093e-01 2.893924713134765625e-01
3.954000000000000000e+03 3.414312362670898438e+01 1.344997596740722656e+01 -4.426972009241580963e-03 -1.288744271732866764e-03 -1.714714802801609039e-03 4.100517369806766510e-03
3.955000000000000000e+03 3.443117523193359375e+01 1.392874431610107422e+01 -5.329404026269912720e-03 -5.278185126371681690e-04 -1.757166814059019089e-03 4.357102792710065842e-03
3.956000000000000000e+03 3.575132751464843750e+01 5.790874004364013672e+00 -6.232358282431960106e-05 -2.437713264953345060e-04 -9.182847134070470929e-05 1.459969062125310302e-04
3.957000000000000000e+03 5.637181472778320312e+01 2.968655967712402344e+01 -1.922200247645378113e-02 3.340138494968414307e-01 9.443755447864532471e-02 -2.146924883127212524e-01
3.958000000000000000e+03 4.373327636718750000e+01 2.338264274597167969e+01 1.209475565701723099e-02 1.540882140398025513e-02 8.251072838902473450e-03 -7.588896900415420532e-03
3.959000000000000000e+03 5.017181396484375000e+01 -1.085412406921386719e+01 -4.205218553543090820e-01 3.574130535125732422e-01 -1.893264614045619965e-02 3.433127701282501221e-01
3.960000000000000000e+03 6.754241943359375000e+01 2.427866744995117188e+01 4.371735453605651855e-02 4.601676464080810547e-01 1.511655002832412720e-01 2.209303975105285645e-01
3.961000000000000000e+03 4.818036651611328125e+01 -1.158642673492431641e+01 -5.293600559234619141e-01 2.511479258537292480e-01 -8.346363902091979980e-02 4.067761301994323730e-01
3.962000000000000000e+03 3.242313385009765625e+01 1.656504058837890625e+01 -8.022373542189598083e-03 -7.849453017115592957e-03 -4.761548247188329697e-03 9.426881559193134308e-03
3.963000000000000000e+03 2.676720428466796875e+01 -4.929774284362792969e+00 7.754940539598464966e-02 1.380151957273483276e-01 6.466937810182571411e-02 2.523964047431945801e-01
3.964000000000000000e+03 1.732414436340332031e+01 -3.352216720581054688e+01 -1.320047080516815186e-01 5.045647621154785156e-01 1.117680147290229797e-01 -1.067250892519950867e-01
3.965000000000000000e+03 6.901048660278320312e+00 -2.193260765075683594e+01 1.951815038919448853e-01 -1.223654299974441528e-01 2.184482105076313019e-02 1.883731037378311157e-01
3.966000000000000000e+03 3.959615325927734375e+01 -2.718973541259765625e+01 -1.288756728172302246e-02 7.516549900174140930e-03 -1.611305284313857555e-03 2.465361030772328377e-03
3.967000000000000000e+03 4.074269104003906250e+01 -1.986214447021484375e+01 -1.718826242722570896e-03 -6.306151626631617546e-04 -7.048324332572519779e-04 5.469007301144301891e-04
3.968000000000000000e+03 1.896509552001953125e+01 5.584964275360107422e+00 5.151439950168423820e-07 9.432389560970477760e-06 2.984260163430008106e-06 -2.036568503172020428e-06
3.969000000000000000e+03 2.808339500427246094e+01 -4.412635803222656250e+00 -1.473178267478942871e-01 1.294668167829513550e-01 -5.355303175747394562e-03 4.041712582111358643e-01
3.970000000000000000e+03 3.552117538452148438e+01 1.092806243896484375e+01 -1.569852582179009914e-03 -8.966887253336608410e-05 -4.978564102202653885e-04 4.567425930872559547e-04
3.971000000000000000e+03 1.706667709350585938e+01 7.427365303039550781e+00 -1.671442623774055392e-05 4.466795644475496374e-07 -4.880324013356585056e-06 -1.057272584148449823e-05
3.972000000000000000e+03 2.814233207702636719e+01 -3.401964426040649414e+00 -5.501307249069213867e-01 3.260488435626029968e-02 -1.552577465772628784e-01 4.021818041801452637e-01
3.973000000000000000e+03 2.748128890991210938e+01 -3.078056573867797852e+00 -6.896461248397827148e-01 -4.881809279322624207e-02 -2.215392738580703735e-01 3.342955708503723145e-01
3.974000000000000000e+03 2.844706726074218750e+01 -3.224043130874633789e+00 -5.898093581199645996e-01 5.165162682533264160e-02 -1.614473164081573486e-01 4.178085625171661377e-01
3.975000000000000000e+03 9.231372833251953125e+00 3.196035003662109375e+01 6.941807077964767814e-05 -2.978764241561293602e-03 -8.728039101697504520e-04 3.617182606831192970e-03
3.976000000000000000e+03 3.037845039367675781e+01 -3.276101589202880859e+00 -4.362290799617767334e-01 7.366698980331420898e-02 -1.087686270475387573e-01 4.761987924575805664e-01
3.977000000000000000e+03 1.448668861389160156e+01 -3.077431678771972656e+01 -1.211825832724571228e-01 6.120968461036682129e-01 1.472742855548858643e-01 -3.840508684515953064e-02
3.978000000000000000e+03 5.636435699462890625e+01 -8.999975204467773438e+00 -1.609249114990234375e-01 2.513655424118041992e-01 2.713219262659549713e-02 -1.440931111574172974e-01
3.979000000000000000e+03 1.236942005157470703e+01 1.212516021728515625e+01 3.745049252756871283e-05 2.168009450542740524e-05 1.773917574610095471e-05 1.247355539817363024e-04
3.980000000000000000e+03 5.242974472045898438e+01 2.566404914855957031e+01 1.304169297218322754e-01 5.930985137820243835e-02 5.691803619265556335e-02 -1.357484906911849976e-01
3.981000000000000000e+03 7.131076049804687500e+01 -2.925419998168945312e+01 -8.022793917916715145e-05 -1.946507545653730631e-04 -8.246360812336206436e-05 -2.724620571825653315e-04
3.982000000000000000e+03 1.297568893432617188e+01 -9.750089645385742188e+00 3.863765597343444824e-01 6.130775213241577148e-01 2.998362183570861816e-01 -2.640517354011535645e-01
3.983000000000000000e+03 1.190768623352050781e+01 -9.080889701843261719e+00 2.170132994651794434e-01 4.373540580272674561e-01 1.963102072477340698e-01 -3.954040706157684326e-01
3.984000000000000000e+03 3.397172546386718750e+01 1.565534305572509766e+01 -9.167589247226715088e-03 -1.278685871511697769e-03 -3.133882535621523857e-03 7.830466143786907196e-03
3.985000000000000000e+03 3.455819702148437500e+01 1.610312271118164062e+01 -1.130019314587116241e-02 3.691100864671170712e-04 -3.279324853792786598e-03 8.584683761000633240e-03
3.986000000000000000e+03 7.322431945800781250e+01 -1.140916347503662109e+01 -1.927587538957595825e-01 -4.520481452345848083e-03 -5.918377265334129333e-02 -1.546545624732971191e-01
3.987000000000000000e+03 6.286373519897460938e+01 -6.775372028350830078e+00 -5.545763671398162842e-02 -1.160303056240081787e-01 -5.144638195633888245e-02 -2.473049610853195190e-01
3.988000000000000000e+03 6.800288391113281250e+01 2.817339324951171875e+01 -1.021205335855484009e-01 2.808113396167755127e-01 5.360724031925201416e-02 1.933526843786239624e-01
3.989000000000000000e+03 6.980615997314453125e+01 -3.126356697082519531e+01 1.578147384861949831e-05 -3.499190788716077805e-04 -1.002412755042314529e-04 -1.759284641593694687e-04
3.990000000000000000e+03 3.523500442504882812e+01 1.054877567291259766e+01 -1.732614706270396709e-03 -4.910033312626183033e-04 -6.670854054391384125e-04 9.628933621570467949e-04
3.991000000000000000e+03 6.755856323242187500e+01 6.188698768615722656e+00 2.632901370525360107e-01 5.063323974609375000e-01 2.308867573738098145e-01 -8.797460049390792847e-02
3.992000000000000000e+03 3.478228378295898438e+01 1.163782978057861328e+01 -2.231766702607274055e-03 -1.103139311453560367e-05 -6.728394073434174061e-04 1.389964949339628220e-03
3.993000000000000000e+03 3.560116195678710938e+01 1.169047641754150391e+01 -2.745736390352249146e-03 1.205868902616202831e-04 -7.875448791310191154e-04 1.318858354352414608e-03
3.994000000000000000e+03 3.522582244873046875e+01 1.199384593963623047e+01 -3.142751753330230713e-03 -7.389772799797356129e-04 -1.164518762379884720e-03 2.017692429944872856e-03
3.995000000000000000e+03 3.517920303344726562e+01 8.336245536804199219e+00 -1.797946024453267455e-04 -3.795973316300660372e-04 -1.678175758570432663e-04 6.224102253327146173e-05
3.996000000000000000e+03 1.155945873260498047e+01 1.207548427581787109e+01 6.914685945957899094e-05 -2.691530971787869930e-05 1.266946583200478926e-05 1.193856733152642846e-04
3.997000000000000000e+03 2.824258995056152344e+01 -3.901930093765258789e+00 -3.360666334629058838e-01 8.569755405187606812e-02 -7.511072605848312378e-02 4.194932579994201660e-01
3.998000000000000000e+03 6.809604644775390625e+01 -3.195245742797851562e+01 -1.761922321747988462e-04 3.332529740873724222e-05 -4.286007970222271979e-05 1.534888579044491053e-04
3.999000000000000000e+03 5.873304367065429688e+00 4.671952724456787109e+00 3.020109761564526707e-05 -2.659541314642410725e-05 1.081705249816877767e-06 1.037167294271057472e-07
4.000000000000000000e+03 2.264734840393066406e+01 2.455130767822265625e+01 -1.715202070772647858e-02 -5.225820466876029968e-03 -6.713352631777524948e-03 8.450460620224475861e-03
4.001000000000000000e+03 1.282637882232666016e+01 2.017547035217285156e+01 -1.640561618842184544e-03 1.960136141860857606e-04 -4.333643883001059294e-04 -2.708694664761424065e-04
4.002000000000000000e+03 1.398623180389404297e+01 -2.738948822021484375e+01 2.082773111760616302e-02 8.759388327598571777e-01 2.690299749374389648e-01 -1.011341884732246399e-01
4.003000000000000000e+03 4.211542510986328125e+01 -2.066957664489746094e+01 -2.056485740467905998e-03 -5.596488481387495995e-04 -7.848403765819966793e-04 6.555042346008121967e-04
4.004000000000000000e+03 2.949162673950195312e+01 -4.360744476318359375e+00 -1.550067514181137085e-01 1.223186030983924866e-01 -9.806445799767971039e-03 5.144257545471191406e-01
4.005000000000000000e+03 7.671788692474365234e+00 -3.110345840454101562e+01 -9.802187979221343994e-02 -4.011309519410133362e-02 -4.144049063324928284e-02 2.437535226345062256e-01
4.006000000000000000e+03 6.457175731658935547e+00 -3.208635330200195312e+01 -8.784660696983337402e-02 -1.896191388368606567e-01 -8.323972672224044800e-02 2.352946400642395020e-01
4.007000000000000000e+03 4.107603454589843750e+01 2.054887771606445312e+01 -1.480394229292869568e-02 1.351759582757949829e-02 -3.859036951325833797e-04 2.924611559137701988e-03
4.008000000000000000e+03 7.694730281829833984e+00 -1.144130706787109375e+01 2.487954348325729370e-01 -3.863992914557456970e-02 6.304664909839630127e-02 -4.765360653400421143e-01
4.009000000000000000e+03 1.275984191894531250e+01 2.120815467834472656e+01 -2.611134434118866920e-03 3.746949078049510717e-04 -6.709318840876221657e-04 1.335472625214606524e-04
4.010000000000000000e+03 1.278137207031250000e+01 2.068539047241210938e+01 -2.168217906728386879e-03 3.252339665777981281e-04 -5.528951878659427166e-04 -1.104696711990982294e-04
4.011000000000000000e+03 4.725811004638671875e+01 2.358922004699707031e+01 3.240931406617164612e-02 8.402610197663307190e-03 1.224357727915048599e-02 -1.913965679705142975e-02
4.012000000000000000e+03 9.021910667419433594e+00 -3.057158470153808594e+01 -1.128285005688667297e-01 1.487749963998794556e-01 1.078394986689090729e-02 2.189127504825592041e-01
4.013000000000000000e+03 1.709722518920898438e+01 -4.623983860015869141e+00 -4.765488207340240479e-01 1.975499838590621948e-01 -8.369965106248855591e-02 -9.515633806586265564e-03
4.014000000000000000e+03 6.858222198486328125e+01 5.632170677185058594e+00 2.370704412460327148e-01 3.201138079166412354e-01 1.671552807092666626e-01 -1.552357226610183716e-01
4.015000000000000000e+03 1.196087455749511719e+01 1.295790767669677734e+01 2.265707189508248121e-05 4.519387857726542279e-06 8.152937880367971957e-06 9.625276288716122508e-05
4.016000000000000000e+03 1.660264778137207031e+01 2.378766822814941406e+01 -8.440881967544555664e-03 2.198728034272789955e-04 -2.466302597895264626e-03 3.084859810769557953e-03
4.017000000000000000e+03 1.572143363952636719e+01 2.437541580200195312e+01 -7.382883224636316299e-03 3.327516024000942707e-04 -2.115039620548486710e-03 3.615179099142551422e-03
4.018000000000000000e+03 3.474929809570312500e+01 1.556270122528076172e+01 -1.005878858268260956e-02 3.040070587303489447e-04 -2.926434623077511787e-03 7.658947724848985672e-03
4.019000000000000000e+03 6.937670135498046875e+01 1.356499004364013672e+01 2.595604658126831055e-01 3.515245318412780762e-01 1.833254992961883545e-01 -1.324260514229536057e-02
4.020000000000000000e+03 7.269478607177734375e+01 -8.547389984130859375e+00 -1.893691569566726685e-01 -5.538213253021240234e-02 -7.342538237571716309e-02 -3.056539893150329590e-01
4.021000000000000000e+03 1.304879283905029297e+01 -5.592818260192871094e+00 -3.293847739696502686e-01 2.118233889341354370e-01 -3.526841476559638977e-02 -3.689098954200744629e-01
4.022000000000000000e+03 1.241731452941894531e+01 -5.187561511993408203e+00 -3.955722451210021973e-01 1.614967286586761475e-01 -7.022265344858169556e-02 -4.090414047241210938e-01
4.023000000000000000e+03 4.063793563842773438e+01 2.164279937744140625e+01 -7.218815851956605911e-03 1.653151027858257294e-02 2.793808467686176300e-03 1.659845584072172642e-03
4.024000000000000000e+03 1.203057765960693359e+01 -4.696432113647460938e+00 -4.882860183715820312e-01 1.087494418025016785e-01 -1.138609722256660461e-01 -4.311499893665313721e-01
4.025000000000000000e+03 7.419881439208984375e+01 -2.567527961730957031e+01 5.140208304510451853e-05 7.707619079155847430e-05 3.854348324239253998e-05 -5.723128560930490494e-05
4.026000000000000000e+03 7.435411834716796875e+01 2.290678215026855469e+01 1.263217255473136902e-02 -4.936417937278747559e-01 -1.443028897047042847e-01 2.130834013223648071e-01
4.027000000000000000e+03 7.320762634277343750e+01 2.261708641052246094e+01 5.258017778396606445e-02 -3.178505897521972656e-01 -7.958111912012100220e-02 2.337967902421951294e-01
4.028000000000000000e+03 7.491053009033203125e+01 -2.631723022460937500e+01 1.001227064989507198e-04 -1.489493115514051169e-06 2.958996265078894794e-05 -6.186501559568569064e-05
4.029000000000000000e+03 3.528717422485351562e+01 1.502722549438476562e+01 -9.179472923278808594e-03 5.376484477892518044e-04 -2.592547331005334854e-03 6.620245985686779022e-03
4.030000000000000000e+03 1.122092056274414062e+01 1.243332195281982422e+01 1.211123162647709250e-05 -4.367296787677332759e-05 -9.468521056987810880e-06 9.069453517440706491e-05
4.031000000000000000e+03 2.884806060791015625e+01 -4.152112960815429688e+00 -2.429921329021453857e-01 1.208575963973999023e-01 -3.664035722613334656e-02 4.692379534244537354e-01
4.032000000000000000e+03 1.764509963989257812e+01 6.457530498504638672e+00 1.746456473483704031e-05 1.066806453309254721e-05 8.439788871328346431e-06 4.768963663082104176e-06
4.033000000000000000e+03 1.717401123046875000e+01 5.902840614318847656e+00 1.197838901134673506e-05 9.275351658288855106e-06 6.376122200890677050e-06 -6.393940452653623652e-07
4.034000000000000000e+03 7.083182525634765625e+01 7.401803493499755859e+00 1.871853321790695190e-01 2.857800386846065521e-02 6.472899764776229858e-02 -1.642563194036483765e-01
4.035000000000000000e+03 1.139838218688964844e+01 1.304769039154052734e+01 3.431803997955285013e-05 -6.816295353928580880e-05 -1.015347424981882796e-05 1.185680957860313356e-04
4.036000000000000000e+03 1.139139366149902344e+01 1.661071968078613281e+01 -1.898328747529376415e-07 -1.440691266907379031e-04 -4.327768692746758461e-05 6.244766700547188520e-05
4.037000000000000000e+03 1.063213348388671875e+01 1.131308555603027344e+01 6.514494452858343720e-05 -5.008779044146649539e-05 4.517146408034022897e-06 9.290250454796478152e-05
4.038000000000000000e+03 7.296634674072265625e+01 -9.239658355712890625e+00 -2.063330858945846558e-01 -3.528817370533943176e-02 -7.248637825250625610e-02 -2.789626121520996094e-01
4.039000000000000000e+03 3.574097824096679688e+01 1.413380813598632812e+01 -8.284307084977626801e-03 1.442812616005539894e-03 -2.052448224276304245e-03 4.500914830714464188e-03
4.040000000000000000e+03 1.099766063690185547e+01 2.182946968078613281e+01 -2.329456852748990059e-03 1.305099285673350096e-04 -6.596840685233473778e-04 6.760548567399382591e-04
4.041000000000000000e+03 1.101432800292968750e+01 1.324897861480712891e+01 1.989357406273484230e-05 -7.915521564427763224e-05 -1.777849320205859840e-05 1.166871006716974080e-04
4.042000000000000000e+03 3.275111007690429688e+01 1.769925498962402344e+01 -1.411091908812522888e-02 -5.491239950060844421e-03 -5.880647804588079453e-03 1.250418368726968765e-02
4.043000000000000000e+03 1.526408004760742188e+01 9.214696884155273438e+00 -1.405860166414640844e-05 2.900525942095555365e-05 4.483997145143803209e-06 1.267080369871109724e-05
4.044000000000000000e+03 7.302565765380859375e+01 1.428139591217041016e+01 1.315167099237442017e-01 -3.534618914127349854e-01 -6.658355146646499634e-02 1.592354662716388702e-02
4.045000000000000000e+03 4.741666793823242188e+00 4.990971565246582031e+00 1.474203691032016650e-05 -1.717938175715971738e-06 3.907229711330728605e-06 1.494479965913342312e-05
4.046000000000000000e+03 6.889750671386718750e+01 -2.315664768218994141e+00 8.569569140672683716e-02 -5.317889619618654251e-03 2.411334030330181122e-02 -3.911624252796173096e-01
4.047000000000000000e+03 1.198582839965820312e+01 1.654248619079589844e+01 -1.126682618632912636e-04 -1.000877600745297968e-04 -6.382681021932512522e-05 1.065606047632172704e-04
4.048000000000000000e+03 1.248418712615966797e+01 2.154571723937988281e+01 -2.861821558326482773e-03 2.885951253119856119e-04 -7.719679269939661026e-04 3.888431529048830271e-04
4.049000000000000000e+03 3.698923110961914062e+01 2.043576240539550781e+01 -1.420657895505428314e-02 1.121621392667293549e-02 -8.971095085144042969e-04 5.548750516027212143e-03
4.050000000000000000e+03 1.177672195434570312e+01 2.151159286499023438e+01 -2.389580942690372467e-03 1.830814726417884231e-04 -6.619498599320650101e-04 4.218952381052076817e-04
4.051000000000000000e+03 1.135959529876708984e+01 9.853300094604492188e+00 7.215172809083014727e-05 -1.025529945763992146e-05 1.856892959040123969e-05 4.646662637242116034e-05
4.052000000000000000e+03 1.664232635498046875e+01 5.366541385650634766e+00 9.796427548280917108e-06 5.825034804729511961e-06 4.686438842327333987e-06 -3.609040049923351035e-06
4.053000000000000000e+03 1.690699195861816406e+01 6.902441024780273438e+00 -1.836104092944879085e-05 5.327350663719698787e-06 -3.910106897819787264e-06 -7.656722118554171175e-06
4.054000000000000000e+03 1.145118999481201172e+01 2.282224273681640625e+01 -2.775517757982015610e-03 1.482162624597549438e-04 -7.881904602982103825e-04 1.166835892945528030e-03
4.055000000000000000e+03 9.699016571044921875e+00 1.318572902679443359e+01 1.570116728544235229e-05 -1.475191820645704865e-04 -3.954540443373844028e-05 7.516459299949929118e-05
4.056000000000000000e+03 8.944613456726074219e+00 1.382116889953613281e+01 1.803261056920746341e-06 -1.780243328539654613e-04 -5.286632222123444080e-05 4.741984594147652388e-05
4.057000000000000000e+03 1.483151435852050781e+01 8.059461593627929688e+00 -4.332947719376534224e-05 3.010799264302477241e-05 -3.966445092373760417e-06 1.886156860564369708e-05
4.058000000000000000e+03 1.509562206268310547e+01 8.481635093688964844e+00 -2.666167893039528280e-05 2.084215884678997099e-05 -1.745856025081593543e-06 2.139635216735769063e-05
4.059000000000000000e+03 9.957714080810546875e+00 -7.628728389739990234e+00 -3.360589966177940369e-03 1.565494984388351440e-01 4.595667123794555664e-02 -5.479093790054321289e-01
4.060000000000000000e+03 2.188577651977539062e+01 2.736615753173828125e+01 -6.949635222554206848e-03 -5.671375431120395660e-03 -3.786303335800766945e-03 9.809317067265510559e-03
4.061000000000000000e+03 3.533967590332031250e+01 1.465642261505126953e+01 -8.850662969052791595e-03 1.201323000714182854e-03 -2.294801874086260796e-03 5.844977218657732010e-03
4.062000000000000000e+03 9.833916664123535156e+00 -4.966416358947753906e+00 -3.792876899242401123e-01 4.396185278892517090e-02 -1.005977466702461243e-01 -5.191879868507385254e-01
4.063000000000000000e+03 2.100858116149902344e+01 2.493965148925781250e+01 -1.377524062991142273e-02 -3.727005096152424812e-03 -5.250673741102218628e-03 7.979306392371654510e-03
4.064000000000000000e+03 6.978703308105468750e+01 -3.001908540725708008e+00 2.425494603812694550e-02 -6.442257761955261230e-02 -1.205028872936964035e-02 -4.221123158931732178e-01
4.065000000000000000e+03 9.083213806152343750e+00 -7.090059757232666016e+00 -8.311500400304794312e-02 3.686374798417091370e-02 -1.387537736445665359e-02 -5.775994658470153809e-01
4.066000000000000000e+03 9.140171051025390625e+00 -6.438971519470214844e+00 -1.708308905363082886e-01 3.722924366593360901e-02 -4.008049517869949341e-02 -5.754222273826599121e-01
4.067000000000000000e+03 8.568587303161621094e+00 -6.683884143829345703e+00 -1.234765350818634033e-01 -2.176129724830389023e-03 -3.769579902291297913e-02 -5.836723446846008301e-01
4.068000000000000000e+03 1.506495761871337891e+01 7.755051612854003906e+00 3.404723247513175011e-05 4.424145117809530348e-06 1.154141318693291396e-05 1.245988278242293745e-05
4.069000000000000000e+03 8.927558898925781250e+00 2.269815063476562500e+01 -1.846045372076332569e-03 -1.958763459697365761e-04 -6.125764921307563782e-04 1.041862647980451584e-03
4.070000000000000000e+03 7.253433990478515625e+01 -1.908070087432861328e+00 2.722823992371559143e-02 -2.174510061740875244e-01 -5.706683173775672913e-02 -3.949748873710632324e-01
4.071000000000000000e+03 1.035531330108642578e+01 1.019852161407470703e+01 3.510254828142933547e-05 -3.895781628671102226e-05 -1.156581106442899909e-06 2.477136877132579684e-05
4.072000000000000000e+03 3.171939468383789062e+01 2.066084671020507812e+01 -2.500519342720508575e-02 -5.684993695467710495e-03 -9.207055903971195221e-03 1.140478160232305527e-02
4.073000000000000000e+03 3.149731254577636719e+01 2.034586143493652344e+01 -2.451078593730926514e-02 -8.048899471759796143e-03 -9.767905808985233307e-03 1.244655530899763107e-02
4.074000000000000000e+03 6.202152252197265625e+00 5.216089248657226562e+00 -8.550222446501720697e-06 -4.164918152582686162e-07 -2.690014298423193395e-06 -2.023686465690843761e-05
4.075000000000000000e+03 3.216038131713867188e+01 2.093569564819335938e+01 -2.238968387246131897e-02 -2.968425396829843521e-03 -7.607433013617992401e-03 8.846524171531200409e-03
4.076000000000000000e+03 7.904014110565185547e+00 1.076605033874511719e+01 9.318940283264964819e-05 -8.748575783101841807e-05 1.711094682832481340e-06 -2.752464297373080626e-06
4.077000000000000000e+03 6.925736904144287109e+00 1.079177284240722656e+01 3.048612961720209569e-05 -9.351880726171657443e-05 -1.890980456664692611e-05 -2.059564576484262943e-05
4.078000000000000000e+03 1.086542510986328125e+01 2.431366920471191406e+01 -2.781500108540058136e-03 -1.914027961902320385e-04 -8.918708190321922302e-04 2.110135275870561600e-03
4.079000000000000000e+03 1.187751388549804688e+01 6.458168983459472656e+00 4.911040377919562161e-05 -4.623829681804636493e-06 1.334597254754044116e-05 7.358268248935928568e-06
4.080000000000000000e+03 7.560938835144042969e+00 1.524706745147705078e+01 4.971993985236622393e-05 -2.264598006149753928e-04 -5.302195859258063138e-05 -2.915084223786834627e-05
4.081000000000000000e+03 1.530179977416992188e+01 6.822379112243652344e+00 -9.011256224766839296e-06 1.479416096117347479e-05 1.734871375447255559e-06 -9.577211130817886442e-06
4.082000000000000000e+03 1.429236984252929688e+01 5.778042793273925781e+00 1.832480120356194675e-05 1.118717864301288500e-05 8.853594408719800413e-06 1.934208557941019535e-05
4.083000000000000000e+03 8.713603973388671875e+00 1.586898708343505859e+01 -1.010642226901836693e-04 -3.039849107153713703e-04 -1.215147422044537961e-04 4.879875632468611002e-05
4.084000000000000000e+03 3.179769706726074219e+01 2.126427078247070312e+01 -2.359267510473728180e-02 -3.803949570283293724e-03 -8.218986913561820984e-03 9.080583229660987854e-03
4.085000000000000000e+03 1.462534236907958984e+01 6.148567199707031250e+00 -9.161742127616889775e-06 9.542466614220757037e-06 1.142174923529637454e-07 3.907091013388708234e-06
4.086000000000000000e+03 8.061464309692382812e+00 1.589501667022705078e+01 -5.000917553843464702e-06 -2.300328633282333612e-04 -7.051013380987569690e-05 -6.112289702286943793e-05
4.087000000000000000e+03 3.365373611450195312e+01 1.576640963554382324e+00 -2.123990270774811506e-04 3.330508661747444421e-06 -6.272055907174944878e-05 -7.217816892080008984e-05
4.088000000000000000e+03 3.496414566040039062e+01 5.133104324340820312e-01 4.333044671511743218e-06 9.299163139075972140e-06 4.089662525075254962e-06 -1.964693183253984898e-05
4.089000000000000000e+03 3.455622100830078125e+01 1.531800985336303711e+00 1.519821380497887731e-04 1.035235982271842659e-04 7.665171870030462742e-05 -6.444800237659364939e-05
4.090000000000000000e+03 3.492177963256835938e+01 7.063324451446533203e-01 1.930471080413553864e-05 7.614948845002800226e-05 2.863626104954164475e-05 8.750853339734021574e-06
4.091000000000000000e+03 3.478488922119140625e+01 1.781563878059387207e+00 1.153401535702869296e-04 8.824207907309755683e-05 6.107467197580263019e-05 7.762416316836606711e-06
4.092000000000000000e+03 3.458167266845703125e+01 1.753330111503601074e+00 -1.455086458008736372e-04 -3.967477459809742868e-05 -5.555502502829767764e-05 1.364242780255153775e-04
4.093000000000000000e+03 3.462108230590820312e+01 1.320459365844726562e+00 3.290296081104315817e-05 1.512301823822781444e-04 5.523994332179427147e-05 -5.680858885170891881e-05
4.094000000000000000e+03 3.486197280883789062e+01 1.055792212486267090e+00 4.087565321242436767e-05 -3.200316132279112935e-05 2.661747885213117115e-06 1.841749326558783650e-04
4.095000000000000000e+03 3.320969009399414062e+01 1.529959678649902344e+00 1.720521831884980202e-04 6.635861791437491775e-05 7.152323814807459712e-05 -7.506338442908599973e-05
4.096000000000000000e+03 3.334902191162109375e+01 1.622598052024841309e+00 -3.876699702232144773e-05 -1.144731049862457439e-05 -1.506429271103115752e-05 7.516855839639902115e-05
4.097000000000000000e+03 3.350032043457031250e+01 1.674203872680664062e+00 -9.606945241102948785e-05 3.075848799198865891e-04 6.345463043544441462e-05 -2.697593481570947915e-05
4.098000000000000000e+03 3.483629989624023438e+01 1.236152768135070801e+00 -1.474777527619153261e-04 -4.487082333071157336e-05 -5.770457210019230843e-05 -1.373720006085932255e-04
4.099000000000000000e+03 3.479904937744140625e+01 1.588803052902221680e+00 -1.731904048938304186e-04 -2.296183811267837882e-05 -5.884567508473992348e-05 6.682727689621970057e-05
4.100000000000000000e+03 3.483137130737304688e+01 1.411675333976745605e+00 1.589570165378972888e-04 -6.762848352082073689e-05 2.739856063271872699e-05 -5.208652964938664809e-06
4.101000000000000000e+03 3.490541458129882812e+01 8.838708996772766113e-01 -8.276658627437427640e-05 -4.209903636365197599e-05 -3.745968570001423359e-05 -1.116446946980431676e-04
4.102000000000000000e+03 3.373072814941406250e+01 1.148025155067443848e+00 -9.864819730864837766e-05 -9.732231410453096032e-05 -5.879115269635803998e-05 4.854324288317002356e-05
4.103000000000000000e+03 3.400005722045898438e+01 1.656924128532409668e+00 1.381222973577678204e-04 9.283363760914653540e-05 6.928677612449973822e-05 -8.190811058739200234e-05
4.104000000000000000e+03 3.350587081909179688e+01 1.435347199440002441e+00 1.412751007592305541e-04 5.809600406792014837e-05 5.981133290333673358e-05 -9.986827353714033961e-05
4.105000000000000000e+03 3.422412490844726562e+01 1.719584941864013672e+00 -1.006109741865657270e-04 -5.676541695720516145e-05 -4.721291770692914724e-05 2.620181476231664419e-04
4.106000000000000000e+03 3.407532882690429688e+01 5.203839540481567383e-01 -7.437232852680608630e-05 6.804249892411462497e-07 -2.210757156717590988e-05 2.597610546217765659e-05
4.107000000000000000e+03 3.442555618286132812e+01 6.639856696128845215e-01 -9.387423051521182060e-05 -1.010877385851927102e-04 -5.848859291290864348e-05 -9.540547580400016159e-06
4.108000000000000000e+03 3.364273452758789062e+01 1.700774073600769043e+00 3.493450640235096216e-05 -1.126335846493020654e-04 -2.330972347408533096e-05 -1.500991402281215414e-05
4.109000000000000000e+03 3.433422088623046875e+01 1.559625267982482910e+00 -1.016875539789907634e-04 -3.135012520942837000e-04 -1.245566381840035319e-04 1.549928274471312761e-04
4.110000000000000000e+03 3.474470520019531250e+01 5.020679235458374023e-01 2.234938619949389249e-05 7.377385918516665697e-05 2.883697197830770165e-05 1.541916935821063817e-05
4.111000000000000000e+03 3.438750457763671875e+01 1.119982838630676270e+00 -1.434425503248348832e-04 -1.022327196551486850e-04 -7.370258390437811613e-05 5.216786667006090283e-05
4.112000000000000000e+03 3.410485458374023438e+01 1.378117084503173828e+00 5.708335447707213461e-05 1.762368192430585623e-04 6.999605102464556694e-05 -7.535954500781372190e-05
4.113000000000000000e+03 3.466735839843750000e+01 9.404675364494323730e-01 2.052061754511669278e-04 8.934944344218820333e-05 8.836668712319806218e-05 2.542375659686513245e-05
4.114000000000000000e+03 3.411146926879882812e+01 8.511812090873718262e-01 1.733198005240410566e-04 9.042111196322366595e-05 7.912227010820060968e-05 -1.323019932897295803e-05
4.115000000000000000e+03 3.379204177856445312e+01 1.664782166481018066e+00 -2.304030349478125572e-04 -2.876288199331611395e-04 -1.554095506435260177e-04 1.085985932149924338e-04
4.116000000000000000e+03 3.455142974853515625e+01 4.722054898738861084e-01 2.914021752076223493e-05 -1.798008306650444865e-04 -4.519818321568891406e-05 4.252484359312802553e-05
4.117000000000000000e+03 3.465433502197265625e+01 7.233890891075134277e-01 -9.613540169084444642e-05 -4.659768819692544639e-05 -4.281992733012884855e-05 -2.778868474706541747e-05
4.118000000000000000e+03 3.435990142822265625e+01 4.721285998821258545e-01 2.840275010385084897e-05 1.264046441065147519e-04 4.644221917260438204e-05 -1.061423099599778652e-04
4.119000000000000000e+03 3.439619827270507812e+01 1.747237682342529297e+00 2.647854853421449661e-04 9.057226270670071244e-05 1.066073164111003280e-04 -2.776307519525289536e-04
4.120000000000000000e+03 3.355002593994140625e+01 -1.336139678955078125e+00 -4.130026996135711670e-01 -5.058255419135093689e-02 -1.390755772590637207e-01 2.368060350418090820e-01
4.121000000000000000e+03 3.387998962402343750e+01 -1.357542157173156738e+00 -4.943829476833343506e-01 1.012134086340665817e-02 -1.452784836292266846e-01 2.237909883260726929e-01
4.122000000000000000e+03 3.400633621215820312e+01 -1.437711238861083984e+00 -4.463329315185546875e-01 1.277211960405111313e-02 -1.300682425498962402e-01 2.588957846164703369e-01
4.123000000000000000e+03 3.359782409667968750e+01 -1.530442714691162109e+00 -4.444603025913238525e-01 -6.548506021499633789e-02 -1.529836058616638184e-01 3.169943094253540039e-01
4.124000000000000000e+03 3.337884902954101562e+01 -1.355730533599853516e+00 -6.296960711479187012e-01 -1.468942314386367798e-01 -2.329770922660827637e-01 1.863820105791091919e-01
4.125000000000000000e+03 3.318160629272460938e+01 -1.385946512222290039e+00 -5.943518877029418945e-01 -1.039535775780677795e-01 -2.094916403293609619e-01 3.896963596343994141e-01
4.126000000000000000e+03 3.272080612182617188e+01 -1.474612951278686523e+00 -6.279848814010620117e-01 -1.869693398475646973e-01 -2.444862723350524902e-01 1.702188700437545776e-01
4.127000000000000000e+03 3.291108322143554688e+01 -1.866258263587951660e+00 -4.625920653343200684e-01 -1.183201074600219727e-01 -1.742736548185348511e-01 3.091894686222076416e-01
4.128000000000000000e+03 3.251934814453125000e+01 -1.439323782920837402e+00 -6.979632973670959473e-01 -6.453404575586318970e-02 -2.287492007017135620e-01 1.714270710945129395e-01
4.129000000000000000e+03 3.221598434448242188e+01 -1.447337150573730469e+00 -6.978874206542968750e-01 -3.355035185813903809e-02 -2.194313257932662964e-01 1.659685671329498291e-01
4.130000000000000000e+03 3.226885986328125000e+01 -1.600857377052307129e+00 -6.947060227394104004e-01 -5.601459741592407227e-02 -2.252161800861358643e-01 1.789043247699737549e-01
4.131000000000000000e+03 3.204936599731445312e+01 -1.485772848129272461e+00 -7.169299721717834473e-01 1.514896471053361893e-02 -2.105343043804168701e-01 2.000709772109985352e-01
4.132000000000000000e+03 3.211537170410156250e+01 -1.726776599884033203e+00 -6.485792994499206543e-01 -1.445142086595296860e-02 -1.989092230796813965e-01 1.991091519594192505e-01
4.133000000000000000e+03 3.182605171203613281e+01 -1.507937312126159668e+00 -7.141472697257995605e-01 4.296442121267318726e-02 -2.013548463582992554e-01 2.746509909629821777e-01
4.134000000000000000e+03 3.372217178344726562e+01 -1.337684988975524902e+00 -5.944030284881591797e-01 4.940140992403030396e-03 -1.768388599157333374e-01 2.437934428453445435e-01
4.135000000000000000e+03 3.351655578613281250e+01 -1.788771152496337891e+00 -4.416615962982177734e-01 -7.426290959119796753e-02 -1.547773480415344238e-01 3.035469055175781250e-01
4.136000000000000000e+03 3.296868133544921875e+01 -1.440663218498229980e+00 -4.152381122112274170e-01 -1.986436843872070312e-01 -1.841645389795303345e-01 2.768970131874084473e-01
4.137000000000000000e+03 3.250159835815429688e+01 -1.746093511581420898e+00 -6.240477561950683594e-01 -9.682106971740722656e-02 -2.162606567144393921e-01 2.176462709903717041e-01
4.138000000000000000e+03 3.236406326293945312e+01 -1.501782178878784180e+00 -6.712865233421325684e-01 -6.437941640615463257e-02 -2.206997871398925781e-01 1.635035872459411621e-01
4.139000000000000000e+03 3.312557220458984375e+01 -1.569985032081604004e+00 -5.644488930702209473e-01 -1.461355835199356079e-01 -2.131753414869308472e-01 2.011477053165435791e-01
4.140000000000000000e+03 3.236862182617187500e+01 -1.424049139022827148e+00 -7.271907925605773926e-01 -7.132326066493988037e-02 -2.395542114973068237e-01 1.651763021945953369e-01
4.141000000000000000e+03 3.340180206298828125e+01 -1.497046351432800293e+00 -6.226378679275512695e-01 -7.383564859628677368e-02 -2.089420557022094727e-01 3.275366425514221191e-01
4.142000000000000000e+03 3.100585174560546875e+01 -8.920080184936523438e+00 6.894840002059936523e-01 1.358922719955444336e-01 2.476128786802291870e-01 -2.186755686998367310e-01
4.143000000000000000e+03 3.131526565551757812e+01 -8.545426368713378906e+00 7.953603863716125488e-01 -5.309638381004333496e-02 2.226791977882385254e-01 8.393924683332443237e-03
4.144000000000000000e+03 3.186168861389160156e+01 -9.464828491210937500e+00 1.589317470788955688e-01 1.110685661842580885e-05 4.768285527825355530e-02 -1.156385764479637146e-01
4.145000000000000000e+03 3.251086044311523438e+01 -9.066474914550781250e+00 3.150001168251037598e-01 -8.162915706634521484e-02 7.001128792762756348e-02 -2.803787775337696075e-02
4.146000000000000000e+03 3.371839904785156250e+01 -9.191536903381347656e+00 1.902617514133453369e-01 -9.597540646791458130e-02 2.828590571880340576e-02 1.216949149966239929e-01
4.147000000000000000e+03 3.426917648315429688e+01 -1.016659069061279297e+01 -1.672009751200675964e-02 -4.291899874806404114e-02 -1.789172925055027008e-02 7.136750221252441406e-02
4.148000000000000000e+03 3.580917358398437500e+01 -1.068415164947509766e+01 -2.761820256710052490e-01 -7.750432193279266357e-02 -1.061059013009071350e-01 1.642673313617706299e-01
4.149000000000000000e+03 3.609215927124023438e+01 -9.995286941528320312e+00 -1.580373495817184448e-01 -1.666039675474166870e-01 -9.739239513874053955e-02 2.466590106487274170e-01
4.150000000000000000e+03 3.657500457763671875e+01 -1.094214725494384766e+01 -4.201924800872802734e-01 -1.061877459287643433e-01 -1.579140722751617432e-01 2.161619663238525391e-01
4.151000000000000000e+03 3.734017562866210938e+01 -1.120081138610839844e+01 -5.908566713333129883e-01 -1.742487996816635132e-01 -2.295316457748413086e-01 3.066570162773132324e-01
4.152000000000000000e+03 3.763973999023437500e+01 -1.052015495300292969e+01 -3.402784168720245361e-01 -2.781361639499664307e-01 -1.855243742465972900e-01 3.385465145111083984e-01
4.153000000000000000e+03 3.187426185607910156e+01 -8.957004547119140625e+00 5.854972004890441895e-01 -6.006491556763648987e-02 1.576296836137771606e-01 -1.192375496029853821e-01
4.154000000000000000e+03 3.298913574218750000e+01 -8.844696044921875000e+00 2.821048796176910400e-01 -1.405577510595321655e-01 4.246413335204124451e-02 7.633715867996215820e-02
4.155000000000000000e+03 3.453558349609375000e+01 -9.469518661499023438e+00 4.862407222390174866e-02 -1.257266253232955933e-01 -2.313076518476009369e-02 1.584798246622085571e-01
4.156000000000000000e+03 3.531685638427734375e+01 -9.733313560485839844e+00 -5.189987272024154663e-02 -1.318834722042083740e-01 -5.513500422239303589e-02 2.073494493961334229e-01
4.157000000000000000e+03 3.686627960205078125e+01 -1.025738620758056641e+01 -2.663173675537109375e-01 -2.040451318025588989e-01 -1.411087512969970703e-01 3.111158609390258789e-01
4.158000000000000000e+03 3.263451004028320312e+01 -9.674182891845703125e+00 1.896464675664901733e-01 -1.864116080105304718e-02 5.130159109830856323e-02 -2.614409662783145905e-02
4.159000000000000000e+03 3.346028137207031250e+01 -9.892712593078613281e+00 1.014062985777854919e-01 -3.466269001364707947e-02 2.002308331429958344e-02 2.498760633170604706e-02
4.160000000000000000e+03 3.504216003417968750e+01 -1.042628192901611328e+01 -1.439281105995178223e-01 -6.497085094451904297e-02 -6.266968697309494019e-02 1.136937513947486877e-01
4.161000000000000000e+03 3.235822677612304688e+01 -8.564474105834960938e+00 5.728774666786193848e-01 -1.416743844747543335e-01 1.293609142303466797e-01 8.835420012474060059e-02
4.162000000000000000e+03 3.176610565185546875e+01 -8.452316284179687500e+00 6.431918740272521973e-01 -9.611464291810989380e-02 1.641231775283813477e-01 1.081027090549468994e-01
4.163000000000000000e+03 3.482025527954101562e+01 2.317851334810256958e-01 -1.202431768178939819e-01 -8.704009233042597771e-04 -3.633407503366470337e-02 -1.498774904757738113e-02
4.164000000000000000e+03 3.502776718139648438e+01 -3.995346128940582275e-01 -1.853784173727035522e-01 2.030199766159057617e-02 -4.952292516827583313e-02 1.897167973220348358e-02
4.165000000000000000e+03 3.520851898193359375e+01 -9.952967762947082520e-01 -2.075874209403991699e-01 1.769087091088294983e-02 -5.696896463632583618e-02 9.270182251930236816e-02
4.166000000000000000e+03 3.487051010131835938e+01 -9.423822760581970215e-01 -2.596472501754760742e-01 3.131406009197235107e-02 -6.849996000528335571e-02 9.010966122150421143e-02
4.167000000000000000e+03 3.501298904418945312e+01 2.663194239139556885e-01 -1.225082874298095703e-01 -6.252780440263450146e-04 -3.694006800651550293e-02 -1.393081806600093842e-02
4.168000000000000000e+03 3.488112640380859375e+01 -1.439139619469642639e-02 -1.443516463041305542e-01 3.867009581881575286e-05 -4.329389333724975586e-02 -6.686254404485225677e-03
4.169000000000000000e+03 3.504684829711914062e+01 -1.377833038568496704e-01 -1.541252434253692627e-01 8.663605898618698120e-03 -4.363849014043807983e-02 8.726192027097567916e-05
4.170000000000000000e+03 3.448436355590820312e+01 -4.451995790004730225e-01 -2.372804880142211914e-01 3.912130743265151978e-02 -5.944775417447090149e-02 -1.879557594656944275e-02
4.171000000000000000e+03 3.444835281372070312e+01 1.789149492979049683e-01 -1.236684769392013550e-01 3.224231069907546043e-03 -3.613327443599700928e-02 -1.171716488897800446e-02
4.172000000000000000e+03 3.445236587524414062e+01 -9.279549121856689453e-01 -3.653514981269836426e-01 5.221430957317352295e-02 -9.394115954637527466e-02 8.845589309930801392e-02
4.173000000000000000e+03 3.472159957885742188e+01 -4.574835002422332764e-01 -2.185371071100234985e-01 2.284968458116054535e-02 -5.870622396469116211e-02 9.215728379786014557e-03
4.174000000000000000e+03 3.504224777221679688e+01 -9.963615536689758301e-01 -2.245988547801971436e-01 2.398247085511684418e-02 -6.018491461873054504e-02 9.719830751419067383e-02
4.175000000000000000e+03 3.508397293090820312e+01 -6.545739173889160156e-01 -2.138549387454986572e-01 2.905515208840370178e-02 -5.543993413448333740e-02 4.105675220489501953e-02
4.176000000000000000e+03 3.463124084472656250e+01 1.983687281608581543e-01 -1.207353025674819946e-01 -6.826641503721475601e-03 -3.826858103275299072e-02 -1.032547280192375183e-02
4.177000000000000000e+03 3.448096847534179688e+01 -8.303236216306686401e-02 -1.320520043373107910e-01 -3.066037781536579132e-03 -4.053541272878646851e-02 -2.758057042956352234e-02
4.178000000000000000e+03 3.466226196289062500e+01 -9.147076010704040527e-01 -3.058520555496215820e-01 4.701448604464530945e-02 -7.765126973390579224e-02 7.837887853384017944e-02
4.179000000000000000e+03 3.429238891601562500e+01 1.145092993974685669e-01 -1.203941255807876587e-01 9.468670032219961286e-05 -3.608983010053634644e-02 -1.537646353244781494e-02
4.180000000000000000e+03 3.505037689208984375e+01 5.978215858340263367e-02 -1.197090968489646912e-01 4.799655638635158539e-03 -3.447283059358596802e-02 -6.432873662561178207e-03
4.181000000000000000e+03 3.517032241821289062e+01 -8.236765265464782715e-01 -2.100145965814590454e-01 2.599043399095535278e-02 -5.520724877715110779e-02 7.840789854526519775e-02
4.182000000000000000e+03 3.469303894042968750e+01 -8.869820088148117065e-02 -1.482550054788589478e-01 7.374016102403402328e-03 -4.226429387927055359e-02 -1.993554830551147461e-02
4.183000000000000000e+03 3.400199890136718750e+01 -1.481593251228332520e-01 -1.619692146778106689e-01 2.583702094852924347e-02 -4.083965718746185303e-02 -6.363583356142044067e-02
4.184000000000000000e+03 3.396210098266601562e+01 -1.021292924880981445e+00 -5.147707462310791016e-01 4.186386987566947937e-02 -1.418720632791519165e-01 1.524126529693603516e-01
4.185000000000000000e+03 3.408905029296875000e+01 9.776008874177932739e-02 -9.198404103517532349e-02 2.520753629505634308e-02 -2.003294974565505981e-02 -4.193902015686035156e-02
4.186000000000000000e+03 3.364619064331054688e+01 1.042624264955520630e-01 2.213195152580738068e-02 -1.258144900202751160e-02 2.865150570869445801e-03 -3.570469468832015991e-02
4.187000000000000000e+03 3.314983367919921875e+01 -7.385936975479125977e-01 -1.261751174926757812e+00 -2.030325829982757568e-01 -4.394351541996002197e-01 2.717940695583820343e-02
4.188000000000000000e+03 3.311226272583007812e+01 4.197925329208374023e-02 1.473658382892608643e-01 8.015963430807460099e-06 4.421215504407882690e-02 -5.971948150545358658e-03
4.189000000000000000e+03 3.293719100952148438e+01 -1.020196080207824707e-02 4.690666124224662781e-02 -6.582029908895492554e-02 -5.674090702086687088e-03 8.597430586814880371e-02
4.190000000000000000e+03 3.265475845336914062e+01 -1.659001111984252930e-01 3.612548485398292542e-02 1.426872909069061279e-01 5.364383012056350708e-02 -7.349838316440582275e-02
4.191000000000000000e+03 3.276617813110351562e+01 -5.367523804306983948e-02 -7.730685919523239136e-02 -1.679214462637901306e-02 -2.822970226407051086e-02 1.114772930741310120e-01
4.192000000000000000e+03 3.156710624694824219e+01 -1.139999270439147949e+00 -8.476760983467102051e-01 1.134516224265098572e-01 -2.202673405408859253e-01 1.999918371438980103e-01
4.193000000000000000e+03 3.131309318542480469e+01 -1.084291040897369385e-01 -5.698062777519226074e-01 -1.787800155580043793e-02 -1.763052791357040405e-01 -6.828790903091430664e-02
4.194000000000000000e+03 3.112607002258300781e+01 -1.395439654588699341e-01 -7.209434509277343750e-01 -5.638448521494865417e-02 -2.331983745098114014e-01 2.389352582395076752e-02
4.195000000000000000e+03 3.097275543212890625e+01 -1.923964768648147583e-01 -7.511467337608337402e-01 4.958387836813926697e-02 -2.104688584804534912e-01 -6.265193223953247070e-02
4.196000000000000000e+03 3.189393234252929688e+01 -1.208927392959594727e+00 -7.784809470176696777e-01 9.999424964189529419e-02 -2.035460025072097778e-01 1.699737310409545898e-01
4.197000000000000000e+03 3.421673583984375000e+01 -9.602398872375488281e-01 -3.936712145805358887e-01 6.690751761198043823e-02 -9.802910685539245605e-02 6.952942162752151489e-02
4.198000000000000000e+03 3.332613754272460938e+01 -1.090211391448974609e+00 -5.819580554962158203e-01 -8.326131850481033325e-02 -1.995658129453659058e-01 2.985096275806427002e-01
4.199000000000000000e+03 3.293823623657226562e+01 -8.090336322784423828e-01 -1.293780684471130371e+00 -5.167020559310913086e-01 -5.431448221206665039e-01 2.280015796422958374e-01
4.200000000000000000e+03 3.271237182617187500e+01 -1.201809287071228027e+00 -7.004249095916748047e-01 -1.292926222085952759e-01 -2.489152699708938599e-01 8.976918458938598633e-02
4.201000000000000000e+03 3.169081687927246094e+01 -5.910111069679260254e-01 -7.794083952903747559e-01 1.451807618141174316e-01 -1.902682930231094360e-01 1.574000269174575806e-01
4.202000000000000000e+03 3.331299209594726562e+01 -2.003788948059082031e-01 -2.112215906381607056e-01 -2.909724414348602295e-02 -7.209565490484237671e-02 -1.084942892193794250e-01
4.203000000000000000e+03 3.383176803588867188e+01 -6.687225103378295898e-01 -4.262484908103942871e-01 6.090791895985603333e-02 -1.096021682024002075e-01 -5.298177152872085571e-02
4.204000000000000000e+03 3.385493087768554688e+01 1.196751296520233154e-01 -2.926418744027614594e-02 -1.200523227453231812e-02 -1.238082628697156906e-02 -4.692167788743972778e-02
4.205000000000000000e+03 3.342586898803710938e+01 -5.869226902723312378e-02 -6.288729608058929443e-02 -3.120256401598453522e-02 -2.822695858776569366e-02 -6.731206178665161133e-02
4.206000000000000000e+03 3.086922454833984375e+01 -3.279412388801574707e-01 -9.595159292221069336e-01 -6.295985728502273560e-02 -3.067427575588226318e-01 5.493230000138282776e-02
4.207000000000000000e+03 3.162461662292480469e+01 -1.862830966711044312e-01 -4.529816508293151855e-01 5.773833021521568298e-02 -1.185729950666427612e-01 8.148839324712753296e-02
4.208000000000000000e+03 3.416860198974609375e+01 -5.028523802757263184e-01 -3.216344416141510010e-01 3.375803679227828979e-02 -8.636292815208435059e-02 -9.896472096443176270e-03
4.209000000000000000e+03 3.360907745361328125e+01 -8.425797224044799805e-01 -7.526144385337829590e-01 4.336526617407798767e-02 -2.127747535705566406e-01 7.013832032680511475e-02
4.210000000000000000e+03 3.276919937133789062e+01 -8.749681711196899414e-01 -8.247726559638977051e-01 -1.689340621232986450e-01 -2.981120049953460693e-01 1.231197416782379150e-01
4.211000000000000000e+03 3.195477485656738281e+01 -3.696976304054260254e-01 -7.301755547523498535e-01 5.267916247248649597e-02 -2.032489180564880371e-01 2.584723830223083496e-01
4.212000000000000000e+03 3.252721786499023438e+01 -1.251863598823547363e+00 -7.389027476310729980e-01 -1.233392879366874695e-01 -2.586726248264312744e-01 1.723200976848602295e-01
4.213000000000000000e+03 3.239929962158203125e+01 -9.122696518898010254e-01 -8.373013734817504883e-01 3.366813063621520996e-02 -2.410899698734283447e-01 9.486137330532073975e-02
4.214000000000000000e+03 3.327270507812500000e+01 9.752890467643737793e-02 1.131206527352333069e-01 1.201148610562086105e-03 3.429654240608215332e-02 -4.266425501555204391e-03
4.215000000000000000e+03 3.181629562377929688e+01 -2.469906955957412720e-02 -3.716772198677062988e-01 4.239502921700477600e-02 -9.878465533256530762e-02 7.620163727551698685e-03
4.216000000000000000e+03 3.197904205322265625e+01 -2.844978496432304382e-02 -2.762997448444366455e-01 -3.752928227186203003e-02 -9.414870291948318481e-02 -4.993089009076356888e-03
4.217000000000000000e+03 3.235213851928710938e+01 -1.281953215599060059e+00 -7.397753000259399414e-01 -2.515296079218387604e-02 -2.294784784317016602e-01 1.352380365133285522e-01
4.218000000000000000e+03 3.244567871093750000e+01 -7.290428280830383301e-01 -8.288586139678955078e-01 -8.044744282960891724e-02 -2.727918326854705811e-01 1.460992991924285889e-01
4.219000000000000000e+03 3.355311584472656250e+01 -1.092567682266235352e+00 -7.017714381217956543e-01 -2.625817060470581055e-02 -2.184088826179504395e-01 2.377139180898666382e-01
4.220000000000000000e+03 3.296784591674804688e+01 -4.096782803535461426e-01 -7.787090539932250977e-02 -1.531946659088134766e-01 -6.931967288255691528e-02 -9.744805097579956055e-02
4.221000000000000000e+03 3.131776237487792969e+01 -6.395704746246337891e-01 -8.482614159584045410e-01 1.101525798439979553e-01 -2.214326560497283936e-01 1.486716419458389282e-01
4.222000000000000000e+03 3.368114471435546875e+01 -1.669717580080032349e-01 -1.649677455425262451e-01 -1.745014823973178864e-02 -5.472536757588386536e-02 -8.104185014963150024e-02
4.223000000000000000e+03 3.358239364624023438e+01 -4.102739095687866211e-01 -3.763967156410217285e-01 -5.609481129795312881e-03 -1.146018654108047485e-01 -4.723909497261047363e-02
4.224000000000000000e+03 3.337776565551757812e+01 -6.060455441474914551e-01 -5.106369853019714355e-01 -2.641793340444564819e-03 -1.539836376905441284e-01 -1.084500327706336975e-01
4.225000000000000000e+03 3.123846626281738281e+01 -3.502001464366912842e-01 -8.824727535247802734e-01 1.236604712903499603e-02 -2.610320150852203369e-01 6.843867711722850800e-03
4.226000000000000000e+03 3.214323425292968750e+01 -7.637282460927963257e-02 -1.005053818225860596e-01 1.135341003537178040e-01 3.908615559339523315e-03 1.194474622607231140e-01
4.227000000000000000e+03 3.233746719360351562e+01 -2.876764535903930664e-01 -4.645019769668579102e-01 -7.999429851770401001e-02 -1.633488833904266357e-01 2.447644323110580444e-01
4.228000000000000000e+03 3.215012741088867188e+01 -8.154843449592590332e-01 -8.941854238510131836e-01 4.325847700238227844e-02 -2.552780807018280029e-01 1.938562095165252686e-01
4.229000000000000000e+03 3.147759437561035156e+01 -6.211524456739425659e-02 -5.862948894500732422e-01 6.697387993335723877e-02 -1.557963043451309204e-01 -6.663621962070465088e-02
4.230000000000000000e+03 3.163834381103515625e+01 -3.776077926158905029e-02 -5.058602094650268555e-01 -4.535033181309700012e-02 -1.653631627559661865e-01 1.502674259245395660e-02
4.231000000000000000e+03 3.183118247985839844e+01 -1.824834942817687988e-01 -4.154492914676666260e-01 -1.133259385824203491e-02 -1.280345618724822998e-01 1.066698729991912842e-01
4.232000000000000000e+03 3.344159317016601562e+01 1.166179478168487549e-01 7.068980485200881958e-02 -1.676428876817226410e-02 1.617765612900257111e-02 -1.523343753069639206e-02
4.233000000000000000e+03 3.375662612915039062e+01 -1.085907697677612305e+00 -5.294635891914367676e-01 4.795875772833824158e-02 -1.444514393806457520e-01 1.878878474235534668e-01
4.234000000000000000e+03 3.311204147338867188e+01 -1.131238102912902832e+00 -5.986741781234741211e-01 -2.606739699840545654e-01 -2.578044533729553223e-01 2.217447161674499512e-01
4.235000000000000000e+03 3.291574096679687500e+01 -1.168885946273803711e+00 -8.184782862663269043e-01 -3.703544735908508301e-01 -3.566498458385467529e-01 1.364733129739761353e-01
4.236000000000000000e+03 3.215005874633789062e+01 -1.031110167503356934e+00 -7.870769500732421875e-01 6.236707046627998352e-02 -2.174129635095596313e-01 1.660079210996627808e-01
4.237000000000000000e+03 3.214545440673828125e+01 -1.263760447502136230e+00 -7.643495202064514160e-01 -3.068557009100914001e-02 -2.385105341672897339e-01 1.747778952121734619e-01
4.238000000000000000e+03 3.192040824890136719e+01 -8.839121460914611816e-01 -8.455948233604431152e-01 6.067776307463645935e-02 -2.354751229286193848e-01 1.727765947580337524e-01
4.239000000000000000e+03 3.315047454833984375e+01 -3.186087310314178467e-01 -2.947583198547363281e-01 -1.585739403963088989e-01 -1.359996795654296875e-01 -5.640264227986335754e-02
4.240000000000000000e+03 3.148613548278808594e+01 -3.122936487197875977e-01 -8.205423951148986816e-01 1.052096188068389893e-01 -2.145998328924179077e-01 1.134084537625312805e-01
4.241000000000000000e+03 3.237022781372070312e+01 -1.101313352584838867e+00 -7.856665253639221191e-01 -8.419051021337509155e-02 -2.609571218490600586e-01 1.305288523435592651e-01
4.242000000000000000e+03 3.256470108032226562e+01 -6.016697287559509277e-01 -9.757913947105407715e-01 -1.486586630344390869e-01 -3.373350203037261963e-01 1.835491359233856201e-01
4.243000000000000000e+03 3.260083007812500000e+01 -9.403727054595947266e-01 -8.779324889183044434e-01 -1.918414682149887085e-01 -3.209321796894073486e-01 1.551599651575088501e-01
4.244000000000000000e+03 3.262161254882812500e+01 -4.030735492706298828e-01 -6.286978721618652344e-01 -2.698587179183959961e-01 -2.695669829845428467e-01 3.079625368118286133e-01
4.245000000000000000e+03 3.219610214233398438e+01 -5.578918457031250000e-01 -7.860993146896362305e-01 1.131854429841041565e-01 -2.018741518259048462e-01 1.181399077177047729e-01
4.246000000000000000e+03 3.048606872558593750e+01 2.310402989387512207e-01 -2.418054100417066365e-05 -5.595426409854553640e-05 -2.404044244030956179e-05 2.694915201573166996e-05
4.247000000000000000e+03 3.067443084716796875e+01 8.053497970104217529e-02 5.337384664017008618e-06 3.572326022549532354e-06 2.672913296919432469e-06 2.839272747223731130e-05
4.248000000000000000e+03 3.083256912231445312e+01 7.534402608871459961e-02 -2.778131056402344257e-05 5.202513057156465948e-05 7.273145911312894896e-06 7.857099262764677405e-06
4.249000000000000000e+03 3.146447753906250000e+01 1.434350162744522095e-01 6.203451448527630419e-06 9.034099548443919048e-07 2.132058398274239153e-06 -4.723928668681764975e-06
4.250000000000000000e+03 3.169309043884277344e+01 2.968901693820953369e-01 -8.247220648627262563e-06 1.373981035612814594e-06 -2.061972054434590973e-06 3.312545459266402759e-06
4.251000000000000000e+03 3.156153106689453125e+01 5.812429189682006836e-01 2.866238673959742300e-06 8.016125320864375681e-06 3.264708993810927495e-06 -4.781226380146108568e-06
4.252000000000000000e+03 3.117042160034179688e+01 1.019975543022155762e-01 -5.589720331045100465e-06 1.636492561374325305e-05 3.232561766708386131e-06 2.743894583545625210e-06
4.253000000000000000e+03 3.075090408325195312e+01 3.309426605701446533e-01 3.713316118592047133e-06 4.535185507847927511e-05 1.471955147280823439e-05 -2.112207403115462512e-05
4.254000000000000000e+03 3.095979499816894531e+01 2.792930305004119873e-01 4.499873830354772508e-05 2.823197291945689358e-06 1.434658042853698134e-05 -3.612243062889319845e-06
4.255000000000000000e+03 3.131006622314453125e+01 2.190151810646057129e-01 2.536983629397582263e-05 1.799807591851276811e-06 8.150893336278386414e-06 -3.597756631279480644e-06
4.256000000000000000e+03 3.163131332397460938e+01 1.642359793186187744e-01 -5.908134426135802642e-07 -8.641806743980851024e-06 -2.769785851342021488e-06 6.253311767068225890e-06
4.257000000000000000e+03 3.180051803588867188e+01 1.577325165271759033e-01 -1.365807065667468123e-06 3.133748577965889126e-06 5.303824650582100730e-07 8.341783086507348344e-07
4.258000000000000000e+03 3.122459983825683594e+01 4.408085644245147705e-01 -1.073886596714146435e-05 -1.342182895314181224e-05 -7.248208476084982976e-06 1.002732278720941395e-05
4.259000000000000000e+03 3.100239944458007812e+01 9.454712271690368652e-02 -2.913433309004176408e-05 -3.859069329337216914e-05 -2.031750773312523961e-05 -2.532591497583780438e-05
4.260000000000000000e+03 3.131899452209472656e+01 9.043892472982406616e-02 -1.090106434276094660e-05 -8.568084922444541007e-06 -5.840744506713235751e-06 -4.705712854047305882e-06
4.261000000000000000e+03 3.191551780700683594e+01 2.150069624185562134e-01 3.282736713572376175e-07 4.450194410310359672e-06 1.433540433026792016e-06 -3.449559926593792625e-06
4.262000000000000000e+03 3.196529197692871094e+01 3.894459009170532227e-01 -6.997071864134341013e-07 -5.221797891863388941e-06 -1.776451540536072571e-06 2.145999815184040926e-06
4.263000000000000000e+03 3.252656173706054688e+01 1.474916934967041016e+00 9.765214781509712338e-05 -1.302768068853765726e-04 -9.787399903871119022e-06 -1.840695585997309536e-05
4.264000000000000000e+03 3.277453613281250000e+01 3.826866447925567627e-01 7.813900083419866860e-06 -1.099231030821101740e-05 -9.535229992252425291e-07 2.692002908588619903e-06
4.265000000000000000e+03 3.231996536254882812e+01 1.288083195686340332e+00 4.708645792561583221e-05 8.008674922166392207e-05 3.815196032519452274e-05 -3.660057336674071848e-05
4.266000000000000000e+03 3.247399902343750000e+01 7.846297025680541992e-01 3.316627044114284217e-05 4.904032539343461394e-05 2.466197838657535613e-05 -4.084016109118238091e-05
4.267000000000000000e+03 3.306614303588867188e+01 1.100092530250549316e+00 -1.450711570214480162e-04 -5.669731035595759749e-05 -6.053053948562592268e-05 -5.627913196804001927e-06
4.268000000000000000e+03 3.320626068115234375e+01 3.682013154029846191e-01 7.028815616649808362e-06 -5.926126959820976481e-06 3.308065572582563618e-07 -2.016494727286044508e-05
4.269000000000000000e+03 3.299676895141601562e+01 7.458893656730651855e-01 9.448381752008572221e-05 -4.282160261936951429e-06 2.706049781409092247e-05 -2.117738586093764752e-05
4.270000000000000000e+03 3.355887222290039062e+01 3.570089340209960938e-01 -4.410732435644604266e-05 7.217200618470087647e-05 8.419405276072211564e-06 -1.310154038947075605e-05
4.271000000000000000e+03 3.384705734252929688e+01 4.833906590938568115e-01 -3.304139681858941913e-05 -7.121246017049998045e-05 -3.127615491393953562e-05 3.763566928682848811e-05
4.272000000000000000e+03 3.371740341186523438e+01 4.005685746669769287e-01 -1.505461932538310066e-05 7.183885827544145286e-06 -2.361219912927481346e-06 -3.939736780012026429e-05
4.273000000000000000e+03 3.209313583374023438e+01 9.748304486274719238e-01 -4.243291186867281795e-05 -2.141092772944830358e-05 -1.915315260703209788e-05 2.858116204151883721e-05
4.274000000000000000e+03 3.339539337158203125e+01 3.439426422119140625e-01 -3.905557605321519077e-05 -6.115467112977057695e-05 -3.006307451869361103e-05 5.115082240081392229e-05
4.275000000000000000e+03 3.342350387573242188e+01 8.909338712692260742e-01 8.142965816659852862e-05 1.088493154384195805e-04 5.708369280910119414e-05 -6.979232421144843102e-05
4.276000000000000000e+03 3.273265075683593750e+01 7.511296272277832031e-01 1.443014480173587799e-05 -2.725278136495035142e-05 -3.846791059913812205e-06 -1.427908227924490348e-05
4.277000000000000000e+03 3.299393081665039062e+01 3.836881220340728760e-01 -2.060727820207830518e-05 2.467709055054001510e-05 1.220943772750615608e-06 8.917335435398854315e-06
4.278000000000000000e+03 3.326683044433593750e+01 6.439960002899169922e-01 -5.376710419113805983e-07 -7.276496035046875477e-05 -2.199078880948945880e-05 7.115248445188626647e-05
4.279000000000000000e+03 3.272225189208984375e+01 1.501854300498962402e+00 -7.680854469072073698e-05 1.545683699077926576e-05 -1.840551158238667995e-05 9.099714952753856778e-05
4.280000000000000000e+03 3.258716964721679688e+01 1.023952603340148926e+00 -9.455881081521511078e-05 -3.411180659895762801e-05 -3.860118522425182164e-05 2.352953924855682999e-05
4.281000000000000000e+03 3.220250701904296875e+01 4.758601486682891846e-01 2.312502147105988115e-05 5.931306077400222421e-06 8.716898264538031071e-06 -1.337578214588575065e-05
4.282000000000000000e+03 3.345799636840820312e+01 5.111693739891052246e-01 1.178203638119157404e-05 7.973341416800394654e-05 2.745463461906183511e-05 -1.670515121077187359e-05
4.283000000000000000e+03 3.253543472290039062e+01 3.972842991352081299e-01 -1.070769121724879369e-05 -5.648735168506391346e-06 -4.906927642878144979e-06 1.104592229239642620e-05
4.284000000000000000e+03 3.273504638671875000e+01 1.226690053939819336e+00 9.453680104343220592e-05 7.561087841168045998e-05 5.104430238134227693e-05 -3.654494867078028619e-05
4.285000000000000000e+03 3.299623489379882812e+01 1.477275013923645020e+00 2.005423993978183717e-05 -7.628231833223253489e-05 -1.686842369963414967e-05 6.761103577446192503e-05
4.286000000000000000e+03 3.361579895019531250e+01 6.195395588874816895e-01 7.771199307171627879e-05 3.147141615045256913e-05 3.275502240285277367e-05 1.059521855495404452e-05
4.287000000000000000e+03 2.781990051269531250e+01 -2.360724806785583496e-01 -2.249909564852714539e-03 2.093503717333078384e-03 -4.692179572884924710e-05 1.683855807641521096e-04
4.288000000000000000e+03 2.646029090881347656e+01 7.749882936477661133e-01 -3.633475303649902344e-02 3.488009795546531677e-02 -4.363959305919706821e-04 -7.560032606124877930e-02
4.289000000000000000e+03 2.671755599975585938e+01 8.129853606224060059e-01 4.893149249255657196e-03 7.609732449054718018e-02 2.429714240133762360e-02 -8.138775825500488281e-02
4.290000000000000000e+03 2.685140991210937500e+01 5.993382930755615234e-01 -6.387098878622055054e-02 8.677089214324951172e-02 6.869970355182886124e-03 -5.062729492783546448e-02
4.291000000000000000e+03 2.615445137023925781e+01 6.092628836631774902e-01 -1.291184723377227783e-01 -9.590706229209899902e-02 -6.750766187906265259e-02 -1.452276110649108887e-02
4.292000000000000000e+03 2.578784370422363281e+01 5.081817507743835449e-01 -2.382166534662246704e-01 -2.476927191019058228e-01 -1.457728147506713867e-01 1.433516889810562134e-01
4.293000000000000000e+03 2.515849876403808594e+01 3.271711468696594238e-01 -5.243389606475830078e-01 -1.850850880146026611e-01 -2.128272205591201782e-01 3.797649443149566650e-01
4.294000000000000000e+03 2.528490638732910156e+01 -1.167485713958740234e+00 -1.640220999717712402e+00 -2.880055829882621765e-02 -5.007064342498779297e-01 9.928029030561447144e-02
4.295000000000000000e+03 2.597053718566894531e+01 -1.693393230438232422e+00 -1.358184576034545898e+00 -4.592781364917755127e-01 -5.452387928962707520e-01 5.812677368521690369e-02
4.296000000000000000e+03 2.837369155883789062e+01 -1.667419314384460449e+00 -1.295516610145568848e+00 1.024944148957729340e-02 -3.855801522731781006e-01 2.493682801723480225e-01
4.297000000000000000e+03 2.616794013977050781e+01 -1.584699869155883789e+00 -1.445127844810485840e+00 -4.816851615905761719e-01 -5.780438780784606934e-01 1.301832646131515503e-01
4.298000000000000000e+03 2.545707130432128906e+01 -1.382107138633728027e+00 -1.600167632102966309e+00 -1.364032626152038574e-01 -5.209712386131286621e-01 8.276044391095638275e-03
4.299000000000000000e+03 2.507384490966796875e+01 -2.928588986396789551e-01 -1.214730024337768555e+00 -2.061313576996326447e-02 -3.706029355525970459e-01 5.058269500732421875e-01
4.300000000000000000e+03 2.553544807434082031e+01 3.138064444065093994e-01 -3.790643215179443359e-01 -3.059828877449035645e-01 -2.055141627788543701e-01 3.065617382526397705e-01
4.301000000000000000e+03 2.596484184265136719e+01 5.645281076431274414e-01 -1.606151014566421509e-01 -1.784679889678955078e-01 -1.017249301075935364e-01 4.870971664786338806e-02
4.302000000000000000e+03 2.878841018676757812e+01 -7.704266905784606934e-02 -5.204147964832372963e-05 7.112133898772299290e-04 1.977515785256400704e-04 -4.598110535880550742e-05
4.303000000000000000e+03 2.790844726562500000e+01 2.747163772583007812e-01 7.908723200671374798e-04 6.381138227880001068e-03 2.151603111997246742e-03 -3.630550927482545376e-04
4.304000000000000000e+03 2.716904640197753906e+01 -9.880415350198745728e-02 1.021354272961616516e-02 4.082813486456871033e-02 1.531250309199094772e-02 4.709868505597114563e-02
4.305000000000000000e+03 2.750106239318847656e+01 6.892876625061035156e-01 7.225149311125278473e-03 1.608689501881599426e-02 6.993613671511411667e-03 -1.288737077265977859e-02
4.306000000000000000e+03 2.659551811218261719e+01 9.028003811836242676e-01 4.404473677277565002e-02 7.270910590887069702e-02 3.502615168690681458e-02 -8.870796114206314087e-02
4.307000000000000000e+03 2.561998748779296875e+01 4.662799537181854248e-01 -3.036082386970520020e-01 -2.423273473978042603e-01 -1.637806743383407593e-01 2.100850343704223633e-01
4.308000000000000000e+03 2.546137046813964844e+01 4.314995408058166504e-01 -3.824969828128814697e-01 -2.400899231433868408e-01 -1.867760717868804932e-01 2.749731540679931641e-01
4.309000000000000000e+03 2.541918945312500000e+01 2.043535113334655762e-01 -6.062155961990356445e-01 -2.580567598342895508e-01 -2.592816948890686035e-01 3.972783386707305908e-01
4.310000000000000000e+03 2.514461708068847656e+01 1.484151929616928101e-01 -6.868620514869689941e-01 -1.134756356477737427e-01 -2.401013076305389404e-01 3.506567776203155518e-01
4.311000000000000000e+03 3.124060249328613281e+01 -1.303454041481018066e+00 -8.684177398681640625e-01 9.968435764312744141e-02 -2.306200265884399414e-01 2.321421951055526733e-01
4.312000000000000000e+03 3.089070892333984375e+01 -1.371482610702514648e+00 -8.754551410675048828e-01 7.225649803876876831e-02 -2.409595996141433716e-01 2.379411011934280396e-01
4.313000000000000000e+03 3.008119964599609375e+01 -2.816029489040374756e-01 -1.185720324516296387e+00 -5.777882877737283707e-03 -3.574494719505310059e-01 -6.940533220767974854e-02
4.314000000000000000e+03 2.892089462280273438e+01 -1.029202699661254883e+00 -1.394067406654357910e+00 2.169545926153659821e-02 -4.117115736007690430e-01 8.404286205768585205e-02
4.315000000000000000e+03 2.867807006835937500e+01 -7.479233145713806152e-01 -1.554576635360717773e+00 1.212784461677074432e-02 -4.627346396446228027e-01 -2.705738414078950882e-03
4.316000000000000000e+03 2.775576591491699219e+01 -1.722179293632507324e+00 -1.368659496307373047e+00 -6.679735332727432251e-02 -4.306370615959167480e-01 2.757470011711120605e-01
4.317000000000000000e+03 2.707432937622070312e+01 -1.548220634460449219e+00 -1.586184978485107422e+00 -2.320001572370529175e-01 -5.454555153846740723e-01 3.189777135848999023e-01
4.318000000000000000e+03 3.027514839172363281e+01 -2.667401432991027832e-01 -1.112937450408935547e+00 2.356327883899211884e-02 -3.268122673034667969e-01 -5.590327084064483643e-02
4.319000000000000000e+03 2.954090499877929688e+01 -1.550057530403137207e+00 -1.089528203010559082e+00 6.275452673435211182e-02 -3.080320954322814941e-01 2.341220825910568237e-01
4.320000000000000000e+03 2.804059028625488281e+01 -4.530044198036193848e-01 -1.869100928306579590e+00 -6.824597716331481934e-03 -5.627776384353637695e-01 -1.462762057781219482e-01
4.321000000000000000e+03 2.824248123168945312e+01 -4.449058473110198975e-01 -1.788296580314636230e+00 -9.376397356390953064e-03 -5.393019318580627441e-01 -1.357091516256332397e-01
4.322000000000000000e+03 2.719761276245117188e+01 -9.446302652359008789e-01 -2.085021257400512695e+00 -5.835979431867599487e-02 -6.430143117904663086e-01 1.280788183212280273e-01
4.323000000000000000e+03 2.722833442687988281e+01 -7.250214219093322754e-01 -2.223317861557006836e+00 -2.513065189123153687e-02 -6.745344996452331543e-01 -1.608171500265598297e-02
4.324000000000000000e+03 2.723756790161132812e+01 -5.151501893997192383e-01 -2.277337312698364258e+00 -9.265455417335033417e-03 -6.859808564186096191e-01 -1.680109649896621704e-01
4.325000000000000000e+03 2.515667152404785156e+01 -8.476480245590209961e-01 -1.576206564903259277e+00 1.038602218031883240e-01 -4.417038857936859131e-01 1.776843070983886719e-01
4.326000000000000000e+03 2.675755500793457031e+01 -1.431399822235107422e+00 -1.675373315811157227e+00 -3.637981712818145752e-01 -6.117514371871948242e-01 3.445909321308135986e-01
4.327000000000000000e+03 2.721723747253417969e+01 -3.033818006515502930e-01 4.170339554548263550e-02 1.052346732467412949e-02 1.566805876791477203e-02 2.502450346946716309e-02
4.328000000000000000e+03 2.635912895202636719e+01 5.831415057182312012e-01 -1.130408495664596558e-01 -7.558349985629320145e-03 -3.617975860834121704e-02 -5.452338606119155884e-02
4.329000000000000000e+03 2.528482055664062500e+01 2.188069820404052734e-01 -6.233848333358764648e-01 -2.148446738719940186e-01 -2.514688372611999512e-01 3.926843404769897461e-01
4.330000000000000000e+03 2.822923660278320312e+01 -1.914909631013870239e-01 -1.272575813345611095e-03 -1.162805419880896807e-04 -4.166568978689610958e-04 -2.992007939610630274e-04
4.331000000000000000e+03 2.966212654113769531e+01 4.668440297245979309e-02 -3.600916897994466126e-05 -9.893266542349010706e-05 -4.048255141242407262e-05 -8.605999937572050840e-06
4.332000000000000000e+03 3.001603126525878906e+01 2.810606360435485840e-01 1.274920214200392365e-05 9.604118531569838524e-05 3.263711550971493125e-05 -1.509322646597865969e-05
4.333000000000000000e+03 3.014229011535644531e+01 3.720963746309280396e-02 7.306870770662499126e-07 -2.699978267628466710e-06 -5.907873514843231533e-07 -1.580364187248051167e-05
4.334000000000000000e+03 2.529310226440429688e+01 8.253997564315795898e-02 -6.904075145721435547e-01 -2.102659046649932861e-01 -2.702020406723022461e-01 4.174655079841613770e-01
4.335000000000000000e+03 2.677220344543457031e+01 4.099597036838531494e-01 -1.145968511700630188e-01 1.013652458786964417e-01 -3.969482146203517914e-03 -2.971490472555160522e-02
4.336000000000000000e+03 2.790239715576171875e+01 5.528707504272460938e-01 -8.307669777423143387e-04 4.188462626188993454e-03 1.007308717817068100e-03 -1.283023622818291187e-03
4.337000000000000000e+03 2.709368515014648438e+01 9.841948002576828003e-02 -3.890461102128028870e-02 8.168156445026397705e-02 1.283308584243059158e-02 3.784462064504623413e-02
4.338000000000000000e+03 2.739620018005371094e+01 -4.905321821570396423e-02 2.829427830874919891e-03 2.530805394053459167e-02 8.441244252026081085e-03 2.486099302768707275e-02
4.339000000000000000e+03 2.778038978576660156e+01 -2.680426090955734253e-02 3.145165042951703072e-03 2.164598321542143822e-03 1.592929009348154068e-03 1.413072459399700165e-03
4.340000000000000000e+03 2.504582786560058594e+01 -6.777805089950561523e-01 -1.407601118087768555e+00 9.247716516256332397e-02 -3.945371806621551514e-01 3.297269940376281738e-01
4.341000000000000000e+03 2.517080116271972656e+01 -5.117816478013992310e-02 -1.014560341835021973e+00 -6.441476196050643921e-02 -3.236925303936004639e-01 4.450109302997589111e-01
4.342000000000000000e+03 2.726543045043945312e+01 4.595450162887573242e-01 -2.522831596434116364e-02 5.907108634710311890e-02 1.015283074229955673e-02 -1.724326051771640778e-02
4.343000000000000000e+03 2.696632385253906250e+01 2.802588045597076416e-01 -8.560673892498016357e-02 1.023897528648376465e-01 5.034905392676591873e-03 7.379206828773021698e-03
4.344000000000000000e+03 2.656919479370117188e+01 -1.512916088104248047e+00 -1.550738811492919922e+00 -4.084420502185821533e-01 -5.877542495727539062e-01 3.355270326137542725e-01
4.345000000000000000e+03 2.524217987060546875e+01 -1.495204806327819824e+00 -1.453893184661865234e+00 -1.182320807129144669e-02 -4.397149085998535156e-01 5.692463368177413940e-03
4.346000000000000000e+03 2.580084037780761719e+01 -1.548887729644775391e+00 -1.445071101188659668e+00 -4.031979441642761230e-01 -5.544807314872741699e-01 5.268929898738861084e-02
4.347000000000000000e+03 2.591897010803222656e+01 -1.845341563224792480e+00 -1.236194968223571777e+00 -3.573392629623413086e-01 -4.780602455139160156e-01 6.548743695020675659e-02
4.348000000000000000e+03 2.644226455688476562e+01 -1.709385395050048828e+00 -1.366706371307373047e+00 -3.713614940643310547e-01 -5.214203596115112305e-01 2.796258926391601562e-01
4.349000000000000000e+03 2.816950225830078125e+01 -1.683254241943359375e+00 -1.333914160728454590e+00 -1.664483360946178436e-02 -4.051676988601684570e-01 2.561476826667785645e-01
4.350000000000000000e+03 2.744405555725097656e+01 -7.266522645950317383e-01 -2.092125892639160156e+00 -1.054526586085557938e-02 -6.308013200759887695e-01 -3.069867193698883057e-02
4.351000000000000000e+03 2.512719154357910156e+01 -7.094663977622985840e-01 -1.517749428749084473e+00 6.143661960959434509e-02 -4.368938207626342773e-01 3.521099388599395752e-01
4.352000000000000000e+03 2.637152290344238281e+01 -1.564704656600952148e+00 -1.506687641143798828e+00 -4.426078200340270996e-01 -5.847886204719543457e-01 2.311757206916809082e-01
4.353000000000000000e+03 2.559491157531738281e+01 -1.626361131668090820e+00 -1.392577886581420898e+00 -1.717267632484436035e-01 -4.692913889884948730e-01 6.429624557495117188e-02
4.354000000000000000e+03 2.519227409362792969e+01 -9.742129445075988770e-01 -1.652201175689697266e+00 6.214607506990432739e-02 -4.770165383815765381e-01 1.724923849105834961e-01
4.355000000000000000e+03 2.694959831237792969e+01 -1.828551173210144043e+00 -1.356362819671630859e+00 -2.782321870326995850e-01 -4.903784990310668945e-01 3.129747509956359863e-01
4.356000000000000000e+03 3.071470832824707031e+01 -7.099655270576477051e-01 -1.008864164352416992e+00 6.067746505141258240e-02 -2.844560146331787109e-01 9.435462951660156250e-02
4.357000000000000000e+03 2.735287666320800781e+01 -1.777114272117614746e+00 -1.386999964714050293e+00 -1.672374010086059570e-01 -4.662712216377258301e-01 3.161785006523132324e-01
4.358000000000000000e+03 2.755428123474121094e+01 -1.753542184829711914e+00 -1.394471049308776855e+00 -1.031870692968368530e-01 -4.492974281311035156e-01 3.039093911647796631e-01
4.359000000000000000e+03 3.135067749023437500e+01 -1.199893712997436523e+00 -8.501888513565063477e-01 8.091087639331817627e-02 -2.307834029197692871e-01 2.245929688215255737e-01
4.360000000000000000e+03 3.106115722656250000e+01 -9.513271450996398926e-01 -8.451738953590393066e-01 3.263805434107780457e-02 -2.437607496976852417e-01 1.920910477638244629e-01
4.361000000000000000e+03 3.107223701477050781e+01 -1.337526679039001465e+00 -8.427469730377197266e-01 7.999524474143981934e-02 -2.288255244493484497e-01 2.518894374370574951e-01
4.362000000000000000e+03 2.715109252929687500e+01 -1.798541426658630371e+00 -1.372004032135009766e+00 -2.020526826381683350e-01 -4.722170233726501465e-01 3.168703913688659668e-01
4.363000000000000000e+03 2.674503326416015625e+01 -1.859190106391906738e+00 -1.309950828552246094e+00 -3.014254868030548096e-01 -4.834128916263580322e-01 2.903695404529571533e-01
4.364000000000000000e+03 2.906841278076171875e+01 -3.854454159736633301e-01 -1.518920063972473145e+00 -6.950149778276681900e-03 -4.577610492706298828e-01 -1.073981672525405884e-01
4.365000000000000000e+03 2.910834693908691406e+01 -1.358438611030578613e+00 -1.250900626182556152e+00 4.183116182684898376e-02 -3.627208471298217773e-01 1.841861456632614136e-01
4.366000000000000000e+03 2.915472984313964844e+01 -1.597915291786193848e+00 -1.144715428352355957e+00 4.857526719570159912e-02 -3.288420438766479492e-01 2.435105592012405396e-01
4.367000000000000000e+03 2.968448257446289062e+01 -3.178385496139526367e-01 -1.313810229301452637e+00 -5.697318818420171738e-03 -3.958522677421569824e-01 -8.987188339233398438e-02
4.368000000000000000e+03 2.865559959411621094e+01 -4.283179044723510742e-01 -1.648429751396179199e+00 -6.219855044037103653e-03 -4.963948726654052734e-01 -1.213080510497093201e-01
4.369000000000000000e+03 2.826641464233398438e+01 2.519997358322143555e-01 1.753168995492160320e-03 -1.850547501817345619e-03 -2.921355007856618613e-05 -2.545554307289421558e-04
4.370000000000000000e+03 2.842575073242187500e+01 -1.913074105978012085e-01 -2.969661145471036434e-04 5.468306480906903744e-04 7.495936006307601929e-05 -8.826621924526989460e-04
4.371000000000000000e+03 2.944804954528808594e+01 -8.972559869289398193e-02 -5.757476901635527611e-05 -8.782384975347667933e-05 -4.361958781373687088e-05 -4.542965325526893139e-05
4.372000000000000000e+03 3.029812240600585938e+01 1.053279787302017212e-01 3.459219442447647452e-05 -8.455926035821903497e-06 7.840880243747960776e-06 -3.596489841584116220e-05
4.373000000000000000e+03 2.950048637390136719e+01 3.034934401512145996e-01 -4.064428139827214181e-05 -6.695207412121817470e-05 -3.227890556445345283e-05 -4.579303276841528714e-05
4.374000000000000000e+03 2.944606971740722656e+01 7.450585067272186279e-02 7.638688111910596490e-05 1.110675948439165950e-04 5.623634206131100655e-05 2.816052619891706854e-05
4.375000000000000000e+03 2.802137947082519531e+01 -2.082492411136627197e-01 -1.914537861011922359e-03 -6.362300482578575611e-04 -7.652303902432322502e-04 -8.330082637257874012e-04
4.376000000000000000e+03 2.904725456237792969e+01 -2.856845781207084656e-02 2.073430550808552653e-05 -2.745626843534410000e-04 -7.614851347170770168e-05 -7.186016591731458902e-05
4.377000000000000000e+03 3.051279258728027344e+01 -1.431428551673889160e+00 -9.268031120300292969e-01 6.947589665651321411e-02 -2.571981549263000488e-01 2.336747199296951294e-01
4.378000000000000000e+03 2.844971275329589844e+01 -7.393308877944946289e-01 -1.637501001358032227e+00 8.817155845463275909e-03 -4.886051416397094727e-01 -1.665724255144596100e-02
4.379000000000000000e+03 2.844795036315917969e+01 -4.390898346900939941e-01 -1.714677929878234863e+00 -8.330127224326133728e-03 -5.169024467468261719e-01 -1.286458224058151245e-01
4.380000000000000000e+03 2.784181976318359375e+01 -6.897981166839599609e-01 -1.885555028915405273e+00 1.097775413654744625e-03 -5.653371810913085938e-01 -5.343001708388328552e-02
4.381000000000000000e+03 2.784101295471191406e+01 -4.653589725494384766e-01 -1.956070661544799805e+00 -1.514828577637672424e-02 -5.913656949996948242e-01 -1.542563140392303467e-01
4.382000000000000000e+03 2.764116668701171875e+01 -4.829903542995452881e-01 -2.050521612167358398e+00 -9.833937510848045349e-03 -6.181067228317260742e-01 -1.618121862411499023e-01
4.383000000000000000e+03 2.927213668823242188e+01 -3.567369878292083740e-01 -1.450964927673339844e+00 -4.720173776149749756e-03 -4.367055296897888184e-01 -1.010578870773315430e-01
4.384000000000000000e+03 2.882881164550781250e+01 -1.215668559074401855e+00 -1.344371914863586426e+00 2.674976177513599396e-02 -3.952866494655609131e-01 1.491052359342575073e-01
4.385000000000000000e+03 2.858909034729003906e+01 1.528998911380767822e-01 -3.173496224917471409e-04 -6.966477958485484123e-04 -3.041992313228547573e-04 5.108296172693371773e-04
4.386000000000000000e+03 2.688063049316406250e+01 7.684969902038574219e-01 -9.392366744577884674e-03 8.085737377405166626e-02 2.143950201570987701e-02 -7.664790749549865723e-02
4.387000000000000000e+03 2.871318817138671875e+01 3.976906836032867432e-01 6.847571785328909755e-05 2.895971410907804966e-04 1.074218598660081625e-04 -2.068722969852387905e-04
4.388000000000000000e+03 2.493860626220703125e+01 -9.964184761047363281e-01 -1.512225866317749023e+00 1.700095683336257935e-01 -4.026648998260498047e-01 2.044570446014404297e-01
4.389000000000000000e+03 2.857298660278320312e+01 -1.650406837463378906e+00 -1.272109627723693848e+00 1.930823735892772675e-02 -3.758403956890106201e-01 2.485725283622741699e-01
4.390000000000000000e+03 2.875557708740234375e+01 -1.394296050071716309e+00 -1.314790129661560059e+00 2.799742482602596283e-02 -3.860378265380859375e-01 1.874671429395675659e-01
4.391000000000000000e+03 2.694132995605468750e+01 -1.321903228759765625e+00 -1.788060903549194336e+00 -2.315007746219635010e-01 -6.058685183525085449e-01 3.273761868476867676e-01
4.392000000000000000e+03 2.973933601379394531e+01 -1.530803084373474121e+00 -1.058300614356994629e+00 6.327550113201141357e-02 -2.985075414180755615e-01 2.350414097309112549e-01
4.393000000000000000e+03 3.013170623779296875e+01 -1.486040472984313965e+00 -9.935688376426696777e-01 6.772767752408981323e-02 -2.777523398399353027e-01 2.405251711606979370e-01
4.394000000000000000e+03 2.962875556945800781e+01 -1.063020944595336914e+00 -1.186337590217590332e+00 4.603178799152374268e-02 -3.420917391777038574e-01 1.397005915641784668e-01
4.395000000000000000e+03 3.039701271057128906e+01 -1.152016401290893555e+00 -1.005293369293212891e+00 7.692383229732513428e-02 -2.785108685493469238e-01 1.864401549100875854e-01
4.396000000000000000e+03 2.796207809448242188e+01 -1.698634266853332520e+00 -1.354679703712463379e+00 -3.716025501489639282e-02 -4.175519645214080811e-01 2.694279551506042480e-01
4.397000000000000000e+03 3.057217597961425781e+01 -1.112314343452453613e+00 -9.783479571342468262e-01 6.452842801809310913e-02 -2.741458415985107422e-01 1.751388907432556152e-01
4.398000000000000000e+03 2.993740844726562500e+01 -1.510368824005126953e+00 -1.022083401679992676e+00 7.530970126390457153e-02 -2.840321063995361328e-01 2.403243333101272583e-01
4.399000000000000000e+03 2.947127151489257812e+01 -1.292900323867797852e+00 -1.163852453231811523e+00 4.742814972996711731e-02 -3.349272906780242920e-01 1.813398599624633789e-01
4.400000000000000000e+03 2.892973709106445312e+01 -1.382635354995727539e+00 -1.274165987968444824e+00 4.323326796293258667e-02 -3.692798018455505371e-01 1.929453760385513306e-01
4.401000000000000000e+03 2.927618789672851562e+01 -6.425587832927703857e-02 5.438889638753607869e-05 2.146797487512230873e-04 8.072059426922351122e-05 1.295132096856832504e-04
4.402000000000000000e+03 2.765856552124023438e+01 1.621758788824081421e-01 -2.076078439131379128e-03 1.598857901990413666e-02 4.173750523477792740e-03 3.141989931464195251e-03
4.403000000000000000e+03 2.976152038574218750e+01 -6.182944774627685547e-01 -1.241114020347595215e+00 2.581109292805194855e-02 -3.645908534526824951e-01 1.749125309288501740e-02
4.404000000000000000e+03 2.947806930541992188e+01 -3.339114189147949219e-01 -1.381010055541992188e+00 -6.756246089935302734e-03 -4.163299202919006348e-01 -9.430882334709167480e-02
4.405000000000000000e+03 3.009435653686523438e+01 -9.150875210762023926e-01 -1.107011318206787109e+00 5.717250704765319824e-02 -3.149516582489013672e-01 1.207638680934906006e-01
4.406000000000000000e+03 2.856544685363769531e+01 -1.390156388282775879e+00 -1.356876730918884277e+00 1.860867813229560852e-02 -4.014804065227508545e-01 1.874694675207138062e-01
4.407000000000000000e+03 3.034239959716796875e+01 -5.648652315139770508e-01 -1.076729416847229004e+00 2.106549777090549469e-02 -3.166991770267486572e-01 4.235992580652236938e-02
4.408000000000000000e+03 2.734449577331542969e+01 -1.325474739074707031e+00 -1.728048205375671387e+00 -1.043360829353332520e-01 -5.497152805328369141e-01 2.499194890260696411e-01
4.409000000000000000e+03 2.710558700561523438e+01 -1.159500002861022949e+00 -1.942052364349365234e+00 -1.491655707359313965e-01 -6.273653507232666016e-01 2.540006637573242188e-01
4.410000000000000000e+03 2.664535522460937500e+01 6.655923128128051758e-01 -7.666178047657012939e-02 7.706073671579360962e-02 1.196881203213706613e-04 -6.858111917972564697e-02
4.411000000000000000e+03 2.739227104187011719e+01 2.043175101280212402e-01 -1.438608765602111816e-02 3.977797180414199829e-02 7.617564871907234192e-03 9.950135834515094757e-03
4.412000000000000000e+03 2.934688377380371094e+01 -1.574162364006042480e+00 -1.108683705329895020e+00 4.957482218742370605e-02 -3.177326917648315430e-01 2.415432929992675781e-01
4.413000000000000000e+03 3.032261085510253906e+01 -1.459050178527832031e+00 -9.572842121124267578e-01 8.213115483522415161e-02 -2.625459134578704834e-01 2.442455738782882690e-01
4.414000000000000000e+03 2.978258132934570312e+01 -8.587885499000549316e-01 -1.193689823150634766e+00 3.418543934822082520e-02 -3.478513360023498535e-01 8.154001086950302124e-02
4.415000000000000000e+03 2.852941322326660156e+01 -1.134404420852661133e+00 -1.474318027496337891e+00 1.499491464346647263e-02 -4.377969503402709961e-01 1.077406331896781921e-01
4.416000000000000000e+03 2.913703918457031250e+01 -1.132955670356750488e+00 -1.306452274322509766e+00 3.806609287858009338e-02 -3.805158436298370361e-01 1.268043965101242065e-01
4.417000000000000000e+03 2.891152954101562500e+01 -7.358937859535217285e-01 -1.469887256622314453e+00 1.285336259752511978e-02 -4.371101558208465576e-01 3.059940412640571594e-03
4.418000000000000000e+03 2.925645446777343750e+01 -9.566388726234436035e-01 -1.319210886955261230e+00 2.784128114581108093e-02 -3.874108791351318359e-01 8.150867372751235962e-02
4.419000000000000000e+03 2.933537292480468750e+01 -6.373291015625000000e-01 -1.362831115722656250e+00 1.131757255643606186e-02 -4.054540693759918213e-01 -7.281642872840166092e-03
4.420000000000000000e+03 2.800453186035156250e+01 -9.263651967048645020e-01 -1.735800147056579590e+00 -1.206043176352977753e-03 -5.211018919944763184e-01 3.464889526367187500e-02
4.421000000000000000e+03 2.729001426696777344e+01 -1.531453728675842285e+00 -1.593688845634460449e+00 -1.506829857826232910e-01 -5.233115553855895996e-01 3.011755943298339844e-01
4.422000000000000000e+03 2.997507095336914062e+01 -6.148938536643981934e-01 -1.177514553070068359e+00 2.191392891108989716e-02 -3.466801941394805908e-01 2.926235087215900421e-02
4.423000000000000000e+03 2.745512580871582031e+01 -9.636750221252441406e-01 -1.959401369094848633e+00 -3.775275126099586487e-02 -5.991462469100952148e-01 1.001871600747108459e-01
4.424000000000000000e+03 2.823396110534667969e+01 -7.079256176948547363e-01 -1.728922605514526367e+00 4.958956502377986908e-03 -5.171890854835510254e-01 -4.059404134750366211e-02
4.425000000000000000e+03 2.755640602111816406e+01 -1.198829770088195801e+00 -1.767059087753295898e+00 -5.734517425298690796e-02 -5.473212599754333496e-01 1.842130720615386963e-01
4.426000000000000000e+03 2.944159126281738281e+01 -1.064152121543884277e+00 -1.242613554000854492e+00 4.917128756642341614e-02 -3.580327033996582031e-01 1.345674842596054077e-01
4.427000000000000000e+03 2.815221786499023438e+01 -1.422696471214294434e+00 -1.462913990020751953e+00 -1.643352094106376171e-03 -4.393671751022338867e-01 2.008782625198364258e-01
4.428000000000000000e+03 3.059735870361328125e+01 -7.972539067268371582e-01 -1.022848129272460938e+00 5.857428535819053650e-02 -2.892821431159973145e-01 1.097732335329055786e-01
4.429000000000000000e+03 2.995605850219726562e+01 -5.597616545855998993e-03 -4.141184763284400105e-05 5.924466313445009291e-05 5.349844286683946848e-06 -3.131130142719484866e-05
4.430000000000000000e+03 2.979190826416015625e+01 -6.038608029484748840e-02 -4.034363882965408266e-05 -7.269862544490024447e-05 -3.391268182895146310e-05 7.460734923370182514e-05
4.431000000000000000e+03 2.962926292419433594e+01 -8.498704433441162109e-02 2.016206417465582490e-05 6.328061135718598962e-05 2.503280120436102152e-05 -3.790642222156748176e-05
4.432000000000000000e+03 2.978279876708984375e+01 1.970997005701065063e-01 5.930476618232205510e-05 -6.521005161630455405e-06 1.583512857905589044e-05 6.522351031890138984e-05
4.433000000000000000e+03 3.070292282104492188e+01 -1.402674555778503418e+00 -9.013118743896484375e-01 7.823841273784637451e-02 -2.469220459461212158e-01 2.361156791448593140e-01
4.434000000000000000e+03 3.090387916564941406e+01 -1.005632758140563965e+00 -9.184361100196838379e-01 4.507344961166381836e-02 -2.620088160037994385e-01 1.565900146961212158e-01
4.435000000000000000e+03 3.022185134887695312e+01 -1.190913677215576172e+00 -1.029542803764343262e+00 6.140636652708053589e-02 -2.904409170150756836e-01 1.831822842359542847e-01
4.436000000000000000e+03 2.859870910644531250e+01 -1.620338261127471924e-01 6.016679617459885776e-05 -1.218284945935010910e-03 -3.474354452919214964e-04 4.037320904899388552e-04
4.437000000000000000e+03 2.798626136779785156e+01 2.405132167041301727e-02 1.467518974095582962e-03 1.707745483145117760e-03 9.525793138891458511e-04 1.247508218511939049e-03
4.438000000000000000e+03 2.760408020019531250e+01 -4.810364171862602234e-02 7.615828071720898151e-04 1.587728597223758698e-02 4.991660825908184052e-03 8.099003694951534271e-03
4.439000000000000000e+03 2.762227249145507812e+01 -2.580721676349639893e-01 1.907269470393657684e-03 3.179050050675868988e-03 1.525895786471664906e-03 4.641142208129167557e-03
4.440000000000000000e+03 2.742092132568359375e+01 -2.755425572395324707e-01 1.498409640043973923e-02 7.776970043778419495e-03 6.828319747000932693e-03 1.246832776814699173e-02
4.441000000000000000e+03 3.004961967468261719e+01 -1.233764171600341797e+00 -1.055511593818664551e+00 6.746828556060791016e-02 -2.964130043983459473e-01 1.892982125282287598e-01
4.442000000000000000e+03 2.987006568908691406e+01 -1.269569873809814453e+00 -1.092073917388916016e+00 5.708610266447067261e-02 -3.104963302612304688e-01 1.880090832710266113e-01
4.443000000000000000e+03 2.967793273925781250e+01 -1.289007782936096191e+00 -1.125265479087829590e+00 5.835325643420219421e-02 -3.200736939907073975e-01 1.864106804132461548e-01
4.444000000000000000e+03 2.928291893005371094e+01 -1.328910589218139648e+00 -1.206333994865417480e+00 4.611173272132873535e-02 -3.480666577816009521e-01 1.775619387626647949e-01
4.445000000000000000e+03 2.896192741394042969e+01 -1.619267821311950684e+00 -1.185732364654541016e+00 4.008086025714874268e-02 -3.436954617500305176e-01 2.415607124567031860e-01
4.446000000000000000e+03 2.876846885681152344e+01 -1.636580586433410645e+00 -1.230637073516845703e+00 3.588879480957984924e-02 -3.584244847297668457e-01 2.503585815429687500e-01
4.447000000000000000e+03 2.836238670349121094e+01 -1.414757847785949707e+00 -1.417785882949829102e+00 6.131002679467201233e-03 -4.234964549541473389e-01 1.905823200941085815e-01
4.448000000000000000e+03 2.792315673828125000e+01 -1.418533086776733398e+00 -1.522798895835876465e+00 -3.007762879133224487e-02 -4.658629596233367920e-01 2.138257026672363281e-01
4.449000000000000000e+03 2.775188255310058594e+01 -1.074229359626770020e+00 -1.754527807235717773e+00 -1.578149758279323578e-02 -5.310928225517272949e-01 1.125653013586997986e-01
4.450000000000000000e+03 2.768674468994140625e+01 -1.447214603424072266e+00 -1.550114154815673828e+00 -5.890918895602226257e-02 -4.827069938182830811e-01 2.372763454914093018e-01
4.451000000000000000e+03 2.744003677368164062e+01 -5.022587180137634277e-01 -2.154827833175659180e+00 -2.153111062943935394e-02 -6.529076695442199707e-01 -1.639608889818191528e-01
4.452000000000000000e+03 2.764735794067382812e+01 -7.030430436134338379e-01 -1.980686426162719727e+00 -9.324410930275917053e-03 -5.970032215118408203e-01 -4.435345903038978577e-02
4.453000000000000000e+03 2.803458213806152344e+01 -6.944524645805358887e-01 -1.805796623229980469e+00 -2.233167644590139389e-03 -5.424089431762695312e-01 -4.853257536888122559e-02
4.454000000000000000e+03 2.716103935241699219e+01 8.718845844268798828e-01 4.994993284344673157e-02 3.700654208660125732e-02 2.608694322407245636e-02 -4.778182134032249451e-02
4.455000000000000000e+03 2.656223297119140625e+01 4.945255815982818604e-01 -1.270369589328765869e-01 6.092718243598937988e-02 -1.983293332159519196e-02 -5.751453340053558350e-02
4.456000000000000000e+03 2.686352920532226562e+01 -1.615345478057861328e+00 -1.518392086029052734e+00 -2.856598794460296631e-01 -5.412155985832214355e-01 3.337829709053039551e-01
4.457000000000000000e+03 2.653672027587890625e+01 -1.884754896163940430e+00 -1.270043492317199707e+00 -3.890083730220794678e-01 -4.977155625820159912e-01 2.556681931018829346e-01
4.458000000000000000e+03 2.632029342651367188e+01 -1.903447628021240234e+00 -1.218458414077758789e+00 -2.828061282634735107e-01 -4.503793418407440186e-01 2.017368078231811523e-01
4.459000000000000000e+03 2.542119216918945312e+01 2.913774251937866211e-01 -4.888602197170257568e-01 -2.423064857721328735e-01 -2.193500101566314697e-01 3.505563735961914062e-01
4.460000000000000000e+03 2.530577659606933594e+01 3.775547146797180176e-01 -4.633817076683044434e-01 -1.860398054122924805e-01 -1.948264539241790771e-01 3.283962905406951904e-01
4.461000000000000000e+03 2.673913955688476562e+01 9.652376174926757812e-01 9.389665722846984863e-02 8.692911267280578613e-02 5.424772948026657104e-02 -1.044175773859024048e-01
4.462000000000000000e+03 2.691065597534179688e+01 9.572267532348632812e-01 9.876497834920883179e-02 6.084654107689857483e-02 4.788345471024513245e-02 -8.835685998201370239e-02
4.463000000000000000e+03 2.502824020385742188e+01 2.314311861991882324e-01 -6.311296224594116211e-01 -8.757182955741882324e-02 -2.156104296445846558e-01 3.304462134838104248e-01
4.464000000000000000e+03 2.507358169555664062e+01 -5.470762252807617188e-01 -1.343758106231689453e+00 4.889551550149917603e-02 -3.884587883949279785e-01 3.706406354904174805e-01
4.465000000000000000e+03 2.704986381530761719e+01 6.634962558746337891e-01 -2.682644687592983246e-02 7.682995498180389404e-02 1.500105205923318863e-02 -5.588812753558158875e-02
4.466000000000000000e+03 2.487689590454101562e+01 -1.669925600290298462e-01 -1.041573762893676758e+00 3.444792330265045166e-02 -3.021377623081207275e-01 4.073677361011505127e-01
4.467000000000000000e+03 2.913160896301269531e+01 -6.978766322135925293e-01 -1.414503216743469238e+00 1.286598294973373413e-02 -4.204911589622497559e-01 1.122360466979444027e-03
4.468000000000000000e+03 2.886347579956054688e+01 -4.104328453540802002e-01 -1.583621144294738770e+00 -6.291402503848075867e-03 -4.769737422466278076e-01 -1.137180328369140625e-01
4.469000000000000000e+03 2.954154586791992188e+01 -6.111316680908203125e-01 -1.310643911361694336e+00 1.160259358584880829e-02 -3.897123932838439941e-01 -5.064129363745450974e-03
4.470000000000000000e+03 2.988592720031738281e+01 -3.011800348758697510e-01 -1.251477003097534180e+00 4.637762438505887985e-03 -3.740517795085906982e-01 -8.177760988473892212e-02
4.471000000000000000e+03 3.047628402709960938e+01 -2.706106901168823242e-01 -1.033064007759094238e+00 -2.005785703659057617e-03 -3.105209469795227051e-01 -3.279661759734153748e-02
4.472000000000000000e+03 2.831880378723144531e+01 4.833793938159942627e-01 -9.664874523878097534e-04 -1.689451979473233223e-03 -7.967818528413772583e-04 1.254246803000569344e-03
4.473000000000000000e+03 2.911303520202636719e+01 3.305088281631469727e-01 -8.194676411221735179e-06 8.074573088379111141e-06 -3.603119580475322437e-08 6.194626621436327696e-05
4.474000000000000000e+03 2.596808815002441406e+01 -1.566657185554504395e+00 -1.453563213348388672e+00 -4.746848046779632568e-01 -5.784744024276733398e-01 5.066440999507904053e-02
4.475000000000000000e+03 2.621855926513671875e+01 -1.727860927581787109e+00 -1.362204670906066895e+00 -3.734277784824371338e-01 -5.206897258758544922e-01 1.394409686326980591e-01
4.476000000000000000e+03 2.665574264526367188e+01 -1.670958757400512695e+00 -1.442220211029052734e+00 -3.948244750499725342e-01 -5.511134266853332520e-01 2.998595535755157471e-01
4.477000000000000000e+03 2.846273994445800781e+01 -2.514259889721870422e-02 8.193832472898066044e-04 -1.108906930312514305e-03 -8.685710781719535589e-05 -5.308876861818134785e-04
4.478000000000000000e+03 2.823483848571777344e+01 2.807835116982460022e-02 6.619581254199147224e-04 4.131704918108880520e-04 3.225386026315391064e-04 -1.561150769703090191e-03
4.479000000000000000e+03 2.766182136535644531e+01 -9.075917005538940430e-01 -1.880457043647766113e+00 -1.182848215103149414e-02 -5.676856637001037598e-01 4.984454438090324402e-02
4.480000000000000000e+03 3.074271583557128906e+01 -1.065460920333862305e+00 -9.465523362159729004e-01 6.475453823804855347e-02 -2.645393311977386475e-01 1.701040863990783691e-01
4.481000000000000000e+03 3.027247810363769531e+01 -8.734555840492248535e-01 -1.071711063385009766e+00 4.754798486828804016e-02 -3.072489202022552490e-01 1.148804128170013428e-01
4.482000000000000000e+03 2.492745590209960938e+01 -6.808144450187683105e-01 -1.422589659690856934e+00 1.740816831588745117e-01 -3.745523989200592041e-01 2.648019492626190186e-01
4.483000000000000000e+03 2.994399070739746094e+01 -9.906327724456787109e-01 -1.131135821342468262e+00 5.013147369027137756e-02 -3.243013024330139160e-01 1.278904229402542114e-01
4.484000000000000000e+03 2.980185317993164062e+01 -1.050683498382568359e+00 -1.153303861618041992e+00 5.426652356982231140e-02 -3.297111988067626953e-01 1.413309872150421143e-01
4.485000000000000000e+03 2.816070175170898438e+01 -1.180420279502868652e+00 -1.559266805648803711e+00 2.229725942015647888e-03 -4.671111106872558594e-01 1.380008608102798462e-01
4.486000000000000000e+03 2.835287284851074219e+01 -1.187522649765014648e+00 -1.503819584846496582e+00 1.321687269955873489e-02 -4.471808075904846191e-01 1.367697566747665405e-01
4.487000000000000000e+03 2.819769477844238281e+01 -9.494147300720214844e-01 -1.659364104270935059e+00 5.301265046000480652e-03 -4.962188601493835449e-01 4.522503912448883057e-02
4.488000000000000000e+03 2.871496963500976562e+01 -1.038137078285217285e+00 -1.452779412269592285e+00 1.913449354469776154e-02 -4.300934672355651855e-01 8.204130083322525024e-02
4.489000000000000000e+03 3.079138374328613281e+01 -5.324212312698364258e-01 -9.861198067665100098e-01 3.090973198413848877e-02 -2.865630090236663818e-01 4.985927417874336243e-02
4.490000000000000000e+03 2.940887069702148438e+01 -8.685036301612854004e-01 -1.299594640731811523e+00 2.314562909305095673e-02 -3.829346895217895508e-01 5.632606521248817444e-02
4.491000000000000000e+03 3.016384696960449219e+01 -5.854021906852722168e-01 -1.123207807540893555e+00 3.918189182877540588e-02 -3.252077698707580566e-01 3.818913921713829041e-02
4.492000000000000000e+03 3.051674270629882812e+01 -5.657013654708862305e-01 -1.032266139984130859e+00 4.785707592964172363e-02 -2.953227162361145020e-01 7.319552451372146606e-02
4.493000000000000000e+03 2.748492050170898438e+01 -1.515446901321411133e+00 -1.550040006637573242e+00 -1.047565042972564697e-01 -4.964389801025390625e-01 2.557993829250335693e-01
4.494000000000000000e+03 3.044175529479980469e+01 -8.363916277885437012e-01 -1.039693474769592285e+00 6.665964424610137939e-02 -2.919101417064666748e-01 1.214473322033882141e-01
4.495000000000000000e+03 2.958901405334472656e+01 -8.487625122070312500e-01 -1.254940390586853027e+00 3.451262786984443665e-02 -3.661283254623413086e-01 6.642430275678634644e-02
4.496000000000000000e+03 2.782859802246093750e+01 -8.955772519111633301e-01 -1.807215571403503418e+00 -7.079279515892267227e-03 -5.442884564399719238e-01 3.476424142718315125e-02
4.497000000000000000e+03 2.839513969421386719e+01 -9.859659671783447266e-01 -1.566581368446350098e+00 1.205238606780767441e-02 -4.663586914539337158e-01 6.054072082042694092e-02
4.498000000000000000e+03 2.794436264038085938e+01 -1.159523010253906250e+00 -1.657760739326477051e+00 -1.115460600703954697e-02 -5.006746053695678711e-01 1.369327902793884277e-01
4.499000000000000000e+03 2.647685241699218750e+01 9.727759361267089844e-01 6.880306452512741089e-02 5.060702189803123474e-02 3.582302480936050415e-02 -1.076900288462638855e-01
4.500000000000000000e+03 2.610982894897460938e+01 9.217603206634521484e-01 -1.473902631551027298e-02 -3.194998204708099365e-02 -1.400670316070318222e-02 -3.922163322567939758e-02
4.501000000000000000e+03 2.501363372802734375e+01 4.009114503860473633e-01 -5.035232305526733398e-01 -1.639909148216247559e-01 -2.002542465925216675e-01 3.332727253437042236e-01
4.502000000000000000e+03 2.524869537353515625e+01 6.084479093551635742e-01 -3.434666693210601807e-01 -1.463457196950912476e-01 -1.469437181949615479e-01 2.428442090749740601e-01
4.503000000000000000e+03 2.596435928344726562e+01 7.445604801177978516e-01 -1.243884339928627014e-01 -1.224251314997673035e-01 -7.404407113790512085e-02 3.384498134255409241e-02
4.504000000000000000e+03 2.529867744445800781e+01 5.080273151397705078e-01 -4.005822539329528809e-01 -1.904673278331756592e-01 -1.773148775100708008e-01 3.016819953918457031e-01
4.505000000000000000e+03 2.514510345458984375e+01 4.417403340339660645e-01 -4.976262152194976807e-01 -1.347639709711074829e-01 -1.897170543670654297e-01 3.257616758346557617e-01
4.506000000000000000e+03 2.574004173278808594e+01 8.379517197608947754e-01 -1.464002728462219238e-01 -1.493748575448989868e-01 -8.873253315687179565e-02 6.424725800752639771e-02
4.507000000000000000e+03 2.540418624877929688e+01 6.995720267295837402e-01 -2.494728416204452515e-01 -1.672996282577514648e-01 -1.250317394733428955e-01 2.280472218990325928e-01
4.508000000000000000e+03 2.562668418884277344e+01 6.353848576545715332e-01 -2.272204756736755371e-01 -2.206452190876007080e-01 -1.343597024679183960e-01 1.649980098009109497e-01
4.509000000000000000e+03 2.546116828918457031e+01 5.738193392753601074e-01 -3.095868527889251709e-01 -1.731508076190948486e-01 -1.448213011026382446e-01 2.200120985507965088e-01
4.510000000000000000e+03 2.579438400268554688e+01 6.921237111091613770e-01 -1.336722075939178467e-01 -1.596870571374893188e-01 -8.800777792930603027e-02 7.696420699357986450e-02
4.511000000000000000e+03 2.630865478515625000e+01 9.588830471038818359e-01 3.484236449003219604e-02 2.593485265970230103e-02 1.823316514492034912e-02 -8.207153528928756714e-02
4.512000000000000000e+03 2.633842658996582031e+01 8.784570097923278809e-01 -1.420159079134464264e-02 1.859448105096817017e-02 1.317866728641092777e-03 -7.295791059732437134e-02
4.513000000000000000e+03 2.510928726196289062e+01 5.076749920845031738e-01 -4.864433407783508301e-01 -1.382500827312469482e-01 -1.874080300331115723e-01 3.270980715751647949e-01
4.514000000000000000e+03 2.614974594116210938e+01 8.036559820175170898e-01 -4.138883575797080994e-02 -4.079573601484298706e-02 -2.465537190437316895e-02 -4.027002304792404175e-02
4.515000000000000000e+03 2.591700744628906250e+01 8.839657902717590332e-01 -4.745734110474586487e-02 -8.663694560527801514e-02 -4.022828489542007446e-02 2.214420121163129807e-03
4.516000000000000000e+03 2.556867980957031250e+01 7.764952182769775391e-01 -1.810799688100814819e-01 -1.170644164085388184e-01 -8.944331109523773193e-02 1.336291283369064331e-01
4.517000000000000000e+03 3.925119400024414062e+01 3.659583628177642822e-01 -8.771572262048721313e-03 2.394229173660278320e-03 -1.913202926516532898e-03 4.564890114124864340e-04
4.518000000000000000e+03 3.926422500610351562e+01 -6.637467443943023682e-02 8.292250335216522217e-03 7.996781496331095695e-04 2.727578394114971161e-03 -5.953138694167137146e-03
4.519000000000000000e+03 3.853815841674804688e+01 8.006714582443237305e-01 -4.730255808681249619e-03 5.414722254499793053e-04 -1.256635179743170738e-03 -2.033526106970384717e-04
4.520000000000000000e+03 3.856700515747070312e+01 2.940661311149597168e-01 -2.217226428911089897e-03 2.740136187640018761e-05 -6.569474935531616211e-04 1.259991433471441269e-03
4.521000000000000000e+03 3.863258743286132812e+01 -1.873374730348587036e-01 1.822012593038380146e-03 -5.979991052299737930e-03 -1.247393549419939518e-03 5.944294854998588562e-03
4.522000000000000000e+03 3.940476989746093750e+01 9.400728940963745117e-01 8.507662278134375811e-05 8.902128902263939381e-04 2.925868320744484663e-04 1.621434814296662807e-03
4.523000000000000000e+03 4.009798812866210938e+01 4.773842692375183105e-01 -8.032426238059997559e-03 -6.191567983478307724e-03 -4.267198033630847931e-03 5.029603838920593262e-03
4.524000000000000000e+03 3.978098297119140625e+01 1.255261451005935669e-01 -8.699725382030010223e-03 4.665758460760116577e-03 -1.210190122947096825e-03 -3.435968654230237007e-03
4.525000000000000000e+03 2.643321990966796875e+01 -4.614933729171752930e-01 1.088889122009277344e+00 9.672851860523223877e-02 3.556852936744689941e-01 3.146931827068328857e-01
4.526000000000000000e+03 2.662815284729003906e+01 -4.212739467620849609e-01 4.131256937980651855e-01 2.971001341938972473e-02 1.328507065773010254e-01 1.243183165788650513e-01
4.527000000000000000e+03 2.682308387756347656e+01 -3.810544908046722412e-01 1.967002302408218384e-01 2.216069772839546204e-02 6.565827876329421997e-02 7.316880673170089722e-02
4.528000000000000000e+03 2.701801681518554688e+01 -3.408350646495819092e-01 9.333910048007965088e-02 1.494664605706930161e-02 3.248572349548339844e-02 4.293603822588920593e-02
4.529000000000000000e+03 2.641584777832031250e+01 -4.056465029716491699e-01 5.176430344581604004e-01 1.906750053167343140e-01 2.124954015016555786e-01 3.919042050838470459e-01
4.530000000000000000e+03 2.659919929504394531e+01 -3.281958401203155518e-01 2.502119839191436768e-01 1.438018530607223511e-01 1.182041466236114502e-01 2.308285236358642578e-01
4.531000000000000000e+03 2.678255081176757812e+01 -2.507451474666595459e-01 9.595967084169387817e-02 6.651736050844192505e-02 4.874311015009880066e-02 1.321379393339157104e-01
4.532000000000000000e+03 2.696590232849121094e+01 -1.732944548130035400e-01 3.318127244710922241e-02 6.435243040323257446e-02 2.926011197268962860e-02 8.436658233404159546e-02
4.533000000000000000e+03 2.638792037963867188e+01 -3.542579412460327148e-01 1.703944057226181030e-01 2.257233411073684692e-01 1.188353225588798523e-01 3.381648063659667969e-01
4.534000000000000000e+03 2.655265426635742188e+01 -2.425482273101806641e-01 2.303042449057102203e-02 1.952452510595321655e-01 6.548270583152770996e-02 1.981334090232849121e-01
4.535000000000000000e+03 2.671738815307617188e+01 -1.308384984731674194e-01 -2.522222138941287994e-02 1.367276608943939209e-01 3.345163166522979736e-02 1.427663713693618774e-01
4.536000000000000000e+03 2.688212394714355469e+01 -1.912877708673477173e-02 -5.053377151489257812e-02 1.016134694218635559e-01 1.532391086220741272e-02 8.017775416374206543e-02
4.537000000000000000e+03 2.635051155090332031e+01 -3.092997670173645020e-01 -8.889255672693252563e-02 1.976490467786788940e-01 3.262694925069808960e-02 2.197575569152832031e-01
4.538000000000000000e+03 2.649030685424804688e+01 -1.676179021596908569e-01 -1.198810935020446777e-01 1.744877845048904419e-01 1.638200506567955017e-02 1.273536086082458496e-01
4.539000000000000000e+03 2.663010215759277344e+01 -2.593605220317840576e-02 -1.417162418365478516e-01 1.477721631526947021e-01 1.816778210923075676e-03 8.556216955184936523e-02
4.540000000000000000e+03 2.676989746093750000e+01 1.157457977533340454e-01 -1.240590587258338928e-01 1.293082237243652344e-01 1.574748894199728966e-03 4.945131763815879822e-02
4.541000000000000000e+03 2.630505752563476562e+01 -2.724972069263458252e-01 -2.231720983982086182e-01 8.078794926404953003e-02 -4.271524399518966675e-02 7.886181771755218506e-02
4.542000000000000000e+03 2.641454887390136719e+01 -1.062803491950035095e-01 -2.148657739162445068e-01 8.119141310453414917e-02 -4.010230675339698792e-02 5.037879198789596558e-02
4.543000000000000000e+03 2.652403831481933594e+01 5.993652343750000000e-02 -2.030420899391174316e-01 1.076653748750686646e-01 -2.861301228404045105e-02 2.472242899239063263e-02
4.544000000000000000e+03 2.663352775573730469e+01 2.261533886194229126e-01 -1.717443317174911499e-01 1.021355465054512024e-01 -2.088263630867004395e-02 -1.921843504533171654e-03
4.545000000000000000e+03 2.625329971313476562e+01 -2.452626526355743408e-01 -2.705839872360229492e-01 -1.498090624809265137e-01 -1.261179149150848389e-01 -1.549006998538970947e-02
4.546000000000000000e+03 2.632828330993652344e+01 -6.088940799236297607e-02 -2.453536540269851685e-01 -4.569705948233604431e-02 -8.731521666049957275e-02 -4.554144106805324554e-03
4.547000000000000000e+03 2.640326881408691406e+01 1.234838366508483887e-01 -2.358681410551071167e-01 -2.460630843415856361e-03 -7.149863243103027344e-02 -1.482632011175155640e-02
4.548000000000000000e+03 2.647825241088867188e+01 3.078570663928985596e-01 -1.831972897052764893e-01 4.371061548590660095e-02 -4.184599965810775757e-02 -3.701363876461982727e-02
4.549000000000000000e+03 2.619722366333007812e+01 -2.286412119865417480e-01 -2.306523323059082031e-01 -4.138086438179016113e-01 -1.933382898569107056e-01 -3.362808004021644592e-02
4.550000000000000000e+03 2.623482513427734375e+01 -3.318699449300765991e-02 -2.700572311878204346e-01 -2.276474088430404663e-01 -1.493113934993743896e-01 1.044237869791686535e-03
4.551000000000000000e+03 2.627242660522460938e+01 1.622672230005264282e-01 -2.253974974155426025e-01 -1.192375496029853821e-01 -1.033905148506164551e-01 -2.355449832975864410e-02
4.552000000000000000e+03 2.631002807617187500e+01 3.577214479446411133e-01 -1.987435966730117798e-01 -7.266870886087417603e-02 -8.142369240522384644e-02 -3.245115652680397034e-02
4.553000000000000000e+03 2.613898468017578125e+01 -2.232707291841506958e-01 -2.274841070175170898e-01 -6.980776786804199219e-01 -2.776685357093811035e-01 7.198280841112136841e-02
4.554000000000000000e+03 2.613776016235351562e+01 -2.423619106411933899e-02 -2.565093338489532471e-01 -3.887071013450622559e-01 -1.935649365186691284e-01 5.170882865786552429e-02
4.555000000000000000e+03 2.613653564453125000e+01 1.747983545064926147e-01 -2.513585686683654785e-01 -2.662838697433471680e-01 -1.552927345037460327e-01 3.072503767907619476e-02
4.556000000000000000e+03 2.613531112670898438e+01 3.738328814506530762e-01 -1.876298189163208008e-01 -1.658280044794082642e-01 -1.060373485088348389e-01 5.570092238485813141e-03
4.557000000000000000e+03 2.608081626892089844e+01 -2.293573021888732910e-01 -2.307962775230407715e-01 -8.965761065483093262e-01 -3.382117152214050293e-01 2.555685639381408691e-01
4.558000000000000000e+03 2.604081344604492188e+01 -3.438049182295799255e-02 -3.189986348152160645e-01 -5.419508814811706543e-01 -2.582848668098449707e-01 1.714394241571426392e-01
4.559000000000000000e+03 2.600080871582031250e+01 1.605963259935379028e-01 -2.618825137615203857e-01 -3.709846436977386475e-01 -1.898601502180099487e-01 1.166095137596130371e-01
4.560000000000000000e+03 2.596080589294433594e+01 3.555731475353240967e-01 -2.342047393321990967e-01 -2.735221683979034424e-01 -1.523180752992630005e-01 9.983994066715240479e-02
4.561000000000000000e+03 2.602495002746582031e+01 -2.466673702001571655e-01 -3.872594833374023438e-01 -1.006925940513610840e+00 -4.182556271553039551e-01 4.946753978729248047e-01
4.562000000000000000e+03 2.594770240783691406e+01 -6.323059648275375366e-02 -3.779241144657135010e-01 -6.260458230972290039e-01 -3.011909723281860352e-01 3.154135346412658691e-01
4.563000000000000000e+03 2.587045478820800781e+01 1.202061772346496582e-01 -3.693328797817230225e-01 -4.500482380390167236e-01 -2.458143383264541626e-01 2.493659704923629761e-01
4.564000000000000000e+03 2.579320716857910156e+01 3.036429584026336670e-01 -2.836287915706634521e-01 -3.318515121936798096e-01 -1.846440881490707397e-01 1.971739530563354492e-01
4.565000000000000000e+03 2.597352981567382812e+01 -2.745366394519805908e-01 -5.822963714599609375e-01 -9.915370345115661621e-01 -4.721500277519226074e-01 7.193605899810791016e-01
4.566000000000000000e+03 2.586200332641601562e+01 -1.096793785691261292e-01 -5.624439120292663574e-01 -6.522994041442871094e-01 -3.644230067729949951e-01 4.718813598155975342e-01
4.567000000000000000e+03 2.575047492980957031e+01 5.517788231372833252e-02 -4.699452817440032959e-01 -4.722451567649841309e-01 -2.826571166515350342e-01 3.795020580291748047e-01
4.568000000000000000e+03 2.563894844055175781e+01 2.200351357460021973e-01 -4.482110142707824707e-01 -3.477041423320770264e-01 -2.387745380401611328e-01 3.233800828456878662e-01
4.569000000000000000e+03 2.592853164672851562e+01 -3.118956089019775391e-01 -9.060577750205993652e-01 -8.980412483215332031e-01 -5.412297248840332031e-01 8.739674687385559082e-01
4.570000000000000000e+03 2.578700256347656250e+01 -1.719443351030349731e-01 -7.481923699378967285e-01 -6.128251552581787109e-01 -4.083052575588226318e-01 6.164672374725341797e-01
4.571000000000000000e+03 2.564547729492187500e+01 -3.199306875467300415e-02 -6.932437419891357422e-01 -4.318360388278961182e-01 -3.375239372253417969e-01 4.889213144779205322e-01
4.572000000000000000e+03 2.550395011901855469e+01 1.079582050442695618e-01 -5.850192904472351074e-01 -3.283349871635437012e-01 -2.740062773227691650e-01 4.232319593429565430e-01
4.573000000000000000e+03 2.589167785644531250e+01 -3.573106229305267334e-01 -1.226528167724609375e+00 -7.544052600860595703e-01 -5.942800045013427734e-01 9.491631984710693359e-01
4.574000000000000000e+03 2.572558212280273438e+01 -2.476360350847244263e-01 -1.009111762046813965e+00 -5.273911356925964355e-01 -4.609508812427520752e-01 7.031068801879882812e-01
4.575000000000000000e+03 2.555948638916015625e+01 -1.379614472389221191e-01 -9.148654937744140625e-01 -3.579053580760955811e-01 -3.818312585353851318e-01 5.868334174156188965e-01
4.576000000000000000e+03 2.539339256286621094e+01 -2.828685194253921509e-02 -8.474021553993225098e-01 -2.292373180389404297e-01 -3.229918479919433594e-01 4.700544178485870361e-01
4.577000000000000000e+03 2.586438560485839844e+01 -4.090388715267181396e-01 -1.546558141708374023e+00 -6.111286878585815430e-01 -6.473060846328735352e-01 9.298832416534423828e-01
4.578000000000000000e+03 2.568009567260742188e+01 -3.338497877120971680e-01 -1.268862605094909668e+00 -4.255135357379913330e-01 -5.083128213882446289e-01 7.405841946601867676e-01
4.579000000000000000e+03 2.549580574035644531e+01 -2.586606740951538086e-01 -1.158622860908508301e+00 -2.545287013053894043e-01 -4.239454567432403564e-01 6.207380294799804688e-01
4.580000000000000000e+03 2.531151580810546875e+01 -1.834715753793716431e-01 -1.120652556419372559e+00 -1.384812742471694946e-01 -3.777401447296142578e-01 5.438018441200256348e-01
4.581000000000000000e+03 2.584770202636718750e+01 -4.650952517986297607e-01 -1.812689900398254395e+00 -5.162545442581176758e-01 -6.986833214759826660e-01 8.535380959510803223e-01
4.582000000000000000e+03 2.565229034423828125e+01 -4.272770583629608154e-01 -1.522364377975463867e+00 -3.141426146030426025e-01 -5.509520769119262695e-01 7.079042792320251465e-01
4.583000000000000000e+03 2.545687675476074219e+01 -3.894588649272918701e-01 -1.384246826171875000e+00 -1.700910776853561401e-01 -4.663013815879821777e-01 6.098606586456298828e-01
4.584000000000000000e+03 2.526146507263183594e+01 -3.516406714916229248e-01 -1.308269262313842773e+00 -6.898286938667297363e-02 -4.131756424903869629e-01 5.544387698173522949e-01
4.585000000000000000e+03 2.584226799011230469e+01 -5.233285427093505859e-01 -2.016290903091430664e+00 -4.566269516944885254e-01 -7.418753504753112793e-01 7.377818822860717773e-01
4.586000000000000000e+03 2.564323234558105469e+01 -5.243325233459472656e-01 -1.742214560508728027e+00 -2.439380288124084473e-01 -5.958457589149475098e-01 6.312911510467529297e-01
4.587000000000000000e+03 2.544419670104980469e+01 -5.253365635871887207e-01 -1.575247764587402344e+00 -9.720564633607864380e-02 -5.017360448837280273e-01 5.343677401542663574e-01
4.588000000000000000e+03 2.524516105651855469e+01 -5.263405442237854004e-01 -1.430740594863891602e+00 -2.645746618509292603e-02 -4.371594190597534180e-01 4.779168069362640381e-01
4.589000000000000000e+03 2.584828948974609375e+01 -5.815040469169616699e-01 -2.173539876937866211e+00 -4.621335864067077637e-01 -7.907021045684814453e-01 6.259986758232116699e-01
4.590000000000000000e+03 2.565326881408691406e+01 -6.212916970252990723e-01 -1.905530214309692383e+00 -1.975026875734329224e-01 -6.309098601341247559e-01 5.070945024490356445e-01
4.591000000000000000e+03 2.545824813842773438e+01 -6.610794067382812500e-01 -1.721922516822814941e+00 -8.082553744316101074e-02 -5.408244132995605469e-01 4.300958812236785889e-01
4.592000000000000000e+03 2.526322746276855469e+01 -7.008671164512634277e-01 -1.563511490821838379e+00 3.229766339063644409e-02 -4.593641459941864014e-01 3.319372832775115967e-01
4.593000000000000000e+03 2.586553764343261719e+01 -6.373892426490783691e-01 -2.275712490081787109e+00 -4.786965847015380859e-01 -8.263226747512817383e-01 5.123398900032043457e-01
4.594000000000000000e+03 2.568201637268066406e+01 -7.144337892532348633e-01 -2.027539491653442383e+00 -2.214443087577819824e-01 -6.746951341629028320e-01 3.801629841327667236e-01
4.595000000000000000e+03 2.549849319458007812e+01 -7.914782762527465820e-01 -1.803480982780456543e+00 -8.847077935934066772e-02 -5.675855278968811035e-01 2.873792350292205811e-01
4.596000000000000000e+03 2.531497192382812500e+01 -8.685227036476135254e-01 -1.699218511581420898e+00 2.795713022351264954e-02 -5.013784170150756836e-01 2.340622544288635254e-01
4.597000000000000000e+03 2.589335060119628906e+01 -6.888395547866821289e-01 -2.369828701019287109e+00 -5.436229705810546875e-01 -8.740354776382446289e-01 4.191047549247741699e-01
4.598000000000000000e+03 2.572836875915527344e+01 -8.001842498779296875e-01 -2.069746255874633789e+00 -2.736395299434661865e-01 -7.030156850814819336e-01 2.513047158718109131e-01
4.599000000000000000e+03 2.556338882446289062e+01 -9.115288853645324707e-01 -1.873731613159179688e+00 -1.495607048273086548e-01 -6.069877147674560547e-01 1.649276465177536011e-01
4.600000000000000000e+03 2.539840888977050781e+01 -1.022873520851135254e+00 -1.709755301475524902e+00 -5.451339110732078552e-02 -5.292806029319763184e-01 1.377750933170318604e-01
4.601000000000000000e+03 2.593066024780273438e+01 -7.338804602622985840e-01 -2.421548843383789062e+00 -6.075134277343750000e-01 -9.087187051773071289e-01 3.293197751045227051e-01
4.602000000000000000e+03 2.579055213928222656e+01 -8.752524256706237793e-01 -2.083413124084472656e+00 -3.898671269416809082e-01 -7.419840693473815918e-01 1.514827162027359009e-01
4.603000000000000000e+03 2.565044403076171875e+01 -1.016624450683593750e+00 -1.868362426757812500e+00 -2.313458174467086792e-01 -6.299124956130981445e-01 8.925706893205642700e-02
4.604000000000000000e+03 2.551033592224121094e+01 -1.157996416091918945e+00 -1.725335121154785156e+00 -1.642361879348754883e-01 -5.668714046478271484e-01 2.569941431283950806e-02
4.605000000000000000e+03 2.597603416442871094e+01 -7.707836031913757324e-01 -2.449581384658813477e+00 -7.147789597511291504e-01 -9.493080377578735352e-01 2.568838894367218018e-01
4.606000000000000000e+03 2.586617469787597656e+01 -9.367576241493225098e-01 -2.061358451843261719e+00 -5.099551677703857422e-01 -7.713940739631652832e-01 9.754188358783721924e-02
4.607000000000000000e+03 2.575631713867187500e+01 -1.102731585502624512e+00 -1.823604583740234375e+00 -3.756710290908813477e-01 -6.597827076911926270e-01 4.500725865364074707e-02
4.608000000000000000e+03 2.564645767211914062e+01 -1.268705606460571289e+00 -1.707093477249145508e+00 -2.244463264942169189e-01 -5.794619321823120117e-01 2.280072309076786041e-02
4.609000000000000000e+03 2.602773094177246094e+01 -7.981326580047607422e-01 -2.461598396301269531e+00 -8.351975679397583008e-01 -9.890387654304504395e-01 2.099704146385192871e-01
4.610000000000000000e+03 2.595233917236328125e+01 -9.823395013809204102e-01 -2.009162187576293945e+00 -6.546358466148376465e-01 -7.991393804550170898e-01 9.769669175148010254e-02
4.611000000000000000e+03 2.587694549560546875e+01 -1.166546225547790527e+00 -1.793255567550659180e+00 -4.943190515041351318e-01 -6.862723827362060547e-01 4.812353849411010742e-02
4.612000000000000000e+03 2.580155181884765625e+01 -1.350752949714660645e+00 -1.584702968597412109e+00 -3.864828944206237793e-01 -5.913558006286621094e-01 6.902825087308883667e-02
4.613000000000000000e+03 2.608376884460449219e+01 -8.148782849311828613e-01 -2.431562185287475586e+00 -9.783558249473571777e-01 -1.022975444793701172e+00 2.221858799457550049e-01
4.614000000000000000e+03 2.604573440551757812e+01 -1.010248780250549316e+00 -1.995950222015380859e+00 -7.667728066444396973e-01 -8.288168907165527344e-01 1.396684646606445312e-01
4.615000000000000000e+03 2.600769996643066406e+01 -1.205619215965270996e+00 -1.739726066589355469e+00 -6.063062548637390137e-01 -7.038096785545349121e-01 1.131817325949668884e-01
4.616000000000000000e+03 2.596966552734375000e+01 -1.400989651679992676e+00 -1.542818188667297363e+00 -5.305120944976806641e-01 -6.219990849494934082e-01 7.054235041141510010e-02
4.617000000000000000e+03 2.614199638366699219e+01 -8.203776478767395020e-01 -2.421051263809204102e+00 -1.099874258041381836e+00 -1.056277632713317871e+00 2.801836133003234863e-01
4.618000000000000000e+03 2.614278030395507812e+01 -1.019414424896240234e+00 -2.007294893264770508e+00 -8.377252221107482910e-01 -8.535060286521911621e-01 2.429847270250320435e-01
4.619000000000000000e+03 2.614356422424316406e+01 -1.218451261520385742e+00 -1.737244963645935059e+00 -6.778843998908996582e-01 -7.245388031005859375e-01 1.813887953758239746e-01
4.620000000000000000e+03 2.614434814453125000e+01 -1.417487978935241699e+00 -1.570338129997253418e+00 -5.583347678184509277e-01 -6.386018991470336914e-01 1.398878693580627441e-01
4.621000000000000000e+03 2.620017814636230469e+01 -8.144198656082153320e-01 -2.472961425781250000e+00 -1.168606758117675781e+00 -1.092470526695251465e+00 4.165040552616119385e-01
4.622000000000000000e+03 2.623974990844726562e+01 -1.009484767913818359e+00 -2.056189537048339844e+00 -8.434653282165527344e-01 -8.698964715003967285e-01 3.486340641975402832e-01
4.623000000000000000e+03 2.627932167053222656e+01 -1.204549789428710938e+00 -1.817151069641113281e+00 -6.737269163131713867e-01 -7.472633719444274902e-01 2.773646116256713867e-01
4.624000000000000000e+03 2.631889343261718750e+01 -1.399614572525024414e+00 -1.607318520545959473e+00 -5.482782125473022461e-01 -6.466789841651916504e-01 2.395924329757690430e-01
4.625000000000000000e+03 2.625608253479003906e+01 -7.972335815429687500e-01 -2.561393976211547852e+00 -1.128984451293945312e+00 -1.107113480567932129e+00 5.755024552345275879e-01
4.626000000000000000e+03 2.633292388916015625e+01 -9.808409214019775391e-01 -2.213847637176513672e+00 -7.781944870948791504e-01 -8.976126313209533691e-01 4.464366734027862549e-01
4.627000000000000000e+03 2.640976524353027344e+01 -1.164448261260986328e+00 -1.908857941627502441e+00 -6.072627305984497070e-01 -7.548362016677856445e-01 3.659138381481170654e-01
4.628000000000000000e+03 2.648660659790039062e+01 -1.348055601119995117e+00 -1.726593971252441406e+00 -4.965424835681915283e-01 -6.669409275054931641e-01 3.197483122348785400e-01
4.629000000000000000e+03 2.630756378173828125e+01 -7.694782018661499023e-01 -2.806534051895141602e+00 -9.907180070877075195e-01 -1.139175653457641602e+00 7.026516199111938477e-01
4.630000000000000000e+03 2.641872596740722656e+01 -9.345819354057312012e-01 -2.367022991180419922e+00 -6.297109723091125488e-01 -8.990202546119689941e-01 5.111536383628845215e-01
4.631000000000000000e+03 2.652988815307617188e+01 -1.099685668945312500e+00 -2.100306510925292969e+00 -5.023127198219299316e-01 -7.807857394218444824e-01 4.014467000961303711e-01
4.632000000000000000e+03 2.664105033874511719e+01 -1.264789462089538574e+00 -1.837441205978393555e+00 -4.030239880084991455e-01 -6.721395850181579590e-01 3.716053664684295654e-01
4.633000000000000000e+03 2.635264587402343750e+01 -7.322189211845397949e-01 -3.073621511459350586e+00 -7.110462188720703125e-01 -1.135400414466857910e+00 7.595689892768859863e-01
4.634000000000000000e+03 2.649386215209960938e+01 -8.724831342697143555e-01 -2.600811481475830078e+00 -4.681407213211059570e-01 -9.206856489181518555e-01 4.819901287555694580e-01
4.635000000000000000e+03 2.663508033752441406e+01 -1.012747406959533691e+00 -2.256978511810302734e+00 -3.445084989070892334e-01 -7.804461121559143066e-01 4.023943841457366943e-01
4.636000000000000000e+03 2.677629661560058594e+01 -1.153011679649353027e+00 -2.035971403121948242e+00 -3.133207857608795166e-01 -7.047876715660095215e-01 3.359583318233489990e-01
4.637000000000000000e+03 2.638959884643554688e+01 -6.868855953216552734e-01 -3.407625675201416016e+00 -4.158239960670471191e-01 -1.147034883499145508e+00 6.590102910995483398e-01
4.638000000000000000e+03 2.655545234680175781e+01 -7.969276309013366699e-01 -2.777858495712280273e+00 -2.625602185726165771e-01 -9.121256470680236816e-01 3.873959481716156006e-01
4.639000000000000000e+03 2.672130393981933594e+01 -9.069696068763732910e-01 -2.437123537063598633e+00 -2.300627529621124268e-01 -8.001558780670166016e-01 3.115568757057189941e-01
4.640000000000000000e+03 2.688715744018554688e+01 -1.017011642456054688e+00 -2.197182416915893555e+00 -1.712737977504730225e-01 -7.105368971824645996e-01 2.748127877712249756e-01
4.641000000000000000e+03 2.641700553894042969e+01 -6.352178454399108887e-01 -3.638948678970336914e+00 -1.026755273342132568e-01 -1.122487306594848633e+00 4.179637730121612549e-01
4.642000000000000000e+03 2.660112953186035156e+01 -7.108147740364074707e-01 -2.932068824768066406e+00 -1.340542584657669067e-01 -9.198368787765502930e-01 2.063034772872924805e-01
4.643000000000000000e+03 2.678525352478027344e+01 -7.864116430282592773e-01 -2.548748731613159180e+00 -1.063142642378807068e-01 -7.965189218521118164e-01 1.706447601318359375e-01
4.644000000000000000e+03 2.696937561035156250e+01 -8.620085120201110840e-01 -2.326231002807617188e+00 -9.231368452310562134e-02 -7.255634069442749023e-01 1.607067584991455078e-01
4.645000000000000000e+03 2.643381309509277344e+01 -5.791985392570495605e-01 -3.745188236236572266e+00 7.803670316934585571e-02 -1.100145459175109863e+00 3.486969321966171265e-02
4.646000000000000000e+03 2.662914276123046875e+01 -6.174492239952087402e-01 -2.948301076889038086e+00 -6.335199624300003052e-02 -9.034959077835083008e-01 2.415628172457218170e-03
4.647000000000000000e+03 2.682447052001953125e+01 -6.556999087333679199e-01 -2.657466173171997070e+00 -4.582221433520317078e-02 -8.109865188598632812e-01 1.095861848443746567e-02
4.648000000000000000e+03 2.701979827880859375e+01 -6.939505934715270996e-01 -2.390327453613281250e+00 -1.073648035526275635e-02 -7.203191518783569336e-01 -1.932618580758571625e-02
4.649000000000000000e+03 2.643937683105468750e+01 -5.209773778915405273e-01 -3.520018577575683594e+00 6.975668668746948242e-02 -1.035078644752502441e+00 -3.185876011848449707e-01
4.650000000000000000e+03 2.663841629028320312e+01 -5.204139947891235352e-01 -3.012984275817871094e+00 -6.271960586309432983e-02 -9.227111935615539551e-01 -1.701693385839462280e-01
4.651000000000000000e+03 2.683745193481445312e+01 -5.198506116867065430e-01 -2.636244773864746094e+00 4.536011721938848495e-03 -7.895126342773437500e-01 -2.024717628955841064e-01
4.652000000000000000e+03 2.703648948669433594e+01 -5.192871689796447754e-01 -2.435286760330200195e+00 -2.129064127802848816e-02 -7.369732260704040527e-01 -1.735188513994216919e-01
4.653000000000000000e+03 3.784771728515625000e+01 1.573838591575622559e-01 -1.640913821756839752e-02 -2.020880114287137985e-03 -5.529005546122789383e-03 7.791755255311727524e-03
4.654000000000000000e+03 3.725452804565429688e+01 -4.614862799644470215e-01 -4.349980503320693970e-02 -4.826658405363559723e-03 -1.449793949723243713e-02 3.713691979646682739e-02
4.655000000000000000e+03 3.576796340942382812e+01 -2.034789621829986572e-01 -1.071968525648117065e-01 7.570289075374603271e-03 -2.988796867430210114e-02 1.810602098703384399e-02
4.656000000000000000e+03 3.773318862915039062e+01 6.399024128913879395e-01 -8.331540971994400024e-03 -7.028257241472601891e-04 -2.710310043767094612e-03 -2.583341847639530897e-04
4.657000000000000000e+03 3.793711853027343750e+01 -3.290801048278808594e-01 -9.640160016715526581e-03 -7.155341096222400665e-03 -5.038650240749120712e-03 2.065399289131164551e-02
4.658000000000000000e+03 3.579476928710937500e+01 1.557014137506484985e-01 -9.302593767642974854e-02 6.263216491788625717e-03 -2.602881751954555511e-02 1.803961931727826595e-03
4.659000000000000000e+03 3.544619369506835938e+01 -5.567274093627929688e-01 -1.592908054590225220e-01 1.604295149445533752e-02 -4.297435656189918518e-02 4.704657196998596191e-02
4.660000000000000000e+03 3.542301177978515625e+01 -3.483869433403015137e-01 -1.367045938968658447e-01 7.870875298976898193e-03 -3.865011408925056458e-02 3.101352415978908539e-02
4.661000000000000000e+03 3.557382965087890625e+01 -9.237620830535888672e-01 -1.798803061246871948e-01 2.210845425724983215e-02 -4.733155295252799988e-02 7.974576205015182495e-02
4.662000000000000000e+03 3.620565032958984375e+01 -5.708550214767456055e-01 -1.011106297373771667e-01 6.240836344659328461e-03 -2.846093848347663879e-02 5.238502472639083862e-02
4.663000000000000000e+03 3.543449020385742188e+01 -7.468969821929931641e-01 -1.989273428916931152e-01 3.072638995945453644e-02 -5.046028643846511841e-02 6.050834432244300842e-02
4.664000000000000000e+03 3.575466537475585938e+01 -7.140525579452514648e-01 -1.553101539611816406e-01 1.414004620164632797e-02 -4.235103353857994080e-02 6.901442259550094604e-02
4.665000000000000000e+03 3.536248397827148438e+01 8.274657279253005981e-02 -1.240349486470222473e-01 4.773333668708801270e-03 -3.577848523855209351e-02 -7.650083280168473721e-04
4.666000000000000000e+03 3.537422180175781250e+01 -1.330137997865676880e-01 -1.317793428897857666e-01 8.583255112171173096e-03 -3.695882856845855713e-02 5.783273372799158096e-03
4.667000000000000000e+03 3.720196914672851562e+01 2.339655533432960510e-02 -3.125749900937080383e-02 -9.707122226245701313e-04 -9.668463841080665588e-03 1.159923709928989410e-02
4.668000000000000000e+03 3.633927154541015625e+01 3.176230490207672119e-01 -5.811317637562751770e-02 7.522871601395308971e-04 -1.720826700329780579e-02 4.267979878932237625e-03
4.669000000000000000e+03 3.702178573608398438e+01 4.951345026493072510e-01 -2.346822246909141541e-02 -7.307131891138851643e-04 -7.259680889546871185e-03 2.941243583336472511e-03
4.670000000000000000e+03 3.670540237426757812e+01 -2.419523298740386963e-01 -5.973669514060020447e-02 -2.581844746600836515e-04 -1.799846440553665161e-02 3.130234777927398682e-02
4.671000000000000000e+03 3.540359497070312500e+01 3.248628079891204834e-01 -9.057787060737609863e-02 -1.409831602359190583e-04 -2.721565775573253632e-02 -7.896861992776393890e-03
4.672000000000000000e+03 2.680468750000000000e+01 1.088164567947387695e+00 1.568550020456314087e-01 6.660901755094528198e-02 6.703920662403106689e-02 -9.276476502418518066e-02
4.673000000000000000e+03 3.282873153686523438e+01 1.759412050247192383e+00 -3.557104355422779918e-05 1.970957091543823481e-04 4.845740113523788750e-05 1.910519313241820782e-05
4.674000000000000000e+03 3.256165695190429688e+01 1.791955471038818359e+00 -1.390218676533550024e-04 -1.850258850026875734e-04 -9.721432434162124991e-05 6.932658288860693574e-05
4.675000000000000000e+03 3.268337631225585938e+01 1.737726449966430664e+00 1.089965880964882672e-04 -1.379924942739307880e-04 -8.698773854121100157e-06 9.069141015061177313e-06
4.676000000000000000e+03 3.273002243041992188e+01 1.890288829803466797e+00 -4.114356415811926126e-04 -6.562309863511472940e-05 -1.431176206097006798e-04 1.568312291055917740e-04
4.677000000000000000e+03 3.914461517333984375e+01 2.359752893447875977e+00 -3.264252154622226954e-04 1.253840018762275577e-04 -6.031236262060701847e-05 5.809030699310824275e-05
4.678000000000000000e+03 3.842591857910156250e+01 1.450954198837280273e+00 -6.634954479523003101e-05 -1.084578616428188980e-04 -5.244222120381891727e-05 7.652248314116150141e-05
4.679000000000000000e+03 3.827068328857421875e+01 2.174587726593017578e+00 1.165536887128837407e-04 2.735230555117595941e-05 4.317179991630837321e-05 -5.424579649115912616e-05
4.680000000000000000e+03 3.930421447753906250e+01 1.637129545211791992e+00 3.704641421791166067e-04 2.239833847852423787e-04 1.783342595444992185e-04 -2.503834548406302929e-04
4.681000000000000000e+03 3.970756530761718750e+01 2.307757139205932617e+00 -4.089537542313337326e-04 -4.785521887242794037e-04 -2.662517654243856668e-04 1.827467203838750720e-04
4.682000000000000000e+03 3.532656478881835938e+01 1.218266010284423828e+00 -3.414832463022321463e-04 4.530878504738211632e-05 -8.885233546607196331e-05 1.431599230272695422e-05
4.683000000000000000e+03 3.516021347045898438e+01 1.843163371086120605e+00 -2.058897225651890039e-04 -3.953199848183430731e-05 -7.362652104347944260e-05 -2.598605169623624533e-05
4.684000000000000000e+03 3.509786987304687500e+01 1.261741042137145996e+00 9.118110028794035316e-05 5.601039083558134735e-05 4.415744842845015228e-05 1.487096596974879503e-04
4.685000000000000000e+03 3.551464080810546875e+01 1.057103157043457031e+00 1.359526213491335511e-04 1.303074386669322848e-04 7.987802382558584213e-05 -1.835827133618295193e-04
4.686000000000000000e+03 3.518862915039062500e+01 9.300561547279357910e-01 -3.425226168474182487e-06 -6.374606164172291756e-05 -2.015138670685701072e-05 9.046502964338287711e-05
4.687000000000000000e+03 3.561892700195312500e+01 7.942531704902648926e-01 1.387113152304664254e-04 2.636172757775057107e-05 4.952191375195980072e-05 -3.001864024554379284e-05
4.688000000000000000e+03 3.683752059936523438e+01 1.132660150527954102e+00 1.654275183682329953e-05 -3.580907650757580996e-05 -5.779897946922574192e-06 3.606683458201587200e-05
4.689000000000000000e+03 3.744252777099609375e+01 2.003676176071166992e+00 -4.427049498190172017e-05 -7.208884198917075992e-05 -3.490779999992810190e-05 4.783520125783979893e-05
4.690000000000000000e+03 3.758993148803710938e+01 1.278456091880798340e+00 2.321029205631930381e-05 8.503637218382209539e-05 3.247399945394136012e-05 -3.478910002741031349e-05
4.691000000000000000e+03 3.510199737548828125e+01 1.635613560676574707e+00 1.135539860115386546e-04 -8.214203990064561367e-05 9.423584742762614042e-06 -2.776861765596549958e-05
4.692000000000000000e+03 3.585155868530273438e+01 1.316713333129882812e+00 -3.632502048276364803e-04 -9.680379298515617847e-05 -1.380161993438377976e-04 4.048498885822482407e-05
4.693000000000000000e+03 3.670141983032226562e+01 1.860043287277221680e+00 -5.152232552063651383e-05 6.338633102132007480e-05 3.559201786629273556e-06 -5.471442636917345226e-05
4.694000000000000000e+03 3.535565185546875000e+01 5.763555169105529785e-01 -1.047840560204349458e-04 -1.585547943250276148e-05 -3.619186099967919290e-05 2.407939427939709276e-05
4.695000000000000000e+03 3.511064147949218750e+01 1.445441007614135742e+00 -1.055626344168558717e-04 -7.804510096320882440e-05 -5.508232061401940882e-05 7.484181878680828959e-06
4.696000000000000000e+03 3.613363647460937500e+01 9.247913360595703125e-01 3.647271296358667314e-05 3.985667262895731255e-06 1.213751420436892658e-05 -9.706470336823258549e-06
4.697000000000000000e+03 3.546948623657226562e+01 1.730145692825317383e+00 -3.535343785188160837e-05 1.442133652744814754e-04 3.265797568019479513e-05 2.336953730264212936e-05
4.698000000000000000e+03 3.545494842529296875e+01 1.439249277114868164e+00 1.531343441456556320e-04 1.679077540757134557e-04 9.631262946641072631e-05 8.632826211396604776e-05
4.699000000000000000e+03 3.598669815063476562e+01 1.795895457267761230e+00 2.354462048970162868e-04 -7.653688226127997041e-05 4.767279460793361068e-05 4.919489583699032664e-06
4.700000000000000000e+03 3.523711776733398438e+01 7.485983967781066895e-01 3.102121627307496965e-05 -4.568311851471662521e-05 -4.398570581543026492e-06 2.619365295686293393e-05
4.701000000000000000e+03 3.512268447875976562e+01 1.098272919654846191e+00 5.680282993125729263e-05 -8.741480428398062941e-07 1.677860382187645882e-05 -1.946521515492349863e-04
4.702000000000000000e+03 7.138031005859375000e+01 -1.674990081787109375e+01 1.320850174124643672e-06 2.980590397783089429e-05 9.338026757177431136e-06 -7.755515412100066897e-07
4.703000000000000000e+03 7.211955261230468750e+01 -1.671120262145996094e+01 -4.316746071708621457e-06 -2.848432632163167000e-05 -9.840321581577882171e-06 3.757413651328533888e-07
4.704000000000000000e+03 7.071197509765625000e+01 -1.752739334106445312e+01 1.747078931657597423e-05 3.080161332036368549e-05 1.448172042728401721e-05 1.686263544797839131e-06
4.705000000000000000e+03 7.287363433837890625e+01 -1.741421890258789062e+01 -8.391791197936981916e-06 -2.963536644529085606e-05 -1.140814765676623210e-05 2.574205609562341124e-06
4.706000000000000000e+03 7.215311431884765625e+01 -1.745045852661132812e+01 5.630162377201486379e-06 3.600939089665189385e-05 1.249186607310548425e-05 -5.899793364960714825e-08
4.707000000000000000e+03 7.143251037597656250e+01 -1.748818206787109375e+01 -7.404583357129013166e-06 -3.717564686667174101e-05 -1.337406865786761045e-05 -3.155186504955054261e-06
4.708000000000000000e+03 7.285870361328125000e+01 -1.667398834228515625e+01 1.280375272472156212e-06 2.589706127764657140e-05 8.153230737661942840e-06 -4.910791062684438657e-07
4.709000000000000000e+03 7.064115142822265625e+01 -1.679008674621582031e+01 -8.301226444018539041e-06 -3.315839421702548862e-05 -1.243788665306055918e-05 4.365543190942844376e-06
4.710000000000000000e+03 7.509190368652343750e+01 -1.672233772277832031e+01 -5.259661520540248603e-06 -1.945370240719057620e-05 -7.414008905470836908e-06 -2.300004098287899978e-06
4.711000000000000000e+03 7.507875823974609375e+01 -1.746236038208007812e+01 1.070065172825707123e-05 1.498661276855273172e-05 7.706179530941881239e-06 3.988519893027842045e-06
4.712000000000000000e+03 7.583750152587890625e+01 -1.675157546997070312e+01 -6.184409926390799228e-07 1.844483813329134136e-05 5.347918886400293559e-06 8.134216500366164837e-07
4.713000000000000000e+03 7.360292816162109375e+01 -1.740974807739257812e+01 1.222092578245792538e-05 2.251808291475754231e-05 1.042170242726569995e-05 -9.667493259257753380e-07
4.714000000000000000e+03 7.434651947021484375e+01 -1.669533538818359375e+01 2.114615654136287048e-06 1.984841219382360578e-05 6.588908490812173113e-06 1.205064336318173446e-06
4.715000000000000000e+03 7.581685638427734375e+01 -1.749131965637207031e+01 -2.391270299995085225e-06 -1.254386552318464965e-05 -4.480540610529715195e-06 -2.000324229811667465e-06
4.716000000000000000e+03 7.434088134765625000e+01 -1.743563652038574219e+01 -1.126389543060213327e-05 -1.832613270380534232e-05 -8.877008440322242677e-06 -2.558762162152561359e-06
4.717000000000000000e+03 7.360105895996093750e+01 -1.666916847229003906e+01 -5.003270416636951268e-06 -2.227633740403689444e-05 -8.183882528101094067e-06 1.068242099222516117e-07
4.718000000000000000e+03 7.968632507324218750e+01 -1.742419242858886719e+01 -3.462969107204116881e-05 -2.644897904247045517e-05 -1.832360067055560648e-05 -1.857597817433997989e-05
4.719000000000000000e+03 7.850669860839843750e+01 -1.755505180358886719e+01 -8.763044206716585904e-06 5.273594069876708090e-06 -1.046835109264065977e-06 1.194429614770342596e-06
4.720000000000000000e+03 7.652082824707031250e+01 -1.751028823852539062e+01 2.858793777704704553e-06 1.232737122336402535e-05 4.555849500320618972e-06 -5.168952156964223832e-06
4.721000000000000000e+03 7.873721313476562500e+01 -1.681438636779785156e+01 8.215229172492399812e-07 -1.472499388910364360e-05 -4.171041382505791262e-06 -5.944908025412587449e-06
4.722000000000000000e+03 7.785486602783203125e+01 -1.753419113159179688e+01 1.338759557256707922e-05 -3.744745072253863327e-06 2.892855263780802488e-06 -4.926303972752066329e-06
4.723000000000000000e+03 7.802648925781250000e+01 -1.679383087158203125e+01 -2.523344392102444544e-06 7.812021976860705763e-06 1.586603389114316087e-06 4.839249413635116071e-06
4.724000000000000000e+03 7.718931579589843750e+01 -1.751985740661621094e+01 -7.833853487682063133e-06 -4.245768650434911251e-06 -3.623886641435092315e-06 1.127026280300924554e-05
4.725000000000000000e+03 7.657466888427734375e+01 -1.677053260803222656e+01 -3.340040393595700152e-06 -1.244997929461533204e-05 -4.737005838251207024e-06 2.747974804151454009e-06
4.726000000000000000e+03 7.909966278076171875e+01 -1.758989524841308594e+01 -2.424945705570280552e-05 1.498386063758516684e-05 -2.779678879960556515e-06 1.217064891534391791e-06
4.727000000000000000e+03 7.938906860351562500e+01 -1.684892654418945312e+01 3.476742131169885397e-05 3.167496470268815756e-05 1.993271689570974559e-05 2.988182859553489834e-05
4.728000000000000000e+03 7.730204772949218750e+01 -1.677979850769042969e+01 1.812199911910283845e-06 1.949776788023882546e-06 1.128592998611566145e-06 -3.605255415095598437e-06
4.729000000000000000e+03 7.943219757080078125e+01 -1.525699043273925781e+01 -2.140537369996309280e-03 5.838421056978404522e-04 -4.670085909310728312e-04 2.320585772395133972e-03
4.730000000000000000e+03 7.838642120361328125e+01 -1.516350746154785156e+01 5.789355491288006306e-04 -2.672824310138821602e-03 -6.281665991991758347e-04 1.896607456728816032e-03
4.731000000000000000e+03 7.780564117431640625e+01 -1.512424659729003906e+01 -4.191762302070856094e-03 -9.500809945166110992e-03 -4.107771441340446472e-03 -2.691084751859307289e-03
4.732000000000000000e+03 7.662574768066406250e+01 -1.525570678710937500e+01 -1.337625272572040558e-02 -7.423368748277425766e-03 -6.239886395633220673e-03 -7.599465083330869675e-03
4.733000000000000000e+03 7.725820159912109375e+01 -1.518011665344238281e+01 -6.409809924662113190e-03 1.575950009282678366e-04 -1.875664456747472286e-03 -4.574035760015249252e-03
4.734000000000000000e+03 7.888636779785156250e+01 -1.611222648620605469e+01 3.557732328772544861e-03 -2.612992888316512108e-03 2.834218321368098259e-04 1.650968682952225208e-03
4.735000000000000000e+03 7.888313293457031250e+01 -1.558502388000488281e+01 3.405258059501647949e-03 2.194802975282073021e-03 1.680018380284309387e-03 2.781616058200597763e-03
4.736000000000000000e+03 7.663484954833984375e+01 -1.599727630615234375e+01 6.192351225763559341e-03 2.152695087715983391e-03 2.503513824194669724e-03 -2.090964466333389282e-03
4.737000000000000000e+03 7.962244415283203125e+01 -1.590537452697753906e+01 7.293972303159534931e-04 2.685649553313851357e-03 1.024514087475836277e-03 1.347190467640757561e-03
4.738000000000000000e+03 7.827157592773437500e+01 -1.562149429321289062e+01 1.207898836582899094e-03 -2.035755664110183716e-03 -2.483570715412497520e-04 3.865049453452229500e-03
4.739000000000000000e+03 7.741748809814453125e+01 -1.606798362731933594e+01 8.964899927377700806e-03 -3.499575424939393997e-03 1.639597350731492043e-03 -1.291134161874651909e-03
4.740000000000000000e+03 7.816462707519531250e+01 -1.613920974731445312e+01 8.761878125369548798e-03 2.157057402655482292e-03 3.275680588558316231e-03 1.648368313908576965e-03
4.741000000000000000e+03 7.763186645507812500e+01 -1.553283691406250000e+01 -2.458239672705531120e-03 -3.449037671089172363e-03 -1.772183226421475410e-03 -9.803902357816696167e-04
4.742000000000000000e+03 7.896445465087890625e+01 -1.517584800720214844e+01 -2.010984113439917564e-03 3.575375070795416832e-03 4.693172813858836889e-04 5.376278422772884369e-03
4.743000000000000000e+03 7.435244750976562500e+01 -1.591604232788085938e+01 -2.097564563155174255e-02 -3.966736607253551483e-03 -7.482714485377073288e-03 -4.993034992367029190e-03
4.744000000000000000e+03 7.588006591796875000e+01 -1.523305606842041016e+01 -2.122752740979194641e-02 1.015930203720927238e-03 -6.063479464501142502e-03 -1.160948071628808975e-02
4.745000000000000000e+03 7.359722137451171875e+01 -1.514822292327880859e+01 -5.902855470776557922e-02 5.629265797324478626e-04 -1.753968931734561920e-02 -1.528812106698751450e-02
4.746000000000000000e+03 7.510590362548828125e+01 -1.594404602050781250e+01 -9.677193127572536469e-03 3.974103834480047226e-03 -1.710926764644682407e-03 -4.758056253194808960e-03
4.747000000000000000e+03 7.359909057617187500e+01 -1.588880252838134766e+01 -3.380936384201049805e-02 3.361445385962724686e-03 -9.134376421570777893e-03 -6.202117074280977249e-03
4.748000000000000000e+03 7.435808563232421875e+01 -1.517574119567871094e+01 -4.601083695888519287e-02 1.386090880259871483e-03 -1.338742394000291824e-02 -1.870039664208889008e-02
4.749000000000000000e+03 7.585942077636718750e+01 -1.597279930114746094e+01 -4.826424119528383017e-04 -4.100053105503320694e-03 -1.374808605760335922e-03 -4.301122389733791351e-03
4.750000000000000000e+03 7.511904144287109375e+01 -1.520402336120605469e+01 -3.206177055835723877e-02 -4.314778372645378113e-03 -1.091296412050724030e-02 -1.469923742115497589e-02
4.751000000000000000e+03 7.132652282714843750e+01 -1.597409629821777344e+01 -4.243357479572296143e-02 5.885686259716749191e-04 -1.255350187420845032e-02 8.940658299252390862e-04
4.752000000000000000e+03 7.056670379638671875e+01 -1.601350212097167969e+01 -3.098225779831409454e-02 5.698591936379671097e-03 -7.585099898278713226e-03 6.206694524735212326e-03
4.753000000000000000e+03 7.208541107177734375e+01 -1.593443489074707031e+01 -4.459683597087860107e-02 2.482409356161952019e-03 -1.263432763516902924e-02 -2.650722162798047066e-03
4.754000000000000000e+03 7.284317016601562500e+01 -1.589438438415527344e+01 -4.333804920315742493e-02 -1.292981673032045364e-03 -1.338930893689393997e-02 -3.859057091176509857e-03
4.755000000000000000e+03 7.282823944091796875e+01 -1.515415287017822266e+01 -6.963914632797241211e-02 3.341927425935864449e-03 -1.988916471600532532e-02 -1.573591306805610657e-02
4.756000000000000000e+03 7.049587249755859375e+01 -1.527619743347167969e+01 -8.718761801719665527e-02 1.822734437882900238e-02 -2.068808116018772125e-02 1.120052114129066467e-02
4.757000000000000000e+03 7.127433013916015625e+01 -1.523581504821777344e+01 -8.301647007465362549e-02 4.918227437883615494e-03 -2.342947386205196381e-02 4.248589975759387016e-04
4.758000000000000000e+03 7.205184173583984375e+01 -1.519517898559570312e+01 -8.195298165082931519e-02 7.553011644631624222e-03 -2.231999114155769348e-02 -5.942452233284711838e-03
4.759000000000000000e+03 6.817024993896484375e+01 -1.550610160827636719e+01 -1.574552059173583984e-02 -3.656393662095069885e-02 -1.569283753633499146e-02 3.672657534480094910e-02
4.760000000000000000e+03 6.846852111816406250e+01 -1.537384891510009766e+01 -4.175341874361038208e-02 -2.367836795747280121e-02 -1.962953619658946991e-02 3.814813494682312012e-02
4.761000000000000000e+03 6.969725036621093750e+01 -1.535203933715820312e+01 -8.332943916320800781e-02 -9.509318508207798004e-03 -2.785162627696990967e-02 1.288719382137060165e-02
4.762000000000000000e+03 6.900823211669921875e+01 -1.536187553405761719e+01 -2.967029996216297150e-02 5.024708807468414307e-03 -7.393677253276109695e-03 3.527792915701866150e-02
4.763000000000000000e+03 6.970433807373046875e+01 -1.610097312927246094e+01 -9.752316400408744812e-03 -9.996347362175583839e-04 -3.225585445761680603e-03 9.245026856660842896e-03
4.764000000000000000e+03 6.807101440429687500e+01 -1.580119132995605469e+01 3.959066793322563171e-02 4.395322501659393311e-02 2.506316825747489929e-02 -1.445756759494543076e-02
4.765000000000000000e+03 6.868652343750000000e+01 -1.567752170562744141e+01 1.548749511130154133e-03 -7.999260909855365753e-03 -1.935153384692966938e-03 3.824757784605026245e-02
4.766000000000000000e+03 6.877530670166015625e+01 -1.623340034484863281e+01 -5.167045164853334427e-03 -1.540340110659599304e-02 -6.171133834868669510e-03 -9.913922287523746490e-03
4.767000000000000000e+03 6.846734619140625000e+01 -1.765766716003417969e+01 1.590948340890463442e-05 1.870922278612852097e-05 1.038561185850994661e-05 -3.344255674164742231e-05
4.768000000000000000e+03 6.902794647216796875e+01 -1.774423980712890625e+01 2.348059024370741099e-05 1.275008162338053808e-05 1.086920110537903383e-05 7.842748345865402371e-06
4.769000000000000000e+03 6.989218139648437500e+01 -1.761616897583007812e+01 -1.202347266371361911e-05 -1.644702388148289174e-05 -8.541149327356833965e-06 -3.465094948751357151e-07
4.770000000000000000e+03 6.980416870117187500e+01 -1.688065528869628906e+01 4.748467745230300352e-06 3.117582673439756036e-05 1.077728848031256348e-05 -8.079533472482580692e-06
4.771000000000000000e+03 6.892420196533203125e+01 -1.701133537292480469e+01 -2.640014827193226665e-05 -3.933659900212660432e-05 -1.972102472791448236e-05 1.874692316050641239e-05
4.772000000000000000e+03 1.639982223510742188e+01 -2.317397296428680420e-01 -1.991006016731262207e+00 -3.114012628793716431e-02 -6.066438555717468262e-01 -1.597242504358291626e-01
4.773000000000000000e+03 1.798723983764648438e+01 -8.314419388771057129e-01 -1.639496445655822754e+00 -1.802280917763710022e-02 -4.972558021545410156e-01 -1.345514208078384399e-01
4.774000000000000000e+03 1.645354080200195312e+01 -9.699125885963439941e-01 -1.636359453201293945e+00 -2.505513280630111694e-02 -4.984243810176849365e-01 -1.314170509576797485e-01
4.775000000000000000e+03 1.875374794006347656e+01 -7.599936723709106445e-01 -1.575875043869018555e+00 -3.963144868612289429e-02 -4.846519529819488525e-01 -1.153486594557762146e-01
4.776000000000000000e+03 1.790756225585937500e+01 -9.563824534416198730e-02 -1.934742569923400879e+00 -2.093335427343845367e-02 -5.867027640342712402e-01 -1.739528477191925049e-01
4.777000000000000000e+03 1.866109085083007812e+01 -2.537456899881362915e-02 -1.938761711120605469e+00 -3.969593346118927002e-02 -5.935372710227966309e-01 -1.975203454494476318e-01
4.778000000000000000e+03 1.715376663208007812e+01 -1.644264459609985352e-01 -1.952675342559814453e+00 -1.268004532903432846e-02 -5.896065831184387207e-01 -1.737623810768127441e-01
4.779000000000000000e+03 1.722046470642089844e+01 -9.014146924018859863e-01 -1.655621170997619629e+00 -1.740711182355880737e-02 -5.019084811210632324e-01 -1.253937333822250366e-01
4.780000000000000000e+03 1.941230964660644531e+01 7.625918835401535034e-02 -1.842916965484619141e+00 -5.570644885301589966e-02 -5.695869922637939453e-01 -2.305390834808349609e-01
4.781000000000000000e+03 2.090952491760253906e+01 3.449267148971557617e-01 -1.514522433280944824e+00 -2.138504944741725922e-02 -4.607722461223602295e-01 -1.970898061990737915e-01
4.782000000000000000e+03 1.952174568176269531e+01 -6.559218764305114746e-01 -1.525378704071044922e+00 -1.534803491085767746e-02 -4.622180163860321045e-01 -7.797511667013168335e-02
4.783000000000000000e+03 2.106011390686035156e+01 -3.798714280128479004e-01 -1.365301966667175293e+00 4.671785607933998108e-02 -3.955752551555633545e-01 -4.745126888155937195e-02
4.784000000000000000e+03 2.183077621459960938e+01 -2.417316585779190063e-01 -1.228729844093322754e+00 8.009491860866546631e-02 -3.445904850959777832e-01 2.866843715310096741e-02
4.785000000000000000e+03 2.165959548950195312e+01 4.794237911701202393e-01 -1.360511898994445801e+00 -2.010623738169670105e-02 -4.141854345798492432e-01 -1.711490601301193237e-01
4.786000000000000000e+03 2.016033744812011719e+01 2.105962187051773071e-01 -1.663288474082946777e+00 -2.328610420227050781e-02 -5.059723854064941406e-01 -2.306716144084930420e-01
4.787000000000000000e+03 2.029035186767578125e+01 -5.178933739662170410e-01 -1.472453951835632324e+00 1.950481347739696503e-02 -4.358847439289093018e-01 -6.358376890420913696e-02
4.788000000000000000e+03 2.655191993713378906e+01 1.211927890777587891e+00 2.111659049987792969e-01 7.763047516345977783e-02 8.663892000913619995e-02 -1.356701105833053589e-01
4.789000000000000000e+03 2.642835426330566406e+01 1.133576512336730957e+00 1.118633374571800232e-01 5.363497883081436157e-02 4.964949563145637512e-02 -1.006233766674995422e-01
4.790000000000000000e+03 2.606766891479492188e+01 1.098246335983276367e+00 7.120107114315032959e-02 6.341996602714061737e-03 2.326292172074317932e-02 -5.377703532576560974e-02
4.791000000000000000e+03 2.582571220397949219e+01 1.493316173553466797e+00 1.895972788333892822e-01 1.703768782317638397e-02 6.199048832058906555e-02 -7.962655276060104370e-02
4.792000000000000000e+03 2.501582145690917969e+01 5.861303806304931641e-01 -4.388138353824615479e-01 -1.560923457145690918e-01 -1.784718483686447144e-01 3.081211745738983154e-01
4.793000000000000000e+03 2.419348907470703125e+01 1.309267878532409668e+00 -1.861487478017807007e-01 3.409242257475852966e-02 -4.561689868569374084e-02 7.996133714914321899e-02
4.794000000000000000e+03 2.509922599792480469e+01 7.193784713745117188e-01 -4.292788803577423096e-01 -1.060571298003196716e-01 -1.606007963418960571e-01 2.458198070526123047e-01
4.795000000000000000e+03 2.335133743286132812e+01 9.742200970649719238e-01 -5.486427545547485352e-01 5.080815777182579041e-02 -1.493503749370574951e-01 5.007943604141473770e-03
4.796000000000000000e+03 2.246587944030761719e+01 6.890802979469299316e-01 -1.017823934555053711e+00 1.790751330554485321e-02 -2.999749481678009033e-01 -1.061023473739624023e-01
4.797000000000000000e+03 2.265129470825195312e+01 -3.019443526864051819e-02 -1.125367999076843262e+00 1.725206375122070312e-01 -2.858541905879974365e-01 1.022712066769599915e-01
4.798000000000000000e+03 2.354462623596191406e+01 2.551128566265106201e-01 -9.435819387435913086e-01 1.824600696563720703e-01 -2.283365577459335327e-01 1.870997399091720581e-01
4.799000000000000000e+03 2.584380340576171875e+01 1.124831318855285645e+00 4.048394039273262024e-02 -5.589474737644195557e-02 -4.623241256922483444e-03 -4.586142022162675858e-03
4.800000000000000000e+03 2.487414550781250000e+01 4.951079189777374268e-01 -5.179934501647949219e-01 -1.205345690250396729e-01 -1.915584057569503784e-01 3.330848217010498047e-01
4.801000000000000000e+03 2.494935035705566406e+01 1.589968442916870117e+00 8.585644513368606567e-02 -3.053660318255424500e-02 1.659595407545566559e-02 4.184103012084960938e-02
4.802000000000000000e+03 2.549102401733398438e+01 1.621851563453674316e+00 1.244260072708129883e-01 -1.960139535367488861e-02 3.144738450646400452e-02 -2.920826524496078491e-02
4.803000000000000000e+03 2.559309387207031250e+01 1.118039727210998535e+00 9.750179015100002289e-03 -8.094585686922073364e-02 -2.135870233178138733e-02 3.988348320126533508e-02
4.804000000000000000e+03 2.540032577514648438e+01 1.009757041931152344e+00 -8.485294878482818604e-02 -1.075220257043838501e-01 -5.771249160170555115e-02 7.663732767105102539e-02
4.805000000000000000e+03 2.625621414184570312e+01 1.101973772048950195e+00 1.061981618404388428e-01 2.445991337299346924e-02 3.919742256402969360e-02 -8.945848792791366577e-02
4.806000000000000000e+03 2.504071807861328125e+01 1.115116357803344727e+00 -1.230163425207138062e-01 -8.785156905651092529e-02 -6.326036900281906128e-02 9.049852192401885986e-02
4.807000000000000000e+03 2.523330116271972656e+01 8.552555441856384277e-01 -2.738722562789916992e-01 -1.151058450341224670e-01 -1.166934296488761902e-01 1.444888412952423096e-01
4.808000000000000000e+03 2.457161521911621094e+01 8.719542026519775391e-01 -4.207595586776733398e-01 2.049234136939048767e-02 -1.200801655650138855e-01 1.660127192735671997e-01
4.809000000000000000e+03 2.627415084838867188e+01 1.360334515571594238e+00 2.567937672138214111e-01 6.518688052892684937e-02 9.659419953823089600e-02 -1.324366182088851929e-01
4.810000000000000000e+03 2.609403038024902344e+01 1.311385989189147949e+00 1.934813708066940308e-01 4.005667567253112793e-02 7.006141543388366699e-02 -9.707170724868774414e-02
4.811000000000000000e+03 2.439571952819824219e+01 4.309497177600860596e-01 -6.806100606918334961e-01 8.242291957139968872e-02 -1.794561445713043213e-01 2.362549006938934326e-01
4.812000000000000000e+03 2.488675880432128906e+01 6.897756457328796387e-01 -4.743209183216094971e-01 -1.126880198717117310e-01 -1.761026829481124878e-01 2.896146476268768311e-01
4.813000000000000000e+03 2.337566375732421875e+01 2.629750251770019531e+00 -1.960508825504803099e-06 -3.721068651429959573e-06 -1.704473220343061257e-06 -3.602795217716447951e-08
4.814000000000000000e+03 2.201377296447753906e+01 2.125266075134277344e+00 -5.980498372082365677e-07 -4.991758487449260429e-06 -1.676942474659881555e-06 8.440756573691032827e-07
4.815000000000000000e+03 2.225197982788085938e+01 1.423350930213928223e+00 -2.654106623367624707e-08 4.021786480734590441e-06 1.198573613692133222e-06 -7.232625307551643346e-07
4.816000000000000000e+03 2.309097290039062500e+01 1.672813296318054199e+00 -3.937166184186935425e-07 -2.725918648138758726e-06 -9.358906254419707693e-07 2.964951590911368839e-07
4.817000000000000000e+03 2.428779029846191406e+01 2.625434398651123047e+00 -2.783624495350522920e-06 4.362838978977379156e-07 -7.042021934466902167e-07 4.351499001131742261e-07
4.818000000000000000e+03 2.478089141845703125e+01 2.056442260742187500e+00 -7.358422635661554523e-07 -8.450900850220932625e-07 -4.742796875234489562e-07 -5.436953074422490317e-07
4.819000000000000000e+03 2.395736885070800781e+01 2.308834791183471680e+00 3.160508640576153994e-06 1.143603526543301996e-06 1.291233616029785480e-06 2.493175088602583855e-08
4.820000000000000000e+03 2.392651367187500000e+01 2.926619052886962891e+00 -4.714611634426546516e-07 5.962089630884293001e-07 3.742434273590333760e-08 -7.704390441176656168e-07
4.821000000000000000e+03 2.456351280212402344e+01 2.352871417999267578e+00 2.666738964762771502e-06 -5.532599800517346011e-08 7.834238999748777132e-07 1.294928438255738001e-06
4.822000000000000000e+03 2.273927497863769531e+01 2.339991807937622070e+00 9.058714454113214742e-07 4.017896117147756740e-06 1.477130240346014034e-06 -9.349271294922800735e-07
4.823000000000000000e+03 2.395885276794433594e+01 1.871361255645751953e+00 -6.695602792206045706e-07 1.671812583481369074e-06 3.006757083312550094e-07 -9.811893164624052588e-08
4.824000000000000000e+03 2.075237083435058594e+01 1.106616377830505371e+00 8.270549045619191020e-08 6.116749773354968056e-06 1.859836515905044507e-06 -1.421859224137733690e-06
4.825000000000000000e+03 2.060178184509277344e+01 1.831414580345153809e+00 -8.671636351209599525e-07 -5.581017376243835315e-06 -1.934454303409438580e-06 5.224059123065671884e-07
4.826000000000000000e+03 2.130817413330078125e+01 1.960395336151123047e+00 2.871963431516633136e-07 4.763740435009822249e-06 1.515281041974958498e-06 -9.964992386812809855e-07
4.827000000000000000e+03 1.918785858154296875e+01 1.579434752464294434e+00 -1.510339870947063901e-06 -6.474259407696081325e-06 -2.395379851805046201e-06 3.791386689044884406e-07
4.828000000000000000e+03 1.989505195617675781e+01 1.704050064086914062e+00 6.284150799729104619e-07 5.812431027152342722e-06 1.932253780978498980e-06 -1.315452891503809951e-06
4.829000000000000000e+03 1.929729461669921875e+01 8.472537398338317871e-01 -4.295503686080337502e-07 7.049263786029769108e-06 1.985913968383101746e-06 -1.274525402550352737e-06
4.830000000000000000e+03 2.147934150695800781e+01 1.239288687705993652e+00 -5.015168085265031550e-07 -5.695661002391716465e-06 -1.859153258010337595e-06 1.022218384605366737e-06
4.831000000000000000e+03 2.002506446838378906e+01 9.755603671073913574e-01 -1.123951506087905727e-06 -6.692382157780230045e-06 -2.344900167372543365e-06 8.931132242651074193e-07
4.832000000000000000e+03 1.701650238037109375e+01 1.350294589996337891e+00 8.020575137379637454e-07 7.774153345962986350e-06 2.572863422756199725e-06 -5.957870712336443830e-07
4.833000000000000000e+03 1.708320045471191406e+01 6.133062839508056641e-01 -1.849375848905765451e-06 -8.038484338612761348e-06 -2.966357897093985230e-06 7.580234751003445126e-07
4.834000000000000000e+03 1.634315681457519531e+01 5.465459823608398438e-01 -6.693247200928453822e-07 8.536329005437437445e-06 2.360101234444300644e-06 -5.417755346570629627e-07
4.835000000000000000e+03 1.782329559326171875e+01 6.808430552482604980e-01 -1.011180643217812758e-06 7.872846254031173885e-06 2.058499603663221933e-06 -1.101831344385573175e-06
4.836000000000000000e+03 1.847070503234863281e+01 1.483781576156616211e+00 2.837715840087184915e-07 6.767540071450639516e-06 2.115393499479978345e-06 -1.164717673418635968e-06
4.837000000000000000e+03 1.856336212158203125e+01 7.491624951362609863e-01 -1.543310077067872044e-06 -7.504164386773481965e-06 -2.714242327783722430e-06 6.724575882799399551e-07
4.838000000000000000e+03 1.628943824768066406e+01 1.284718871116638184e+00 -1.349299395769776311e-06 -7.345518497459124774e-06 -2.608445356599986553e-06 1.286097699448873755e-06
4.839000000000000000e+03 1.774361801147460938e+01 1.416646718978881836e+00 -1.403964006385649554e-06 -6.753080924681853503e-06 -2.447113502057618462e-06 7.634188818883558270e-07
4.840000000000000000e+03 1.408120155334472656e+01 1.187072157859802246e+00 3.967572411056607962e-06 9.188749572786036879e-06 3.946896413253853098e-06 1.516938141321588773e-06
4.841000000000000000e+03 1.410851097106933594e+01 4.475762248039245605e-01 1.020230570247804280e-06 -9.318820048065390438e-06 -2.489576672815019265e-06 1.267048332920239773e-06
4.842000000000000000e+03 1.336430931091308594e+01 4.183164834976196289e-01 3.525128477122052573e-06 9.792623131943400949e-06 3.995325641881208867e-06 5.168372467778681312e-07
4.843000000000000000e+03 1.485382461547851562e+01 4.748390913009643555e-01 6.570721780008170754e-07 9.257406418328173459e-06 2.974343487949226983e-06 -1.489558520972877886e-08
4.844000000000000000e+03 1.555697250366210938e+01 1.239178419113159180e+00 1.659915710661152843e-06 8.571313628635834903e-06 3.069368631258839741e-06 4.874161732004722580e-07
4.845000000000000000e+03 1.560021686553955078e+01 5.002670884132385254e-01 -9.934274203260429204e-07 -8.663560947752557695e-06 -2.897096464948845096e-06 8.686247952027770225e-07
4.846000000000000000e+03 1.334496879577636719e+01 1.158104777336120605e+00 2.512792889319825917e-06 -8.622898349130991846e-06 -1.833031546993879601e-06 3.127478521491866559e-06
4.847000000000000000e+03 1.481854820251464844e+01 1.214042663574218750e+00 3.524337728322279872e-07 -7.766056114633101970e-06 -2.224086529167834669e-06 2.266288902319502085e-06
4.848000000000000000e+03 1.111325168609619141e+01 1.138490676879882812e+00 1.062445517163723707e-05 9.118890375248156488e-06 5.923003755015088245e-06 1.754466779857466463e-06
4.849000000000000000e+03 1.186833381652832031e+01 4.020517766475677490e-01 7.226909929158864543e-06 1.008023991744266823e-05 5.192145181354135275e-06 5.747339741901669186e-07
4.850000000000000000e+03 1.037295722961425781e+01 3.924405574798583984e-01 1.094377603294560686e-05 1.033367607305990532e-05 6.383235813700594008e-06 5.343791826817323454e-07
4.851000000000000000e+03 1.260390949249267578e+01 1.143149375915527344e+00 6.861410383862676099e-06 9.230273462890181690e-06 4.827505108551122248e-06 2.039354967564577237e-06
4.852000000000000000e+03 1.261756992340087891e+01 4.032067656517028809e-01 4.338066901254933327e-06 -9.901993507810402662e-06 -1.669178118390846066e-06 1.353413608740083873e-06
4.853000000000000000e+03 1.036947441101074219e+01 1.132432341575622559e+00 8.344061825482640415e-06 -9.687502824817784131e-06 -4.030321179016027600e-07 3.062398491238127463e-06
4.854000000000000000e+03 1.185806560516357422e+01 1.142010807991027832e+00 5.766813501395517960e-06 -9.273780051444191486e-06 -1.052089942277234513e-06 3.628234026109566912e-06
4.855000000000000000e+03 1.112012767791748047e+01 3.985152244567871094e-01 8.007125870790332556e-06 -1.028573933581355959e-05 -6.835842896180110984e-07 1.332501142314868048e-06
4.856000000000000000e+03 8.771651268005371094e+00 3.881228864192962646e-01 1.332531155640026554e-05 9.549994501867331564e-06 6.862591817480279133e-06 3.049288181955489563e-07
4.857000000000000000e+03 8.818146705627441406e+00 1.128122925758361816e+00 9.711310667626094073e-06 -9.027207852341234684e-06 2.052308900601929054e-07 1.495338551649183501e-06
4.858000000000000000e+03 7.953170776367187500e+00 3.921383917331695557e-01 1.162444641522597522e-05 -9.645436875871382654e-06 5.937028504376939964e-07 -5.252484243101207539e-07
4.859000000000000000e+03 6.319846630096435547e+00 3.892590403556823730e-01 8.857372449710965157e-06 -9.140770998783409595e-06 -8.501961445972483489e-08 -2.027526079473318532e-06
4.860000000000000000e+03 5.502897262573242188e+00 3.910058438777923584e-01 9.466066330787725747e-06 8.862712093105074018e-06 5.498633527167839929e-06 5.463822390083805658e-07
4.861000000000000000e+03 4.685476779937744141e+00 3.909447193145751953e-01 3.844296315946849063e-06 -9.004537787404842675e-06 -1.548072418700030539e-06 -3.139027739962330088e-06
4.862000000000000000e+03 3.050973415374755859e+00 3.907458484172821045e-01 1.395532990500214510e-06 -6.885561560920905322e-06 -1.647008616600942332e-06 -1.117902343139576260e-06
4.863000000000000000e+03 2.234469175338745117e+00 3.876248300075531006e-01 -3.844148523057810962e-06 1.959242126758908853e-06 -5.654719643644057214e-07 -4.550170160655397922e-06
4.864000000000000000e+03 2.538473606109619141e+00 1.127624869346618652e+00 8.813856766209937632e-06 -4.293578513170359656e-06 1.356083657810813747e-06 4.727187842945568264e-06
4.865000000000000000e+03 1.768125653266906738e+00 1.127171397209167480e+00 -5.143002908880589530e-06 5.799069640488596633e-06 1.968200677993081626e-07 -1.210187838296405971e-05
4.866000000000000000e+03 1.067988038063049316e+00 1.148616075515747070e+00 1.393961065332405269e-05 -1.169834740721853450e-05 6.723789738316554576e-07 8.719876859686337411e-06
4.867000000000000000e+03 6.996063590049743652e-01 4.086160361766815186e-01 -2.647614746820181608e-05 -1.982383400900289416e-05 -1.388999407936353236e-05 -2.262856469315011054e-05
4.868000000000000000e+03 3.732481598854064941e-01 9.636608362197875977e-01 2.548934389778878540e-05 1.566477294545620680e-05 1.234623505297349766e-05 1.256666473636869341e-05
4.869000000000000000e+03 3.322789192199707031e+00 1.130745887756347656e+00 1.313930283686204348e-06 3.987494892498943955e-06 1.590427586961595807e-06 -6.195946752995951101e-06
4.870000000000000000e+03 3.868146419525146484e+00 3.889868557453155518e-01 4.536618689598981291e-06 8.816822628432419151e-06 4.006032668257830665e-06 8.879188726496067829e-07
4.871000000000000000e+03 5.678146839141845703e+00 1.131005883216857910e+00 6.329253210424212739e-06 -6.532379757118178532e-06 -6.093806348417274421e-08 -2.428106427032616921e-06
4.872000000000000000e+03 7.247090816497802734e+00 1.132560849189758301e+00 8.809674909571185708e-06 -8.311976671393495053e-06 1.493094288207430509e-07 -6.953769684514554683e-07
4.873000000000000000e+03 7.136218547821044922e+00 3.925608992576599121e-01 1.284259906242368743e-05 9.055633199750445783e-06 6.569469860551180318e-06 2.257059037447106675e-07
4.874000000000000000e+03 8.031854629516601562e+00 1.132138371467590332e+00 1.456087193218991160e-05 7.173928679549135268e-06 6.520440365420654416e-06 -1.122415824283962138e-06
4.875000000000000000e+03 9.590107917785644531e+00 3.879971206188201904e-01 1.093955415853997692e-05 -9.867177141131833196e-06 3.217131165911268909e-07 6.426981826734845527e-07
4.876000000000000000e+03 9.604414939880371094e+00 1.127997159957885742e+00 1.337746925855753943e-05 7.879369150032289326e-06 6.377051704475888982e-06 6.717431801916973200e-07
4.877000000000000000e+03 6.462907791137695312e+00 1.129258990287780762e+00 1.373825762129854411e-05 6.285973086050944403e-06 6.007269348629051819e-06 -2.598082573967985809e-06
4.878000000000000000e+03 4.892915248870849609e+00 1.130944728851318359e+00 1.043934025801718235e-05 4.908589744445635006e-06 4.604379228112520650e-06 -3.784063437706208788e-06
4.879000000000000000e+03 4.107773303985595703e+00 1.128986835479736328e+00 4.123965481994673610e-06 -3.675366315292194486e-06 1.345798068541625980e-07 -1.539390268590068445e-06
4.880000000000000000e+03 1.431932568550109863e+00 3.871713578701019287e-01 3.496652425383217633e-06 6.428394954127725214e-06 2.977514213853282854e-06 8.443903425359167159e-06
4.881000000000000000e+03 1.338494110107421875e+01 -3.624081611633300781e-01 -1.735485911369323730e+00 -1.231327001005411148e-02 -5.243397951126098633e-01 -9.868509322404861450e-02
4.882000000000000000e+03 1.492772197723388672e+01 -1.047161340713500977e+00 -1.593648791313171387e+00 -1.194560900330543518e-02 -4.816783368587493896e-01 -1.633981615304946899e-01
4.883000000000000000e+03 1.340428161621093750e+01 -1.102196455001831055e+00 -1.459464311599731445e+00 -1.251458562910556793e-02 -4.415936470031738281e-01 -1.681974083185195923e-01
4.884000000000000000e+03 1.489244556427001953e+01 -3.079577088356018066e-01 -1.879120349884033203e+00 -7.811324670910835266e-03 -5.660794973373413086e-01 -1.108907088637351990e-01
4.885000000000000000e+03 1.568929195404052734e+01 -1.018365263938903809e+00 -1.613213658332824707e+00 -3.131510689854621887e-02 -4.933586120605468750e-01 -1.562912613153457642e-01
4.886000000000000000e+03 1.564604759216308594e+01 -2.794539332389831543e-01 -1.968067884445190430e+00 -2.006963081657886505e-02 -5.964412689208984375e-01 -1.287799030542373657e-01
4.887000000000000000e+03 1.413872909545898438e+01 -3.356079757213592529e-01 -1.803978204727172852e+00 -4.189067054539918900e-03 -5.424501895904541016e-01 -1.073917821049690247e-01
4.888000000000000000e+03 1.416603755950927734e+01 -1.075103878974914551e+00 -1.538031578063964844e+00 -9.954886510968208313e-03 -4.643959403038024902e-01 -1.615427285432815552e-01
4.889000000000000000e+03 1.037684440612792969e+01 -3.884835243225097656e-01 -1.230865597724914551e+00 -6.765027646906673908e-04 -3.694626390933990479e-01 -7.456012815237045288e-02
4.890000000000000000e+03 1.189073276519775391e+01 -1.121461629867553711e+00 -1.292752146720886230e+00 -1.644583302550017834e-03 -3.883190453052520752e-01 -1.882009208202362061e-01
4.891000000000000000e+03 1.038032817840576172e+01 -1.128475308418273926e+00 -1.076748967170715332e+00 -7.555547636002302170e-04 -3.232513666152954102e-01 -1.938334554433822632e-01
4.892000000000000000e+03 1.264584636688232422e+01 -1.117530822753906250e+00 -1.377357721328735352e+00 -1.210430264472961426e-02 -4.168385863304138184e-01 -1.835212558507919312e-01
4.893000000000000000e+03 1.188046455383300781e+01 -3.815026283264160156e-01 -1.494814157485961914e+00 -1.108983065932989120e-03 -4.487769603729248047e-01 -7.484410703182220459e-02
4.894000000000000000e+03 1.263218593597412109e+01 -3.775882422924041748e-01 -1.631948828697204590e+00 -7.916204631328582764e-03 -4.919595122337341309e-01 -8.261595666408538818e-02
4.895000000000000000e+03 1.112868118286132812e+01 -3.851337432861328125e-01 -1.363542795181274414e+00 -2.562304434832185507e-04 -4.091396927833557129e-01 -7.435182482004165649e-02
4.896000000000000000e+03 1.113555717468261719e+01 -1.125109195709228516e+00 -1.187058687210083008e+00 1.161951106041669846e-03 -3.557690382003784180e-01 -1.915344446897506714e-01
4.897000000000000000e+03 9.624593734741210938e+00 -1.131355285644531250e+00 -9.647169709205627441e-01 -1.814321498386561871e-03 -2.899594008922576904e-01 -1.970595866441726685e-01
4.898000000000000000e+03 9.636611938476562500e+00 -3.913553059101104736e-01 -1.095222473144531250e+00 -1.467226655222475529e-03 -3.290069103240966797e-01 -7.294485718011856079e-02
4.899000000000000000e+03 8.908035278320312500e+00 -3.932945430278778076e-01 -9.600794911384582520e-01 2.690475084818899632e-04 -2.879431247711181641e-01 -7.213553041219711304e-02
4.900000000000000000e+03 8.179648399353027344e+00 -3.947979807853698730e-01 -8.268240094184875488e-01 -2.387792337685823441e-03 -2.487635463476181030e-01 -7.040710747241973877e-02
4.901000000000000000e+03 7.451354026794433594e+00 -3.965992927551269531e-01 -6.976380348205566406e-01 4.645307126338593662e-05 -2.092774659395217896e-01 -6.828472018241882324e-02
4.902000000000000000e+03 6.723036766052246094e+00 -3.981454968452453613e-01 -5.727277398109436035e-01 -3.704400267452001572e-03 -1.729296445846557617e-01 -6.546492874622344971e-02
4.903000000000000000e+03 5.994731426239013672e+00 -3.993945717811584473e-01 -4.548925459384918213e-01 -1.190020702779293060e-03 -1.368247717618942261e-01 -6.072277575731277466e-02
4.904000000000000000e+03 5.266466140747070312e+00 -4.014726877212524414e-01 -3.450593352317810059e-01 -4.150806926190853119e-03 -1.047630384564399719e-01 -5.642676353454589844e-02
4.905000000000000000e+03 4.538172721862792969e+00 -4.045463800430297852e-01 -2.450943738222122192e-01 -1.893276115879416466e-03 -7.409629225730895996e-02 -5.050404742360115051e-02
4.906000000000000000e+03 3.810027122497558594e+00 -4.076895117759704590e-01 -1.565727144479751587e-01 -7.260166108608245850e-03 -4.914986342191696167e-02 -4.363280534744262695e-02
4.907000000000000000e+03 3.082192897796630859e+00 -4.105251729488372803e-01 -8.416986465454101562e-02 -4.962018225342035294e-03 -2.673956565558910370e-02 -3.190207481384277344e-02
4.908000000000000000e+03 2.355662584304809570e+00 -4.111475944519042969e-01 -3.251685947179794312e-02 -9.494422003626823425e-03 -1.260338444262742996e-02 -2.032257616519927979e-02
4.909000000000000000e+03 1.642585277557373047e+00 -4.047921001911163330e-01 -3.080472350120544434e-03 -3.462929278612136841e-03 -1.963020535185933113e-03 -6.299765314906835556e-03
4.910000000000000000e+03 6.508445143699645996e-01 -1.120625138282775879e+00 -5.292989313602447510e-03 -7.797627476975321770e-04 -1.821825630031526089e-03 4.266518808435648680e-04
4.911000000000000000e+03 8.868407249450683594e+00 -1.133294582366943359e+00 -8.504325151443481445e-01 -4.116008523851633072e-03 -2.563645541667938232e-01 -1.945944577455520630e-01
4.912000000000000000e+03 8.112410545349121094e+00 -1.134797930717468262e+00 -7.380355596542358398e-01 -4.178759641945362091e-03 -2.226642966270446777e-01 -1.920232176780700684e-01
4.913000000000000000e+03 7.356505870819091797e+00 -1.136599302291870117e+00 -6.262304186820983887e-01 -8.848123252391815186e-03 -1.905235648155212402e-01 -1.848973780870437622e-01
4.914000000000000000e+03 6.600578308105468750e+00 -1.138145565986633301e+00 -5.213544964790344238e-01 -7.941870018839836121e-03 -1.587889194488525391e-01 -1.764761507511138916e-01
4.915000000000000000e+03 5.844663143157958984e+00 -1.139394640922546387e+00 -4.191438555717468262e-01 -1.340312510728836060e-02 -1.297640949487686157e-01 -1.659674197435379028e-01
4.916000000000000000e+03 5.088787555694580078e+00 -1.141472697257995605e+00 -3.251948654651641846e-01 -1.352767646312713623e-02 -1.016167625784873962e-01 -1.506885737180709839e-01
4.917000000000000000e+03 4.332883834838867188e+00 -1.144546389579772949e+00 -2.419002056121826172e-01 -1.766068488359451294e-02 -7.786826789379119873e-02 -1.329993903636932373e-01
4.918000000000000000e+03 3.577128171920776367e+00 -1.147689461708068848e+00 -1.704668849706649780e-01 -2.022649347782135010e-02 -5.720801651477813721e-02 -1.147202551364898682e-01
4.919000000000000000e+03 2.821683883666992188e+00 -1.150525212287902832e+00 -1.026118323206901550e-01 -3.378509730100631714e-02 -4.091908037662506104e-02 -8.853485435247421265e-02
4.920000000000000000e+03 2.067543268203735352e+00 -1.151147603988647461e+00 -5.059621483087539673e-02 -3.118256852030754089e-02 -2.453363500535488129e-02 -4.944400489330291748e-02
4.921000000000000000e+03 1.326855897903442383e+00 -1.144792079925537109e+00 -2.121603116393089294e-02 -2.171713486313819885e-02 -1.287994999438524246e-02 -1.710509881377220154e-02
4.922000000000000000e+03 9.941840171813964844e-01 -3.806251585483551025e-01 4.597784485667943954e-03 -4.990112036466598511e-03 -1.176982623292133212e-04 1.161555992439389229e-03
4.923000000000000000e+03 3.480942845344543457e-01 -5.610816478729248047e-01 9.879037970677018166e-04 4.446461331099271774e-03 1.630309503525495529e-03 2.125015249475836754e-03
4.924000000000000000e+03 2.623828697204589844e+01 -5.017127990722656250e-01 1.779866099357604980e+00 -9.514241665601730347e-02 5.054171085357666016e-01 1.194025576114654541e-01
4.925000000000000000e+03 2.623249626159667969e+01 -4.830971956253051758e-01 1.676456212997436523e+00 -2.799120247364044189e-01 4.189632534980773926e-01 1.619143337011337280e-01
4.926000000000000000e+03 2.622318840026855469e+01 -4.659676551818847656e-01 1.390225768089294434e+00 -4.417124390602111816e-01 2.845539748668670654e-01 3.088072538375854492e-01
4.927000000000000000e+03 2.621071815490722656e+01 -4.509815871715545654e-01 1.056877851486206055e+00 -6.282815933227539062e-01 1.285788565874099731e-01 4.279856681823730469e-01
4.928000000000000000e+03 2.619556617736816406e+01 -4.387140870094299316e-01 7.007541060447692871e-01 -8.594794273376464844e-01 -4.761760681867599487e-02 5.347369909286499023e-01
4.929000000000000000e+03 2.617831420898437500e+01 -4.296358823776245117e-01 3.705056905746459961e-01 -1.098799228668212891e+00 -2.184880673885345459e-01 6.417474746704101562e-01
4.930000000000000000e+03 2.615962219238281250e+01 -4.240954220294952393e-01 2.073711715638637543e-02 -1.355866551399230957e+00 -4.005388319492340088e-01 7.933889031410217285e-01
4.931000000000000000e+03 2.614020919799804688e+01 -4.223052561283111572e-01 -3.023374080657958984e-01 -1.536889076232910156e+00 -5.517679452896118164e-01 9.640250802040100098e-01
4.932000000000000000e+03 2.612081909179687500e+01 -4.243341088294982910e-01 -7.097225785255432129e-01 -1.648015975952148438e+00 -7.073215842247009277e-01 1.161551237106323242e+00
4.933000000000000000e+03 2.610219764709472656e+01 -4.301041364669799805e-01 -1.094690084457397461e+00 -1.630285859107971191e+00 -8.174927830696105957e-01 1.324652194976806641e+00
4.934000000000000000e+03 2.608505821228027344e+01 -4.393938779830932617e-01 -1.560603618621826172e+00 -1.526959776878356934e+00 -9.262690544128417969e-01 1.422898530960083008e+00
4.935000000000000000e+03 2.607005882263183594e+01 -4.518468976020812988e-01 -1.954686045646667480e+00 -1.343922257423400879e+00 -9.895824790000915527e-01 1.433370709419250488e+00
4.936000000000000000e+03 2.605777359008789062e+01 -4.669852256774902344e-01 -2.317822694778442383e+00 -1.155179262161254883e+00 -1.041900634765625000e+00 1.338984131813049316e+00
4.937000000000000000e+03 2.604867744445800781e+01 -4.842279851436614990e-01 -2.566777944564819336e+00 -9.996296167373657227e-01 -1.069922327995300293e+00 1.177243590354919434e+00
4.938000000000000000e+03 2.604311561584472656e+01 -5.029134154319763184e-01 -2.706704378128051758e+00 -8.969137668609619141e-01 -1.081085443496704102e+00 9.766845107078552246e-01
4.939000000000000000e+03 2.604130363464355469e+01 -5.223245024681091309e-01 -2.748479366302490234e+00 -8.813410401344299316e-01 -1.088946104049682617e+00 7.931117415428161621e-01
4.940000000000000000e+03 2.604331207275390625e+01 -5.417163372039794922e-01 -2.714490413665771484e+00 -9.077331423759460449e-01 -1.086667060852050781e+00 6.437558531761169434e-01
4.941000000000000000e+03 2.604906082153320312e+01 -5.603447556495666504e-01 -2.669710874557495117e+00 -9.999583363533020020e-01 -1.100900769233703613e+00 5.608004927635192871e-01
4.942000000000000000e+03 2.605833053588867188e+01 -5.774948596954345703e-01 -2.616099834442138672e+00 -1.091426730155944824e+00 -1.112257957458496094e+00 5.226775407791137695e-01
4.943000000000000000e+03 2.607076835632324219e+01 -5.925084948539733887e-01 -2.614469766616821289e+00 -1.221858263015747070e+00 -1.150898337364196777e+00 5.365905165672302246e-01
4.944000000000000000e+03 2.608589172363281250e+01 -6.048095226287841797e-01 -2.652490139007568359e+00 -1.351235032081604004e+00 -1.201117515563964844e+00 5.804653763771057129e-01
4.945000000000000000e+03 2.610312461853027344e+01 -6.139258742332458496e-01 -2.727905511856079102e+00 -1.503349423408508301e+00 -1.269376516342163086e+00 6.618950366973876953e-01
4.946000000000000000e+03 2.612180519104003906e+01 -6.195077300071716309e-01 -2.880121707916259766e+00 -1.651963829994201660e+00 -1.359625697135925293e+00 7.692723274230957031e-01
4.947000000000000000e+03 2.614121246337890625e+01 -6.213409304618835449e-01 -3.088782787322998047e+00 -1.783705592155456543e+00 -1.461746454238891602e+00 9.333272576332092285e-01
4.948000000000000000e+03 2.616060638427734375e+01 -6.193549633026123047e-01 -3.367512464523315430e+00 -1.849452257156372070e+00 -1.565089464187622070e+00 1.105505704879760742e+00
4.949000000000000000e+03 2.617924118041992188e+01 -6.136261820793151855e-01 -3.791527509689331055e+00 -1.832708120346069336e+00 -1.687270641326904297e+00 1.283838272094726562e+00
4.950000000000000000e+03 2.619640159606933594e+01 -6.043744087219238281e-01 -4.251711368560791016e+00 -1.672031641006469727e+00 -1.777122855186462402e+00 1.415328621864318848e+00
4.951000000000000000e+03 2.621142959594726562e+01 -5.919546484947204590e-01 -4.834115982055664062e+00 -1.433434247970581055e+00 -1.880265116691589355e+00 1.422907471656799316e+00
4.952000000000000000e+03 2.622374725341796875e+01 -5.768435597419738770e-01 -5.371760368347167969e+00 -1.070470333099365234e+00 -1.932669281959533691e+00 1.293147563934326172e+00
4.953000000000000000e+03 2.623288345336914062e+01 -5.596209764480590820e-01 -5.865473747253417969e+00 -7.247065305709838867e-01 -1.977054119110107422e+00 9.709627032279968262e-01
4.954000000000000000e+03 2.623848533630371094e+01 -5.409478545188903809e-01 -6.159949779510498047e+00 -3.888138532638549805e-01 -1.964629054069519043e+00 5.042278766632080078e-01
4.955000000000000000e+03 2.624034118652343750e+01 -5.215408205986022949e-01 -6.241786956787109375e+00 -1.500972211360931396e-01 -1.917565345764160156e+00 -1.765851080417633057e-01
