# el_label, x, y, sXX, sYY, sZZ, sXY
1.000000000000000000e+00 4.289881134033203125e+01 -1.502161121368408203e+01 -1.006693363189697266e+00 5.313117504119873047e-01 -1.426144689321517944e-01 -1.201739192008972168e+00
2.000000000000000000e+00 4.307192993164062500e+01 -1.511982822418212891e+01 2.184825420379638672e+00 8.322783112525939941e-01 9.051311016082763672e-01 -8.747649788856506348e-01
3.000000000000000000e+00 4.324505233764648438e+01 -1.521804428100585938e+01 1.307019591331481934e+00 4.735770225524902344e-01 5.341789722442626953e-01 -1.044042825698852539e+00
4.000000000000000000e+00 4.341817474365234375e+01 -1.531626129150390625e+01 1.389813423156738281e+00 5.944990515708923340e-01 5.952937602996826172e-01 -7.609114646911621094e-01
5.000000000000000000e+00 4.292252349853515625e+01 -1.496823692321777344e+01 4.812926292419433594e+00 9.959129691123962402e-01 1.742651700973510742e+00 -3.501145839691162109e+00
6.000000000000000000e+00 4.311145401000976562e+01 -1.503087139129638672e+01 3.097538471221923828e+00 8.595674037933349609e-01 1.187131762504577637e+00 -1.649777173995971680e+00
7.000000000000000000e+00 4.330038070678710938e+01 -1.509350490570068359e+01 3.478215217590332031e+00 6.686166524887084961e-01 1.244049549102783203e+00 -1.341928124427795410e+00
8.000000000000000000e+00 4.348931121826171875e+01 -1.515613842010498047e+01 2.727293491363525391e+00 5.463013052940368652e-01 9.820784330368041992e-01 -1.308459520339965820e+00
9.000000000000000000e+00 4.293539047241210938e+01 -1.491126728057861328e+01 9.406872749328613281e+00 2.449124157428741455e-01 2.895535469055175781e+00 -2.647724866867065430e+00
1.000000000000000000e+01 4.313290023803710938e+01 -1.493592166900634766e+01 6.199088573455810547e+00 5.226695537567138672e-01 2.016527414321899414e+00 -1.973616003990173340e+00
1.100000000000000000e+01 4.333040618896484375e+01 -1.496057605743408203e+01 4.945796966552734375e+00 5.151217579841613770e-01 1.638275623321533203e+00 -1.376121759414672852e+00
1.200000000000000000e+01 4.352791595458984375e+01 -1.498523044586181641e+01 4.607066631317138672e+00 4.074522852897644043e-01 1.504355669021606445e+00 -1.130268216133117676e+00
1.300000000000000000e+01 4.293692016601562500e+01 -1.485288333892822266e+01 1.281108665466308594e+01 2.821044623851776123e-01 3.927957296371459961e+00 -8.657290935516357422e-01
1.400000000000000000e+01 4.313544845581054688e+01 -1.483861446380615234e+01 8.629053115844726562e+00 2.254743427038192749e-01 2.656358242034912109e+00 -9.462115168571472168e-01
1.500000000000000000e+01 4.333398056030273438e+01 -1.482434463500976562e+01 7.058411598205566406e+00 3.477036356925964355e-01 2.221834659576416016e+00 -8.032206296920776367e-01
1.600000000000000000e+01 4.353250885009765625e+01 -1.481007575988769531e+01 5.967281818389892578e+00 2.355060577392578125e-01 1.860836386680603027e+00 -6.403087973594665527e-01
1.700000000000000000e+01 4.292705917358398438e+01 -1.479531764984130859e+01 1.464411163330078125e+01 9.163870215415954590e-01 4.668149471282958984e+00 1.558145165443420410e+00
1.800000000000000000e+01 4.311901092529296875e+01 -1.474267196655273438e+01 1.048517608642578125e+01 7.249991893768310547e-01 3.363052606582641602e+00 6.357944011688232422e-01
1.900000000000000000e+01 4.331096267700195312e+01 -1.469002532958984375e+01 8.395623207092285156e+00 4.556153118610382080e-01 2.655371427536010742e+00 3.549708127975463867e-01
2.000000000000000000e+01 4.350291442871093750e+01 -1.463737964630126953e+01 7.304080486297607422e+00 3.997097611427307129e-01 2.311136960983276367e+00 3.641078174114227295e-01
2.100000000000000000e+01 4.290617370605468750e+01 -1.474077415466308594e+01 1.529133319854736328e+01 2.826215982437133789e+00 5.435264587402343750e+00 3.918613672256469727e+00
2.200000000000000000e+01 4.308420562744140625e+01 -1.465176582336425781e+01 1.122456550598144531e+01 1.626032233238220215e+00 3.855179309844970703e+00 2.403754234313964844e+00
2.300000000000000000e+01 4.326223373413085938e+01 -1.456275653839111328e+01 9.216032028198242188e+00 1.425613999366760254e+00 3.192493677139282227e+00 1.804163575172424316e+00
2.400000000000000000e+01 4.344026565551757812e+01 -1.447374820709228516e+01 7.880150318145751953e+00 8.898745775222778320e-01 2.631007432937622070e+00 1.465407967567443848e+00
2.500000000000000000e+01 4.287507247924804688e+01 -1.469133949279785156e+01 1.463621902465820312e+01 5.208627700805664062e+00 5.953454017639160156e+00 5.858966827392578125e+00
2.600000000000000000e+01 4.303236770629882812e+01 -1.456937503814697266e+01 1.123248958587646484e+01 3.508954286575317383e+00 4.422432899475097656e+00 3.851279497146606445e+00
2.700000000000000000e+01 4.318966293334960938e+01 -1.444740962982177734e+01 9.253240585327148438e+00 2.557385444641113281e+00 3.543187856674194336e+00 3.182345151901245117e+00
2.800000000000000000e+01 4.334695816040039062e+01 -1.432544517517089844e+01 7.960352897644042969e+00 2.386713266372680664e+00 3.104119777679443359e+00 2.650691986083984375e+00
2.900000000000000000e+01 4.283494186401367188e+01 -1.464890575408935547e+01 1.343903827667236328e+01 8.197921752929687500e+00 6.491087913513183594e+00 6.843539237976074219e+00
3.000000000000000000e+01 4.296548080444335938e+01 -1.449865150451660156e+01 1.046547985076904297e+01 5.638749122619628906e+00 4.831268310546875000e+00 4.923707008361816406e+00
3.100000000000000000e+01 4.309602355957031250e+01 -1.434839820861816406e+01 8.781711578369140625e+00 4.390765190124511719e+00 3.951742887496948242e+00 3.981806039810180664e+00
3.200000000000000000e+01 4.322656631469726562e+01 -1.419814395904541016e+01 7.606812477111816406e+00 3.664289712905883789e+00 3.381330728530883789e+00 3.628205776214599609e+00
3.300000000000000000e+01 4.278731536865234375e+01 -1.461509704589843750e+01 1.187296581268310547e+01 1.128621006011962891e+01 6.947752475738525391e+00 6.856217384338378906e+00
3.400000000000000000e+01 4.288610839843750000e+01 -1.444230365753173828e+01 9.447010993957519531e+00 7.814281463623046875e+00 5.178387641906738281e+00 5.266381263732910156e+00
3.500000000000000000e+01 4.298490142822265625e+01 -1.426951122283935547e+01 7.925141334533691406e+00 6.479955196380615234e+00 4.321528911590576172e+00 4.366144180297851562e+00
3.600000000000000000e+01 4.308369445800781250e+01 -1.409671783447265625e+01 6.829734802246093750e+00 5.244207859039306641e+00 3.622182846069335938e+00 3.761703014373779297e+00
3.700000000000000000e+01 4.273402023315429688e+01 -1.459120655059814453e+01 1.044400119781494141e+01 1.375802421569824219e+01 7.260607719421386719e+00 6.108915805816650391e+00
3.800000000000000000e+01 4.279728317260742188e+01 -1.440248680114746094e+01 8.451612472534179688e+00 1.005595493316650391e+01 5.552270412445068359e+00 4.797914505004882812e+00
3.900000000000000000e+01 4.286054611206054688e+01 -1.421376705169677734e+01 6.978102684020996094e+00 8.073376655578613281e+00 4.515443801879882812e+00 4.173123836517333984e+00
4.000000000000000000e+01 4.292380905151367188e+01 -1.402504634857177734e+01 6.136132240295410156e+00 7.340413570404052734e+00 4.042963504791259766e+00 3.688810348510742188e+00
4.100000000000000000e+01 4.267709732055664062e+01 -1.457814884185791016e+01 9.581034660339355469e+00 1.562440681457519531e+01 7.561632633209228516e+00 4.640072345733642578e+00
4.200000000000000000e+01 4.270240783691406250e+01 -1.438072395324707031e+01 7.657937526702880859e+00 1.171833229064941406e+01 5.812880992889404297e+00 3.902818679809570312e+00
4.300000000000000000e+01 4.272771835327148438e+01 -1.418329906463623047e+01 6.266984462738037109e+00 9.659728050231933594e+00 4.778013706207275391e+00 3.276805877685546875e+00
4.400000000000000000e+01 4.275302886962890625e+01 -1.398587417602539062e+01 5.692017078399658203e+00 7.978520393371582031e+00 4.101161003112792969e+00 3.051285505294799805e+00
4.500000000000000000e+01 4.261871719360351562e+01 -1.457642364501953125e+01 9.592636108398437500e+00 1.667588043212890625e+01 7.880554676055908203e+00 3.018542051315307617e+00
4.600000000000000000e+01 4.260511016845703125e+01 -1.437784862518310547e+01 7.080082893371582031e+00 1.278312492370605469e+01 5.958962440490722656e+00 2.527438163757324219e+00
4.700000000000000000e+01 4.259149932861328125e+01 -1.417927265167236328e+01 6.187911033630371094e+00 1.064590835571289062e+01 5.050145626068115234e+00 2.228054285049438477e+00
4.800000000000000000e+01 4.257789230346679688e+01 -1.398069763183593750e+01 4.929305076599121094e+00 8.814166069030761719e+00 4.123041152954101562e+00 1.435269832611083984e+00
4.900000000000000000e+01 4.256111907958984375e+01 -1.458609676361083984e+01 9.749524116516113281e+00 1.671493911743164062e+01 7.939339160919189453e+00 1.290852069854736328e+00
5.000000000000000000e+01 4.250911331176757812e+01 -1.439397048950195312e+01 7.556572914123535156e+00 1.329399871826171875e+01 6.255171298980712891e+00 1.328297376632690430e+00
5.100000000000000000e+01 4.245710372924804688e+01 -1.420184326171875000e+01 5.961779117584228516e+00 1.091795063018798828e+01 5.063918590545654297e+00 7.651926279067993164e-01
5.200000000000000000e+01 4.240509796142578125e+01 -1.400971794128417969e+01 5.063457012176513672e+00 1.002935218811035156e+01 4.527842998504638672e+00 5.995459556579589844e-01
5.300000000000000000e+01 4.250650787353515625e+01 -1.460679817199707031e+01 1.085772323608398438e+01 1.645963478088378906e+01 8.195207595825195312e+00 1.839939057826995850e-01
5.400000000000000000e+01 4.241809082031250000e+01 -1.442847251892089844e+01 8.093063354492187500e+00 1.280711650848388672e+01 6.270053863525390625e+00 4.071053117513656616e-03
5.500000000000000000e+01 4.232967376708984375e+01 -1.425014686584472656e+01 6.567465305328369141e+00 1.108034038543701172e+01 5.294341564178466797e+00 -7.411333173513412476e-02
5.600000000000000000e+01 4.224126052856445312e+01 -1.407182121276855469e+01 5.475747108459472656e+00 9.681459426879882812e+00 4.547162055969238281e+00 -1.783852577209472656e-01
5.700000000000000000e+01 4.245696640014648438e+01 -1.463773536682128906e+01 1.195919418334960938e+01 1.534921360015869141e+01 8.192522048950195312e+00 -6.261764764785766602e-01
5.800000000000000000e+01 4.233552551269531250e+01 -1.448003482818603516e+01 9.202883720397949219e+00 1.229029655456542969e+01 6.447954177856445312e+00 -7.193714976310729980e-01
5.900000000000000000e+01 4.221408462524414062e+01 -1.432233428955078125e+01 7.475277900695800781e+00 1.021361064910888672e+01 5.306666374206542969e+00 -6.788282990455627441e-01
6.000000000000000000e+01 4.209264373779296875e+01 -1.416463375091552734e+01 6.300121784210205078e+00 9.005067825317382812e+00 4.591556549072265625e+00 -6.251888871192932129e-01
6.100000000000000000e+01 4.241440200805664062e+01 -1.467772483825683594e+01 1.335551548004150391e+01 1.439757061004638672e+01 8.325925827026367188e+00 -7.538135647773742676e-01
6.200000000000000000e+01 4.226457977294921875e+01 -1.454668426513671875e+01 1.021829700469970703e+01 1.114502716064453125e+01 6.408997058868408203e+00 -9.475104212760925293e-01
6.300000000000000000e+01 4.211476135253906250e+01 -1.441564369201660156e+01 8.708752632141113281e+00 9.400113105773925781e+00 5.432660102844238281e+00 -8.966218233108520508e-01
6.400000000000000000e+01 4.196494293212890625e+01 -1.428460216522216797e+01 7.392473697662353516e+00 7.812781810760498047e+00 4.561576843261718750e+00 -7.858095765113830566e-01
6.500000000000000000e+01 4.238043212890625000e+01 -1.472523689270019531e+01 1.433949756622314453e+01 1.313520050048828125e+01 8.242409706115722656e+00 -4.325220286846160889e-01
6.600000000000000000e+01 4.220796966552734375e+01 -1.462587070465087891e+01 1.139134979248046875e+01 1.027829170227050781e+01 6.500892639160156250e+00 -5.209826827049255371e-01
6.700000000000000000e+01 4.203550720214843750e+01 -1.452650356292724609e+01 9.442727088928222656e+00 8.363963127136230469e+00 5.342007160186767578e+00 -6.738268733024597168e-01
6.800000000000000000e+01 4.186304473876953125e+01 -1.442713737487792969e+01 8.654876708984375000e+00 7.194746494293212891e+00 4.754887104034423828e+00 -8.164504170417785645e-01
6.900000000000000000e+01 4.235636520385742188e+01 -1.477845191955566406e+01 1.517448043823242188e+01 1.237698650360107422e+01 8.265439987182617188e+00 4.742223024368286133e-01
7.000000000000000000e+01 4.216785812377929688e+01 -1.471456241607666016e+01 1.198585796356201172e+01 9.362810134887695312e+00 6.404600620269775391e+00 2.744919955730438232e-01
7.100000000000000000e+01 4.197935104370117188e+01 -1.465067291259765625e+01 1.010681629180908203e+01 7.820100784301757812e+00 5.378075122833251953e+00 1.158276423811912537e-01
7.200000000000000000e+01 4.179084014892578125e+01 -1.458678340911865234e+01 8.645356178283691406e+00 6.832905769348144531e+00 4.643478393554687500e+00 -3.049954175949096680e-01
7.300000000000000000e+01 4.234312057495117188e+01 -1.483533477783203125e+01 1.540086364746093750e+01 1.182716464996337891e+01 8.168408393859863281e+00 1.708676934242248535e+00
7.400000000000000000e+01 4.214577865600585938e+01 -1.480936622619628906e+01 1.211603546142578125e+01 9.009458541870117188e+00 6.337648391723632812e+00 1.436319351196289062e+00
7.500000000000000000e+01 4.194844055175781250e+01 -1.478339862823486328e+01 1.013902473449707031e+01 7.548896312713623047e+00 5.306375980377197266e+00 1.111248731613159180e+00
7.600000000000000000e+01 4.175109863281250000e+01 -1.475743007659912109e+01 8.502034187316894531e+00 6.606052398681640625e+00 4.532425880432128906e+00 1.023568272590637207e+00
7.700000000000000000e+01 4.234120178222656250e+01 -1.489370727539062500e+01 1.496490669250488281e+01 1.175645828247070312e+01 8.016409873962402344e+00 3.127401113510131836e+00
7.800000000000000000e+01 4.214258193969726562e+01 -1.490665531158447266e+01 1.157984733581542969e+01 9.213785171508789062e+00 6.238089561462402344e+00 2.639907836914062500e+00
7.900000000000000000e+01 4.194396209716796875e+01 -1.491960239410400391e+01 9.569098472595214844e+00 7.631556987762451172e+00 5.160196781158447266e+00 2.258766174316406250e+00
8.000000000000000000e+01 4.174534225463867188e+01 -1.493254947662353516e+01 8.398571968078613281e+00 6.617973327636718750e+00 4.504963397979736328e+00 2.080087661743164062e+00
8.100000000000000000e+01 4.235068130493164062e+01 -1.495133781433105469e+01 1.383116245269775391e+01 1.238428878784179688e+01 7.864635467529296875e+00 4.428005695343017578e+00
8.200000000000000000e+01 4.215838241577148438e+01 -1.500270462036132812e+01 1.036286830902099609e+01 9.776739120483398438e+00 6.041882038116455078e+00 3.700355052947998047e+00
8.300000000000000000e+01 4.196608352661132812e+01 -1.505407142639160156e+01 8.569062232971191406e+00 8.230597496032714844e+00 5.039897918701171875e+00 3.150721073150634766e+00
8.400000000000000000e+01 4.177378463745117188e+01 -1.510543918609619141e+01 7.433979034423828125e+00 7.024991989135742188e+00 4.337691307067871094e+00 2.747610569000244141e+00
8.500000000000000000e+01 4.237120056152343750e+01 -1.500601863861083984e+01 1.192800998687744141e+01 1.347367477416992188e+01 7.620505332946777344e+00 5.399979114532470703e+00
8.600000000000000000e+01 4.219258117675781250e+01 -1.509384059906005859e+01 8.693746566772460938e+00 1.075849246978759766e+01 5.835671424865722656e+00 4.277797222137451172e+00
8.700000000000000000e+01 4.201396179199218750e+01 -1.518166160583496094e+01 7.061478137969970703e+00 9.056831359863281250e+00 4.835493087768554688e+00 3.643408060073852539e+00
8.800000000000000000e+01 4.183534240722656250e+01 -1.526948261260986328e+01 5.992184638977050781e+00 7.914668083190917969e+00 4.172055721282958984e+00 3.135147809982299805e+00
8.900000000000000000e+01 4.240197372436523438e+01 -1.505565929412841797e+01 9.526428222656250000e+00 1.489237785339355469e+01 7.325641632080078125e+00 5.700299263000488281e+00
9.000000000000000000e+01 4.224386978149414062e+01 -1.517657375335693359e+01 6.687560081481933594e+00 1.188186740875244141e+01 5.570828437805175781e+00 4.245553016662597656e+00
9.100000000000000000e+01 4.208576583862304688e+01 -1.529748916625976562e+01 5.341080665588378906e+00 9.951663017272949219e+00 4.587822914123535156e+00 3.581152439117431641e+00
9.200000000000000000e+01 4.192766189575195312e+01 -1.541840362548828125e+01 4.425490379333496094e+00 8.817901611328125000e+00 3.973017692565917969e+00 3.152957916259765625e+00
9.300000000000000000e+01 4.244182205200195312e+01 -1.509835910797119141e+01 6.914306163787841797e+00 1.633581924438476562e+01 6.975037574768066406e+00 5.138223648071289062e+00
9.400000000000000000e+01 4.231027984619140625e+01 -1.524773979187011719e+01 4.659853458404541016e+00 1.282751464843750000e+01 5.246210575103759766e+00 3.576379060745239258e+00
9.500000000000000000e+01 4.217874145507812500e+01 -1.539712142944335938e+01 3.635097265243530273e+00 1.072268009185791016e+01 4.307333469390869141e+00 2.897106885910034180e+00
9.600000000000000000e+01 4.204720306396484375e+01 -1.554650306701660156e+01 2.961020946502685547e+00 9.323441505432128906e+00 3.685338735580444336e+00 2.626076698303222656e+00
9.700000000000000000e+01 4.248921966552734375e+01 -1.513248443603515625e+01 4.452088356018066406e+00 1.738622093200683594e+01 6.551492691040039062e+00 3.709269762039184570e+00
9.800000000000000000e+01 4.238927841186523438e+01 -1.530461597442626953e+01 2.931625604629516602e+00 1.328834724426269531e+01 4.865991592407226562e+00 2.297430753707885742e+00
9.900000000000000000e+01 4.228933715820312500e+01 -1.547674655914306641e+01 2.172178983688354492e+00 1.110503673553466797e+01 3.983164548873901367e+00 1.774180769920349121e+00
1.000000000000000000e+02 4.218939971923828125e+01 -1.564887905120849609e+01 1.733400106430053711e+00 9.495158195495605469e+00 3.368567705154418945e+00 1.496946454048156738e+00
1.010000000000000000e+02 4.254235458374023438e+01 -1.515672874450683594e+01 2.580143928527832031e+00 1.757059669494628906e+01 6.045222282409667969e+00 1.610729813575744629e+00
1.020000000000000000e+02 4.247783660888671875e+01 -1.534502315521240234e+01 1.692068457603454590e+00 1.309162712097167969e+01 4.435108661651611328e+00 6.188459396362304688e-01
1.030000000000000000e+02 4.241331863403320312e+01 -1.553331756591796875e+01 1.208495259284973145e+00 1.077382755279541016e+01 3.594696760177612305e+00 3.689780533313751221e-01
1.040000000000000000e+02 4.234880065917968750e+01 -1.572161197662353516e+01 8.771091699600219727e-01 9.392182350158691406e+00 3.080787420272827148e+00 2.328017801046371460e-01
1.050000000000000000e+02 4.259919357299804688e+01 -1.517016506195068359e+01 1.531377792358398438e+00 1.666327095031738281e+01 5.458394527435302734e+00 -8.427079916000366211e-01
1.060000000000000000e+02 4.257256698608398438e+01 -1.536741733551025391e+01 1.122873306274414062e+00 1.198497486114501953e+01 3.932354450225830078e+00 -1.102050900459289551e+00
1.070000000000000000e+02 4.254594039916992188e+01 -1.556466865539550781e+01 7.799115777015686035e-01 9.803704261779785156e+00 3.175084829330444336e+00 -1.066554665565490723e+00
1.080000000000000000e+02 4.251931762695312500e+01 -1.576192092895507812e+01 6.102222204208374023e-01 8.467846870422363281e+00 2.723420619964599609e+00 -9.075700044631958008e-01
1.090000000000000000e+02 4.265755844116210938e+01 -1.517227935791015625e+01 1.433227539062500000e+00 1.449423122406005859e+01 4.778237342834472656e+00 -3.058211088180541992e+00
1.100000000000000000e+02 4.266984558105468750e+01 -1.537094020843505859e+01 1.132883429527282715e+00 1.006244087219238281e+01 3.358597278594970703e+00 -2.603238582611083984e+00
1.110000000000000000e+02 4.268212890625000000e+01 -1.556960201263427734e+01 9.442192912101745605e-01 8.095353126525878906e+00 2.711871862411499023e+00 -2.132272958755493164e+00
1.120000000000000000e+02 4.269441604614257812e+01 -1.576826381683349609e+01 6.974591016769409180e-01 6.984426498413085938e+00 2.304565668106079102e+00 -1.858730077743530273e+00
1.130000000000000000e+02 4.271522140502929688e+01 -1.516298961639404297e+01 2.033802032470703125e+00 1.117985057830810547e+01 3.964095592498779297e+00 -4.687756538391113281e+00
1.140000000000000000e+02 4.276594543457031250e+01 -1.535545825958251953e+01 1.636445403099060059e+00 7.428769111633300781e+00 2.719564437866210938e+00 -3.359419107437133789e+00
1.150000000000000000e+02 4.281667327880859375e+01 -1.554792690277099609e+01 1.346174597740173340e+00 6.004149913787841797e+00 2.205097436904907227e+00 -2.721559047698974609e+00
1.160000000000000000e+02 4.286739730834960938e+01 -1.574039554595947266e+01 1.078421115875244141e+00 5.159840106964111328e+00 1.871478438377380371e+00 -2.271915197372436523e+00
1.170000000000000000e+02 4.276996994018554688e+01 -1.514265251159667969e+01 2.885977506637573242e+00 7.086647510528564453e+00 2.991787433624267578e+00 -5.021797657012939453e+00
1.180000000000000000e+02 4.285719680786132812e+01 -1.532156276702880859e+01 2.221913099288940430e+00 4.506772041320800781e+00 2.018605470657348633e+00 -3.368837594985961914e+00
1.190000000000000000e+02 4.294441986083984375e+01 -1.550047302246093750e+01 1.742555856704711914e+00 3.796330451965332031e+00 1.661665916442871094e+00 -2.438264131546020508e+00
1.200000000000000000e+02 4.303164672851562500e+01 -1.567938327789306641e+01 1.305001497268676758e+00 3.530447244644165039e+00 1.450634598731994629e+00 -2.202696323394775391e+00
1.210000000000000000e+02 4.281970977783203125e+01 -1.511204528808593750e+01 3.592062473297119141e+00 2.369681596755981445e+00 1.788523197174072266e+00 -4.098370552062988281e+00
1.220000000000000000e+02 4.294009780883789062e+01 -1.527055168151855469e+01 2.106578350067138672e+00 1.999297022819519043e+00 1.231762647628784180e+00 -2.001504659652709961e+00
1.230000000000000000e+02 4.306048583984375000e+01 -1.542905712127685547e+01 1.658507347106933594e+00 2.389683723449707031e+00 1.214457392692565918e+00 -1.947175621986389160e+00
1.240000000000000000e+02 4.318087387084960938e+01 -1.558756256103515625e+01 1.449528098106384277e+00 1.757850766181945801e+00 9.622136354446411133e-01 -1.674772381782531738e+00
1.250000000000000000e+02 4.286254119873046875e+01 -1.507234001159667969e+01 1.242536187171936035e+00 -1.445348858833312988e+00 -6.084383279085159302e-02 -5.774734616279602051e-01
1.260000000000000000e+02 4.301148605346679688e+01 -1.520437622070312500e+01 1.515112876892089844e+00 1.532529115676879883e+00 9.142925739288330078e-01 -1.156269669532775879e+00
1.270000000000000000e+02 4.316042709350585938e+01 -1.533641147613525391e+01 1.162036538124084473e+00 5.969050526618957520e-01 5.276824831962585449e-01 -1.048337578773498535e+00
1.280000000000000000e+02 4.330937194824218750e+01 -1.546844768524169922e+01 9.910422563552856445e-01 8.002645969390869141e-01 5.373920798301696777e-01 -8.054009675979614258e-01
1.290000000000000000e+02 4.553187179565429688e+01 -1.628472900390625000e+01 6.535186767578125000e-01 -2.402753755450248718e-02 1.888473331928253174e-01 -2.086827903985977173e-01
1.300000000000000000e+02 4.595362854003906250e+01 -1.583010101318359375e+01 1.472386121749877930e+00 -2.182893902063369751e-01 3.762290179729461670e-01 -1.824218481779098511e-01
1.310000000000000000e+02 4.615414047241210938e+01 -1.616049957275390625e+01 9.433870315551757812e-01 -1.435856521129608154e-01 2.399404048919677734e-01 -9.132865816354751587e-02
1.320000000000000000e+02 4.690271759033203125e+01 -1.655440521240234375e+01 4.505375623703002930e-01 -6.958993617445230484e-05 1.351403892040252686e-01 9.874533861875534058e-02
1.330000000000000000e+02 4.579005813598632812e+01 -1.642673873901367188e+01 5.770366191864013672e-01 -5.292031168937683105e-02 1.572349071502685547e-01 -1.282161474227905273e-01
1.340000000000000000e+02 4.541948318481445312e+01 -1.645213317871093750e+01 5.264109969139099121e-01 7.416590303182601929e-02 1.801730692386627197e-01 -1.714333146810531616e-01
1.350000000000000000e+02 4.619758605957031250e+01 -1.653794288635253906e+01 5.535737872123718262e-01 -7.084196060895919800e-02 1.448195427656173706e-01 -6.136868894100189209e-02
1.360000000000000000e+02 4.671532058715820312e+01 -1.719906616210937500e+01 7.364809978753328323e-03 1.879061572253704071e-03 2.773161511868238449e-03 3.635943867266178131e-03
1.370000000000000000e+02 4.614945983886718750e+01 -1.570415782928466797e+01 1.587584614753723145e+00 -2.556834816932678223e-01 3.995703458786010742e-01 -2.271375060081481934e-01
1.380000000000000000e+02 4.535363388061523438e+01 -1.667082595825195312e+01 1.828367263078689575e-01 4.008195176720619202e-02 6.687560677528381348e-02 -8.898502588272094727e-02
1.390000000000000000e+02 4.565958786010742188e+01 -1.669582176208496094e+01 2.166411131620407104e-01 -4.522280395030975342e-02 5.142549425363540649e-02 -1.093268841505050659e-01
1.400000000000000000e+02 4.581534576416015625e+01 -1.599360847473144531e+01 1.099735736846923828e+00 -1.354854404926300049e-01 2.892750799655914307e-01 -2.033216208219528198e-01
1.410000000000000000e+02 4.656889724731445312e+01 -1.612216377258300781e+01 1.210882663726806641e+00 -1.428915262222290039e-01 3.203973472118377686e-01 1.892301067709922791e-02
1.420000000000000000e+02 4.603439331054687500e+01 -1.698021316528320312e+01 9.177947789430618286e-02 -2.343865809962153435e-03 2.683068253099918365e-02 1.119911111891269684e-02
1.430000000000000000e+02 4.567517852783203125e+01 -1.614848327636718750e+01 9.501100182533264160e-01 -7.249094545841217041e-02 2.632857263088226318e-01 -2.299562841653823853e-01
1.440000000000000000e+02 4.193548965454101562e+01 -1.580958175659179688e+01 2.126534461975097656e+00 8.081514358520507812e+00 3.062414646148681641e+00 1.857837438583374023e+00
1.450000000000000000e+02 4.131336212158203125e+01 -1.510482311248779297e+01 6.193553924560546875e+00 5.020089626312255859e+00 3.364093065261840820e+00 1.931393384933471680e+00
1.460000000000000000e+02 4.172102355957031250e+01 -1.407824993133544922e+01 5.846890449523925781e+00 6.749009132385253906e+00 3.778769969940185547e+00 -9.452341198921203613e-01
1.470000000000000000e+02 4.270291519165039062e+01 -1.370663547515869141e+01 4.252931594848632812e+00 7.123693943023681641e+00 3.412987709045410156e+00 2.048207521438598633e+00
1.480000000000000000e+02 4.294702148437500000e+01 -1.374745082855224609e+01 4.872575283050537109e+00 5.908418178558349609e+00 3.234297990798950195e+00 2.914668083190917969e+00
1.490000000000000000e+02 4.374604797363281250e+01 -1.458813381195068359e+01 6.192878723144531250e+00 1.911549419164657593e-01 1.915210008621215820e+00 2.101688832044601440e-01
1.500000000000000000e+02 4.337736892700195312e+01 -1.402698516845703125e+01 6.440454483032226562e+00 3.415099143981933594e+00 2.956665992736816406e+00 2.953637361526489258e+00
1.510000000000000000e+02 4.137701416015625000e+01 -1.472302055358886719e+01 6.470007896423339844e+00 5.134754657745361328e+00 3.481428861618041992e+00 5.930889844894409180e-01
1.520000000000000000e+02 4.492382049560546875e+01 -1.666111564636230469e+01 2.787036634981632233e-02 7.509122788906097412e-02 3.088847920298576355e-02 -1.411168128252029419e-01
1.530000000000000000e+02 4.476094818115234375e+01 -1.654607200622558594e+01 1.605015844106674194e-01 1.727775037288665771e-01 9.998372942209243774e-02 -1.234448254108428955e-01
1.540000000000000000e+02 4.479838562011718750e+01 -1.682913780212402344e+01 1.489959806203842163e-01 2.447091937065124512e-01 1.181115508079528809e-01 -2.487866729497909546e-01
1.550000000000000000e+02 4.381337356567382812e+01 -1.710841941833496094e+01 3.209152817726135254e-01 1.828421592712402344e+00 6.448010802268981934e-01 -9.830674529075622559e-01
1.560000000000000000e+02 4.330984878540039062e+01 -1.576580619812011719e+01 1.127994298934936523e+00 1.777853012084960938e+00 8.717541694641113281e-01 -1.438869953155517578e+00
1.570000000000000000e+02 4.346126937866210938e+01 -1.560398960113525391e+01 8.344966769218444824e-01 5.728554129600524902e-01 4.222056269645690918e-01 -7.294604778289794922e-01
1.580000000000000000e+02 4.165177917480468750e+01 -1.455346775054931641e+01 8.397446632385253906e+00 6.256205558776855469e+00 4.396095752716064453e+00 -2.411589175462722778e-01
1.590000000000000000e+02 4.156567764282226562e+01 -1.524512767791748047e+01 6.086163520812988281e+00 6.374882221221923828e+00 3.738313674926757812e+00 2.395061016082763672e+00
1.600000000000000000e+02 4.153293991088867188e+01 -1.572693634033203125e+01 3.012619733810424805e+00 7.072246551513671875e+00 3.025460004806518555e+00 2.659098863601684570e+00
1.610000000000000000e+02 4.226145172119140625e+01 -1.628215026855468750e+01 1.970607638359069824e-01 6.986128807067871094e+00 2.154956817626953125e+00 -7.364118844270706177e-02
1.620000000000000000e+02 4.255435562133789062e+01 -1.653644752502441406e+01 2.486203052103519440e-02 5.483105182647705078e+00 1.652390122413635254e+00 -8.433153629302978516e-01
1.630000000000000000e+02 4.290909576416015625e+01 -1.594124698638916016e+01 7.717815041542053223e-01 4.832964897155761719e+00 1.681424021720886230e+00 -1.984470844268798828e+00
1.640000000000000000e+02 4.312084579467773438e+01 -1.587860584259033203e+01 1.160370945930480957e+00 3.025433063507080078e+00 1.255741119384765625e+00 -1.931260585784912109e+00
1.650000000000000000e+02 4.359549331665039062e+01 -1.541968917846679688e+01 1.164750695228576660e+00 3.959978818893432617e-01 4.682245552539825439e-01 -7.907503843307495117e-01
1.660000000000000000e+02 4.393429565429687500e+01 -1.564735507965087891e+01 9.495435953140258789e-01 2.938783466815948486e-01 3.730265796184539795e-01 -6.016719937324523926e-01
1.670000000000000000e+02 4.371371459960937500e+01 -1.392434215545654297e+01 5.980442523956298828e+00 1.877257823944091797e+00 2.357310056686401367e+00 2.507883787155151367e+00
1.680000000000000000e+02 4.387928009033203125e+01 -1.402381515502929688e+01 5.817410469055175781e+00 8.357094526290893555e-01 1.995936036109924316e+00 1.666649341583251953e+00
1.690000000000000000e+02 4.317923355102539062e+01 -1.390336894989013672e+01 5.951015472412109375e+00 4.826026439666748047e+00 3.233112573623657227e+00 3.672365665435791016e+00
1.700000000000000000e+02 4.251389312744140625e+01 -1.380646610260009766e+01 4.389644622802734375e+00 8.691528320312500000e+00 3.924351930618286133e+00 1.289038896560668945e+00
1.710000000000000000e+02 4.445531845092773438e+01 -1.450746726989746094e+01 4.517377853393554688e+00 -1.419974267482757568e-01 1.312614202499389648e+00 1.334587931632995605e-01
1.720000000000000000e+02 4.499474334716796875e+01 -1.511304664611816406e+01 2.672908544540405273e+00 -2.116833925247192383e-01 7.383675575256347656e-01 -3.578526973724365234e-01
1.730000000000000000e+02 4.503984451293945312e+01 -1.616210746765136719e+01 7.260243296623229980e-01 1.054165363311767578e-01 2.494322657585144043e-01 -2.628333866596221924e-01
1.740000000000000000e+02 4.507373428344726562e+01 -1.645882797241210938e+01 3.497609496116638184e-01 8.831484615802764893e-02 1.314227432012557983e-01 -1.770691573619842529e-01
1.750000000000000000e+02 4.583259963989257812e+01 -1.544682407379150391e+01 1.905364513397216797e+00 -2.162163406610488892e-01 5.067444443702697754e-01 -1.594986915588378906e-01
1.760000000000000000e+02 4.566023254394531250e+01 -1.532802104949951172e+01 2.062187194824218750e+00 -2.843308448791503906e-01 5.333568453788757324e-01 -2.669742703437805176e-01
1.770000000000000000e+02 4.556715393066406250e+01 -1.578499507904052734e+01 1.466930627822875977e+00 -1.240968555212020874e-01 4.028501212596893311e-01 -2.657182812690734863e-01
1.780000000000000000e+02 4.491046524047851562e+01 -1.633841323852539062e+01 3.885083794593811035e-01 1.133681014180183411e-01 1.505629420280456543e-01 -2.416964322328567505e-01
1.790000000000000000e+02 4.352730941772460938e+01 -1.419924545288085938e+01 7.033842563629150391e+00 1.529447913169860840e+00 2.568987131118774414e+00 2.191272020339965820e+00
1.800000000000000000e+02 4.373205184936523438e+01 -1.411653995513916016e+01 6.375810623168945312e+00 1.191288709640502930e+00 2.270129919052124023e+00 2.023178100585937500e+00
1.810000000000000000e+02 4.462969589233398438e+01 -1.464173698425292969e+01 3.929616451263427734e+00 -2.081706225872039795e-01 1.116433739662170410e+00 -6.506633013486862183e-02
1.820000000000000000e+02 4.488282394409179688e+01 -1.602819061279296875e+01 8.415057659149169922e-01 1.048299297690391541e-01 2.839007079601287842e-01 -3.877277970314025879e-01
1.830000000000000000e+02 4.415860748291015625e+01 -1.767029190063476562e+01 1.773141175508499146e-01 1.556889414787292480e+00 5.202610492706298828e-01 -6.948874592781066895e-01
1.840000000000000000e+02 4.316142654418945312e+01 -1.609997558593750000e+01 8.372230529785156250e-01 3.115370035171508789e+00 1.185777902603149414e+00 -1.740771174430847168e+00
1.850000000000000000e+02 4.298274993896484375e+01 -1.658228874206542969e+01 2.812045514583587646e-01 4.009145259857177734e+00 1.287104964256286621e+00 -1.347846865653991699e+00
1.860000000000000000e+02 4.189490127563476562e+01 -1.602469635009765625e+01 1.081059575080871582e+00 7.398116588592529297e+00 2.543752908706665039e+00 1.147102952003479004e+00
1.870000000000000000e+02 4.158743667602539062e+01 -1.439248561859130859e+01 7.925683975219726562e+00 6.010050773620605469e+00 4.180720329284667969e+00 -5.540494918823242188e-01
1.880000000000000000e+02 4.195483398437500000e+01 -1.567144680023193359e+01 2.723774433135986328e+00 8.751065254211425781e+00 3.442451715469360352e+00 2.542399406433105469e+00
1.890000000000000000e+02 4.247067642211914062e+01 -1.596529960632324219e+01 3.578102588653564453e-01 7.633382797241210938e+00 2.397357940673828125e+00 -6.765092015266418457e-01
1.900000000000000000e+02 4.157736206054687500e+01 -1.562493801116943359e+01 3.689239978790283203e+00 7.682110309600830078e+00 3.411405086517333984e+00 3.416995286941528320e+00
1.910000000000000000e+02 4.362144088745117188e+01 -1.573610877990722656e+01 6.837356686592102051e-01 5.509529113769531250e-01 3.704065680503845215e-01 -6.374582052230834961e-01
1.920000000000000000e+02 4.154711914062500000e+01 -1.458677864074707031e+01 7.592852115631103516e+00 5.822210788726806641e+00 4.024518966674804688e+00 -9.724260866641998291e-02
1.930000000000000000e+02 4.169062423706054688e+01 -1.544449615478515625e+01 4.628823757171630859e+00 7.499629497528076172e+00 3.638535976409912109e+00 2.839032173156738281e+00
1.940000000000000000e+02 4.209291839599609375e+01 -1.614159584045410156e+01 5.320547223091125488e-01 7.588081836700439453e+00 2.436040878295898438e+00 6.767749190330505371e-01
1.950000000000000000e+02 4.380125808715820312e+01 -1.480097484588623047e+01 5.228390216827392578e+00 1.005089730024337769e-01 1.598669767379760742e+00 -4.635707736015319824e-01
1.960000000000000000e+02 4.444150543212890625e+01 -1.569328308105468750e+01 1.323527932167053223e+00 2.396472543478012085e-01 4.689525663852691650e-01 -5.590816140174865723e-01
1.970000000000000000e+02 4.318669128417968750e+01 -1.365705966949462891e+01 4.887732505798339844e+00 5.030282974243164062e+00 2.975404739379882812e+00 3.086868762969970703e+00
1.980000000000000000e+02 4.384537124633789062e+01 -1.431578922271728516e+01 6.264676094055175781e+00 4.461318254470825195e-01 2.013242483139038086e+00 1.108716845512390137e+00
1.990000000000000000e+02 4.390219116210937500e+01 -1.535523700714111328e+01 2.037352800369262695e+00 3.426322937011718750e-01 7.139955163002014160e-01 -9.183159470558166504e-01
2.000000000000000000e+02 4.426599121093750000e+01 -1.555759239196777344e+01 1.459355235099792480e+00 2.564299404621124268e-01 5.147355794906616211e-01 -6.877076625823974609e-01
2.010000000000000000e+02 4.236293029785156250e+01 -1.356538295745849609e+01 3.551172971725463867e+00 7.506859302520751953e+00 3.317409515380859375e+00 8.793568015098571777e-01
2.020000000000000000e+02 4.201139068603515625e+01 -1.400825500488281250e+01 5.622610569000244141e+00 8.074792861938476562e+00 4.109220981597900391e+00 -6.568109989166259766e-01
2.030000000000000000e+02 4.412052536010742188e+01 -1.607118415832519531e+01 4.365464448928833008e-01 3.047547638416290283e-01 2.223903685808181763e-01 -3.427457511425018311e-01
2.040000000000000000e+02 4.428499221801757812e+01 -1.749364280700683594e+01 2.261550426483154297e-01 1.225435018539428711e+00 4.354770183563232422e-01 -6.558028459548950195e-01
2.050000000000000000e+02 4.424905395507812500e+01 -1.717460250854492188e+01 3.220651745796203613e-01 1.139918565750122070e+00 4.385951161384582520e-01 -6.982106566429138184e-01
2.060000000000000000e+02 4.319549942016601562e+01 -1.697030639648437500e+01 1.864725798368453979e-01 3.178234100341796875e+00 1.009412050247192383e+00 -1.214136958122253418e+00
2.070000000000000000e+02 4.331932830810546875e+01 -1.676078414916992188e+01 3.510901033878326416e-01 2.858181476593017578e+00 9.627814888954162598e-01 -1.279416322708129883e+00
2.080000000000000000e+02 4.286980819702148438e+01 -1.675604629516601562e+01 1.526164263486862183e-01 4.315966129302978516e+00 1.340574741363525391e+00 -1.199706435203552246e+00
2.090000000000000000e+02 4.240338134765625000e+01 -1.641936874389648438e+01 2.877965569496154785e-02 6.099967002868652344e+00 1.838623881340026855e+00 -5.463969707489013672e-01
2.100000000000000000e+02 4.208262252807617188e+01 -1.579434680938720703e+01 1.611733436584472656e+00 8.489295005798339844e+00 3.030308485031127930e+00 1.347431659698486328e+00
2.110000000000000000e+02 4.425286865234375000e+01 -1.619627761840820312e+01 3.216383457183837891e-01 2.418841272592544556e-01 1.690567433834075928e-01 -3.222988545894622803e-01
2.120000000000000000e+02 4.440382003784179688e+01 -1.633394050598144531e+01 2.625186443328857422e-01 2.513345181941986084e-01 1.541559547185897827e-01 -2.645697891712188721e-01
2.130000000000000000e+02 4.383720397949218750e+01 -1.743035316467285156e+01 1.796557605266571045e-01 1.948094844818115234e+00 6.383252143859863281e-01 -9.024965763092041016e-01
2.140000000000000000e+02 4.378837966918945312e+01 -1.585746192932128906e+01 5.572280883789062500e-01 4.910276830196380615e-01 3.144767284393310547e-01 -5.233716368675231934e-01
2.150000000000000000e+02 4.366352462768554688e+01 -1.606514930725097656e+01 7.884287238121032715e-01 1.096361398696899414e+00 5.654370188713073730e-01 -9.554487466812133789e-01
2.160000000000000000e+02 4.427009582519531250e+01 -1.587688350677490234e+01 7.288913726806640625e-01 2.332536578178405762e-01 2.886435091495513916e-01 -4.558939039707183838e-01
2.170000000000000000e+02 4.549103164672851562e+01 -1.520774841308593750e+01 2.273820161819458008e+00 -2.408094555139541626e-01 6.099032163619995117e-01 -2.363557666540145874e-01
2.180000000000000000e+02 4.520164489746093750e+01 -1.628815650939941406e+01 5.309939980506896973e-01 1.622410677373409271e-02 1.641654372215270996e-01 -2.626529037952423096e-01
2.190000000000000000e+02 4.432279205322265625e+01 -1.435780429840087891e+01 5.061700820922851562e+00 -1.556630805134773254e-02 1.513840436935424805e+00 5.738277435302734375e-01
2.200000000000000000e+02 4.403715896606445312e+01 -1.427566337585449219e+01 5.656558036804199219e+00 2.760614156723022461e-01 1.779785752296447754e+00 1.003037214279174805e+00
2.210000000000000000e+02 4.532870864868164062e+01 -1.537028312683105469e+01 2.045529842376708984e+00 -2.004700601100921631e-01 5.535179376602172852e-01 -3.599723875522613525e-01
2.220000000000000000e+02 4.516156005859375000e+01 -1.496696281433105469e+01 2.802949666976928711e+00 -2.464559227228164673e-01 7.669481635093688965e-01 -2.028319537639617920e-01
2.230000000000000000e+02 4.404266357421875000e+01 -1.413035106658935547e+01 5.665519237518310547e+00 5.009035468101501465e-01 1.849926829338073730e+00 1.426076769828796387e+00
2.240000000000000000e+02 4.486094284057617188e+01 -1.499409866333007812e+01 2.931928396224975586e+00 -1.651082634925842285e-01 8.300460577011108398e-01 -3.126678168773651123e-01
2.250000000000000000e+02 4.456452560424804688e+01 -1.584100532531738281e+01 1.000146031379699707e+00 1.708084195852279663e-01 3.512863218784332275e-01 -4.944714307785034180e-01
2.260000000000000000e+02 4.396009445190429688e+01 -1.450819873809814453e+01 5.558776855468750000e+00 1.025486439466476440e-01 1.698397755622863770e+00 3.777548670768737793e-01
2.270000000000000000e+02 4.483090972900390625e+01 -1.474428939819335938e+01 3.474137544631958008e+00 -2.492768764495849609e-01 9.674581885337829590e-01 -1.589119136333465576e-01
2.280000000000000000e+02 4.466931152343750000e+01 -1.698897552490234375e+01 2.905932068824768066e-01 4.780376851558685303e-01 2.305892705917358398e-01 -3.982643485069274902e-01
2.290000000000000000e+02 4.441199111938476562e+01 -1.731909179687500000e+01 2.848975062370300293e-01 9.611898660659790039e-01 3.738262057304382324e-01 -6.387171745300292969e-01
2.300000000000000000e+02 4.464811325073242188e+01 -1.671397781372070312e+01 1.729948073625564575e-01 3.109546005725860596e-01 1.451848298311233521e-01 -2.722432315349578857e-01
2.310000000000000000e+02 4.544818115234375000e+01 -1.595518112182617188e+01 1.112616777420043945e+00 -4.779627919197082520e-02 3.194461464881896973e-01 -2.863630950450897217e-01
2.320000000000000000e+02 4.532904052734375000e+01 -1.612215614318847656e+01 8.689068555831909180e-01 5.624371021986007690e-02 2.775451838970184326e-01 -2.719282209873199463e-01
2.330000000000000000e+02 4.525902938842773438e+01 -1.585036277770996094e+01 1.302116274833679199e+00 -1.388009823858737946e-02 3.864708840847015381e-01 -3.707910478115081787e-01
2.340000000000000000e+02 4.495502853393554688e+01 -1.568240451812744141e+01 1.474619626998901367e+00 2.094630710780620575e-02 4.486697912216186523e-01 -4.954771697521209717e-01
2.350000000000000000e+02 4.371223831176757812e+01 -1.523295688629150391e+01 2.513776063919067383e+00 4.307999014854431152e-01 8.833727836608886719e-01 -1.041213631629943848e+00
2.360000000000000000e+02 4.376675796508789062e+01 -1.553347110748291016e+01 1.128407597541809082e+00 4.276522994041442871e-01 4.668179750442504883e-01 -6.271024942398071289e-01
2.370000000000000000e+02 4.217422103881835938e+01 -1.393368148803710938e+01 5.163677692413330078e+00 9.172415733337402344e+00 4.300827980041503906e+00 -1.228882744908332825e-01
2.380000000000000000e+02 4.366114044189453125e+01 -1.698091506958007812e+01 3.617444634437561035e-01 2.060270547866821289e+00 7.266045212745666504e-01 -1.085815787315368652e+00
2.390000000000000000e+02 4.269521331787109375e+01 -1.596605682373046875e+01 5.129860043525695801e-01 6.222023963928222656e+00 2.020503044128417969e+00 -1.637836217880249023e+00
2.400000000000000000e+02 4.335887527465820312e+01 -1.708061027526855469e+01 1.918381750583648682e-01 2.809861183166503906e+00 9.005098342895507812e-01 -1.145652532577514648e+00
2.410000000000000000e+02 4.425034332275390625e+01 -1.659590339660644531e+01 3.953908383846282959e-01 6.500555276870727539e-01 3.136339187622070312e-01 -5.709793567657470703e-01
2.420000000000000000e+02 4.459005355834960938e+01 -1.644046783447265625e+01 1.782410591840744019e-01 2.064081430435180664e-01 1.153947561979293823e-01 -2.173249423503875732e-01
2.430000000000000000e+02 4.447913742065429688e+01 -1.664915084838867188e+01 2.907263636589050293e-01 4.577386081218719482e-01 2.245394885540008545e-01 -3.516563177108764648e-01
2.440000000000000000e+02 4.471398925781250000e+01 -1.593227767944335938e+01 9.220261573791503906e-01 1.846455186605453491e-01 3.320015072822570801e-01 -4.016014337539672852e-01
2.450000000000000000e+02 4.410592651367187500e+01 -1.528010082244873047e+01 2.458353281021118164e+00 2.379464060068130493e-01 8.088899254798889160e-01 -8.866931200027465820e-01
2.460000000000000000e+02 4.415231323242187500e+01 -1.481226634979248047e+01 4.293603897094726562e+00 -4.020043089985847473e-02 1.276021003723144531e+00 -4.347625076770782471e-01
2.470000000000000000e+02 4.417641067504882812e+01 -1.459754943847656250e+01 4.926474571228027344e+00 -7.744380086660385132e-02 1.454709291458129883e+00 3.805118054151535034e-02
2.480000000000000000e+02 4.535708236694335938e+01 -1.567026805877685547e+01 1.558705568313598633e+00 -1.123411357402801514e-01 4.339093267917633057e-01 -3.725869953632354736e-01
2.490000000000000000e+02 4.569731140136718750e+01 -1.561558818817138672e+01 1.618141174316406250e+00 -1.959754526615142822e-01 4.266497194766998291e-01 -3.052948117256164551e-01
2.500000000000000000e+02 4.474854278564453125e+01 -1.622103691101074219e+01 4.866489768028259277e-01 1.726760119199752808e-01 1.977974921464920044e-01 -2.487502098083496094e-01
2.510000000000000000e+02 4.321750640869140625e+01 -1.628604888916015625e+01 6.854160428047180176e-01 3.077367067337036133e+00 1.128834843635559082e+00 -1.545700073242187500e+00
2.520000000000000000e+02 4.378654861450195312e+01 -1.502277088165283203e+01 3.765711784362792969e+00 2.163393795490264893e-01 1.194615364074707031e+00 -1.008140325546264648e+00
2.530000000000000000e+02 4.438543319702148438e+01 -1.533167648315429688e+01 2.326996088027954102e+00 1.535268127918243408e-01 7.441568374633789062e-01 -7.122126817703247070e-01
2.540000000000000000e+02 4.354217147827148438e+01 -1.628572845458984375e+01 7.757304906845092773e-01 1.757557511329650879e+00 7.599864006042480469e-01 -1.242176413536071777e+00
2.550000000000000000e+02 4.293422698974609375e+01 -1.631931114196777344e+01 4.266052842140197754e-01 4.254079818725585938e+00 1.404205560684204102e+00 -1.566352367401123047e+00
2.560000000000000000e+02 4.398965835571289062e+01 -1.650282096862792969e+01 5.332163572311401367e-01 9.707798361778259277e-01 4.511988461017608643e-01 -7.599424123764038086e-01
2.570000000000000000e+02 4.437172317504882812e+01 -1.698280334472656250e+01 3.581433892250061035e-01 7.854166030883789062e-01 3.430680036544799805e-01 -6.112099885940551758e-01
2.580000000000000000e+02 4.442505264282226562e+01 -1.599847030639648438e+01 6.670370697975158691e-01 2.341543436050415039e-01 2.703574299812316895e-01 -3.619923591613769531e-01
2.590000000000000000e+02 4.447209930419921875e+01 -1.486096954345703125e+01 3.697721958160400391e+00 -9.160282462835311890e-02 1.081835746765136719e+00 -3.665699064731597900e-01
2.600000000000000000e+02 4.505527496337890625e+01 -1.586587142944335938e+01 1.239511847496032715e+00 5.717544257640838623e-02 3.890061974525451660e-01 -3.724136948585510254e-01
2.610000000000000000e+02 4.515986251831054688e+01 -1.553535747528076172e+01 1.818381071090698242e+00 -5.908567830920219421e-02 5.277885794639587402e-01 -3.823190033435821533e-01
2.620000000000000000e+02 4.265497207641601562e+01 -1.614624214172363281e+01 3.340581655502319336e-01 6.131525039672851562e+00 1.939674973487854004e+00 -1.322914719581604004e+00
2.630000000000000000e+02 4.396428680419921875e+01 -1.723613357543945312e+01 3.064637780189514160e-01 1.546366691589355469e+00 5.558491349220275879e-01 -8.564944863319396973e-01
2.640000000000000000e+02 4.349379348754882812e+01 -1.686388587951660156e+01 3.624158501625061035e-01 2.426537752151489258e+00 8.366860747337341309e-01 -1.218057751655578613e+00
2.650000000000000000e+02 4.464315414428710938e+01 -1.558857727050781250e+01 1.622792601585388184e+00 1.257243752479553223e-01 5.245550870895385742e-01 -5.822609066963195801e-01
2.660000000000000000e+02 4.417512893676757812e+01 -1.685967063903808594e+01 4.211219847202301025e-01 1.005548357963562012e+00 4.280010759830474854e-01 -7.106223702430725098e-01
2.670000000000000000e+02 4.550873947143554688e+01 -1.549584007263183594e+01 1.882709741592407227e+00 -1.692107617855072021e-01 5.140497088432312012e-01 -2.722927927970886230e-01
2.680000000000000000e+02 4.532405471801757812e+01 -1.508694648742675781e+01 2.527660369873046875e+00 -2.927134931087493896e-01 6.704840660095214844e-01 -2.355543673038482666e-01
2.690000000000000000e+02 4.500184631347656250e+01 -1.485048866271972656e+01 3.141755819320678711e+00 -2.914478480815887451e-01 8.550924062728881836e-01 -2.027279883623123169e-01
2.700000000000000000e+02 4.470640945434570312e+01 -1.491679477691650391e+01 3.277037620544433594e+00 -1.991553753614425659e-01 9.233646988868713379e-01 -3.604696691036224365e-01
2.710000000000000000e+02 4.419310379028320312e+01 -1.422839260101318359e+01 5.117773056030273438e+00 2.104747295379638672e-01 1.598474264144897461e+00 8.265138268470764160e-01
2.720000000000000000e+02 4.352840042114257812e+01 -1.382195663452148438e+01 5.789389133453369141e+00 2.151052474975585938e+00 2.382132530212402344e+00 2.441040039062500000e+00
2.730000000000000000e+02 4.517106628417968750e+01 -1.600894927978515625e+01 9.070264697074890137e-01 2.155590057373046875e-02 2.785747051239013672e-01 -3.487710952758789062e-01
2.740000000000000000e+02 4.458548736572265625e+01 -1.611122894287109375e+01 5.449147224426269531e-01 1.524167060852050781e-01 2.091994285583496094e-01 -3.320933282375335693e-01
2.750000000000000000e+02 4.410704040527343750e+01 -1.575841140747070312e+01 8.806099295616149902e-01 3.131028413772583008e-01 3.581138253211975098e-01 -4.691747426986694336e-01
2.760000000000000000e+02 4.411210632324218750e+01 -1.505838584899902344e+01 3.351004600524902344e+00 1.249954402446746826e-01 1.042799949645996094e+00 -7.674511075019836426e-01
2.770000000000000000e+02 4.399737548828125000e+01 -1.754869079589843750e+01 1.638501137495040894e-01 1.652301669120788574e+00 5.448455214500427246e-01 -7.973296046257019043e-01
2.780000000000000000e+02 4.412296295166015625e+01 -1.736069679260253906e+01 2.484416663646697998e-01 1.443050265312194824e+00 5.074476003646850586e-01 -7.650547027587890625e-01
2.790000000000000000e+02 4.367845916748046875e+01 -1.731222343444824219e+01 2.121870070695877075e-01 2.163909196853637695e+00 7.128288149833679199e-01 -1.000152230262756348e+00
2.800000000000000000e+02 4.351999282836914062e+01 -1.719494628906250000e+01 2.073391377925872803e-01 2.490056037902832031e+00 8.092185258865356445e-01 -1.084555506706237793e+00
2.810000000000000000e+02 4.383063125610351562e+01 -1.675879669189453125e+01 4.667984843254089355e-01 1.524010658264160156e+00 5.972427129745483398e-01 -9.751681685447692871e-01
2.820000000000000000e+02 4.453926086425781250e+01 -1.714881324768066406e+01 2.798556387424468994e-01 7.356250882148742676e-01 3.046441972255706787e-01 -4.929404556751251221e-01
2.830000000000000000e+02 4.451527023315429688e+01 -1.683988952636718750e+01 2.878665030002593994e-01 5.260097384452819824e-01 2.441628724336624146e-01 -4.400892257690429688e-01
2.840000000000000000e+02 4.395676040649414062e+01 -1.597115516662597656e+01 4.752021431922912598e-01 3.994406461715698242e-01 2.623928487300872803e-01 -4.160736799240112305e-01
2.850000000000000000e+02 4.405867004394531250e+01 -1.625653266906738281e+01 4.347822964191436768e-01 6.086985468864440918e-01 3.130442500114440918e-01 -5.348442196846008301e-01
2.860000000000000000e+02 4.385336685180664062e+01 -1.617601013183593750e+01 6.258617043495178223e-01 8.729110956192016602e-01 4.496318399906158447e-01 -7.350723147392272949e-01
2.870000000000000000e+02 4.335299301147460938e+01 -1.614928817749023438e+01 9.071220755577087402e-01 2.289228677749633789e+00 9.589052200317382812e-01 -1.543218016624450684e+00
2.880000000000000000e+02 4.347481918334960938e+01 -1.593520164489746094e+01 9.511579871177673340e-01 1.404879808425903320e+00 7.068113088607788086e-01 -1.203601121902465820e+00
2.890000000000000000e+02 4.303192901611328125e+01 -1.686321258544921875e+01 1.369252055883407593e-01 3.704641342163085938e+00 1.152469992637634277e+00 -1.200005888938903809e+00
2.900000000000000000e+02 4.282752227783203125e+01 -1.648698234558105469e+01 2.232681810855865479e-01 4.714467048645019531e+00 1.481320500373840332e+00 -1.375333666801452637e+00
2.910000000000000000e+02 4.271026611328125000e+01 -1.664735794067382812e+01 4.190453886985778809e-02 4.922068595886230469e+00 1.489191889762878418e+00 -1.052626609802246094e+00
2.920000000000000000e+02 4.268227005004882812e+01 -1.638764953613281250e+01 1.239526420831680298e-01 5.505493640899658203e+00 1.688833832740783691e+00 -1.169633388519287109e+00
2.930000000000000000e+02 4.279926681518554688e+01 -1.623208618164062500e+01 3.846171498298645020e-01 5.279958724975585938e+00 1.699372768402099609e+00 -1.604866385459899902e+00
2.940000000000000000e+02 4.254897689819335938e+01 -1.628515243530273438e+01 1.976968050003051758e-01 6.085318565368652344e+00 1.884904623031616211e+00 -9.092831015586853027e-01
2.950000000000000000e+02 4.246010971069335938e+01 -1.615250015258789062e+01 2.913120985031127930e-01 6.917824268341064453e+00 2.162740945816040039e+00 -6.785079836845397949e-01
2.960000000000000000e+02 4.224736022949218750e+01 -1.591609954833984375e+01 6.515412330627441406e-01 8.369381904602050781e+00 2.706276893615722656e+00 3.235591948032379150e-01
2.970000000000000000e+02 4.147660446166992188e+01 -1.506928730010986328e+01 6.942368984222412109e+00 5.786741256713867188e+00 3.818732976913452148e+00 2.165592193603515625e+00
2.980000000000000000e+02 4.159118652343750000e+01 -1.498991584777832031e+01 7.566606998443603516e+00 6.096995830535888672e+00 4.099080562591552734e+00 2.171502590179443359e+00
2.990000000000000000e+02 4.182292556762695312e+01 -1.555072593688964844e+01 3.555871486663818359e+00 8.208035469055175781e+00 3.529172182083129883e+00 2.864977836608886719e+00
3.000000000000000000e+02 4.177419662475585938e+01 -1.569327449798583984e+01 3.058933019638061523e+00 7.756958484649658203e+00 3.244767427444458008e+00 2.712671756744384766e+00
3.010000000000000000e+02 4.168715667724609375e+01 -1.530215835571289062e+01 5.357949256896972656e+00 7.244447708129882812e+00 3.780719041824340820e+00 2.804434776306152344e+00
3.020000000000000000e+02 4.363943481445312500e+01 -1.439103984832763672e+01 7.003256320953369141e+00 7.609603404998779297e-01 2.329264879226684570e+00 1.350866675376892090e+00
3.030000000000000000e+02 4.187448883056640625e+01 -1.378367233276367188e+01 4.846105575561523438e+00 6.836857795715332031e+00 3.504889011383056641e+00 -9.499109983444213867e-01
3.040000000000000000e+02 4.232373809814453125e+01 -1.374877452850341797e+01 4.526060104370117188e+00 8.659356117248535156e+00 3.955624818801879883e+00 7.063196301460266113e-01
3.050000000000000000e+02 4.235112762451171875e+01 -1.386272430419921875e+01 4.672988891601562500e+00 9.222751617431640625e+00 4.168722152709960938e+00 5.014783143997192383e-01
3.060000000000000000e+02 4.209082031250000000e+01 -1.384837722778320312e+01 5.127036571502685547e+00 8.249807357788085938e+00 4.013052940368652344e+00 -3.241952657699584961e-01
3.070000000000000000e+02 4.155780410766601562e+01 -1.539780044555664062e+01 4.861346721649169922e+00 6.564470767974853516e+00 3.427745342254638672e+00 2.431282520294189453e+00
3.080000000000000000e+02 4.163783645629882812e+01 -1.515575408935546875e+01 7.101583957672119141e+00 6.452995300292968750e+00 4.066373825073242188e+00 2.514040231704711914e+00
3.090000000000000000e+02 4.151268386840820312e+01 -1.485915565490722656e+01 7.313455581665039062e+00 5.696561336517333984e+00 3.903004884719848633e+00 1.586775541305541992e+00
3.100000000000000000e+02 4.160411071777343750e+01 -1.470753574371337891e+01 7.255868911743164062e+00 6.118162631988525391e+00 4.012209415435791016e+00 5.823994874954223633e-01
3.110000000000000000e+02 4.176322937011718750e+01 -1.425056076049804688e+01 7.352997779846191406e+00 6.990728378295898438e+00 4.303117752075195312e+00 -7.859395742416381836e-01
3.120000000000000000e+02 4.170912933349609375e+01 -1.438912010192871094e+01 8.008189201354980469e+00 6.716268539428710938e+00 4.417337417602539062e+00 -8.557774424552917480e-01
3.130000000000000000e+02 4.295463562011718750e+01 -1.613959884643554688e+01 6.738659143447875977e-01 4.347768783569335938e+00 1.506490349769592285e+00 -1.771464824676513672e+00
3.140000000000000000e+02 4.515622329711914062e+01 -1.524033164978027344e+01 2.360676765441894531e+00 -1.621004492044448853e-01 6.595729589462280273e-01 -3.627474606037139893e-01
3.150000000000000000e+02 4.409238433837890625e+01 -1.705629539489746094e+01 3.289615511894226074e-01 1.307418942451477051e+00 4.909141361713409424e-01 -7.816995382308959961e-01
3.160000000000000000e+02 4.473588943481445312e+01 -1.575765609741210938e+01 1.289884209632873535e+00 1.479939520359039307e-01 4.313634335994720459e-01 -5.044621825218200684e-01
3.170000000000000000e+02 4.308196640014648438e+01 -1.640119552612304688e+01 5.041864514350891113e-01 3.696395397186279297e+00 1.260174512863159180e+00 -1.537969946861267090e+00
3.180000000000000000e+02 4.406014251708984375e+01 -1.546837043762207031e+01 1.646477818489074707e+00 3.373649418354034424e-01 5.951528549194335938e-01 -7.126135230064392090e-01
3.190000000000000000e+02 4.314709472656250000e+01 -1.667194747924804688e+01 3.677141368389129639e-01 3.346299409866333008e+00 1.114204049110412598e+00 -1.360832452774047852e+00
3.200000000000000000e+02 4.362998962402343750e+01 -1.663424301147460938e+01 5.533288121223449707e-01 1.842639207839965820e+00 7.187904119491577148e-01 -1.148719787597656250e+00
3.210000000000000000e+02 4.343009948730468750e+01 -1.652642440795898438e+01 5.985432863235473633e-01 2.414605379104614258e+00 9.039446115493774414e-01 -1.360705733299255371e+00
3.220000000000000000e+02 4.397360229492187500e+01 -1.691640090942382812e+01 4.147998988628387451e-01 1.336182475090026855e+00 5.252947211265563965e-01 -8.711190223693847656e-01
3.230000000000000000e+02 4.164276504516601562e+01 -1.555343246459960938e+01 3.322014093399047852e+00 7.444532871246337891e+00 3.229964017868041992e+00 2.901799678802490234e+00
3.240000000000000000e+02 4.172241592407226562e+01 -1.584314250946044922e+01 2.567343235015869141e+00 6.968489646911621094e+00 2.860749721527099609e+00 2.185945749282836914e+00
3.250000000000000000e+02 4.143376159667968750e+01 -1.546028423309326172e+01 3.652777433395385742e+00 6.228634357452392578e+00 2.964423656463623047e+00 1.810919761657714844e+00
3.260000000000000000e+02 4.140798568725585938e+01 -1.437479686737060547e+01 6.883035182952880859e+00 5.123179435729980469e+00 3.601864337921142578e+00 -4.371072649955749512e-01
3.270000000000000000e+02 4.442819976806640625e+01 -1.509360980987548828e+01 3.034328699111938477e+00 4.365841392427682877e-03 9.116083383560180664e-01 -6.156685948371887207e-01
3.280000000000000000e+02 4.412737274169921875e+01 -1.443239212036132812e+01 5.326992988586425781e+00 8.203615993261337280e-02 1.622708678245544434e+00 5.094121694564819336e-01
3.290000000000000000e+02 4.375306701660156250e+01 -1.639919090270996094e+01 6.578776836395263672e-01 1.356482148170471191e+00 6.043079495429992676e-01 -1.006203770637512207e+00
3.300000000000000000e+02 4.480390548706054688e+01 -1.524549007415771484e+01 2.507526159286499023e+00 -4.564524441957473755e-02 7.385643124580383301e-01 -5.158474445343017578e-01
3.310000000000000000e+02 4.498612213134765625e+01 -1.538469505310058594e+01 2.040125131607055664e+00 -8.668070286512374878e-02 5.860333442687988281e-01 -4.901158511638641357e-01
3.320000000000000000e+02 4.482627487182617188e+01 -1.551448631286621094e+01 1.903574585914611816e+00 4.244954511523246765e-02 5.838072299957275391e-01 -4.966980814933776855e-01
3.330000000000000000e+02 4.468689346313476562e+01 -1.508945178985595703e+01 2.865731716156005859e+00 -9.334235638380050659e-02 8.317168354988098145e-01 -5.016435980796813965e-01
3.340000000000000000e+02 4.324011993408203125e+01 -1.646683883666992188e+01 5.268546342849731445e-01 3.030060529708862305e+00 1.067074537277221680e+00 -1.455964803695678711e+00
3.350000000000000000e+02 4.464526748657226562e+01 -1.540567874908447266e+01 2.094003438949584961e+00 3.849077224731445312e-02 6.397482752799987793e-01 -6.239548921585083008e-01
3.360000000000000000e+02 3.139234352111816406e+01 -9.016592979431152344e+00 2.850608110427856445e+00 1.476100802421569824e+00 1.298012733459472656e+00 -1.894229769706726074e+00
3.370000000000000000e+02 3.245016479492187500e+01 -9.897507667541503906e+00 2.064782381057739258e+00 1.579499363899230957e+00 1.093284487724304199e+00 -1.740955471992492676e+00
3.380000000000000000e+02 3.307725906372070312e+01 -9.242166519165039062e+00 1.815525412559509277e+00 9.905121922492980957e-01 8.418112993240356445e-01 -1.192142605781555176e+00
3.390000000000000000e+02 3.123764801025390625e+01 -7.739321708679199219e+00 1.507416248321533203e+00 1.117062926292419434e+00 7.873437404632568359e-01 -7.607985138893127441e-01
3.400000000000000000e+02 3.642396545410156250e+01 -2.454305171966552734e+00 -2.377910852432250977e+00 6.489785909652709961e-01 -5.186796784400939941e-01 4.586700499057769775e-01
3.410000000000000000e+02 3.795895767211914062e+01 -8.892555832862854004e-01 -1.806850552558898926e+00 3.590723574161529541e-01 -4.343334436416625977e-01 5.664559006690979004e-01
3.420000000000000000e+02 3.650828170776367188e+01 -1.138569951057434082e+00 -2.142680883407592773e+00 3.898207843303680420e-01 -5.258579850196838379e-01 3.176434636116027832e-01
3.430000000000000000e+02 3.446142578125000000e+01 -1.362902641296386719e+00 -3.012801170349121094e+00 3.965286016464233398e-01 -7.848817706108093262e-01 7.681137323379516602e-02
3.440000000000000000e+02 3.283965682983398438e+01 -2.382210254669189453e+00 -2.376362562179565430e+00 -3.205932974815368652e-01 -8.090867400169372559e-01 -1.526140570640563965e-01
3.450000000000000000e+02 3.247925949096679688e+01 -3.038962841033935547e+00 -1.914754986763000488e+00 -4.164366424083709717e-02 -5.869196057319641113e-01 -2.096222788095474243e-01
3.460000000000000000e+02 3.230672454833984375e+01 -2.475945711135864258e+00 -2.445762634277343750e+00 -1.403226107358932495e-01 -7.758255600929260254e-01 -3.215695023536682129e-01
3.470000000000000000e+02 2.530735969543457031e+01 -2.635558128356933594e+00 -1.286682605743408203e+00 -6.241015344858169556e-02 -4.047278165817260742e-01 -7.737594246864318848e-01
3.480000000000000000e+02 2.344658088684082031e+01 -3.312366008758544922e+00 -7.539547681808471680e-01 -4.049076815135776997e-04 -2.263079136610031128e-01 -7.019380331039428711e-01
3.490000000000000000e+02 1.897501373291015625e+01 -2.296845674514770508e+00 -2.780294716358184814e-01 -8.435434103012084961e-02 -1.087151393294334412e-01 -3.142153620719909668e-01
3.500000000000000000e+02 1.573548030853271484e+01 -1.727729558944702148e+00 -6.335106678307056427e-03 -5.138963460922241211e-02 -1.731742173433303833e-02 -1.407244205474853516e-01
3.510000000000000000e+02 1.269526386260986328e+01 -1.819555640220642090e+00 1.171117350459098816e-01 -2.775683812797069550e-02 2.680646814405918121e-02 -3.208716213703155518e-02
3.520000000000000000e+02 1.042830562591552734e+01 -1.872210621833801270e+00 1.375631093978881836e-01 -1.580537669360637665e-02 3.652731701731681824e-02 1.853436045348644257e-02
3.530000000000000000e+02 4.788317203521728516e+00 -2.865771293640136719e+00 3.632549569010734558e-02 6.799982395023107529e-03 1.293764263391494751e-02 6.993070244789123535e-02
3.540000000000000000e+02 1.294711112976074219e+00 -2.123619794845581055e+00 1.016802992671728134e-02 2.556952089071273804e-02 1.072126533836126328e-02 2.369940653443336487e-02
3.550000000000000000e+02 6.071726083755493164e-01 -3.621820449829101562e+00 3.892940469086170197e-03 6.016431376338005066e-02 1.921717636287212372e-02 1.932233758270740509e-02
3.560000000000000000e+02 3.421670913696289062e+01 -1.009141826629638672e+01 1.608347773551940918e+00 4.489183425903320312e-01 6.171798110008239746e-01 -1.168223381042480469e+00
3.570000000000000000e+02 3.536064147949218750e+01 -1.638452911376953125e+01 -4.776283167302608490e-03 -2.119806528091430664e+00 -6.373748779296875000e-01 4.400125443935394287e-01
3.580000000000000000e+02 4.071517562866210938e+01 -1.427589797973632812e+01 5.302395343780517578e+00 3.689313888549804688e+00 2.697512865066528320e+00 -4.598071575164794922e-01
3.590000000000000000e+02 4.062640762329101562e+01 -1.337069129943847656e+01 3.832667112350463867e+00 3.689619541168212891e+00 2.256685972213745117e+00 -1.237366795539855957e+00
3.600000000000000000e+02 4.113938140869140625e+01 -1.218301105499267578e+01 1.788759469985961914e+00 3.696271657943725586e+00 1.645509362220764160e+00 -9.373453855514526367e-01
3.610000000000000000e+02 4.217398071289062500e+01 -1.299384784698486328e+01 2.749731302261352539e+00 5.961744785308837891e+00 2.613442897796630859e+00 3.437539339065551758e-01
3.620000000000000000e+02 4.149797439575195312e+01 -1.323243236541748047e+01 3.627603292465209961e+00 5.433161735534667969e+00 2.718229532241821289e+00 -1.052875161170959473e+00
3.630000000000000000e+02 4.367610549926757812e+01 -1.345503234863281250e+01 4.819421291351318359e+00 2.414148330688476562e+00 2.170070886611938477e+00 2.766649961471557617e+00
3.640000000000000000e+02 4.709571456909179688e+01 -1.573640060424804688e+01 1.533971786499023438e+00 -2.575187683105468750e-01 3.829359114170074463e-01 5.634531378746032715e-03
3.650000000000000000e+02 4.757147979736328125e+01 -1.500039100646972656e+01 1.870598554611206055e+00 -3.177600800991058350e-01 4.658515453338623047e-01 1.662346124649047852e-01
3.660000000000000000e+02 4.779268264770507812e+01 -1.613838195800781250e+01 1.228511571884155273e+00 9.134659171104431152e-02 3.959574401378631592e-01 3.293362557888031006e-01
3.670000000000000000e+02 4.710159683227539062e+01 -1.407736015319824219e+01 2.352721452713012695e+00 -4.811676740646362305e-01 5.614661574363708496e-01 4.825126826763153076e-01
3.680000000000000000e+02 4.949358749389648438e+01 -1.536858749389648438e+01 1.882656335830688477e+00 1.115382537245750427e-01 5.982583761215209961e-01 4.429929256439208984e-01
3.690000000000000000e+02 5.073355484008789062e+01 -1.522608375549316406e+01 1.430315613746643066e+00 5.423917993903160095e-02 4.453664422035217285e-01 3.809860348701477051e-01
3.700000000000000000e+02 5.068584442138671875e+01 -1.421986007690429688e+01 1.119135379791259766e+00 1.160274818539619446e-01 3.705488741397857666e-01 7.452375888824462891e-01
3.710000000000000000e+02 5.161018371582031250e+01 -9.593510627746582031e+00 -3.443646132946014404e-01 4.900676310062408447e-01 4.371090233325958252e-02 1.972320199012756348e+00
3.720000000000000000e+02 5.186791229248046875e+01 -5.754693984985351562e+00 -2.854112088680267334e-01 1.115252852439880371e+00 2.489525079727172852e-01 1.481381416320800781e+00
3.730000000000000000e+02 4.916638183593750000e+01 -5.396780490875244141e+00 -3.594717502593994141e+00 -3.274648487567901611e-01 -1.176654696464538574e+00 1.058158874511718750e+00
3.740000000000000000e+02 5.041797256469726562e+01 -6.822029590606689453e+00 -1.173760890960693359e+00 2.528090178966522217e-01 -2.762855887413024902e-01 2.146103620529174805e+00
3.750000000000000000e+02 4.637977218627929688e+01 -4.686762332916259766e+00 -5.034089088439941406e+00 -5.467900633811950684e-01 -1.674263834953308105e+00 1.708119988441467285e+00
3.760000000000000000e+02 4.373578262329101562e+01 -3.857464075088500977e+00 -5.927751064300537109e+00 -8.255859613418579102e-01 -2.026001214981079102e+00 2.015253305435180664e+00
3.770000000000000000e+02 4.013293457031250000e+01 -2.977023363113403320e+00 -3.210226535797119141e+00 1.970113515853881836e-01 -9.039645195007324219e-01 8.513339161872863770e-01
3.780000000000000000e+02 3.729263305664062500e+01 -1.689233303070068359e+00 -2.188708782196044922e+00 5.258839726448059082e-01 -4.988474249839782715e-01 5.710711479187011719e-01
3.790000000000000000e+02 3.543052291870117188e+01 -7.197290420532226562e+00 3.504468128085136414e-02 5.062614083290100098e-01 1.623918265104293823e-01 -5.580837726593017578e-01
3.800000000000000000e+02 3.509074020385742188e+01 -8.108919143676757812e+00 7.458673119544982910e-01 4.049183726310729980e-01 3.452357053756713867e-01 -7.800546884536743164e-01
3.810000000000000000e+02 3.676969909667968750e+01 -1.324511623382568359e+01 1.465262889862060547e+00 -3.510421887040138245e-02 4.290475845336914062e-01 -1.198874235153198242e+00
3.820000000000000000e+02 3.926576614379882812e+01 -1.143822765350341797e+01 1.491251230239868164e+00 1.725418686866760254e+00 9.650009870529174805e-01 -1.647958040237426758e+00
3.830000000000000000e+02 4.050637435913085938e+01 -1.031768226623535156e+01 4.416530728340148926e-01 1.996145606040954590e+00 7.313396334648132324e-01 -9.874235391616821289e-01
3.840000000000000000e+02 4.391817092895507812e+01 -1.139296150207519531e+01 1.568132877349853516e+00 1.990537524223327637e+00 1.067601084709167480e+00 1.684283852577209473e+00
3.850000000000000000e+02 4.273710632324218750e+01 -1.270025730133056641e+01 2.501720190048217773e+00 4.873085975646972656e+00 2.212441682815551758e+00 1.406142234802246094e+00
3.860000000000000000e+02 3.431036376953125000e+01 -1.218503189086914062e+01 8.210758566856384277e-01 1.848138123750686646e-01 3.017669022083282471e-01 -7.919523119926452637e-01
3.870000000000000000e+02 3.513547515869140625e+01 -1.497969532012939453e+01 3.819592297077178955e-02 -2.152303457260131836e+00 -6.342322826385498047e-01 2.515483498573303223e-01
3.880000000000000000e+02 3.654026794433593750e+01 -1.781935691833496094e+01 9.655448608100414276e-03 1.722052693367004395e-01 5.455821752548217773e-02 9.944397211074829102e-01
3.890000000000000000e+02 4.134665679931640625e+01 -1.660935020446777344e+01 8.961181044578552246e-01 5.882604598999023438e+00 2.033616781234741211e+00 1.632808327674865723e+00
3.900000000000000000e+02 4.031627655029296875e+01 -1.637469291687011719e+01 1.583441734313964844e+00 3.947424888610839844e+00 1.659259915351867676e+00 1.682738304138183594e+00
3.910000000000000000e+02 4.067269515991210938e+01 -1.501778411865234375e+01 4.902192115783691406e+00 3.790350914001464844e+00 2.607762813568115234e+00 1.148098945617675781e+00
3.920000000000000000e+02 3.555388259887695312e+01 -2.060343742370605469e+01 7.847016304731369019e-02 1.116079688072204590e+00 3.583649396896362305e-01 5.181772112846374512e-01
3.930000000000000000e+02 4.444828414916992188e+01 -2.612836456298828125e+01 9.883218258619308472e-02 1.330039739608764648e+00 4.286615848541259766e-01 -4.495164379477500916e-02
3.940000000000000000e+02 4.681468200683593750e+01 -2.950748825073242188e+01 -2.677139639854431152e-02 6.650970578193664551e-01 1.914976984262466431e-01 -1.920483112335205078e-01
3.950000000000000000e+02 4.588135910034179688e+01 -2.574142837524414062e+01 1.513224393129348755e-01 1.263503551483154297e+00 4.244477748870849609e-01 -3.040399551391601562e-01
3.960000000000000000e+02 4.431247329711914062e+01 -2.006182098388671875e+01 -1.489238291978836060e-01 1.809926033020019531e+00 4.983006715774536133e-01 -4.028190672397613525e-01
3.970000000000000000e+02 4.547671508789062500e+01 -2.281997489929199219e+01 6.129600480198860168e-02 1.744491457939147949e+00 5.417362451553344727e-01 -1.130689680576324463e-01
3.980000000000000000e+02 3.895001220703125000e+01 -2.077406501770019531e+01 -1.247915327548980713e-01 2.204632043838500977e+00 6.239521503448486328e-01 1.177429676055908203e+00
3.990000000000000000e+02 3.777572631835937500e+01 -2.067271804809570312e+01 7.541646808385848999e-02 1.758819699287414551e+00 5.502708554267883301e-01 1.348114967346191406e+00
4.000000000000000000e+02 3.547200775146484375e+01 -2.198993110656738281e+01 2.465528398752212524e-01 2.060793399810791016e+00 6.922038197517395020e-01 7.081014513969421387e-01
4.010000000000000000e+02 3.683071136474609375e+01 -2.330896759033203125e+01 5.940968394279479980e-01 1.650575757026672363e+00 6.734017729759216309e-01 8.991370201110839844e-01
4.020000000000000000e+02 4.559019470214843750e+01 -3.012791061401367188e+01 -5.670369789004325867e-02 8.739925026893615723e-01 2.451866567134857178e-01 -1.196466013789176941e-01
4.030000000000000000e+02 4.398932647705078125e+01 -3.451376724243164062e+01 -6.098618730902671814e-02 8.517596125602722168e-01 2.372320294380187988e-01 -8.725406229496002197e-02
4.040000000000000000e+02 4.760411071777343750e+01 -3.814039611816406250e+01 -5.154001992195844650e-04 5.275460481643676758e-01 1.581091880798339844e-01 -7.937587052583694458e-02
4.050000000000000000e+02 5.219561767578125000e+01 -4.117541503906250000e+01 7.596258074045181274e-02 2.054690867662429810e-01 8.442950248718261719e-02 -1.193561311811208725e-02
4.060000000000000000e+02 5.681737136840820312e+01 -4.107907867431640625e+01 8.614601194858551025e-02 3.448246419429779053e-02 3.618854284286499023e-02 3.676338121294975281e-03
4.070000000000000000e+02 5.892500305175781250e+01 -3.773928833007812500e+01 4.618209600448608398e-02 -5.093059502542018890e-03 1.232671085745096207e-02 3.250094503164291382e-02
4.080000000000000000e+02 5.884448623657226562e+01 -3.022683525085449219e+01 -1.154121086001396179e-01 -1.089030876755714417e-02 -3.789072483777999878e-02 -5.770105402916669846e-03
4.090000000000000000e+02 5.605344390869140625e+01 -3.089477920532226562e+01 -1.894366294145584106e-01 -1.545112580060958862e-02 -6.146632507443428040e-02 7.645579054951667786e-03
4.100000000000000000e+02 5.455800628662109375e+01 -3.094657516479492188e+01 -2.114098966121673584e-01 -7.178620900958776474e-03 -6.557655334472656250e-02 2.041287347674369812e-02
4.110000000000000000e+02 5.495227432250976562e+01 -3.555546188354492188e+01 3.463809564709663391e-02 3.957929834723472595e-02 2.226521819829940796e-02 9.078227914869785309e-03
4.120000000000000000e+02 5.159698486328125000e+01 -3.842645263671875000e+01 6.154924631118774414e-02 2.163959592580795288e-01 8.338356018066406250e-02 -4.305780678987503052e-02
4.130000000000000000e+02 5.553754806518554688e+01 -3.825045394897460938e+01 7.017472386360168457e-02 5.293574929237365723e-02 3.693314269185066223e-02 7.451461628079414368e-03
4.140000000000000000e+02 3.529250717163085938e+01 -2.332380676269531250e+01 6.567171812057495117e-01 2.353743791580200195e+00 9.031382799148559570e-01 1.006002664566040039e+00
4.150000000000000000e+02 3.513713073730468750e+01 -2.833663749694824219e+01 4.813259243965148926e-01 1.379449963569641113e+00 5.582327246665954590e-01 5.568108558654785156e-01
4.160000000000000000e+02 3.366911315917968750e+01 -2.947272491455078125e+01 4.976477026939392090e-01 1.239652276039123535e+00 5.211899876594543457e-01 5.658465027809143066e-01
4.170000000000000000e+02 3.381808471679687500e+01 -3.789475250244140625e+01 5.018464475870132446e-02 1.047334313392639160e+00 3.292556703090667725e-01 1.183162555098533630e-01
4.180000000000000000e+02 3.292299652099609375e+01 -4.087602233886718750e+01 2.983536943793296814e-02 1.008875727653503418e+00 3.116133511066436768e-01 3.647846356034278870e-02
4.190000000000000000e+02 3.701438522338867188e+01 -4.113946533203125000e+01 -5.597480759024620056e-02 1.048102498054504395e+00 2.976382970809936523e-01 1.103958673775196075e-02
4.200000000000000000e+02 3.688942718505859375e+01 -3.851069259643554688e+01 -2.740398794412612915e-02 1.077182888984680176e+00 3.149336576461791992e-01 4.502720385789871216e-02
4.210000000000000000e+02 3.751535034179687500e+01 -3.579833221435546875e+01 -6.072475225664675236e-04 1.145245313644409180e+00 3.433913886547088623e-01 9.970027208328247070e-02
4.220000000000000000e+02 3.773352432250976562e+01 -3.080025291442871094e+01 1.625083833932876587e-01 1.338616609573364258e+00 4.503374993801116943e-01 2.705738544464111328e-01
4.230000000000000000e+02 3.645145034790039062e+01 -2.843852615356445312e+01 3.482704460620880127e-01 1.478263139724731445e+00 5.479601025581359863e-01 4.689930677413940430e-01
4.240000000000000000e+02 6.663454771041870117e-01 -1.209718322753906250e+01 -5.883379373699426651e-03 1.373231559991836548e-01 3.943193331360816956e-02 -2.306051366031169891e-02
4.250000000000000000e+02 3.469202041625976562e+00 -1.067639732360839844e+01 -7.242060452699661255e-02 2.204161835834383965e-03 -2.106493152678012848e-02 -6.078626960515975952e-02
4.260000000000000000e+02 7.340771198272705078e+00 -1.160830211639404297e+01 -2.591404318809509277e-01 -1.259926706552505493e-01 -1.155399307608604431e-01 -1.811999231576919556e-01
4.270000000000000000e+02 1.299991989135742188e+01 -1.282419204711914062e+01 -6.418935060501098633e-01 -5.112301707267761230e-01 -3.459371328353881836e-01 -3.652845621109008789e-01
4.280000000000000000e+02 1.560797595977783203e+01 -1.264205169677734375e+01 -9.681752324104309082e-01 -9.567621946334838867e-01 -5.774812102317810059e-01 -7.140935063362121582e-01
4.290000000000000000e+02 2.023563766479492188e+01 -6.783123016357421875e+00 -3.244197070598602295e-01 -2.901598811149597168e-01 -1.843738704919815063e-01 -5.984832644462585449e-01
4.300000000000000000e+02 1.964251518249511719e+01 -1.388175010681152344e+00 -3.231183886528015137e-01 -4.804059863090515137e-02 -1.113476902246475220e-01 -2.450739890336990356e-01
4.310000000000000000e+02 3.291537761688232422e+00 -1.352700138092041016e+01 -6.724858283996582031e-02 -7.656100392341613770e-02 -4.314287751913070679e-02 -1.612232923507690430e-01
4.320000000000000000e+02 1.062297058105468750e+01 -1.474198150634765625e+01 -4.469911754131317139e-01 -3.044968247413635254e-01 -2.254463881254196167e-01 -4.530044198036193848e-01
4.330000000000000000e+02 1.339901638031005859e+01 -1.443638420104980469e+01 -6.483066082000732422e-01 -6.554729938507080078e-01 -3.911338746547698975e-01 -4.991579949855804443e-01
4.340000000000000000e+02 1.534908103942871094e+01 -1.391517353057861328e+01 -8.304918408393859863e-01 -1.222483515739440918e+00 -6.158925890922546387e-01 -8.470249176025390625e-01
4.350000000000000000e+02 1.938401603698730469e+01 -1.005846214294433594e+01 -6.772718429565429688e-01 -3.549222052097320557e-01 -3.096581995487213135e-01 -5.672294497489929199e-01
4.360000000000000000e+02 2.415820693969726562e+01 -9.035469055175781250e+00 -9.471456706523895264e-02 -1.720206737518310547e-01 -8.002057671546936035e-02 -2.963421046733856201e-01
4.370000000000000000e+02 2.574250411987304688e+01 -9.418561935424804688e+00 3.276494517922401428e-02 -9.284310787916183472e-02 -1.802344806492328644e-02 -9.159357845783233643e-02
4.380000000000000000e+02 2.675115203857421875e+01 -7.331794261932373047e+00 5.721623301506042480e-01 -1.970566660165786743e-01 1.125316917896270752e-01 -6.610191464424133301e-01
4.390000000000000000e+02 2.754228973388671875e+01 -7.914777755737304688e+00 1.199587702751159668e+00 -6.191148981451988220e-02 3.413028717041015625e-01 -2.766046226024627686e-01
4.400000000000000000e+02 2.381464004516601562e+01 -8.004172325134277344e+00 -4.390765726566314697e-02 -2.669445872306823730e-01 -9.325567632913589478e-02 -4.901564717292785645e-01
4.410000000000000000e+02 2.384283065795898438e+01 -2.654749870300292969e+00 -9.759804010391235352e-01 6.738061457872390747e-02 -2.725799381732940674e-01 -6.745559573173522949e-01
4.420000000000000000e+02 9.031243324279785156e+00 -1.710067558288574219e+01 -1.756597310304641724e-01 -3.049050569534301758e-01 -1.441694349050521851e-01 -5.174539089202880859e-01
4.430000000000000000e+02 1.290004539489746094e+01 -1.652231407165527344e+01 -3.477783799171447754e-01 -5.800080299377441406e-01 -2.783359289169311523e-01 -5.412198901176452637e-01
4.440000000000000000e+02 1.433166122436523438e+01 -1.652348327636718750e+01 -2.384444624185562134e-01 -1.025586605072021484e+00 -3.792093098163604736e-01 -3.689651787281036377e-01
4.450000000000000000e+02 1.468295383453369141e+01 -1.512917613983154297e+01 -4.595328271389007568e-01 -1.255744934082031250e+00 -5.145833492279052734e-01 -6.365018486976623535e-01
4.460000000000000000e+02 2.260278511047363281e+01 -2.945717811584472656e+01 8.496949672698974609e-01 3.326322436332702637e-01 3.546981513500213623e-01 -3.811643123626708984e-01
4.470000000000000000e+02 2.144717788696289062e+01 -2.859570312500000000e+01 7.391431927680969238e-01 4.044477641582489014e-01 3.430772721767425537e-01 -4.866655766963958740e-01
4.480000000000000000e+02 1.915402984619140625e+01 -2.684785652160644531e+01 5.913303494453430176e-01 4.659981131553649902e-01 3.171985447406768799e-01 -5.000662803649902344e-01
4.490000000000000000e+02 1.955183601379394531e+01 -3.139272117614746094e+01 4.245947003364562988e-01 3.346648514270782471e-01 2.277778685092926025e-01 -2.213994562625885010e-01
4.500000000000000000e+02 1.936508560180664062e+01 -3.671150207519531250e+01 2.264682650566101074e-01 3.484563827514648438e-01 1.724773943424224854e-01 -7.467538118362426758e-02
4.510000000000000000e+02 1.899278640747070312e+01 -3.972586059570312500e+01 1.503389328718185425e-01 3.322034776210784912e-01 1.447627246379852295e-01 -3.360579535365104675e-02
4.520000000000000000e+02 1.669046401977539062e+01 -4.125032043457031250e+01 1.169516593217849731e-01 1.924160271883010864e-01 9.281030297279357910e-02 -1.156932022422552109e-02
4.530000000000000000e+02 2.259528541564941406e+01 -4.072134017944335938e+01 1.627716571092605591e-01 5.315409302711486816e-01 2.082937806844711304e-01 3.428647993132472038e-03
4.540000000000000000e+02 2.269506072998046875e+01 -3.719847106933593750e+01 2.587977349758148193e-01 4.995566606521606445e-01 2.275063097476959229e-01 -2.744187228381633759e-02
4.550000000000000000e+02 2.267286491394042969e+01 -3.429872894287109375e+01 3.913557231426239014e-01 4.385559558868408203e-01 2.489735037088394165e-01 -6.859137862920761108e-02
4.560000000000000000e+02 2.468350601196289062e+01 -2.988249969482421875e+01 9.054660201072692871e-01 1.459063440561294556e-01 3.154117166996002197e-01 -1.646630614995956421e-01
4.570000000000000000e+02 2.371837425231933594e+01 -3.061588668823242188e+01 7.736720442771911621e-01 2.928060591220855713e-01 3.199434280395507812e-01 -2.310226112604141235e-01
4.580000000000000000e+02 2.034253311157226562e+01 -2.766925239562988281e+01 6.357279419898986816e-01 4.274810850620269775e-01 3.189626932144165039e-01 -4.954134523868560791e-01
4.590000000000000000e+02 1.714378166198730469e+01 -2.468752670288085938e+01 5.037329792976379395e-01 5.379654169082641602e-01 3.125095069408416748e-01 -5.037848949432373047e-01
4.600000000000000000e+02 1.520784568786621094e+01 -2.262281417846679688e+01 4.064769744873046875e-01 4.052228927612304688e-01 2.435099631547927856e-01 -4.220600128173828125e-01
4.610000000000000000e+02 1.442836189270019531e+01 -2.143838119506835938e+01 3.069194853305816650e-01 2.413597702980041504e-01 1.644837707281112671e-01 -3.281518816947937012e-01
4.620000000000000000e+02 1.420294570922851562e+01 -1.919470214843750000e+01 3.930786252021789551e-02 -2.163402438163757324e-01 -5.310971662402153015e-02 -2.044125199317932129e-01
4.630000000000000000e+02 1.120327091217041016e+01 -1.882369422912597656e+01 -3.909777104854583740e-02 -3.633200228214263916e-01 -1.207253336906433105e-01 -5.764026045799255371e-01
4.640000000000000000e+02 1.245027732849121094e+01 -2.122956085205078125e+01 3.174546658992767334e-01 -1.925302445888519287e-01 3.747732564806938171e-02 -4.897128939628601074e-01
4.650000000000000000e+02 9.747989654541015625e+00 -2.178941345214843750e+01 2.140566706657409668e-01 -3.931689858436584473e-01 -5.373369529843330383e-02 -4.729866087436676025e-01
4.660000000000000000e+02 1.076680374145507812e+01 -2.140662002563476562e+01 2.408958971500396729e-01 -3.392498493194580078e-01 -2.950618602335453033e-02 -5.003147125244140625e-01
4.670000000000000000e+02 9.179776191711425781e+00 -2.586710357666015625e+01 2.311538755893707275e-01 -4.195576608180999756e-01 -5.652113631367683411e-02 -3.103447854518890381e-01
4.680000000000000000e+02 1.047390651702880859e+01 -2.806050109863281250e+01 2.507347166538238525e-01 -3.182188570499420166e-01 -2.024524472653865814e-02 -2.364214211702346802e-01
4.690000000000000000e+02 8.963743209838867188e+00 -3.237614059448242188e+01 1.160061061382293701e-01 -4.375849366188049316e-01 -9.647364914417266846e-02 -1.179748922586441040e-01
4.700000000000000000e+02 9.385235786437988281e+00 -3.531785202026367188e+01 9.714528173208236694e-02 -4.044109582901000977e-01 -9.217970073223114014e-02 -8.017542958259582520e-02
4.710000000000000000e+02 9.096647262573242188e+00 -3.833514785766601562e+01 5.581853538751602173e-02 -4.521575272083282471e-01 -1.189016997814178467e-01 -3.642814606428146362e-02
4.720000000000000000e+02 8.131612777709960938e+00 -4.113570785522460938e+01 2.526574581861495972e-02 -5.523325800895690918e-01 -1.581200510263442993e-01 -1.213447842746973038e-02
4.730000000000000000e+02 1.247488403320312500e+01 -4.125782775878906250e+01 7.090517878532409668e-02 -1.518860459327697754e-01 -2.429426088929176331e-02 -1.081092003732919693e-02
4.740000000000000000e+02 1.256318283081054688e+01 -3.852961349487304688e+01 8.424397557973861694e-02 -1.437606662511825562e-01 -1.785500906407833099e-02 -4.535590484738349915e-02
4.750000000000000000e+02 1.281672096252441406e+01 -3.537294387817382812e+01 1.399057507514953613e-01 -1.212793961167335510e-01 5.587905179709196091e-03 -7.905190438032150269e-02
4.760000000000000000e+02 1.107087326049804688e+01 -3.146053123474121094e+01 1.817519217729568481e-01 -2.617829144001007080e-01 -2.400930039584636688e-02 -1.499475538730621338e-01
4.770000000000000000e+02 1.141977500915527344e+01 -2.675675773620605469e+01 3.008846938610076904e-01 -2.321046590805053711e-01 2.063401415944099426e-02 -2.763881385326385498e-01
4.780000000000000000e+02 1.119377422332763672e+01 -2.334929275512695312e+01 3.059017956256866455e-01 -2.923281788825988770e-01 4.072082694619894028e-03 -4.087569117546081543e-01
4.790000000000000000e+02 1.273607063293457031e+01 -2.366435813903808594e+01 3.782257735729217529e-01 -1.211328729987144470e-01 7.712786644697189331e-02 -3.444972932338714600e-01
4.800000000000000000e+02 9.678545951843261719e+00 -2.305651855468750000e+01 2.321703732013702393e-01 -3.847745656967163086e-01 -4.578126221895217896e-02 -4.261745810508728027e-01
4.810000000000000000e+02 1.430275344848632812e+01 -1.792348289489746094e+01 -2.763692662119865417e-02 -6.216858625411987305e-01 -1.947968453168869019e-01 -1.743936091661453247e-01
4.820000000000000000e+02 4.489561462402343750e+01 -1.900915908813476562e+01 -2.711919508874416351e-02 1.120856523513793945e+00 3.281211853027343750e-01 -4.030010700225830078e-01
4.830000000000000000e+02 4.376702499389648438e+01 -1.778837203979492188e+01 9.776841104030609131e-02 2.151483297348022461e+00 6.747755408287048340e-01 -8.948220014572143555e-01
4.840000000000000000e+02 5.330515670776367188e+01 -1.483173465728759766e+01 2.805210947990417480e-01 7.033202797174453735e-02 1.052559316158294678e-01 2.871542274951934814e-01
4.850000000000000000e+02 5.323486709594726562e+01 -1.109308719635009766e+01 -3.164994120597839355e-01 5.815128087997436523e-01 7.950401306152343750e-02 1.437486886978149414e+00
4.860000000000000000e+02 5.592716979980468750e+01 -1.442356681823730469e+01 -7.898024320602416992e-01 6.885468214750289917e-02 -2.162843197584152222e-01 1.226268857717514038e-01
4.870000000000000000e+02 5.799559783935546875e+01 -1.022579383850097656e+01 -9.461812973022460938e-01 7.828651666641235352e-01 -4.899484291672706604e-02 5.741562247276306152e-01
4.880000000000000000e+02 5.711355972290039062e+01 -6.781850337982177734e+00 -3.298918604850769043e-01 1.417064309120178223e+00 3.261517286300659180e-01 8.943756222724914551e-01
4.890000000000000000e+02 5.545284652709960938e+01 -1.732458472251892090e+00 1.726272940635681152e+00 2.448069334030151367e+00 1.252302646636962891e+00 1.958226442337036133e+00
4.900000000000000000e+02 5.732639312744140625e+01 -1.339605093002319336e+00 1.296614766120910645e+00 2.305968999862670898e+00 1.080775141716003418e+00 1.480099678039550781e+00
4.910000000000000000e+02 5.876121520996093750e+01 2.776262760162353516e+00 1.347556710243225098e+00 2.937587738037109375e+00 1.285543322563171387e+00 1.946896672248840332e+00
4.920000000000000000e+02 5.793609619140625000e+01 1.665581345558166504e+00 1.189257860183715820e+00 2.710384607315063477e+00 1.169892787933349609e+00 1.852107882499694824e+00
4.930000000000000000e+02 5.726313018798828125e+01 -1.424183750152587891e+01 -1.071349024772644043e+00 6.445620954036712646e-02 -3.020678460597991943e-01 8.876172825694084167e-03
4.940000000000000000e+02 6.109206008911132812e+01 -1.336142826080322266e+01 -1.603667736053466797e+00 -2.253707796335220337e-01 -5.487115383148193359e-01 -5.469037294387817383e-01
4.950000000000000000e+02 6.222643280029296875e+01 -1.280168914794921875e+01 -2.162586212158203125e+00 -2.676494717597961426e-01 -7.290707230567932129e-01 -9.252696633338928223e-01
4.960000000000000000e+02 6.330769348144531250e+01 -1.221659564971923828e+01 -3.341122865676879883e+00 -5.186747312545776367e-01 -1.157939314842224121e+00 -6.515520811080932617e-01
4.970000000000000000e+02 6.417999267578125000e+01 -1.142842578887939453e+01 -2.771194458007812500e+00 -7.437613010406494141e-01 -1.054486751556396484e+00 -2.150147706270217896e-01
4.980000000000000000e+02 6.530784606933593750e+01 -1.228919696807861328e+01 -2.745075225830078125e+00 -4.296461939811706543e-01 -9.524164199829101562e-01 3.452390134334564209e-01
4.990000000000000000e+02 6.895087432861328125e+01 -1.332606124877929688e+01 -6.917257905006408691e-01 1.330029666423797607e-01 -1.676168441772460938e-01 2.173670753836631775e-02
5.000000000000000000e+02 6.908142852783203125e+01 -1.399299812316894531e+01 -4.950975775718688965e-01 8.340715616941452026e-02 -1.235071271657943726e-01 8.443413674831390381e-02
5.010000000000000000e+02 7.045602416992187500e+01 -1.456395816802978516e+01 -3.426094353199005127e-01 4.386136680841445923e-02 -8.962441980838775635e-02 9.577312506735324860e-03
5.020000000000000000e+02 7.201264953613281250e+01 -1.444746494293212891e+01 -2.842073738574981689e-01 3.265785425901412964e-02 -7.546485960483551025e-02 -5.408883839845657349e-02
5.030000000000000000e+02 7.435955810546875000e+01 -1.442454624176025391e+01 -1.705771386623382568e-01 -3.455824917182326317e-03 -5.220989137887954712e-02 -8.108327537775039673e-02
5.040000000000000000e+02 7.541748046875000000e+01 -1.060835933685302734e+01 -2.211435884237289429e-01 -1.229683980345726013e-01 -1.032335981726646423e-01 -3.230494558811187744e-01
5.050000000000000000e+02 7.435755920410156250e+01 -5.442375183105468750e+00 -1.350276172161102295e-01 -3.642928004264831543e-01 -1.497961282730102539e-01 -7.319167256355285645e-01
5.060000000000000000e+02 7.576568603515625000e+01 -4.273542404174804688e+00 -5.464118346571922302e-02 -6.498209238052368164e-01 -2.113386243581771851e-01 -6.517853140830993652e-01
5.070000000000000000e+02 7.447257232666015625e+01 -3.519760668277740479e-01 6.100747361779212952e-02 -7.148214578628540039e-01 -1.961442083120346069e-01 -7.864946126937866211e-01
5.080000000000000000e+02 7.568701934814453125e+01 1.019016265869140625e+00 5.447512120008468628e-02 -1.153811573982238770e+00 -3.298009335994720459e-01 -6.580804586410522461e-01
5.090000000000000000e+02 7.303911590576171875e+01 6.597840785980224609e+00 2.972387671470642090e-01 -4.905523359775543213e-01 -5.799407139420509338e-02 -5.245728492736816406e-01
5.100000000000000000e+02 7.523686981201171875e+01 1.008100414276123047e+01 1.866793036460876465e-01 -1.516303658485412598e+00 -3.988873064517974854e-01 -2.617008984088897705e-01
5.110000000000000000e+02 7.437413787841796875e+01 1.411625576019287109e+01 2.763122916221618652e-01 -1.122851133346557617e+00 -2.539616227149963379e-01 2.520604245364665985e-02
5.120000000000000000e+02 7.427933502197265625e+01 1.675047302246093750e+01 3.012275397777557373e-01 -1.052881121635437012e+00 -2.254960834980010986e-01 2.525764107704162598e-01
5.130000000000000000e+02 7.521983337402343750e+01 2.210778045654296875e+01 1.199853718280792236e-01 -1.233498096466064453e+00 -3.340538144111633301e-01 5.536985397338867188e-01
5.140000000000000000e+02 7.489489746093750000e+01 2.356408882141113281e+01 3.723992034792900085e-02 -1.016885042190551758e+00 -2.938935160636901855e-01 6.074343323707580566e-01
5.150000000000000000e+02 7.485195159912109375e+01 2.738252067565917969e+01 -6.146336346864700317e-02 -8.710578680038452148e-01 -2.797563672065734863e-01 5.760971307754516602e-01
5.160000000000000000e+02 7.370239257812500000e+01 3.160052299499511719e+01 -1.744222193956375122e-01 -3.784267604351043701e-01 -1.658546924591064453e-01 5.105322003364562988e-01
5.170000000000000000e+02 7.452857971191406250e+01 3.512326049804687500e+01 -1.504030823707580566e-01 -4.187507331371307373e-01 -1.707461476325988770e-01 3.271963596343994141e-01
5.180000000000000000e+02 7.337166595458984375e+01 3.773181915283203125e+01 -2.090910971164703369e-01 -1.296787559986114502e-01 -1.016309559345245361e-01 2.311676293611526489e-01
5.190000000000000000e+02 7.176405334472656250e+01 4.106539535522460938e+01 -2.677573859691619873e-01 3.300623223185539246e-02 -7.042534649372100830e-02 6.352346390485763550e-02
5.200000000000000000e+02 7.009207916259765625e+01 3.538991165161132812e+01 -3.598692715167999268e-01 3.537024557590484619e-01 -1.850040047429502010e-03 3.244820535182952881e-01
5.210000000000000000e+02 7.222361755371093750e+01 3.222982406616210938e+01 -2.533966302871704102e-01 3.987810574471950531e-03 -7.482264935970306396e-02 5.013479590415954590e-01
5.220000000000000000e+02 7.386476135253906250e+01 2.571004676818847656e+01 -1.980158127844333649e-02 -6.125518679618835449e-01 -1.897060424089431763e-01 6.624411940574645996e-01
5.230000000000000000e+02 7.216018676757812500e+01 2.215300750732421875e+01 1.984524726867675781e-01 -3.849432617425918579e-02 4.798744246363639832e-02 6.497148275375366211e-01
5.240000000000000000e+02 7.018373107910156250e+01 1.955879974365234375e+01 5.615144968032836914e-01 7.548224925994873047e-01 3.949010968208312988e-01 5.130053162574768066e-01
5.250000000000000000e+02 7.086772918701171875e+01 1.633996391296386719e+01 6.082646250724792480e-01 5.092126727104187012e-01 3.352431952953338623e-01 2.023392319679260254e-01
5.260000000000000000e+02 7.218153381347656250e+01 1.271459865570068359e+01 4.399653673171997070e-01 -7.328294217586517334e-02 1.100047230720520020e-01 -8.016866445541381836e-02
5.270000000000000000e+02 7.283403015136718750e+01 1.095524501800537109e+01 3.892409503459930420e-01 -3.630752563476562500e-01 7.849710993468761444e-03 -2.330490201711654663e-01
5.280000000000000000e+02 7.230744171142578125e+01 5.665924549102783203e+00 3.081482350826263428e-01 -1.989824920892715454e-01 3.274972736835479736e-02 -5.823765993118286133e-01
5.290000000000000000e+02 7.357185363769531250e+01 3.485738754272460938e+00 1.829525977373123169e-01 -6.096541881561279297e-01 -1.280104815959930420e-01 -7.236712574958801270e-01
5.300000000000000000e+02 7.126401519775390625e+01 -2.224473714828491211e+00 -1.765234768390655518e-02 4.437135905027389526e-02 8.015703409910202026e-03 -8.778697252273559570e-01
5.310000000000000000e+02 7.024095916748046875e+01 -2.990454912185668945e+00 -3.996871411800384521e-02 1.778038144111633301e-01 4.135053232312202454e-02 -8.637008070945739746e-01
5.320000000000000000e+02 7.147035217285156250e+01 -6.866056919097900391e+00 -3.553856909275054932e-01 2.043817937374114990e-02 -1.004842594265937805e-01 -7.812769412994384766e-01
5.330000000000000000e+02 7.054243469238281250e+01 -1.082667827606201172e+01 -7.851676344871520996e-01 1.980800330638885498e-01 -1.761262863874435425e-01 -4.202400147914886475e-01
5.340000000000000000e+02 7.239053344726562500e+01 -1.032232761383056641e+01 -4.743725061416625977e-01 4.156454652547836304e-02 -1.298423856496810913e-01 -4.726782441139221191e-01
5.350000000000000000e+02 6.904627227783203125e+01 -1.471788597106933594e+01 -3.513470888137817383e-01 2.594699710607528687e-02 -9.762002527713775635e-02 8.386055380105972290e-02
5.360000000000000000e+02 7.512412261962890625e+01 -1.446349811553955078e+01 -1.353466659784317017e-01 -5.374385043978691101e-03 -4.221631586551666260e-02 -8.017574995756149292e-02
5.370000000000000000e+02 7.956465911865234375e+01 -1.308736419677734375e+01 -5.706285592168569565e-03 -1.700863242149353027e-02 -6.814475171267986298e-03 -1.290533877909183502e-02
5.380000000000000000e+02 7.942125701904296875e+01 -8.602563858032226562e+00 3.848420747090131044e-04 -3.848105370998382568e-01 -1.153277009725570679e-01 -7.518444955348968506e-02
5.390000000000000000e+02 7.942680358886718750e+01 -9.953114509582519531e+00 -1.370322052389383316e-02 -2.240507602691650391e-01 -7.132618874311447144e-02 -5.597262829542160034e-02
5.400000000000000000e+02 7.940651702880859375e+01 -5.840740203857421875e+00 2.189653227105736732e-03 -8.285925388336181641e-01 -2.479208707809448242e-01 -1.061904355883598328e-01
5.410000000000000000e+02 7.696759796142578125e+01 -5.694263935089111328e+00 -4.665345326066017151e-02 -6.545328497886657715e-01 -2.103558927774429321e-01 -4.766176342964172363e-01
5.420000000000000000e+02 7.939627838134765625e+01 -1.662174820899963379e+00 -2.569836331531405449e-03 -1.681934475898742676e+00 -5.053513050079345703e-01 -1.196667477488517761e-01
5.430000000000000000e+02 7.817530822753906250e+01 -2.779590785503387451e-01 5.312503315508365631e-03 -1.661134362220764160e+00 -4.967465400695800781e-01 -3.487115204334259033e-01
5.440000000000000000e+02 7.662241363525390625e+01 5.191130161285400391e+00 7.173901796340942383e-02 -1.828949689865112305e+00 -5.271632075309753418e-01 -4.427994191646575928e-01
5.450000000000000000e+02 7.794593811035156250e+01 5.301099777221679688e+00 3.636034205555915833e-02 -2.397998571395874023e+00 -7.084914445877075195e-01 -2.972763776779174805e-01
5.460000000000000000e+02 7.801860809326171875e+01 1.105840969085693359e+01 4.659042507410049438e-02 -2.928541183471679688e+00 -8.645852208137512207e-01 -9.775953739881515503e-02
5.470000000000000000e+02 7.937844085693359375e+01 1.518714427947998047e+01 1.716064661741256714e-02 -3.754687309265136719e+00 -1.121258020401000977e+00 3.039016388356685638e-02
5.480000000000000000e+02 7.810572052001953125e+01 1.801542854309082031e+01 2.986978180706501007e-02 -2.875493526458740234e+00 -8.536871075630187988e-01 1.796872466802597046e-01
5.490000000000000000e+02 7.796627807617187500e+01 2.219191932678222656e+01 2.432733401656150818e-02 -2.392561674118041992e+00 -7.104702591896057129e-01 3.060159683227539062e-01
5.500000000000000000e+02 7.787703704833984375e+01 2.492280578613281250e+01 2.023116918280720711e-03 -2.013502597808837891e+00 -6.034438610076904297e-01 3.379537165164947510e-01
5.510000000000000000e+02 7.766099548339843750e+01 2.904632759094238281e+01 -2.324410900473594666e-02 -1.447938084602355957e+00 -4.413546621799468994e-01 3.226181268692016602e-01
5.520000000000000000e+02 7.735897064208984375e+01 3.190915298461914062e+01 -3.911315277218818665e-02 -1.077599287033081055e+00 -3.350137174129486084e-01 3.034306466579437256e-01
5.530000000000000000e+02 7.914689636230468750e+01 3.620217132568359375e+01 -1.721627265214920044e-02 -9.658534526824951172e-01 -2.949209213256835938e-01 5.952953547239303589e-02
5.540000000000000000e+02 7.797963714599609375e+01 3.784690093994140625e+01 -1.583783887326717377e-02 -7.374605536460876465e-01 -2.259895056486129761e-01 1.292411088943481445e-01
5.550000000000000000e+02 7.797502136230468750e+01 4.160715866088867188e+01 -6.844270974397659302e-02 -6.534250974655151367e-01 -2.165603488683700562e-01 1.925956085324287415e-02
5.560000000000000000e+02 6.730503082275390625e+01 4.119682693481445312e+01 -4.623968899250030518e-01 5.845159292221069336e-01 3.663571178913116455e-02 3.502169996500015259e-02
5.570000000000000000e+02 6.698567199707031250e+01 3.843758392333984375e+01 -4.688974618911743164e-01 6.422987580299377441e-01 5.202038958668708801e-02 1.207189410924911499e-01
5.580000000000000000e+02 6.687145233154296875e+01 3.543864822387695312e+01 -4.863152205944061279e-01 7.698375582695007324e-01 8.505669981241226196e-02 2.038390040397644043e-01
5.590000000000000000e+02 6.681311035156250000e+01 2.589984512329101562e+01 -1.579736024141311646e-01 1.596981048583984375e+00 4.317022264003753662e-01 4.911259710788726807e-01
5.600000000000000000e+02 6.812847137451171875e+01 2.222504425048828125e+01 3.600469529628753662e-01 1.540712594985961914e+00 5.702278614044189453e-01 6.000938415527343750e-01
5.610000000000000000e+02 6.889950561523437500e+01 1.893029022216796875e+01 6.891050338745117188e-01 1.397845506668090820e+00 6.260851621627807617e-01 3.847893476486206055e-01
5.620000000000000000e+02 6.803932189941406250e+01 1.329529571533203125e+01 7.196585536003112793e-01 2.223938465118408203e+00 8.830791115760803223e-01 -7.580095529556274414e-02
5.630000000000000000e+02 6.834169006347656250e+01 1.039831447601318359e+01 6.495922207832336426e-01 1.835101842880249023e+00 7.454082369804382324e-01 -1.474624127149581909e-01
5.640000000000000000e+02 6.731744384765625000e+01 8.026651382446289062e+00 6.546577215194702148e-01 2.132314920425415039e+00 8.360917568206787109e-01 -1.313893795013427734e-01
5.650000000000000000e+02 6.710241699218750000e+01 5.497370719909667969e+00 6.000056862831115723e-01 1.895503640174865723e+00 7.486528158187866211e-01 -2.125620096921920776e-01
5.660000000000000000e+02 6.740454101562500000e+01 -1.071820974349975586e+00 1.982084810733795166e-01 8.203599452972412109e-01 3.055705130100250244e-01 -5.992091298103332520e-01
5.670000000000000000e+02 6.879895019531250000e+01 -4.661560058593750000e+00 -1.946546584367752075e-01 2.964838743209838867e-01 3.054876998066902161e-02 -8.027547597885131836e-01
5.680000000000000000e+02 6.803878784179687500e+01 -8.241684913635253906e+00 -6.886953115463256836e-01 1.698420345783233643e-01 -1.556559801101684570e-01 -7.220712304115295410e-01
5.690000000000000000e+02 7.001750946044921875e+01 -1.030823898315429688e+01 -7.847293615341186523e-01 2.021444588899612427e-01 -1.747754812240600586e-01 -5.368292331695556641e-01
5.700000000000000000e+02 6.643628692626953125e+01 -1.301019954681396484e+01 -1.118011951446533203e+00 -1.338357627391815186e-01 -3.755543231964111328e-01 4.980610311031341553e-01
5.710000000000000000e+02 6.293281936645507812e+01 3.834400939941406250e+01 -5.304653644561767578e-01 9.523252844810485840e-01 1.265579611063003540e-01 -6.345744244754314423e-03
5.720000000000000000e+02 6.336632537841796875e+01 3.530738067626953125e+01 -5.278880000114440918e-01 1.063923001289367676e+00 1.608105152845382690e-01 1.069814525544643402e-02
5.730000000000000000e+02 6.256320571899414062e+01 2.720259475708007812e+01 -2.991468310356140137e-01 1.984513759613037109e+00 5.056101083755493164e-01 -2.263196110725402832e-01
5.740000000000000000e+02 6.320726776123046875e+01 2.436516571044921875e+01 3.956288099288940430e-02 2.722225666046142578e+00 8.285365700721740723e-01 -2.296135574579238892e-01
5.750000000000000000e+02 6.249816894531250000e+01 1.985826301574707031e+01 1.553064584732055664e+00 5.135260581970214844e+00 2.006497383117675781e+00 -1.368986248970031738e+00
5.760000000000000000e+02 6.259679412841796875e+01 1.355874347686767578e+01 1.997783929109573364e-01 6.442554950714111328e+00 1.992699980735778809e+00 2.054355591535568237e-01
5.770000000000000000e+02 6.550782775878906250e+01 1.030955696105957031e+01 6.710625290870666504e-01 3.447413444519042969e+00 1.235542774200439453e+00 1.197934150695800781e-01
5.780000000000000000e+02 6.510031127929687500e+01 7.690150260925292969e+00 7.241763472557067871e-01 3.241757869720458984e+00 1.189780235290527344e+00 3.067229986190795898e-01
5.790000000000000000e+02 6.341373062133789062e+01 2.174843311309814453e+00 5.843532085418701172e-01 2.483636856079101562e+00 9.203970432281494141e-01 3.675972819328308105e-01
5.800000000000000000e+02 6.439111328125000000e+01 1.119243979454040527e+00 5.033443570137023926e-01 1.910255670547485352e+00 7.240800261497497559e-01 4.911775141954421997e-02
5.810000000000000000e+02 6.230096054077148438e+01 -3.440250635147094727e+00 1.836032122373580933e-01 1.230849146842956543e+00 4.243356883525848389e-01 1.953088790178298950e-01
5.820000000000000000e+02 6.294698333740234375e+01 -9.026662826538085938e+00 -9.992364048957824707e-01 9.560845792293548584e-02 -2.710883915424346924e-01 1.285965554416179657e-02
5.830000000000000000e+02 6.587379455566406250e+01 -1.114268684387207031e+01 -1.751383066177368164e+00 -9.511581063270568848e-02 -5.539496541023254395e-01 -5.834198594093322754e-01
5.840000000000000000e+02 6.262129974365234375e+01 4.117110443115234375e+01 -5.251864194869995117e-01 9.067368507385253906e-01 1.144651174545288086e-01 -2.944935113191604614e-03
5.850000000000000000e+02 5.884486770629882812e+01 3.799085998535156250e+01 -4.438361525535583496e-01 9.788537621498107910e-01 1.605052798986434937e-01 -1.282029747962951660e-01
5.860000000000000000e+02 5.970657730102539062e+01 3.479902267456054688e+01 -4.414319396018981934e-01 1.117055416107177734e+00 2.026870250701904297e-01 -2.170224636793136597e-01
5.870000000000000000e+02 6.114615631103515625e+01 2.994522857666015625e+01 -3.986089825630187988e-01 1.570805549621582031e+00 3.516589999198913574e-01 -3.508977890014648438e-01
5.880000000000000000e+02 6.080184555053710938e+01 2.796907424926757812e+01 -2.983460724353790283e-01 1.807540774345397949e+00 4.527584016323089600e-01 -4.167071282863616943e-01
5.890000000000000000e+02 5.913498306274414062e+01 2.342597198486328125e+01 7.780359387397766113e-01 1.718787550926208496e+00 7.490470409393310547e-01 -1.261551260948181152e+00
5.900000000000000000e+02 5.900002670288085938e+01 2.170962524414062500e+01 2.326610088348388672e+00 1.220170259475708008e+00 1.064034104347229004e+00 -1.294168829917907715e+00
5.910000000000000000e+02 6.030895233154296875e+01 2.112052917480468750e+01 2.617285490036010742e+00 2.918765783309936523e+00 1.660815358161926270e+00 -2.283619165420532227e+00
5.920000000000000000e+02 6.130095291137695312e+01 2.015345573425292969e+01 2.094008684158325195e+00 4.992212772369384766e+00 2.125866413116455078e+00 -2.540292739868164062e+00
5.930000000000000000e+02 6.216545486450195312e+01 2.166935348510742188e+01 9.001879096031188965e-01 3.423842668533325195e+00 1.297209143638610840e+00 -6.520712971687316895e-01
5.940000000000000000e+02 6.242184066772460938e+01 1.809298896789550781e+01 1.211579203605651855e+00 6.804513931274414062e+00 2.404828071594238281e+00 -1.494157075881958008e+00
5.950000000000000000e+02 6.257735443115234375e+01 1.661645317077636719e+01 3.018938302993774414e-01 6.787801265716552734e+00 2.126908540725708008e+00 -6.580876111984252930e-01
5.960000000000000000e+02 6.435195159912109375e+01 1.523034286499023438e+01 5.581193566322326660e-01 4.917380809783935547e+00 1.642650008201599121e+00 -2.375721186399459839e-01
5.970000000000000000e+02 6.202943420410156250e+01 1.078311824798583984e+01 1.106894612312316895e-01 6.443475723266601562e+00 1.966249585151672363e+00 8.383389115333557129e-01
5.980000000000000000e+02 6.267794418334960938e+01 9.383419990539550781e+00 5.351629853248596191e-01 5.392303466796875000e+00 1.778239965438842773e+00 9.313834309577941895e-01
5.990000000000000000e+02 6.152538299560546875e+01 8.137032508850097656e+00 4.070691764354705811e-01 5.685727119445800781e+00 1.827838897705078125e+00 1.546556234359741211e+00
6.000000000000000000e+02 6.131758880615234375e+01 6.852439403533935547e+00 8.428984284400939941e-01 5.371193408966064453e+00 1.864227533340454102e+00 1.734951019287109375e+00
6.010000000000000000e+02 6.043152618408203125e+01 4.880726337432861328e+00 1.418295979499816895e+00 4.422986030578613281e+00 1.752384543418884277e+00 2.117668867111206055e+00
6.020000000000000000e+02 6.134682846069335938e+01 3.718306303024291992e+00 8.100264072418212891e-01 3.570853471755981445e+00 1.314263939857482910e+00 1.092194676399230957e+00
6.030000000000000000e+02 6.176662826538085938e+01 1.416040807962417603e-01 6.221173405647277832e-01 2.156969070434570312e+00 8.337259292602539062e-01 6.573273539543151855e-01
6.040000000000000000e+02 6.127985382080078125e+01 -2.608740806579589844e+00 4.130290448665618896e-01 1.598518252372741699e+00 6.034641861915588379e-01 4.984767138957977295e-01
6.050000000000000000e+02 5.988271331787109375e+01 -4.605251312255859375e+00 1.340328603982925415e-01 1.396575450897216797e+00 4.591824710369110107e-01 5.827445983886718750e-01
6.060000000000000000e+02 6.164976501464843750e+01 -1.191877746582031250e+01 -2.201720476150512695e+00 6.679859757423400879e-02 -6.404765844345092773e-01 -2.124030590057373047e-01
6.070000000000000000e+02 5.794345092773437500e+01 4.103789138793945312e+01 -4.416745007038116455e-01 9.306365251541137695e-01 1.466886103153228760e-01 -3.908918052911758423e-02
6.080000000000000000e+02 5.512875747680664062e+01 3.748930740356445312e+01 -3.115504980087280273e-01 8.528208136558532715e-01 1.623810976743698120e-01 -1.989514827728271484e-01
6.090000000000000000e+02 5.603500366210937500e+01 3.429584503173828125e+01 -2.700054943561553955e-01 9.430912733078002930e-01 2.019257396459579468e-01 -3.392554223537445068e-01
6.100000000000000000e+02 5.607192611694335938e+01 3.115435028076171875e+01 -1.203677579760551453e-01 9.412238001823425293e-01 2.462568134069442749e-01 -5.035933256149291992e-01
6.110000000000000000e+02 5.725490188598632812e+01 2.481261253356933594e+01 5.553606748580932617e-01 9.179186820983886719e-01 4.419838190078735352e-01 -9.544188976287841797e-01
6.120000000000000000e+02 5.751037216186523438e+01 2.331277084350585938e+01 1.010758280754089355e+00 6.483595371246337891e-01 4.977353513240814209e-01 -1.006228327751159668e+00
6.130000000000000000e+02 5.471552658081054688e+01 2.147269821166992188e+01 1.399690955877304077e-01 -4.630884528160095215e-02 2.809807471930980682e-02 -9.726257622241973877e-02
6.140000000000000000e+02 5.755057144165039062e+01 2.179437065124511719e+01 1.186929345130920410e+00 7.197304815053939819e-02 3.776707351207733154e-01 -3.858302533626556396e-01
6.150000000000000000e+02 5.352194213867187500e+01 4.080012893676757812e+01 -2.769923210144042969e-01 7.533376216888427734e-01 1.429035961627960205e-01 -5.852335691452026367e-02
6.160000000000000000e+02 5.219028472900390625e+01 3.690460205078125000e+01 -1.921278685331344604e-01 7.034815549850463867e-01 1.534061133861541748e-01 -2.022197842597961426e-01
6.170000000000000000e+02 5.278511810302734375e+01 3.130364608764648438e+01 1.056114211678504944e-02 5.663135647773742676e-01 1.730624139308929443e-01 -3.909888565540313721e-01
6.180000000000000000e+02 5.502088165283203125e+01 2.651448440551757812e+01 3.632601499557495117e-01 5.891958475112915039e-01 2.857367992401123047e-01 -6.972486376762390137e-01
6.190000000000000000e+02 5.297613525390625000e+01 2.306196594238281250e+01 2.744361460208892822e-01 2.259834483265876770e-02 8.911034464836120605e-02 -2.149294018745422363e-01
6.200000000000000000e+02 5.201763153076171875e+01 2.072955131530761719e+01 -1.350915580987930298e-01 -4.774143919348716736e-02 -5.484990030527114868e-02 -8.745686709880828857e-02
6.210000000000000000e+02 5.055378341674804688e+01 3.949988937377929688e+01 -1.748904883861541748e-01 6.077303290367126465e-01 1.298519521951675415e-01 -9.270028769969940186e-02
6.220000000000000000e+02 4.961489486694335938e+01 3.698803329467773438e+01 -7.621137797832489014e-02 5.074380636215209961e-01 1.293680071830749512e-01 -1.749582439661026001e-01
6.230000000000000000e+02 4.954561233520507812e+01 3.419867706298828125e+01 -2.540967985987663269e-02 4.494671523571014404e-01 1.272172331809997559e-01 -2.171782851219177246e-01
6.240000000000000000e+02 4.960683059692382812e+01 3.122863197326660156e+01 7.100181281566619873e-02 3.707373142242431641e-01 1.325217336416244507e-01 -2.769292891025543213e-01
6.250000000000000000e+02 5.019054031372070312e+01 2.821373558044433594e+01 1.639135777950286865e-01 2.439372539520263672e-01 1.223552525043487549e-01 -2.813265323638916016e-01
6.260000000000000000e+02 4.798546600341796875e+01 2.433838844299316406e+01 1.116555184125900269e-01 5.939040705561637878e-02 5.131377652287483215e-02 -9.188561141490936279e-02
6.270000000000000000e+02 4.941765975952148438e+01 1.959152984619140625e+01 -1.964589506387710571e-01 -7.379996031522750854e-02 -8.107767254114151001e-02 -9.887263178825378418e-02
6.280000000000000000e+02 4.822632980346679688e+01 1.882582473754882812e+01 -1.679780185222625732e-01 -4.674848914146423340e-02 -6.441795825958251953e-02 -1.011970788240432739e-01
6.290000000000000000e+02 4.318632507324218750e+01 1.718570327758789062e+01 -8.744465559720993042e-02 7.057519163936376572e-03 -2.411614172160625458e-02 -1.737494766712188721e-02
6.300000000000000000e+02 3.975801849365234375e+01 1.863296508789062500e+01 -7.067402452230453491e-02 3.593727201223373413e-02 -1.042102649807929993e-02 1.582405343651771545e-02
6.310000000000000000e+02 3.795548629760742188e+01 1.705640411376953125e+01 -5.858894065022468567e-02 2.231362275779247284e-02 -1.088259555399417877e-02 1.847962476313114166e-02
6.320000000000000000e+02 3.073754310607910156e+01 1.751410102844238281e+01 -2.244542352855205536e-02 -7.276709377765655518e-02 -2.856375649571418762e-02 3.895886242389678955e-02
6.330000000000000000e+02 3.327716827392578125e+01 8.161922454833984375e+00 -3.657121560536324978e-04 2.418363234028220177e-03 6.157953175716102123e-04 -6.174675654619932175e-04
6.340000000000000000e+02 3.342204666137695312e+01 6.152548789978027344e+00 -6.229168502613902092e-04 5.588636267930269241e-04 -1.921595503517892212e-05 -1.817656739149242640e-04
6.350000000000000000e+02 3.359972381591796875e+01 1.892040729522705078e+00 4.209470935165882111e-04 -6.571375415660440922e-04 -7.085713878041133285e-05 -5.563885206356644630e-04
6.360000000000000000e+02 4.716719436645507812e+01 4.087394714355468750e+01 -9.121967107057571411e-02 4.646672904491424561e-01 1.120342910289764404e-01 -4.128168895840644836e-02
6.370000000000000000e+02 4.665583419799804688e+01 3.768539810180664062e+01 -4.246319830417633057e-02 3.912474215030670166e-01 1.046352684497833252e-01 -1.169935241341590881e-01
6.380000000000000000e+02 4.638707351684570312e+01 3.461827468872070312e+01 1.869827136397361755e-02 3.282560706138610840e-01 1.040863022208213806e-01 -1.604490876197814941e-01
6.390000000000000000e+02 4.626718139648437500e+01 3.155183792114257812e+01 7.105767726898193359e-02 2.332106828689575195e-01 9.128051251173019409e-02 -1.563968807458877563e-01
6.400000000000000000e+02 4.803183364868164062e+01 2.723457527160644531e+01 1.407260596752166748e-01 1.483803987503051758e-01 8.673193305730819702e-02 -1.756192296743392944e-01
6.410000000000000000e+02 4.620594406127929688e+01 2.401423645019531250e+01 5.174574628472328186e-02 3.794174268841743469e-02 2.690624631941318512e-02 -3.954775258898735046e-02
6.420000000000000000e+02 4.753509140014648438e+01 2.040554428100585938e+01 -9.829781949520111084e-02 -1.356174144893884659e-02 -3.355786576867103577e-02 -3.021598607301712036e-02
6.430000000000000000e+02 4.310852050781250000e+01 4.103922653198242188e+01 -3.076922846958041191e-03 2.768820226192474365e-01 8.214152604341506958e-02 -1.203036308288574219e-02
6.440000000000000000e+02 4.347324752807617188e+01 3.817621612548828125e+01 -1.847380073741078377e-03 2.936135232448577881e-01 8.752983808517456055e-02 -6.528809666633605957e-02
6.450000000000000000e+02 4.306051635742187500e+01 3.524619293212890625e+01 3.067242167890071869e-02 2.265759259462356567e-01 7.717450708150863647e-02 -8.023103326559066772e-02
6.460000000000000000e+02 4.277102279663085938e+01 3.214687728881835938e+01 5.121312662959098816e-02 1.718216985464096069e-01 6.691044569015502930e-02 -7.988578081130981445e-02
6.470000000000000000e+02 4.171166610717773438e+01 2.612223434448242188e+01 2.662091329693794250e-02 7.524482160806655884e-02 3.055972047150135040e-02 -2.050653845071792603e-02
6.480000000000000000e+02 4.291530227661132812e+01 2.078126144409179688e+01 -5.587346106767654419e-02 4.837636277079582214e-02 -2.249130513519048691e-03 4.323136818129569292e-04
6.490000000000000000e+02 4.054963302612304688e+01 3.940935134887695312e+01 3.575216606259346008e-02 1.856708526611328125e-01 6.642690300941467285e-02 -2.066187933087348938e-02
6.500000000000000000e+02 3.970949554443359375e+01 3.614949798583984375e+01 3.913029283285140991e-02 1.539963334798812866e-01 5.793799087405204773e-02 -3.551866486668586731e-02
6.510000000000000000e+02 3.925609588623046875e+01 3.295952987670898438e+01 4.634029418230056763e-02 1.115004271268844604e-01 4.735221341252326965e-02 -3.553410992026329041e-02
6.520000000000000000e+02 3.850540161132812500e+01 3.020471763610839844e+01 3.467794507741928101e-02 8.578129857778549194e-02 3.613777458667755127e-02 -2.449748478829860687e-02
6.530000000000000000e+02 3.924643707275390625e+01 2.685650634765625000e+01 1.006725896149873734e-02 6.600831449031829834e-02 2.282267250120639801e-02 -4.892366938292980194e-03
6.540000000000000000e+02 3.942883300781250000e+01 2.450242996215820312e+01 -1.471497211605310440e-02 5.662968009710311890e-02 1.257441192865371704e-02 9.253869764506816864e-03
6.550000000000000000e+02 4.069941329956054688e+01 1.954831695556640625e+01 -6.383784115314483643e-02 4.742677509784698486e-02 -4.923319909721612930e-03 6.431583780795335770e-03
6.560000000000000000e+02 4.007643890380859375e+01 2.196348762512207031e+01 -3.920562937855720520e-02 4.811105877161026001e-02 2.671628026291728020e-03 1.336270570755004883e-02
6.570000000000000000e+02 3.697911071777343750e+01 4.063724136352539062e+01 4.474503919482231140e-02 1.226904466748237610e-01 5.023064464330673218e-02 -1.049612648785114288e-02
6.580000000000000000e+02 3.617650222778320312e+01 3.710679626464843750e+01 5.111155286431312561e-02 8.572859317064285278e-02 4.105204343795776367e-02 -1.279622223228216171e-02
6.590000000000000000e+02 3.566308593750000000e+01 3.389820861816406250e+01 4.115590080618858337e-02 6.836595386266708374e-02 3.285655751824378967e-02 -1.227260753512382507e-02
6.600000000000000000e+02 3.757051467895507812e+01 2.801322364807128906e+01 1.918391324579715729e-02 5.112530291080474854e-02 2.109276503324508667e-02 -7.445938419550657272e-03
6.610000000000000000e+02 3.783906173706054688e+01 2.380379676818847656e+01 -3.307630866765975952e-02 4.891014471650123596e-02 4.750151652842760086e-03 1.360749918967485428e-02
6.620000000000000000e+02 3.725415802001953125e+01 1.977925682067871094e+01 -5.807829648256301880e-02 3.668199479579925537e-02 -6.418891251087188721e-03 2.191414125263690948e-02
6.630000000000000000e+02 3.796166229248046875e+01 2.060366821289062500e+01 -6.040984764695167542e-02 4.049551486968994141e-02 -5.974300671368837357e-03 2.417043410241603851e-02
6.640000000000000000e+02 3.241819381713867188e+01 4.093241500854492188e+01 5.692904442548751831e-02 4.141085967421531677e-02 2.950197085738182068e-02 3.627398051321506500e-03
6.650000000000000000e+02 3.222303390502929688e+01 3.776018905639648438e+01 5.098512396216392517e-02 4.155791550874710083e-02 2.776291221380233765e-02 -1.181355561129748821e-03
6.660000000000000000e+02 3.196795463562011719e+01 3.462076187133789062e+01 4.396921768784523010e-02 2.442440576851367950e-02 2.051808685064315796e-02 2.474969020113348961e-03
6.670000000000000000e+02 3.318306350708007812e+01 3.070454597473144531e+01 2.604097500443458557e-02 2.815223485231399536e-02 1.625796221196651459e-02 7.742542074993252754e-04
6.680000000000000000e+02 3.384762191772460938e+01 2.679170799255371094e+01 -1.040249969810247421e-02 2.179007418453693390e-02 3.416272113099694252e-03 6.780047435313463211e-03
6.690000000000000000e+02 3.331917190551757812e+01 2.245155906677246094e+01 -6.592612713575363159e-02 7.968506775796413422e-03 -1.738728769123554230e-02 2.288844995200634003e-02
6.700000000000000000e+02 3.119597816467285156e+01 2.053752708435058594e+01 -9.188159555196762085e-02 -2.964066155254840851e-02 -3.645667806267738342e-02 4.407929629087448120e-02
6.710000000000000000e+02 3.123671340942382812e+01 1.995073318481445312e+01 -8.476945012807846069e-02 -3.465104475617408752e-02 -3.582614660263061523e-02 5.124103277921676636e-02
6.720000000000000000e+02 2.770776367187500000e+01 4.105037689208984375e+01 5.193313956260681152e-02 9.572341223247349262e-04 1.586711220443248749e-02 -5.305273807607591152e-04
6.730000000000000000e+02 2.809119033813476562e+01 3.805397415161132812e+01 4.976450651884078979e-02 -1.566629507578909397e-03 1.445936318486928940e-02 8.886834606528282166e-03
6.740000000000000000e+02 2.838249397277832031e+01 3.499741363525390625e+01 3.955845534801483154e-02 4.935210745315998793e-05 1.188234239816665649e-02 1.116042025387287140e-02
6.750000000000000000e+02 2.940465164184570312e+01 2.962680053710937500e+01 1.075029280036687851e-02 -9.849664755165576935e-03 2.701883204281330109e-04 1.496505551040172577e-02
6.760000000000000000e+02 2.788014221191406250e+01 2.826678276062011719e+01 -5.131900310516357422e-03 -2.317026257514953613e-02 -8.490649051964282990e-03 2.612368017435073853e-02
6.770000000000000000e+02 2.818138313293457031e+01 2.283623123168945312e+01 -8.501956611871719360e-02 -5.083858594298362732e-02 -4.075744375586509705e-02 4.607651382684707642e-02
6.780000000000000000e+02 2.593054199218750000e+01 2.151612854003906250e+01 -1.439108550548553467e-01 -1.539096143096685410e-02 -4.779054224491119385e-02 4.352324828505516052e-02
6.790000000000000000e+02 2.899174690246582031e+01 2.025709915161132812e+01 -1.531212478876113892e-01 -1.105847060680389404e-01 -7.911178469657897949e-02 1.166629120707511902e-01
6.800000000000000000e+02 2.963987350463867188e+01 2.020390510559082031e+01 -1.180567219853401184e-01 -8.368311822414398193e-02 -6.052195280790328979e-02 7.843291014432907104e-02
6.810000000000000000e+02 3.006813812255859375e+01 1.947836303710937500e+01 -7.795678079128265381e-02 -8.521459251642227173e-02 -4.895141348242759705e-02 7.642191648483276367e-02
6.820000000000000000e+02 2.973517608642578125e+01 1.926670265197753906e+01 -6.091694533824920654e-02 -1.126350313425064087e-01 -5.206559225916862488e-02 7.919533550739288330e-02
6.830000000000000000e+02 2.413494300842285156e+01 3.795111083984375000e+01 3.900313377380371094e-02 -1.533766556531190872e-02 7.099640090018510818e-03 9.454653598368167877e-03
6.840000000000000000e+02 2.501397514343261719e+01 3.481817245483398438e+01 3.459451347589492798e-02 -1.864250935614109039e-02 4.785601515322923660e-03 1.945265382528305054e-02
6.850000000000000000e+02 2.587973976135253906e+01 3.178959655761718750e+01 1.917336508631706238e-02 -1.787513308227062225e-02 3.894695255439728498e-04 2.247435227036476135e-02
6.860000000000000000e+02 2.601383209228515625e+01 2.555947875976562500e+01 -4.378394782543182373e-02 -3.351012617349624634e-02 -2.318822219967842102e-02 3.771385177969932556e-02
6.870000000000000000e+02 2.306342697143554688e+01 4.099462509155273438e+01 4.159665480256080627e-02 -1.907645724713802338e-02 6.756059359759092331e-03 5.567195359617471695e-03
6.880000000000000000e+02 2.075474739074707031e+01 3.747175216674804688e+01 3.067008964717388153e-02 -2.293208613991737366e-02 2.321400679647922516e-03 1.609793305397033691e-02
6.890000000000000000e+02 2.205964660644531250e+01 3.458315277099609375e+01 2.391079254448413849e-02 -2.089484781026840210e-02 9.047834901139140129e-04 2.037912607192993164e-02
6.900000000000000000e+02 2.125461578369140625e+01 3.093898200988769531e+01 2.845016308128833771e-03 -2.172292768955230713e-02 -5.663373507559299469e-03 3.059000708162784576e-02
6.910000000000000000e+02 2.203694915771484375e+01 2.559684944152832031e+01 -4.171288758516311646e-02 -1.796260103583335876e-02 -1.790264621376991272e-02 3.198698535561561584e-02
6.920000000000000000e+02 2.192792129516601562e+01 2.223558616638183594e+01 -1.119594499468803406e-01 -4.401356913149356842e-03 -3.490824252367019653e-02 8.989104069769382477e-03
6.930000000000000000e+02 1.990670204162597656e+01 2.200035476684570312e+01 -5.355808138847351074e-02 -1.218039193190634251e-03 -1.643283665180206299e-02 -5.448356736451387405e-03
6.940000000000000000e+02 2.273496437072753906e+01 2.214776420593261719e+01 -1.082839593291282654e-01 -4.575407598167657852e-03 -3.385781124234199524e-02 2.029166370630264282e-02
6.950000000000000000e+02 1.871541976928710938e+01 4.072434234619140625e+01 2.943123690783977509e-02 -2.309666387736797333e-02 1.900372211821377277e-03 2.963938517495989799e-03
6.960000000000000000e+02 1.827367973327636719e+01 3.647987365722656250e+01 2.321531996130943298e-02 -2.248622104525566101e-02 2.187293866882100701e-04 1.520156860351562500e-02
6.970000000000000000e+02 1.976574897766113281e+01 3.415091705322265625e+01 1.700878329575061798e-02 -2.188660390675067902e-02 -1.463345950469374657e-03 2.283466793596744537e-02
6.980000000000000000e+02 1.909090805053710938e+01 3.156984329223632812e+01 5.452755372971296310e-03 -1.959100365638732910e-02 -4.241474438458681107e-03 2.741809189319610596e-02
6.990000000000000000e+02 1.943623352050781250e+01 2.657900619506835938e+01 -2.508989349007606506e-02 -1.176279690116643906e-02 -1.105580758303403854e-02 2.795787341892719269e-02
7.000000000000000000e+02 1.871473693847656250e+01 2.176340675354003906e+01 -4.048979282379150391e-02 -1.389875542372465134e-03 -1.256390102207660675e-02 -6.488535553216934204e-03
7.010000000000000000e+02 1.677231597900390625e+01 2.110268211364746094e+01 -1.910199224948883057e-02 -4.136447329074144363e-03 -6.971532013267278671e-03 -5.989446304738521576e-03
7.020000000000000000e+02 1.578546524047851562e+01 3.921615600585937500e+01 1.876729913055896759e-02 -2.103175036609172821e-02 -6.793354405090212822e-04 7.917726412415504456e-03
7.030000000000000000e+02 1.433593368530273438e+01 3.674133682250976562e+01 1.339311432093381882e-02 -1.899828761816024780e-02 -1.681552152149379253e-03 1.249322574585676193e-02
7.040000000000000000e+02 1.524935531616210938e+01 3.336034011840820312e+01 7.582757156342267990e-03 -1.662480644881725311e-02 -2.712614601477980614e-03 1.846744492650032043e-02
7.050000000000000000e+02 1.355664348602294922e+01 3.015582275390625000e+01 -3.251327201724052429e-03 -9.648397564888000488e-03 -3.869917476549744606e-03 1.794286258518695831e-02
7.060000000000000000e+02 1.645789146423339844e+01 2.554857826232910156e+01 -2.279490977525711060e-02 -1.985036302357912064e-03 -7.433983962982892990e-03 1.683371327817440033e-02
7.070000000000000000e+02 1.583839416503906250e+01 2.040482139587402344e+01 -4.201853647828102112e-03 -4.203687130939215422e-04 -1.386666786856949329e-03 -3.011802909895777702e-03
7.080000000000000000e+02 1.614934349060058594e+01 2.062965202331542969e+01 -7.455110549926757812e-03 -3.203296568244695663e-03 -3.197522135451436043e-03 -3.358831163495779037e-03
7.090000000000000000e+02 1.212280178070068359e+01 4.087991333007812500e+01 1.468950882554054260e-02 -1.970026269555091858e-02 -1.503226114436984062e-03 3.875113092362880707e-03
7.100000000000000000e+02 1.148989963531494141e+01 3.784576797485351562e+01 9.362758137285709381e-03 -1.712433248758316040e-02 -2.328472444787621498e-03 9.040770120918750763e-03
7.110000000000000000e+02 1.335477924346923828e+01 3.451868438720703125e+01 6.150081753730773926e-03 -1.561292260885238647e-02 -2.838852349668741226e-03 1.535027287900447845e-02
7.120000000000000000e+02 1.072834968566894531e+01 3.102433586120605469e+01 -1.002233824692666531e-03 -9.415027685463428497e-03 -3.125178394839167595e-03 1.408495660871267319e-02
7.130000000000000000e+02 1.201602745056152344e+01 2.685990524291992188e+01 -9.865527041256427765e-03 -2.804317977279424667e-03 -3.800953505560755730e-03 1.176279690116643906e-02
7.140000000000000000e+02 1.373706626892089844e+01 2.279939460754394531e+01 -1.474591903388500214e-02 2.110241679474711418e-03 -3.790703136473894119e-03 3.371216822415590286e-03
7.150000000000000000e+02 1.336572647094726562e+01 1.853672409057617188e+01 -2.597323036752641201e-04 4.521170048974454403e-04 5.771540600107982755e-05 -1.373148261336609721e-04
7.160000000000000000e+02 1.470596599578857422e+01 1.621185111999511719e+01 -3.335322544444352388e-04 2.141833305358886719e-03 5.424902774393558502e-04 1.866040547611191869e-04
7.170000000000000000e+02 1.120188236236572266e+01 5.538511753082275391e+00 5.780443461844697595e-05 -4.780731978826224804e-05 2.999134494530153461e-06 7.189249299699440598e-05
7.180000000000000000e+02 1.035261058807373047e+01 1.852957010269165039e+00 1.583445373398717493e-05 -5.138492633705027401e-05 -1.066514232661575079e-05 2.777588997560087591e-05
7.190000000000000000e+02 1.404889488220214844e+01 1.877647876739501953e+00 1.857638198998756707e-05 5.309667540132068098e-05 2.150191721739247441e-05 1.563653086122940294e-06
7.200000000000000000e+02 1.331566047668457031e+01 1.860466122627258301e+00 4.264137260179268196e-06 -4.871579949394799769e-05 -1.333549880655482411e-05 2.167208913306239992e-05
7.210000000000000000e+02 1.109588527679443359e+01 1.853647112846374512e+00 4.022563371108844876e-05 4.769097358803264797e-05 2.637498255353420973e-05 -5.041664735472295433e-06
7.220000000000000000e+02 7.878440380096435547e+00 4.103572463989257812e+01 5.802176892757415771e-03 -1.659811660647392273e-02 -3.238782053813338280e-03 1.270296867005527020e-03
7.230000000000000000e+02 8.332719802856445312e+00 3.806555938720703125e+01 6.556685548275709152e-03 -1.599981449544429779e-02 -2.832938916981220245e-03 6.776640657335519791e-03
7.240000000000000000e+02 8.132885932922363281e+00 2.822535133361816406e+01 -3.383615287020802498e-03 -5.193064920604228973e-03 -2.573003992438316345e-03 9.378748945891857147e-03
7.250000000000000000e+02 6.923439502716064453e+00 2.072599029541015625e+01 -2.617712365463376045e-03 -1.081135706044733524e-03 -1.109654433093965054e-03 1.105313189327716827e-03
7.260000000000000000e+02 8.074542999267578125e+00 1.735075187683105469e+01 -2.211834798799827695e-04 -9.973807027563452721e-04 -3.655692562460899353e-04 -8.527466707164421678e-05
7.270000000000000000e+02 9.477078437805175781e+00 1.316677761077880859e+01 3.418582200538367033e-04 -4.402032063808292150e-04 -2.950348971353378147e-05 1.390790712321177125e-04
7.280000000000000000e+02 6.467669963836669922e+00 9.696500778198242188e+00 4.703673766925930977e-05 -2.129909553332254291e-04 -4.978626748197712004e-05 -5.961066563031636178e-05
7.290000000000000000e+02 9.479351997375488281e+00 5.389178752899169922e+00 1.991775388887617737e-05 -8.527525642421096563e-05 -1.960725057870149612e-05 6.886274059070274234e-05
7.300000000000000000e+02 8.068111419677734375e+00 1.853768706321716309e+00 5.651422907249070704e-05 4.042994623887352645e-05 2.908325222961138934e-05 -2.002444671234115958e-05
7.310000000000000000e+02 6.537335395812988281e+00 1.866500496864318848e+00 5.304218211676925421e-05 4.360129241831600666e-05 2.899304308812133968e-05 -2.804809810186270624e-05
7.320000000000000000e+02 4.676008701324462891e+00 4.038681411743164062e+01 2.031431766226887703e-03 -1.623231545090675354e-02 -4.260265268385410309e-03 2.412534551694989204e-03
7.330000000000000000e+02 5.573743820190429688e+00 3.801490402221679688e+01 2.653799485415220261e-03 -1.495203096419572830e-02 -3.689469303935766220e-03 4.244717769324779510e-03
7.340000000000000000e+02 5.370316028594970703e+00 3.316743850708007812e+01 6.527145742438733578e-04 -1.064768712967634201e-02 -2.998491749167442322e-03 6.928966846317052841e-03
7.350000000000000000e+02 6.778384685516357422e+00 3.042455863952636719e+01 -1.204515923745930195e-03 -7.783131673932075500e-03 -2.696294337511062622e-03 8.553075604140758514e-03
7.360000000000000000e+02 6.465522766113281250e+00 2.773403167724609375e+01 -2.892165677621960640e-03 -4.697724711149930954e-03 -2.276967279613018036e-03 6.945710163563489914e-03
7.370000000000000000e+02 4.465372562408447266e+00 2.498442840576171875e+01 -2.118323463946580887e-03 -2.442576689645648003e-03 -1.368270022794604301e-03 3.103891853243112564e-03
7.380000000000000000e+02 6.036412715911865234e+00 2.078034210205078125e+01 -1.253540744073688984e-03 -9.733868064358830452e-04 -6.680782535113394260e-04 7.046902901493012905e-04
7.390000000000000000e+02 5.169757843017578125e+00 1.725138092041015625e+01 2.330567440367303789e-05 -5.023690755479037762e-04 -1.437190221622586250e-04 -2.016180806094780564e-04
7.400000000000000000e+02 5.855817317962646484e+00 1.035520267486572266e+01 1.755093107931315899e-04 -2.376949560130015016e-04 -1.865569356596097350e-05 -9.253519237972795963e-06
7.410000000000000000e+02 5.028861045837402344e+00 7.487757205963134766e+00 3.274154369137249887e-05 1.793344381439965218e-05 1.520249588793376461e-05 -2.129493223037570715e-04
7.420000000000000000e+02 4.240187168121337891e+00 1.931921958923339844e+00 6.731792836944805458e-06 -4.756352427648380399e-05 -1.224951938638696447e-05 1.269292988581582904e-05
7.430000000000000000e+02 2.706000804901123047e+00 2.014739036560058594e+00 -7.350226383096014615e-07 -3.960610047215595841e-05 -1.210233676829375327e-05 7.715611900493968278e-06
7.440000000000000000e+02 4.288265228271484375e+00 2.794595003128051758e+00 3.799238038482144475e-05 5.150302604306489229e-05 2.684862192836590111e-05 -5.414478800958022475e-05
7.450000000000000000e+02 1.966560482978820801e+00 4.165313339233398438e+01 6.711697787977755070e-04 -1.879925280809402466e-02 -5.438425112515687943e-03 1.977338397409766912e-04
7.460000000000000000e+02 2.431324243545532227e+00 3.832493591308593750e+01 3.235963813494890928e-04 -1.670077256858348846e-02 -4.913153126835823059e-03 1.748146140016615391e-03
7.470000000000000000e+02 2.133371591567993164e+00 3.316148757934570312e+01 -5.196845741011202335e-04 -1.056253816932439804e-02 -3.324666991829872131e-03 3.427510382607579231e-03
7.480000000000000000e+02 1.964662671089172363e+00 3.177894020080566406e+01 3.973275888711214066e-04 -8.750081993639469147e-03 -2.505826530978083611e-03 3.076287917792797089e-03
7.490000000000000000e+02 1.799130320549011230e+00 2.763505363464355469e+01 -7.780359010212123394e-04 -3.389786230400204659e-03 -1.250346656888723373e-03 2.139989752322435379e-03
7.500000000000000000e+02 1.838167786598205566e+00 2.487288475036621094e+01 -7.439688197337090969e-04 -1.029385253787040710e-03 -5.320062045939266682e-04 1.297655981034040451e-03
7.510000000000000000e+02 1.750080108642578125e+00 2.070782470703125000e+01 1.808171800803393126e-04 7.064382662065327168e-04 2.661766484379768372e-04 1.387851516483351588e-04
7.520000000000000000e+02 1.769966721534729004e+00 1.792023086547851562e+01 2.740523486863821745e-04 7.713938830420374870e-04 3.136338782496750355e-04 -2.210178354289382696e-04
7.530000000000000000e+02 1.897916913032531738e+00 1.505768489837646484e+01 2.880319952964782715e-04 5.348373670130968094e-04 2.468608145136386156e-04 -2.979809360112994909e-04
7.540000000000000000e+02 1.747519731521606445e+00 1.077928638458251953e+01 -1.855024747783318162e-04 2.435791830066591501e-04 1.742301355989184231e-05 -1.325991615885868669e-04
7.550000000000000000e+02 1.849686145782470703e+00 7.890567779541015625e+00 -1.543747930554673076e-04 9.263657557312399149e-05 -1.852146669989451766e-05 -4.011747296317480505e-05
7.560000000000000000e+02 2.781810998916625977e+00 3.022238969802856445e+00 4.087057459400966763e-05 3.341910633025690913e-05 2.228690391348209232e-05 -3.680240843095816672e-05
7.570000000000000000e+02 4.221411049365997314e-01 3.565210103988647461e+00 -8.275057189166545868e-05 3.545929530446301214e-06 -2.376139127591159195e-05 1.328363487118622288e-05
7.580000000000000000e+02 1.613922309875488281e+01 3.168475627899169922e+00 -1.197130768559873104e-05 -2.978595875902101398e-05 -1.252717993338592350e-05 1.268808409804478288e-05
7.590000000000000000e+02 1.684449005126953125e+01 9.820539474487304688e+00 1.223158615175634623e-04 8.452127076452597976e-05 6.205114186741411686e-05 5.975037493044510484e-05
7.600000000000000000e+02 1.614113235473632812e+01 1.077155971527099609e+01 -1.594235800439491868e-04 4.532318416750058532e-05 -3.423011730774305761e-05 -1.593317865626886487e-04
7.610000000000000000e+02 1.589586639404296875e+01 1.109117984771728516e+01 2.030237956205382943e-04 2.022506814682856202e-04 1.215823431266471744e-04 2.854831109289079905e-05
7.620000000000000000e+02 1.343054485321044922e+01 1.021130657196044922e+01 -1.307102647842839360e-04 2.321394858881831169e-04 3.042876232939306647e-05 1.233262300956994295e-04
7.630000000000000000e+02 1.976887130737304688e+01 2.341826200485229492e+00 7.417245342367095873e-06 3.420912253204733133e-05 1.248790977115277201e-05 -4.172047738393303007e-06
7.640000000000000000e+02 1.623352432250976562e+01 1.959435820579528809e+00 -8.412003808189183474e-06 -4.374286072561517358e-05 -1.564645936014130712e-05 9.499726729700341821e-06
7.650000000000000000e+02 1.422958087921142578e+01 1.318324565887451172e+01 -2.312238793820142746e-04 5.781800136901438236e-04 1.040868301060982049e-04 1.450224081054329872e-04
7.660000000000000000e+02 1.478940582275390625e+01 1.417038536071777344e+01 3.141402557957917452e-04 1.116574741899967194e-03 4.292145022191107273e-04 7.599454875162336975e-06
7.670000000000000000e+02 1.420625686645507812e+01 1.626180076599121094e+01 3.707892610691487789e-04 1.710503012873232365e-03 6.243876414373517036e-04 3.434266545809805393e-04
7.680000000000000000e+02 1.475001239776611328e+01 1.858724021911621094e+01 -4.017103929072618484e-04 4.425099585205316544e-03 1.207016757689416409e-03 4.417868622113019228e-04
7.690000000000000000e+02 1.479797935485839844e+01 1.980365562438964844e+01 -1.574257272295653820e-03 1.873340341262519360e-03 8.972491195891052485e-05 -4.161602118983864784e-04
7.700000000000000000e+02 3.588090133666992188e+01 2.346039295196533203e+00 8.614544640295207500e-04 -7.575421477667987347e-04 3.117369124083779752e-05 3.532549017108976841e-04
7.710000000000000000e+02 3.894644165039062500e+01 3.334413766860961914e+00 -4.500498762354254723e-04 8.535889355698600411e-05 -1.094072940759360790e-04 -3.682664537336677313e-04
7.720000000000000000e+02 3.848761367797851562e+01 4.430656909942626953e+00 -1.583711273269727826e-04 1.000145799480378628e-03 2.525323943700641394e-04 5.671461112797260284e-04
7.730000000000000000e+02 3.727293014526367188e+01 2.745432615280151367e+00 1.869495099526830018e-05 -6.089574890211224556e-04 -1.770787639543414116e-04 2.119833370670676231e-04
7.740000000000000000e+02 3.832610321044921875e+01 6.145536899566650391e+00 2.666638232767581940e-03 1.196156954392790794e-03 1.158838509581983089e-03 -1.457284088246524334e-03
7.750000000000000000e+02 3.818854522705078125e+01 8.472281455993652344e+00 -1.933515304699540138e-03 -4.073945165146142244e-04 -7.022729259915649891e-04 7.584218401461839676e-04
7.760000000000000000e+02 3.930998992919921875e+01 8.063603401184082031e+00 3.666304750367999077e-03 2.503423718735575676e-03 1.850918517448008060e-03 -1.066070282831788063e-03
7.770000000000000000e+02 3.978938674926757812e+01 9.323559761047363281e+00 -3.113820916041731834e-03 1.039931899867951870e-03 -6.221667281351983547e-04 2.890751464292407036e-03
7.780000000000000000e+02 4.048934936523437500e+01 1.049448776245117188e+01 1.957963453605771065e-03 2.635167678818106651e-03 1.377939246594905853e-03 -2.512372797355055809e-03
7.790000000000000000e+02 4.033908843994140625e+01 1.205384635925292969e+01 -1.239380426704883575e-02 2.048710826784372330e-03 -3.103528171777725220e-03 -8.025734685361385345e-03
7.800000000000000000e+02 4.050040435791015625e+01 1.755783462524414062e+01 -6.861256062984466553e-02 3.699836134910583496e-02 -9.484259411692619324e-03 -4.978723009116947651e-04
7.810000000000000000e+02 4.086985397338867188e+01 1.308197784423828125e+01 -3.167201951146125793e-02 -9.572895360179245472e-04 -9.788792580366134644e-03 -1.237225532531738281e-02
7.820000000000000000e+02 4.131369400024414062e+01 1.516694450378417969e+01 -5.647777765989303589e-02 1.817705482244491577e-02 -1.149021741002798080e-02 -9.409968741238117218e-03
7.830000000000000000e+02 4.392317962646484375e+01 1.545982742309570312e+01 -6.124667078256607056e-02 -1.266649831086397171e-02 -2.217395044863224030e-02 -4.109393805265426636e-02
7.840000000000000000e+02 4.494707489013671875e+01 1.624335098266601562e+01 -8.408065885305404663e-02 -3.773737698793411255e-02 -3.654541075229644775e-02 -4.806138202548027039e-02
7.850000000000000000e+02 5.453147888183593750e+01 -2.803364276885986328e+00 1.498844623565673828e+00 2.088594675064086914e+00 1.076231837272644043e+00 1.818409800529479980e+00
7.860000000000000000e+02 5.360350036621093750e+01 -3.917135238647460938e+00 1.363509654998779297e+00 1.937391281127929688e+00 9.902703166007995605e-01 1.608703255653381348e+00
7.870000000000000000e+02 5.311978149414062500e+01 -5.910648822784423828e+00 -2.264016270637512207e-01 1.828595638275146484e+00 4.806582033634185791e-01 1.490708947181701660e+00
7.880000000000000000e+02 5.431475830078125000e+01 -8.596755027770996094e+00 -6.346271038055419922e-01 1.234949111938476562e+00 1.800965964794158936e-01 1.416016936302185059e+00
7.890000000000000000e+02 5.803173065185546875e+01 -1.141690063476562500e+01 -1.141045212745666504e+00 5.596672296524047852e-01 -1.744133979082107544e-01 4.158968329429626465e-01
7.900000000000000000e+02 3.964752960205078125e+01 -2.217247962951660156e+00 -2.818848848342895508e+00 4.743579030036926270e-02 -8.314238786697387695e-01 1.206829547882080078e+00
7.910000000000000000e+02 3.932558441162109375e+01 -7.990520000457763672e-01 -1.351238369941711426e+00 -2.386221475899219513e-02 -4.125301539897918701e-01 7.426751255989074707e-01
7.920000000000000000e+02 4.032269668579101562e+01 -1.496465444564819336e+00 -1.663842916488647461e+00 -8.294913172721862793e-01 -7.480002641677856445e-01 1.174272894859313965e+00
7.930000000000000000e+02 3.166999626159667969e+01 -1.681521892547607422e+00 -3.244838714599609375e+00 3.844611942768096924e-01 -8.581132888793945312e-01 -4.943627417087554932e-01
7.940000000000000000e+02 3.151871299743652344e+01 -1.632644653320312500e+00 -3.349435091018676758e+00 4.090413451194763184e-01 -8.821181058883666992e-01 -3.033608496189117432e-01
7.950000000000000000e+02 3.153843498229980469e+01 -1.922145247459411621e+00 -2.808293342590332031e+00 1.452024728059768677e-01 -7.989272475242614746e-01 -3.665058910846710205e-01
7.960000000000000000e+02 2.486310386657714844e+01 -2.065741777420043945e+00 -1.353002071380615234e+00 6.659306585788726807e-02 -3.859227001667022705e-01 -6.063480377197265625e-01
7.970000000000000000e+02 2.422659873962402344e+01 -1.812690854072570801e+00 -1.212211251258850098e+00 1.509674489498138428e-01 -3.183731436729431152e-01 -4.532643258571624756e-01
7.980000000000000000e+02 2.436719322204589844e+01 -9.450696110725402832e-01 -1.206286191940307617e+00 1.909690499305725098e-01 -3.045951426029205322e-01 -1.458791494369506836e-01
7.990000000000000000e+02 2.439262390136718750e+01 -1.900237053632736206e-01 -8.053339123725891113e-01 8.568862080574035645e-02 -2.158935815095901489e-01 8.368255198001861572e-02
8.000000000000000000e+02 1.118607807159423828e+01 -1.858344674110412598e+00 1.366993039846420288e-01 -2.015366777777671814e-02 3.496368974447250366e-02 4.960510879755020142e-03
8.010000000000000000e+02 7.325642585754394531e+00 -1.916201710700988770e+00 1.079432740807533264e-01 -4.715728107839822769e-03 3.096826374530792236e-02 5.345512926578521729e-02
8.020000000000000000e+02 3.425958156585693359e+00 -1.800725936889648438e+00 4.238634929060935974e-02 7.084516342729330063e-03 1.484125945717096329e-02 4.841028898954391479e-02
8.030000000000000000e+02 4.931431770324707031e+00 -1.950838208198547363e+00 6.665734946727752686e-02 2.375483745709061623e-03 2.070984989404678345e-02 5.690865963697433472e-02
8.040000000000000000e+02 1.421158504486083984e+01 -1.766374707221984863e+00 7.170595973730087280e-02 -3.800504282116889954e-02 1.011027488857507706e-02 -8.105426281690597534e-02
8.050000000000000000e+02 1.204134082794189453e+01 -2.535474538803100586e+00 6.303688883781433105e-02 -4.496538639068603516e-02 5.421449430286884308e-03 -2.594697847962379456e-02
8.060000000000000000e+02 1.951201796531677246e+00 -9.307558059692382812e+00 -2.260807715356349945e-02 9.410958737134933472e-02 2.145045436918735504e-02 -3.990801516920328140e-03
8.070000000000000000e+02 3.347559928894042969e+00 -9.247096061706542969e+00 -5.803735554218292236e-02 2.711023390293121338e-02 -9.278136305510997772e-03 -1.484779734164476395e-02
8.080000000000000000e+02 1.992284417152404785e+00 -1.351137828826904297e+01 -2.819420769810676575e-02 -1.887784898281097412e-02 -1.412161719053983688e-02 -1.043396070599555969e-01
8.090000000000000000e+02 2.007743835449218750e+00 -1.637821578979492188e+01 -1.674894243478775024e-02 -1.898846477270126343e-01 -6.199007853865623474e-02 -1.645726114511489868e-01
8.100000000000000000e+02 1.992757678031921387e+00 -2.063710594177246094e+01 3.374365158379077911e-03 -5.195345878601074219e-01 -1.548480689525604248e-01 -1.887086778879165649e-01
8.110000000000000000e+02 8.153732419013977051e-01 -2.774825668334960938e+01 3.663530340418219566e-03 -1.113629102706909180e+00 -3.329896628856658936e-01 -3.748753666877746582e-02
8.120000000000000000e+02 2.478095293045043945e+00 -2.791376304626464844e+01 2.945225499570369720e-02 -9.426983594894409180e-01 -2.739738225936889648e-01 -1.136431023478507996e-01
8.130000000000000000e+02 6.371352076530456543e-01 -3.474386978149414062e+01 2.744512399658560753e-03 -1.303739666938781738e+00 -3.902985453605651855e-01 -6.802607793360948563e-03
8.140000000000000000e+02 6.001024246215820312e-01 -3.598639297485351562e+01 4.704291932284832001e-03 -1.307156324386596680e+00 -3.907355964183807373e-01 4.317783284932374954e-03
8.150000000000000000e+02 1.382869601249694824e+00 -4.003199005126953125e+01 1.972338184714317322e-02 -1.221577286720275879e+00 -3.605561852455139160e-01 3.506493940949440002e-02
8.160000000000000000e+02 5.066805362701416016e+00 -4.030419158935546875e+01 3.480797866359353065e-03 -8.830952048301696777e-01 -2.638843059539794922e-01 -4.239328205585479736e-02
8.170000000000000000e+02 6.438139438629150391e+00 -3.799841308593750000e+01 4.320799186825752258e-02 -6.707316637039184570e-01 -1.882571130990982056e-01 -3.958830237388610840e-02
8.180000000000000000e+02 8.317201137542724609e-01 -3.724739074707031250e+01 6.438408512622117996e-03 -1.283611655235290527e+00 -3.831519782543182373e-01 1.589027419686317444e-02
8.190000000000000000e+02 2.050601482391357422e+00 -4.162308120727539062e+01 -4.236989095807075500e-02 -1.205160021781921387e+00 -3.742589652538299561e-01 1.201832480728626251e-02
8.200000000000000000e+02 1.596658611297607422e+01 -3.873234176635742188e+01 1.219024658203125000e-01 1.069684997200965881e-01 6.866128742694854736e-02 -4.074519872665405273e-02
8.210000000000000000e+02 1.619253730773925781e+01 -3.598725891113281250e+01 1.755234301090240479e-01 1.303439140319824219e-01 9.176020324230194092e-02 -8.939921855926513672e-02
8.220000000000000000e+02 1.549309635162353516e+01 -3.168856620788574219e+01 2.817996442317962646e-01 1.060474291443824768e-01 1.163541227579116821e-01 -1.722230464220046997e-01
8.230000000000000000e+02 1.699474334716796875e+01 -2.880396270751953125e+01 4.011468887329101562e-01 2.854256331920623779e-01 2.059717476367950439e-01 -3.036855161190032959e-01
8.240000000000000000e+02 2.674542427062988281e+01 -4.085371780395507812e+01 1.398320645093917847e-01 7.571184635162353516e-01 2.690851688385009766e-01 1.092033647000789642e-02
8.250000000000000000e+02 2.617534828186035156e+01 -3.766345977783203125e+01 2.598076462745666504e-01 6.581524610519409180e-01 2.753880321979522705e-01 5.187347531318664551e-02
8.260000000000000000e+02 3.241240692138671875e+01 -2.887427902221679688e+01 7.398038506507873535e-01 1.077557563781738281e+00 5.452084541320800781e-01 6.783496141433715820e-01
8.270000000000000000e+02 3.228874206542968750e+01 -2.699008941650390625e+01 8.902065753936767578e-01 1.130465030670166016e+00 6.062014698982238770e-01 9.457578063011169434e-01
8.280000000000000000e+02 2.991301918029785156e+01 -3.295793533325195312e+01 4.631778299808502197e-01 7.751389741897583008e-01 3.714950382709503174e-01 3.096777796745300293e-01
8.290000000000000000e+02 2.639960289001464844e+01 -3.213460159301757812e+01 7.057979106903076172e-01 3.854086995124816895e-01 3.273619711399078369e-01 7.932676374912261963e-02
8.300000000000000000e+02 2.935458564758300781e+01 -3.926771926879882812e+01 1.513646692037582397e-01 8.571749329566955566e-01 3.025618791580200195e-01 6.382819265127182007e-02
8.310000000000000000e+02 3.077766990661621094e+01 -3.653964996337890625e+01 1.930246651172637939e-01 9.161047339439392090e-01 3.327388167381286621e-01 1.644600033760070801e-01
8.320000000000000000e+02 2.872497940063476562e+01 -3.444949722290039062e+01 3.751668930053710938e-01 7.250972390174865723e-01 3.300792276859283447e-01 1.618344187736511230e-01
8.330000000000000000e+02 3.032734107971191406e+01 -2.891745185852050781e+01 1.069694399833679199e+00 6.528013348579406738e-01 5.167487263679504395e-01 6.741119027137756348e-01
8.340000000000000000e+02 3.323573303222656250e+01 -2.607937622070312500e+01 9.048820137977600098e-01 1.304171919822692871e+00 6.627162098884582520e-01 1.085430979728698730e+00
8.350000000000000000e+02 3.387334442138671875e+01 -2.717624855041503906e+01 6.715009212493896484e-01 1.546679615974426270e+00 6.654541492462158203e-01 9.239345788955688477e-01
8.360000000000000000e+02 3.421564865112304688e+01 -2.527512359619140625e+01 9.287781119346618652e-01 1.891096949577331543e+00 8.459625244140625000e-01 1.126859664916992188e+00
8.370000000000000000e+02 3.960511398315429688e+01 -3.965504837036132812e+01 -6.821819394826889038e-02 1.031186223030090332e+00 2.888903915882110596e-01 8.392448537051677704e-03
8.380000000000000000e+02 4.052273941040039062e+01 -3.657693099975585938e+01 -5.984663963317871094e-02 1.036713242530822754e+00 2.930599749088287354e-01 1.430030260235071182e-02
8.390000000000000000e+02 4.132278442382812500e+01 -3.377117156982421875e+01 -3.735936060547828674e-02 1.082110047340393066e+00 3.134252130985260010e-01 1.577316224575042725e-02
8.400000000000000000e+02 4.215731811523437500e+01 -3.162308311462402344e+01 -3.001281619071960449e-02 1.096410632133483887e+00 3.199193477630615234e-01 5.262414924800395966e-03
8.410000000000000000e+02 4.301671981811523438e+01 -4.079492568969726562e+01 -6.227927654981613159e-02 8.507633805274963379e-01 2.365452349185943604e-01 -1.605174317955970764e-02
8.420000000000000000e+02 4.382083129882812500e+01 -3.748927307128906250e+01 -5.341848358511924744e-02 8.194651603698730469e-01 2.298139929771423340e-01 -6.164757907390594482e-02
8.430000000000000000e+02 4.751968765258789062e+01 -4.107789611816406250e+01 5.412824917584657669e-03 5.275878310203552246e-01 1.599001884460449219e-01 -2.613293752074241638e-02
8.440000000000000000e+02 6.115694808959960938e+01 -4.076358795166015625e+01 5.742532759904861450e-02 -1.244886219501495361e-02 1.349293906241655350e-02 1.102084387093782425e-02
8.450000000000000000e+02 6.123070144653320312e+01 -3.656960296630859375e+01 2.435677312314510345e-02 -7.994419895112514496e-03 4.908705595880746841e-03 3.703002631664276123e-02
8.460000000000000000e+02 6.241361236572265625e+01 -3.070538139343261719e+01 -4.580135270953178406e-02 4.947769455611705780e-03 -1.225607562810182571e-02 9.727174416184425354e-03
8.470000000000000000e+02 6.364556884765625000e+01 -2.972802543640136719e+01 -3.658520802855491638e-02 4.240499809384346008e-03 -9.703412652015686035e-03 5.147688090801239014e-03
8.480000000000000000e+02 6.373614501953125000e+01 -2.739605712890625000e+01 -1.567034050822257996e-02 -3.642023541033267975e-03 -5.793709307909011841e-03 -5.249001085758209229e-03
8.490000000000000000e+02 6.677681732177734375e+01 -2.436734962463378906e+01 -1.135488622821867466e-03 6.372237112373113632e-04 -1.494794560130685568e-04 -6.898230640217661858e-04
8.500000000000000000e+02 6.894712829589843750e+01 -2.357077789306640625e+01 -1.330928062088787556e-03 -1.306072954321280122e-04 -4.384606145322322845e-04 -4.453257133718580008e-04
8.510000000000000000e+02 7.818746948242187500e+01 -2.536101722717285156e+01 -2.828828291967511177e-04 4.255004023434594274e-05 -7.209983596112579107e-05 2.174237743020057678e-04
8.520000000000000000e+02 7.786525726318359375e+01 -2.001166343688964844e+01 2.976922842208296061e-04 6.279663648456335068e-05 1.081466762116178870e-04 -1.536265190225094557e-04
8.530000000000000000e+02 7.771351623535156250e+01 -1.833875465393066406e+01 8.401981904171407223e-05 4.642831481760367751e-05 3.913444015779532492e-05 -1.514633331680670381e-04
8.540000000000000000e+02 7.577788543701171875e+01 -1.823821067810058594e+01 1.979329390451312065e-04 -6.966025830479338765e-05 3.848180494969710708e-05 -1.220298290718346834e-04
8.550000000000000000e+02 7.435320281982421875e+01 -1.820680236816406250e+01 3.192935546394437551e-04 -1.751698437146842480e-04 4.323711618781089783e-05 -1.455723759136162698e-05
8.560000000000000000e+02 7.290400695800781250e+01 -1.822767448425292969e+01 2.865848655346781015e-04 -2.233877312391996384e-04 1.895914283522870392e-05 8.074354263953864574e-05
8.570000000000000000e+02 6.904013061523437500e+01 -1.840528297424316406e+01 -2.004312118515372276e-04 1.590837346157059073e-04 -1.240424262505257502e-05 3.362504357937723398e-04
8.580000000000000000e+02 7.041828155517578125e+01 -2.247020339965820312e+01 -4.314414691179990768e-04 -3.294658381491899490e-04 -2.282721834490075707e-04 -1.640465779928490520e-04
8.590000000000000000e+02 7.223752593994140625e+01 -1.924975013732910156e+01 1.313655520789325237e-04 -3.714272461365908384e-04 -7.201851258287206292e-05 1.852522982517257333e-04
8.600000000000000000e+02 7.139718627929687500e+01 -2.383499526977539062e+01 -1.440547872334718704e-03 -5.619414150714874268e-04 -6.007467745803296566e-04 6.441000550694297999e-06
8.610000000000000000e+02 7.068561553955078125e+01 -1.845016860961914062e+01 2.042982669081538916e-04 -3.756748628802597523e-05 5.001923273084685206e-05 2.521169953979551792e-04
8.620000000000000000e+02 7.420212554931640625e+01 -2.155691909790039062e+01 -1.871993445092812181e-04 -8.727680688025429845e-05 -8.234284177888184786e-05 -1.428039395250380039e-04
8.630000000000000000e+02 6.406626892089843750e+01 -3.918075942993164062e+01 2.976366877555847168e-02 -1.852164976298809052e-02 3.372605657204985619e-03 1.831503771245479584e-02
8.640000000000000000e+02 6.572248077392578125e+01 -3.685495758056640625e+01 9.422822855412960052e-03 -9.224067442119121552e-03 5.962641807855106890e-05 2.285701595246791840e-02
8.650000000000000000e+02 6.705844116210937500e+01 -3.502079391479492188e+01 -3.143454203382134438e-03 -4.936824087053537369e-03 -2.424083417281508446e-03 2.074090205132961273e-02
8.660000000000000000e+02 6.754893493652343750e+01 -2.994010353088378906e+01 -1.718343794345855713e-02 3.672071034088730812e-03 -4.053410142660140991e-03 7.242842111736536026e-03
8.670000000000000000e+02 6.574052429199218750e+01 -2.753975296020507812e+01 -1.480332482606172562e-02 1.380198285914957523e-03 -4.026937764137983322e-03 -1.504266750998795033e-03
8.680000000000000000e+02 6.669779968261718750e+01 -2.868790817260742188e+01 -1.555334962904453278e-02 3.677217056974768639e-03 -3.562839701771736145e-03 1.704807160422205925e-03
8.690000000000000000e+02 6.785136413574218750e+01 -4.098004913330078125e+01 2.404138632118701935e-02 -1.584043540060520172e-02 2.460285322740674019e-03 5.890474654734134674e-03
8.700000000000000000e+02 6.853247833251953125e+01 -3.819292449951171875e+01 1.161384303122758865e-02 -1.202831603586673737e-02 -1.243418373633176088e-04 1.563903503119945526e-02
8.710000000000000000e+02 6.790123748779296875e+01 -3.339388656616210938e+01 -9.641392156481742859e-03 1.375100400764495134e-04 -2.851164666935801506e-03 1.634807512164115906e-02
8.720000000000000000e+02 7.204949188232421875e+01 -2.996319580078125000e+01 -6.296699400991201401e-03 1.223149447469040751e-04 -1.852315384894609451e-03 5.357947200536727905e-03
8.730000000000000000e+02 6.977755737304687500e+01 -2.809361076354980469e+01 -8.909039199352264404e-03 1.445476431399583817e-03 -2.239068737253546715e-03 2.982184756547212601e-03
8.740000000000000000e+02 7.207322692871093750e+01 -4.117223739624023438e+01 8.436439558863639832e-03 -1.257784664630889893e-02 -1.242422382347285748e-03 2.339405706152319908e-03
8.750000000000000000e+02 7.156066131591796875e+01 -3.852484893798828125e+01 8.933535777032375336e-03 -1.096892729401588440e-02 -6.106176879256963730e-04 9.139048866927623749e-03
8.760000000000000000e+02 7.287113952636718750e+01 -3.363422393798828125e+01 -2.041875617578625679e-03 -4.321670625358819962e-03 -1.909063896164298058e-03 9.475301951169967651e-03
8.770000000000000000e+02 7.434437561035156250e+01 -3.199880599975585938e+01 -2.426641527563333511e-03 -3.407789161428809166e-03 -1.750329160131514072e-03 6.572279613465070724e-03
8.780000000000000000e+02 7.573703002929687500e+01 -2.941162300109863281e+01 -1.614844659343361855e-03 -1.872138236649334431e-03 -1.046094810590147972e-03 3.382122144103050232e-03
8.790000000000000000e+02 7.553018951416015625e+01 -2.657094764709472656e+01 -1.409990480169653893e-03 -6.584429065696895123e-04 -6.205299869179725647e-04 1.148143550381064415e-03
8.800000000000000000e+02 7.511495208740234375e+01 -4.050214385986328125e+01 2.955656731501221657e-03 -1.290178950875997543e-02 -2.983839716762304306e-03 2.905498724430799484e-03
8.810000000000000000e+02 7.396398925781250000e+01 -3.846811294555664062e+01 4.033766686916351318e-03 -1.078349072486162186e-02 -2.024917164817452431e-03 6.207662168890237808e-03
8.820000000000000000e+02 7.538522338867187500e+01 -3.803258895874023438e+01 2.112524583935737610e-03 -1.109385490417480469e-02 -2.694399096071720123e-03 4.543890710920095444e-03
8.830000000000000000e+02 7.816849517822265625e+01 -2.944883155822753906e+01 -3.322292759548872709e-04 -1.820568693801760674e-03 -6.458393763750791550e-04 1.577312708832323551e-03
8.840000000000000000e+02 7.938526916503906250e+01 -2.816137313842773438e+01 -7.208751776488497853e-05 -1.645044394535943866e-04 -7.097758498275652528e-05 3.666672564577311277e-04
8.850000000000000000e+02 7.940275573730468750e+01 -2.544471931457519531e+01 -1.394744231220101938e-05 7.858749013394117355e-04 2.315782330697402358e-04 8.266163058578968048e-05
8.860000000000000000e+02 7.798184204101562500e+01 -4.167680358886718750e+01 7.819773745723068714e-04 -1.506615616381168365e-02 -4.285253584384918213e-03 2.140185242751613259e-04
8.870000000000000000e+02 7.868965911865234375e+01 -4.017586517333984375e+01 9.959111775970086455e-05 -1.475490070879459381e-02 -4.396592732518911362e-03 7.291203364729881287e-04
8.880000000000000000e+02 7.920058441162109375e+01 -3.753816604614257812e+01 -1.854055335570592433e-05 -1.242145057767629623e-02 -3.731997450813651085e-03 8.752624271437525749e-04
8.890000000000000000e+02 7.740708923339843750e+01 -3.823796844482421875e+01 6.996946758590638638e-04 -1.227026991546154022e-02 -3.471172647550702095e-03 2.578781452029943466e-03
8.900000000000000000e+02 7.809106445312500000e+01 -3.463973236083984375e+01 4.359215745353139937e-05 -7.707877084612846375e-03 -2.299285493791103363e-03 2.872802549973130226e-03
8.910000000000000000e+02 7.940486907958984375e+01 -3.222317123413085938e+01 -7.867313979659229517e-05 -4.454605281352996826e-03 -1.359983580186963081e-03 8.523383876308798790e-04
8.920000000000000000e+02 7.899722290039062500e+01 -1.853820037841796875e+01 -5.943346332060173154e-05 1.793249539332464337e-04 3.596744863898493350e-05 -6.778792885597795248e-05
8.930000000000000000e+02 6.824414062500000000e+01 -2.184502601623535156e+01 7.932363660074770451e-04 1.136003527790307999e-03 5.787719856016337872e-04 2.188338548876345158e-04
8.940000000000000000e+02 6.900009918212890625e+01 -2.492659378051757812e+01 -3.173469798639416695e-03 1.072891987860202789e-03 -6.301733083091676235e-04 -4.812666447833180428e-04
8.950000000000000000e+02 6.474059295654296875e+01 -2.639198493957519531e+01 -6.119986530393362045e-03 -6.897955900058150291e-04 -2.042934764176607132e-03 -3.755222307518124580e-03
8.960000000000000000e+02 6.266406250000000000e+01 -2.835710334777832031e+01 -3.118232637643814087e-02 -3.419369924813508987e-03 -1.038050930947065353e-02 -1.061275321990251541e-02
8.970000000000000000e+02 5.154196548461914062e+01 -3.048791503906250000e+01 -2.070487439632415771e-01 8.015037514269351959e-03 -5.971011519432067871e-02 1.690890640020370483e-02
8.980000000000000000e+02 4.568333435058593750e+01 -3.200540542602539062e+01 -5.691780149936676025e-02 7.941602468490600586e-01 2.211727350950241089e-01 -1.345494985580444336e-01
8.990000000000000000e+02 4.665123367309570312e+01 -2.710136985778808594e+01 1.524062007665634155e-01 8.117902278900146484e-01 2.892589271068572998e-01 -2.750474214553833008e-01
9.000000000000000000e+02 4.892530059814453125e+01 -3.345156860351562500e+01 -1.820934563875198364e-02 3.364980518817901611e-01 9.548661112785339355e-02 -1.586742848157882690e-01
9.010000000000000000e+02 4.882627105712890625e+01 -2.919137382507324219e+01 -1.771194860339164734e-02 1.776693165302276611e-01 4.798721149563789368e-02 -9.511233121156692505e-02
9.020000000000000000e+02 4.955376052856445312e+01 -3.161301422119140625e+01 -4.806029424071311951e-02 2.224891930818557739e-01 5.232866853475570679e-02 -1.382948458194732666e-01
9.030000000000000000e+02 3.608891677856445312e+01 -3.088567018508911133e+00 -2.188354015350341797e+00 6.480614542961120605e-01 -4.620877802371978760e-01 3.964850604534149170e-01
9.040000000000000000e+02 7.569731903076171875e+01 -5.589195728302001953e+00 -1.060640960931777954e-01 -5.230072736740112305e-01 -1.887214183807373047e-01 -6.067717075347900391e-01
9.050000000000000000e+02 7.311661529541015625e+01 -7.107113838195800781e+00 -2.712662220001220703e-01 -1.385607868432998657e-01 -1.229481026530265808e-01 -7.202503681182861328e-01
9.060000000000000000e+02 7.367355346679687500e+01 -1.794035196304321289e+00 9.671143256127834320e-03 -4.766294062137603760e-01 -1.400874853134155273e-01 -8.315297365188598633e-01
9.070000000000000000e+02 7.581832885742187500e+01 -2.951246976852416992e+00 -3.228797018527984619e-02 -7.888803482055664062e-01 -2.463504970073699951e-01 -6.683822274208068848e-01
9.080000000000000000e+02 6.892014312744140625e+01 -7.338717460632324219e+00 -5.568839907646179199e-01 2.004867345094680786e-01 -1.069191694259643555e-01 -8.048273324966430664e-01
9.090000000000000000e+02 5.909165954589843750e+01 -7.025429725646972656e+00 -3.865038156509399414e-01 1.116331696510314941e+00 2.189483642578125000e-01 6.206900477409362793e-01
9.100000000000000000e+02 5.650182342529296875e+01 -2.444526672363281250e+00 1.122866034507751465e+00 2.210126399993896484e+00 9.998977184295654297e-01 1.459326863288879395e+00
9.110000000000000000e+02 5.761540222167968750e+01 -3.138704299926757812e+00 8.020502328872680664e-01 1.910214662551879883e+00 8.136794567108154297e-01 1.105433583259582520e+00
9.120000000000000000e+02 4.239051437377929688e+01 -5.730937480926513672e+00 -2.874280214309692383e+00 -7.856699079275131226e-02 -8.858541250228881836e-01 6.679993271827697754e-01
9.130000000000000000e+02 4.781961822509765625e+01 -8.205751419067382812e+00 -6.933010816574096680e-01 -5.107063055038452148e-01 -3.612022101879119873e-01 2.028356313705444336e+00
9.140000000000000000e+02 4.851112747192382812e+01 -1.164189243316650391e+01 1.137723565101623535e+00 -2.025727331638336182e-01 2.805452644824981689e-01 1.549138426780700684e+00
9.150000000000000000e+02 4.897246932983398438e+01 -6.654723644256591797e+00 -1.639640331268310547e+00 -5.262560844421386719e-01 -6.497688889503479004e-01 1.890369653701782227e+00
9.160000000000000000e+02 4.137590789794921875e+01 -6.249684810638427734e+00 -2.242474079132080078e+00 3.596977889537811279e-01 -5.648328661918640137e-01 1.307008415460586548e-01
9.170000000000000000e+02 4.093262100219726562e+01 -5.728973388671875000e+00 -2.444428205490112305e+00 2.849160730838775635e-01 -6.478536725044250488e-01 4.843511432409286499e-02
9.180000000000000000e+02 4.145537567138671875e+01 -3.437003374099731445e+00 -3.903637886047363281e+00 -9.895160794258117676e-01 -1.467946171760559082e+00 1.518761277198791504e+00
9.190000000000000000e+02 2.857262992858886719e+01 -8.100468635559082031e+00 2.215639829635620117e+00 2.144472748041152954e-01 7.290261387825012207e-01 -2.685712575912475586e-01
9.200000000000000000e+02 1.666626548767089844e+01 -5.717236995697021484e+00 -2.393559962511062622e-01 -2.985057234764099121e-01 -1.613585203886032104e-01 -3.669882118701934814e-01
9.210000000000000000e+02 2.046769332885742188e+01 -7.739709854125976562e+00 -3.678977191448211670e-01 -3.040275275707244873e-01 -2.015775740146636963e-01 -5.857108235359191895e-01
9.220000000000000000e+02 1.195298671722412109e+01 -5.574348449707031250e+00 -1.441843211650848389e-01 -1.559347957372665405e-01 -9.003573656082153320e-02 -7.470545172691345215e-02
9.230000000000000000e+02 1.437636280059814453e+01 -1.129498577117919922e+01 -6.923393011093139648e-01 -6.466872096061706543e-01 -4.017079770565032959e-01 -3.545556068420410156e-01
9.240000000000000000e+02 1.549193096160888672e+01 -8.597462654113769531e+00 -4.023780524730682373e-01 -4.930085241794586182e-01 -2.686159610748291016e-01 -3.195335865020751953e-01
9.250000000000000000e+02 9.607299804687500000e+00 -5.588546276092529297e+00 -1.091653779149055481e-01 -9.098868072032928467e-02 -6.004621833562850952e-02 3.452350851148366928e-03
9.260000000000000000e+02 1.411579132080078125e+01 -9.613043785095214844e+00 -4.674417078495025635e-01 -4.829859137535095215e-01 -2.851282954216003418e-01 -2.445203065872192383e-01
9.270000000000000000e+02 1.171938896179199219e+01 -6.233885288238525391e+00 -1.903250962495803833e-01 -1.842233240604400635e-01 -1.123645231127738953e-01 -7.838417589664459229e-02
9.280000000000000000e+02 4.253914833068847656e+00 -6.773616790771484375e+00 -4.855420067906379700e-02 1.816633157432079315e-02 -9.116359986364841461e-03 4.440339282155036926e-02
9.290000000000000000e+02 7.846604824066162109e+00 -1.064412975311279297e+01 -2.683192789554595947e-01 -1.208003312349319458e-01 -1.167358830571174622e-01 -1.338347047567367554e-01
9.300000000000000000e+02 6.502086162567138672e+00 -7.667206764221191406e+00 -1.324767470359802246e-01 -4.398670047521591187e-02 -5.293903499841690063e-02 3.103774506598711014e-03
9.310000000000000000e+02 8.890584945678710938e+00 -1.887422561645507812e+00 1.291030794382095337e-01 -1.047813426703214645e-02 3.558748587965965271e-02 4.014923796057701111e-02
9.320000000000000000e+02 1.832551836967468262e+00 -7.949253082275390625e+00 -1.642053946852684021e-02 1.021288335323333740e-01 2.571248821914196014e-02 2.065851725637912750e-02
9.330000000000000000e+02 4.133146762847900391e+00 -5.557585239410400391e+00 -2.596737444400787354e-02 1.984477043151855469e-02 -1.836781390011310577e-03 6.402167677879333496e-02
9.340000000000000000e+02 4.932703018188476562e+00 -1.089342689514160156e+01 -1.305626779794692993e-01 -5.026668310165405273e-02 -5.424880608916282654e-02 -9.673149138689041138e-02
9.350000000000000000e+02 2.340345382690429688e+01 -1.057119369506835938e+01 -3.012663722038269043e-01 -6.681242585182189941e-02 -1.104236394166946411e-01 -1.854544878005981445e-01
9.360000000000000000e+02 2.276975250244140625e+01 -8.236470222473144531e+00 -2.113410681486129761e-01 -2.244583070278167725e-01 -1.307398080825805664e-01 -5.020394325256347656e-01
9.370000000000000000e+02 4.445054244995117188e+01 -6.401947498321533203e+00 -2.589241027832031250e+00 -3.203039169311523438e-01 -8.728634715080261230e-01 1.263459920883178711e+00
9.380000000000000000e+02 4.383253097534179688e+01 -1.219633674621582031e+01 2.392364740371704102e+00 2.353064537048339844e+00 1.423628807067871094e+00 1.941382408142089844e+00
9.390000000000000000e+02 4.679520034790039062e+01 -8.380648612976074219e+00 -6.267939209938049316e-01 -3.033981919288635254e-01 -2.790576219558715820e-01 1.889778256416320801e+00
9.400000000000000000e+02 4.746937942504882812e+01 -6.306917667388916016e+00 -2.633331298828125000e+00 -6.704208850860595703e-01 -9.911256432533264160e-01 1.607738494873046875e+00
9.410000000000000000e+02 5.692675399780273438e+01 -7.843041419982910156e+00 -5.536677241325378418e-01 1.299612283706665039e+00 2.237833589315414429e-01 9.238076210021972656e-01
9.420000000000000000e+02 6.002233505249023438e+01 -1.071712493896484375e+01 -1.373673558235168457e+00 4.691914916038513184e-01 -2.713446319103240967e-01 1.992176026105880737e-01
9.430000000000000000e+02 6.724000549316406250e+01 -9.145494461059570312e+00 -9.753825664520263672e-01 1.388202160596847534e-01 -2.509686946868896484e-01 -7.165607810020446777e-01
9.440000000000000000e+02 3.577731704711914062e+01 -9.498541831970214844e+00 1.229698300361633301e+00 2.716731131076812744e-01 4.504114389419555664e-01 -1.228511214256286621e+00
9.450000000000000000e+02 3.614408111572265625e+01 -1.489744853973388672e+01 5.573459267616271973e-01 -7.316923141479492188e-01 -5.230392143130302429e-02 -2.153025567531585693e-01
9.460000000000000000e+02 4.443985748291015625e+01 -2.301879501342773438e+01 6.728281825780868530e-02 1.683913826942443848e+00 5.253589749336242676e-01 -1.562951207160949707e-01
9.470000000000000000e+02 4.042358398437500000e+01 -2.574534606933593750e+01 2.110055983066558838e-01 1.550383210182189941e+00 5.284166336059570312e-01 3.841685950756072998e-01
9.480000000000000000e+02 3.751898574829101562e+01 -3.309581756591796875e+01 6.193710118532180786e-02 1.213832139968872070e+00 3.827307820320129395e-01 1.730017960071563721e-01
9.490000000000000000e+02 4.298296737670898438e+01 -2.601575469970703125e+01 8.908846974372863770e-02 1.456783652305603027e+00 4.637616276741027832e-01 1.258064657449722290e-01
9.500000000000000000e+02 3.565633296966552734e+00 -3.530479812622070312e+01 3.484200313687324524e-02 -9.782797694206237793e-01 -2.830313444137573242e-01 -2.972261048853397369e-02
9.510000000000000000e+02 2.657225608825683594e+00 -3.442050552368164062e+01 2.010076865553855896e-02 -1.120892167091369629e+00 -3.302374482154846191e-01 -2.545926533639431000e-02
9.520000000000000000e+02 5.698070526123046875e+00 -3.416134262084960938e+01 5.542162433266639709e-02 -7.537191510200500488e-01 -2.094892561435699463e-01 -7.487509399652481079e-02
9.530000000000000000e+02 4.112110137939453125e+00 -3.141674232482910156e+01 3.980122134089469910e-02 -8.829829096794128418e-01 -2.529545128345489502e-01 -9.492281079292297363e-02
9.540000000000000000e+02 2.365628719329833984e+00 -3.082798194885253906e+01 1.594473607838153839e-02 -1.050498604774475098e+00 -3.103661835193634033e-01 -6.266092509031295776e-02
9.550000000000000000e+02 8.396118164062500000e+00 -2.984296798706054688e+01 1.628765463829040527e-01 -4.780802428722381592e-01 -9.456111490726470947e-02 -1.708538681268692017e-01
9.560000000000000000e+02 1.305752182006835938e+01 -3.236198425292968750e+01 2.058900892734527588e-01 -8.420801162719726562e-02 3.650461882352828979e-02 -1.283972114324569702e-01
9.570000000000000000e+02 1.691056823730468750e+01 -3.362768173217773438e+01 2.492610961198806763e-01 1.843346506357192993e-01 1.300787180662155151e-01 -1.306802928447723389e-01
9.580000000000000000e+02 1.911677932739257812e+01 -3.412748718261718750e+01 2.821751236915588379e-01 3.203056454658508301e-01 1.807442307472229004e-01 -1.264646649360656738e-01
9.590000000000000000e+02 3.508182907104492188e+01 -3.293504333496093750e+01 1.618092954158782959e-01 1.193867683410644531e+00 4.067031145095825195e-01 2.721247375011444092e-01
9.600000000000000000e+02 4.394667816162109375e+01 -3.204545593261718750e+01 -4.678388312458992004e-02 9.799513220787048340e-01 2.799502313137054443e-01 -7.220061123371124268e-02
9.610000000000000000e+02 5.080799484252929688e+01 -3.406318283081054688e+01 6.868840195238590240e-03 2.108736783266067505e-01 6.532275676727294922e-02 -9.357724338769912720e-02
9.620000000000000000e+02 5.753133773803710938e+01 -3.527917480468750000e+01 1.425827108323574066e-02 7.283444283530116081e-04 4.495984874665737152e-03 4.243478551506996155e-02
9.630000000000000000e+02 6.061463546752929688e+01 -3.362689590454101562e+01 -2.578500285744667053e-02 -6.299187662079930305e-04 -7.924476638436317444e-03 4.220133274793624878e-02
9.640000000000000000e+02 6.467314910888671875e+01 -3.210732269287109375e+01 -2.359113469719886780e-02 4.479646682739257812e-03 -5.733446218073368073e-03 1.845000870525836945e-02
9.650000000000000000e+02 6.476645660400390625e+01 -3.070184135437011719e+01 -2.967306785285472870e-02 5.491077899932861328e-03 -7.254596799612045288e-03 1.191767398267984390e-02
9.660000000000000000e+02 7.140444183349609375e+01 -3.159860801696777344e+01 -6.784494500607252121e-03 -7.144181872718036175e-04 -2.249673940241336823e-03 8.957272395491600037e-03
9.670000000000000000e+02 7.448429107666015625e+01 -3.066989707946777344e+01 -2.537433523684740067e-03 -2.129347762092947960e-03 -1.400034409016370773e-03 5.439694505184888840e-03
9.680000000000000000e+02 9.445199012756347656e+00 -2.717523384094238281e+01 2.360916733741760254e-01 -3.875387012958526611e-01 -4.543411359190940857e-02 -2.551681399345397949e-01
9.690000000000000000e+02 1.156293678283691406e+01 -2.889753150939941406e+01 2.622047066688537598e-01 -1.936065554618835449e-01 2.057944796979427338e-02 -2.205830067396163940e-01
9.700000000000000000e+02 6.283363819122314453e+00 -3.218436813354492188e+01 8.050947636365890503e-02 -6.675740480422973633e-01 -1.761193722486495972e-01 -1.096047386527061462e-01
9.710000000000000000e+02 4.219585418701171875e+00 -2.799977684020996094e+01 6.110783666372299194e-02 -7.808394432067871094e-01 -2.159194797277450562e-01 -1.718264371156692505e-01
9.720000000000000000e+02 2.499477386474609375e+00 -2.941038703918457031e+01 2.001539058983325958e-02 -9.988712668418884277e-01 -2.936567664146423340e-01 -8.599723875522613525e-02
9.730000000000000000e+02 6.055375099182128906e+00 -2.787874412536621094e+01 1.179197654128074646e-01 -6.326307654380798340e-01 -1.544132977724075317e-01 -2.135881632566452026e-01
9.740000000000000000e+02 4.439475059509277344e+00 -2.206606292724609375e+01 4.839848726987838745e-02 -5.476660728454589844e-01 -1.497802734375000000e-01 -3.292638361454010010e-01
9.750000000000000000e+02 2.082013368606567383e+00 -2.350059700012207031e+01 1.526843383908271790e-02 -7.319488525390625000e-01 -2.150041162967681885e-01 -1.701779663562774658e-01
9.760000000000000000e+02 5.733408927917480469e+00 -2.315670204162597656e+01 8.730174601078033447e-02 -5.461571812629699707e-01 -1.376566290855407715e-01 -3.551390171051025391e-01
9.770000000000000000e+02 4.487339019775390625e+00 -2.077089309692382812e+01 2.750281058251857758e-02 -4.782709181308746338e-01 -1.352304369211196899e-01 -3.548643887042999268e-01
9.780000000000000000e+02 1.413411331176757812e+01 -2.413734054565429688e+01 3.990562260150909424e-01 1.333710849285125732e-01 1.597281843423843384e-01 -3.250641524791717529e-01
9.790000000000000000e+02 4.726745605468750000e+00 -1.938968276977539062e+01 -8.470961824059486389e-03 -3.972021639347076416e-01 -1.217019334435462952e-01 -3.737812042236328125e-01
9.800000000000000000e+02 4.773782730102539062e+00 -1.788510322570800781e+01 -4.449834674596786499e-02 -3.187489509582519531e-01 -1.089741885662078857e-01 -3.630633652210235596e-01
9.810000000000000000e+02 3.323395013809204102e+00 -1.639607620239257812e+01 -4.362770169973373413e-02 -2.227272838354110718e-01 -7.990650087594985962e-02 -2.517263889312744141e-01
9.820000000000000000e+02 9.666889190673828125e+00 -1.516063690185546875e+01 -3.537421822547912598e-01 -2.682172358036041260e-01 -1.865878254175186157e-01 -4.582853615283966064e-01
9.830000000000000000e+02 1.684418487548828125e+01 -1.242943954467773438e+01 -1.287493348121643066e+00 -9.153701663017272949e-01 -6.608590483665466309e-01 -9.016909599304199219e-01
9.840000000000000000e+02 1.239328479766845703e+01 -1.354807376861572266e+01 -5.969789624214172363e-01 -4.213012158870697021e-01 -3.054840564727783203e-01 -3.850539624691009521e-01
9.850000000000000000e+02 1.084316825866699219e+01 -1.329815959930419922e+01 -4.856400191783905029e-01 -2.878967225551605225e-01 -2.320610284805297852e-01 -3.391947150230407715e-01
9.860000000000000000e+02 4.677360534667968750e+00 -1.223237705230712891e+01 -1.244256943464279175e-01 -7.400517165660858154e-02 -5.952925980091094971e-02 -1.541079878807067871e-01
9.870000000000000000e+02 1.521858596801757812e+01 -1.034039783477783203e+01 -5.781397223472595215e-01 -6.225285530090332031e-01 -3.602004647254943848e-01 -3.359858989715576172e-01
9.880000000000000000e+02 7.012912750244140625e+01 1.942157894372940063e-01 1.712164580821990967e-01 3.724702298641204834e-01 1.631060093641281128e-01 -7.735352516174316406e-01
9.890000000000000000e+02 7.579870605468750000e+01 -1.625566601753234863e+00 2.033549733459949493e-02 -9.201461076736450195e-01 -2.699431777000427246e-01 -6.864482164382934570e-01
9.900000000000000000e+02 6.702414703369140625e+01 -4.469480037689208984e+00 -1.679600775241851807e-01 4.883635342121124268e-01 9.612103551626205444e-02 -6.693670749664306641e-01
9.910000000000000000e+02 6.311695861816406250e+01 -2.585587978363037109e+00 2.708473801612854004e-01 1.327703118324279785e+00 4.795651435852050781e-01 1.020397767424583435e-01
9.920000000000000000e+02 6.022192001342773438e+01 -1.807740688323974609e+00 6.387396454811096191e-01 1.859763264656066895e+00 7.495508790016174316e-01 8.220819830894470215e-01
9.930000000000000000e+02 7.819604492187500000e+01 -3.031875133514404297e+00 -8.421869017183780670e-03 -1.197988510131835938e+00 -3.619230985641479492e-01 -3.481019437313079834e-01
9.940000000000000000e+02 7.347652435302734375e+01 4.323464393615722656e+00 2.054090052843093872e-01 -5.974075198173522949e-01 -1.175995543599128723e-01 -6.529161930084228516e-01
9.950000000000000000e+02 7.568524932861328125e+01 2.323369741439819336e+00 7.531434297561645508e-02 -1.263388872146606445e+00 -3.564223647117614746e-01 -6.215518116950988770e-01
9.960000000000000000e+02 6.680063629150390625e+01 -1.413636952638626099e-01 2.634127736091613770e-01 1.111396193504333496e+00 4.124426841735839844e-01 -4.610073268413543701e-01
9.970000000000000000e+02 5.995697402954101562e+01 1.477833278477191925e-02 8.748497366905212402e-01 2.323745012283325195e+00 9.595783948898315430e-01 1.201368570327758789e+00
9.980000000000000000e+02 7.939202117919921875e+01 -2.684499025344848633e-01 5.405903793871402740e-03 -1.976711750030517578e+00 -5.913917422294616699e-01 -1.178907826542854309e-01
9.990000000000000000e+02 6.987272644042968750e+01 6.613518238067626953e+00 4.944142699241638184e-01 8.469440937042236328e-01 4.024075269699096680e-01 -4.812175631523132324e-01
1.000000000000000000e+03 7.540712738037109375e+01 4.954106807708740234e+00 1.050753220915794373e-01 -1.366915822029113770e+00 -3.785521686077117920e-01 -5.357906818389892578e-01
1.001000000000000000e+03 6.932088470458984375e+01 4.150611877441406250e+00 4.289138317108154297e-01 8.502684235572814941e-01 3.837546706199645996e-01 -5.723506212234497070e-01
1.002000000000000000e+03 6.369576263427734375e+01 4.438564300537109375e+00 8.206261396408081055e-01 3.114424943923950195e+00 1.180515289306640625e+00 4.774835109710693359e-01
1.003000000000000000e+03 5.960107421875000000e+01 3.856526374816894531e+00 1.414462804794311523e+00 3.358351707458496094e+00 1.431844353675842285e+00 2.133519172668457031e+00
1.004000000000000000e+03 7.804874420166015625e+01 3.867348432540893555e+00 2.183773182332515717e-02 -2.252881526947021484e+00 -6.693131923675537109e-01 -3.179645538330078125e-01
1.005000000000000000e+03 7.109818267822265625e+01 1.200389099121093750e+01 5.577890872955322266e-01 4.530462920665740967e-01 3.032506108283996582e-01 -1.550575941801071167e-01
1.006000000000000000e+03 7.547507476806640625e+01 1.140271186828613281e+01 1.878480017185211182e-01 -1.652175545692443848e+00 -4.392982721328735352e-01 -1.604983359575271606e-01
1.007000000000000000e+03 6.718764495849609375e+01 9.312190055847167969e+00 6.445138454437255859e-01 2.438406467437744141e+00 9.248760938644409180e-01 -1.054254099726676941e-01
1.008000000000000000e+03 6.401002502441406250e+01 7.346608638763427734e+00 7.385793328285217285e-01 3.870187520980834961e+00 1.382629990577697754e+00 4.614200592041015625e-01
1.009000000000000000e+03 7.928761291503906250e+01 6.752301692962646484e+00 4.348765593022108078e-03 -3.236127853393554688e+00 -9.695337414741516113e-01 -8.179831504821777344e-02
1.010000000000000000e+03 7.086614990234375000e+01 1.428757667541503906e+01 5.944368243217468262e-01 5.856776833534240723e-01 3.540343642234802246e-01 2.025257423520088196e-02
1.011000000000000000e+03 7.559319305419921875e+01 1.271684265136718750e+01 1.903276145458221436e-01 -1.727703928947448730e+00 -4.612128734588623047e-01 -7.301789522171020508e-02
1.012000000000000000e+03 6.461791992187500000e+01 1.102288055419921875e+01 6.632122993469238281e-01 4.290132999420166016e+00 1.486003637313842773e+00 3.120240271091461182e-01
1.013000000000000000e+03 7.279855346679687500e+01 1.960826110839843750e+01 3.004441261291503906e-01 -3.609789609909057617e-01 -1.816044934093952179e-02 4.827529788017272949e-01
1.014000000000000000e+03 7.557909393310546875e+01 1.671409988403320312e+01 2.024007737636566162e-01 -1.703539729118347168e+00 -4.503416717052459717e-01 2.208940237760543823e-01
1.015000000000000000e+03 6.805044555664062500e+01 1.138330745697021484e+01 7.008315920829772949e-01 2.077239513397216797e+00 8.334212899208068848e-01 -1.067175045609474182e-01
1.016000000000000000e+03 7.812073516845703125e+01 1.385983943939208984e+01 5.010720714926719666e-02 -3.053532838821411133e+00 -9.010276794433593750e-01 1.661075651645660400e-02
1.017000000000000000e+03 6.981662750244140625e+01 2.101074790954589844e+01 4.328341186046600342e-01 9.026607275009155273e-01 4.006484448909759521e-01 6.039810180664062500e-01
1.018000000000000000e+03 7.424591827392578125e+01 2.071620750427246094e+01 1.940015405416488647e-01 -9.503443837165832520e-01 -2.269028574228286743e-01 5.322723388671875000e-01
1.019000000000000000e+03 6.733448791503906250e+01 1.690243148803710938e+01 8.806605339050292969e-01 2.346792697906494141e+00 9.682359695434570312e-01 6.636275351047515869e-02
1.020000000000000000e+03 6.419075012207031250e+01 1.676527214050292969e+01 1.004402160644531250e+00 4.903366088867187500e+00 1.772330403327941895e+00 -6.450573205947875977e-01
1.021000000000000000e+03 7.494411468505859375e+01 2.492349052429199219e+01 1.204551476985216141e-02 -9.621500372886657715e-01 -2.850313484668731689e-01 6.008831858634948730e-01
1.022000000000000000e+03 6.848246765136718750e+01 2.057968902587890625e+01 6.142987608909606934e-01 1.460626602172851562e+00 6.224775910377502441e-01 4.967693388462066650e-01
1.023000000000000000e+03 5.022236633300781250e+01 2.182492446899414062e+01 -1.015504472889006138e-03 -4.085090011358261108e-02 -1.255992148071527481e-02 -6.811460852622985840e-02
1.024000000000000000e+03 7.632017135620117188e+00 2.103112602233886719e+01 -2.938670339062809944e-03 -1.008939230814576149e-03 -1.184282824397087097e-03 1.287801656872034073e-03
1.025000000000000000e+03 4.126597881317138672e+00 2.213996887207031250e+01 -1.621354720555245876e-03 -8.959859842434525490e-04 -7.552021997980773449e-04 1.178458449430763721e-03
1.026000000000000000e+03 4.119726657867431641e+00 1.691534996032714844e+01 -4.627064045052975416e-04 -1.540318335173651576e-04 -1.850214757723733783e-04 -3.513111150823533535e-04
1.027000000000000000e+03 7.058124542236328125e+00 1.786719322204589844e+01 -3.597418544813990593e-04 -8.933774079196155071e-04 -3.759357787203043699e-04 -9.970536484615877271e-05
1.028000000000000000e+03 5.854806900024414062e-01 2.062734031677246094e+01 -3.946433716919273138e-04 1.707553048618137836e-03 3.938729059882462025e-04 -4.604932200891198590e-06
1.029000000000000000e+03 7.021839141845703125e+01 2.698744201660156250e+01 -1.636207401752471924e-01 5.922192335128784180e-01 1.285795420408248901e-01 6.889353394508361816e-01
1.030000000000000000e+03 6.949443054199218750e+01 2.263592720031738281e+01 2.613902986049652100e-01 9.657626152038574219e-01 3.681458830833435059e-01 6.697654128074645996e-01
1.031000000000000000e+03 6.416638946533203125e+01 2.617401885986328125e+01 -2.528082132339477539e-01 2.120129108428955078e+00 5.601962804794311523e-01 3.796217590570449829e-02
1.032000000000000000e+03 5.864165496826171875e+01 2.537052726745605469e+01 2.744066417217254639e-01 1.531552076339721680e+00 5.417876243591308594e-01 -9.876384139060974121e-01
1.033000000000000000e+03 5.446441268920898438e+01 2.332513427734375000e+01 4.822346568107604980e-01 9.542986750602722168e-02 1.732993572950363159e-01 -3.632358014583587646e-01
1.034000000000000000e+03 5.102237319946289062e+01 2.404884147644042969e+01 2.021654546260833740e-01 7.926605641841888428e-03 6.302762031555175781e-02 -1.588073223829269409e-01
1.035000000000000000e+03 4.501885604858398438e+01 2.439499282836914062e+01 3.898390755057334900e-02 5.959295481443405151e-02 2.957305870950222015e-02 -2.997384779155254364e-02
1.036000000000000000e+03 4.363775253295898438e+01 2.432629585266113281e+01 1.765399239957332611e-02 5.282878875732421875e-02 2.114483341574668884e-02 -1.652118563652038574e-02
1.037000000000000000e+03 3.998270416259765625e+01 2.339652061462402344e+01 -2.271115779876708984e-02 6.316674500703811646e-02 1.213667728006839752e-02 8.372831158339977264e-03
1.038000000000000000e+03 3.488768386840820312e+01 2.354528427124023438e+01 -4.037106782197952271e-02 2.282488346099853516e-02 -5.263855215162038803e-03 1.593294367194175720e-02
1.039000000000000000e+03 3.172276306152343750e+01 2.396956062316894531e+01 -4.881757870316505432e-02 -8.920351043343544006e-03 -1.732137799263000488e-02 1.757523790001869202e-02
1.040000000000000000e+03 2.889660644531250000e+01 2.337853050231933594e+01 -6.700062751770019531e-02 -4.716231673955917358e-02 -3.424888476729393005e-02 3.544205054640769958e-02
1.041000000000000000e+03 2.233441734313964844e+01 2.220243644714355469e+01 -1.132843270897865295e-01 -7.233473937958478928e-03 -3.615533933043479919e-02 1.626446470618247986e-02
1.042000000000000000e+03 1.910945892333984375e+01 2.185495758056640625e+01 -4.586979374289512634e-02 -2.128962660208344460e-03 -1.439962629228830338e-02 -5.703418515622615814e-03
1.043000000000000000e+03 1.552709579467773438e+01 2.168513679504394531e+01 -1.722198165953159332e-02 1.758092548698186874e-03 -4.639166872948408127e-03 1.863337820395827293e-04
1.044000000000000000e+03 7.485050201416015625e+00 2.557507324218750000e+01 -3.792412811890244484e-03 -2.800412243232131004e-03 -1.977847423404455185e-03 5.566969979554414749e-03
1.045000000000000000e+03 4.287689208984375000e+00 2.351378440856933594e+01 -1.061215996742248535e-03 -1.463439897634088993e-03 -7.573968032374978065e-04 2.055176300927996635e-03
1.046000000000000000e+03 6.025270819664001465e-01 2.343753814697265625e+01 -4.649134061764925718e-04 1.067724777385592461e-03 1.808434026315808296e-04 2.606660709716379642e-04
1.047000000000000000e+03 7.791381072998046875e+01 2.356614303588867188e+01 8.200662210583686829e-03 -2.197522163391113281e+00 -6.567964553833007812e-01 3.338980078697204590e-01
1.048000000000000000e+03 7.475738525390625000e+01 3.273942565917968750e+01 -1.371045708656311035e-01 -5.242787003517150879e-01 -1.984149813652038574e-01 4.306132197380065918e-01
1.049000000000000000e+03 6.753556060791015625e+01 2.923068428039550781e+01 -3.851652741432189941e-01 1.105852961540222168e+00 2.162063121795654297e-01 4.356780946254730225e-01
1.050000000000000000e+03 5.896178054809570312e+01 2.816402816772460938e+01 -8.599679172039031982e-02 1.329836010932922363e+00 3.731517493724822998e-01 -6.904103159904479980e-01
1.051000000000000000e+03 5.642162704467773438e+01 2.594388771057128906e+01 3.528658449649810791e-01 8.004443049430847168e-01 3.459930419921875000e-01 -8.097142577171325684e-01
1.052000000000000000e+03 5.288640213012695312e+01 2.851973915100097656e+01 1.731476783752441406e-01 4.623929560184478760e-01 1.906621903181076050e-01 -4.635892510414123535e-01
1.053000000000000000e+03 4.582787322998046875e+01 2.872552108764648438e+01 9.638749063014984131e-02 1.627494841814041138e-01 7.774109393358230591e-02 -1.288501471281051636e-01
1.054000000000000000e+03 4.337360382080078125e+01 2.654141235351562500e+01 5.772815272212028503e-02 8.855711668729782104e-02 4.388558119535446167e-02 -4.771154001355171204e-02
1.055000000000000000e+03 3.366939926147460938e+01 2.861212158203125000e+01 1.039618998765945435e-02 2.313912659883499146e-02 1.006059534847736359e-02 5.448969546705484390e-03
1.056000000000000000e+03 3.039970207214355469e+01 2.779000473022460938e+01 -5.782626569271087646e-03 -1.444962434470653534e-02 -6.069675087928771973e-03 1.721858605742454529e-02
1.057000000000000000e+03 2.569434165954589844e+01 2.752632904052734375e+01 -1.897257380187511444e-02 -2.768555656075477600e-02 -1.399743836373090744e-02 3.256460279226303101e-02
1.058000000000000000e+03 2.154188919067382812e+01 2.687283515930175781e+01 -2.588091045618057251e-02 -1.849864237010478973e-02 -1.331386528909206390e-02 3.292521834373474121e-02
1.059000000000000000e+03 2.021540832519531250e+01 2.659380722045898438e+01 -2.769241482019424438e-02 -1.419859845191240311e-02 -1.256730407476425171e-02 3.001455590128898621e-02
1.060000000000000000e+03 1.607965469360351562e+01 2.689821052551269531e+01 -1.723441481590270996e-02 -4.669039044529199600e-03 -6.571035832166671753e-03 1.957087405025959015e-02
1.061000000000000000e+03 1.115137195587158203e+01 2.759513473510742188e+01 -8.855720050632953644e-03 -3.961763344705104828e-03 -3.845245111733675003e-03 1.263811066746711731e-02
1.062000000000000000e+03 7.098079681396484375e+00 2.716568183898925781e+01 -3.036577953025698662e-03 -4.250385798513889313e-03 -2.186089055612683296e-03 7.283250801265239716e-03
1.063000000000000000e+03 4.099171638488769531e+00 2.779051589965820312e+01 -1.386853167787194252e-03 -4.787708166986703873e-03 -1.852368470281362534e-03 4.557628650218248367e-03
1.064000000000000000e+03 6.014907360076904297e-01 2.764629173278808594e+01 4.493136366363614798e-04 -2.443581121042370796e-03 -5.982802249491214752e-04 7.212989730760455132e-04
1.065000000000000000e+03 7.782960510253906250e+01 2.628779602050781250e+01 -6.203345488756895065e-03 -1.819054961204528809e+00 -5.475775003433227539e-01 3.497164249420166016e-01
1.066000000000000000e+03 7.326156616210937500e+01 3.381650924682617188e+01 -2.015723884105682373e-01 -1.699637472629547119e-01 -1.114608421921730042e-01 4.211585521697998047e-01
1.067000000000000000e+03 6.695069122314453125e+01 3.227060317993164062e+01 -4.650861620903015137e-01 9.896462559700012207e-01 1.573680192232131958e-01 2.907812893390655518e-01
1.068000000000000000e+03 6.379383850097656250e+01 3.223802185058593750e+01 -5.020328164100646973e-01 1.262263178825378418e+00 2.280691117048263550e-01 3.806477040052413940e-02
1.069000000000000000e+03 5.892242813110351562e+01 3.050370407104492188e+01 -2.640163600444793701e-01 1.271587848663330078e+00 3.022714257240295410e-01 -4.773487746715545654e-01
1.070000000000000000e+03 3.553958892822265625e+01 3.101391792297363281e+01 3.349795565009117126e-02 4.829196259379386902e-02 2.453697472810745239e-02 -7.550183217972517014e-03
1.071000000000000000e+03 3.145683670043945312e+01 3.206486511230468750e+01 3.047952055931091309e-02 1.528283581137657166e-02 1.372870709747076035e-02 5.635169800370931625e-03
1.072000000000000000e+03 2.866554069519042969e+01 3.208327484130859375e+01 2.822881750762462616e-02 -8.290676400065422058e-03 5.981442052870988846e-03 1.714771240949630737e-02
1.073000000000000000e+03 2.237910079956054688e+01 2.974117469787597656e+01 -5.821469821967184544e-04 -2.303645201027393341e-02 -7.085579447448253632e-03 3.010169230401515961e-02
1.074000000000000000e+03 1.806156349182128906e+01 3.320490264892578125e+01 1.236055698245763779e-02 -1.948909088969230652e-02 -2.138560172170400620e-03 2.178451046347618103e-02
1.075000000000000000e+03 1.428429412841796875e+01 3.171881103515625000e+01 -7.380743772955611348e-05 -1.288969628512859344e-02 -3.889051033183932304e-03 1.951626129448413849e-02
1.076000000000000000e+03 1.090920543670654297e+01 3.296476364135742188e+01 1.108333701267838478e-03 -1.176516897976398468e-02 -3.197050653398036957e-03 1.361239887773990631e-02
1.077000000000000000e+03 9.148134231567382812e+00 3.298397827148437500e+01 1.633408828638494015e-03 -1.122213248163461685e-02 -2.876617014408111572e-03 1.202861312776803970e-02
1.078000000000000000e+03 5.046025276184082031e+00 3.096197319030761719e+01 -4.302930319681763649e-04 -8.192021399736404419e-03 -2.586694434285163879e-03 6.535078398883342743e-03
1.079000000000000000e+03 6.283047199249267578e-01 3.046426010131835938e+01 5.159351858310401440e-04 -6.528328638523817062e-03 -1.803718041628599167e-03 9.977481095120310783e-04
1.080000000000000000e+03 7.756302642822265625e+01 3.044550704956054688e+01 -2.601004391908645630e-02 -1.273824691772460938e+00 -3.899504244327545166e-01 3.189216256141662598e-01
1.081000000000000000e+03 7.061112213134765625e+01 3.824565124511718750e+01 -3.426273763179779053e-01 2.144886553287506104e-01 -3.844161704182624817e-02 1.983983218669891357e-01
1.082000000000000000e+03 5.265361022949218750e+01 3.412482452392578125e+01 -9.908416867256164551e-02 6.571881175041198730e-01 1.674311906099319458e-01 -3.230622410774230957e-01
1.083000000000000000e+03 1.111345291137695312e+01 3.522021102905273438e+01 6.402344442903995514e-03 -1.510585937649011612e-02 -2.611054573208093643e-03 1.233350299298763275e-02
1.084000000000000000e+03 6.716293334960937500e+00 3.446055984497070312e+01 1.828697742894291878e-03 -1.212339103221893311e-02 -3.088407916948199272e-03 8.471785113215446472e-03
1.085000000000000000e+03 6.229885101318359375e+00 3.180753326416015625e+01 -9.903167665470391512e-05 -9.299384430050849915e-03 -2.819524845108389854e-03 8.363375440239906311e-03
1.086000000000000000e+03 7.678632736206054688e-01 3.468451690673828125e+01 -3.434849786572158337e-04 -1.349456328898668289e-02 -4.151414614170789719e-03 1.016900641843676567e-03
1.087000000000000000e+03 7.593000030517578125e+01 3.402203750610351562e+01 -8.478166908025741577e-02 -6.875008940696716309e-01 -2.316847592592239380e-01 3.049477934837341309e-01
1.088000000000000000e+03 7.626675963401794434e-01 3.742854690551757812e+01 -1.313149841735139489e-04 -1.669923402369022369e-02 -5.049164872616529465e-03 6.521204486489295959e-04
1.089000000000000000e+03 4.427623271942138672e+00 1.333071327209472656e+01 1.603746750333812088e-05 -1.913636369863525033e-04 -5.259785029920749366e-05 -1.853244175435975194e-04
1.090000000000000000e+03 7.409720420837402344e+00 1.402534961700439453e+01 1.985459675779566169e-04 -6.288288859650492668e-04 -1.290848886128515005e-04 5.635512570734135807e-05
1.091000000000000000e+03 6.145175695419311523e-01 1.639105796813964844e+01 2.593836106825619936e-04 1.181661034934222698e-03 4.323134198784828186e-04 -1.140270105679519475e-04
1.092000000000000000e+03 3.823606491088867188e+00 9.619588851928710938e+00 2.439417439745739102e-04 3.966428630519658327e-05 8.508181053912267089e-05 -2.063490392174571753e-04
1.093000000000000000e+03 7.220201492309570312e+00 1.109157657623291016e+01 8.120531128952279687e-05 -3.187158145010471344e-04 -7.125315460143610835e-05 1.123971014749258757e-05
1.094000000000000000e+03 6.290592551231384277e-01 1.355296516418457031e+01 2.249117678729817271e-04 6.716087227687239647e-04 2.689561515580862761e-04 -9.112564293900504708e-05
1.095000000000000000e+03 4.004094600677490234e+00 5.696531772613525391e+00 4.733715832117013633e-05 3.339755130582489073e-05 2.422041325189638883e-05 -1.161915861302986741e-04
1.096000000000000000e+03 9.496647834777832031e+00 6.014309406280517578e+00 1.295558759011328220e-04 -1.685948700469452888e-05 3.380891939741559327e-05 5.540311576623935252e-06
1.097000000000000000e+03 5.963412523269653320e-01 9.302618026733398438e+00 -1.380810863338410854e-04 1.982445828616619110e-04 1.804904968594200909e-05 -2.782525007205549628e-05
1.098000000000000000e+03 5.771662712097167969e+00 1.881859064102172852e+00 1.499772224633488804e-05 -5.298490941640920937e-05 -1.139615596912335604e-05 7.096143235685303807e-06
1.099000000000000000e+03 8.058876991271972656e+00 2.566555976867675781e+00 1.558884105179458857e-05 -5.486623194883577526e-05 -1.178321690531447530e-05 2.179535113100428134e-05
1.100000000000000000e+03 5.993106961250305176e-01 6.407490253448486328e+00 -9.055825648829340935e-05 6.337373633868992329e-05 -8.155356226779986173e-06 -1.527588392491452396e-05
1.101000000000000000e+03 1.886199951171875000e+01 3.289202451705932617e+00 -3.848714641208061948e-06 -3.959554305765777826e-05 -1.303327735513448715e-05 2.454671403029351495e-06
1.102000000000000000e+03 3.762025070190429688e+01 1.331572723388671875e+01 -2.849289029836654663e-02 4.981293808668851852e-03 -7.053478620946407318e-03 5.182310473173856735e-03
1.103000000000000000e+03 4.119923782348632812e+01 1.162598228454589844e+01 -1.088489498943090439e-02 -3.909834194928407669e-03 -4.438418895006179810e-03 -2.854224760085344315e-03
1.104000000000000000e+03 3.851720046997070312e+01 1.291704273223876953e+01 -2.549561485648155212e-02 9.397941641509532928e-03 -4.829302430152893066e-03 -1.187475631013512611e-03
1.105000000000000000e+03 3.836040115356445312e+01 1.089625835418701172e+01 -1.085858605802059174e-02 -1.811373047530651093e-03 -3.800987964496016502e-03 -1.669070770731195807e-04
1.106000000000000000e+03 3.447706985473632812e+01 6.099429130554199219e+00 -1.055726199410855770e-03 -6.381942057487322018e-06 -3.186324611306190491e-04 -6.142713245935738087e-04
1.107000000000000000e+03 3.789193725585937500e+01 7.471668243408203125e+00 3.630399471148848534e-03 2.489066391717642546e-04 1.163791865110397339e-03 3.264350234530866146e-04
1.108000000000000000e+03 3.657194137573242188e+01 2.533911228179931641e+00 -2.880794927477836609e-04 6.887498893775045872e-04 1.202011117129586637e-04 -3.904433106072247028e-04
1.109000000000000000e+03 3.343255996704101562e+01 7.319475650787353516e+00 2.010528551181778312e-04 1.437710365280508995e-03 4.916290054097771645e-04 -2.471958287060260773e-04
1.110000000000000000e+03 2.134065246582031250e+01 -1.717558741569519043e+00 -5.300391316413879395e-01 1.962766237556934357e-02 -1.531234383583068848e-01 -2.990404665470123291e-01
1.111000000000000000e+03 2.119517326354980469e+01 -1.062319755554199219e+00 -4.822489023208618164e-01 7.388251367956399918e-03 -1.424582004547119141e-01 -2.178344130516052246e-01
1.112000000000000000e+03 1.885593986511230469e+01 -1.511669039726257324e+00 -2.457693964242935181e-01 -6.067701056599617004e-02 -9.193392097949981689e-02 -2.401077151298522949e-01
1.113000000000000000e+03 1.501193714141845703e+01 -2.404401063919067383e+00 -1.977913267910480499e-02 -7.386036962270736694e-02 -2.809184975922107697e-02 -1.436330825090408325e-01
1.114000000000000000e+03 1.807072448730468750e+01 -1.592560768127441406e+00 -1.781321316957473755e-01 -6.312573701143264771e-02 -7.237736135721206665e-02 -2.225514501333236694e-01
1.115000000000000000e+03 6.791340827941894531e+00 -3.569581222534179688e+01 4.515786841511726379e-02 -6.700853109359741211e-01 -1.874782294034957886e-01 -6.185879930853843689e-02
1.116000000000000000e+03 4.813653182983398438e+01 -3.552927398681640625e+01 -5.101594608277082443e-03 4.801324605941772461e-01 1.425092667341232300e-01 -1.259550750255584717e-01
1.117000000000000000e+03 6.908678436279296875e+01 -3.581682968139648438e+01 1.699179993011057377e-03 -5.836986936628818512e-03 -1.241342048160731792e-03 1.645854860544204712e-02
1.118000000000000000e+03 7.327742004394531250e+01 -3.554325485229492188e+01 1.368741737678647041e-03 -6.732462905347347260e-03 -1.609116443432867527e-03 9.380085393786430359e-03
1.119000000000000000e+03 7.438373565673828125e+01 -3.342356491088867188e+01 -8.833403699100017548e-04 -4.669963382184505463e-03 -1.665991032496094704e-03 7.427527103573083878e-03
1.120000000000000000e+03 7.956233978271484375e+01 -1.996911239624023438e+01 8.170348155545070767e-05 3.252866736147552729e-04 1.220970443682745099e-04 -8.381314546568319201e-05
1.121000000000000000e+03 7.574358367919921875e+01 -1.901316642761230469e+01 1.807806693250313401e-04 -2.778964153549168259e-05 4.589730815496295691e-05 -2.288247633259743452e-04
1.122000000000000000e+03 7.144898223876953125e+01 -1.836615753173828125e+01 2.776630572043359280e-04 -1.827532105380669236e-04 2.847295581887010485e-05 1.811518304748460650e-04
1.123000000000000000e+03 1.804378700256347656e+01 -2.586539268493652344e+01 5.703976154327392578e-01 5.218610763549804688e-01 3.276776075363159180e-01 -5.090230107307434082e-01
1.124000000000000000e+03 4.345695877075195312e+01 -2.043344497680664062e+01 -2.629504501819610596e-01 2.219166278839111328e+00 5.868647098541259766e-01 -2.705379128456115723e-01
1.125000000000000000e+03 3.479043197631835938e+01 -1.359148025512695312e+01 2.314895540475845337e-01 -1.229744315147399902e+00 -2.994764149188995361e-01 -1.148729845881462097e-01
1.126000000000000000e+03 3.554876327514648438e+01 -1.920676422119140625e+01 -1.239455677568912506e-02 -1.221016645431518555e-01 -4.034886881709098816e-02 4.497278630733489990e-01
1.127000000000000000e+03 3.555885696411132812e+01 -2.486425209045410156e+01 7.669477462768554688e-01 1.984241843223571777e+00 8.253568410873413086e-01 8.863264322280883789e-01
1.128000000000000000e+03 2.909685325622558594e+01 -2.969060134887695312e+01 9.218665957450866699e-01 3.354437351226806641e-01 3.771930932998657227e-01 4.234740734100341797e-01
1.129000000000000000e+03 2.759990119934082031e+01 -3.007103919982910156e+01 8.806725144386291504e-01 2.535208165645599365e-01 3.402580022811889648e-01 2.060504108667373657e-01
1.130000000000000000e+03 1.623040390014648438e+01 -2.362829399108886719e+01 4.418560266494750977e-01 4.843866527080535889e-01 2.778728008270263672e-01 -4.718599617481231689e-01
1.131000000000000000e+03 1.941438102722167969e+01 -1.141781997680664062e+01 -1.037044405937194824e+00 -2.111878693103790283e-01 -3.744696676731109619e-01 -3.918108642101287842e-01
1.132000000000000000e+03 2.213040733337402344e+01 -1.095500659942626953e+01 -4.692796170711517334e-01 -8.519951999187469482e-02 -1.663437336683273315e-01 -2.110754549503326416e-01
1.133000000000000000e+03 2.461414146423339844e+01 -1.006993389129638672e+01 -1.527059972286224365e-01 -1.008243709802627563e-01 -7.605911046266555786e-02 -1.463304907083511353e-01
1.134000000000000000e+03 4.390993499755859375e+01 -1.801341247558593750e+01 4.020963609218597412e-02 1.975236177444458008e+00 6.046337485313415527e-01 -8.154543042182922363e-01
1.135000000000000000e+03 4.363612365722656250e+01 -1.761955642700195312e+01 1.081137657165527344e-01 2.282711029052734375e+00 7.172474265098571777e-01 -9.679067134857177734e-01
1.136000000000000000e+03 4.206581497192382812e+01 -1.654080009460449219e+01 7.220725715160369873e-02 6.364297389984130859e+00 1.930951356887817383e+00 3.565144240856170654e-01
1.137000000000000000e+03 4.526467132568359375e+01 -1.476942729949951172e+01 3.085381507873535156e+00 -3.334240317344665527e-01 8.255872726440429688e-01 -9.700571745634078979e-02
1.138000000000000000e+03 4.610754394531250000e+01 -1.514281845092773438e+01 2.238860368728637695e+00 -3.774166703224182129e-01 5.584331154823303223e-01 -1.105461269617080688e-01
1.139000000000000000e+03 5.423834228515625000e+01 -1.346878337860107422e+01 -2.193940430879592896e-01 2.199798077344894409e-01 1.757271820679306984e-04 6.956866383552551270e-01
1.140000000000000000e+03 5.461038589477539062e+01 -1.463562583923339844e+01 -3.177384138107299805e-01 4.737353324890136719e-02 -8.110946416854858398e-02 2.137841433286666870e-01
1.141000000000000000e+03 5.550926589965820312e+01 -1.308915710449218750e+01 -5.714366436004638672e-01 2.824322283267974854e-01 -8.670132607221603394e-02 5.674909353256225586e-01
1.142000000000000000e+03 5.859708023071289062e+01 -1.406831741333007812e+01 -1.214461803436279297e+00 5.766445398330688477e-02 -3.470391929149627686e-01 -1.197083964943885803e-01
1.143000000000000000e+03 5.953592681884765625e+01 -1.245765495300292969e+01 -1.513591766357421875e+00 2.995637655258178711e-01 -3.642084002494812012e-01 -3.716436028480529785e-02
1.144000000000000000e+03 6.851073455810546875e+01 -1.391041469573974609e+01 -6.107355356216430664e-01 2.680813334882259369e-02 -1.751782149076461792e-01 1.348852515220642090e-01
1.145000000000000000e+03 6.836659240722656250e+01 -1.474317264556884766e+01 -2.947513759136199951e-01 -1.738604344427585602e-02 -9.364122897386550903e-02 1.227292641997337341e-01
1.146000000000000000e+03 6.972665405273437500e+01 -1.463568592071533203e+01 -3.402897715568542480e-01 5.756357684731483459e-02 -8.481785655021667480e-02 6.211537495255470276e-02
1.147000000000000000e+03 7.276467895507812500e+01 -1.361039066314697266e+01 -3.188613951206207275e-01 3.823245316743850708e-02 -8.418868482112884521e-02 -1.253203600645065308e-01
1.148000000000000000e+03 7.358633422851562500e+01 -1.439496612548828125e+01 -2.150634676218032837e-01 1.141382381319999695e-02 -6.109489127993583679e-02 -8.646504580974578857e-02
1.149000000000000000e+03 7.514024353027343750e+01 -1.370412063598632812e+01 -1.594771444797515869e-01 -1.950976438820362091e-02 -5.369607359170913696e-02 -1.124603971838951111e-01
1.150000000000000000e+03 7.587303161621093750e+01 -1.450685691833496094e+01 -9.818511456251144409e-02 -1.928982697427272797e-02 -3.524248301982879639e-02 -6.372183561325073242e-02
1.151000000000000000e+03 7.655622863769531250e+01 -1.455016899108886719e+01 -7.555630803108215332e-02 -1.396151538938283920e-02 -2.685534767806529999e-02 -5.332435667514801025e-02
1.152000000000000000e+03 7.837513732910156250e+01 -1.450726509094238281e+01 -1.990601234138011932e-02 -2.569220028817653656e-02 -1.367946341633796692e-02 -1.869736984372138977e-02
1.153000000000000000e+03 7.940055084228515625e+01 -1.122330093383789062e+01 -1.416313607478514314e-04 -1.058169081807136536e-01 -3.178756311535835266e-02 -4.222546517848968506e-02
1.154000000000000000e+03 7.900214385986328125e+01 -1.442182731628417969e+01 -5.719987209886312485e-03 -1.417886000126600266e-02 -5.969653837382793427e-03 -1.836360082961618900e-03
1.155000000000000000e+03 7.966307830810546875e+01 -1.433023929595947266e+01 3.706094867084175348e-04 1.266387943178415298e-02 3.910346422344446182e-03 -7.436379091814160347e-04
1.156000000000000000e+03 7.493119812011718750e+01 4.015913009643554688e+01 -1.322009414434432983e-01 -3.986398577690124512e-01 -1.592522412538528442e-01 7.821629941463470459e-02
1.157000000000000000e+03 7.873037719726562500e+01 4.002021789550781250e+01 1.802607998251914978e-02 -6.804097890853881836e-01 -1.987151056528091431e-01 6.329590082168579102e-02
1.158000000000000000e+03 7.667184448242187500e+01 3.878051757812500000e+01 -3.754329681396484375e-02 -6.626283526420593262e-01 -2.100514918565750122e-01 1.441579908132553101e-01
1.159000000000000000e+03 7.911991119384765625e+01 3.479045486450195312e+01 -1.669810898602008820e-02 -1.079232454299926758e+00 -3.287791609764099121e-01 8.594787120819091797e-02
1.160000000000000000e+03 7.921741485595703125e+01 2.914336395263671875e+01 -6.188831292092800140e-03 -1.786984324455261230e+00 -5.379519462585449219e-01 1.260471791028976440e-01
1.161000000000000000e+03 7.924986267089843750e+01 2.774743270874023438e+01 4.402192775160074234e-03 -2.018030166625976562e+00 -6.040883660316467285e-01 1.280617266893386841e-01
1.162000000000000000e+03 7.932667541503906250e+01 2.217955780029296875e+01 1.295596011914312840e-03 -2.993980884552001953e+00 -8.978056311607360840e-01 1.146011650562286377e-01
1.163000000000000000e+03 7.802444458007812500e+01 2.079910659790039062e+01 2.860195375978946686e-02 -2.574931144714355469e+00 -7.638987898826599121e-01 2.668001651763916016e-01
1.164000000000000000e+03 7.937087249755859375e+01 1.798211097717285156e+01 1.308103650808334351e-02 -3.563524007797241211e+00 -1.065132856369018555e+00 6.721831858158111572e-02
1.165000000000000000e+03 7.812535858154296875e+01 1.663056945800781250e+01 4.663136601448059082e-02 -2.978960990905761719e+00 -8.796988725662231445e-01 1.240686550736427307e-01
1.166000000000000000e+03 7.933701324462890625e+01 1.097903251647949219e+01 3.789671696722507477e-03 -3.682119369506835938e+00 -1.103498935699462891e+00 -3.168758377432823181e-02
1.167000000000000000e+03 7.792428588867187500e+01 9.635538101196289062e+00 5.032866075634956360e-02 -2.796944379806518555e+00 -8.239847421646118164e-01 -1.597737520933151245e-01
1.168000000000000000e+03 7.784567260742187500e+01 6.755208492279052734e+00 3.491032496094703674e-02 -2.537511587142944336e+00 -7.507803440093994141e-01 -2.694928944110870361e-01
1.169000000000000000e+03 7.934432220458984375e+01 3.924724578857421875e+00 6.011889199726283550e-04 -2.800433874130249023e+00 -8.399497866630554199e-01 -1.058931499719619751e-01
1.170000000000000000e+03 7.811692047119140625e+01 2.468501091003417969e+00 1.314235012978315353e-02 -2.083823919296264648e+00 -6.212044358253479004e-01 -3.288683891296386719e-01
1.171000000000000000e+03 7.939905548095703125e+01 -3.057219028472900391e+00 4.091953858733177185e-03 -1.385719776153564453e+00 -4.144883453845977783e-01 -1.202018707990646362e-01
1.172000000000000000e+03 7.819848632812500000e+01 -4.408975124359130859e+00 -6.605238188058137894e-03 -9.701477885246276855e-01 -2.930259108543395996e-01 -3.366361856460571289e-01
1.173000000000000000e+03 7.821288299560546875e+01 -7.126051902770996094e+00 -2.169185318052768707e-02 -5.707456469535827637e-01 -1.777312457561492920e-01 -2.720144689083099365e-01
1.174000000000000000e+03 7.824521636962890625e+01 -1.085023212432861328e+01 -4.706704616546630859e-02 -1.907808333635330200e-01 -7.135435938835144043e-02 -1.428364366292953491e-01
1.175000000000000000e+03 3.888939023017883301e-01 2.186402320861816406e+00 7.574618939543142915e-05 2.231913458672352135e-05 2.941959610325284302e-05 -4.248349512181448517e-07
1.176000000000000000e+03 5.078659057617187500e-01 4.966501712799072266e+00 9.531783871352672577e-05 1.622714262339286506e-05 3.346349330968223512e-05 -2.073096948151942343e-05
1.177000000000000000e+03 1.807452559471130371e+00 6.282321929931640625e+00 1.224156003445386887e-04 5.211836833041161299e-05 5.236019205767661333e-05 -9.230004070559516549e-05
1.178000000000000000e+03 1.745542645454406738e+00 9.374643325805664062e+00 2.388215216342359781e-04 1.269864005735144019e-04 1.097423737519420683e-04 -1.235008094226941466e-04
1.179000000000000000e+03 6.097997426986694336e-01 1.213722038269042969e+01 -1.910497376229614019e-04 4.703659797087311745e-04 8.379486826015636325e-05 -8.724375220481306314e-05
1.180000000000000000e+03 1.814674139022827148e+00 1.218251895904541016e+01 2.717618481256067753e-04 2.895161451306194067e-04 1.683833979768678546e-04 -2.079747791867703199e-04
1.181000000000000000e+03 1.830571770668029785e+00 1.649958419799804688e+01 -3.183478838764131069e-04 6.827304605394601822e-04 1.093147657229565084e-04 -2.799091453198343515e-04
1.182000000000000000e+03 1.742359638214111328e+00 1.931894111633300781e+01 -4.762551689054816961e-04 8.400764199905097485e-04 1.091463709599338472e-04 -1.143167028203606606e-04
1.183000000000000000e+03 5.933811664581298828e-01 2.203306007385253906e+01 3.209477581549435854e-04 1.542341313324868679e-03 5.589867359958589077e-04 1.479363272665068507e-04
1.184000000000000000e+03 6.072710752487182617e-01 2.484032440185546875e+01 3.685699484776705503e-04 2.775146276690065861e-04 1.938253699336200953e-04 4.191433545202016830e-04
1.185000000000000000e+03 6.046455502510070801e-01 2.624205780029296875e+01 -5.456724902614951134e-04 -8.941018022596836090e-04 -4.319323052186518908e-04 5.929015460424125195e-04
1.186000000000000000e+03 6.078794598579406738e-01 2.905624198913574219e+01 -6.015532999299466610e-04 -4.343107808381319046e-03 -1.483398256823420525e-03 8.956607198342680931e-04
1.187000000000000000e+03 1.808894276618957520e+00 2.902762794494628906e+01 2.415647904854267836e-04 -5.111869424581527710e-03 -1.461091334931552410e-03 2.506181364879012108e-03
1.188000000000000000e+03 7.172272205352783203e-01 3.327909469604492188e+01 5.740802735090255737e-04 -1.139871217310428619e-02 -3.247389569878578186e-03 1.224187784828245640e-03
1.189000000000000000e+03 7.566202878952026367e-01 3.606412887573242188e+01 4.406448279041796923e-04 -1.522414479404687881e-02 -4.435049835592508316e-03 9.066785569302737713e-04
1.190000000000000000e+03 1.207313299179077148e+00 4.013245010375976562e+01 -2.172470994992181659e-04 -1.849847100675106049e-02 -5.614715628325939178e-03 5.670644459314644337e-04
1.191000000000000000e+03 9.598389625549316406e+00 1.852008461952209473e+00 5.084024815005250275e-05 4.142386751482263207e-05 2.767923615465406328e-05 -1.081590107787633315e-05
1.192000000000000000e+03 8.833574295043945312e+00 1.852080941200256348e+00 1.814680945244617760e-05 -5.100612179376184940e-05 -9.857793884293641895e-06 2.179775219701696187e-05
1.193000000000000000e+03 5.005588531494140625e+00 1.903397083282470703e+00 3.887151979142799973e-05 5.013727059122174978e-05 2.670263711479492486e-05 -3.643194577307440341e-05
1.194000000000000000e+03 1.935064554214477539e+00 2.074476242065429688e+00 3.841086709144292399e-06 5.839583172928541899e-05 1.867107494035735726e-05 -2.960173515020869672e-05
1.195000000000000000e+03 1.164022803306579590e+00 2.136572122573852539e+00 -7.170592198235681280e-06 -4.584793714457191527e-05 -1.590555802977178246e-05 7.120037935237633064e-06
1.196000000000000000e+03 1.106822109222412109e+01 2.553258657455444336e+00 1.391133628203533590e-05 -5.226424400461837649e-05 -1.150587286247173324e-05 3.738883606274612248e-05
1.197000000000000000e+03 1.257855606079101562e+01 1.852518677711486816e+00 2.585350557637866586e-05 5.233053889242000878e-05 2.345521352253854275e-05 -3.186424351042660419e-07
1.198000000000000000e+03 1.551120185852050781e+01 1.920800209045410156e+00 1.270685879717348143e-05 5.074877844890579581e-05 1.903669181047007442e-05 -1.556415554659906775e-06
1.199000000000000000e+03 1.694996643066406250e+01 2.013220548629760742e+00 9.991580554924439639e-06 4.810705286217853427e-05 1.742959102557506412e-05 -4.937813628203002736e-06
1.200000000000000000e+03 1.837513542175292969e+01 2.133750438690185547e+00 6.698808647342957556e-06 4.294338941690512002e-05 1.489265923737548292e-05 -6.470344033004948869e-06
1.201000000000000000e+03 2.046788024902343750e+01 2.470431327819824219e+00 -5.809640697407303378e-06 -3.035223198821768165e-05 -1.084856194211170077e-05 8.832359981170156971e-07
1.202000000000000000e+03 2.116859817504882812e+01 2.599802255630493164e+00 4.813874966203002259e-06 2.451973159622866660e-05 8.800081559456884861e-06 -2.879845851566642523e-06
1.203000000000000000e+03 2.291397285461425781e+01 4.061951160430908203e+00 -8.834400432533584535e-06 -7.394150088657625020e-06 -4.868565156357362866e-06 -4.053060365549754351e-06
1.204000000000000000e+03 2.320447540283203125e+01 3.810570478439331055e+00 3.004586324095726013e-05 4.558096406981348991e-06 1.038118807628052309e-05 4.075498509337194264e-06
1.205000000000000000e+03 2.361279487609863281e+01 3.246385812759399414e+00 -7.277702138708264101e-07 8.364448149222880602e-06 2.291003283971804194e-06 5.510682058229576796e-06
1.206000000000000000e+03 2.185332489013671875e+01 2.750918626785278320e+00 -2.434805992379551753e-06 -2.397567368461750448e-05 -7.923144039523322135e-06 -1.222388505084381904e-06
1.207000000000000000e+03 2.203561019897460938e+01 4.845221519470214844e+00 1.596763286215718836e-05 1.975842860701959580e-05 1.071781844075303525e-05 1.919275928230490535e-05
1.208000000000000000e+03 2.143467712402343750e+01 5.358443737030029297e+00 2.191693056374788284e-05 1.832068301155231893e-05 1.207128389069112018e-05 2.131355358869768679e-05
1.209000000000000000e+03 2.017213058471679688e+01 6.376099586486816406e+00 2.612188291095662862e-05 1.292667002417147160e-05 1.171456551674054936e-05 2.544783819757867604e-05
1.210000000000000000e+03 1.986665534973144531e+01 6.644913196563720703e+00 -3.509947782731615007e-05 -2.054177093668840826e-05 -1.669237462920136750e-05 -1.663966941123362631e-05
1.211000000000000000e+03 1.880295753479003906e+01 7.770909786224365234e+00 -7.147241558413952589e-05 -6.469320214819163084e-05 -4.084968531969934702e-05 -5.797016638098284602e-05
1.212000000000000000e+03 1.789404678344726562e+01 8.529031753540039062e+00 3.696319254231639206e-05 6.457036943174898624e-05 3.046006895601749420e-05 5.174936086405068636e-05
1.213000000000000000e+03 1.755836677551269531e+01 8.797375679016113281e+00 -5.379676076699979603e-05 -2.963978113257326186e-05 -2.503096220607403666e-05 -5.588189014815725386e-05
1.214000000000000000e+03 1.705511856079101562e+01 9.483558654785156250e+00 -8.323114889208227396e-05 -2.073886571452021599e-05 -3.119100438198074698e-05 -7.233054202515631914e-05
1.215000000000000000e+03 1.662688255310058594e+01 1.014864921569824219e+01 -1.246358879143372178e-04 -2.909160139097366482e-05 -4.611824988387525082e-05 -1.130657183239236474e-04
1.216000000000000000e+03 1.547907161712646484e+01 1.180990982055664062e+01 1.815585128497332335e-04 3.416466643102467060e-04 1.569615415064617991e-04 -8.771936336415819824e-06
1.217000000000000000e+03 1.465897846221923828e+01 1.540173912048339844e+01 -2.464498684275895357e-04 1.784891588613390923e-03 4.615325306076556444e-04 1.401771442033350468e-04
1.218000000000000000e+03 1.468213748931884766e+01 1.580918025970458984e+01 3.102737246081233025e-04 1.945116440765559673e-03 6.766170263290405273e-04 1.435325102647766471e-04
1.219000000000000000e+03 1.472163295745849609e+01 1.660970115661621094e+01 3.727984731085598469e-04 2.415562747046351433e-03 8.365083485841751099e-04 1.406397204846143723e-04
1.220000000000000000e+03 1.474641418457031250e+01 1.819038009643554688e+01 5.798607598990201950e-04 3.867108607664704323e-03 1.334090833552181721e-03 2.192588872276246548e-04
1.221000000000000000e+03 1.485443019866943359e+01 1.936115074157714844e+01 -8.595584658905863762e-04 3.258506767451763153e-03 7.196845253929495811e-04 4.714377282653003931e-04
1.222000000000000000e+03 1.645546913146972656e+01 2.086563873291015625e+01 -1.204483490437269211e-02 -2.182904165238142014e-03 -4.268321674317121506e-03 -6.237446330487728119e-03
1.223000000000000000e+03 1.648539733886718750e+01 2.143189811706542969e+01 -1.962347701191902161e-02 2.767039695754647255e-04 -5.804032087326049805e-03 -2.684494014829397202e-03
1.224000000000000000e+03 1.712241363525390625e+01 2.130483627319335938e+01 -2.414011210203170776e-02 -2.091800328344106674e-03 -7.869574241340160370e-03 -6.252801511436700821e-03
1.225000000000000000e+03 1.832086181640625000e+01 2.166027069091796875e+01 -3.460404276847839355e-02 -1.582989352755248547e-03 -1.085610967129468918e-02 -6.116883829236030579e-03
1.226000000000000000e+03 2.393007659912109375e+01 2.195482635498046875e+01 -1.170806586742401123e-01 -7.345844060182571411e-03 -3.732794895768165588e-02 2.447952143847942352e-02
1.227000000000000000e+03 2.433060455322265625e+01 2.186824798583984375e+01 -1.226182207465171814e-01 -6.873871199786663055e-03 -3.884762898087501526e-02 2.790364623069763184e-02
1.228000000000000000e+03 2.513131141662597656e+01 2.171238136291503906e+01 -1.343366801738739014e-01 -9.940745308995246887e-03 -4.328322783112525940e-02 3.504599630832672119e-02
1.229000000000000000e+03 2.632474899291992188e+01 2.140365791320800781e+01 -1.458096951246261597e-01 -1.747496239840984344e-02 -4.898539558053016663e-02 4.701780900359153748e-02
1.230000000000000000e+03 2.711266517639160156e+01 2.117989540100097656e+01 -1.575600802898406982e-01 -2.107143774628639221e-02 -5.358945578336715698e-02 5.415714532136917114e-02
1.231000000000000000e+03 2.791831207275390625e+01 2.092820549011230469e+01 -1.877715885639190674e-01 -4.507657885551452637e-02 -6.985445320606231689e-02 7.711516320705413818e-02
1.232000000000000000e+03 2.866925811767578125e+01 2.053083419799804688e+01 -1.799790263175964355e-01 -8.972387015819549561e-02 -8.091086894273757935e-02 1.081399396061897278e-01
1.233000000000000000e+03 2.951369285583496094e+01 1.961051177978515625e+01 -8.320341259241104126e-02 -1.235189810395240784e-01 -6.201671808958053589e-02 9.552109241485595703e-02
1.234000000000000000e+03 2.927223587036132812e+01 1.994516563415527344e+01 -1.195017024874687195e-01 -1.248815357685089111e-01 -7.331497222185134888e-02 1.092137992382049561e-01
1.235000000000000000e+03 3.016604614257812500e+01 1.857905387878417969e+01 -4.154143109917640686e-02 -9.290141612291336060e-02 -4.033285379409790039e-02 5.968667194247245789e-02
1.236000000000000000e+03 3.037094116210937500e+01 1.823087310791015625e+01 -3.451647236943244934e-02 -8.701670169830322266e-02 -3.645995259284973145e-02 5.354897305369377136e-02
1.237000000000000000e+03 3.056319999694824219e+01 1.787630844116210938e+01 -2.915911190211772919e-02 -8.069024980068206787e-02 -3.295480832457542419e-02 4.583468288183212280e-02
1.238000000000000000e+03 3.089146995544433594e+01 1.714082908630371094e+01 -1.759257726371288300e-02 -6.391577422618865967e-02 -2.445250563323497772e-02 3.144654631614685059e-02
1.239000000000000000e+03 3.171664619445800781e+01 1.487329959869384766e+01 -5.654162261635065079e-03 -2.069025300443172455e-02 -7.903324440121650696e-03 1.012555230408906937e-02
1.240000000000000000e+03 3.186232185363769531e+01 1.584426593780517578e+01 -1.266376301646232605e-02 -2.876468002796173096e-02 -1.242853328585624695e-02 2.205402404069900513e-02
1.241000000000000000e+03 3.257804870605468750e+01 1.208590698242187500e+01 -3.374744555912911892e-04 3.016529663000255823e-04 -1.074644660548074171e-05 1.447353628464043140e-03
1.242000000000000000e+03 3.263603210449218750e+01 1.168729782104492188e+01 -1.549198292195796967e-03 1.707145362161099911e-03 4.738412462756969035e-05 2.510954218450933695e-04
1.243000000000000000e+03 3.292008972167968750e+01 1.010811710357666016e+01 -8.631341625005006790e-04 3.715255297720432281e-03 8.556363754905760288e-04 -5.018194788135588169e-04
1.244000000000000000e+03 3.345405578613281250e+01 5.349938392639160156e+00 -7.473677978850901127e-04 4.616018268279731274e-04 -8.572978549636900425e-05 -2.769360726233571768e-04
1.245000000000000000e+03 3.351994705200195312e+01 4.165664672851562500e+00 1.645408687181770802e-03 1.159015737357549369e-04 5.283930804580450058e-04 4.711746878456324339e-04
1.246000000000000000e+03 3.355394363403320312e+01 3.764327049255371094e+00 -1.885374542325735092e-03 9.951439278665930033e-05 -5.357580375857651234e-04 -3.781509294640272856e-04
1.247000000000000000e+03 3.423900222778320312e+01 1.990661501884460449e+00 4.592464756569825113e-05 -8.361892541870474815e-04 -2.370793808950111270e-04 2.125358732882887125e-04
1.248000000000000000e+03 3.344713211059570312e+01 2.084403991699218750e+00 5.847563734278082848e-04 8.633649558760225773e-04 4.344363987911492586e-04 -1.013814588077366352e-03
1.249000000000000000e+03 3.361007690429687500e+01 2.306246995925903320e+00 -6.063824985176324844e-04 -1.214643940329551697e-03 -5.463079432956874371e-04 1.047285273671150208e-03
1.250000000000000000e+03 3.379499816894531250e+01 1.977821946144104004e+00 -8.244034252129495144e-04 6.700750673189759254e-04 -4.629850809578783810e-05 4.187191952951252460e-04
1.251000000000000000e+03 3.477099227905273438e+01 2.031639337539672852e+00 1.461679639760404825e-04 -1.192495692521333694e-03 -3.138983156532049179e-04 3.804856387432664633e-04
1.252000000000000000e+03 3.459645080566406250e+01 1.961327314376831055e+00 -4.096521297469735146e-04 1.247413820237852633e-05 -1.191534029203467071e-04 -9.514753037365153432e-05
1.253000000000000000e+03 3.635939788818359375e+01 3.105142116546630859e+00 4.050636780448257923e-04 -1.120127621106803417e-03 -2.145191829185932875e-04 5.825273110531270504e-04
1.254000000000000000e+03 3.806857299804687500e+01 3.012850761413574219e+00 4.781991883646696806e-04 2.780343929771333933e-04 2.268700773129239678e-04 1.035820605466142297e-04
1.255000000000000000e+03 3.930947875976562500e+01 4.855523109436035156e+00 1.229611109010875225e-03 1.064370735548436642e-05 3.720764361787587404e-04 -8.597976557211950421e-05
1.256000000000000000e+03 3.924623489379882812e+01 6.124619483947753906e+00 -4.269969940651208162e-04 7.308428175747394562e-04 9.115374996326863766e-05 5.461420514620840549e-04
1.257000000000000000e+03 4.191970825195312500e+01 1.271681690216064453e+01 -1.106957159936428070e-02 -7.584079168736934662e-03 -5.596095230430364609e-03 -1.368795335292816162e-02
1.258000000000000000e+03 4.266538238525390625e+01 1.512953281402587891e+01 -5.456332862377166748e-02 -1.218546181917190552e-02 -2.002463676035404205e-02 -2.278487384319305420e-02
1.259000000000000000e+03 4.600268554687500000e+01 1.709436035156250000e+01 -1.050660312175750732e-01 -3.537790849804878235e-02 -4.213318228721618652e-02 -7.160918414592742920e-02
1.260000000000000000e+03 4.709476852416992188e+01 1.796805000305175781e+01 -1.401886343955993652e-01 -6.147729977965354919e-02 -6.049977988004684448e-02 -7.685817033052444458e-02
1.261000000000000000e+03 5.068707656860351562e+01 2.022396659851074219e+01 -1.917586773633956909e-01 -3.793235495686531067e-02 -6.890731304883956909e-02 -1.044608131051063538e-01
1.262000000000000000e+03 5.336000442504882812e+01 2.115553092956542969e+01 -2.301002852618694305e-02 7.856634911149740219e-04 -6.667309440672397614e-03 -1.009999290108680725e-01
1.263000000000000000e+03 5.611833572387695312e+01 2.165513610839843750e+01 4.582213163375854492e-01 7.705059647560119629e-02 1.605815738439559937e-01 -1.789676994085311890e-01
1.264000000000000000e+03 6.268326950073242188e+01 1.508579730987548828e+01 3.011947274208068848e-01 6.457317352294921875e+00 2.027553796768188477e+00 -1.822145283222198486e-01
1.265000000000000000e+03 6.230657958984375000e+01 1.213093566894531250e+01 2.114921510219573975e-01 6.415295124053955078e+00 1.988036274909973145e+00 5.713329911231994629e-01
1.266000000000000000e+03 6.177560424804687500e+01 9.456175804138183594e+00 5.736307501792907715e-01 6.425867080688476562e+00 2.099849224090576172e+00 1.279075264930725098e+00
1.267000000000000000e+03 5.633703231811523438e+01 -6.321545243263244629e-01 1.603931307792663574e+00 2.829999685287475586e+00 1.330179214477539062e+00 2.028495073318481445e+00
1.268000000000000000e+03 4.774998855590820312e+01 -5.110447883605957031e+00 -4.661371707916259766e+00 -5.705797672271728516e-01 -1.569585442543029785e+00 1.487287521362304688e+00
1.269000000000000000e+03 4.504419326782226562e+01 -4.255263328552246094e+00 -5.401803493499755859e+00 -5.287395715713500977e-01 -1.779163002967834473e+00 1.750356674194335938e+00
1.270000000000000000e+03 4.253034210205078125e+01 -3.434917211532592773e+00 -5.206204414367675781e+00 -1.354885935783386230e+00 -1.968327164649963379e+00 2.235883951187133789e+00
1.271000000000000000e+03 3.723382949829101562e+01 -1.023232221603393555e+00 -2.005783081054687500e+00 3.826161623001098633e-01 -4.869500696659088135e-01 4.754320681095123291e-01
1.272000000000000000e+03 3.658108901977539062e+01 -1.769844174385070801e+00 -2.311699151992797852e+00 5.321098566055297852e-01 -5.338767766952514648e-01 4.671064615249633789e-01
1.273000000000000000e+03 3.544204711914062500e+01 -1.368875503540039062e+00 -2.518652677536010742e+00 4.345387220382690430e-01 -6.252341866493225098e-01 6.927080452442169189e-02
1.274000000000000000e+03 3.485309600830078125e+01 -1.303360581398010254e+00 -2.807281017303466797e+00 4.498682916164398193e-01 -7.072238326072692871e-01 -2.926245704293251038e-02
1.275000000000000000e+03 3.421340179443359375e+01 -1.663478136062622070e+00 -2.985989570617675781e+00 2.359679490327835083e-01 -8.250065445899963379e-01 2.182404696941375732e-01
1.276000000000000000e+03 3.116383934020996094e+01 -1.618598222732543945e+00 -3.009343862533569336e+00 3.112023472785949707e-01 -8.094424605369567871e-01 -2.356189936399459839e-01
1.277000000000000000e+03 2.918176078796386719e+01 -1.854214191436767578e+00 -2.486824512481689453e+00 9.985099732875823975e-02 -7.160920500755310059e-01 -3.735187053680419922e-01
1.278000000000000000e+03 2.803336715698242188e+01 -2.027985811233520508e+00 -2.181461334228515625e+00 -5.552087724208831787e-02 -6.710946559906005859e-01 -4.806521236896514893e-01
1.279000000000000000e+03 2.679575729370117188e+01 -2.095006465911865234e+00 -1.840803027153015137e+00 -2.499987483024597168e-01 -6.272405385971069336e-01 -5.655083656311035156e-01
1.280000000000000000e+03 2.276842880249023438e+01 -6.630992889404296875e-01 -6.878556013107299805e-01 1.216413453221321106e-01 -1.698642671108245850e-01 -1.386563628911972046e-01
1.281000000000000000e+03 2.042336082458496094e+01 -1.230824112892150879e+00 -3.980890810489654541e-01 -2.776276133954524994e-02 -1.277555525302886963e-01 -2.362072318792343140e-01
1.282000000000000000e+03 1.728798484802246094e+01 -1.651283264160156250e+00 -1.146422475576400757e-01 -6.133338063955307007e-02 -5.279268696904182434e-02 -2.008761316537857056e-01
1.283000000000000000e+03 1.650809478759765625e+01 -1.698020815849304199e+00 -5.713441222906112671e-02 -5.720543488860130310e-02 -3.430195525288581848e-02 -1.702897995710372925e-01
1.284000000000000000e+03 1.345233917236328125e+01 -1.794034361839294434e+00 9.768868982791900635e-02 -3.192101791501045227e-02 1.973030343651771545e-02 -5.557784438133239746e-02
1.285000000000000000e+03 1.497130393981933594e+01 -1.745031118392944336e+00 3.717381134629249573e-02 -4.425518587231636047e-02 -2.124413149431347847e-03 -1.093598008155822754e-01
1.286000000000000000e+03 1.194128322601318359e+01 -1.839776873588562012e+00 1.287884861230850220e-01 -2.237704023718833923e-02 3.192343562841415405e-02 -1.212099846452474594e-02
1.287000000000000000e+03 8.980819702148437500e+00 -2.646049737930297852e+00 7.388785481452941895e-02 -2.239165268838405609e-02 1.544886175543069839e-02 4.291177913546562195e-02
1.288000000000000000e+03 8.110570907592773438e+00 -1.899407744407653809e+00 1.199745535850524902e-01 -9.173057042062282562e-03 3.324044868350028992e-02 4.767328500747680664e-02
1.289000000000000000e+03 4.140663146972656250e+00 -1.903821229934692383e+00 5.359660834074020386e-02 5.315244197845458984e-03 1.767355576157569885e-02 5.419583991169929504e-02
1.290000000000000000e+03 2.775318861007690430e+00 -1.815420389175415039e+00 3.048434481024742126e-02 1.302189379930496216e-02 1.305187121033668518e-02 4.283200204372406006e-02
1.291000000000000000e+03 2.081680536270141602e+00 -1.972347021102905273e+00 1.993427984416484833e-02 1.840342953801155090e-02 1.150131225585937500e-02 3.554185479879379272e-02
1.292000000000000000e+03 1.056818723678588867e+00 -3.861391067504882812e+01 -8.590619545429944992e-04 -1.258345246315002441e+00 -3.777613043785095215e-01 1.741494797170162201e-02
1.293000000000000000e+03 7.369143962860107422e-01 -3.336637496948242188e+01 -1.021311967633664608e-03 -1.289610505104064941e+00 -3.871895670890808105e-01 -7.884582504630088806e-03
1.294000000000000000e+03 7.108622789382934570e-01 -3.194358444213867188e+01 8.273587562143802643e-03 -1.264004230499267578e+00 -3.767191767692565918e-01 -1.584325730800628662e-02
1.295000000000000000e+03 8.132674694061279297e-01 -2.917085647583007812e+01 4.970819689333438873e-03 -1.173700213432312012e+00 -3.506188094615936279e-01 -3.033587150275707245e-02
1.296000000000000000e+03 7.847040891647338867e-01 -2.631559753417968750e+01 7.392264902591705322e-03 -1.036947369575500488e+00 -3.088665306568145752e-01 -4.757991060614585876e-02
1.297000000000000000e+03 2.007965803146362305e+00 -2.206491279602050781e+01 1.132927648723125458e-02 -6.315490007400512695e-01 -1.860659271478652954e-01 -1.806632280349731445e-01
1.298000000000000000e+03 2.008680343627929688e+00 -1.922051429748535156e+01 -1.157494261860847473e-03 -4.057838916778564453e-01 -1.220824196934700012e-01 -1.906346231698989868e-01
1.299000000000000000e+03 6.722502708435058594e-01 -1.635549545288085938e+01 -5.232401192188262939e-03 -1.330716311931610107e-01 -4.149121046066284180e-02 -5.926342308521270752e-02
1.300000000000000000e+03 1.992511153221130371e+00 -1.494372463226318359e+01 -2.490089461207389832e-02 -9.551326185464859009e-02 -3.612424805760383606e-02 -1.380303651094436646e-01
1.301000000000000000e+03 6.392974853515625000e-01 -9.293747901916503906e+00 -4.498840775340795517e-03 1.852290332317352295e-01 5.421905964612960815e-02 -2.524891751818358898e-04
1.302000000000000000e+03 1.887186646461486816e+00 -5.359228134155273438e+00 -4.479973111301660538e-03 7.269167155027389526e-02 2.046350948512554169e-02 4.806984961032867432e-02
1.303000000000000000e+03 7.966159057617187500e+01 -1.863276100158691406e+01 -7.103294774424284697e-05 8.574616367695853114e-05 4.413964234117884189e-06 -3.278797885286621749e-05
1.304000000000000000e+03 7.946834564208984375e+01 -2.274491500854492188e+01 5.236233846517279744e-05 7.460834458470344543e-04 2.395337360212579370e-04 -6.682972161797806621e-05
1.305000000000000000e+03 7.839044189453125000e+01 -2.272032546997070312e+01 -1.322816387983039021e-04 3.432105877436697483e-04 6.327869050437584519e-05 -1.598683593329042196e-04
1.306000000000000000e+03 7.938685607910156250e+01 -2.680174446105957031e+01 -8.341483044205233455e-05 4.560425877571105957e-04 1.117883293773047626e-04 1.968731376109644771e-04
1.307000000000000000e+03 7.814392852783203125e+01 -2.672215080261230469e+01 -2.693990827538073063e-04 -2.772797015495598316e-04 -1.640036352910101414e-04 6.057993159629404545e-04
1.308000000000000000e+03 7.940143585205078125e+01 -3.087604141235351562e+01 -4.364661799627356231e-05 -2.640972845256328583e-03 -8.053858182393014431e-04 7.082076044753193855e-04
1.309000000000000000e+03 7.820024108886718750e+01 -3.210622024536132812e+01 -1.480408100178465247e-04 -4.556960891932249069e-03 -1.411500503309071064e-03 2.418905496597290039e-03
1.310000000000000000e+03 7.935556030273437500e+01 -3.489573669433593750e+01 -1.015293019008822739e-04 -8.765157312154769897e-03 -2.660006051883101463e-03 1.074142172001302242e-03
1.311000000000000000e+03 7.782806396484375000e+01 -3.588342285156250000e+01 1.685553579591214657e-04 -9.509329684078693390e-03 -2.802232280373573303e-03 3.234168514609336853e-03
1.312000000000000000e+03 7.903955841064453125e+01 -3.884829711914062500e+01 4.785547571373172104e-05 -1.379087753593921661e-02 -4.122906364500522614e-03 8.349707932211458683e-04
1.313000000000000000e+03 7.708156585693359375e+01 -1.828566360473632812e+01 1.337351568508893251e-04 1.949897750819218345e-06 4.070551585755310953e-05 -2.074342046398669481e-04
1.314000000000000000e+03 7.644771575927734375e+01 -1.825758552551269531e+01 1.957064814632758498e-04 -9.426304131920915097e-06 5.588405474554747343e-05 -1.822088524932041764e-04
1.315000000000000000e+03 7.362905120849609375e+01 -1.819851684570312500e+01 2.129624190274626017e-04 -1.289311740038101561e-06 6.350193143589422107e-05 -3.298625961178913713e-05
1.316000000000000000e+03 7.506983947753906250e+01 -1.822140884399414062e+01 2.186189085477963090e-04 -1.964508737728465348e-05 5.969214544165879488e-05 -1.679903507465496659e-04
1.317000000000000000e+03 7.218030548095703125e+01 -1.829826164245605469e+01 2.606076013762503862e-04 -1.492219041665521218e-07 7.813751290086656809e-05 9.346217848360538483e-05
1.318000000000000000e+03 6.573673248291015625e+01 -2.539705276489257812e+01 -3.952530212700366974e-03 -6.030125077813863754e-04 -1.366662792861461639e-03 -9.288630099035799503e-04
1.319000000000000000e+03 6.147127914428710938e+01 -2.913201141357421875e+01 -5.440689623355865479e-02 -6.825612857937812805e-03 -1.836975291371345520e-02 -1.019823551177978516e-02
1.320000000000000000e+03 5.747622680664062500e+01 -3.062609863281250000e+01 -1.519716680049896240e-01 2.257124520838260651e-03 -4.491436108946800232e-02 -6.649872753769159317e-03
1.321000000000000000e+03 5.298329162597656250e+01 -3.282734298706054688e+01 -4.788775742053985596e-02 3.340381756424903870e-02 -4.345182329416275024e-03 -3.131354227662086487e-03
1.322000000000000000e+03 5.304020690917968750e+01 -3.080601501464843750e+01 -2.235858738422393799e-01 -2.377220196649432182e-03 -6.778892874717712402e-02 2.424257434904575348e-02
1.323000000000000000e+03 4.556709289550781250e+01 -2.422334861755371094e+01 1.051559597253799438e-01 1.683522462844848633e+00 5.366035103797912598e-01 -2.499021738767623901e-01
1.324000000000000000e+03 4.405643844604492188e+01 -1.949819755554199219e+01 -1.840936243534088135e-01 1.926141977310180664e+00 5.226145386695861816e-01 -4.736706316471099854e-01
1.325000000000000000e+03 3.956046295166015625e+01 3.546487092971801758e+00 -1.701670465990900993e-03 -4.141941608395427465e-04 -6.347593734972178936e-04 3.126629453618079424e-04
1.326000000000000000e+03 3.519820404052734375e+01 2.175885438919067383e+00 -6.986209191381931305e-04 5.539483972825109959e-04 -4.340175655670464039e-05 -2.897186495829373598e-04
1.327000000000000000e+03 3.553654861450195312e+01 3.310213327407836914e+00 7.130097365006804466e-04 -1.297558424994349480e-03 -1.753646211000159383e-04 8.860997622832655907e-04
1.328000000000000000e+03 3.322747039794921875e+01 2.503506422042846680e+00 1.906750025227665901e-03 9.225212852470576763e-05 5.997006082907319069e-04 -5.458203959278762341e-04
1.329000000000000000e+03 3.342429351806640625e+01 1.862559318542480469e+00 -7.264999439939856529e-04 4.850395198445767164e-04 -7.243811705848202109e-05 2.793869934976100922e-04
1.330000000000000000e+03 3.401665115356445312e+01 1.995148062705993652e+00 7.751192315481603146e-04 7.310792570933699608e-04 4.518595524132251740e-04 -8.637696737423539162e-04
1.331000000000000000e+03 3.416729354858398438e+01 2.293736219406127930e+00 -2.479889371898025274e-04 -1.233968534506857395e-03 -4.445872327778488398e-04 5.573543603532016277e-04
1.332000000000000000e+03 3.389670562744140625e+01 2.622115135192871094e+00 7.036450551822781563e-04 1.253181253559887409e-03 5.870478926226496696e-04 -1.006361097097396851e-03
1.333000000000000000e+03 3.443233489990234375e+01 1.985808849334716797e+00 7.644787547178566456e-04 1.236370764672756195e-03 6.002548616379499435e-04 -4.450771084520965815e-04
1.334000000000000000e+03 4.352508544921875000e+01 -1.747568130493164062e+01 1.271301209926605225e-01 2.469309568405151367e+00 7.789319157600402832e-01 -9.963348507881164551e-01
1.335000000000000000e+03 4.342929458618164062e+01 -1.798771095275878906e+01 -6.641957163810729980e-02 2.576868057250976562e+00 7.531345486640930176e-01 -8.013149499893188477e-01
1.336000000000000000e+03 4.308923721313476562e+01 -1.714290428161621094e+01 3.471693396568298340e-02 3.398402929306030273e+00 1.029935956001281738e+00 -1.061874866485595703e+00
1.337000000000000000e+03 4.297173690795898438e+01 -1.725003814697265625e+01 -4.217944666743278503e-02 3.662832021713256836e+00 1.086195826530456543e+00 -9.956246614456176758e-01
1.338000000000000000e+03 4.223818969726562500e+01 -1.662812042236328125e+01 -7.419612258672714233e-02 6.045590400695800781e+00 1.791418313980102539e+00 -1.927382349967956543e-01
1.339000000000000000e+03 4.238813781738281250e+01 -1.676527976989746094e+01 -8.905607461929321289e-02 5.493555545806884766e+00 1.621349930763244629e+00 -4.656338989734649658e-01
1.340000000000000000e+03 4.186471939086914062e+01 -1.644492721557617188e+01 4.117510020732879639e-01 6.387891769409179688e+00 2.039892911911010742e+00 8.197168707847595215e-01
1.341000000000000000e+03 4.165632247924804688e+01 -1.629851722717285156e+01 7.276827692985534668e-01 6.709422111511230469e+00 2.231131315231323242e+00 1.456761837005615234e+00
1.342000000000000000e+03 4.334079360961914062e+01 -1.773876190185546875e+01 -4.779778420925140381e-02 2.779439210891723633e+00 8.194924592971801758e-01 -8.832660913467407227e-01
1.343000000000000000e+03 4.129273223876953125e+01 -1.601317977905273438e+01 2.345373630523681641e+00 5.882582664489746094e+00 2.468386888504028320e+00 2.098214626312255859e+00
1.344000000000000000e+03 3.078255844116210938e+01 -1.681097388267517090e+00 -2.900591611862182617e+00 3.189092278480529785e-01 -7.745047211647033691e-01 -2.444848716259002686e-01
1.345000000000000000e+03 3.018250465393066406e+01 -1.780264854431152344e+00 -2.693279504776000977e+00 2.438731491565704346e-01 -7.348219156265258789e-01 -2.765900492668151855e-01
1.346000000000000000e+03 2.839918518066406250e+01 -1.915137648582458496e+00 -2.330341100692749023e+00 -6.133669521659612656e-03 -7.009424567222595215e-01 -4.442760646343231201e-01
1.347000000000000000e+03 2.859109497070312500e+01 -1.909149169921875000e+00 -2.381240367889404297e+00 1.237784605473279953e-02 -7.106587886810302734e-01 -4.332844018936157227e-01
1.348000000000000000e+03 2.998109054565429688e+01 -1.801101565361022949e+00 -2.648119211196899414e+00 2.164493352174758911e-01 -7.295009493827819824e-01 -2.977041304111480713e-01
1.349000000000000000e+03 2.898493194580078125e+01 -1.865498781204223633e+00 -2.445560693740844727e+00 7.658847421407699585e-02 -7.106916308403015137e-01 -4.017882943153381348e-01
1.350000000000000000e+03 2.881240081787109375e+01 -2.129207372665405273e+00 -2.247287034988403320e+00 6.688553839921951294e-02 -6.541204452514648438e-01 -4.559764862060546875e-01
1.351000000000000000e+03 2.698668479919433594e+01 -2.090132713317871094e+00 -1.920416593551635742e+00 -2.270341068506240845e-01 -6.442351937294006348e-01 -5.363673567771911621e-01
1.352000000000000000e+03 2.639760971069335938e+01 -2.215121030807495117e+00 -1.655316472053527832e+00 -2.707953155040740967e-01 -5.778335332870483398e-01 -6.488324403762817383e-01
1.353000000000000000e+03 2.661385536193847656e+01 -2.129419565200805664e+00 -1.745421886444091797e+00 -2.301368862390518188e-01 -5.926676392555236816e-01 -6.200733184814453125e-01
1.354000000000000000e+03 3.097790527343750000e+01 -1.651756286621093750e+00 -2.949646711349487305e+00 3.237551450729370117e-01 -7.877674698829650879e-01 -1.785660982131958008e-01
1.355000000000000000e+03 2.977824592590332031e+01 -1.808700323104858398e+00 -2.593179225921630859e+00 1.880039572715759277e-01 -7.215525507926940918e-01 -3.223456740379333496e-01
1.356000000000000000e+03 2.937828063964843750e+01 -1.834283113479614258e+00 -2.519191265106201172e+00 1.255857497453689575e-01 -7.180816531181335449e-01 -3.642622232437133789e-01
1.357000000000000000e+03 2.759117317199707031e+01 -2.035309553146362305e+00 -2.076874732971191406e+00 -1.257638484239578247e-01 -6.607915759086608887e-01 -4.975951015949249268e-01
1.358000000000000000e+03 2.593877601623535156e+01 -2.274732828140258789e+00 -1.534780979156494141e+00 -1.633056849241256714e-01 -5.094259977340698242e-01 -7.212561964988708496e-01
1.359000000000000000e+03 4.650836563110351562e+01 -1.538152217864990234e+01 1.835385799407958984e+00 -2.906095385551452637e-01 4.634328782558441162e-01 -6.341741234064102173e-02
1.360000000000000000e+03 4.606587219238281250e+01 -1.458214187622070312e+01 2.743610143661499023e+00 -4.429655373096466064e-01 6.901934146881103516e-01 1.800967752933502197e-01
1.361000000000000000e+03 4.386525726318359375e+01 -1.364387798309326172e+01 4.948671340942382812e+00 1.737203598022460938e+00 2.005762577056884766e+00 2.260904073715209961e+00
1.362000000000000000e+03 4.443225479125976562e+01 -1.377378845214843750e+01 4.770574569702148438e+00 3.541209101676940918e-01 1.537408590316772461e+00 1.449061512947082520e+00
1.363000000000000000e+03 4.565341567993164062e+01 -1.491916275024414062e+01 2.650817632675170898e+00 -3.659793138504028320e-01 6.854515075683593750e-01 -9.266901761293411255e-02
1.364000000000000000e+03 4.403150558471679688e+01 -1.379347801208496094e+01 5.245750904083251953e+00 9.371764659881591797e-01 1.854878306388854980e+00 1.897615790367126465e+00
1.365000000000000000e+03 4.453640747070312500e+01 -1.416211605072021484e+01 4.574924945831298828e+00 1.937726512551307678e-02 1.378290653228759766e+00 7.693744897842407227e-01
1.366000000000000000e+03 4.586777877807617188e+01 -1.502221870422363281e+01 2.406717538833618164e+00 -3.497914373874664307e-01 6.170778274536132812e-01 -1.000067368149757385e-01
1.367000000000000000e+03 3.524286270141601562e+01 -1.785101056098937988e+00 -2.555745124816894531e+00 4.537453055381774902e-01 -6.305999159812927246e-01 2.456127256155014038e-01
1.368000000000000000e+03 3.503488540649414062e+01 -1.232432842254638672e+00 -2.649210691452026367e+00 3.868786692619323730e-01 -6.786996126174926758e-01 -2.879366651177406311e-02
1.369000000000000000e+03 3.465103530883789062e+01 -1.332152128219604492e+00 -2.897211790084838867e+00 3.901463150978088379e-01 -7.521196603775024414e-01 4.222638532519340515e-02
1.370000000000000000e+03 3.448148727416992188e+01 -1.905864119529724121e+00 -2.698419332504272461e+00 2.919150590896606445e-01 -7.219512462615966797e-01 2.882985770702362061e-01
1.371000000000000000e+03 3.463060760498046875e+01 -1.626186370849609375e+00 -2.914479970932006836e+00 3.809767067432403564e-01 -7.600509524345397949e-01 1.963939219713211060e-01
1.372000000000000000e+03 3.286662292480468750e+01 2.080636978149414062e+00 -7.312454399652779102e-04 -8.399405633099377155e-04 -4.713558009825646877e-04 6.308811134658753872e-04
1.373000000000000000e+03 3.300456237792968750e+01 1.820489048957824707e+00 8.158963755704462528e-04 1.473149168305099010e-04 2.889633760787546635e-04 -2.291436248924583197e-04
1.374000000000000000e+03 1.427490615844726562e+01 1.975650405883789062e+01 -3.276270115748047829e-03 1.727945404127240181e-03 -4.644974251277744770e-04 -1.231073751114308834e-03
1.375000000000000000e+03 1.522185611724853516e+01 1.994089889526367188e+01 -1.513686962425708771e-03 1.897078822366893291e-03 1.150175667135044932e-04 -7.539564394392073154e-04
1.376000000000000000e+03 1.431699943542480469e+01 1.858902740478515625e+01 6.521953619085252285e-04 2.310476265847682953e-03 8.888015290722250938e-04 3.982425841968506575e-04
1.377000000000000000e+03 1.478007888793945312e+01 1.898333168029785156e+01 8.116951794363558292e-04 4.428895656019449234e-03 1.572177279740571976e-03 6.111404509283602238e-04
1.378000000000000000e+03 1.552555656433105469e+01 2.017681694030761719e+01 -3.107279073446989059e-03 -8.132408256642520428e-04 -1.176155987195670605e-03 -1.003227545879781246e-03
1.379000000000000000e+03 1.459596061706542969e+01 2.029550743103027344e+01 -6.013624370098114014e-03 1.739833387546241283e-03 -1.282137236557900906e-03 -1.978580839931964874e-03
1.380000000000000000e+03 1.474593830108642578e+01 1.779457092285156250e+01 -5.055756773799657822e-04 3.374839900061488152e-03 8.607792551629245281e-04 2.148073108401149511e-04
1.381000000000000000e+03 1.531472873687744141e+01 1.219713592529296875e+01 -1.236858079209923744e-04 4.034574958495795727e-04 8.393151074415072799e-05 -1.020277486531995237e-04
1.382000000000000000e+03 1.548980236053466797e+01 1.080528640747070312e+01 -1.499234203947708011e-04 1.612331107025966048e-04 3.392905910004628822e-06 -7.030864071566611528e-05
1.383000000000000000e+03 2.030706024169921875e+01 2.207341003417968750e+01 -6.070674583315849304e-02 -8.866400457918643951e-05 -1.823862269520759583e-02 -6.280497647821903229e-03
1.384000000000000000e+03 1.466734981536865234e+01 1.499375057220458984e+01 3.869996289722621441e-04 1.620765076950192451e-03 6.023293826729059219e-04 3.188233677064999938e-05
1.385000000000000000e+03 1.471842002868652344e+01 1.458404254913330078e+01 -3.000989963766187429e-04 1.409525750204920769e-03 3.328280290588736534e-04 -3.794067015405744314e-05
1.386000000000000000e+03 1.498841857910156250e+01 2.044261550903320312e+01 -6.973274052143096924e-03 1.330967759713530540e-03 -1.692691817879676819e-03 -1.557542127557098866e-03
1.387000000000000000e+03 1.800194549560546875e+01 2.267148590087890625e+01 -3.651612624526023865e-02 -4.079790669493377209e-04 -1.107723079621791840e-02 3.490610281005501747e-03
1.388000000000000000e+03 1.625153732299804688e+01 2.111865425109863281e+01 -1.529382541775703430e-02 -1.303611090406775475e-03 -4.979230929166078568e-03 -2.904496854171156883e-03
1.389000000000000000e+03 1.568938922882080078e+01 2.077557182312011719e+01 -9.579255245625972748e-03 -2.098262484651058912e-04 -2.936724573373794556e-03 -2.249503508210182190e-03
1.390000000000000000e+03 1.665288352966308594e+01 9.302441596984863281e+00 1.112545141950249672e-04 7.654286309843882918e-05 5.633921318803913891e-05 3.291309258202090859e-05
1.391000000000000000e+03 1.677482795715332031e+01 8.909225463867187500e+00 -1.265284809051081538e-04 9.937927643477451056e-06 -3.497716534184291959e-05 -1.912691186589654535e-05
1.392000000000000000e+03 1.469175815582275391e+01 1.309202575683593750e+01 5.460467036755289882e-06 7.666429737582802773e-04 2.316310274181887507e-04 1.215369502460816875e-05
1.393000000000000000e+03 1.486739730834960938e+01 1.374944114685058594e+01 -1.953918108483776450e-04 8.546128519810736179e-04 1.977663196157664061e-04 -1.356826251139864326e-04
1.394000000000000000e+03 1.792003631591796875e+01 2.155497741699218750e+01 -3.012571111321449280e-02 -1.041264622472226620e-03 -9.350093081593513489e-03 -5.757097620517015457e-03
1.395000000000000000e+03 1.518054389953613281e+01 1.260316944122314453e+01 1.478692429373040795e-04 4.981618258170783520e-04 1.938093191711232066e-04 -4.125685518374666572e-05
1.396000000000000000e+03 2.070916175842285156e+01 2.214595413208007812e+01 -7.205247879028320312e-02 -2.501276787370443344e-03 -2.236612699925899506e-02 -5.973997525870800018e-03
1.397000000000000000e+03 1.958437347412109375e+01 6.924932956695556641e+00 2.783196396194398403e-05 2.545365714468061924e-05 1.598568633198738098e-05 2.907380985561758280e-05
1.398000000000000000e+03 1.727124595642089844e+01 9.124011993408203125e+00 7.014326547505334020e-05 5.185837653698399663e-05 3.660049333120696247e-05 4.055605313624255359e-05
1.399000000000000000e+03 1.820764923095703125e+01 8.271517753601074219e+00 -4.871319470112212002e-05 -6.204840610735118389e-05 -3.322847987874411047e-05 -4.326090493123047054e-05
1.400000000000000000e+03 1.751189231872558594e+01 2.144762992858886719e+01 -2.716202475130558014e-02 -2.278167288750410080e-03 -8.832057937979698181e-03 -5.508728791028261185e-03
1.401000000000000000e+03 1.639198875427246094e+01 1.046460628509521484e+01 1.728597271721810102e-04 1.443766377633437514e-04 9.517090802546590567e-05 8.372809679713100195e-05
1.402000000000000000e+03 1.650953483581542969e+01 9.652715682983398438e+00 -9.750445315148681402e-05 -1.350520778942154720e-05 -3.330289837322197855e-05 -7.144053233787417412e-05
1.403000000000000000e+03 2.049085807800292969e+01 6.116584300994873047e+00 -2.724465230130590498e-05 -2.265995135530829430e-05 -1.497138146078214049e-05 -1.918353154906071723e-05
1.404000000000000000e+03 1.932424545288085938e+01 7.214056968688964844e+00 -4.417939271661452949e-05 -5.353387314244173467e-05 -2.931398012151475996e-05 -3.930468665203079581e-05
1.405000000000000000e+03 2.303927040100097656e+01 3.029979467391967773e+00 -6.411198683053953573e-06 -2.949255394923966378e-05 -1.077112574421335012e-05 -1.827733103709761053e-05
1.406000000000000000e+03 1.633273124694824219e+01 9.972358703613281250e+00 8.884057751856744289e-05 1.616189547348767519e-04 7.513786113122478127e-05 4.721862569567747414e-05
1.407000000000000000e+03 2.225707244873046875e+01 4.015423774719238281e+00 -1.019257706502685323e-05 -2.315949495823588222e-05 -1.000562133413041010e-05 -9.298103577748406678e-06
1.408000000000000000e+03 2.175912094116210938e+01 3.243401288986206055e+00 1.134802118940569926e-06 2.350515751459170133e-05 7.391988219751510769e-06 -7.775408334964595269e-07
1.409000000000000000e+03 2.341081809997558594e+01 3.541411638259887695e+00 -2.364005922572687268e-05 -1.971757455976330675e-06 -7.683544936298858374e-06 -1.575328315084334463e-05
1.410000000000000000e+03 1.534367465972900391e+01 2.061229324340820312e+01 -7.612870074808597565e-03 1.635081483982503414e-03 -1.793336588889360428e-03 -2.147328574210405350e-03
1.411000000000000000e+03 2.173867034912109375e+01 5.104355335235595703e+00 -2.260171640955377370e-05 -2.195698652940336615e-05 -1.336761124548502266e-05 -1.934475767484400421e-05
1.412000000000000000e+03 1.431675720214843750e+01 1.820060729980468750e+01 -3.715185157489031553e-04 2.513456624001264572e-03 6.425814353860914707e-04 5.629758234135806561e-04
1.413000000000000000e+03 1.427474498748779297e+01 1.704105567932128906e+01 4.294703248888254166e-04 2.080546924844384193e-03 7.530051516368985176e-04 3.977579181082546711e-04
1.414000000000000000e+03 1.501174163818359375e+01 1.336681365966796875e+01 2.911295741796493530e-04 7.226819288916885853e-04 3.041434683836996555e-04 -2.355821743549313396e-05
1.415000000000000000e+03 1.980668830871582031e+01 2.254054069519042969e+01 -5.641775950789451599e-02 5.172627279534935951e-04 -1.677014864981174469e-02 1.413933234289288521e-03
1.416000000000000000e+03 1.950716781616210938e+01 2.193091773986816406e+01 -4.961907118558883667e-02 -4.775579145643860102e-04 -1.502898801118135452e-02 -5.532846320420503616e-03
1.417000000000000000e+03 2.168823432922363281e+01 4.532065868377685547e+00 -1.214918756886618212e-05 -2.745460005826316774e-05 -1.188113583339145407e-05 -2.027869413723237813e-05
1.418000000000000000e+03 2.112566184997558594e+01 5.609826087951660156e+00 -2.350882459722924978e-05 -2.232382939837407321e-05 -1.374979638057993725e-05 -1.690134740783832967e-05
1.419000000000000000e+03 1.816612625122070312e+01 2.216295051574707031e+01 -3.690036758780479431e-02 2.253783750347793102e-04 -1.100249681621789932e-02 -1.131173339672386646e-03
1.420000000000000000e+03 1.851088142395019531e+01 8.020789146423339844e+00 5.324285302776843309e-05 5.643739496008493006e-05 3.290407403255812824e-05 5.738653271691873670e-05
1.421000000000000000e+03 1.436922454833984375e+01 1.279478263854980469e+01 1.263964659301564097e-04 5.129173514433205128e-04 1.917941408464685082e-04 2.389118308201432228e-04
1.422000000000000000e+03 1.474032497406005859e+01 1.739942741394042969e+01 4.670363268814980984e-04 3.035183064639568329e-03 1.050665741786360741e-03 1.767331123119220138e-04
1.423000000000000000e+03 1.431123161315917969e+01 1.781256675720214844e+01 4.773061082232743502e-04 2.435012254863977432e-03 8.736955351196229458e-04 4.832607519347220659e-04
1.424000000000000000e+03 1.907246589660644531e+01 7.502514839172363281e+00 5.381389928516000509e-05 5.558404882322065532e-05 3.281938552390784025e-05 6.531496910611167550e-05
1.425000000000000000e+03 2.081058311462402344e+01 5.862044811248779297e+00 1.916682413138914853e-05 1.858893483586143702e-05 1.132672787207411602e-05 2.219853195128962398e-05
1.426000000000000000e+03 1.424665260314941406e+01 1.665485000610351562e+01 -3.299848467577248812e-04 1.865541911683976650e-03 4.606671282090246677e-04 4.614265926647931337e-04
1.427000000000000000e+03 1.473201465606689453e+01 1.700496101379394531e+01 -4.020884225610643625e-04 2.708474639803171158e-03 6.919158622622489929e-04 1.989648008020594716e-04
1.428000000000000000e+03 1.511815834045410156e+01 1.300526332855224609e+01 -2.026304864557459950e-04 5.271262489259243011e-04 9.734872583067044616e-05 -1.629694306757301092e-04
1.429000000000000000e+03 1.457987308502197266e+01 1.241503334045410156e+01 -1.959356159204617143e-04 4.153506888542324305e-04 6.582451896974816918e-05 4.710067514679394662e-06
1.430000000000000000e+03 2.820401573181152344e+01 2.144781494140625000e+01 -1.338574290275573730e-01 -6.037516891956329346e-02 -5.826978012919425964e-02 6.765054911375045776e-02
1.431000000000000000e+03 2.830842018127441406e+01 2.075407218933105469e+01 -1.914347112178802490e-01 -6.440770626068115234e-02 -7.675272226333618164e-02 9.511853009462356567e-02
1.432000000000000000e+03 2.313227653503417969e+01 2.208810043334960938e+01 -1.072751730680465698e-01 -5.322116892784833908e-03 -3.377918526530265808e-02 2.138321660459041595e-02
1.433000000000000000e+03 2.316884040832519531e+01 2.264543533325195312e+01 -1.006051823496818542e-01 -7.196387741714715958e-03 -3.234047070145606995e-02 2.273208834230899811e-02
1.434000000000000000e+03 3.030396080017089844e+01 1.914045906066894531e+01 -6.362836062908172607e-02 -8.153216540813446045e-02 -4.354815557599067688e-02 6.785976141691207886e-02
1.435000000000000000e+03 3.347300338745117188e+01 4.951581001281738281e+00 9.053857065737247467e-04 3.679936635307967663e-04 3.820137935690581799e-04 1.615546789253130555e-04
1.436000000000000000e+03 3.348933792114257812e+01 4.556062221527099609e+00 -1.166318776085972786e-03 7.034296868368983269e-05 -3.287927538622170687e-04 -4.764815967064350843e-04
1.437000000000000000e+03 3.393866729736328125e+01 6.203119754791259766e+00 6.600826163776218891e-04 7.344267796725034714e-04 4.183528362773358822e-04 1.369823985442053527e-05
1.438000000000000000e+03 3.076094627380371094e+01 1.845486068725585938e+01 -4.727303236722946167e-02 -6.892106682062149048e-02 -3.485823050141334534e-02 5.365631356835365295e-02
1.439000000000000000e+03 3.102978324890136719e+01 1.675904083251953125e+01 -1.261965185403823853e-02 -5.429310724139213562e-02 -2.007382735610008240e-02 2.578511461615562439e-02
1.440000000000000000e+03 3.264104080200195312e+01 1.392826366424560547e+01 -7.112030405551195145e-03 -9.394250810146331787e-03 -4.951884038746356964e-03 1.037079840898513794e-02
1.441000000000000000e+03 3.246269607543945312e+01 1.291496849060058594e+01 -1.847188454121351242e-03 -3.886773018166422844e-03 -1.720188418403267860e-03 3.750043222680687904e-03
1.442000000000000000e+03 3.388280487060546875e+01 4.620707035064697266e+00 4.817358567379415035e-04 6.662915111519396305e-04 3.444082103669643402e-04 3.663225797936320305e-04
1.443000000000000000e+03 3.335012817382812500e+01 7.752499103546142578e+00 4.446702077984809875e-04 1.913575688377022743e-03 7.074737804941833019e-04 -7.300758152268826962e-04
1.444000000000000000e+03 2.751525878906250000e+01 2.106392288208007812e+01 -1.728838831186294556e-01 -2.853129059076309204e-02 -6.042455136775970459e-02 6.340353935956954956e-02
1.445000000000000000e+03 3.387039184570312500e+01 4.987777709960937500e+00 -8.646771311759948730e-04 1.634035143069922924e-04 -2.103820734191685915e-04 -3.510043025016784668e-04
1.446000000000000000e+03 3.343606185913085938e+01 5.751271247863769531e+00 6.589189288206398487e-04 5.109752528369426727e-04 3.509682719595730305e-04 8.422305836575105786e-05
1.447000000000000000e+03 3.338540649414062500e+01 6.537874698638916016e+00 7.705939933657646179e-04 6.576221785508096218e-04 4.284648457542061806e-04 -5.791070361738093197e-05
1.448000000000000000e+03 2.995249557495117188e+01 1.892261886596679688e+01 -4.758373647928237915e-02 -1.005496159195899963e-01 -4.444000497460365295e-02 6.861043721437454224e-02
1.449000000000000000e+03 3.093087387084960938e+01 1.905532073974609375e+01 -6.552401930093765259e-02 -5.628136172890663147e-02 -3.654161468148231506e-02 5.789764225482940674e-02
1.450000000000000000e+03 2.523040771484375000e+01 2.227827644348144531e+01 -1.162638738751411438e-01 -1.800383999943733215e-02 -4.028031229972839355e-02 3.804719448089599609e-02
1.451000000000000000e+03 2.566021728515625000e+01 2.219120407104492188e+01 -1.195911541581153870e-01 -1.922545768320560455e-02 -4.164498299360275269e-02 4.195236042141914368e-02
1.452000000000000000e+03 3.270180892944335938e+01 1.129064369201660156e+01 1.007808255963027477e-03 2.465966856107115746e-03 1.042132615111768246e-03 1.851215783972293139e-04
1.453000000000000000e+03 2.353129386901855469e+01 2.202904701232910156e+01 -1.117208078503608704e-01 -3.892977721989154816e-03 -3.468413650989532471e-02 2.271208912134170532e-02
1.454000000000000000e+03 2.671649169921875000e+01 2.129198265075683594e+01 -1.488800197839736938e-01 -1.720402948558330536e-02 -4.982521384954452515e-02 5.027658119797706604e-02
1.455000000000000000e+03 3.054150962829589844e+01 1.880331802368164062e+01 -5.358261615037918091e-02 -7.595281302928924561e-02 -3.886062651872634888e-02 6.145655363798141479e-02
1.456000000000000000e+03 2.473195075988769531e+01 2.178826332092285156e+01 -1.281629949808120728e-01 -9.836189448833465576e-03 -4.139975458383560181e-02 3.096226975321769714e-02
1.457000000000000000e+03 3.320595932006835938e+01 8.559095382690429688e+00 5.414077313616871834e-04 2.803177339956164360e-03 1.003375509753823280e-03 -5.920953117311000824e-04
1.458000000000000000e+03 3.156824302673339844e+01 1.524903678894042969e+01 -5.186883267015218735e-03 -2.504052594304084778e-02 -9.068222716450691223e-03 1.277332287281751633e-02
1.459000000000000000e+03 3.186605262756347656e+01 1.449608993530273438e+01 -3.795742057263851166e-03 -1.669155433773994446e-02 -6.146188825368881226e-03 8.923585526645183563e-03
1.460000000000000000e+03 3.200071334838867188e+01 1.411342430114746094e+01 -3.836916526779532433e-03 -1.298113632947206497e-02 -5.045415833592414856e-03 7.081544492393732071e-03
1.461000000000000000e+03 3.116046142578125000e+01 1.637598037719726562e+01 -9.996173903346061707e-03 -4.513271525502204895e-02 -1.653866656124591827e-02 2.020002901554107666e-02
1.462000000000000000e+03 3.129076576232910156e+01 1.599700069427490234e+01 -7.097132503986358643e-03 -3.678431361913681030e-02 -1.316443365067243576e-02 1.738152839243412018e-02
1.463000000000000000e+03 3.298263168334960938e+01 9.718725204467773438e+00 3.537984448485076427e-04 3.534939838573336601e-03 1.166621455922722816e-03 -9.962493786588311195e-04
1.464000000000000000e+03 3.304359817504882812e+01 9.330927848815917969e+00 4.404598439577966928e-04 3.274045418947935104e-03 1.114351558499038219e-03 -7.058702176436781883e-04
1.465000000000000000e+03 3.399415206909179688e+01 4.295715808868408203e+00 4.864852962782606483e-05 -5.298862379277125001e-05 -1.302029090766154695e-06 -9.815145749598741531e-04
1.466000000000000000e+03 3.386558914184570312e+01 9.275585174560546875e+00 -5.417189677245914936e-04 -4.592185141518712044e-04 -3.002812445629388094e-04 2.673513663467019796e-04
1.467000000000000000e+03 3.346992492675781250e+01 9.360128402709960938e+00 -1.874030567705631256e-04 2.455925103276968002e-03 6.805566372349858284e-04 -9.665655088610947132e-04
1.468000000000000000e+03 3.157184600830078125e+01 1.657339286804199219e+01 -1.875552907586097717e-02 -3.883128985762596130e-02 -1.727604493498802185e-02 2.900957502424716949e-02
1.469000000000000000e+03 3.312236785888671875e+01 8.945520401000976562e+00 -2.323014778085052967e-04 2.939649624750018120e-03 8.122044382616877556e-04 -6.544419447891414165e-04
1.470000000000000000e+03 3.277503204345703125e+01 1.089516258239746094e+01 -1.605230849236249924e-03 3.206158522516489029e-03 4.802783078048378229e-04 -5.074629443697631359e-04
1.471000000000000000e+03 3.142588996887207031e+01 1.562226676940917969e+01 -7.052055094391107559e-03 -3.043648786842823029e-02 -1.124656293541193008e-02 1.405186206102371216e-02
1.472000000000000000e+03 3.231667709350585938e+01 1.333043384552001953e+01 -2.846593502908945084e-03 -6.077187601476907730e-03 -2.677134238183498383e-03 4.468407016247510910e-03
1.473000000000000000e+03 3.213173675537109375e+01 1.372263526916503906e+01 -2.683795057237148285e-03 -9.352623485028743744e-03 -3.610925516113638878e-03 6.115085911005735397e-03
1.474000000000000000e+03 7.717314147949218750e+01 -1.458316802978515625e+01 -5.108968541026115417e-02 -2.825124561786651611e-02 -2.380227856338024139e-02 -4.246953502297401428e-02
1.475000000000000000e+03 7.762612152099609375e+01 -1.392263031005859375e+01 -4.709804058074951172e-02 -4.688332974910736084e-02 -2.819441258907318115e-02 -5.131531879305839539e-02
1.476000000000000000e+03 7.814309692382812500e+01 -1.177952861785888672e+01 -3.606960549950599670e-02 -1.181374788284301758e-01 -4.626212641596794128e-02 -9.983868896961212158e-02
1.477000000000000000e+03 7.777433776855468750e+01 -1.457106494903564453e+01 -3.143723681569099426e-02 -1.737104728817939758e-02 -1.464248541742563248e-02 -2.178285829722881317e-02
1.478000000000000000e+03 7.829499816894531250e+01 -2.046905708312988281e+01 -2.078408870147541165e-04 6.720797682646661997e-05 -4.218987305648624897e-05 -2.217756846221163869e-04
1.479000000000000000e+03 7.757308197021484375e+01 -1.911560440063476562e+01 1.274443493457511067e-04 5.374970714910887182e-05 5.435821731225587428e-05 -2.364718675380572677e-04
1.480000000000000000e+03 7.835031127929687500e+01 -1.842588996887207031e+01 1.130592863773927093e-04 8.500421972712501884e-05 5.941905328654684126e-05 -1.903510128613561392e-04
1.481000000000000000e+03 7.948438262939453125e+01 -2.135992622375488281e+01 -6.700123776681721210e-05 5.386372795328497887e-04 1.414908037986606359e-04 -8.337246981682255864e-05
1.482000000000000000e+03 2.248250389099121094e+01 2.875273466110229492e+00 -5.026244252803735435e-06 2.423341356916353106e-05 5.762150976806879044e-06 8.034466191020328552e-06
1.483000000000000000e+03 2.195458412170410156e+01 4.266275405883789062e+00 9.559927093505393714e-06 2.816285450535360724e-05 1.131683438870823011e-05 1.430918564437888563e-05
1.484000000000000000e+03 4.051381683349609375e+01 -6.040904521942138672e-01 -4.004760086536407471e-01 -9.579390883445739746e-01 -4.075245261192321777e-01 5.876985192298889160e-01
1.485000000000000000e+03 4.000513839721679688e+01 -6.745717525482177734e-01 -9.605141878128051758e-01 -3.871541321277618408e-01 -4.043004810810089111e-01 7.785875201225280762e-01
1.486000000000000000e+03 3.864734649658203125e+01 -8.066977858543395996e-01 -1.618560552597045898e+00 1.726984828710556030e-01 -4.337586164474487305e-01 6.871972084045410156e-01
1.487000000000000000e+03 4.099986648559570312e+01 -2.246188879013061523e+00 -2.967073440551757812e+00 -1.429271340370178223e+00 -1.318903446197509766e+00 1.769511342048645020e+00
1.488000000000000000e+03 3.906890487670898438e+01 -1.737936258316040039e+00 -2.109570503234863281e+00 1.372463405132293701e-01 -5.916972756385803223e-01 1.004887104034423828e+00
1.489000000000000000e+03 4.841185760498046875e+01 -1.527177333831787109e+01 1.866157293319702148e+00 5.862718448042869568e-02 5.774353742599487305e-01 3.472764194011688232e-01
1.490000000000000000e+03 7.043421936035156250e+01 -1.385920143127441406e+01 -4.657314121723175049e-01 9.717432409524917603e-02 -1.105671226978302002e-01 -9.264331310987472534e-03
1.491000000000000000e+03 6.796829986572265625e+01 -1.356450462341308594e+01 -7.240749001502990723e-01 7.626280933618545532e-02 -1.943436414003372192e-01 1.278210580348968506e-01
1.492000000000000000e+03 2.034843444824218750e+01 3.006788253784179688e+00 9.000419595395214856e-06 2.864072121155913919e-05 1.129234260588418692e-05 6.518445161418640055e-07
1.493000000000000000e+03 1.759108161926269531e+01 2.639845609664916992e+00 1.109235654439544305e-05 4.330989395384676754e-05 1.632067505852319300e-05 -5.443363988888449967e-06
1.494000000000000000e+03 1.907475852966308594e+01 2.223305940628051758e+00 -7.672661922697443515e-06 -3.935839777113869786e-05 -1.410931781720137224e-05 2.625249862830969505e-06
1.495000000000000000e+03 2.107140350341796875e+01 3.155153512954711914e+00 -5.193584911467041820e-06 -2.529700941522605717e-05 -9.147178388957399875e-06 -1.454370021747308783e-06
1.496000000000000000e+03 1.977653884887695312e+01 6.054004669189453125e+00 -3.090529571636579931e-05 -2.256223706353921443e-05 -1.604025965207256377e-05 -2.567539922893047333e-05
1.497000000000000000e+03 6.985617065429687500e+01 -1.844215202331542969e+01 3.109084791503846645e-04 1.969590957742184401e-04 1.523602695669978857e-04 2.393666363786906004e-04
1.498000000000000000e+03 7.070542144775390625e+01 -1.953256416320800781e+01 7.822357292752712965e-05 -3.119956236332654953e-04 -7.013160939095541835e-05 2.151553781004622579e-04
1.499000000000000000e+03 6.985688018798828125e+01 -1.982418632507324219e+01 2.112195361405611038e-04 1.603724376764148474e-04 1.114775950554758310e-04 1.956794149009510875e-04
1.500000000000000000e+03 1.766454315185546875e+01 2.070604324340820312e+00 -7.079377155605470762e-06 -4.279690983821637928e-05 -1.496288587077287957e-05 6.027524705132236704e-06
1.501000000000000000e+03 1.546688652038574219e+01 2.541722297668457031e+00 -7.529331924160942435e-06 -3.746609581867232919e-05 -1.349862850474892184e-05 1.419104864908149466e-05
1.502000000000000000e+03 1.828248596191406250e+01 2.691640138626098633e+00 -6.415751613531028852e-06 -3.887643470079638064e-05 -1.358765530312666669e-05 4.188486855127848685e-06
1.503000000000000000e+03 1.618105888366699219e+01 2.565898180007934570e+00 1.675984822213649750e-05 4.717134288512170315e-05 1.917935696837957948e-05 -2.339110096727381460e-06
1.504000000000000000e+03 3.608541107177734375e+01 3.596240758895874023e+00 2.368992863921448588e-04 1.164005836471915245e-03 4.202715645078569651e-04 -9.998821187764406204e-04
1.505000000000000000e+03 3.572553253173828125e+01 2.842263221740722656e+00 -5.587598425336182117e-04 1.029643579386174679e-03 1.412651326972991228e-04 -7.060008356347680092e-04
1.506000000000000000e+03 3.461411285400390625e+01 2.156700849533081055e+00 1.517537049949169159e-03 -5.531608476303517818e-04 2.893128548748791218e-04 6.212544394657015800e-04
1.507000000000000000e+03 1.325478553771972656e+01 3.173953056335449219e+00 7.515410743508255109e-06 -4.197867747279815376e-05 -1.033898024616064504e-05 3.046064739464782178e-05
1.508000000000000000e+03 1.478143310546875000e+01 1.897541165351867676e+00 -2.617897052914486267e-06 -4.501167495618574321e-05 -1.428887208021478727e-05 1.439272455172613263e-05
1.509000000000000000e+03 1.180713367462158203e+01 2.542331933975219727e+00 3.702236790559254587e-05 4.942164741805754602e-05 2.593320459709502757e-05 -1.422782702320546377e-06
1.510000000000000000e+03 1.474340057373046875e+01 2.527333736419677734e+00 1.982877256523352116e-05 5.058473107055760920e-05 2.112405127263627946e-05 3.090121481363894418e-06
1.511000000000000000e+03 7.439288330078125000e+01 -1.901489448547363281e+01 1.215607844642363489e-04 -7.008742250036448240e-05 1.544200858916155994e-05 -1.521539379609748721e-04
1.512000000000000000e+03 7.369070434570312500e+01 -1.901488113403320312e+01 2.945129817817360163e-04 -3.144158108625560999e-04 -5.970849997538607568e-06 4.624063512892462313e-05
1.513000000000000000e+03 7.507938385009765625e+01 -1.902044677734375000e+01 1.939200592460110784e-04 -2.001563989324495196e-04 -1.870902565315191168e-06 -8.114810043480247259e-05
1.514000000000000000e+03 1.183748722076416016e+01 1.852981209754943848e+00 1.266225444851443172e-05 -5.105609307065606117e-05 -1.151815195044036955e-05 2.780414433800615370e-05
1.515000000000000000e+03 1.324242973327636719e+01 3.814292192459106445e+00 2.673836934263817966e-05 5.628435610560700297e-05 2.490681799827143550e-05 1.663182047195732594e-05
1.516000000000000000e+03 1.254504680633544922e+01 2.529896974563598633e+00 1.118241652875440195e-05 -4.813944906345568597e-05 -1.108710966946091503e-05 3.196235047653317451e-05
1.517000000000000000e+03 1.141398715972900391e+01 -3.313166141510009766e+00 1.058225240558385849e-02 -6.232854723930358887e-02 -1.552388817071914673e-02 -1.756303757429122925e-02
1.518000000000000000e+03 1.128961181640625000e+01 -2.584918260574340820e+00 6.795436888933181763e-02 -3.633308783173561096e-02 9.486383758485317230e-03 -4.872211255133152008e-03
1.519000000000000000e+03 1.278572654724121094e+01 -2.483242034912109375e+00 5.105394124984741211e-02 -4.951183870434761047e-02 4.626308218576014042e-04 -5.187179148197174072e-02
1.520000000000000000e+03 9.663737297058105469e+00 -1.880283713340759277e+00 1.356314718723297119e-01 -1.441052369773387909e-02 3.636628389358520508e-02 3.019816428422927856e-02
1.521000000000000000e+03 7.280175018310546875e+01 -1.440172576904296875e+01 -2.530967295169830322e-01 2.431645244359970093e-02 -6.863408535718917847e-02 -6.390010565519332886e-02
1.522000000000000000e+03 7.587379455566406250e+01 -1.377161407470703125e+01 -1.249157860875129700e-01 -2.934710308909416199e-02 -4.627886787056922913e-02 -1.005957201123237610e-01
1.523000000000000000e+03 7.712961578369140625e+01 -1.397165870666503906e+01 -6.842918694019317627e-02 -3.373079001903533936e-02 -3.064799308776855469e-02 -6.007666513323783875e-02
1.524000000000000000e+03 7.654766082763671875e+01 -1.386568260192871094e+01 -8.641859889030456543e-02 -3.463834151625633240e-02 -3.631708025932312012e-02 -7.829270511865615845e-02
1.525000000000000000e+03 1.431528854370117188e+01 -3.056112766265869141e+00 -4.046384245157241821e-02 -9.483854472637176514e-02 -4.059071838855743408e-02 -1.340612322092056274e-01
1.526000000000000000e+03 1.352947616577148438e+01 -2.439888954162597656e+00 3.455903381109237671e-02 -5.687257647514343262e-02 -6.694063544273376465e-03 -7.871422916650772095e-02
1.527000000000000000e+03 1.427033615112304688e+01 -2.412760019302368164e+00 1.107958983629941940e-02 -6.427722424268722534e-02 -1.595929078757762909e-02 -1.096447035670280457e-01
1.528000000000000000e+03 1.576680564880371094e+01 -2.410601854324340820e+00 -5.707262456417083740e-02 -8.313474059104919434e-02 -4.206221178174018860e-02 -1.808056086301803589e-01
1.529000000000000000e+03 6.550302028656005859e+00 2.602033853530883789e+00 1.156854341388680041e-05 -5.271700138109736145e-05 -1.234453793585998937e-05 7.827919034752994776e-06
1.530000000000000000e+03 7.302756309509277344e+00 1.857922077178955078e+00 1.540151424705982208e-05 -5.234483251115307212e-05 -1.108299511543009430e-05 1.352542312815785408e-05
1.531000000000000000e+03 5.041328430175781250e+00 2.710037231445312500e+00 1.650655576668214053e-05 -5.218553997110575438e-05 -1.070369580702390522e-05 3.035050212929490954e-06
1.532000000000000000e+03 8.816209793090820312e+00 2.561417102813720703e+00 6.415200186893343925e-05 3.540466059348545969e-05 2.986699837492778897e-05 -1.737304228299763054e-05
1.533000000000000000e+03 3.475014209747314453e+00 1.968043446540832520e+00 3.036467205674853176e-05 4.916127363685518503e-05 2.385778316238429397e-05 -3.656441185739822686e-05
1.534000000000000000e+03 2.940880537033081055e+00 3.949895858764648438e+00 -5.658395093632861972e-05 2.102008693327661604e-05 -1.066915865521878004e-05 1.647517456149216741e-05
1.535000000000000000e+03 5.796551227569580078e+00 2.646086931228637695e+00 5.743663132307119668e-05 4.033586083096452057e-05 2.933174801000859588e-05 -3.568572719814255834e-05
1.536000000000000000e+03 1.243781566619873047e+00 3.418188095092773438e+00 3.402466245461255312e-05 4.256769898347556591e-05 2.297770879522431642e-05 -3.518896483001299202e-05
1.537000000000000000e+03 1.032529735565185547e+01 2.558945178985595703e+00 5.539693665923550725e-05 4.087564957444556057e-05 2.888177550630643964e-05 -8.136505130096338689e-06
1.538000000000000000e+03 9.574017524719238281e+00 2.560404777526855469e+00 1.647249700909014791e-05 -5.402361784945242107e-05 -1.126533697970444337e-05 3.088897574343718588e-05
1.539000000000000000e+03 1.052761268615722656e+01 -2.618163824081420898e+00 7.333125919103622437e-02 -3.259127214550971985e-02 1.222199667245149612e-02 1.368627976626157761e-02
1.540000000000000000e+03 6.538820743560791016e+00 -1.934219121932983398e+00 9.454917907714843750e-02 -3.390696831047534943e-03 2.734754420816898346e-02 5.655061081051826477e-02
1.541000000000000000e+03 5.742664813995361328e+00 -1.948053240776062012e+00 8.028712123632431030e-02 4.790122038684785366e-04 2.422984130680561066e-02 5.811155959963798523e-02
1.542000000000000000e+03 7.475106716156005859e+00 -3.500577926635742188e+00 2.121083438396453857e-02 -1.708481647074222565e-02 1.237805816344916821e-03 6.128546223044395447e-02
1.543000000000000000e+03 7.374932289123535156e+00 -2.729098320007324219e+00 6.255716085433959961e-02 -1.207031216472387314e-02 1.514605432748794556e-02 6.104483827948570251e-02
1.544000000000000000e+03 4.078638553619384766e+00 -4.222117900848388672e+00 4.815090913325548172e-03 1.893392018973827362e-02 7.124703377485275269e-03 7.197565585374832153e-02
1.545000000000000000e+03 8.185420989990234375e+00 -2.676115274429321289e+00 6.891788542270660400e-02 -1.518995221704244614e-02 1.611838117241859436e-02 5.329254269599914551e-02
1.546000000000000000e+03 6.555751800537109375e+00 -2.788057088851928711e+00 5.511178076267242432e-02 -4.459908697754144669e-03 1.519556157290935516e-02 6.637905538082122803e-02
1.547000000000000000e+03 6.566189527511596680e-01 -5.077143192291259766e+00 -1.765008200891315937e-03 1.006036847829818726e-01 2.965160273015499115e-02 2.156712859869003296e-02
1.548000000000000000e+03 3.195741844177246094e+01 -1.960781693458557129e+00 -2.853090763092041016e+00 3.089740499854087830e-02 -8.466579914093017578e-01 -4.063622951507568359e-01
1.549000000000000000e+03 3.121829223632812500e+01 -1.815999150276184082e+00 -2.996960878372192383e+00 3.126426041126251221e-01 -8.052954673767089844e-01 -2.384103685617446899e-01
1.550000000000000000e+03 3.504951095581054688e+01 -2.443490743637084961e+00 -2.368272066116333008e+00 4.603996276855468750e-01 -5.723617672920227051e-01 3.378134965896606445e-01
1.551000000000000000e+03 3.350432205200195312e+01 -2.312579631805419922e+00 -2.471676111221313477e+00 -2.060040235519409180e-01 -8.033040165901184082e-01 2.718184888362884521e-01
1.552000000000000000e+03 3.296252822875976562e+01 -3.636492967605590820e+00 -1.584518313407897949e+00 1.820470541715621948e-01 -4.207413792610168457e-01 -5.427902564406394958e-02
1.553000000000000000e+03 3.582576751708984375e+01 -1.231245875358581543e+00 -2.381160259246826172e+00 3.784405291080474854e-01 -6.008159518241882324e-01 1.721895933151245117e-01
1.554000000000000000e+03 3.558236694335937500e+01 -1.673846006393432617e+00 -2.433169603347778320e+00 4.439407587051391602e-01 -5.967686176300048828e-01 2.426939904689788818e-01
1.555000000000000000e+03 1.815083312988281250e+01 -2.396704912185668945e+00 -2.139465510845184326e-01 -9.280364960432052612e-02 -9.202505648136138916e-02 -2.946156263351440430e-01
1.556000000000000000e+03 1.732856750488281250e+01 -3.203761339187622070e+00 -1.841481029987335205e-01 -1.346373558044433594e-01 -9.563563764095306396e-02 -3.077512979507446289e-01
1.557000000000000000e+03 1.654118156433105469e+01 -2.421497106552124023e+00 -1.037962809205055237e-01 -9.049732238054275513e-02 -5.828808248043060303e-02 -2.216317057609558105e-01
1.558000000000000000e+03 1.733652687072753906e+01 -2.424028873443603516e+00 -1.561287045478820801e-01 -9.688679128885269165e-02 -7.590464502573013306e-02 -2.593931853771209717e-01
1.559000000000000000e+03 4.326035690307617188e+01 -1.321876335144042969e+01 3.768726348876953125e+00 4.250477313995361328e+00 2.405761241912841797e+00 2.427272081375122070e+00
1.560000000000000000e+03 4.351668930053710938e+01 -1.266329288482666016e+01 2.774651527404785156e+00 3.089675903320312500e+00 1.759298324584960938e+00 1.994456529617309570e+00
1.561000000000000000e+03 4.055330657958984375e+01 -1.571272087097167969e+01 3.239842176437377930e+00 4.159941196441650391e+00 2.219934940338134766e+00 1.837573766708374023e+00
1.562000000000000000e+03 3.868670654296875000e+01 -1.816323852539062500e+01 1.429987996816635132e-01 2.369108915328979492e+00 7.536323070526123047e-01 1.517967104911804199e+00
1.563000000000000000e+03 3.962305831909179688e+01 -1.414418888092041016e+01 3.498485803604125977e+00 2.086889982223510742e+00 1.675612688064575195e+00 -4.972245097160339355e-01
1.564000000000000000e+03 3.965610122680664062e+01 -1.488649368286132812e+01 3.482848644256591797e+00 2.256560325622558594e+00 1.721822619438171387e+00 3.097623884677886963e-01
1.565000000000000000e+03 4.033485794067382812e+01 -1.233226108551025391e+01 2.123427867889404297e+00 2.979356288909912109e+00 1.530835270881652832e+00 -1.478283166885375977e+00
1.566000000000000000e+03 7.123165893554687500e+01 -1.450647544860839844e+01 -3.244825005531311035e-01 6.052647531032562256e-02 -7.918680459260940552e-02 -6.993703544139862061e-03
1.567000000000000000e+03 7.195540618896484375e+01 -1.366841316223144531e+01 -3.710810542106628418e-01 7.030660659074783325e-02 -9.023233503103256226e-02 -8.232855796813964844e-02
1.568000000000000000e+03 7.118284606933593750e+01 -1.377370738983154297e+01 -4.086167514324188232e-01 7.131014764308929443e-02 -1.011919826269149780e-01 -7.098479568958282471e-02
1.569000000000000000e+03 7.436951446533203125e+01 -1.364976119995117188e+01 -2.111731767654418945e-01 -5.428337026387453079e-03 -6.498045474290847778e-02 -1.318687349557876587e-01
1.570000000000000000e+03 2.196378898620605469e+01 -8.832236528396606445e-01 -5.801150798797607422e-01 6.630074232816696167e-02 -1.541443020105361938e-01 -1.809433847665786743e-01
1.571000000000000000e+03 2.207422256469726562e+01 -1.464009761810302734e+00 -6.302440762519836426e-01 6.404685974121093750e-02 -1.698591709136962891e-01 -2.813136577606201172e-01
1.572000000000000000e+03 2.359881591796875000e+01 -1.068945407867431641e+00 -9.445872902870178223e-01 1.689354181289672852e-01 -2.326955646276473999e-01 -2.159822136163711548e-01
1.573000000000000000e+03 1.978972625732421875e+01 -2.131737232208251953e+00 -3.503880500793457031e-01 -6.397421658039093018e-02 -1.243086829781532288e-01 -3.274673819541931152e-01
1.574000000000000000e+03 2.057866287231445312e+01 -1.939912676811218262e+00 -4.432154595851898193e-01 -2.697471156716346741e-02 -1.410570442676544189e-01 -3.244701921939849854e-01
1.575000000000000000e+03 2.652190780639648438e+01 -2.619601964950561523e+00 -1.474066615104675293e+00 -2.127604186534881592e-01 -5.060481429100036621e-01 -7.302980422973632812e-01
1.576000000000000000e+03 2.351134300231933594e+01 -1.785730123519897461e+00 -9.563766121864318848e-01 1.492099761962890625e-01 -2.421499937772750854e-01 -3.753896057605743408e-01
1.577000000000000000e+03 6.900866699218750000e+01 -1.888175582885742188e+01 2.630855888128280640e-04 7.960432558320462704e-04 3.177386533934623003e-04 3.558154567144811153e-04
1.578000000000000000e+03 6.968689727783203125e+01 -2.093644714355468750e+01 2.992252120748162270e-04 2.330154384253546596e-04 1.596721849637106061e-04 3.825443855021148920e-04
1.579000000000000000e+03 6.863822937011718750e+01 -2.056960868835449219e+01 -4.573775222525000572e-04 4.648571484722197056e-04 2.243886910946457647e-06 6.571136764250695705e-04
1.580000000000000000e+03 4.548679733276367188e+01 -2.148796844482421875e+01 -2.104722522199153900e-02 1.485609412193298340e+00 4.393686354160308838e-01 -7.870669662952423096e-02
1.581000000000000000e+03 4.429740905761718750e+01 -1.842785072326660156e+01 1.887182891368865967e-02 1.538258910179138184e+00 4.671392142772674561e-01 -6.051673889160156250e-01
1.582000000000000000e+03 4.530178451538085938e+01 -1.949712181091308594e+01 -4.125265777111053467e-02 9.768840074539184570e-01 2.806893885135650635e-01 -2.587546706199645996e-01
1.583000000000000000e+03 3.700592422485351562e+01 3.443009138107299805e+00 2.363936218898743391e-04 1.005349680781364441e-03 3.725229762494564056e-04 -4.179040552116930485e-04
1.584000000000000000e+03 2.327721023559570312e+01 -2.478704690933227539e+00 -9.117780923843383789e-01 1.002956703305244446e-01 -2.434447407722473145e-01 -5.570007562637329102e-01
1.585000000000000000e+03 2.433389663696289062e+01 -2.931650876998901367e+00 -9.478064775466918945e-01 1.937053352594375610e-02 -2.785307765007019043e-01 -7.529479861259460449e-01
1.586000000000000000e+03 5.988296127319335938e+01 -1.378380298614501953e+01 -1.293812870979309082e+00 6.960015743970870972e-02 -3.672638237476348877e-01 -3.834766447544097900e-01
1.587000000000000000e+03 5.688024520874023438e+01 -1.281541061401367188e+01 -8.861148953437805176e-01 3.144482970237731934e-01 -1.714999824762344360e-01 3.898458480834960938e-01
1.588000000000000000e+03 5.824903488159179688e+01 -1.268822860717773438e+01 -1.152473211288452148e+00 3.488951325416564941e-01 -2.410734444856643677e-01 7.080162316560745239e-02
1.589000000000000000e+03 5.201029586791992188e+01 -1.503232097625732422e+01 9.026131033897399902e-01 7.276210188865661621e-02 2.926125526428222656e-01 3.602630794048309326e-01
1.590000000000000000e+03 5.183455657958984375e+01 -1.401549339294433594e+01 6.497887969017028809e-01 1.540141850709915161e-01 2.411408871412277222e-01 7.318587899208068848e-01
1.591000000000000000e+03 5.302475357055664062e+01 -1.376108932495117188e+01 2.017742842435836792e-01 1.928581148386001587e-01 1.183897182345390320e-01 7.366834282875061035e-01
1.592000000000000000e+03 7.879803466796875000e+01 -1.968224143981933594e+01 1.041283321683295071e-04 3.101964248344302177e-04 1.242974249180406332e-04 -2.195818669861182570e-04
1.593000000000000000e+03 7.816757965087890625e+01 -1.932370948791503906e+01 -1.440015603293431923e-05 6.164736259961500764e-05 1.417416115145897493e-05 -1.946003903867676854e-04
1.594000000000000000e+03 7.819149780273437500e+01 -3.079236984252929688e+01 -4.348593647591769695e-04 -3.107979893684387207e-03 -1.062851748429238796e-03 2.088391454890370369e-03
1.595000000000000000e+03 7.939266967773437500e+01 -2.952073860168457031e+01 -9.541033796267583966e-05 -1.215165015310049057e-03 -3.931726096197962761e-04 5.556239048019051552e-04
1.596000000000000000e+03 7.943261718750000000e+01 -2.409365653991699219e+01 -8.228270598920062184e-05 8.490862674079835415e-04 2.300410560565069318e-04 -2.448934901622124016e-05
1.597000000000000000e+03 7.928173828125000000e+01 -3.622118377685546875e+01 1.628074969630688429e-04 -1.078848354518413544e-02 -3.187702735885977745e-03 9.626999380998313427e-04
1.598000000000000000e+03 7.939494323730468750e+01 -3.356068801879882812e+01 -5.463767593028023839e-06 -6.498620379716157913e-03 -1.951225218363106251e-03 9.389475453644990921e-04
1.599000000000000000e+03 7.818283081054687500e+01 -3.338386917114257812e+01 -2.390089357504621148e-04 -6.231232546269893646e-03 -1.941072521731257439e-03 2.720598131418228149e-03
1.600000000000000000e+03 7.827644348144531250e+01 -2.402425003051757812e+01 -7.787531649228185415e-05 2.657395962160080671e-04 5.635928027913905680e-05 1.078707327906158753e-06
1.601000000000000000e+03 7.814385223388671875e+01 -2.808826255798339844e+01 -4.790111852344125509e-04 -9.537124424241483212e-04 -4.298170970287173986e-04 1.091437763534486294e-03
1.602000000000000000e+03 7.643135833740234375e+01 -3.726622390747070312e+01 1.513852970674633980e-03 -1.078016683459281921e-02 -2.779894042760133743e-03 4.303763620555400848e-03
1.603000000000000000e+03 7.658132171630859375e+01 -3.928482818603515625e+01 1.111181569285690784e-03 -1.248965784907341003e-02 -3.413543105125427246e-03 2.859103959053754807e-03
1.604000000000000000e+03 4.313877868652343750e+01 -2.442287254333496094e+01 7.290548831224441528e-02 1.615933299064636230e+00 5.066516399383544922e-01 5.643095448613166809e-02
1.605000000000000000e+03 2.946636772155761719e+01 -6.934727191925048828e+00 8.734707832336425781e-01 7.245814204216003418e-01 4.794156551361083984e-01 -8.456180691719055176e-01
1.606000000000000000e+03 3.034907913208007812e+01 -8.343861579895019531e+00 3.438556671142578125e+00 9.153130650520324707e-01 1.306160926818847656e+00 -1.325905203819274902e+00
1.607000000000000000e+03 3.971456909179687500e+01 1.103580760955810547e+01 -1.005675271153450012e-02 -1.271250192075967789e-03 -3.398400964215397835e-03 -1.622611423954367638e-03
1.608000000000000000e+03 4.771377182006835938e+01 -2.820741653442382812e+01 8.443542569875717163e-02 3.538912236690521240e-01 1.314979940652847290e-01 -1.889875084161758423e-01
1.609000000000000000e+03 5.011497497558593750e+01 -2.995583343505859375e+01 -1.315546631813049316e-01 6.168454140424728394e-02 -2.096103504300117493e-02 -1.965845189988613129e-02
1.610000000000000000e+03 5.667852401733398438e+01 -3.300975799560546875e+01 -5.818130448460578918e-02 1.623892807401716709e-03 -1.696722395718097687e-02 3.888020291924476624e-02
1.611000000000000000e+03 5.122712707519531250e+01 -3.228154373168945312e+01 -4.976089671254158020e-02 1.027524098753929138e-01 1.589745469391345978e-02 -7.107428461313247681e-02
1.612000000000000000e+03 4.259379577636718750e+01 1.376072502136230469e+01 -4.029983282089233398e-02 -1.637120731174945831e-02 -1.700131222605705261e-02 -2.071646228432655334e-02
1.613000000000000000e+03 4.123603057861328125e+01 1.408058738708496094e+01 -4.293804615736007690e-02 8.028693497180938721e-03 -1.047280617058277130e-02 -1.544182375073432922e-02
1.614000000000000000e+03 3.882271575927734375e+01 7.022602558135986328e+00 -3.281687619164586067e-03 -7.425027433782815933e-04 -1.207257155328989029e-03 2.409545006230473518e-03
1.615000000000000000e+03 3.699984741210937500e+01 7.762511253356933594e+00 -1.027166610583662987e-03 -2.135704969987273216e-03 -9.488614741712808609e-04 2.369937137700617313e-04
1.616000000000000000e+03 4.659947967529296875e+01 2.180393218994140625e+01 -2.741464227437973022e-02 2.329336106777191162e-02 -1.236383919604122639e-03 -2.413673885166645050e-02
1.617000000000000000e+03 6.765861511230468750e+01 -2.316792488098144531e+01 -8.969028131105005741e-04 6.684602703899145126e-04 -6.853276136098429561e-05 5.314892041496932507e-04
1.618000000000000000e+03 4.800238800048828125e+01 -3.071425247192382812e+01 -4.794548451900482178e-02 4.218459129333496094e-01 1.121701225638389587e-01 -1.748679578304290771e-01
1.619000000000000000e+03 5.159045791625976562e+01 2.242398071289062500e+01 1.028538197278976440e-01 -5.432154983282089233e-03 2.922649867832660675e-02 -1.233236044645309448e-01
1.620000000000000000e+03 4.421166610717773438e+01 1.779143142700195312e+01 -9.176155179738998413e-02 1.442563533782958984e-02 -2.320077642798423767e-02 -3.231022506952285767e-02
1.621000000000000000e+03 3.898907089233398438e+01 1.008320617675781250e+01 -1.323991804383695126e-03 2.326064975932240486e-03 3.006219048984348774e-04 -2.503148745745420456e-03
1.622000000000000000e+03 4.883738708496093750e+01 2.122661781311035156e+01 -6.168632209300994873e-02 6.311959587037563324e-04 -1.831653714179992676e-02 -5.139932408928871155e-02
1.623000000000000000e+03 4.638529205322265625e+01 1.941671752929687500e+01 -1.087675988674163818e-01 3.661609021946787834e-03 -3.153179585933685303e-02 -4.294094815850257874e-02
1.624000000000000000e+03 4.528392410278320312e+01 1.853984260559082031e+01 -1.100816801190376282e-01 -5.017308052629232407e-03 -3.452969714999198914e-02 -2.861364744603633881e-02
1.625000000000000000e+03 6.102079010009765625e+01 -3.134346389770507812e+01 -6.173323839902877808e-02 2.512611215934157372e-03 -1.776618696749210358e-02 2.134376205503940582e-02
1.626000000000000000e+03 6.018276977539062500e+01 -2.973389625549316406e+01 -7.916889339685440063e-02 -1.871975604444742203e-03 -2.431226149201393127e-02 -1.456888299435377121e-02
1.627000000000000000e+03 5.825866317749023438e+01 -3.255340194702148438e+01 -6.682059913873672485e-02 -5.660871509462594986e-03 -2.174444124102592468e-02 4.286916181445121765e-02
1.628000000000000000e+03 5.964669036865234375e+01 -3.195296859741210938e+01 -6.744737178087234497e-02 2.067060209810733795e-03 -1.961409300565719604e-02 2.616447769105434418e-02
1.629000000000000000e+03 4.573508071899414062e+01 -2.846394157409667969e+01 -1.127728912979364395e-02 9.596367478370666504e-01 2.845078408718109131e-01 -1.435807049274444580e-01
1.630000000000000000e+03 5.484034347534179688e+01 -3.313750457763671875e+01 -4.798875004053115845e-02 -9.206299670040607452e-03 -1.715851575136184692e-02 2.084577642381191254e-02
1.631000000000000000e+03 6.470690917968750000e+01 -2.856013488769531250e+01 -2.203791216015815735e-02 3.117543645203113556e-03 -5.676110275089740753e-03 -2.054246142506599426e-03
1.632000000000000000e+03 7.202344512939453125e+01 -2.068541145324707031e+01 -1.624767755856737494e-04 -5.365120014175772667e-04 -2.096966345561668277e-04 4.586501381709240377e-05
1.633000000000000000e+03 6.676861572265625000e+01 -2.657378387451171875e+01 -7.566838059574365616e-03 1.392970560118556023e-03 -1.852160203270614147e-03 -1.856389804743230343e-03
1.634000000000000000e+03 6.783964538574218750e+01 -2.559391975402832031e+01 -5.287035834044218063e-03 3.365076190675608814e-05 -1.576015492901206017e-03 -5.218599690124392509e-04
1.635000000000000000e+03 1.803131294250488281e+01 -1.178153038024902344e+01 -1.381096959114074707e+00 -4.837599098682403564e-01 -5.594570636749267578e-01 -6.897314190864562988e-01
1.636000000000000000e+03 6.162557983398437500e+01 2.506315231323242188e+01 9.872305206954479218e-03 2.360334396362304688e+00 7.110620141029357910e-01 -5.525845289230346680e-01
1.637000000000000000e+03 2.970030212402343750e+01 -7.693456649780273438e+00 2.379988193511962891e+00 7.213936448097229004e-01 9.304144978523254395e-01 -7.816153764724731445e-01
1.638000000000000000e+03 3.717269515991210938e+01 -2.473938751220703125e+01 5.380383133888244629e-01 1.659994602203369141e+00 6.594098806381225586e-01 6.751007437705993652e-01
1.639000000000000000e+03 1.200579738616943359e+01 -1.800489616394042969e+01 -1.368248313665390015e-01 -4.369575977325439453e-01 -1.721347272396087646e-01 -5.818106532096862793e-01
1.640000000000000000e+03 2.602699851989746094e+01 -3.003001022338867188e+01 8.577360510826110840e-01 1.156911849975585938e-01 2.920281589031219482e-01 1.710883714258670807e-02
1.641000000000000000e+03 1.431804561614990234e+01 -1.233431816101074219e+01 -7.095290422439575195e-01 -7.056663036346435547e-01 -4.245586097240447998e-01 -4.108916223049163818e-01
1.642000000000000000e+03 2.188520812988281250e+01 -9.740911483764648438e+00 -4.208041131496429443e-01 -1.359746903181076050e-01 -1.670336425304412842e-01 -3.723275363445281982e-01
1.643000000000000000e+03 3.351193237304687500e+01 -1.090999031066894531e+01 1.495729088783264160e+00 1.158950209617614746e+00 7.964037656784057617e-01 -1.373362302780151367e+00
1.644000000000000000e+03 3.544787216186523438e+01 -1.201763916015625000e+01 1.400353074073791504e+00 -2.414335459470748901e-01 3.476758599281311035e-01 -1.327776908874511719e+00
1.645000000000000000e+03 1.820498466491699219e+01 -9.725071907043457031e+00 -5.964402556419372559e-01 -5.247445702552795410e-01 -3.363554477691650391e-01 -5.688489079475402832e-01
1.646000000000000000e+03 1.645082855224609375e+01 -1.116303730010986328e+01 -8.068186640739440918e-01 -7.222834825515747070e-01 -4.587306380271911621e-01 -4.533888697624206543e-01
1.647000000000000000e+03 2.810923576354980469e+01 -3.222312164306640625e+01 6.446606516838073730e-01 4.669611155986785889e-01 3.334865272045135498e-01 2.257615178823471069e-01
1.648000000000000000e+03 3.664123535156250000e+01 -2.064207077026367188e+01 8.825380355119705200e-02 1.362582683563232422e+00 4.352509677410125732e-01 1.109689474105834961e+00
1.649000000000000000e+03 2.606344032287597656e+01 -7.966361522674560547e+00 5.356988906860351562e-01 -2.832985818386077881e-01 7.572010159492492676e-02 -4.439704120159149170e-01
1.650000000000000000e+03 2.680989265441894531e+01 -8.739726066589355469e+00 5.940399765968322754e-01 -5.292237177491188049e-02 1.623352915048599243e-01 5.973956547677516937e-03
1.651000000000000000e+03 2.066761589050292969e+01 -9.976853370666503906e+00 -6.273362040519714355e-01 -1.915082931518554688e-01 -2.456533461809158325e-01 -4.683181047439575195e-01
1.652000000000000000e+03 3.583054351806640625e+01 -1.346233844757080078e+01 8.849927186965942383e-01 -5.973467230796813965e-01 8.629380911588668823e-02 -9.144192337989807129e-01
1.653000000000000000e+03 3.549129867553710938e+01 -1.779888534545898438e+01 -4.201398417353630066e-02 -1.273420333862304688e+00 -3.946302831172943115e-01 4.763686954975128174e-01
1.654000000000000000e+03 3.636790847778320312e+01 -1.634839630126953125e+01 2.206197530031204224e-01 -3.881169855594635010e-01 -5.024917423725128174e-02 6.007555127143859863e-01
1.655000000000000000e+03 2.081210136413574219e+01 -1.124720191955566406e+01 -6.634106040000915527e-01 -4.805332422256469727e-02 -2.134391814470291138e-01 -2.430609315633773804e-01
1.656000000000000000e+03 3.206847381591796875e+01 -8.445671081542968750e+00 2.032850980758666992e+00 1.005159616470336914e+00 9.114031791687011719e-01 -1.031316757202148438e+00
1.657000000000000000e+03 3.136755180358886719e+01 -2.799916839599609375e+01 1.032246232032775879e+00 9.505373835563659668e-01 5.948350429534912109e-01 9.105502367019653320e-01
1.658000000000000000e+03 3.659812927246093750e+01 -1.926109123229980469e+01 -1.768077909946441650e-02 8.454430103302001953e-01 2.483286559581756592e-01 1.151867389678955078e+00
1.659000000000000000e+03 1.958930397033691406e+01 -2.905678367614746094e+01 5.685786008834838867e-01 3.913797736167907715e-01 2.879875302314758301e-01 -3.991678059101104736e-01
1.660000000000000000e+03 1.480691814422607422e+01 -2.621794700622558594e+01 4.048423171043395996e-01 1.557640135288238525e-01 1.681818962097167969e-01 -2.841936945915222168e-01
1.661000000000000000e+03 2.517648124694824219e+01 -8.544482231140136719e+00 2.200245559215545654e-01 -2.406125366687774658e-01 -6.176396273076534271e-03 -2.798032462596893311e-01
1.662000000000000000e+03 3.723542404174804688e+01 -1.499493694305419922e+01 1.171176075935363770e+00 3.037237524986267090e-01 4.424699246883392334e-01 -1.930961012840270996e-01
1.663000000000000000e+03 3.668450546264648438e+01 -2.200092697143554688e+01 4.095509052276611328e-01 1.699335217475891113e+00 6.326658129692077637e-01 1.134910941123962402e+00
1.664000000000000000e+03 3.491236114501953125e+01 -2.684745788574218750e+01 4.884787797927856445e-01 1.638192772865295410e+00 6.380014419555664062e-01 6.990883350372314453e-01
1.665000000000000000e+03 1.847910690307617188e+01 -2.850659751892089844e+01 4.852039217948913574e-01 3.956073820590972900e-01 2.642433941364288330e-01 -3.738316893577575684e-01
1.666000000000000000e+03 1.528909778594970703e+01 -2.941240882873535156e+01 3.350081145763397217e-01 1.061585769057273865e-01 1.323500126600265503e-01 -2.265244722366333008e-01
1.667000000000000000e+03 7.928734588623046875e+01 3.754695892333984375e+01 5.876670125871896744e-03 -8.714066743850708008e-01 -2.596589922904968262e-01 4.925445094704627991e-02
1.668000000000000000e+03 7.732958984375000000e+01 3.477879333496093750e+01 -4.376678913831710815e-02 -8.587056398391723633e-01 -2.707417309284210205e-01 2.125832736492156982e-01
1.669000000000000000e+03 7.917749786376953125e+01 3.054832839965820312e+01 -5.168925970792770386e-03 -1.576216459274291992e+00 -4.744156002998352051e-01 1.162179037928581238e-01
1.670000000000000000e+03 7.775321197509765625e+01 2.766646575927734375e+01 -1.865611597895622253e-02 -1.619226932525634766e+00 -4.913649260997772217e-01 3.404923081398010254e-01
1.671000000000000000e+03 7.824774932861328125e+01 -9.731414794921875000e+00 -2.907521091401576996e-02 -2.743962407112121582e-01 -9.104143828153610229e-02 -1.778575927019119263e-01
1.672000000000000000e+03 7.822863769531250000e+01 -8.459172248840332031e+00 -4.107502475380897522e-02 -4.046349823474884033e-01 -1.337130069732666016e-01 -2.253016233444213867e-01
1.673000000000000000e+03 7.941274261474609375e+01 -7.225796222686767578e+00 -1.349944062530994415e-02 -5.881686806678771973e-01 -1.805004328489303589e-01 -9.056472778320312500e-02
1.674000000000000000e+03 7.931250000000000000e+01 5.337996006011962891e+00 1.012895815074443817e-02 -3.035203695297241211e+00 -9.075223803520202637e-01 -9.558366239070892334e-02
1.675000000000000000e+03 7.935974121093750000e+01 1.238564109802246094e+01 1.591445691883563995e-02 -3.753106355667114258e+00 -1.121157646179199219e+00 -1.102545391768217087e-02
1.676000000000000000e+03 7.808520507812500000e+01 1.246540737152099609e+01 3.895126283168792725e-02 -3.016750574111938477e+00 -8.933398127555847168e-01 -4.306695982813835144e-02
1.677000000000000000e+03 7.937329864501953125e+01 1.378800582885742188e+01 2.025083638727664948e-03 -3.777601957321166992e+00 -1.132673025131225586e+00 9.351744316518306732e-03
1.678000000000000000e+03 7.935911560058593750e+01 1.938105201721191406e+01 3.684549825266003609e-03 -3.406485795974731445e+00 -1.020840406417846680e+00 8.621554821729660034e-02
1.679000000000000000e+03 7.931092834472656250e+01 2.357186317443847656e+01 5.514645949006080627e-03 -2.757378339767456055e+00 -8.255591392517089844e-01 1.217528954148292542e-01
1.680000000000000000e+03 7.929583740234375000e+01 2.495982933044433594e+01 1.990029355511069298e-03 -2.508626699447631836e+00 -7.519910335540771484e-01 1.294889748096466064e-01
1.681000000000000000e+03 7.927629089355468750e+01 2.635129737854003906e+01 -4.124565981328487396e-03 -2.259329557418823242e+00 -6.790362596511840820e-01 1.273233741521835327e-01
1.682000000000000000e+03 7.913260650634765625e+01 3.196169090270996094e+01 -6.859321612864732742e-03 -1.392800331115722656e+00 -4.198979139328002930e-01 1.062409356236457825e-01
1.683000000000000000e+03 7.912528228759765625e+01 3.337561035156250000e+01 -8.684713393449783325e-04 -1.230620265007019043e+00 -3.694466054439544678e-01 1.002921387553215027e-01
1.684000000000000000e+03 7.919538116455078125e+01 3.875653076171875000e+01 -6.772791966795921326e-03 -7.638672590255737305e-01 -2.311920076608657837e-01 4.605281725525856018e-02
1.685000000000000000e+03 7.818868255615234375e+01 -1.652272224426269531e+00 9.125596843659877777e-03 -1.430397033691406250e+00 -4.263814091682434082e-01 -3.547489941120147705e-01
1.686000000000000000e+03 7.938406372070312500e+01 1.124596238136291504e+00 -1.211003909702412784e-04 -2.264016628265380859e+00 -6.792412996292114258e-01 -1.131045594811439514e-01
1.687000000000000000e+03 7.928649902343750000e+01 8.161146163940429688e+00 2.355512464419007301e-03 -3.412980079650878906e+00 -1.023187279701232910e+00 -7.609197497367858887e-02
1.688000000000000000e+03 7.807195281982421875e+01 1.940449905395507812e+01 3.652559593319892883e-02 -2.737645626068115234e+00 -8.103359937667846680e-01 2.201102972030639648e-01
1.689000000000000000e+03 7.934342193603515625e+01 2.078131484985351562e+01 1.054176501929759979e-02 -3.214216470718383789e+00 -9.611024260520935059e-01 1.016968265175819397e-01
1.690000000000000000e+03 7.813123321533203125e+01 1.524693679809570312e+01 3.704946860671043396e-02 -3.033582687377929688e+00 -8.989599347114562988e-01 7.135648280382156372e-02
1.691000000000000000e+03 7.937705993652343750e+01 1.658471488952636719e+01 9.916173294186592102e-04 -3.680459022521972656e+00 -1.103840231895446777e+00 5.158489197492599487e-02
1.692000000000000000e+03 7.783807373046875000e+01 8.201446533203125000e+00 4.057354852557182312e-02 -2.668341875076293945e+00 -7.883304953575134277e-01 -2.128933668136596680e-01
1.693000000000000000e+03 7.930828857421875000e+01 9.569623947143554688e+00 1.917852461338043213e-02 -3.567896366119384766e+00 -1.064615368843078613e+00 -5.540456622838973999e-02
1.694000000000000000e+03 7.815451049804687500e+01 1.091946244239807129e+00 1.713971607387065887e-02 -1.881164193153381348e+00 -5.592073202133178711e-01 -3.425966799259185791e-01
1.695000000000000000e+03 7.936921691894531250e+01 2.520889520645141602e+00 4.067839588969945908e-03 -2.539362907409667969e+00 -7.605885267257690430e-01 -1.099154278635978699e-01
1.696000000000000000e+03 7.820258331298828125e+01 -5.774306774139404297e+00 -2.783726342022418976e-02 -7.603762149810791016e-01 -2.364640384912490845e-01 -3.060364127159118652e-01
1.697000000000000000e+03 7.940237426757812500e+01 -4.450768947601318359e+00 -7.999724708497524261e-03 -1.098299503326416016e+00 -3.318897485733032227e-01 -1.138790994882583618e-01
1.698000000000000000e+03 7.768443298339843750e+01 -1.295876884460449219e+01 -5.859695002436637878e-02 -7.219693809747695923e-02 -3.923816606402397156e-02 -7.798293232917785645e-02
1.699000000000000000e+03 7.877492523193359375e+01 -1.342633342742919922e+01 -1.908933557569980621e-02 -4.612103104591369629e-02 -1.956311054527759552e-02 -3.418689966201782227e-02
1.700000000000000000e+03 7.905089569091796875e+01 -1.215069198608398438e+01 -1.862063631415367126e-02 -7.697106152772903442e-02 -2.867750823497772217e-02 -4.252539575099945068e-02
1.701000000000000000e+03 5.056895828247070312e+01 -5.495099544525146484e+00 -1.516063451766967773e+00 2.170923352241516113e-01 -3.896913230419158936e-01 1.009710669517517090e+00
1.702000000000000000e+03 6.409497070312500000e+01 1.829689407348632812e+01 1.379630208015441895e+00 4.168770790100097656e+00 1.664520263671875000e+00 -5.541386008262634277e-01
1.703000000000000000e+03 4.607099151611328125e+01 -5.797893047332763672e+00 -3.537554502487182617e+00 -5.193025469779968262e-01 -1.217057108879089355e+00 1.549005031585693359e+00
1.704000000000000000e+03 1.824436426162719727e+00 2.625448036193847656e+01 1.146075592259876430e-04 -2.064250176772475243e-03 -5.848928121849894524e-04 1.682435744442045689e-03
1.705000000000000000e+03 2.401081085205078125e+00 3.462671279907226562e+01 1.021691015921533108e-03 -1.283232960850000381e-02 -3.543191589415073395e-03 3.630458144471049309e-03
1.706000000000000000e+03 6.623319983482360840e-01 3.186840629577636719e+01 -6.567118107341229916e-04 -8.914155885577201843e-03 -2.871260279789566994e-03 1.168352784588932991e-03
1.707000000000000000e+03 2.304881811141967773e+00 3.600399398803710938e+01 5.347555852495133877e-04 -1.448804140090942383e-02 -4.185985773801803589e-03 2.570041688159108162e-03
1.708000000000000000e+03 3.073258399963378906e+00 3.932849884033203125e+01 7.560331141576170921e-04 -1.697457395493984222e-02 -4.865562077611684799e-03 2.004220616072416306e-03
1.709000000000000000e+03 8.886973857879638672e-01 3.878466033935546875e+01 2.431944740237668157e-04 -1.770952716469764709e-02 -5.239899735897779465e-03 5.137817352078855038e-04
1.710000000000000000e+03 1.819207191467285156e+00 2.348391723632812500e+01 7.642907439731061459e-05 -1.673343213042244315e-04 -2.727157516346778721e-05 8.503806311637163162e-04
1.711000000000000000e+03 1.877213954925537109e+00 3.041242790222167969e+01 -6.795513909310102463e-04 -6.987005006521940231e-03 -2.299966989085078239e-03 2.871843520551919937e-03
1.712000000000000000e+03 2.188068389892578125e+00 3.718390274047851562e+01 7.207074668258428574e-04 -1.590401493012905121e-02 -4.554992076009511948e-03 2.023307839408516884e-03
1.713000000000000000e+03 2.940586090087890625e+00 -3.777791213989257812e+01 2.226180210709571838e-02 -1.094167590141296387e+00 -3.215717375278472900e-01 1.339549198746681213e-02
1.714000000000000000e+03 1.638576865196228027e+00 -3.531949996948242188e+01 1.182446908205747604e-02 -1.192379593849182129e+00 -3.541665375232696533e-01 3.387751290574669838e-03
1.715000000000000000e+03 7.686777710914611816e-01 -3.056573867797851562e+01 1.287538674660027027e-03 -1.223601818084716797e+00 -3.666942715644836426e-01 -2.432261966168880463e-02
1.716000000000000000e+03 6.665481328964233398e-01 -1.351369380950927734e+01 -7.407127879559993744e-03 7.344161719083786011e-02 1.981034688651561737e-02 -3.723395243287086487e-02
1.717000000000000000e+03 1.497471809387207031e+00 4.756325244903564453e+00 -4.693999289884231985e-05 2.830892299243714660e-05 -5.589321062871022150e-06 2.847974610631354153e-05
1.718000000000000000e+03 5.950071215629577637e-01 -6.505947113037109375e+00 -3.155322978273034096e-03 1.456689685583114624e-01 4.275409132242202759e-02 1.593318395316600800e-02
1.719000000000000000e+03 6.604357361793518066e-01 -1.069107437133789062e+01 -5.454466678202152252e-03 1.734588593244552612e-01 5.040131881833076477e-02 -1.101169176399707794e-02
1.720000000000000000e+03 6.739530563354492188e-01 -1.777289199829101562e+01 -5.041624535806477070e-04 -2.640790641307830811e-01 -7.937496900558471680e-02 -6.546845287084579468e-02
1.721000000000000000e+03 6.720335483551025391e-01 -1.918733978271484375e+01 -2.277203602716326714e-03 -4.049691557884216309e-01 -1.221739128232002258e-01 -6.845167279243469238e-02
1.722000000000000000e+03 6.709922552108764648e-01 -2.060431289672851562e+01 2.602180466055870056e-03 -5.500080585479736328e-01 -1.642217636108398438e-01 -6.833742558956146240e-02
1.723000000000000000e+03 6.791772842407226562e-01 -2.202745246887207031e+01 -2.888797025661915541e-04 -6.922161579132080078e-01 -2.077515125274658203e-01 -6.589847058057785034e-02
1.724000000000000000e+03 7.041068077087402344e-01 -2.345436859130859375e+01 5.009350832551717758e-03 -8.246365189552307129e-01 -2.458881586790084839e-01 -6.141871213912963867e-02
1.725000000000000000e+03 2.360159158706665039e+00 -2.642107009887695312e+01 2.432388439774513245e-02 -8.832081556320190430e-01 -2.576652765274047852e-01 -1.350839734077453613e-01
1.726000000000000000e+03 2.134133338928222656e+00 -3.325163269042968750e+01 1.631268858909606934e-02 -1.124558448791503906e+00 -3.324737250804901123e-01 -3.072201833128929138e-02
1.727000000000000000e+03 2.412353515625000000e+00 -3.645923614501953125e+01 1.339312829077243805e-02 -1.137358903884887695e+00 -3.371897339820861816e-01 -3.467576345428824425e-03
1.728000000000000000e+03 1.782142519950866699e+00 2.209516334533691406e+01 -6.494160625152289867e-04 3.776286612264811993e-04 -8.153622911777347326e-05 4.211903724353760481e-04
1.729000000000000000e+03 5.851560831069946289e-01 1.921986579895019531e+01 3.051894018426537514e-04 1.646469580009579659e-03 5.854977061972022057e-04 -4.149133746977895498e-05
1.730000000000000000e+03 5.956161022186279297e-01 1.780837249755859375e+01 -3.101837064605206251e-04 1.452835858799517155e-03 3.427956544328480959e-04 -1.161089894594624639e-04
1.731000000000000000e+03 6.312397718429565430e-01 1.497102928161621094e+01 -2.284195361426100135e-04 9.115937282331287861e-04 2.049522590823471546e-04 -1.257013791473582387e-04
1.732000000000000000e+03 5.924766063690185547e-01 1.072284889221191406e+01 1.880047930171713233e-04 2.984900493174791336e-04 1.459484483348205686e-04 -5.827349377796053886e-05
1.733000000000000000e+03 6.198732256889343262e-01 7.864441871643066406e+00 1.139620799222029746e-04 1.203353094751946628e-04 7.028921390883624554e-05 -3.710949386004358530e-05
1.734000000000000000e+03 1.893224120140075684e+00 1.361141300201416016e+01 -2.050288021564483643e-04 4.064088570885360241e-04 6.041401138645596802e-05 -2.581666631158441305e-04
1.735000000000000000e+03 3.587600708007812500e+00 -3.904167938232421875e+01 1.896731927990913391e-02 -1.095403194427490234e+00 -3.229307532310485840e-01 -1.817306689918041229e-02
1.736000000000000000e+03 4.587882518768310547e+00 -3.753293228149414062e+01 3.262451291084289551e-02 -9.467576146125793457e-01 -2.742399275302886963e-01 -6.999830901622772217e-02
1.737000000000000000e+03 2.101312637329101562e+00 -3.207336807250976562e+01 1.289881579577922821e-02 -1.102003693580627441e+00 -3.267314434051513672e-01 -4.858521372079849243e-02
1.738000000000000000e+03 2.210592031478881836e+00 -2.495075225830078125e+01 2.374466322362422943e-02 -8.168625831604003906e-01 -2.379353791475296021e-01 -1.542757749557495117e-01
1.739000000000000000e+03 7.426785230636596680e-01 -2.488366699218750000e+01 1.315139583311975002e-03 -9.401795864105224609e-01 -2.816593348979949951e-01 -5.502386018633842468e-02
1.740000000000000000e+03 6.682757139205932617e-01 -1.493480873107910156e+01 -4.025622736662626266e-03 -1.851612702012062073e-02 -6.762524601072072983e-03 -4.941660165786743164e-02
1.741000000000000000e+03 2.008829116821289062e+00 -1.208812141418457031e+01 -3.164171427488327026e-02 3.817011415958404541e-02 1.958520384505391121e-03 -6.877374649047851562e-02
1.742000000000000000e+03 2.826606750488281250e+00 -6.707958698272705078e+00 -2.272345125675201416e-02 5.596961081027984619e-02 9.973848238587379456e-03 4.415588453412055969e-02
1.743000000000000000e+03 6.081171035766601562e-01 -7.899810314178466797e+00 -3.178303129971027374e-03 1.755006462335586548e-01 5.169670283794403076e-02 8.372619748115539551e-03
1.744000000000000000e+03 1.694266676902770996e+00 -3.355354547500610352e+00 7.363429758697748184e-03 4.281024634838104248e-02 1.505210250616073608e-02 4.324235394597053528e-02
1.745000000000000000e+03 4.250861358642578125e+01 -4.697794437408447266e+00 -3.574087858200073242e+00 -5.980542898178100586e-01 -1.251642584800720215e+00 8.399353027343750000e-01
1.746000000000000000e+03 6.236277770996093750e+01 4.130100250244140625e+00 8.286730647087097168e-01 3.267230510711669922e+00 1.228771090507507324e+00 8.017192482948303223e-01
1.747000000000000000e+03 6.165011596679687500e+01 5.503710269927978516e+00 1.198478817939758301e+00 4.506669521331787109e+00 1.711544513702392578e+00 1.486391544342041016e+00
1.748000000000000000e+03 5.813901901245117188e+01 -2.333694845438003540e-01 1.241238117218017578e+00 2.384559154510498047e+00 1.087739109992980957e+00 1.607410192489624023e+00
1.749000000000000000e+03 6.279463577270507812e+01 7.036167621612548828e+00 8.395987749099731445e-01 4.311390399932861328e+00 1.545296788215637207e+00 1.062000989913940430e+00
1.750000000000000000e+03 6.313262557983398438e+01 5.804503440856933594e+00 8.213787674903869629e-01 3.693741798400878906e+00 1.354536175727844238e+00 7.377036809921264648e-01
1.751000000000000000e+03 5.254482269287109375e+01 -4.805730342864990234e+00 8.638743758201599121e-01 1.520637154579162598e+00 7.153534889221191406e-01 1.315007686614990234e+00
1.752000000000000000e+03 5.493249893188476562e+01 -4.714365005493164062e+00 5.535172820091247559e-01 1.807091951370239258e+00 7.081827521324157715e-01 1.243769526481628418e+00
1.753000000000000000e+03 5.714892578125000000e+01 5.162515640258789062e-01 1.336708903312683105e+00 2.870301246643066406e+00 1.262103080749511719e+00 1.888577342033386230e+00
1.754000000000000000e+03 6.575217437744140625e+01 1.690617179870605469e+01 1.064494848251342773e+00 3.287897348403930664e+00 1.305717706680297852e+00 -1.518640816211700439e-01
1.755000000000000000e+03 5.569303894042968750e+01 -3.551608800888061523e+00 1.024147272109985352e+00 2.012320041656494141e+00 9.109401702880859375e-01 1.416821122169494629e+00
1.756000000000000000e+03 6.403385925292968750e+01 1.290913105010986328e+01 4.925718903541564941e-01 5.028745651245117188e+00 1.656395316123962402e+00 8.018463850021362305e-02
1.757000000000000000e+03 6.489334106445312500e+01 1.388598442077636719e+01 6.317720413208007812e-01 4.497794151306152344e+00 1.538869857788085938e+00 -4.624701291322708130e-02
1.758000000000000000e+03 5.975210952758789062e+01 1.891365289688110352e+00 9.560034275054931641e-01 2.891087293624877930e+00 1.154127240180969238e+00 1.606159329414367676e+00
1.759000000000000000e+03 6.056859970092773438e+01 2.873396396636962891e+00 9.123138785362243652e-01 3.455497503280639648e+00 1.310343384742736816e+00 1.494491577148437500e+00
1.760000000000000000e+03 2.174085807800292969e+01 -3.129562950134277344e+01 5.447723269462585449e-01 3.885376155376434326e-01 2.799929976463317871e-01 -2.102419137954711914e-01
1.761000000000000000e+03 2.300560188293457031e+01 -3.229700088500976562e+01 5.368158221244812012e-01 3.835332393646240234e-01 2.761047184467315674e-01 -1.912980377674102783e-01
1.762000000000000000e+03 1.289488697052001953e+01 -1.869527626037597656e+01 3.258912265300750732e-02 -4.233248829841613770e-01 -1.172207295894622803e-01 -4.841652512550354004e-01
1.763000000000000000e+03 6.483163452148437500e+01 -1.029438114166259766e+01 -1.326248288154602051e+00 -3.676107525825500488e-01 -5.081577301025390625e-01 -4.423447847366333008e-01
1.764000000000000000e+03 4.276216506958007812e+01 -1.701013565063476562e+01 -9.116084873676300049e-02 4.302532196044921875e+00 1.263411521911621094e+00 -9.050249457359313965e-01
1.765000000000000000e+03 4.201905441284179688e+01 -1.681962394714355469e+01 -1.208957377821207047e-02 5.831125259399414062e+00 1.745710730552673340e+00 2.942934036254882812e-01
1.766000000000000000e+03 4.256365203857421875e+01 -1.691216468811035156e+01 -7.996600866317749023e-02 4.865796566009521484e+00 1.435749173164367676e+00 -7.333989739418029785e-01
1.767000000000000000e+03 2.957684707641601562e+01 -1.815852403640747070e+00 -2.554069280624389648e+00 1.599184125661849976e-01 -7.182452678680419922e-01 -3.381484448909759521e-01
1.768000000000000000e+03 3.062992858886718750e+01 -1.983873605728149414e+00 -2.675954580307006836e+00 2.922108173370361328e-01 -7.151231169700622559e-01 -3.186565637588500977e-01
1.769000000000000000e+03 2.738891029357910156e+01 -2.039977312088012695e+00 -2.038275718688964844e+00 -1.706041246652603149e-01 -6.626639366149902344e-01 -5.019159913063049316e-01
1.770000000000000000e+03 3.110933113098144531e+01 -2.954491376876831055e+00 -2.044003248214721680e+00 3.111231029033660889e-01 -5.198640823364257812e-01 -4.321428239345550537e-01
1.771000000000000000e+03 2.860847091674804688e+01 -2.191329717636108398e+00 -2.172464847564697266e+00 3.684767335653305054e-02 -6.406852006912231445e-01 -4.648510217666625977e-01
1.772000000000000000e+03 2.780954360961914062e+01 -2.055964469909667969e+00 -2.137755632400512695e+00 -8.582264184951782227e-02 -6.670734882354736328e-01 -4.819139242172241211e-01
1.773000000000000000e+03 2.899039840698242188e+01 -2.113849401473999023e+00 -2.291378498077392578e+00 1.006578207015991211e-01 -6.572161912918090820e-01 -4.359358847141265869e-01
1.774000000000000000e+03 2.957502174377441406e+01 -2.080126285552978516e+00 -2.415004253387451172e+00 1.799919605255126953e-01 -6.705036759376525879e-01 -3.831138610839843750e-01
1.775000000000000000e+03 2.718741416931152344e+01 -2.064266204833984375e+00 -1.957172274589538574e+00 -2.041850239038467407e-01 -6.484071612358093262e-01 -5.115327239036560059e-01
1.776000000000000000e+03 4.544864273071289062e+01 -1.482647991180419922e+01 2.865206241607666016e+00 -3.572886884212493896e-01 7.523752450942993164e-01 -1.126430854201316833e-01
1.777000000000000000e+03 4.482659912109375000e+01 -1.394181060791015625e+01 4.220818996429443359e+00 -1.038260757923126221e-01 1.235097885131835938e+00 9.026066660881042480e-01
1.778000000000000000e+03 4.419453430175781250e+01 -1.392169666290283203e+01 5.171900272369384766e+00 5.549144744873046875e-01 1.718044400215148926e+00 1.470707416534423828e+00
1.779000000000000000e+03 4.436196899414062500e+01 -1.403998279571533203e+01 4.987010478973388672e+00 2.018301934003829956e-01 1.556652188301086426e+00 1.131712794303894043e+00
1.780000000000000000e+03 4.467560195922851562e+01 -1.432658004760742188e+01 4.202538013458251953e+00 -2.220133990049362183e-01 1.194157361984252930e+00 4.458809494972229004e-01
1.781000000000000000e+03 4.495849990844726562e+01 -1.459325981140136719e+01 3.584700107574462891e+00 -3.106537163257598877e-01 9.822139143943786621e-01 1.350265182554721832e-02
1.782000000000000000e+03 4.642217254638671875e+01 -1.466374683380126953e+01 2.406397104263305664e+00 -4.577737450599670410e-01 5.845869779586791992e-01 1.447804868221282959e-01
1.783000000000000000e+03 2.566003417968750000e+01 -3.255849838256835938e+00 -1.048365354537963867e+00 -1.195147484540939331e-01 -3.503640294075012207e-01 -8.828318715095520020e-01
1.784000000000000000e+03 2.356353950500488281e+01 2.319879150390625000e+01 -8.975327759981155396e-02 -1.321541983634233475e-02 -3.089060820639133453e-02 2.851794846355915070e-02
1.785000000000000000e+03 3.455537796020507812e+01 2.470811843872070312e+00 -6.177315372042357922e-04 1.044424832798540592e-03 1.280079886782914400e-04 -7.669568294659256935e-04
1.786000000000000000e+03 3.341610717773437500e+01 6.908510684967041016e+00 -4.864482907578349113e-04 1.194514683447778225e-03 2.124199090758338571e-04 -4.436899907886981964e-04
1.787000000000000000e+03 3.531626510620117188e+01 6.208477497100830078e+00 -1.525737461633980274e-03 -2.866231079678982496e-04 -5.437081563286483288e-04 -1.401457702741026878e-04
1.788000000000000000e+03 3.382817840576171875e+01 6.660152912139892578e+00 5.657816072925925255e-04 8.735975716263055801e-04 4.318137653172016144e-04 -8.211519452743232250e-04
1.789000000000000000e+03 2.731545448303222656e+01 2.174559783935546875e+01 -1.353187710046768188e-01 -3.400374576449394226e-02 -5.079675838351249695e-02 6.078332662582397461e-02
1.790000000000000000e+03 2.261776924133300781e+01 4.323102474212646484e+00 7.252167506521800533e-06 1.067170251189963892e-05 5.377160960051696748e-06 7.499420462409034371e-06
1.791000000000000000e+03 2.232541275024414062e+01 4.584111213684082031e+00 -1.149536910816095769e-05 -1.827539381338283420e-05 -8.931228876463137567e-06 -1.205522130476310849e-05
1.792000000000000000e+03 1.429642391204833984e+01 1.742560195922851562e+01 -3.715982893481850624e-04 2.216292079538106918e-03 5.534081137739121914e-04 4.723431193269789219e-04
1.793000000000000000e+03 1.414616012573242188e+01 1.585647869110107422e+01 -2.464514400344341993e-04 1.482501742430031300e-03 3.708151052705943584e-04 4.095721233170479536e-04
1.794000000000000000e+03 2.267366600036621094e+01 3.230245113372802734e+00 1.104846796806668863e-05 1.499730387877207249e-05 7.813731826900038868e-06 5.211979896557750180e-06
1.795000000000000000e+03 1.384646415710449219e+01 1.746012496948242188e+01 4.150495515204966068e-04 1.515636802650988102e-03 5.792059237137436867e-04 5.231501418165862560e-04
1.796000000000000000e+03 2.188461685180664062e+01 3.662624835968017578e+00 1.173919190478045493e-05 2.172589120164047927e-05 1.003952456812839955e-05 1.115073882829165086e-05
1.797000000000000000e+03 1.857144165039062500e+01 2.227349090576171875e+01 -4.070090502500534058e-02 -9.071114473044872284e-04 -1.248240470886230469e-02 -9.617779141990467906e-05
1.798000000000000000e+03 1.825644302368164062e+01 7.682371616363525391e+00 -5.282231722958385944e-05 -3.933453626814298332e-05 -2.764705641311593354e-05 -2.252709600725211203e-05
1.799000000000000000e+03 1.875802421569824219e+01 7.259055137634277344e+00 -4.108089706278406084e-05 -4.392966002342291176e-05 -2.550316639826633036e-05 -4.906774120172485709e-05
1.800000000000000000e+03 1.914666938781738281e+01 6.624701976776123047e+00 -3.847166226478293538e-05 -4.392187474877573550e-05 -2.471806146786548197e-05 -2.085243795590940863e-05
1.801000000000000000e+03 2.152695655822753906e+01 3.919641971588134766e+00 -1.132479428633814678e-05 -3.621051291702315211e-05 -1.426059225195785984e-05 -1.184483062388608232e-05
1.802000000000000000e+03 2.047127914428710938e+01 4.953029155731201172e+00 -1.421435808879323304e-05 -4.215045191813260317e-05 -1.690944372967351228e-05 -1.244589293492026627e-05
1.803000000000000000e+03 1.387155055999755859e+01 1.820299148559570312e+01 4.233146319165825844e-04 1.290815533138811588e-03 5.142390145920217037e-04 3.742724948097020388e-04
1.804000000000000000e+03 3.228438186645507812e+01 1.608586502075195312e+01 -2.040896750986576080e-02 -2.407168969511985779e-02 -1.334419660270214081e-02 2.571957185864448547e-02
1.805000000000000000e+03 1.609873580932617188e+01 1.025060939788818359e+01 -6.053354445612058043e-05 1.317022815783275291e-05 -1.420899479853687808e-05 -1.003648067126050591e-04
1.806000000000000000e+03 1.617858314514160156e+01 9.534302711486816406e+00 8.242813782999292016e-05 1.467358088120818138e-04 6.874918472021818161e-05 -3.296888053228030913e-06
1.807000000000000000e+03 2.359211730957031250e+01 2.262101173400878906e+01 -1.010868847370147705e-01 -1.067199464887380600e-02 -3.352766484022140503e-02 2.690215036273002625e-02
1.808000000000000000e+03 2.401318550109863281e+01 2.252339744567871094e+01 -1.048272028565406799e-01 -1.075595151633024216e-02 -3.467494621872901917e-02 3.006570041179656982e-02
1.809000000000000000e+03 1.589178276062011719e+01 1.002139854431152344e+01 1.415179940522648394e-05 1.130539458245038986e-04 3.816172466031275690e-05 2.260419569211080670e-05
1.810000000000000000e+03 3.321169281005859375e+01 1.169709587097167969e+01 -7.475794409401714802e-04 -7.120290538296103477e-04 -4.378825542517006397e-04 2.725426806136965752e-03
1.811000000000000000e+03 1.567378425598144531e+01 1.143840694427490234e+01 -1.197152159875258803e-04 2.008107403526082635e-04 2.432865585433319211e-05 -1.411470439052209258e-04
1.812000000000000000e+03 3.284969711303710938e+01 1.050081825256347656e+01 1.446223584935069084e-03 3.317697672173380852e-03 1.429176423698663712e-03 -6.037460407242178917e-04
1.813000000000000000e+03 3.201910018920898438e+01 1.548472309112548828e+01 -1.199549529701471329e-02 -2.393628284335136414e-02 -1.077953353524208069e-02 1.854812726378440857e-02
1.814000000000000000e+03 2.111428833007812500e+01 2.220463562011718750e+01 -8.648970723152160645e-02 -1.888677710667252541e-03 -2.651351504027843475e-02 -4.072351381182670593e-03
1.815000000000000000e+03 2.022940254211425781e+01 2.260931587219238281e+01 -6.303330510854721069e-02 -1.080644433386623859e-03 -1.923418603837490082e-02 3.993861377239227295e-03
1.816000000000000000e+03 3.495498657226562500e+01 3.112893819808959961e+00 -7.356950081884860992e-04 1.181005733087658882e-03 1.335932029178366065e-04 -9.766698349267244339e-04
1.817000000000000000e+03 3.355836105346679688e+01 3.321486473083496094e+00 1.763612963259220123e-03 -1.739555300446227193e-04 4.768971994053572416e-04 -3.258299329900182784e-05
1.818000000000000000e+03 1.377786254882812500e+01 1.671507644653320312e+01 4.181580443400889635e-04 1.320047071203589439e-03 5.214615375734865665e-04 4.535214393399655819e-04
1.819000000000000000e+03 2.775293159484863281e+01 2.161334991455078125e+01 -1.345808058977127075e-01 -4.760235175490379333e-02 -5.465494468808174133e-02 6.531015783548355103e-02
1.820000000000000000e+03 2.750247383117675781e+01 2.234296607971191406e+01 -1.079313382506370544e-01 -4.284247010946273804e-02 -4.523214325308799744e-02 5.388144403696060181e-02
1.821000000000000000e+03 1.794292640686035156e+01 7.908728122711181641e+00 2.917937854363117367e-05 5.758001861977390945e-05 2.602781933092046529e-05 2.460240284563042223e-05
1.822000000000000000e+03 3.196401214599609375e+01 1.676713180541992188e+01 -2.591030672192573547e-02 -3.230893611907958984e-02 -1.746577396988868713e-02 3.224848955869674683e-02
1.823000000000000000e+03 3.285298156738281250e+01 1.360032081604003906e+01 -7.667837664484977722e-03 -7.755588274449110031e-03 -4.627028014510869980e-03 9.673958644270896912e-03
1.824000000000000000e+03 3.064000320434570312e+01 1.938166999816894531e+01 -7.571521401405334473e-02 -6.297166645526885986e-02 -4.160606488585472107e-02 6.499422341585159302e-02
1.825000000000000000e+03 3.386614990234375000e+01 7.826849937438964844e+00 -2.421492972644045949e-04 9.739960078150033951e-04 2.195540146203711629e-04 -2.552936202846467495e-04
1.826000000000000000e+03 3.386212158203125000e+01 5.373572349548339844e+00 1.167521695606410503e-03 -3.678593145650665974e-07 3.501461469568312168e-04 1.355821441393345594e-04
1.827000000000000000e+03 3.038340759277343750e+01 1.968137741088867188e+01 -8.644942194223403931e-02 -6.695388257503509521e-02 -4.602099210023880005e-02 6.756258010864257812e-02
1.828000000000000000e+03 3.256736755371093750e+01 1.434362411499023438e+01 -8.516839705407619476e-03 -1.247648987919092178e-02 -6.297999061644077301e-03 1.301930937916040421e-02
1.829000000000000000e+03 1.343826007843017578e+01 1.266606521606445312e+01 -9.201087232213467360e-05 3.225551918148994446e-04 6.916328857187181711e-05 3.535344440024346113e-04
1.830000000000000000e+03 3.345463562011718750e+01 9.720195770263671875e+00 -4.828065866604447365e-04 1.830222085118293762e-03 4.042246728204190731e-04 1.992016623262315989e-04
1.831000000000000000e+03 3.377448272705078125e+01 8.237459182739257812e+00 7.846718654036521912e-04 8.163662860170006752e-04 4.803114279638975859e-04 -9.934676345437765121e-04
1.832000000000000000e+03 1.473267841339111328e+01 1.197248554229736328e+01 1.593699416844174266e-04 3.895403351634740829e-04 1.646730815991759300e-04 8.951357449404895306e-05
1.833000000000000000e+03 2.012796592712402344e+01 5.792985439300537109e+00 2.161904194508679211e-05 2.291523560415953398e-05 1.336028344667283818e-05 2.645992572070099413e-05
1.834000000000000000e+03 3.144001960754394531e+01 1.695863914489746094e+01 -2.335529588162899017e-02 -4.484953358769416809e-02 -2.046144939959049225e-02 3.277266025543212891e-02
1.835000000000000000e+03 1.897734642028808594e+01 2.237751579284667969e+01 -4.482283815741539001e-02 -4.568418080452829599e-04 -1.358390413224697113e-02 -1.654441002756357193e-04
1.836000000000000000e+03 1.841035270690917969e+01 2.281275367736816406e+01 -4.015558958053588867e-02 2.171716041630133986e-04 -1.198152545839548111e-02 4.279879387468099594e-03
1.837000000000000000e+03 2.450307846069335938e+01 2.283458137512207031e+01 -1.008897274732589722e-01 -1.545785181224346161e-02 -3.490427508950233459e-02 3.392926603555679321e-02
1.838000000000000000e+03 1.600339508056640625e+01 2.091546630859375000e+01 -1.130870357155799866e-02 2.550975477788597345e-04 -3.316081827506422997e-03 -3.924376331269741058e-03
1.839000000000000000e+03 1.520387840270996094e+01 2.105195617675781250e+01 -1.212745998054742813e-02 1.530959387309849262e-03 -3.178950166329741478e-03 -1.423615845851600170e-03
1.840000000000000000e+03 3.252226638793945312e+01 1.249077224731445312e+01 -2.250519348308444023e-03 -1.536434399895370007e-03 -1.136086066253483295e-03 2.231443999335169792e-03
1.841000000000000000e+03 3.307408523559570312e+01 1.397747516632080078e+01 -8.759858086705207825e-03 -8.772714994847774506e-03 -5.259771831333637238e-03 1.197207253426313400e-02
1.842000000000000000e+03 3.423817825317382812e+01 8.287538528442382812e+00 2.145140388165600598e-05 1.022763550281524658e-03 3.132644924335181713e-04 -3.059783193748444319e-04
1.843000000000000000e+03 1.845241928100585938e+01 6.749060630798339844e+00 -4.446962702786549926e-05 -1.875777888926677406e-05 -1.896822141134180129e-05 -1.460725707147503272e-05
1.844000000000000000e+03 1.938932037353515625e+01 2.246553611755371094e+01 -4.981875792145729065e-02 -1.207873690873384476e-03 -1.530798897147178650e-02 5.727944080717861652e-04
1.845000000000000000e+03 3.097016716003417969e+01 1.810355377197265625e+01 -4.050992056727409363e-02 -6.233826279640197754e-02 -3.085445426404476166e-02 4.824486747384071350e-02
1.846000000000000000e+03 2.046803474426269531e+01 5.534802436828613281e+00 -1.955637526407372206e-05 -3.106545773334801197e-05 -1.518654971732757986e-05 -1.884376979433000088e-05
1.847000000000000000e+03 2.689602851867675781e+01 2.185679244995117188e+01 -1.326545923948287964e-01 -2.724923379719257355e-02 -4.797114804387092590e-02 5.343195796012878418e-02
1.848000000000000000e+03 2.663734436035156250e+01 2.255062866210937500e+01 -1.086338013410568237e-01 -3.099377453327178955e-02 -4.188827425241470337e-02 4.853984713554382324e-02
1.849000000000000000e+03 1.480980300903320312e+01 2.088626670837402344e+01 -9.831603616476058960e-03 2.209137892350554466e-03 -2.286739880219101906e-03 -1.678352593444287777e-03
1.850000000000000000e+03 1.504922771453857422e+01 1.052776622772216797e+01 1.545382983749732375e-04 2.355882606934756041e-04 1.170379691757261753e-04 5.714986400562338531e-05
1.851000000000000000e+03 1.579042625427246094e+01 1.049780654907226562e+01 6.301845860434696078e-05 1.731357042444869876e-04 7.084624667186290026e-05 7.795098645146936178e-05
1.852000000000000000e+03 1.624975013732910156e+01 9.201265335083007812e+00 -1.158882878371514380e-04 2.956068237836007029e-05 -2.589828181953635067e-05 -6.146789019112475216e-06
1.853000000000000000e+03 2.649072265625000000e+01 2.195798873901367188e+01 -1.293688714504241943e-01 -2.249513007700443268e-02 -4.555919766426086426e-02 4.825624823570251465e-02
1.854000000000000000e+03 1.385841464996337891e+01 1.857441139221191406e+01 -6.061311578378081322e-04 1.098341424949467182e-03 1.476630714023485780e-04 1.700205320958048105e-04
1.855000000000000000e+03 2.152091979980468750e+01 2.223664093017578125e+01 -1.007508859038352966e-01 -4.940016660839319229e-03 -3.170727193355560303e-02 1.130842254497110844e-03
1.856000000000000000e+03 1.687828254699707031e+01 7.448569774627685547e+00 -1.278102445212425664e-05 1.674344639468472451e-05 1.188726400869200006e-06 6.284972914727404714e-05
1.857000000000000000e+03 3.115978813171386719e+01 1.774232292175292969e+01 -3.542374446988105774e-02 -5.620042234659194946e-02 -2.748725004494190216e-02 4.283844307065010071e-02
1.858000000000000000e+03 3.115850448608398438e+01 1.869538497924804688e+01 -5.767152830958366394e-02 -5.317860469222068787e-02 -3.325504064559936523e-02 5.428465828299522400e-02
1.859000000000000000e+03 2.152132987976074219e+01 2.272449684143066406e+01 -8.438110351562500000e-02 -8.135427720844745636e-03 -2.775495871901512146e-02 1.254254672676324844e-02
1.860000000000000000e+03 3.426873397827148438e+01 5.003919124603271484e+00 1.040646340698003769e-03 3.963578637922182679e-05 3.240846272092312574e-04 1.049466081894934177e-04
1.861000000000000000e+03 3.388539505004882812e+01 5.770161628723144531e+00 -9.887211490422487259e-04 4.899011109955608845e-04 -1.496460317866876721e-04 -6.629673298448324203e-04
1.862000000000000000e+03 3.424800491333007812e+01 5.370899200439453125e+00 -8.740844205021858215e-04 5.111059872433543205e-04 -1.088935387087985873e-04 -4.918431513942778111e-04
1.863000000000000000e+03 2.985652923583984375e+01 1.983133697509765625e+01 -9.966352581977844238e-02 -8.573776483535766602e-02 -5.562038719654083252e-02 7.981428503990173340e-02
1.864000000000000000e+03 1.681001663208007812e+01 2.177218627929687500e+01 -2.384473755955696106e-02 -1.332595595158636570e-03 -7.553200237452983856e-03 -9.076962596736848354e-04
1.865000000000000000e+03 1.376006507873535156e+01 1.406838035583496094e+01 3.330815525259822607e-04 7.476711180061101913e-04 3.242258098907768726e-04 3.539237077347934246e-04
1.866000000000000000e+03 1.416815090179443359e+01 1.453246784210205078e+01 3.859763673972338438e-04 9.628156549297273159e-04 4.046375979669392109e-04 3.188549308106303215e-04
1.867000000000000000e+03 3.420913314819335938e+01 3.413764238357543945e+00 -8.916215738281607628e-04 4.311290103942155838e-04 -1.381477632094174623e-04 -5.461781984195113182e-04
1.868000000000000000e+03 2.065811729431152344e+01 2.266846847534179688e+01 -7.036572694778442383e-02 -1.494005788117647171e-03 -2.155791968107223511e-02 6.841739639639854431e-03
1.869000000000000000e+03 1.440409660339355469e+01 2.073214340209960938e+01 -8.150769397616386414e-03 1.532757072709500790e-03 -1.985403709113597870e-03 -8.815854089334607124e-04
1.870000000000000000e+03 2.904262351989746094e+01 2.094108581542968750e+01 -1.345037668943405151e-01 -7.742790132761001587e-02 -6.357949972152709961e-02 6.865678727626800537e-02
1.871000000000000000e+03 2.276426887512207031e+01 2.267155647277832031e+01 -9.855280071496963501e-02 -9.626370854675769806e-03 -3.245374932885169983e-02 1.872733607888221741e-02
1.872000000000000000e+03 2.235631752014160156e+01 2.268122482299804688e+01 -9.380091726779937744e-02 -9.981655515730381012e-03 -3.113477304577827454e-02 1.615544408559799194e-02
1.873000000000000000e+03 2.936940574645996094e+01 2.058294677734375000e+01 -1.304677426815032959e-01 -7.995045930147171021e-02 -6.312546133995056152e-02 7.197290658950805664e-02
1.874000000000000000e+03 2.848586654663085938e+01 2.201909065246582031e+01 -1.039917320013046265e-01 -5.928609520196914673e-02 -4.898334667086601257e-02 5.267780274152755737e-02
1.875000000000000000e+03 2.981449890136718750e+01 2.089193534851074219e+01 -1.125764921307563782e-01 -6.046302616596221924e-02 -5.191185325384140015e-02 5.287311598658561707e-02
1.876000000000000000e+03 3.008143806457519531e+01 2.042911148071289062e+01 -1.087056249380111694e-01 -5.976765230298042297e-02 -5.054198205471038818e-02 5.915307253599166870e-02
1.877000000000000000e+03 1.432041358947753906e+01 1.936232948303222656e+01 -6.985255749896168709e-04 1.582944649271667004e-03 2.653257106430828571e-04 -8.491167682223021984e-04
1.878000000000000000e+03 3.343671798706054688e+01 2.877385616302490234e+00 -1.675167237408459187e-03 6.709155513817677274e-06 -5.005373968742787838e-04 3.560291661415249109e-04
1.879000000000000000e+03 3.436249923706054688e+01 2.921831846237182617e+00 4.511098086368292570e-04 -1.081356080248951912e-03 -1.890738785732537508e-04 1.053726533427834511e-03
1.880000000000000000e+03 2.441598129272460938e+01 2.238327217102050781e+01 -1.103624999523162842e-01 -1.325433980673551559e-02 -3.708505257964134216e-02 3.184465691447257996e-02
1.881000000000000000e+03 1.415419197082519531e+01 2.017620849609375000e+01 -4.485817626118659973e-03 1.281878445297479630e-03 -9.611817658878862858e-04 -1.196325756609439850e-03
1.882000000000000000e+03 3.487375259399414062e+01 -1.834445714950561523e+00 -2.630679845809936523e+00 4.347747266292572021e-01 -6.587715148925781250e-01 2.432211339473724365e-01
1.883000000000000000e+03 3.509964370727539062e+01 2.635969877243041992e+00 7.093913154676556587e-04 -1.014178385958075523e-03 -9.143611532635986805e-05 6.567763630300760269e-04
1.884000000000000000e+03 1.383599758148193359e+01 1.932678031921386719e+01 -2.169353421777486801e-03 9.270627633668482304e-04 -3.726871800608932972e-04 -6.585686351172626019e-04
1.885000000000000000e+03 4.691370391845703125e+01 -1.479666805267333984e+01 2.177317142486572266e+00 -3.888128399848937988e-01 5.365512967109680176e-01 1.856853365898132324e-01
1.886000000000000000e+03 4.614043807983398438e+01 -1.416623306274414062e+01 2.849453210830688477e+00 -5.013818144798278809e-01 7.044214010238647461e-01 4.079278409481048584e-01
1.887000000000000000e+03 3.171775436401367188e+01 -2.243862867355346680e+00 -2.638477325439453125e+00 1.610050201416015625e-01 -7.432417273521423340e-01 -3.741281032562255859e-01
1.888000000000000000e+03 2.110388755798339844e+01 5.034135341644287109e+00 -2.570152355474419892e-05 -2.252711237815674394e-05 -1.446859005227452144e-05 -1.411849189025815576e-05
1.889000000000000000e+03 7.637862396240234375e+01 -1.900394058227539062e+01 7.684750744374468923e-05 -8.333683945238590240e-05 -1.946799784491304308e-06 -2.097940450767055154e-04
1.890000000000000000e+03 7.813925933837890625e+01 -1.369126605987548828e+01 -3.133494034409523010e-02 -3.384779393672943115e-02 -1.955481991171836853e-02 -3.753989562392234802e-02
1.891000000000000000e+03 7.833365631103515625e+01 -1.258496284484863281e+01 -3.442977741360664368e-02 -6.511266529560089111e-02 -2.986273355782032013e-02 -7.305767387151718140e-02
1.892000000000000000e+03 7.727372741699218750e+01 -1.345119380950927734e+01 -6.279712915420532227e-02 -4.907300323247909546e-02 -3.356103971600532532e-02 -7.694724947214126587e-02
1.893000000000000000e+03 4.081294631958007812e+01 -1.700408172607421875e+01 5.874018073081970215e-01 4.546744823455810547e+00 1.540243983268737793e+00 1.490915179252624512e+00
1.894000000000000000e+03 4.157447814941406250e+01 -1.676172828674316406e+01 2.615376710891723633e-01 5.925137996673583984e+00 1.856002688407897949e+00 9.805411696434020996e-01
1.895000000000000000e+03 7.297678375244140625e+01 -1.906898498535156250e+01 1.515637850388884544e-04 -2.163970566471107304e-05 3.897722490364685655e-05 1.849492036853916943e-05
1.896000000000000000e+03 7.443099212646484375e+01 -1.985065269470214844e+01 1.941282098414376378e-04 -3.202338411938399076e-04 -3.783168722293339670e-05 -6.542728078784421086e-05
1.897000000000000000e+03 1.896314430236816406e+01 2.765256166458129883e+00 8.500895091856364161e-06 3.998828469775617123e-05 1.454675475542899221e-05 -3.364170197528437711e-06
1.898000000000000000e+03 1.753086471557617188e+01 3.209626913070678711e+00 -9.147723176283761859e-06 -3.252604074077680707e-05 -1.250212881132028997e-05 7.670954801142215729e-06
1.899000000000000000e+03 2.300091171264648438e+01 -3.053834199905395508e+00 -7.646784186363220215e-01 3.065028600394725800e-02 -2.202084362506866455e-01 -6.381555795669555664e-01
1.900000000000000000e+03 4.386548233032226562e+01 -1.295066928863525391e+01 3.620298624038696289e+00 2.554112195968627930e+00 1.852323293685913086e+00 2.440055608749389648e+00
1.901000000000000000e+03 3.936288452148437500e+01 -3.509771823883056641e+00 -2.757605314254760742e+00 4.424045383930206299e-01 -6.945602297782897949e-01 5.085652470588684082e-01
1.902000000000000000e+03 3.406076049804687500e+01 -2.285730361938476562e+00 -2.630739450454711914e+00 6.952709704637527466e-02 -7.683637142181396484e-01 3.970722556114196777e-01
1.903000000000000000e+03 1.471246719360351562e+01 3.150892734527587891e+00 -6.740535809512948617e-06 -3.244854087824933231e-05 -1.175672332465182990e-05 1.897937545436434448e-05
1.904000000000000000e+03 6.768129730224609375e+01 -1.230775642395019531e+01 -1.178865432739257812e+00 1.943997293710708618e-01 -2.953397035598754883e-01 1.111088767647743225e-01
1.905000000000000000e+03 6.972060394287109375e+01 -1.391278839111328125e+01 -4.925081431865692139e-01 8.384258300065994263e-02 -1.225996688008308411e-01 2.725657075643539429e-02
1.906000000000000000e+03 1.964750099182128906e+01 2.870648384094238281e+00 -6.046112048352370039e-06 -3.582927092793397605e-05 -1.256261475646169856e-05 -2.088303972413996235e-06
1.907000000000000000e+03 2.021265411376953125e+01 3.528434514999389648e+00 -8.624517249700147659e-06 -3.617262336774729192e-05 -1.343914209428476170e-05 -4.928095222567208111e-06
1.908000000000000000e+03 2.088581085205078125e+01 4.133937358856201172e+00 -2.530393850008749723e-08 1.553439324197825044e-05 4.652726602216716856e-06 -5.129264081915607676e-06
1.909000000000000000e+03 7.148165893554687500e+01 -1.935563850402832031e+01 -2.297020546393468976e-05 3.667473720270209014e-05 4.111359885428100824e-06 2.018682571360841393e-04
1.910000000000000000e+03 7.121437835693359375e+01 -2.025194549560546875e+01 6.364493747241795063e-04 -8.866181451594457030e-05 1.643362629693001509e-04 2.838051877915859222e-04
1.911000000000000000e+03 1.328036975860595703e+01 2.521631479263305664e+00 2.533137558202724904e-05 5.277642048895359039e-05 2.343233973078895360e-05 4.220870778226526454e-06
1.912000000000000000e+03 1.178598117828369141e+01 3.236305236816406250e+00 1.743305620038881898e-05 -5.237134973867796361e-05 -1.048148806148674339e-05 4.390798494569025934e-05
1.913000000000000000e+03 1.683956909179687500e+01 3.186205148696899414e+00 1.728015558910556138e-05 4.226576857035979629e-05 1.786377652024384588e-05 -3.508151621645083651e-06
1.914000000000000000e+03 1.688892745971679688e+01 2.599300146102905273e+00 -9.330770808446686715e-06 -3.707999712787568569e-05 -1.392322974425042048e-05 8.684197382535785437e-06
1.915000000000000000e+03 1.820476531982421875e+01 3.241439342498779297e+00 1.069100471795536578e-05 4.097747660125605762e-05 1.550054366816766560e-05 -6.271368874877225608e-06
1.916000000000000000e+03 7.512000274658203125e+01 -1.988567924499511719e+01 6.738247611792758107e-05 -9.698705252958461642e-05 -8.881372195901349187e-06 -2.309111150680109859e-04
1.917000000000000000e+03 3.662269973754882812e+01 4.011595249176025391e+00 -4.385323554743081331e-04 -1.272651134058833122e-03 -5.133550730533897877e-04 7.974060135893523693e-04
1.918000000000000000e+03 1.398504638671875000e+01 3.156063079833984375e+00 2.499745096429251134e-05 5.233801130088977516e-05 2.320063867955468595e-05 9.306149877374991775e-06
1.919000000000000000e+03 1.401305484771728516e+01 2.520798444747924805e+00 3.207436805041652406e-07 -4.139593147556297481e-05 -1.232255635841283947e-05 2.135162321792449802e-05
1.920000000000000000e+03 1.543140602111816406e+01 3.156162977218627930e+00 2.299773404956795275e-05 4.741875090985558927e-05 2.112494439643342048e-05 2.934414851551991887e-06
1.921000000000000000e+03 3.413958740234375000e+01 3.910563945770263672e+00 7.267282344400882721e-04 1.241907739313319325e-04 2.552756923250854015e-04 5.264173960313200951e-04
1.922000000000000000e+03 1.104822921752929688e+01 3.263296365737915039e+00 5.347428668756037951e-05 4.321312735555693507e-05 2.900622348533943295e-05 -4.085080945515073836e-06
1.923000000000000000e+03 1.252181529998779297e+01 3.203065633773803711e+00 3.066593853873200715e-05 5.308812615112401545e-05 2.512621904315892607e-05 6.352809577947482467e-06
1.924000000000000000e+03 1.030524730682373047e+01 3.275969743728637695e+00 1.337376397714251652e-05 -5.615068221231922507e-05 -1.283307483390672132e-05 4.251241261954419315e-05
1.925000000000000000e+03 7.314228057861328125e+00 3.309777498245239258e+00 8.218143193516880274e-06 -5.520995182450860739e-05 -1.409754167980281636e-05 1.988531403185334057e-05
1.926000000000000000e+03 1.075367736816406250e+01 -4.133635044097900391e+00 -3.911929950118064880e-02 -7.800526916980743408e-02 -3.513737022876739502e-02 -7.319231517612934113e-03
1.927000000000000000e+03 1.063862609863281250e+01 -3.366180658340454102e+00 1.393928192555904388e-02 -5.032468214631080627e-02 -1.091562025249004364e-02 4.780124872922897339e-03
1.928000000000000000e+03 7.519239044189453125e+01 -1.291571617126464844e+01 -1.787765324115753174e-01 -4.544662311673164368e-02 -6.726694852113723755e-02 -1.677820235490798950e-01
1.929000000000000000e+03 7.357565307617187500e+01 -1.360933589935302734e+01 -2.590574622154235840e-01 1.800438389182090759e-02 -7.231592386960983276e-02 -1.248986348509788513e-01
1.930000000000000000e+03 7.667018127441406250e+01 -1.316339874267578125e+01 -1.033156216144561768e-01 -5.788280814886093140e-02 -4.835952818393707275e-02 -1.085108742117881775e-01
1.931000000000000000e+03 7.594795227050781250e+01 -1.298815155029296875e+01 -1.293002516031265259e-01 -4.924979805946350098e-02 -5.356501787900924683e-02 -1.319160908460617065e-01
1.932000000000000000e+03 1.502445888519287109e+01 -3.060371637344360352e+00 -6.468026340007781982e-02 -1.070050746202468872e-01 -5.150560289621353149e-02 -1.708706766366958618e-01
1.933000000000000000e+03 9.759078979492187500e+00 -2.633333683013916016e+00 7.463276386260986328e-02 -2.588383294641971588e-02 1.462467852979898453e-02 2.963899075984954834e-02
1.934000000000000000e+03 7.303752899169921875e+00 2.578162670135498047e+00 7.032501889625564218e-05 3.316119546070694923e-05 3.104586357949301600e-05 -2.855573075066786259e-05
1.935000000000000000e+03 6.582458972930908203e+00 3.343318939208984375e+00 8.731231355341151357e-05 2.315319943591021001e-05 3.313965498819015920e-05 -3.609492341638542712e-05
1.936000000000000000e+03 8.801709175109863281e+00 3.281643152236938477e+00 1.987573159567546099e-05 -6.145693623693659902e-05 -1.247436102858046070e-05 3.189317067153751850e-05
1.937000000000000000e+03 8.054037094116210938e+00 3.291918277740478516e+00 7.964686665218323469e-05 2.675753603398334235e-05 3.192132135154679418e-05 -2.977787698910105973e-05
1.938000000000000000e+03 5.119253635406494141e+00 3.511714696884155273e+00 5.203805267228744924e-05 4.404162609716877341e-05 2.882390435843262821e-05 -4.681456994148902595e-05
1.939000000000000000e+03 4.386269092559814453e+00 3.655876874923706055e+00 2.900476283684838563e-05 -5.560664430959150195e-05 -7.980564078025054187e-06 6.843225037300726399e-06
1.940000000000000000e+03 3.538453102111816406e+00 2.895365715026855469e+00 -1.082338440028252080e-05 -2.869755553547292948e-05 -1.185628207167610526e-05 1.578135379531886429e-05
1.941000000000000000e+03 5.242437362670898438e+00 4.290050983428955078e+00 4.608250310411676764e-05 -6.265510455705225468e-05 -4.971779617335414514e-06 -1.973634789464995265e-05
1.942000000000000000e+03 5.852155208587646484e+00 3.407548427581787109e+00 1.366003561997786164e-05 -5.303996658767573535e-05 -1.181397874461254105e-05 -4.404187166073825210e-06
1.943000000000000000e+03 5.931576251983642578e+00 4.153961181640625000e+00 9.965571371139958501e-05 1.328641337750013918e-05 3.388263939996249974e-05 -3.318007657071575522e-05
1.944000000000000000e+03 9.554732322692871094e+00 3.278286695480346680e+00 7.138341607060283422e-05 3.213809031876735389e-05 3.105645009782165289e-05 -1.097957283491268754e-05
1.945000000000000000e+03 5.712437152862548828e+00 -2.818583488464355469e+00 4.715341329574584961e-02 -2.564425114542245865e-03 1.337669696658849716e-02 6.941460072994232178e-02
1.946000000000000000e+03 3.874063253402709961e+00 -2.736470699310302734e+00 3.176671266555786133e-02 1.207868102937936783e-02 1.315361820161342621e-02 6.364366412162780762e-02
1.947000000000000000e+03 6.875681877136230469e+00 -4.487240791320800781e+00 -1.880113780498504639e-02 -1.903368718922138214e-02 -1.135044824331998825e-02 6.212674826383590698e-02
1.948000000000000000e+03 3.154626369476318359e+00 -2.347013711929321289e+00 3.050929494202136993e-02 1.404088642448186874e-02 1.336505450308322906e-02 5.402418226003646851e-02
1.949000000000000000e+03 4.889848709106445312e+00 -3.719185113906860352e+00 1.650736667215824127e-02 6.308490876108407974e-03 6.844757124781608582e-03 7.305532693862915039e-02
1.950000000000000000e+03 8.288471221923828125e+00 -3.402154922485351562e+00 2.525571361184120178e-02 -2.652876079082489014e-02 -3.819139092229306698e-04 5.282043665647506714e-02
1.951000000000000000e+03 4.769470691680908203e+00 -4.925695419311523438e+00 -1.624357514083385468e-02 7.017546333372592926e-03 -2.767808502539992332e-03 6.963057816028594971e-02
1.952000000000000000e+03 2.547158718109130859e+00 -2.840166568756103516e+00 1.832720451056957245e-02 2.628755196928977966e-02 1.338442694395780563e-02 5.277337133884429932e-02
1.953000000000000000e+03 2.462043046951293945e+00 -4.309645652770996094e+00 2.693262416869401932e-03 4.842466861009597778e-02 1.533537916839122772e-02 5.779236555099487305e-02
1.954000000000000000e+03 9.080404281616210938e+00 -3.368899106979370117e+00 2.437557280063629150e-02 -3.339130431413650513e-02 -2.704719314351677895e-03 4.024495929479598999e-02
1.955000000000000000e+03 3.192388343811035156e+01 -2.691119194030761719e+00 -2.263943910598754883e+00 1.597250699996948242e-01 -6.312656402587890625e-01 -3.686513304710388184e-01
1.956000000000000000e+03 3.794931030273437500e+01 -1.495876193046569824e+00 -2.083817958831787109e+00 4.208572804927825928e-01 -4.988882243633270264e-01 6.811103820800781250e-01
1.957000000000000000e+03 1.721957588195800781e+01 -4.000927925109863281e+00 -2.041894346475601196e-01 -1.763248443603515625e-01 -1.141542792320251465e-01 -3.382099866867065430e-01
1.958000000000000000e+03 1.820682716369628906e+01 -3.244420289993286133e+00 -2.403519451618194580e-01 -1.368153989315032959e-01 -1.131502017378807068e-01 -3.561062812805175781e-01
1.959000000000000000e+03 1.216138362884521484e+01 -3.226943254470825195e+00 2.644705818966031075e-03 -6.941632926464080811e-02 -2.003148570656776428e-02 -4.396109282970428467e-02
1.960000000000000000e+03 1.288669109344482422e+01 -3.142056941986083984e+00 -4.937619902193546295e-03 -7.832305133342742920e-02 -2.497819997370243073e-02 -7.055711746215820312e-02
1.961000000000000000e+03 3.553870010375976562e+01 -2.770444631576538086e+00 -2.311254978179931641e+00 5.624308586120605469e-01 -5.246472954750061035e-01 3.928654491901397705e-01
1.962000000000000000e+03 7.184120941162109375e+01 -1.282985687255859375e+01 -4.515781104564666748e-01 8.088258653879165649e-02 -1.112086549401283264e-01 -1.777833253145217896e-01
1.963000000000000000e+03 7.273586273193359375e+01 -1.277323722839355469e+01 -3.725522756576538086e-01 5.699033290147781372e-02 -9.466858208179473877e-02 -1.746078729629516602e-01
1.964000000000000000e+03 7.106535339355468750e+01 -1.302960586547851562e+01 -5.341203808784484863e-01 1.218243986368179321e-01 -1.236888021230697632e-01 -1.270601153373718262e-01
1.965000000000000000e+03 4.372768402099609375e+01 -1.896934890747070312e+01 -2.015912085771560669e-01 2.179430484771728516e+00 5.933517813682556152e-01 -5.345579385757446289e-01
1.966000000000000000e+03 1.575701522827148438e+01 -3.092816591262817383e+00 -9.849334508180618286e-02 -1.199383959174156189e-01 -6.552952527999877930e-02 -2.144554853439331055e-01
1.967000000000000000e+03 7.039929962158203125e+01 -1.315915489196777344e+01 -5.894352197647094727e-01 1.315543353557586670e-01 -1.373642534017562866e-01 -7.915205508470535278e-02
1.968000000000000000e+03 3.770824432373046875e+01 3.875475645065307617e+00 -6.002470036037266254e-05 -1.056268229149281979e-03 -3.348878817632794380e-04 1.531057205284014344e-04
1.969000000000000000e+03 3.783895111083984375e+01 5.258238792419433594e+00 -1.125623937696218491e-03 -1.641091541387140751e-03 -8.300146437250077724e-04 1.199055579490959644e-03
1.970000000000000000e+03 7.441046142578125000e+01 -1.286406898498535156e+01 -2.383109629154205322e-01 -8.887597359716892242e-03 -7.415956258773803711e-02 -1.813140958547592163e-01
1.971000000000000000e+03 7.359352874755859375e+01 -1.278937625885009766e+01 -3.145880103111267090e-01 1.980926096439361572e-02 -8.843362331390380859e-02 -1.944569051265716553e-01
1.972000000000000000e+03 7.374012756347656250e+01 -1.979579544067382812e+01 5.387378041632473469e-05 -1.849054388003423810e-04 -3.930949969799257815e-05 -1.291863300139084458e-04
1.973000000000000000e+03 2.477574539184570312e+01 -3.328219890594482422e+00 -9.118457436561584473e-01 -3.676393255591392517e-02 -2.845829129219055176e-01 -8.376530408859252930e-01
1.974000000000000000e+03 2.282187461853027344e+01 -1.232711315155029297e+00 -7.730734348297119141e-01 1.337919086217880249e-01 -1.917844563722610474e-01 -2.417669892311096191e-01
1.975000000000000000e+03 2.156092453002929688e+01 -2.406602859497070312e+00 -5.761467218399047852e-01 1.009492296725511551e-02 -1.698155403137207031e-01 -4.161354899406433105e-01
1.976000000000000000e+03 6.952406311035156250e+01 -1.913913536071777344e+01 -1.079794747056439519e-04 -1.772830728441476822e-05 -3.771233241423033178e-05 5.283218342810869217e-04
1.977000000000000000e+03 6.902204895019531250e+01 -1.966909980773925781e+01 7.968482095748186111e-04 8.810928557068109512e-04 5.033822963014245033e-04 -2.712646673899143934e-04
1.978000000000000000e+03 1.911546516418457031e+01 -3.116222858428955078e+00 -2.995278239250183105e-01 -1.182844564318656921e-01 -1.253436803817749023e-01 -3.944701254367828369e-01
1.979000000000000000e+03 2.563669395446777344e+01 -4.262728214263916016e+00 -6.537401676177978516e-01 -1.412522941827774048e-01 -2.384977340698242188e-01 -9.500321149826049805e-01
1.980000000000000000e+03 4.240222167968750000e+01 -1.999544715881347656e+01 -4.107089936733245850e-01 2.746627807617187500e+00 7.007756233215332031e-01 -3.759223595261573792e-02
1.981000000000000000e+03 2.284430503845214844e+01 -1.812576055526733398e+00 -8.130683302879333496e-01 1.160583421587944031e-01 -2.091029882431030273e-01 -3.606939911842346191e-01
1.982000000000000000e+03 1.997056770324707031e+01 -2.881632328033447266e+00 -3.872585892677307129e-01 -8.013498783111572266e-02 -1.402180790901184082e-01 -4.103823006153106689e-01
1.983000000000000000e+03 2.077226638793945312e+01 -2.673602342605590820e+00 -4.621859788894653320e-01 -3.878059610724449158e-02 -1.502899676561355591e-01 -4.144988358020782471e-01
1.984000000000000000e+03 4.961556243896484375e+01 -1.433056449890136719e+01 1.378389596939086914e+00 5.361645668745040894e-02 4.296018183231353760e-01 6.281703710556030273e-01
1.985000000000000000e+03 3.782112121582031250e+01 -1.694186019897460938e+01 4.893536567687988281e-01 1.233341932296752930e+00 5.168086886405944824e-01 1.168656229972839355e+00
1.986000000000000000e+03 4.241577529907226562e+01 -1.202773189544677734e+01 1.533162474632263184e+00 4.380745887756347656e+00 1.774172544479370117e+00 5.702988505363464355e-01
1.987000000000000000e+03 4.974197387695312500e+01 2.348011589050292969e+01 1.239606514573097229e-01 2.867583744227886200e-02 4.579094797372817993e-02 -1.120050475001335144e-01
1.988000000000000000e+03 3.354875183105468750e+01 -3.704531669616699219e+00 -1.610458970069885254e+00 2.245958596467971802e-01 -4.157589375972747803e-01 1.141888648271560669e-01
1.989000000000000000e+03 3.354961013793945312e+01 -3.017296791076660156e+00 -2.006292343139648438e+00 7.151453942060470581e-02 -5.804333090782165527e-01 1.361491829156875610e-01
1.990000000000000000e+03 3.956116485595703125e+01 -1.330460071563720703e+01 3.038020849227905273e+00 2.044268369674682617e+00 1.524686694145202637e+00 -1.242935299873352051e+00
1.991000000000000000e+03 5.894049453735351562e+01 8.484634757041931152e-01 1.120680809020996094e+00 2.656634569168090820e+00 1.133194565773010254e+00 1.644766092300415039e+00
1.992000000000000000e+03 6.155716705322265625e+01 1.978493213653564453e+00 6.856161355972290039e-01 2.760475635528564453e+00 1.033827543258666992e+00 8.717584609985351562e-01
1.993000000000000000e+03 4.357661437988281250e+01 -4.957396984100341797e+00 -3.820792436599731445e+00 -7.769657373428344727e-01 -1.379327535629272461e+00 1.426182389259338379e+00
1.994000000000000000e+03 4.698540878295898438e+01 -7.389247894287109375e+00 -1.440372824668884277e+00 -5.138623118400573730e-01 -5.862705111503601074e-01 1.788035988807678223e+00
1.995000000000000000e+03 6.268572235107421875e+01 8.217242240905761719e+00 6.438409090042114258e-01 5.202267646789550781e+00 1.753832578659057617e+00 1.022840380668640137e+00
1.996000000000000000e+03 6.733016204833984375e+01 -1.336557292938232422e+01 -7.677248120307922363e-01 -1.153697893023490906e-01 -2.649283707141876221e-01 2.133622914552688599e-01
1.997000000000000000e+03 1.346932983398437500e+01 -2.591083908081054688e+01 3.861498832702636719e-01 -2.751929126679897308e-02 1.075891777873039246e-01 -2.915458381175994873e-01
1.998000000000000000e+03 5.600283432006835938e+01 2.324241828918457031e+01 7.469845414161682129e-01 1.283343434333801270e-01 2.625956535339355469e-01 -5.080510377883911133e-01
1.999000000000000000e+03 5.465753936767578125e+01 2.501074218750000000e+01 4.859057962894439697e-01 2.572445273399353027e-01 2.229450941085815430e-01 -5.494590997695922852e-01
2.000000000000000000e+03 5.672631072998046875e+01 -1.141649341583251953e+01 -8.785666227340698242e-01 6.383121013641357422e-01 -7.207635790109634399e-02 6.339748501777648926e-01
2.001000000000000000e+03 2.305289649963378906e+01 -9.416442871093750000e+00 -2.623363435268402100e-01 -1.664995998144149780e-01 -1.286507844924926758e-01 -3.323867917060852051e-01
2.002000000000000000e+03 2.058524894714355469e+01 -8.797503471374511719e+00 -4.286025464534759521e-01 -2.920743227005004883e-01 -2.162030637264251709e-01 -5.598430037498474121e-01
2.003000000000000000e+03 4.440007019042968750e+01 -2.443987083435058594e+01 1.343578845262527466e-01 1.544578671455383301e+00 5.036809444427490234e-01 -7.924240082502365112e-02
2.004000000000000000e+03 1.869011306762695312e+01 -2.999146461486816406e+01 4.589311778545379639e-01 3.192885518074035645e-01 2.334659248590469360e-01 -2.642468214035034180e-01
2.005000000000000000e+03 1.951994132995605469e+01 -8.853999137878417969e+00 -4.657692909240722656e-01 -3.699123263359069824e-01 -2.507044970989227295e-01 -5.540692806243896484e-01
2.006000000000000000e+03 6.876912689208984375e+01 -2.689487838745117188e+01 -7.314237300306558609e-03 1.588545390404760838e-03 -1.717707607895135880e-03 5.279600736685097218e-04
2.007000000000000000e+03 1.023561000823974609e+01 -1.716764068603515625e+01 -2.035026103258132935e-01 -3.346991837024688721e-01 -1.614605486392974854e-01 -5.582781434059143066e-01
2.008000000000000000e+03 3.614812469482421875e+01 4.430586338043212891e+00 1.733869779855012894e-03 4.296369443181902170e-04 6.490520318038761616e-04 -6.251891027204692364e-04
2.009000000000000000e+03 5.158067703247070312e+01 -1.294625568389892578e+01 5.243059992790222168e-01 1.913919448852539062e-01 2.147093862295150757e-01 1.126021146774291992e+00
2.010000000000000000e+03 5.056214904785156250e+01 -1.319240188598632812e+01 8.459684252738952637e-01 9.074911475181579590e-02 2.810152471065521240e-01 1.016046762466430664e+00
2.011000000000000000e+03 6.329095458984375000e+01 -3.255388641357421875e+01 -3.234127536416053772e-02 2.314588520675897598e-03 -9.008006192743778229e-03 2.687030658125877380e-02
2.012000000000000000e+03 2.167009162902832031e+01 -8.572456359863281250e+00 -3.760141432285308838e-01 -2.322906106710433960e-01 -1.824914216995239258e-01 -5.309055447578430176e-01
2.013000000000000000e+03 6.651383209228515625e+01 -1.008983516693115234e+01 -1.215371966361999512e+00 -1.829294860363006592e-02 -3.700994849205017090e-01 -5.463005304336547852e-01
2.014000000000000000e+03 6.683654785156250000e+01 -1.181758022308349609e+01 -1.926460266113281250e+00 1.841232925653457642e-01 -5.227010846138000488e-01 -1.457611471414566040e-01
2.015000000000000000e+03 5.375608444213867188e+01 -1.232074165344238281e+01 -2.094422429800033569e-01 3.926762044429779053e-01 5.497018620371818542e-02 1.040627717971801758e+00
2.016000000000000000e+03 5.487521743774414062e+01 -1.194689559936523438e+01 -5.553956627845764160e-01 5.111358165740966797e-01 -1.327796559780836105e-02 9.595585465431213379e-01
2.017000000000000000e+03 5.265327072143554688e+01 -1.264840126037597656e+01 9.033013880252838135e-02 3.049549460411071777e-01 1.185855269432067871e-01 1.123251795768737793e+00
2.018000000000000000e+03 6.070462036132812500e+01 -1.226861667633056641e+01 -1.738811731338500977e+00 2.941148877143859863e-01 -4.334090650081634521e-01 -2.947898507118225098e-01
2.019000000000000000e+03 4.964055252075195312e+01 -1.337011146545410156e+01 1.253829479217529297e+00 -4.204272106289863586e-02 3.635360300540924072e-01 9.552299976348876953e-01
2.020000000000000000e+03 3.308272552490234375e+01 -2.783159828186035156e+01 7.964521646499633789e-01 1.212620258331298828e+00 6.027217507362365723e-01 8.970121741294860840e-01
2.021000000000000000e+03 6.556422424316406250e+01 2.141502189636230469e+01 7.765881419181823730e-01 2.648054361343383789e+00 1.027392745018005371e+00 2.868114411830902100e-01
2.022000000000000000e+03 7.745257568359375000e+01 -2.147973060607910156e+01 5.224033520789816976e-05 2.053158641501795501e-05 2.183157630497589707e-05 -2.151970256818458438e-04
2.023000000000000000e+03 7.846130371093750000e+01 -2.143673133850097656e+01 8.070976764429360628e-05 3.506380016915500164e-04 1.294043322559446096e-04 -1.675419480307027698e-04
2.024000000000000000e+03 7.727588653564453125e+01 -2.261746597290039062e+01 -1.567114231875166297e-04 5.114365194458514452e-06 -4.547911885310895741e-05 -1.515151088824495673e-04
2.025000000000000000e+03 7.706758117675781250e+01 -2.388223075866699219e+01 -3.363344876561313868e-04 -1.326381607213988900e-04 -1.406918017892166972e-04 4.362680192571133375e-05
2.026000000000000000e+03 7.692388916015625000e+01 -2.523324012756347656e+01 -5.162648740224540234e-04 -2.760443312581628561e-04 -2.376927732257172465e-04 4.003488866146653891e-04
2.027000000000000000e+03 7.693601989746093750e+01 -2.940620803833007812e+01 -1.240867422893643379e-03 -2.007823437452316284e-03 -9.746072464622557163e-04 2.567964838817715645e-03
2.028000000000000000e+03 7.696065521240234375e+01 -3.074126052856445312e+01 -7.085265824571251869e-04 -3.125673392787575722e-03 -1.150259980931878090e-03 3.301314543932676315e-03
2.029000000000000000e+03 7.686213684082031250e+01 -2.663526153564453125e+01 -9.077769354917109013e-04 -7.313140085898339748e-04 -4.917272599413990974e-04 1.013170462101697922e-03
2.030000000000000000e+03 7.592483520507812500e+01 -3.440045547485351562e+01 8.649561641504988074e-05 -6.640075705945491791e-03 -1.966073876246809959e-03 5.851333495229482651e-03
2.031000000000000000e+03 7.694706726074218750e+01 -3.435933303833007812e+01 -1.476742036174982786e-04 -7.262529339641332626e-03 -2.223061164841055870e-03 4.394103307276964188e-03
2.032000000000000000e+03 7.687949371337890625e+01 -2.803360366821289062e+01 -8.875973289832472801e-04 -1.117025502026081085e-03 -6.013868260197341442e-04 1.642045099288225174e-03
2.033000000000000000e+03 7.696380615234375000e+01 -3.202380371093750000e+01 -7.536341436207294464e-04 -4.511601757258176804e-03 -1.579570816829800606e-03 3.848163178190588951e-03
2.034000000000000000e+03 6.930790710449218750e+01 -2.220519638061523438e+01 -1.661654241615906358e-04 1.860979500634130090e-05 -4.426668601809069514e-05 1.744789769873023033e-04
2.035000000000000000e+03 4.545628738403320312e+01 -2.026135253906250000e+01 -1.457473170012235641e-02 1.165659427642822266e+00 3.453254103660583496e-01 -1.258614808320999146e-01
2.036000000000000000e+03 4.351185607910156250e+01 -2.193733596801757812e+01 -9.036853909492492676e-02 1.946552515029907227e+00 5.568552017211914062e-01 -1.346233040094375610e-01
2.037000000000000000e+03 4.450325393676757812e+01 -2.178659057617187500e+01 -1.714058034121990204e-02 1.716636061668395996e+00 5.098486542701721191e-01 -2.089837491512298584e-01
2.038000000000000000e+03 3.065326499938964844e+01 -7.109698772430419922e+00 1.135200381278991699e+00 1.115467190742492676e+00 6.752002835273742676e-01 -8.863725662231445312e-01
2.039000000000000000e+03 2.788744926452636719e+01 -7.013653755187988281e+00 1.088371634483337402e+00 1.199276074767112732e-01 3.624897599220275879e-01 -9.532871842384338379e-01
2.040000000000000000e+03 4.352948760986328125e+01 1.928432273864746094e+01 -8.895199745893478394e-02 2.455976977944374084e-02 -1.931766793131828308e-02 -3.466670401394367218e-03
2.041000000000000000e+03 4.249827575683593750e+01 1.872550392150878906e+01 -7.729727029800415039e-02 3.789964690804481506e-02 -1.181928813457489014e-02 -8.713508024811744690e-03
2.042000000000000000e+03 7.680104064941406250e+01 3.764466524124145508e+00 4.964731633663177490e-02 -1.774593710899353027e+00 -5.174838900566101074e-01 -4.635708928108215332e-01
2.043000000000000000e+03 7.688777160644531250e+01 2.394854068756103516e+00 4.629574343562126160e-02 -1.659284830093383789e+00 -4.838967323303222656e-01 -4.999658763408660889e-01
2.044000000000000000e+03 7.672740936279296875e+01 1.119653511047363281e+01 1.061444282531738281e-01 -2.261213064193725586e+00 -6.465205550193786621e-01 -1.494182944297790527e-01
2.045000000000000000e+03 7.655477142333984375e+01 9.782793998718261719e+00 1.106328219175338745e-01 -2.114690780639648438e+00 -6.012173891067504883e-01 -2.302463948726654053e-01
2.046000000000000000e+03 7.682881927490234375e+01 1.804085159301757812e+01 9.628459066152572632e-02 -2.237411022186279297e+00 -6.423379182815551758e-01 2.594790458679199219e-01
2.047000000000000000e+03 7.686083221435546875e+01 1.667385482788085938e+01 9.424560517072677612e-02 -2.315104484558105469e+00 -6.662576794624328613e-01 1.878176778554916382e-01
2.048000000000000000e+03 7.658314514160156250e+01 2.218184089660644531e+01 5.716097354888916016e-02 -1.798451423645019531e+00 -5.223871469497680664e-01 4.480156600475311279e-01
2.049000000000000000e+03 7.646492767333984375e+01 2.355304145812988281e+01 2.513267844915390015e-02 -1.654493451118469238e+00 -4.888082146644592285e-01 4.824367463588714600e-01
2.050000000000000000e+03 7.579348754882812500e+01 3.156157302856445312e+01 -9.788902848958969116e-02 -7.917638421058654785e-01 -2.668958604335784912e-01 4.012884497642517090e-01
2.051000000000000000e+03 7.643405151367187500e+01 2.488006401062011719e+01 1.126867905259132385e-02 -1.512705087661743164e+00 -4.504308998584747314e-01 5.107930302619934082e-01
2.052000000000000000e+03 7.678114318847656250e+01 1.941197013854980469e+01 7.203109562397003174e-02 -2.119713544845581055e+00 -6.143047213554382324e-01 3.358468711376190186e-01
2.053000000000000000e+03 7.687675476074218750e+01 1.531081008911132812e+01 1.134316921234130859e-01 -2.374204635620117188e+00 -6.782318949699401855e-01 1.041340231895446777e-01
2.054000000000000000e+03 7.687037658691406250e+01 1.394901657104492188e+01 1.008736714720726013e-01 -2.375063419342041016e+00 -6.822568774223327637e-01 1.881708204746246338e-02
2.055000000000000000e+03 7.682778167724609375e+01 1.257913303375244141e+01 1.085029095411300659e-01 -2.348237752914428711e+00 -6.719204783439636230e-01 -5.507560074329376221e-02
2.056000000000000000e+03 7.631450653076171875e+01 8.287705421447753906e+00 1.151684150099754333e-01 -1.906954526901245117e+00 -5.375358462333679199e-01 -3.313308954238891602e-01
2.057000000000000000e+03 7.634259033203125000e+01 6.717417240142822266e+00 9.626525640487670898e-02 -1.825827002525329590e+00 -5.188685059547424316e-01 -3.938901722431182861e-01
2.058000000000000000e+03 7.692638397216796875e+01 1.052387118339538574e+00 2.618211321532726288e-02 -1.513128757476806641e+00 -4.460839927196502686e-01 -5.192171931266784668e-01
2.059000000000000000e+03 7.695489501953125000e+01 -2.874433398246765137e-01 2.432422526180744171e-02 -1.349952578544616699e+00 -3.976885080337524414e-01 -5.352066159248352051e-01
2.060000000000000000e+03 7.698350524902343750e+01 -1.637839555740356445e+00 3.771562827751040459e-03 -1.179174661636352539e+00 -3.526209294795989990e-01 -5.366667509078979492e-01
2.061000000000000000e+03 7.696984100341796875e+01 -7.019899368286132812e+00 -7.867908477783203125e-02 -5.057694315910339355e-01 -1.753345578908920288e-01 -4.238254129886627197e-01
2.062000000000000000e+03 7.698641967773437500e+01 -8.331400871276855469e+00 -7.815034687519073486e-02 -3.746997714042663574e-01 -1.358550339937210083e-01 -3.644055128097534180e-01
2.063000000000000000e+03 7.721023559570312500e+01 -1.163176536560058594e+01 -8.167470991611480713e-02 -1.305548548698425293e-01 -6.366886943578720093e-02 -1.580753475427627563e-01
2.064000000000000000e+03 7.699063110351562500e+01 -9.620619773864746094e+00 -1.029852107167243958e-01 -2.599712610244750977e-01 -1.088869422674179077e-01 -2.950906753540039062e-01
2.065000000000000000e+03 7.714250946044921875e+01 -1.073108577728271484e+01 -9.528749436140060425e-02 -1.800187230110168457e-01 -8.259186893701553345e-02 -2.144705057144165039e-01
2.066000000000000000e+03 7.699451446533203125e+01 -2.998242616653442383e+00 -5.364720243960618973e-03 -9.947326183319091797e-01 -3.000291883945465088e-01 -5.356674194335937500e-01
2.067000000000000000e+03 7.698206329345703125e+01 -4.355366706848144531e+00 -4.152170196175575256e-02 -8.182548284530639648e-01 -2.579329609870910645e-01 -5.082547068595886230e-01
2.068000000000000000e+03 7.737550354003906250e+01 3.336805725097656250e+01 -4.168932139873504639e-02 -9.620749354362487793e-01 -3.011292815208435059e-01 2.614517509937286377e-01
2.069000000000000000e+03 7.504758453369140625e+01 2.611348915100097656e+01 -4.787079617381095886e-02 -9.605721831321716309e-01 -3.025328814983367920e-01 5.822308659553527832e-01
2.070000000000000000e+03 7.640055084228515625e+01 2.620137214660644531e+01 -2.194999158382415771e-02 -1.359678506851196289e+00 -4.144885241985321045e-01 5.028173327445983887e-01
2.071000000000000000e+03 3.617147445678710938e+01 -3.020096588134765625e+01 2.374519705772399902e-01 1.326416611671447754e+00 4.691605865955352783e-01 3.481796085834503174e-01
2.072000000000000000e+03 3.985762786865234375e+01 1.339393329620361328e+01 -3.239174932241439819e-02 1.120153535157442093e-02 -6.357063539326190948e-03 -6.909542717039585114e-03
2.073000000000000000e+03 4.458120346069335938e+01 1.993609046936035156e+01 -7.802192121744155884e-02 3.152943029999732971e-02 -1.394774857908487320e-02 -1.619541645050048828e-02
2.074000000000000000e+03 3.326440811157226562e+01 -3.084717941284179688e+01 4.002510607242584229e-01 1.146829962730407715e+00 4.641242921352386475e-01 4.635962545871734619e-01
2.075000000000000000e+03 3.400088882446289062e+01 -2.826637840270996094e+01 5.283157229423522949e-01 1.406575322151184082e+00 5.804672837257385254e-01 6.489412784576416016e-01
2.076000000000000000e+03 3.130848646163940430e+00 3.034089088439941406e+01 8.067410090006887913e-05 -7.194221485406160355e-03 -2.134064212441444397e-03 4.412497393786907196e-03
2.077000000000000000e+03 3.216947555541992188e+00 3.165370559692382812e+01 -7.466911338269710541e-04 -8.617425337433815002e-03 -2.809235127642750740e-03 4.726533778011798859e-03
2.078000000000000000e+03 3.054415941238403320e+00 2.352078819274902344e+01 -1.211150432936847210e-03 -1.064545474946498871e-03 -6.827087490819394588e-04 1.450558193027973175e-03
2.079000000000000000e+03 3.113084077835083008e+00 2.492080688476562500e+01 -4.717524570878595114e-04 -1.845357706770300865e-03 -6.951330578885972500e-04 2.181196119636297226e-03
2.080000000000000000e+03 3.074558496475219727e+00 2.630599594116210938e+01 -1.223373576067388058e-03 -2.867482835426926613e-03 -1.227256841957569122e-03 2.809054683893918991e-03
2.081000000000000000e+03 2.974242687225341797e+00 2.765761566162109375e+01 -3.089508682023733854e-04 -4.086539614945650101e-03 -1.318647176958620548e-03 3.345125587657094002e-03
2.082000000000000000e+03 2.951333761215209961e+00 2.899000740051269531e+01 -1.017143600620329380e-03 -5.472324788570404053e-03 -1.946840551681816578e-03 3.892133245244622231e-03
2.083000000000000000e+03 3.939089775085449219e+00 -2.640239334106445312e+01 6.465203315019607544e-02 -7.553995251655578613e-01 -2.072242349386215210e-01 -2.021649479866027832e-01
2.084000000000000000e+03 2.967943906784057617e+00 2.213768768310546875e+01 -2.528165059629827738e-04 -4.066927649546414614e-04 -1.978527725441381335e-04 8.349724812433123589e-04
2.085000000000000000e+03 3.004687786102294922e+00 1.665748405456542969e+01 2.949228219222277403e-04 1.762172032613307238e-04 1.413420104654505849e-04 -3.169187402818351984e-04
2.086000000000000000e+03 2.901092052459716797e+00 1.805742263793945312e+01 -5.302674253471195698e-04 2.671822148840874434e-04 -7.892555731814354658e-05 -2.503707073628902435e-04
2.087000000000000000e+03 3.189336061477661133e+00 1.362651729583740234e+01 3.599762276280671358e-04 9.794769721338525414e-05 1.373771665384992957e-04 -3.655918117146939039e-04
2.088000000000000000e+03 2.988605022430419922e+00 6.034029006958007812e+00 -2.015159589063841850e-05 9.705750017019454390e-06 -3.133754034934099764e-06 1.419232194166397676e-05
2.089000000000000000e+03 2.979445934295654297e+00 8.186900138854980469e+00 2.332766453037038445e-04 6.329300231300294399e-05 8.897089719539508224e-05 -7.535447366535663605e-05
2.090000000000000000e+03 2.015044212341308594e+00 -1.068680191040039062e+01 -2.612347342073917389e-02 7.404538989067077637e-02 1.437657419592142105e-02 -3.268985077738761902e-02
2.091000000000000000e+03 1.758064389228820801e+00 -6.640245437622070312e+00 -1.077632326632738113e-02 9.595682471990585327e-02 2.555415220558643341e-02 3.663539886474609375e-02
2.092000000000000000e+03 3.358786344528198242e+00 -1.210973167419433594e+01 -7.277359068393707275e-02 -3.017287328839302063e-02 -3.088393807411193848e-02 -1.116797402501106262e-01
2.093000000000000000e+03 2.018207073211669922e+00 -1.780529403686523438e+01 -1.163230836391448975e-02 -2.944078147411346436e-01 -9.181203693151473999e-02 -1.832824647426605225e-01
2.094000000000000000e+03 3.282785177230834961e+00 -1.495258808135986328e+01 -5.787895619869232178e-02 -1.411727517843246460e-01 -5.971551313996315002e-02 -2.083840668201446533e-01
2.095000000000000000e+03 3.370218038558959961e+00 -1.784547233581542969e+01 -2.333446592092514038e-02 -3.128801286220550537e-01 -1.008643805980682373e-01 -2.774770259857177734e-01
2.096000000000000000e+03 2.880000114440917969e+00 -5.764805316925048828e+00 -1.359401084482669830e-02 5.272712558507919312e-02 1.173993479460477829e-02 5.809159204363822937e-02
2.097000000000000000e+03 4.994451522827148438e+00 -3.580987930297851562e+01 2.262115664780139923e-02 -8.619607686996459961e-01 -2.518018782138824463e-01 -6.220050528645515442e-02
2.098000000000000000e+03 3.385013818740844727e+00 -2.346883392333984375e+01 3.520328551530838013e-02 -6.566851139068603516e-01 -1.864445507526397705e-01 -2.478007674217224121e-01
2.099000000000000000e+03 3.267877340316772461e+00 -2.207317543029785156e+01 2.692683413624763489e-02 -5.855094194412231445e-01 -1.675747781991958618e-01 -2.653860747814178467e-01
2.100000000000000000e+03 3.271234035491943359e+00 -2.067741966247558594e+01 1.283493451774120331e-02 -4.951061606407165527e-01 -1.446813642978668213e-01 -2.837977707386016846e-01
2.101000000000000000e+03 3.344949245452880859e+00 -1.927224540710449219e+01 -7.785994093865156174e-03 -3.993847370147705078e-01 -1.221512258052825928e-01 -2.880273461341857910e-01
2.102000000000000000e+03 2.848219633102416992e+00 1.080554103851318359e+01 2.972916408907622099e-04 9.827193571254611015e-05 1.186690715258009732e-04 -2.309318660991266370e-04
2.103000000000000000e+03 2.980856418609619141e+00 1.215817165374755859e+01 -1.596693182364106178e-04 1.346788631053641438e-04 -7.497136266465531662e-06 -1.983683469006791711e-04
2.104000000000000000e+03 3.193932533264160156e+00 1.517219257354736328e+01 -2.881622058339416981e-04 1.453816512366756797e-04 -4.283415910322219133e-05 -3.465895424596965313e-04
2.105000000000000000e+03 3.061788558959960938e+00 -7.880873203277587891e+00 -3.746828436851501465e-02 4.884933680295944214e-02 3.414316568523645401e-03 2.414875850081443787e-02
2.106000000000000000e+03 3.382184743881225586e+00 -4.955376148223876953e+00 -7.332455832511186600e-03 3.527492657303810120e-02 8.382740430533885956e-03 6.608144938945770264e-02
2.107000000000000000e+03 2.287129163742065430e+00 4.311882019042968750e+00 -2.988247979374136776e-05 7.897060640971176326e-06 -6.595625563932117075e-06 -3.460725929471664131e-05
2.108000000000000000e+03 2.926164865493774414e+00 4.844285488128662109e+00 1.711769727990031242e-04 5.523809886653907597e-05 6.792452040826901793e-05 -1.271427609026432037e-04
2.109000000000000000e+03 2.868223428726196289e+00 1.942087173461914062e+01 7.709291821811348200e-05 1.613614149391651154e-04 7.153629849199205637e-05 -4.719848675449611619e-06
2.110000000000000000e+03 2.819213628768920898e+00 9.501395225524902344e+00 -1.465519890189170837e-04 9.138433233601972461e-05 -1.655029518587980419e-05 -1.385946234222501516e-04
2.111000000000000000e+03 6.973664093017578125e+01 -2.597958374023437500e+01 -5.612394306808710098e-03 6.119207828305661678e-04 -1.500142039731144905e-03 3.683207323774695396e-04
2.112000000000000000e+03 3.414723968505859375e+01 -7.656337261199951172e+00 6.788390874862670898e-01 5.038118958473205566e-01 3.547953069210052490e-01 -5.931296348571777344e-01
2.113000000000000000e+03 3.329505920410156250e+01 -7.112409591674804688e+00 6.092461347579956055e-01 6.025807261466979980e-01 3.635480403900146484e-01 -4.456189572811126709e-01
2.114000000000000000e+03 3.763917160034179688e+01 -1.798654937744140625e+01 1.691772937774658203e-01 1.356554627418518066e+00 4.577195644378662109e-01 1.359367012977600098e+00
2.115000000000000000e+03 3.726699447631835938e+01 -1.619352912902832031e+01 6.570750474929809570e-01 4.997085928916931152e-01 3.470350801944732666e-01 6.503127217292785645e-01
2.116000000000000000e+03 3.943243408203125000e+01 1.248649120330810547e+01 -2.421816252171993256e-02 2.080039819702506065e-03 -6.641436833888292313e-03 -5.034391302615404129e-03
2.117000000000000000e+03 3.893365097045898438e+01 1.161819553375244141e+01 -1.223937701433897018e-02 3.849095199257135391e-03 -2.517084591090679169e-03 -3.933836240321397781e-03
2.118000000000000000e+03 3.770241165161132812e+01 -1.933952713012695312e+01 -9.259574860334396362e-02 1.604258060455322266e+00 4.534986913204193115e-01 1.398774623870849609e+00
2.119000000000000000e+03 2.059575843811035156e+01 -3.012083244323730469e+01 5.880393981933593750e-01 3.583448231220245361e-01 2.839152812957763672e-01 -3.080261349678039551e-01
2.120000000000000000e+03 3.657043838500976562e+01 -1.208468341827392578e+01 1.546958208084106445e+00 -6.157781556248664856e-02 4.456141293048858643e-01 -1.571169495582580566e+00
2.121000000000000000e+03 5.689987945556640625e+01 -4.202564716339111328e+00 4.959093332290649414e-01 1.801341414451599121e+00 6.891751885414123535e-01 1.038737416267395020e+00
2.122000000000000000e+03 6.774088287353515625e+01 -2.782600402832031250e+01 -1.242080423980951309e-02 2.289217198267579079e-03 -3.039475996047258377e-03 1.091564889065921307e-03
2.123000000000000000e+03 3.668314361572265625e+01 -1.091343784332275391e+01 1.444842815399169922e+00 1.878641992807388306e-01 4.898121058940887451e-01 -1.631179451942443848e+00
2.124000000000000000e+03 6.752172851562500000e+01 -1.412830448150634766e+01 -5.553839206695556641e-01 -1.713658571243286133e-01 -2.180249243974685669e-01 2.321576178073883057e-01
2.125000000000000000e+03 1.306695842742919922e+01 -1.773948860168457031e+01 -1.488714218139648438e-01 -5.209956765174865723e-01 -2.009601294994354248e-01 -5.014233589172363281e-01
2.126000000000000000e+03 1.229945564270019531e+01 -1.957542228698730469e+01 9.161596745252609253e-02 -3.765946924686431885e-01 -8.549361675977706909e-02 -5.006589889526367188e-01
2.127000000000000000e+03 4.022817230224609375e+01 1.516635704040527344e+01 -5.030282214283943176e-02 1.272361259907484055e-02 -1.127376314252614975e-02 -5.445410031825304031e-03
2.128000000000000000e+03 3.926492309570312500e+01 1.448768615722656250e+01 -4.185587540268898010e-02 1.637954078614711761e-02 -7.642900571227073669e-03 -1.900033908896148205e-03
2.129000000000000000e+03 5.838175964355468750e+01 -2.072267770767211914e+00 8.918147683143615723e-01 2.001550674438476562e+00 8.680096268653869629e-01 1.165554523468017578e+00
2.130000000000000000e+03 3.164098930358886719e+01 -3.006676673889160156e+01 6.153757572174072266e-01 9.514831304550170898e-01 4.700576663017272949e-01 5.466370582580566406e-01
2.131000000000000000e+03 3.072604942321777344e+01 -3.134815788269042969e+01 5.504922270774841309e-01 8.490305542945861816e-01 4.198568463325500488e-01 4.380753636360168457e-01
2.132000000000000000e+03 3.748103332519531250e+01 -1.397981548309326172e+01 1.626328468322753906e+00 3.872547149658203125e-01 6.040749549865722656e-01 -8.159965276718139648e-01
2.133000000000000000e+03 5.916690063476562500e+01 -1.014543533325195312e+00 9.577192664146423340e-01 2.169958829879760742e+00 9.383034110069274902e-01 1.195175290107727051e+00
2.134000000000000000e+03 2.400797653198242188e+01 -7.086291790008544922e+00 -7.017792016267776489e-02 -2.594210505485534668e-01 -9.887968748807907104e-02 -6.670466661453247070e-01
2.135000000000000000e+03 3.780690002441406250e+01 -2.192245864868164062e+01 2.473969757556915283e-01 1.731057882308959961e+00 5.935364365577697754e-01 1.133885622024536133e+00
2.136000000000000000e+03 7.264203643798828125e+01 -2.189986228942871094e+01 -4.113994364161044359e-04 -4.249795165378600359e-04 -2.509136975277215242e-04 -4.007378720416454598e-06
2.137000000000000000e+03 5.094147872924804688e+01 -3.597261428833007812e+01 4.389587044715881348e-02 2.212806791067123413e-01 7.955296337604522705e-02 -7.343633472919464111e-02
2.138000000000000000e+03 2.021484851837158203e+00 3.211500644683837891e+00 1.452854485251009464e-05 -2.329247399757150561e-05 -2.629178879942628555e-06 -2.093828925353591330e-06
2.139000000000000000e+03 4.899568176269531250e+01 -7.940570354461669922e+00 -8.066425919532775879e-01 -2.827112376689910889e-01 -3.268061280250549316e-01 2.140528202056884766e+00
2.140000000000000000e+03 1.402215957641601562e+01 -1.338310527801513672e+01 -7.235687971115112305e-01 -7.160896658897399902e-01 -4.318975210189819336e-01 -4.442515075206756592e-01
2.141000000000000000e+03 5.036311721801757812e+01 -8.074672698974609375e+00 -7.561402916908264160e-01 1.628603190183639526e-01 -1.779839843511581421e-01 2.183220386505126953e+00
2.142000000000000000e+03 5.174386596679687500e+01 -7.026340484619140625e+00 -1.011699557304382324e+00 1.022016525268554688e+00 3.095089690759778023e-03 1.951294898986816406e+00
2.143000000000000000e+03 6.297360229492187500e+01 1.043693637847900391e+01 5.315201878547668457e-01 5.487776279449462891e+00 1.805788993835449219e+00 7.696318626403808594e-01
2.144000000000000000e+03 6.593154907226562500e+01 1.306401634216308594e+01 6.923760175704956055e-01 3.542508363723754883e+00 1.270465373992919922e+00 -7.276661694049835205e-03
2.145000000000000000e+03 2.077029609680175781e+01 -3.308889770507812500e+01 3.725937008857727051e-01 3.816223740577697754e-01 2.262648195028305054e-01 -1.604956388473510742e-01
2.146000000000000000e+03 1.352927303314208984e+01 -2.034127807617187500e+01 1.678503453731536865e-01 -9.909459948539733887e-02 2.062672376632690430e-02 -3.521204292774200439e-01
2.147000000000000000e+03 1.747878456115722656e+01 -1.064047813415527344e+01 -7.324909567832946777e-01 -6.693393588066101074e-01 -4.205490946769714355e-01 -5.343354344367980957e-01
2.148000000000000000e+03 5.450118255615234375e+01 -6.013641834259033203e+00 -1.382097005844116211e-01 1.685153722763061523e+00 4.640831947326660156e-01 1.241490840911865234e+00
2.149000000000000000e+03 6.523385620117187500e+01 1.205398750305175781e+01 5.894392728805541992e-01 3.951023817062377930e+00 1.362138986587524414e+00 1.347074210643768311e-01
2.150000000000000000e+03 6.581669616699218750e+01 1.549387836456298828e+01 8.890610337257385254e-01 3.478811025619506836e+00 1.310361623764038086e+00 -2.645291388034820557e-01
2.151000000000000000e+03 3.617657852172851562e+01 -2.664404678344726562e+01 4.754315912723541260e-01 1.556216835975646973e+00 6.094945669174194336e-01 5.738830566406250000e-01
2.152000000000000000e+03 4.160469055175781250e+01 -5.572265148162841797e+00 -2.649011850357055664e+00 -2.687047980725765228e-02 -8.027646541595458984e-01 3.650367558002471924e-01
2.153000000000000000e+03 4.157833862304687500e+01 -4.663568973541259766e+00 -3.582956075668334961e+00 -1.851240396499633789e-01 -1.130424022674560547e+00 5.638347268104553223e-01
2.154000000000000000e+03 1.574242115020751953e+01 -9.314163208007812500e+00 -4.473933577537536621e-01 -5.508752465248107910e-01 -2.994805872440338135e-01 -3.461121916770935059e-01
2.155000000000000000e+03 4.334478759765625000e+01 -6.021506786346435547e+00 -2.794560670852661133e+00 -1.919521838426589966e-01 -8.959538340568542480e-01 8.839581608772277832e-01
2.156000000000000000e+03 3.867185974121093750e+01 -2.440147018432617188e+01 3.387825191020965576e-01 1.686576485633850098e+00 6.076077222824096680e-01 6.990844607353210449e-01
2.157000000000000000e+03 4.478025054931640625e+01 -5.342244625091552734e+00 -3.952616214752197266e+00 -5.328384637832641602e-01 -1.345636367797851562e+00 1.601764678955078125e+00
2.158000000000000000e+03 6.317611694335937500e+01 -1.052599906921386719e+01 -1.471591949462890625e+00 -3.042354881763458252e-01 -5.327482223510742188e-01 -6.389860063791275024e-02
2.159000000000000000e+03 5.920610046386718750e+01 -1.130012512207031250e+01 -1.249423980712890625e+00 5.021753311157226562e-01 -2.241745889186859131e-01 1.982253938913345337e-01
2.160000000000000000e+03 6.568566894531250000e+01 -2.959883499145507812e+01 -2.482875250279903412e-02 5.337974522262811661e-03 -5.847233347594738007e-03 5.463864654302597046e-03
2.161000000000000000e+03 5.305537414550781250e+01 -7.194181919097900391e+00 -6.112166643142700195e-01 1.453505039215087891e+00 2.526865005493164062e-01 1.622061014175415039e+00
2.162000000000000000e+03 6.788472747802734375e+01 -1.480007266998291016e+01 -2.728121578693389893e-01 -3.264836966991424561e-02 -9.163815528154373169e-02 1.734801679849624634e-01
2.163000000000000000e+03 6.752593231201171875e+01 -1.479166698455810547e+01 -2.361345142126083374e-01 -1.970694512128829956e-01 -1.299611926078796387e-01 1.808334290981292725e-01
2.164000000000000000e+03 4.278059005737304688e+01 -1.732023620605468750e+01 -1.285327076911926270e-01 4.016693115234375000e+00 1.166448116302490234e+00 -8.097842931747436523e-01
2.165000000000000000e+03 4.307741928100585938e+01 -1.809132575988769531e+01 -2.691527307033538818e-01 3.074999570846557617e+00 8.417540192604064941e-01 -6.540457010269165039e-01
2.166000000000000000e+03 4.215731048583984375e+01 -1.704059600830078125e+01 -1.593055874109268188e-01 5.331418037414550781e+00 1.551633715629577637e+00 -7.674587517976760864e-02
2.167000000000000000e+03 2.872127342224121094e+01 -2.496229648590087891e+00 -2.024859666824340820e+00 6.774581968784332275e-02 -5.871341824531555176e-01 -5.206791758537292480e-01
2.168000000000000000e+03 2.613031578063964844e+01 -2.879990100860595703e+00 -1.238255023956298828e+00 -1.396612972021102905e-01 -4.133749008178710938e-01 -8.061243295669555664e-01
2.169000000000000000e+03 2.738924217224121094e+01 -2.292747497558593750e+00 -1.871665596961975098e+00 -1.694403290748596191e-01 -6.123317480087280273e-01 -5.565955042839050293e-01
2.170000000000000000e+03 3.052387809753417969e+01 -2.320421934127807617e+00 -2.472472429275512695e+00 2.703037261962890625e-01 -6.606506109237670898e-01 -3.768117129802703857e-01
2.171000000000000000e+03 2.919056320190429688e+01 -2.143994092941284180e+00 -2.316023349761962891e+00 1.274579912424087524e-01 -6.565696001052856445e-01 -4.252916276454925537e-01
2.172000000000000000e+03 2.977117347717285156e+01 -2.110907316207885742e+00 -2.430706262588500977e+00 2.111878246068954468e-01 -6.658555865287780762e-01 -3.671851158142089844e-01
2.173000000000000000e+03 2.971238708496093750e+01 -2.374835729598999023e+00 -2.249991655349731445e+00 2.330676168203353882e-01 -6.050772070884704590e-01 -4.080964624881744385e-01
2.174000000000000000e+03 3.131648635864257812e+01 -2.067524671554565430e+00 -2.803767681121826172e+00 2.767772674560546875e-01 -7.580971121788024902e-01 -4.092199206352233887e-01
2.175000000000000000e+03 4.552948379516601562e+01 -1.407358360290527344e+01 3.389416694641113281e+00 -4.149983823299407959e-01 8.923254609107971191e-01 5.417377352714538574e-01
2.176000000000000000e+03 4.551589584350585938e+01 -1.445819950103759766e+01 3.209470987319946289e+00 -4.143127202987670898e-01 8.385474681854248047e-01 1.927241683006286621e-01
2.177000000000000000e+03 4.446686935424804688e+01 -1.347268390655517578e+01 4.258864402770996094e+00 6.570293307304382324e-01 1.474768161773681641e+00 1.749058842658996582e+00
2.178000000000000000e+03 4.171718978881835938e+01 -1.701653480529785156e+01 3.675083443522453308e-02 5.520263195037841797e+00 1.667104244232177734e+00 6.191388368606567383e-01
2.179000000000000000e+03 4.653524017333984375e+01 -1.413278293609619141e+01 2.678454875946044922e+00 -4.683565497398376465e-01 6.630294919013977051e-01 4.492344856262207031e-01
2.180000000000000000e+03 2.079271316528320312e+01 5.280398368835449219e+00 2.086055246763862669e-05 2.466688056301791221e-05 1.365823027299484238e-05 1.705463546386454254e-05
2.181000000000000000e+03 1.927310752868652344e+01 2.301632881164550781e+01 -4.906853288412094116e-02 -2.178567083319649100e-04 -1.478591654449701309e-02 7.054073270410299301e-03
2.182000000000000000e+03 3.415908050537109375e+01 -3.021389961242675781e+00 -2.034323453903198242e+00 1.974078267812728882e-01 -5.510746836662292480e-01 3.078616261482238770e-01
2.183000000000000000e+03 3.546798324584960938e+01 -1.990726232528686523e+00 -2.469383478164672852e+00 4.739752113819122314e-01 -5.986225008964538574e-01 3.242694735527038574e-01
2.184000000000000000e+03 1.722858047485351562e+01 8.351443290710449219e+00 -3.555011517164530233e-06 3.558191019692458212e-05 9.608069376554340124e-06 3.355884473421610892e-05
2.185000000000000000e+03 1.840354347229003906e+01 7.158592224121093750e+00 1.088613953470485285e-05 -9.251160008716396987e-06 4.904939032712718472e-07 -4.513268322625663131e-06
2.186000000000000000e+03 1.864340400695800781e+01 6.311446666717529297e+00 5.124508243170566857e-05 3.924176780856214464e-05 2.714605579967610538e-05 2.382357524766121060e-05
2.187000000000000000e+03 2.393662452697753906e+01 2.340493583679199219e+01 -8.768560737371444702e-02 -1.757328212261199951e-02 -3.157766908407211304e-02 3.218070045113563538e-02
2.188000000000000000e+03 2.016439628601074219e+01 2.314011764526367188e+01 -5.948101356625556946e-02 -1.861475175246596336e-03 -1.840274594724178314e-02 1.143599953502416611e-02
2.189000000000000000e+03 1.372938156127929688e+01 1.633585548400878906e+01 -2.367774286540225148e-04 1.163260661996901035e-03 2.779449860099703074e-04 5.679841269738972187e-04
2.190000000000000000e+03 2.132467269897460938e+01 4.246006011962890625e+00 1.629507096367888153e-05 1.668472032179124653e-05 9.893937203742098063e-06 2.968122316815424711e-05
2.191000000000000000e+03 1.339081573486328125e+01 1.751190948486328125e+01 -2.774634631350636482e-04 6.629740819334983826e-04 1.156531870947219431e-04 5.932294880039989948e-04
2.192000000000000000e+03 2.705739974975585938e+01 2.246678352355957031e+01 -1.098887324333190918e-01 -3.451888263225555420e-02 -4.332228377461433411e-02 5.224873870611190796e-02
2.193000000000000000e+03 3.477121734619140625e+01 6.534320831298828125e+00 1.833107089623808861e-03 2.414408118056599051e-05 5.571753717958927155e-04 -2.902002597693353891e-04
2.194000000000000000e+03 3.324808120727539062e+01 1.129945373535156250e+01 -2.636427758261561394e-03 6.588618853129446507e-04 -5.932697094976902008e-04 8.185053593479096889e-04
2.195000000000000000e+03 1.585933876037597656e+01 9.478661537170410156e+00 -1.019500778056681156e-04 4.299397551221773028e-05 -1.768682886904571205e-05 7.034360896795988083e-05
2.196000000000000000e+03 1.607720375061035156e+01 9.822696685791015625e+00 -6.681475497316569090e-05 -8.842353963700588793e-06 -2.269713331770617515e-05 -2.481989577063359320e-05
2.197000000000000000e+03 3.211876678466796875e+01 1.642507362365722656e+01 -2.353906445205211639e-02 -2.823753654956817627e-02 -1.553298067301511765e-02 3.060084022581577301e-02
2.198000000000000000e+03 3.171310043334960938e+01 1.620434379577636719e+01 -1.537237223237752914e-02 -3.354122117161750793e-02 -1.467407774180173874e-02 2.395519800484180450e-02
2.199000000000000000e+03 1.703058433532714844e+01 7.889335155487060547e+00 2.847155656127142720e-06 3.099233435932546854e-05 1.015184716379735619e-05 -5.281475387164391577e-05
2.200000000000000000e+03 1.760574531555175781e+01 8.136990547180175781e+00 -2.009247145906556398e-05 -3.165526504744775593e-05 -1.552432149765081704e-05 -2.823472459567710757e-05
2.201000000000000000e+03 4.412913131713867188e+01 -1.347037029266357422e+01 4.548075199127197266e+00 1.228813886642456055e+00 1.733066678047180176e+00 2.049653291702270508e+00
2.202000000000000000e+03 1.405230617523193359e+01 1.542062568664550781e+01 3.895643749274313450e-04 1.305807265453040600e-03 5.086114979349076748e-04 2.703718782868236303e-04
2.203000000000000000e+03 3.244972610473632812e+01 1.573664665222167969e+01 -1.761038973927497864e-02 -2.167296409606933594e-02 -1.178500615060329437e-02 2.440259791910648346e-02
2.204000000000000000e+03 1.586774444580078125e+01 9.160383224487304688e+00 8.059108949964866042e-05 1.244346494786441326e-04 6.150772242108359933e-05 -2.351658076804596931e-05
2.205000000000000000e+03 1.421734905242919922e+01 1.163634300231933594e+01 -1.059944115695543587e-04 3.635920875240117311e-04 7.727930642431601882e-05 7.533065218012779951e-05
2.206000000000000000e+03 1.331572723388671875e+01 1.713858032226562500e+01 3.577570605557411909e-04 7.878591422922909260e-04 3.436848637647926807e-04 4.602980334311723709e-04
2.207000000000000000e+03 1.726212120056152344e+01 2.196983718872070312e+01 -2.794041857123374939e-02 -1.171747135231271386e-04 -8.417277596890926361e-03 -1.244089100509881973e-03
2.208000000000000000e+03 1.774177360534667969e+01 2.205436706542968750e+01 -3.261977806687355042e-02 -7.364021148532629013e-04 -1.000685431063175201e-02 -1.611693878658115864e-03
2.209000000000000000e+03 2.109129905700683594e+01 4.486527919769287109e+00 -2.459677125443704426e-05 -1.402611451339907944e-05 -1.158686609414871782e-05 -1.552501453261356801e-05
2.210000000000000000e+03 2.092970848083496094e+01 3.681415557861328125e+00 1.034104752761777490e-05 2.438796218484640121e-05 1.041870291373925284e-05 1.552316803099529352e-06
2.211000000000000000e+03 1.971630477905273438e+01 2.308189201354980469e+01 -5.360523611307144165e-02 -1.965072238817811012e-03 -1.667109318077564240e-02 9.197730571031570435e-03
2.212000000000000000e+03 1.883547782897949219e+01 2.293003845214843750e+01 -4.409352317452430725e-02 -9.184844675473868847e-04 -1.350360177457332611e-02 6.071826443076133728e-03
2.213000000000000000e+03 3.241038894653320312e+01 1.475159168243408203e+01 -1.025426667183637619e-02 -1.507934276014566422e-02 -7.600083015859127045e-03 1.444920431822538376e-02
2.214000000000000000e+03 2.317245864868164062e+01 2.321266174316406250e+01 -8.619276434183120728e-02 -1.414240524172782898e-02 -3.010055050253868103e-02 2.506543323397636414e-02
2.215000000000000000e+03 1.424516391754150391e+01 1.410112380981445312e+01 -2.465479192323982716e-04 9.313836926594376564e-04 2.054507349384948611e-04 1.442847715225070715e-04
2.216000000000000000e+03 1.402317523956298828e+01 1.244356727600097656e+01 5.797271660412661731e-05 5.433898186311125755e-04 1.804087660275399685e-04 9.128703823080286384e-05
2.217000000000000000e+03 3.123436355590820312e+01 1.935852050781250000e+01 -7.352610677480697632e-02 -4.269218817353248596e-02 -3.486548736691474915e-02 5.486159399151802063e-02
2.218000000000000000e+03 3.093467903137207031e+01 1.966036987304687500e+01 -8.123596757650375366e-02 -4.699432477355003357e-02 -3.846908733248710632e-02 5.620336532592773438e-02
2.219000000000000000e+03 3.341870117187500000e+01 1.010589599609375000e+01 7.203888962976634502e-04 1.202975865453481674e-03 5.770093994215130806e-04 -7.750671938993036747e-04
2.220000000000000000e+03 3.174827575683593750e+01 1.755417251586914062e+01 -3.826087340712547302e-02 -3.807426989078521729e-02 -2.290054224431514740e-02 4.084851220250129700e-02
2.221000000000000000e+03 3.371683883666992188e+01 8.653521537780761719e+00 -3.056960122194141150e-04 1.366479671560227871e-03 3.182350774295628071e-04 -9.766075527295470238e-04
2.222000000000000000e+03 1.943539619445800781e+01 6.326248645782470703e+00 4.102724051335826516e-05 2.080605554510839283e-05 1.854998845374211669e-05 2.521281203371472657e-05
2.223000000000000000e+03 1.976450538635253906e+01 4.391308307647705078e+00 -1.825259823817759752e-05 -3.717426807270385325e-05 -1.662806062086019665e-05 -1.607863305252976716e-05
2.224000000000000000e+03 1.355180644989013672e+01 2.043449783325195312e+01 -5.828036926686763763e-03 9.052535169757902622e-04 -1.476835110224783421e-03 -6.698024808429181576e-04
2.225000000000000000e+03 1.337089252471923828e+01 1.929030799865722656e+01 -1.642559538595378399e-03 4.091209848411381245e-04 -3.700315719470381737e-04 -7.902789511717855930e-04
2.226000000000000000e+03 3.219218063354492188e+01 1.511862754821777344e+01 -1.071670837700366974e-02 -1.982888951897621155e-02 -9.163679555058479309e-03 1.701965183019638062e-02
2.227000000000000000e+03 1.477376174926757812e+01 9.939437866210937500e+00 8.666096255183219910e-05 2.489343460183590651e-04 1.006785969366319478e-04 6.749835301889106631e-05
2.228000000000000000e+03 1.583020877838134766e+01 9.768872261047363281e+00 2.162666351068764925e-05 2.225401985924690962e-04 7.325005572056397796e-05 -9.878337732516229153e-05
2.229000000000000000e+03 2.673231124877929688e+01 2.325979804992675781e+01 -8.586340397596359253e-02 -3.392539173364639282e-02 -3.593663871288299561e-02 4.529942572116851807e-02
2.230000000000000000e+03 3.319855499267578125e+01 1.209523200988769531e+01 -4.081049934029579163e-03 -1.549553009681403637e-03 -1.689180848188698292e-03 3.136122599244117737e-03
2.231000000000000000e+03 3.320310592651367188e+01 1.250348186492919922e+01 -2.982137026265263557e-03 -2.802740084007382393e-03 -1.735463156364858150e-03 5.112396087497472763e-03
2.232000000000000000e+03 3.476670455932617188e+01 4.108064651489257812e+00 -6.253048777580261230e-04 -1.193678872368764132e-05 -1.911724975798279047e-04 -8.027916192077100277e-04
2.233000000000000000e+03 2.109164237976074219e+01 2.271042251586914062e+01 -7.732226699590682983e-02 -6.143584847450256348e-03 -2.503975480794906616e-02 1.011618506163358688e-02
2.234000000000000000e+03 2.061819076538085938e+01 2.319038963317871094e+01 -6.410729140043258667e-02 -5.322728771716356277e-03 -2.082900702953338623e-02 1.433659065514802933e-02
2.235000000000000000e+03 1.676757049560546875e+01 8.455324172973632812e+00 7.466477836715057492e-05 3.349638063809834421e-05 3.244834806537255645e-05 -1.995591628656256944e-05
2.236000000000000000e+03 1.628638458251953125e+01 8.839871406555175781e+00 8.277904998976737261e-05 1.013020882965065539e-04 5.522434003069065511e-05 -2.392166038589493837e-07
2.237000000000000000e+03 1.367533874511718750e+01 1.442836856842041016e+01 -1.255817187484353781e-04 8.193532121367752552e-04 2.081314451061189175e-04 2.634414995554834604e-04
2.238000000000000000e+03 3.184281539916992188e+01 1.713952636718750000e+01 -3.199137747287750244e-02 -3.548588231205940247e-02 -2.024317719042301178e-02 3.724767640233039856e-02
2.239000000000000000e+03 3.130957031250000000e+01 1.735493278503417969e+01 -2.935070171952247620e-02 -5.080347135663032532e-02 -2.404625155031681061e-02 3.849844262003898621e-02
2.240000000000000000e+03 2.514350318908691406e+01 2.339508819580078125e+01 -8.629365265369415283e-02 -2.461246587336063385e-02 -3.327183425426483154e-02 3.793648630380630493e-02
2.241000000000000000e+03 2.523136711120605469e+01 2.285258293151855469e+01 -1.011600717902183533e-01 -1.938263140618801117e-02 -3.616280853748321533e-02 3.875358775258064270e-02
2.242000000000000000e+03 2.628564453125000000e+01 2.317643356323242188e+01 -8.961056917905807495e-02 -3.152073547244071960e-02 -3.633939102292060852e-02 4.328553378582000732e-02
2.243000000000000000e+03 1.559486389160156250e+01 2.119549560546875000e+01 -1.386400219053030014e-02 1.785820233635604382e-03 -3.623454598709940910e-03 -1.904973411001265049e-03
2.244000000000000000e+03 1.463803482055664062e+01 2.128448677062988281e+01 -1.202225591987371445e-02 1.814792514778673649e-03 -3.062239149585366249e-03 -2.014343626797199249e-04
2.245000000000000000e+03 3.086693000793457031e+01 2.026342964172363281e+01 -9.132691472768783569e-02 -4.093402251601219177e-02 -3.967827931046485901e-02 5.054717510938644409e-02
2.246000000000000000e+03 3.023511886596679688e+01 2.001258277893066406e+01 -9.761977195739746094e-02 -6.407917290925979614e-02 -4.850968345999717712e-02 6.584819406270980835e-02
2.247000000000000000e+03 3.470872879028320312e+01 4.601208209991455078e+00 4.088665591552853584e-04 9.436455729883164167e-05 1.509693393018096685e-04 6.803207797929644585e-04
2.248000000000000000e+03 3.424723434448242188e+01 4.598225593566894531e+00 -1.169995055533945560e-03 -2.008273004321381450e-04 -4.112467286176979542e-04 -1.898870832519605756e-04
2.249000000000000000e+03 2.602458572387695312e+01 -3.771185874938964844e+00 -8.614394664764404297e-01 -1.115055307745933533e-01 -2.918834984302520752e-01 -9.253236651420593262e-01
2.250000000000000000e+03 3.429598617553710938e+01 6.930778026580810547e+00 -4.950089496560394764e-04 3.231480150134302676e-05 -1.388082309858873487e-04 -5.751380231231451035e-04
2.251000000000000000e+03 3.401422882080078125e+01 7.396540641784667969e+00 7.753709214739501476e-04 9.207417024299502373e-04 5.088337929919362068e-04 -9.066485217772424221e-04
2.252000000000000000e+03 3.469665908813476562e+01 5.051011562347412109e+00 -1.141045431722886860e-04 -3.163629153277724981e-04 -1.291402440983802080e-04 -8.188716601580381393e-04
2.253000000000000000e+03 1.596263504028320312e+01 2.124626541137695312e+01 -1.485904678702354431e-02 6.682103266939520836e-04 -4.257251042872667313e-03 -2.117294585332274437e-03
2.254000000000000000e+03 2.194072532653808594e+01 2.270384979248046875e+01 -8.837877959012985229e-02 -1.211977563798427582e-02 -3.014956600964069366e-02 1.407288759946823120e-02
2.255000000000000000e+03 1.421558570861816406e+01 2.113184165954589844e+01 -1.059036143124103546e-02 2.436322625726461411e-03 -2.446211408823728561e-03 -1.034894725307822227e-03
2.256000000000000000e+03 1.405322456359863281e+01 1.496831893920898438e+01 -2.505240263417363167e-04 1.172640477307140827e-03 2.766349352896213531e-04 3.684555995278060436e-04
2.257000000000000000e+03 3.053950500488281250e+01 2.064849472045898438e+01 -1.000383719801902771e-01 -4.524042457342147827e-02 -4.358363896608352661e-02 4.921055212616920471e-02
2.258000000000000000e+03 2.864919281005859375e+01 2.123326873779296875e+01 -1.337384879589080811e-01 -7.306908071041107178e-02 -6.204226985573768616e-02 6.620232015848159790e-02
2.259000000000000000e+03 2.197607612609863281e+01 2.318190383911132812e+01 -7.882672548294067383e-02 -1.206425204873085022e-02 -2.726729400455951691e-02 1.951748505234718323e-02
2.260000000000000000e+03 2.108001899719238281e+01 2.322907638549804688e+01 -6.896968930959701538e-02 -7.314394693821668625e-03 -2.288522571325302124e-02 1.687284559011459351e-02
2.261000000000000000e+03 1.338425445556640625e+01 1.892247390747070312e+01 -1.611627521924674511e-03 3.749875177163630724e-04 -3.709920274559408426e-04 -2.398636715952306986e-04
2.262000000000000000e+03 1.760838127136230469e+01 2.252360534667968750e+01 -3.285714238882064819e-02 2.050694893114268780e-04 -9.795621968805789948e-03 2.436726819723844528e-03
2.263000000000000000e+03 1.505675697326660156e+01 2.148033905029296875e+01 -1.431338209658861160e-02 2.764221513643860817e-03 -3.464748151600360870e-03 -3.757419472094625235e-04
2.264000000000000000e+03 1.954095458984375000e+01 5.170253276824951172e+00 1.598252492840401828e-05 3.815278614638373256e-05 1.624059405003208667e-05 2.104445411532651633e-05
2.265000000000000000e+03 1.986384010314941406e+01 4.930159091949462891e+00 -1.436468301108106971e-05 -4.637614983948878944e-05 -1.822225021896883845e-05 -2.505590964574366808e-05
2.266000000000000000e+03 2.275855064392089844e+01 2.323203468322753906e+01 -8.397264778614044189e-02 -1.229902543127536774e-02 -2.888150140643119812e-02 2.258236147463321686e-02
2.267000000000000000e+03 2.235241508483886719e+01 2.314720535278320312e+01 -8.277373015880584717e-02 -1.347778085619211197e-02 -2.887545339763164520e-02 1.998372934758663177e-02
2.268000000000000000e+03 2.904217720031738281e+01 2.178606224060058594e+01 -1.040676832199096680e-01 -6.081498414278030396e-02 -4.946479946374893188e-02 4.864278435707092285e-02
2.269000000000000000e+03 2.950387954711914062e+01 2.138847351074218750e+01 -1.073898971080780029e-01 -5.983953177928924561e-02 -5.016883090138435364e-02 4.656952619552612305e-02
2.270000000000000000e+03 1.630900955200195312e+01 2.219927215576171875e+01 -2.263860590755939484e-02 1.705932314507663250e-03 -6.279801949858665466e-03 1.397027634084224701e-03
2.271000000000000000e+03 1.528822326660156250e+01 2.217746353149414062e+01 -1.838420890271663666e-02 2.884831512346863747e-03 -4.649813286960124969e-03 1.607587561011314392e-03
2.272000000000000000e+03 2.674085617065429688e+01 -2.360239028930664062e+00 -1.676202297210693359e+00 -2.041790932416915894e-01 -5.641143918037414551e-01 -6.482490301132202148e-01
2.273000000000000000e+03 3.031101989746093750e+01 2.113251876831054688e+01 -1.013204231858253479e-01 -4.530877992510795593e-02 -4.398876056075096130e-02 4.238133877515792847e-02
2.274000000000000000e+03 1.397868251800537109e+01 2.058783340454101562e+01 -7.485492154955863953e-03 1.836826326325535774e-03 -1.694599748589098454e-03 -1.535745570436120033e-03
2.275000000000000000e+03 2.418626785278320312e+01 2.299288749694824219e+01 -9.521972388029098511e-02 -1.485666725784540176e-02 -3.302291780710220337e-02 3.192806988954544067e-02
2.276000000000000000e+03 4.412555313110351562e+01 -1.251966190338134766e+01 2.805257320404052734e+00 1.893608450889587402e+00 1.409659743309020996e+00 2.073343753814697266e+00
2.277000000000000000e+03 1.330985164642333984e+01 1.997381782531738281e+01 -3.846097271889448166e-03 6.680876831524074078e-04 -9.534028358757495880e-04 -8.949036709964275360e-04
2.278000000000000000e+03 4.021956634521484375e+01 -1.707786178588867188e+01 7.944350242614746094e-01 3.794437646865844727e+00 1.376661777496337891e+00 1.584701776504516602e+00
2.279000000000000000e+03 4.094378662109375000e+01 -1.648369598388671875e+01 1.441734910011291504e+00 4.834912776947021484e+00 1.882994294166564941e+00 1.734320163726806641e+00
2.280000000000000000e+03 1.627234649658203125e+01 8.448248863220214844e+00 -7.900421041995286942e-05 3.600485433707945049e-05 -1.289980718865990639e-05 -6.337641480058664456e-06
2.281000000000000000e+03 3.139370918273925781e+01 1.836955070495605469e+01 -5.072750151157379150e-02 -4.599395766854286194e-02 -2.901643700897693634e-02 4.855648055672645569e-02
2.282000000000000000e+03 7.708911132812500000e+01 -2.027331733703613281e+01 3.045490884687751532e-04 1.305488258367404342e-04 1.305293699260801077e-04 -3.862126613967120647e-04
2.283000000000000000e+03 3.209988021850585938e+01 -3.203430652618408203e+00 -1.891653180122375488e+00 1.047566533088684082e-01 -5.360689759254455566e-01 -3.302591145038604736e-01
2.284000000000000000e+03 7.694754028320312500e+01 -1.243496894836425781e+01 -7.660929858684539795e-02 -9.097609668970108032e-02 -5.027561634778976440e-02 -1.286138445138931274e-01
2.285000000000000000e+03 3.596729278564453125e+01 -1.717303991317749023e+00 -2.391808032989501953e+00 5.202943682670593262e-01 -5.614541172981262207e-01 3.288909494876861572e-01
2.286000000000000000e+03 1.815100860595703125e+01 3.791352272033691406e+00 -7.673425898246932775e-06 -2.899854371207766235e-05 -1.100159079214790836e-05 8.059590982156805694e-06
2.287000000000000000e+03 1.952257347106933594e+01 3.374735116958618164e+00 8.426409294770564884e-06 3.955664942623116076e-05 1.439491825294680893e-05 -3.738511509254749399e-07
2.288000000000000000e+03 1.749106979370117188e+01 3.780169248580932617e+00 1.774812153598759323e-05 3.593257861211895943e-05 1.610420986253302544e-05 -5.127079020894598216e-06
2.289000000000000000e+03 1.540399169921875000e+01 3.765796422958374023e+00 -1.606018122402019799e-05 -2.217230030510108918e-05 -1.146974409493850544e-05 1.602387601451482624e-05
2.290000000000000000e+03 1.610799407958984375e+01 3.769782304763793945e+00 2.389417932135984302e-05 4.279087079339660704e-05 2.000551648961845785e-05 9.804517731026862748e-07
2.291000000000000000e+03 3.850537109375000000e+01 -1.501517295837402344e+00 -2.008972644805908203e+00 3.489492833614349365e-01 -4.980069994926452637e-01 7.887248396873474121e-01
2.292000000000000000e+03 1.325017547607421875e+01 4.435537815093994141e+00 1.320009687333367765e-05 -3.658984496723860502e-05 -7.016924428171478212e-06 3.464382825768552721e-05
2.293000000000000000e+03 1.178347110748291016e+01 3.938322782516479492e+00 3.872265733662061393e-05 5.181922460906207561e-05 2.716256494750268757e-05 6.457104973378591239e-06
2.294000000000000000e+03 3.852498245239257812e+01 -2.465059041976928711e+00 -2.733035326004028320e+00 5.775483250617980957e-01 -6.466461420059204102e-01 8.095105290412902832e-01
2.295000000000000000e+03 3.900588607788085938e+01 -2.922655344009399414e+00 -2.712713241577148438e+00 5.835845470428466797e-01 -6.387386322021484375e-01 5.556661486625671387e-01
2.296000000000000000e+03 3.719488143920898438e+01 4.559307575225830078e+00 1.068832119926810265e-03 1.112205558456480503e-03 6.543112685903906822e-04 -6.919304141774773598e-04
2.297000000000000000e+03 1.468844127655029297e+01 3.764164209365844727e+00 2.887716073018964380e-05 4.991422974853776395e-05 2.363741623412352055e-05 1.251971389137906954e-05
2.298000000000000000e+03 1.029184150695800781e+01 4.011005401611328125e+00 8.100907143671065569e-05 3.077134533668868244e-05 3.353412466822192073e-05 -3.088491666858317330e-06
2.299000000000000000e+03 1.251669120788574219e+01 3.871712923049926758e+00 1.968121432582847774e-05 -4.772874308400787413e-05 -8.414258445554878563e-06 4.150079257669858634e-05
2.300000000000000000e+03 3.653265476226806641e+00 3.813701152801513672e+00 5.576239345828071237e-05 4.993675247533246875e-05 3.170974378008395433e-05 -9.338083327747881413e-05
2.301000000000000000e+03 2.520387458801269531e+01 -3.796802759170532227e+00 -8.065645694732666016e-01 -1.185067892074584961e-01 -2.775214016437530518e-01 -9.077333211898803711e-01
2.302000000000000000e+03 3.482626724243164062e+01 3.592554330825805664e+00 9.155091829597949982e-04 -6.324255373328924179e-04 8.492509368807077408e-05 7.402741466648876667e-04
2.303000000000000000e+03 3.753036117553710938e+01 -2.338158607482910156e+00 -2.489275217056274414e+00 6.601534485816955566e-01 -5.487365126609802246e-01 6.600161194801330566e-01
2.304000000000000000e+03 1.157213497161865234e+01 -4.055142879486083984e+00 -4.709026217460632324e-02 -8.966300636529922485e-02 -4.102598130702972412e-02 -3.464343771338462830e-02
2.305000000000000000e+03 7.635126495361328125e+01 -1.118892383575439453e+01 -1.254690289497375488e-01 -1.346987634897232056e-01 -7.805033773183822632e-02 -2.355492860078811646e-01
2.306000000000000000e+03 7.449398803710937500e+01 -1.210093975067138672e+01 -2.699416875839233398e-01 -2.646495960652828217e-02 -8.892198652029037476e-02 -2.371942400932312012e-01
2.307000000000000000e+03 9.858747482299804688e+00 -3.374525547027587891e+00 2.035388723015785217e-02 -4.446285218000411987e-02 -7.232689764350652695e-03 2.399356104433536530e-02
2.308000000000000000e+03 1.432775592803955078e+01 -4.357763767242431641e+00 -1.214891746640205383e-01 -1.787182688713073730e-01 -9.006223082542419434e-02 -1.737922728061676025e-01
2.309000000000000000e+03 8.789975166320800781e+00 4.009435176849365234e+00 8.421569509664550424e-05 2.571970253484323621e-05 3.298062074463814497e-05 -2.233986197097692639e-05
2.310000000000000000e+03 1.360631275177001953e+01 -3.082471847534179688e+00 -1.986264809966087341e-02 -8.437746018171310425e-02 -3.127203136682510376e-02 -1.025750190019607544e-01
2.311000000000000000e+03 1.368156528472900391e+01 -3.715112209320068359e+00 -6.893401592969894409e-02 -1.141914725303649902e-01 -5.493764579296112061e-02 -1.200646907091140747e-01
2.312000000000000000e+03 6.624082565307617188e+00 4.095073223114013672e+00 -9.833068361331243068e-06 -4.766300116898491979e-05 -1.724882167764008045e-05 1.014303779811598361e-05
2.313000000000000000e+03 6.644489288330078125e+00 4.879612445831298828e+00 1.611286279512569308e-04 -1.523340142739471048e-05 4.376856668386608362e-05 -6.731074972776696086e-05
2.314000000000000000e+03 7.328959941864013672e+00 4.061429977416992188e+00 1.059057831298559904e-04 1.175221768789924681e-05 3.529739842633716762e-05 -4.894374797004275024e-05
2.315000000000000000e+03 4.536597251892089844e+00 4.507685661315917969e+00 3.093502527917735279e-05 5.947392128291539848e-05 2.712268360482994467e-05 -7.585668936371803284e-05
2.316000000000000000e+03 8.004985809326171875e+00 -4.874758243560791016e+00 -4.878905043005943298e-02 -3.907594084739685059e-02 -2.635949663817882538e-02 4.392751678824424744e-02
2.317000000000000000e+03 6.612958431243896484e+00 -3.651582002639770508e+00 1.729836873710155487e-02 -1.217983663082122803e-02 1.535559771582484245e-03 6.793828308582305908e-02
2.318000000000000000e+03 5.741236686706542969e+00 -3.654707193374633789e+00 1.735490001738071442e-02 -3.218226134777069092e-03 4.241002257913351059e-03 7.242267578840255737e-02
2.319000000000000000e+03 5.437160015106201172e+00 -4.345922946929931641e+00 -5.617360118776559830e-03 -2.491263439878821373e-04 -1.759945997036993504e-03 7.193125039339065552e-02
2.320000000000000000e+03 3.296083211898803711e+00 -3.534622907638549805e+00 1.485782302916049957e-02 2.315502613782882690e-02 1.140385493636131287e-02 6.563571840524673462e-02
2.321000000000000000e+03 8.595837593078613281e+00 -4.646646022796630859e+00 -4.239556193351745605e-02 -4.801963642239570618e-02 -2.712455950677394867e-02 3.803702443838119507e-02
2.322000000000000000e+03 9.937948226928710938e+00 -4.115324974060058594e+00 -3.011721745133399963e-02 -6.092803925275802612e-02 -2.731357701122760773e-02 1.587121002376079559e-02
2.323000000000000000e+03 1.807636070251464844e+01 -4.107069015502929688e+00 -2.484600245952606201e-01 -1.831805557012557983e-01 -1.294921785593032837e-01 -3.978653848171234131e-01
2.324000000000000000e+03 9.537801742553710938e+00 4.003413200378417969e+00 2.026398942689411342e-05 -6.776527152396738529e-05 -1.425038408342516050e-05 4.144537524553015828e-05
2.325000000000000000e+03 1.652187347412109375e+01 -3.147892236709594727e+00 -1.381035000085830688e-01 -1.290027499198913574e-01 -8.013187348842620850e-02 -2.606025040149688721e-01
2.326000000000000000e+03 1.231450366973876953e+01 -3.916408300399780273e+00 -4.614493250846862793e-02 -1.045924648642539978e-01 -4.522121697664260864e-02 -6.148949638009071350e-02
2.327000000000000000e+03 6.843219757080078125e+01 -1.275497150421142578e+01 -9.005330204963684082e-01 1.143186911940574646e-01 -2.358642965555191040e-01 -9.985225042328238487e-04
2.328000000000000000e+03 7.179835510253906250e+01 -1.196266651153564453e+01 -5.235586166381835938e-01 1.212705448269844055e-01 -1.206864267587661743e-01 -2.359160035848617554e-01
2.329000000000000000e+03 7.605541229248046875e+01 -1.211635398864746094e+01 -1.538767069578170776e-01 -9.303294867277145386e-02 -7.407289743423461914e-02 -1.995362788438796997e-01
2.330000000000000000e+03 1.499966335296630859e+01 -3.712739944458007812e+00 -1.020556390285491943e-01 -1.437773555517196655e-01 -7.374989986419677734e-02 -1.924846023321151733e-01
2.331000000000000000e+03 1.569320297241210938e+01 -3.767768144607543945e+00 -1.310694813728332520e-01 -1.599183827638626099e-01 -8.729635924100875854e-02 -2.393878549337387085e-01
2.332000000000000000e+03 7.092327880859375000e+01 -1.183069515228271484e+01 -6.666040420532226562e-01 1.503612399101257324e-01 -1.548728495836257935e-01 -2.729900479316711426e-01
2.333000000000000000e+03 2.864620399475097656e+01 -7.141995429992675781e+00 1.014905214309692383e+00 4.432342946529388428e-01 4.374418556690216064e-01 -1.014212250709533691e+00
2.334000000000000000e+03 4.866041946411132812e+01 -1.428946590423583984e+01 1.717226982116699219e+00 -9.213956445455551147e-02 4.875262081623077393e-01 5.199456810951232910e-01
2.335000000000000000e+03 3.539865493774414062e+01 5.435586452484130859e+00 -5.532857612706720829e-04 -1.030268031172454357e-03 -4.750661319121718407e-04 3.845210812869481742e-05
2.336000000000000000e+03 3.877159881591796875e+01 -1.629812431335449219e+01 1.558254718780517578e+00 1.965967655181884766e+00 1.057266712188720703e+00 1.119498968124389648e+00
2.337000000000000000e+03 3.963964843750000000e+01 -1.559876346588134766e+01 2.906505346298217773e+00 2.501404523849487305e+00 1.622372984886169434e+00 1.148095846176147461e+00
2.338000000000000000e+03 7.367735290527343750e+01 -1.191953659057617188e+01 -3.192607164382934570e-01 1.177967339754104614e-02 -9.224431216716766357e-02 -2.527237832546234131e-01
2.339000000000000000e+03 2.246751785278320312e+01 -2.959599971771240234e+00 -7.058074474334716797e-01 3.025072813034057617e-02 -2.026670277118682861e-01 -5.665504336357116699e-01
2.340000000000000000e+03 1.887131881713867188e+01 -4.424077510833740234e+00 -2.972249090671539307e-01 -1.867897659540176392e-01 -1.452043950557708740e-01 -4.621326625347137451e-01
2.341000000000000000e+03 7.274184417724609375e+01 -1.188834667205810547e+01 -4.202587902545928955e-01 4.722465947270393372e-02 -1.119102388620376587e-01 -2.836323380470275879e-01
2.342000000000000000e+03 3.583635330200195312e+01 -2.233343601226806641e+00 -2.353156566619873047e+00 5.474678277969360352e-01 -5.417066216468811035e-01 3.824721872806549072e-01
2.343000000000000000e+03 7.059577941894531250e+01 -1.252116775512695312e+01 -5.893542766571044922e-01 1.520635634660720825e-01 -1.311872154474258423e-01 -1.461275517940521240e-01
2.344000000000000000e+03 7.614903259277343750e+01 -2.233555793762207031e+01 -8.069805335253477097e-05 -1.927460543811321259e-04 -8.203323523048311472e-05 -1.478872000006958842e-04
2.345000000000000000e+03 7.250028228759765625e+01 -2.001047897338867188e+01 5.180516163818538189e-04 -9.516088903183117509e-05 1.268672203877940774e-04 3.204552922397851944e-05
2.346000000000000000e+03 7.369232177734375000e+01 -2.054370117187500000e+01 -3.318254584883106872e-06 -2.606984635349363089e-04 -7.920501229818910360e-05 1.255108327313791960e-05
2.347000000000000000e+03 3.468917846679687500e+01 -2.843089103698730469e+00 -2.254256248474121094e+00 3.807313442230224609e-01 -5.620574951171875000e-01 3.817341327667236328e-01
2.348000000000000000e+03 4.080525207519531250e+01 -1.119404697418212891e+01 1.062760710716247559e+00 2.729746580123901367e+00 1.137752175331115723e+00 -9.946795701980590820e-01
2.349000000000000000e+03 4.006706237792968750e+01 -1.135570907592773438e+01 1.317323088645935059e+00 2.306423664093017578e+00 1.087123990058898926e+00 -1.394958138465881348e+00
2.350000000000000000e+03 3.760317230224609375e+01 -1.313582229614257812e+01 2.021347999572753906e+00 4.962693750858306885e-01 7.552852034568786621e-01 -1.298683166503906250e+00
2.351000000000000000e+03 3.809291076660156250e+01 9.540672302246093750e+00 -1.645396579988300800e-03 -3.615020075812935829e-03 -1.578125054948031902e-03 1.393760670907795429e-03
2.352000000000000000e+03 2.224232673645019531e+01 -2.049576282501220703e+00 -6.863415837287902832e-01 7.233269512653350830e-02 -1.842026710510253906e-01 -3.825154304504394531e-01
2.353000000000000000e+03 1.355867958068847656e+01 -1.012060642242431641e+01 -5.108925104141235352e-01 -4.680857956409454346e-01 -2.936934828758239746e-01 -2.282221317291259766e-01
2.354000000000000000e+03 1.543552684783935547e+01 -1.136823844909667969e+01 -8.087957501411437988e-01 -6.745933294296264648e-01 -4.450167417526245117e-01 -4.236359298229217529e-01
2.355000000000000000e+03 4.281734466552734375e+01 -1.852954292297363281e+01 -3.727112710475921631e-01 3.162416458129882812e+00 8.369115591049194336e-01 -4.718500971794128418e-01
2.356000000000000000e+03 4.322713088989257812e+01 -1.987466049194335938e+01 -3.107661306858062744e-01 2.445401668548583984e+00 6.403906345367431641e-01 -3.153426647186279297e-01
2.357000000000000000e+03 3.022428894042968750e+01 -6.462364673614501953e+00 6.285393238067626953e-01 8.900856375694274902e-01 4.555874764919281006e-01 -7.736942768096923828e-01
2.358000000000000000e+03 3.272488021850585938e+01 -7.808996677398681641e+00 1.119486927986145020e+00 8.579993844032287598e-01 5.932459235191345215e-01 -6.506629586219787598e-01
2.359000000000000000e+03 3.196811866760253906e+01 -7.172049999237060547e+00 9.725852608680725098e-01 8.752758502960205078e-01 5.543583035469055176e-01 -6.434296965599060059e-01
2.360000000000000000e+03 4.297910690307617188e+01 -7.024692535400390625e+00 -1.864236474037170410e+00 2.943297922611236572e-01 -4.709720015525817871e-01 6.658034920692443848e-01
2.361000000000000000e+03 4.403888702392578125e+01 -7.422631263732910156e+00 -1.641773223876953125e+00 1.683917045593261719e-01 -4.420144557952880859e-01 9.896367788314819336e-01
2.362000000000000000e+03 3.955376052856445312e+01 -1.633650588989257812e+01 1.787414789199829102e+00 2.984876871109008789e+00 1.431687474250793457e+00 1.598184704780578613e+00
2.363000000000000000e+03 2.869934272766113281e+01 -6.454466819763183594e+00 5.803810358047485352e-01 3.792828917503356934e-01 2.878991663455963135e-01 -8.956040740013122559e-01
2.364000000000000000e+03 3.138137817382812500e+01 -6.583761692047119141e+00 5.385592579841613770e-01 8.604353666305541992e-01 4.196983873844146729e-01 -5.034104585647583008e-01
2.365000000000000000e+03 4.643599700927734375e+01 -1.363528347015380859e+01 2.794214725494384766e+00 -4.663219451904296875e-01 6.983677744865417480e-01 7.463804483413696289e-01
2.366000000000000000e+03 2.097734642028808594e+01 -3.482496023178100586e+00 -4.730197191238403320e-01 -7.173127681016921997e-02 -1.634252965450286865e-01 -5.155199170112609863e-01
2.367000000000000000e+03 2.343229866027832031e+01 -4.228286743164062500e+00 -5.633820891380310059e-01 -9.187208861112594604e-02 -1.965762525796890259e-01 -7.811617851257324219e-01
2.368000000000000000e+03 2.017038917541503906e+01 -3.636499643325805664e+00 -3.852526545524597168e-01 -1.091722846031188965e-01 -1.483274847269058228e-01 -4.905076920986175537e-01
2.369000000000000000e+03 7.692410278320312500e+01 -1.968700408935546875e+01 -4.528735644271364436e-06 -5.593885362031869590e-05 -1.814027564250864089e-05 -2.441000979160889983e-04
2.370000000000000000e+03 4.309304428100585938e+01 -1.932021141052246094e+01 -3.568661808967590332e-01 2.658683538436889648e+00 6.905452013015747070e-01 -3.743451833724975586e-01
2.371000000000000000e+03 4.361147689819335938e+01 -2.104926109313964844e+01 -1.720558702945709229e-01 2.046773195266723633e+00 5.624151825904846191e-01 -2.266085743904113770e-01
2.372000000000000000e+03 3.812678909301757812e+01 -1.994866251945495605e+00 -2.252238988876342773e+00 4.867909550666809082e-01 -5.296344161033630371e-01 7.944445610046386719e-01
2.373000000000000000e+03 3.383602905273437500e+01 1.489584636688232422e+01 -2.330229803919792175e-02 -5.445984657853841782e-03 -8.624484762549400330e-03 2.088669501245021820e-02
2.374000000000000000e+03 1.157609462738037109e+01 -1.421086883544921875e+01 -5.509566664695739746e-01 -3.709259033203125000e-01 -2.765647768974304199e-01 -4.299068748950958252e-01
2.375000000000000000e+03 1.525804328918457031e+01 -2.482300186157226562e+01 4.279380738735198975e-01 2.888427972793579102e-01 2.150342613458633423e-01 -3.830133378505706787e-01
2.376000000000000000e+03 1.509490680694580078e+01 -2.772207832336425781e+01 3.804978728294372559e-01 1.372501999139785767e-01 1.553244143724441528e-01 -2.634342610836029053e-01
2.377000000000000000e+03 6.377823257446289062e+01 -8.603310585021972656e+00 -8.272559642791748047e-01 -9.296962618827819824e-02 -2.760676741600036621e-01 -2.063780874013900757e-01
2.378000000000000000e+03 6.244565582275390625e+01 -1.126410102844238281e+01 -1.914058566093444824e+00 -7.664971798658370972e-02 -5.972124934196472168e-01 7.214961946010589600e-02
2.379000000000000000e+03 4.582640647888183594e+00 -8.882884025573730469e+00 -9.168937802314758301e-02 -1.262734830379486084e-02 -3.129501640796661377e-02 -1.843919605016708374e-02
2.380000000000000000e+03 3.768787384033203125e+01 1.044304275512695312e+01 -4.536099266260862350e-03 9.129276149906218052e-04 -1.086951466277241707e-03 -2.614952391013503075e-03
2.381000000000000000e+03 3.496035766601562500e+01 9.008797645568847656e+00 -9.734628256410360336e-04 -1.461493899114429951e-03 -7.304869941435754299e-04 4.525324911810457706e-04
2.382000000000000000e+03 1.663982200622558594e+01 -2.707089042663574219e+01 4.497514069080352783e-01 3.231981396675109863e-01 2.318848669528961182e-01 -3.443997800350189209e-01
2.383000000000000000e+03 5.070952987670898438e+01 2.577807426452636719e+01 2.615671455860137939e-01 1.454826891422271729e-01 1.221149489283561707e-01 -2.679672241210937500e-01
2.384000000000000000e+03 6.055826187133789062e+01 -9.702220916748046875e+00 -1.136147856712341309e+00 5.110388398170471191e-01 -1.875327229499816895e-01 3.200114965438842773e-01
2.385000000000000000e+03 7.074559783935546875e+01 -2.693182754516601562e+01 -4.970555659383535385e-03 6.772067281417548656e-04 -1.288004685193300247e-03 1.308344188146293163e-03
2.386000000000000000e+03 6.818587493896484375e+01 -1.136928939819335938e+01 -1.376135110855102539e+00 2.882441580295562744e-01 -3.263672888278961182e-01 -3.210286200046539307e-01
2.387000000000000000e+03 7.279503631591796875e+01 -2.106081771850585938e+01 -8.189213258447125554e-05 -2.472056658007204533e-04 -9.872933878796175122e-05 1.072071027010679245e-04
2.388000000000000000e+03 7.739103698730468750e+01 -1.976710510253906250e+01 -1.077699344023130834e-04 9.250641596736386418e-05 -4.579056167131057009e-06 -1.538896176498383284e-04
2.389000000000000000e+03 5.678150177001953125e+01 -1.012550830841064453e+01 -8.492941260337829590e-01 9.055769443511962891e-01 1.688483916223049164e-02 8.524120450019836426e-01
2.390000000000000000e+03 3.813540267944335938e+01 1.212774181365966797e+01 -1.992173120379447937e-02 1.356339431367814541e-03 -5.569617729634046555e-03 1.830453984439373016e-04
2.391000000000000000e+03 3.392963027954101562e+01 9.670994758605957031e+00 4.285904578864574432e-04 4.105870611965656281e-04 2.517532557249069214e-04 -1.240288023836910725e-03
2.392000000000000000e+03 6.314732551574707031e+00 -2.992774581909179688e+01 1.059207022190093994e-01 -6.305846571922302246e-01 -1.573991924524307251e-01 -1.580503582954406738e-01
2.393000000000000000e+03 4.319646358489990234e+00 -2.970790290832519531e+01 6.230742856860160828e-02 -8.181852698326110840e-01 -2.267633527517318726e-01 -1.380515992641448975e-01
2.394000000000000000e+03 6.061749458312988281e+00 -1.989670944213867188e+01 8.286444470286369324e-03 -4.061456918716430664e-01 -1.193577721714973450e-01 -4.341932833194732666e-01
2.395000000000000000e+03 4.803881645202636719e+00 5.346799373626708984e+00 1.024357043206691742e-04 -6.229012069525197148e-05 1.204367708851350471e-05 4.490314495342317969e-06
2.396000000000000000e+03 3.898940324783325195e+00 8.613801956176757812e+00 -6.708197906846180558e-05 -2.705199040065053850e-05 -2.824019065883476287e-05 -9.765977301867678761e-05
2.397000000000000000e+03 7.130026245117187500e+01 -2.499675178527832031e+01 -2.734555862843990326e-03 2.645280910655856133e-04 -7.410083198919892311e-04 3.493437252473086119e-04
2.398000000000000000e+03 7.151091003417968750e+01 -2.271038246154785156e+01 -9.509677765890955925e-04 -2.718342293519526720e-04 -3.668405988719314337e-04 1.157850638264790177e-04
2.399000000000000000e+03 7.022398376464843750e+01 -2.368661117553710938e+01 -1.866462407633662224e-03 1.625382719794288278e-04 -5.111772334203124046e-04 1.261298311874270439e-04
2.400000000000000000e+03 7.560827636718750000e+01 1.537258243560791016e+01 1.777838170528411865e-01 -1.715229272842407227e+00 -4.612336456775665283e-01 1.209432855248451233e-01
2.401000000000000000e+03 2.468431854248046875e+01 -7.671848297119140625e+00 1.242026761174201965e-01 -2.786896228790283203e-01 -4.634608328342437744e-02 -5.613585710525512695e-01
2.402000000000000000e+03 2.324745750427246094e+01 -6.540646553039550781e+00 -1.997728943824768066e-01 -2.449920028448104858e-01 -1.334294676780700684e-01 -7.073875069618225098e-01
2.403000000000000000e+03 2.896206855773925781e+00 2.077518463134765625e+01 -8.711231057532131672e-04 -1.110864468500949442e-05 -2.646695356816053391e-04 3.039354050997644663e-04
2.404000000000000000e+03 3.948336124420166016e+00 1.951874542236328125e+01 -9.687721612863242626e-04 -2.818791836034506559e-04 -3.751954063773155212e-04 9.340301039628684521e-05
2.405000000000000000e+03 5.130163574218750000e+01 -1.077187538146972656e+01 8.661541342735290527e-02 2.744662463665008545e-01 1.083244979381561279e-01 1.722174286842346191e+00
2.406000000000000000e+03 4.953384399414062500e+01 -1.252224922180175781e+01 1.080952167510986328e+00 -9.559918195009231567e-02 2.956058979034423828e-01 1.248396158218383789e+00
2.407000000000000000e+03 5.439817810058593750e+01 -1.093710899353027344e+01 -4.904376566410064697e-01 7.176148295402526855e-01 6.815315783023834229e-02 1.256149649620056152e+00
2.408000000000000000e+03 4.196399688720703125e+00 3.001495170593261719e+01 -9.466145420446991920e-04 -7.142062298953533173e-03 -2.426603110507130623e-03 5.634340923279523849e-03
2.409000000000000000e+03 1.238099098205566406e+01 -1.527010154724121094e+01 -5.005040764808654785e-01 -4.982089400291442871e-01 -2.996138930320739746e-01 -5.170414447784423828e-01
2.410000000000000000e+03 6.356894683837890625e+01 9.625580787658691406e+00 5.615661740303039551e-01 4.882742404937744141e+00 1.633292555809020996e+00 6.143304705619812012e-01
2.411000000000000000e+03 6.378861618041992188e+01 8.472068786621093750e+00 7.473739981651306152e-01 4.158524036407470703e+00 1.471769452095031738e+00 6.434472799301147461e-01
2.412000000000000000e+03 3.468830871582031250e+01 -9.075085639953613281e+00 1.325981974601745605e+00 3.239529132843017578e-01 4.949804544448852539e-01 -1.033892750740051270e+00
2.413000000000000000e+03 3.546504974365234375e+01 -1.066931056976318359e+01 1.542310476303100586e+00 3.838358074426651001e-02 4.742082059383392334e-01 -1.363915801048278809e+00
2.414000000000000000e+03 7.568575286865234375e+01 -3.200146102905273438e+01 -1.045642653480172157e-03 -3.946899902075529099e-03 -1.497762743383646011e-03 5.302116274833679199e-03
2.415000000000000000e+03 7.572361755371093750e+01 -3.072147560119628906e+01 -1.913927728310227394e-03 -2.839550841599702835e-03 -1.426043570972979069e-03 4.342741332948207855e-03
2.416000000000000000e+03 7.481423187255859375e+01 3.067234992980957031e+01 -1.205106899142265320e-01 -5.797765254974365234e-01 -2.100861668586730957e-01 5.144279003143310547e-01
2.417000000000000000e+03 4.213358306884765625e+01 1.672801208496093750e+01 -7.418867945671081543e-02 2.333175018429756165e-02 -1.525707915425300598e-02 -1.786449179053306580e-02
2.418000000000000000e+03 4.257902145385742188e+01 -2.783723449707031250e+01 6.452041119337081909e-02 1.324093937873840332e+00 4.165843129158020020e-01 1.078957468271255493e-01
2.419000000000000000e+03 4.427213668823242188e+01 -2.803788566589355469e+01 6.975370459258556366e-03 1.158312797546386719e+00 3.495864272117614746e-01 -3.356226161122322083e-02
2.420000000000000000e+03 4.518681049346923828e+00 -1.495566749572753906e+01 -1.002775281667709351e-01 -1.687337756156921387e-01 -8.070338517427444458e-02 -2.666168808937072754e-01
2.421000000000000000e+03 6.892871379852294922e+00 -1.379750919342041016e+01 -2.344710528850555420e-01 -1.652122735977172852e-01 -1.199050024151802063e-01 -2.967145740985870361e-01
2.422000000000000000e+03 3.934170150756835938e+01 1.518752288818359375e+01 -5.332092195749282837e-02 2.489295229315757751e-02 -8.528391830623149872e-03 2.949057379737496376e-03
2.423000000000000000e+03 4.014727020263671875e+01 1.427177238464355469e+01 -4.403753206133842468e-02 1.156499143689870834e-02 -9.741761721670627594e-03 -3.511003917083144188e-03
2.424000000000000000e+03 7.574369812011718750e+01 -8.201661109924316406e+00 -1.637762635946273804e-01 -2.984536588191986084e-01 -1.386689692735671997e-01 -4.799852371215820312e-01
2.425000000000000000e+03 7.549401092529296875e+01 1.941306114196777344e+01 1.376678943634033203e-01 -1.533848166465759277e+00 -4.188540577888488770e-01 4.119956791400909424e-01
2.426000000000000000e+03 6.557341003417968750e+01 -9.225132942199707031e+00 -1.100476622581481934e+00 -4.373323917388916016e-02 -3.432629406452178955e-01 -5.756887793540954590e-01
2.427000000000000000e+03 6.472787475585937500e+01 -8.141505241394042969e+00 -6.915535926818847656e-01 8.077500015497207642e-02 -1.832335740327835083e-01 -4.438889026641845703e-01
2.428000000000000000e+03 4.095880031585693359e+00 1.199865818023681641e+01 2.891681215260177851e-04 -6.074531029298668727e-06 8.492807683069258928e-05 -3.600071067921817303e-04
2.429000000000000000e+03 1.605915641784667969e+01 -1.015725421905517578e+01 -5.863844752311706543e-01 -6.212635040283203125e-01 -3.622944056987762451e-01 -4.042659699916839600e-01
2.430000000000000000e+03 2.617274093627929688e+01 -6.728418350219726562e+00 3.214181959629058838e-01 -2.331914901733398438e-01 2.646801434457302094e-02 -7.730153203010559082e-01
2.431000000000000000e+03 4.383451461791992188e+00 2.645892333984375000e+01 -1.313486834987998009e-03 -3.433433827012777328e-03 -1.424076152034103870e-03 4.154259804636240005e-03
2.432000000000000000e+03 4.473484039306640625e+01 2.201569557189941406e+01 -2.232633717358112335e-02 3.700586408376693726e-02 4.403857514262199402e-03 -9.088248014450073242e-03
2.433000000000000000e+03 4.567966461181640625e+01 -6.884183406829833984e+00 -2.154094457626342773e+00 -4.158751070499420166e-01 -7.709908485412597656e-01 1.516898989677429199e+00
2.434000000000000000e+03 1.166314601898193359e+01 -2.210086059570312500e+01 2.971546947956085205e-01 -2.824355959892272949e-01 4.415728617459535599e-03 -4.307407140731811523e-01
2.435000000000000000e+03 4.915237426757812500e+01 2.523311614990234375e+01 1.702264696359634399e-01 8.397589623928070068e-02 7.626070827245712280e-02 -1.518849581480026245e-01
2.436000000000000000e+03 3.417478561401367188e+00 3.286302566528320312e+01 6.247753044590353966e-04 -1.039685308933258057e-02 -2.931623253971338272e-03 4.802315030246973038e-03
2.437000000000000000e+03 4.069056320190429688e+01 -4.925519943237304688e+00 -3.004547357559204102e+00 1.301557570695877075e-01 -8.623175024986267090e-01 3.235862553119659424e-01
2.438000000000000000e+03 4.209002685546875000e+01 -6.603330612182617188e+00 -2.058771610260009766e+00 3.169504106044769287e-01 -5.225463509559631348e-01 2.601346671581268311e-01
2.439000000000000000e+03 3.754610061645507812e+01 -1.220313739776611328e+01 1.730711340904235840e+00 5.264209508895874023e-01 6.771396994590759277e-01 -1.578087687492370605e+00
2.440000000000000000e+03 3.765212631225585938e+01 -1.125170707702636719e+01 1.497576832771301270e+00 5.731166601181030273e-01 6.212080717086791992e-01 -1.735471010208129883e+00
2.441000000000000000e+03 4.174815750122070312e+01 -2.419816970825195312e+01 4.850952327251434326e-02 1.742179989814758301e+00 5.372068881988525391e-01 2.938262522220611572e-01
2.442000000000000000e+03 4.165323257446289062e+01 -2.571758460998535156e+01 1.206810027360916138e-01 1.529751777648925781e+00 4.951298236846923828e-01 2.523665130138397217e-01
2.443000000000000000e+03 5.601645278930664062e+01 2.469956779479980469e+01 6.453707814216613770e-01 4.512987136840820312e-01 3.290008306503295898e-01 -7.825495004653930664e-01
2.444000000000000000e+03 6.570194244384765625e+01 1.841415023803710938e+01 1.052286744117736816e+00 3.190266370773315430e+00 1.272765874862670898e+00 -9.165145456790924072e-03
2.445000000000000000e+03 6.561701965332031250e+01 1.997859764099121094e+01 8.829734921455383301e-01 2.844113826751708984e+00 1.118126273155212402e+00 9.315626323223114014e-02
2.446000000000000000e+03 6.406977844238281250e+01 2.000569534301757812e+01 1.092166662216186523e+00 3.785387754440307617e+00 1.463266372680664062e+00 -1.948747932910919189e-01
2.447000000000000000e+03 6.349413299560546875e+01 1.159310340881347656e+01 3.467036783695220947e-01 5.410998821258544922e+00 1.727310776710510254e+00 3.991657495498657227e-01
2.448000000000000000e+03 3.884683990478515625e+01 -1.940012741088867188e+01 -1.498524546623229980e-01 2.406210422515869141e+00 6.769073605537414551e-01 1.409527420997619629e+00
2.449000000000000000e+03 2.240126800537109375e+01 -7.131965637207031250e+00 -2.427410185337066650e-01 -2.589024007320404053e-01 -1.504930257797241211e-01 -6.409319043159484863e-01
2.450000000000000000e+03 3.889351654052734375e+01 -6.134534835815429688e+00 -1.665764451026916504e+00 7.595881223678588867e-01 -2.718528807163238525e-01 -3.303423523902893066e-01
2.451000000000000000e+03 3.352866888046264648e+00 -3.266567611694335938e+01 3.097978420555591583e-02 -9.638443589210510254e-01 -2.798593640327453613e-01 -6.308226287364959717e-02
2.452000000000000000e+03 6.088593292236328125e+01 -1.129372596740722656e+01 -1.605975270271301270e+00 3.173580467700958252e-01 -3.865851759910583496e-01 1.701705604791641235e-01
2.453000000000000000e+03 4.560127258300781250e+01 2.077552986145019531e+01 -7.553716003894805908e-02 1.775689423084259033e-02 -1.733407936990261078e-02 -4.700977820903062820e-03
2.454000000000000000e+03 4.369987487792968750e+01 2.256747817993164062e+01 -1.272502820938825607e-02 5.135891959071159363e-02 1.159016788005828857e-02 -2.340241102501749992e-03
2.455000000000000000e+03 1.956215286254882812e+01 -7.862638950347900391e+00 -3.797414600849151611e-01 -3.443053364753723145e-01 -2.172140330076217651e-01 -5.711470842361450195e-01
2.456000000000000000e+03 3.499055862426757812e+01 -3.108778381347656250e+01 2.647355198860168457e-01 1.262305259704589844e+00 4.581122398376464844e-01 3.633899092674255371e-01
2.457000000000000000e+03 4.046382141113281250e+01 -3.937182188034057617e+00 -3.086905479431152344e+00 1.304155290126800537e-01 -8.869470357894897461e-01 5.150483846664428711e-01
2.458000000000000000e+03 5.874855804443359375e+01 -3.844654321670532227e+00 4.035201370716094971e-01 1.649610161781311035e+00 6.159390807151794434e-01 8.256388306617736816e-01
2.459000000000000000e+03 2.489163589477539062e+01 -3.168807983398437500e+01 6.475007534027099609e-01 3.190769553184509277e-01 2.899733185768127441e-01 -6.447920203208923340e-02
2.460000000000000000e+03 4.724188613891601562e+01 -3.245110321044921875e+01 -4.011737555265426636e-02 5.476712584495544434e-01 1.522661596536636353e-01 -1.694289296865463257e-01
2.461000000000000000e+03 5.749129486083984375e+01 -5.784959793090820312e+00 -5.890757590532302856e-02 1.523524165153503418e+00 4.393849968910217285e-01 8.986737132072448730e-01
2.462000000000000000e+03 5.807104873657226562e+01 -4.830409049987792969e+00 1.963266134262084961e-01 1.621491312980651855e+00 5.453453660011291504e-01 8.452057838439941406e-01
2.463000000000000000e+03 4.331562042236328125e+01 -2.307185173034667969e+01 2.170753479003906250e-02 1.776870846748352051e+00 5.395734906196594238e-01 -1.869150809943675995e-02
2.464000000000000000e+03 4.210916137695312500e+01 -2.286357498168945312e+01 -6.748750805854797363e-02 1.983898043632507324e+00 5.749231576919555664e-01 2.220432460308074951e-01
2.465000000000000000e+03 7.558966064453125000e+01 -3.609940338134765625e+01 1.108901924453675747e-03 -8.727928623557090759e-03 -2.285707974806427956e-03 6.332048680633306503e-03
2.466000000000000000e+03 5.589455795288085938e+01 -6.406658172607421875e+00 -1.932616084814071655e-01 1.629559040069580078e+00 4.308892190456390381e-01 1.111368298530578613e+00
2.467000000000000000e+03 3.750056266784667969e+00 3.804792404174804688e+01 1.288211904466152191e-03 -1.522823795676231384e-02 -4.182007629424333572e-03 3.457895945757627487e-03
2.468000000000000000e+03 3.871746063232421875e+01 -1.489275074005126953e+01 2.424976587295532227e+00 1.441579818725585938e+00 1.159966945648193359e+00 9.652660787105560303e-02
2.469000000000000000e+03 6.738321685791015625e+01 -1.079009819030761719e+01 -1.274454712867736816e+00 1.408932358026504517e-01 -3.400684595108032227e-01 -5.881513953208923340e-01
2.470000000000000000e+03 4.187805652618408203e+00 -7.745854854583740234e+00 -5.831553041934967041e-02 1.456257980316877365e-02 -1.312588527798652649e-02 2.456163428723812103e-02
2.471000000000000000e+03 5.735215663909912109e+00 -7.371550083160400391e+00 -1.007792800664901733e-01 -2.618957124650478363e-02 -3.809065371751785278e-02 1.702655665576457977e-02
2.472000000000000000e+03 6.437449645996093750e+01 6.200284481048583984e+00 7.631744742393493652e-01 3.337383508682250977e+00 1.230167388916015625e+00 4.316489994525909424e-01
2.473000000000000000e+03 4.472525596618652344e+00 6.622551918029785156e+00 9.863014565780758858e-05 -2.419503653072752059e-05 2.233053237432613969e-05 4.537193672149442136e-05
2.474000000000000000e+03 3.583190679550170898e+00 7.186879158020019531e+00 -4.730013824882917106e-05 3.692431710078381002e-05 -3.112747435807250440e-06 -2.090172056341543794e-04
2.475000000000000000e+03 4.021181869506835938e+01 -2.409759521484375000e+01 1.437159776687622070e-01 1.766562819480895996e+00 5.730836391448974609e-01 5.398491621017456055e-01
2.476000000000000000e+03 3.814951324462890625e+01 -2.303483390808105469e+01 3.152651488780975342e-01 1.745242357254028320e+00 6.181522607803344727e-01 8.942548632621765137e-01
2.477000000000000000e+03 4.826309967041015625e+01 -9.286974906921386719e+00 5.395191162824630737e-02 -3.039369881153106689e-01 -7.499551773071289062e-02 2.076866388320922852e+00
2.478000000000000000e+03 4.514553833007812500e+01 -7.834702491760253906e+00 -1.136135697364807129e+00 -7.489344477653503418e-02 -3.633087575435638428e-01 1.468910813331604004e+00
2.479000000000000000e+03 6.447257232666015625e+01 3.084536790847778320e+00 6.255477666854858398e-01 2.385332584381103516e+00 9.032641053199768066e-01 1.473854929208755493e-01
2.480000000000000000e+03 1.116101264953613281e+01 -1.577320575714111328e+01 -3.808121085166931152e-01 -3.571449220180511475e-01 -2.213871031999588013e-01 -5.187788605690002441e-01
2.481000000000000000e+03 6.656324005126953125e+01 -3.056330871582031250e+01 -1.951875351369380951e-02 4.629124421626329422e-03 -4.466888960450887680e-03 1.014331728219985962e-02
2.482000000000000000e+03 6.574275207519531250e+01 -3.149754524230957031e+01 -1.913266628980636597e-02 3.208955749869346619e-03 -4.777112975716590881e-03 1.518067438155412674e-02
2.483000000000000000e+03 4.600587844848632812e+00 -1.637958717346191406e+01 -7.815995812416076660e-02 -2.363263964653015137e-01 -9.434590488672256470e-02 -3.188408017158508301e-01
2.484000000000000000e+03 3.763886642456054688e+01 -2.649402999877929688e+01 4.229499697685241699e-01 1.608874797821044922e+00 6.095474362373352051e-01 5.139009952545166016e-01
2.485000000000000000e+03 5.946889495849609375e+01 -2.820699214935302734e+00 5.921120643615722656e-01 1.754241108894348145e+00 7.039059400558471680e-01 8.332896828651428223e-01
2.486000000000000000e+03 3.065730857849121094e+01 -3.006338596343994141e+00 -2.009709596633911133e+00 3.132195174694061279e-01 -5.089470148086547852e-01 -4.668642878532409668e-01
2.487000000000000000e+03 4.273559951782226562e+01 -1.820504188537597656e+01 -3.539052903652191162e-01 3.435935258865356445e+00 9.246090054512023926e-01 -5.117866992950439453e-01
2.488000000000000000e+03 4.275767135620117188e+01 -1.773297691345214844e+01 -2.835940718650817871e-01 3.682548761367797852e+00 1.019686460494995117e+00 -6.080563068389892578e-01
2.489000000000000000e+03 2.916220283508300781e+01 -2.949005365371704102e+00 -1.793872833251953125e+00 1.906886547803878784e-01 -4.809552431106567383e-01 -5.702661871910095215e-01
2.490000000000000000e+03 2.939249038696289062e+01 -2.111355066299438477e+00 -2.359866619110107422e+00 1.553695648908615112e-01 -6.613491177558898926e-01 -3.988337218761444092e-01
2.491000000000000000e+03 2.822160148620605469e+01 -2.354077816009521484e+00 -2.031739234924316406e+00 -5.262762308120727539e-03 -6.111006140708923340e-01 -5.316625833511352539e-01
2.492000000000000000e+03 2.744466590881347656e+01 -2.494263172149658203e+00 -1.786442160606384277e+00 -1.379025429487228394e-01 -5.773034095764160156e-01 -6.205802559852600098e-01
2.493000000000000000e+03 2.993645095825195312e+01 -2.468030929565429688e+00 -2.247589349746704102e+00 2.522475421428680420e-01 -5.986025929450988770e-01 -4.311103224754333496e-01
2.494000000000000000e+03 2.888046836853027344e+01 -3.020126342773437500e+00 -1.699674129486083984e+00 1.490324288606643677e-01 -4.651924967765808105e-01 -5.984230041503906250e-01
2.495000000000000000e+03 2.704838943481445312e+01 -2.705517053604125977e+00 -1.562258720397949219e+00 -1.514197587966918945e-01 -5.141035914421081543e-01 -6.997435092926025391e-01
2.496000000000000000e+03 2.725172042846679688e+01 -2.585091829299926758e+00 -1.688554525375366211e+00 -1.630871295928955078e-01 -5.554925203323364258e-01 -6.354470849037170410e-01
2.497000000000000000e+03 3.069892311096191406e+01 -2.232320308685302734e+00 -2.526279926300048828e+00 3.045972883701324463e-01 -6.665048003196716309e-01 -3.630504012107849121e-01
2.498000000000000000e+03 2.680441093444824219e+01 -3.003311395645141602e+00 -1.310044765472412109e+00 -1.521653383970260620e-01 -4.386630058288574219e-01 -7.686756849288940430e-01
2.499000000000000000e+03 4.472706222534179688e+01 -1.362983512878417969e+01 4.184305191040039062e+00 2.443880736827850342e-01 1.328608036041259766e+00 1.358374476432800293e+00
2.500000000000000000e+03 4.186691665649414062e+01 -1.729550933837890625e+01 -2.339149266481399536e-01 5.074899673461914062e+00 1.452295422554016113e+00 3.160741329193115234e-01
2.501000000000000000e+03 3.141841506958007812e+01 -2.426540613174438477e+00 -2.410882949829101562e+00 2.341963052749633789e-01 -6.530060172080993652e-01 -3.785185515880584717e-01
2.502000000000000000e+03 3.107958602905273438e+01 -2.166086435317993164e+00 -2.599397420883178711e+00 2.659032642841339111e-01 -7.000482678413391113e-01 -3.538145422935485840e-01
2.503000000000000000e+03 4.318321228027343750e+01 -1.838599014282226562e+01 -2.642042040824890137e-01 2.904315233230590820e+00 7.920333147048950195e-01 -6.174886822700500488e-01
2.504000000000000000e+03 1.917360305786132812e+01 2.359582328796386719e+01 -4.552350565791130066e-02 -2.516624052077531815e-03 -1.441203802824020386e-02 1.322826091200113297e-02
2.505000000000000000e+03 2.768428993225097656e+01 2.300100708007812500e+01 -8.559118211269378662e-02 -4.342121630907058716e-02 -3.870372101664543152e-02 4.724097996950149536e-02
2.506000000000000000e+03 1.427396392822265625e+01 1.365276813507080078e+01 2.903720887843519449e-04 8.221206953749060631e-04 3.337478265166282654e-04 1.869620173238217831e-04
2.507000000000000000e+03 2.696875000000000000e+01 -2.406895160675048828e+00 -1.690978050231933594e+00 -1.896097362041473389e-01 -5.641763210296630859e-01 -6.325684785842895508e-01
2.508000000000000000e+03 3.328222274780273438e+01 1.630573654174804688e+01 -3.301017358899116516e-02 -1.174708455801010132e-02 -1.342717744410037994e-02 3.165103867650032043e-02
2.509000000000000000e+03 1.344578361511230469e+01 1.785285949707031250e+01 2.702399797271937132e-04 8.473203633911907673e-04 3.352680942043662071e-04 4.295181424822658300e-04
2.510000000000000000e+03 2.371489143371582031e+01 2.393116760253906250e+01 -7.305308431386947632e-02 -1.887719333171844482e-02 -2.757908217608928680e-02 3.080803714692592621e-02
2.511000000000000000e+03 3.374964141845703125e+01 1.128676033020019531e+01 -1.005708472803235054e-03 -1.491814269684255123e-03 -7.492568111047148705e-04 2.659287303686141968e-03
2.512000000000000000e+03 3.330394744873046875e+01 1.090065193176269531e+01 5.261218757368624210e-04 5.301269120536744595e-04 3.168746188748627901e-04 7.777448627166450024e-04
2.513000000000000000e+03 1.554481220245361328e+01 9.781212806701660156e+00 -1.169401512015610933e-04 6.389519694494083524e-05 -1.591348518559243530e-05 1.095231418730691075e-04
2.514000000000000000e+03 1.551957798004150391e+01 9.183988571166992188e+00 -6.502898031612858176e-05 9.510170639259740710e-05 9.021819096233230084e-06 8.932475611800327897e-05
2.515000000000000000e+03 4.451528930664062500e+01 -1.310006618499755859e+01 3.834340572357177734e+00 8.338782787322998047e-01 1.400465726852416992e+00 1.863149404525756836e+00
2.516000000000000000e+03 1.380990982055664062e+01 1.708862876892089844e+01 -2.729427069425582886e-04 1.337027060799300671e-03 3.192253061570227146e-04 6.047887145541608334e-04
2.517000000000000000e+03 3.250223541259765625e+01 1.667964172363281250e+01 -2.919346094131469727e-02 -2.305291034281253815e-02 -1.567391119897365570e-02 3.209435194730758667e-02
2.518000000000000000e+03 1.305253410339355469e+01 1.796702575683593750e+01 -3.556378069333732128e-04 -1.669998346187639982e-05 -1.117013380280695856e-04 3.422526060603559017e-04
2.519000000000000000e+03 1.370373344421386719e+01 1.366061496734619141e+01 -1.594204804860055447e-04 5.451645702123641968e-04 1.157232254627160728e-04 3.354906511958688498e-04
2.520000000000000000e+03 2.058199119567871094e+01 2.371256065368652344e+01 -5.829500779509544373e-02 -6.348789669573307037e-03 -1.939313858747482300e-02 1.940766721963882446e-02
2.521000000000000000e+03 2.011455917358398438e+01 2.367525863647460938e+01 -5.383043736219406128e-02 -5.192994605749845505e-03 -1.770702935755252838e-02 1.706312038004398346e-02
2.522000000000000000e+03 1.517870235443115234e+01 1.012384414672851562e+01 -1.849172404035925865e-04 1.091523226932622492e-04 -2.272947313031181693e-05 1.476285524404374883e-05
2.523000000000000000e+03 3.476178359985351562e+01 7.225255489349365234e+00 8.054242935031652451e-04 8.714779396541416645e-04 5.030706524848937988e-04 -3.613608714658766985e-04
2.524000000000000000e+03 1.929002952575683594e+01 4.272427558898925781e+00 1.274479018320562318e-05 2.388123357377480716e-05 1.098780739994253963e-05 1.104871898860437796e-06
2.525000000000000000e+03 1.898686218261718750e+01 5.963162422180175781e+00 -3.795440352405421436e-05 -3.336058944114483893e-05 -2.139449861715547740e-05 -3.016767004737630486e-05
2.526000000000000000e+03 3.718175888061523438e+01 8.584437370300292969e+00 7.524859393015503883e-04 -1.699410146102309227e-03 -2.840772795025259256e-04 -4.831390106119215488e-04
2.527000000000000000e+03 3.336488342285156250e+01 1.050187397003173828e+01 -1.624163356609642506e-03 1.799677149392664433e-03 5.265411891741678119e-05 2.598300925455987453e-04
2.528000000000000000e+03 3.435347366333007812e+01 9.127909660339355469e+00 1.578953815624117851e-04 6.162206409499049187e-04 2.322348154848441482e-04 -1.028855331242084503e-03
2.529000000000000000e+03 3.322327041625976562e+01 1.293922424316406250e+01 -6.942518521100282669e-03 -4.460804630070924759e-03 -3.420996945351362228e-03 7.483541499823331833e-03
2.530000000000000000e+03 3.387198257446289062e+01 1.049172115325927734e+01 3.637953341240063310e-05 -9.608183172531425953e-04 -2.773316227830946445e-04 4.680356069002300501e-04
2.531000000000000000e+03 1.804099082946777344e+01 7.298733234405517578e+00 4.353689655545167625e-05 3.914767876267433167e-05 2.480537295923568308e-05 2.173803324012624216e-07
2.532000000000000000e+03 1.771561622619628906e+01 7.545495033264160156e+00 -3.213052332284860313e-05 -2.825298179232049733e-05 -1.811505171644967049e-05 -5.616183898382587358e-06
2.533000000000000000e+03 1.523939132690429688e+01 1.118004703521728516e+01 1.310498337261378765e-04 2.872435143217444420e-04 1.254880044143646955e-04 6.887056952109560370e-05
2.534000000000000000e+03 3.426898193359375000e+01 8.680656433105468750e+00 -5.955313827143982053e-05 -3.270409943070262671e-04 -1.159782405011355877e-04 -4.272272344678640366e-04
2.535000000000000000e+03 1.499103260040283203e+01 1.156462478637695312e+01 -1.471456780564039946e-04 3.118263557553291321e-04 4.940420330967754126e-05 -4.563841503113508224e-05
2.536000000000000000e+03 1.453878784179687500e+01 1.126520824432373047e+01 9.366730228066444397e-05 3.016252303496003151e-04 1.185877626994624734e-04 1.310056977672502398e-04
2.537000000000000000e+03 1.584362983703613281e+01 8.812595367431640625e+00 -9.504170884611085057e-05 4.974839248461648822e-05 -1.358799545414512977e-05 8.674151104060001671e-06
2.538000000000000000e+03 3.222262573242187500e+01 1.726656532287597656e+01 -3.709556907415390015e-02 -2.775949984788894653e-02 -1.945652067661285400e-02 3.775781393051147461e-02
2.539000000000000000e+03 1.877975845336914062e+01 3.800883769989013672e+00 5.012277597415959463e-06 3.863313031615689397e-05 1.309362232859712094e-05 -6.711456080665811896e-06
2.540000000000000000e+03 2.744475555419921875e+01 2.393984985351562500e+01 -6.591247767210006714e-02 -3.861014172434806824e-02 -3.135678544640541077e-02 4.185886681079864502e-02
2.541000000000000000e+03 1.821131515502929688e+01 2.340831565856933594e+01 -3.822151198983192444e-02 -8.924615103751420975e-04 -1.173419225960969925e-02 9.832574985921382904e-03
2.542000000000000000e+03 1.803077697753906250e+01 6.090336799621582031e+00 -5.148694617673754692e-05 -7.305353392439428717e-06 -1.763769068929832429e-05 -3.284749254817143083e-06
2.543000000000000000e+03 3.386184310913085938e+01 1.243213176727294922e+01 -8.011912927031517029e-03 -3.203099127858877182e-03 -3.364503616467118263e-03 6.546091753989458084e-03
2.544000000000000000e+03 3.161345481872558594e+01 1.922995185852050781e+01 -6.936115771532058716e-02 -3.453828766942024231e-02 -3.116983361542224884e-02 5.069316923618316650e-02
2.545000000000000000e+03 3.160145568847656250e+01 1.876442337036132812e+01 -6.192407011985778809e-02 -3.666620701551437378e-02 -2.957708388566970825e-02 5.008437857031822205e-02
2.546000000000000000e+03 1.941674804687500000e+01 5.714730739593505859e+00 1.929712561832275242e-05 3.422032750677317381e-05 1.605523539183195680e-05 3.262459722463972867e-05
2.547000000000000000e+03 2.480980110168457031e+01 2.334224700927734375e+01 -8.970556408166885376e-02 -2.009193040430545807e-02 -3.293924778699874878e-02 3.615919500589370728e-02
2.548000000000000000e+03 2.546545028686523438e+01 2.355803108215332031e+01 -8.274146914482116699e-02 -2.433635108172893524e-02 -3.212334588170051575e-02 3.921849653124809265e-02
2.549000000000000000e+03 1.316553688049316406e+01 1.606643104553222656e+01 -4.521106166066601872e-05 4.784586490131914616e-04 1.299742725677788258e-04 5.746567039750516415e-04
2.550000000000000000e+03 1.776344490051269531e+01 2.320720481872558594e+01 -3.488923981785774231e-02 4.752306558657437563e-04 -1.032420247793197632e-02 7.510519120842218399e-03
2.551000000000000000e+03 1.964665603637695312e+01 2.363739776611328125e+01 -5.061867833137512207e-02 -2.430756343528628349e-03 -1.591482944786548615e-02 1.488609891384840012e-02
2.552000000000000000e+03 3.477357864379882812e+01 1.369912242889404297e+01 -1.967103965580463409e-02 3.534343932187766768e-06 -5.900251679122447968e-03 1.303322333842515945e-02
2.553000000000000000e+03 3.336412429809570312e+01 1.339711570739746094e+01 -6.944019813090562820e-03 -5.762480199337005615e-03 -3.811950096860527992e-03 9.510319679975509644e-03
2.554000000000000000e+03 3.231484222412109375e+01 1.695763015747070312e+01 -3.383168205618858337e-02 -2.554739825427532196e-02 -1.781372353434562683e-02 3.607835993170738220e-02
2.555000000000000000e+03 3.221726989746093750e+01 1.767935371398925781e+01 -4.374919831752777100e-02 -2.783753722906112671e-02 -2.147602103650569916e-02 4.168454557657241821e-02
2.556000000000000000e+03 3.452884292602539062e+01 7.599056720733642578e+00 -1.135553175117820501e-04 -8.085689041763544083e-04 -2.766372635960578918e-04 -3.303282428532838821e-04
2.557000000000000000e+03 3.431815719604492188e+01 7.947454929351806641e+00 1.140325795859098434e-03 3.829025081358850002e-04 4.569684970192611217e-04 -1.361592323519289494e-03
2.558000000000000000e+03 3.162952232360839844e+01 1.800343132019042969e+01 -4.604863002896308899e-02 -4.183989763259887695e-02 -2.636655978858470917e-02 4.565779492259025574e-02
2.559000000000000000e+03 1.445077800750732422e+01 2.163400840759277344e+01 -1.332107372581958771e-02 2.806837204843759537e-03 -3.154270816594362259e-03 3.853450107271783054e-05
2.560000000000000000e+03 1.573144054412841797e+01 2.260301589965820312e+01 -2.229888550937175751e-02 1.594252884387969971e-03 -6.211389787495136261e-03 4.374893847852945328e-03
2.561000000000000000e+03 1.869185447692871094e+01 2.352908706665039062e+01 -4.212701320648193359e-02 -6.073327967897057533e-04 -1.282030344009399414e-02 1.107802242040634155e-02
2.562000000000000000e+03 2.155130958557128906e+01 2.325016212463378906e+01 -7.251787185668945312e-02 -1.193781755864620209e-02 -2.533670701086521149e-02 1.870851404964923859e-02
2.563000000000000000e+03 3.061056709289550781e+01 1.994932174682617188e+01 -9.287904947996139526e-02 -5.160860344767570496e-02 -4.334629699587821960e-02 5.983832478523254395e-02
2.564000000000000000e+03 1.612963676452636719e+01 7.646389007568359375e+00 -6.060928626538952813e-06 7.775272933940868825e-06 5.143032808518910315e-07 1.951138256117701530e-05
2.565000000000000000e+03 1.361567497253417969e+01 1.318342494964599609e+01 2.051279589068144560e-04 6.021977751515805721e-04 2.421977260382845998e-04 2.437048970023170114e-04
2.566000000000000000e+03 1.379828071594238281e+01 1.969599533081054688e+01 -2.575972350314259529e-03 8.625379414297640324e-04 -5.140303401276469231e-04 -1.072106417268514633e-03
2.567000000000000000e+03 1.294954776763916016e+01 1.890421104431152344e+01 -1.054091029800474644e-03 1.020434319798368961e-05 -3.131660050712525845e-04 -5.632372340187430382e-04
2.568000000000000000e+03 1.290887737274169922e+01 1.856660652160644531e+01 -1.128574134781956673e-03 -1.754440017975866795e-04 -3.912054526153951883e-04 1.684563721937593073e-05
2.569000000000000000e+03 1.482859992980957031e+01 2.187728118896484375e+01 -1.555839739739894867e-02 2.054296201094985008e-03 -4.051230382174253464e-03 1.333608175627887249e-03
2.570000000000000000e+03 2.015203857421875000e+01 5.218638896942138672e+00 1.619591057533398271e-05 3.563921200111508369e-05 1.555053677293471992e-05 2.269408105348702520e-05
2.571000000000000000e+03 2.220414924621582031e+01 2.353060340881347656e+01 -7.246568053960800171e-02 -1.342202816158533096e-02 -2.576631307601928711e-02 2.171532809734344482e-02
2.572000000000000000e+03 2.933511924743652344e+01 2.245994758605957031e+01 -8.363188803195953369e-02 -5.154931917786598206e-02 -4.055436328053474426e-02 3.763209655880928040e-02
2.573000000000000000e+03 2.797741889953613281e+01 2.219520950317382812e+01 -1.066997200250625610e-01 -5.029768124222755432e-02 -4.709922149777412415e-02 5.522378161549568176e-02
2.574000000000000000e+03 2.303267478942871094e+01 2.412259864807128906e+01 -6.707513332366943359e-02 -1.692275330424308777e-02 -2.519936487078666687e-02 2.931005321443080902e-02
2.575000000000000000e+03 2.199020195007324219e+01 2.390695953369140625e+01 -6.668947637081146240e-02 -1.507894508540630341e-02 -2.453052625060081482e-02 2.596246264874935150e-02
2.576000000000000000e+03 3.010261154174804688e+01 2.169699287414550781e+01 -9.431515634059906006e-02 -4.639718309044837952e-02 -4.221370071172714233e-02 3.797950968146324158e-02
2.577000000000000000e+03 1.377345848083496094e+01 2.098517608642578125e+01 -8.616437204182147980e-03 1.343129202723503113e-03 -2.181992400437593460e-03 -1.090676232706755400e-04
2.578000000000000000e+03 1.486365509033203125e+01 2.257239151000976562e+01 -1.908272132277488708e-02 2.247978700324892998e-03 -5.050423089414834976e-03 4.110859706997871399e-03
2.579000000000000000e+03 4.033028030395507812e+01 -1.781216812133789062e+01 5.488501116633415222e-02 3.753776788711547852e+00 1.142598509788513184e+00 1.328707337379455566e+00
2.580000000000000000e+03 4.134230804443359375e+01 -1.726738166809082031e+01 3.496297821402549744e-02 5.015890121459960938e+00 1.515255928039550781e+00 1.024392962455749512e+00
2.581000000000000000e+03 1.456766891479492188e+01 9.391968727111816406e+00 5.387572309700772166e-05 2.156817063223570585e-04 8.086722664302214980e-05 7.494615420000627637e-05
2.582000000000000000e+03 3.004114723205566406e+01 2.237742233276367188e+01 -8.100910484790802002e-02 -4.031689092516899109e-02 -3.639779984951019287e-02 3.248861432075500488e-02
2.583000000000000000e+03 3.560282516479492188e+01 4.684467792510986328e+00 -1.547503285109996796e-03 -3.641438961494714022e-04 -5.734941805712878704e-04 -4.074997559655457735e-04
2.584000000000000000e+03 3.581233978271484375e+01 5.809956550598144531e+00 1.758167403750121593e-03 3.325971192680299282e-05 5.374281317926943302e-04 -1.389614772051572800e-03
2.585000000000000000e+03 3.083744049072265625e+01 2.126940917968750000e+01 -9.230969846248626709e-02 -3.380897268652915955e-02 -3.783560171723365784e-02 3.792173415422439575e-02
2.586000000000000000e+03 3.076016998291015625e+01 2.179325866699218750e+01 -8.566164225339889526e-02 -2.944546006619930267e-02 -3.453212976455688477e-02 3.078382089734077454e-02
2.587000000000000000e+03 4.782644271850585938e+01 -1.413247203826904297e+01 2.084293842315673828e+00 -2.686224877834320068e-01 5.447013974189758301e-01 4.889879226684570312e-01
2.588000000000000000e+03 1.521154308319091797e+01 2.300723266601562500e+01 -1.994829997420310974e-02 2.535025589168071747e-03 -5.223982501775026321e-03 4.983512219041585922e-03
2.589000000000000000e+03 3.536369323730468750e+01 3.732930898666381836e+00 -8.023058180697262287e-04 1.106550102122128010e-03 9.127327939495444298e-05 -1.167736365459859371e-03
2.590000000000000000e+03 1.371184539794921875e+01 2.006848716735839844e+01 -4.760173615068197250e-03 1.137730549089610577e-03 -1.086732954718172550e-03 -1.302322489209473133e-03
2.591000000000000000e+03 1.874779319763183594e+01 4.308656215667724609e+00 9.864004823612049222e-06 -1.885123492684215307e-05 -2.696169076443766244e-06 4.086070021003251895e-06
2.592000000000000000e+03 3.655604553222656250e+01 5.053370475769042969e+00 -1.654859283007681370e-03 -7.327644852921366692e-04 -7.162871188484132290e-04 5.171202355995774269e-04
2.593000000000000000e+03 3.243439865112304688e+01 -3.532307386398315430e+00 -1.674484372138977051e+00 1.640424579381942749e-01 -4.531325697898864746e-01 -1.515801548957824707e-01
2.594000000000000000e+03 1.980332565307617188e+01 5.473626613616943359e+00 -1.574317320773843676e-05 -3.736862709047272801e-05 -1.593353954376652837e-05 -2.530786332499701530e-05
2.595000000000000000e+03 2.045996284484863281e+01 4.318952083587646484e+00 -1.329429142060689628e-05 -4.972031820216216147e-05 -1.890438215923495591e-05 5.517978252100874670e-07
2.596000000000000000e+03 1.608955955505371094e+01 4.373648166656494141e+00 -1.800974314392078668e-05 -1.230472298630047590e-05 -9.094339475268498063e-06 1.558921576361171901e-05
2.597000000000000000e+03 1.679091072082519531e+01 4.355370521545410156e+00 2.013383345911279321e-05 3.714438571478240192e-05 1.718346538837067783e-05 -1.321793661190895364e-07
2.598000000000000000e+03 3.419031906127929688e+01 -3.767771005630493164e+00 -1.684432148933410645e+00 3.335989713668823242e-01 -4.052499532699584961e-01 2.051288336515426636e-01
2.599000000000000000e+03 3.517282867431640625e+01 -3.329456090927124023e+00 -2.011747121810913086e+00 4.862271249294281006e-01 -4.576560258865356445e-01 3.579535484313964844e-01
2.600000000000000000e+03 1.680527114868164062e+01 3.772743463516235352e+00 -1.310414154431782663e-05 -2.228656921943183988e-05 -1.061721377482172102e-05 1.008507297228788957e-05
2.601000000000000000e+03 2.205373954772949219e+01 -3.898857593536376953e+00 -5.431120395660400391e-01 -7.149537652730941772e-02 -1.843822300434112549e-01 -6.480017304420471191e-01
2.602000000000000000e+03 2.740057754516601562e+01 -5.187712192535400391e+00 -2.727206349372863770e-01 6.769824028015136719e-02 -6.150671839714050293e-02 -1.005424261093139648e+00
2.603000000000000000e+03 1.328802776336669922e+01 5.028612136840820312e+00 2.059226426354143769e-05 6.141199992271140218e-05 2.460127871017903090e-05 3.378633118700236082e-05
2.604000000000000000e+03 1.396545886993408203e+01 3.777746438980102539e+00 -1.345846271760819945e-06 -3.124268187093548477e-05 -9.776558727025985718e-06 2.479845352354459465e-05
2.605000000000000000e+03 1.939211463928222656e+01 3.847196340560913086e+00 -5.308377694746013731e-06 -3.905409175786189735e-05 -1.330874056293396279e-05 6.395787295332411304e-07
2.606000000000000000e+03 1.395495605468750000e+01 4.377636432647705078e+00 2.828579999913927168e-05 5.793240052298642695e-05 2.586545997473876923e-05 2.564835267548914999e-05
2.607000000000000000e+03 1.747577285766601562e+01 4.350648880004882812e+00 -1.601169969944749027e-05 -1.485848588345106691e-05 -9.261056220566388220e-06 4.571827957988716662e-06
2.608000000000000000e+03 1.104190826416015625e+01 3.993996620178222656e+00 1.984305527003016323e-05 -5.885085920454002917e-05 -1.170234099845401943e-05 5.692773265764117241e-05
2.609000000000000000e+03 1.027370834350585938e+01 4.771990776062011719e+00 5.736144430557033047e-06 -7.131679740268737078e-05 -1.967419666470959783e-05 5.631619569612666965e-05
2.610000000000000000e+03 1.538144683837890625e+01 4.374507427215576172e+00 3.731720062205567956e-05 4.396633448777720332e-05 2.438506089674774557e-05 1.150770458480110392e-05
2.611000000000000000e+03 1.466753864288330078e+01 4.362059593200683594e+00 -1.780638558557257056e-05 -1.775890996214002371e-05 -1.066958884621271864e-05 1.607448029972147197e-05
2.612000000000000000e+03 7.302912139892578125e+01 -2.038416290283203125e+01 -4.330927913542836905e-05 -4.492856387514621019e-04 -1.477784680901095271e-04 -2.507290919311344624e-04
2.613000000000000000e+03 7.308689117431640625e+01 -1.978249359130859375e+01 2.263497735839337111e-04 -4.714316746685653925e-04 -7.352456304943189025e-05 2.049406321020796895e-04
2.614000000000000000e+03 1.254378795623779297e+01 4.530021667480468750e+00 2.768889862636569887e-05 5.659872113028541207e-05 2.528628647269215435e-05 2.282077912241220474e-05
2.615000000000000000e+03 1.181959152221679688e+01 4.645153999328613281e+00 3.398745684535242617e-05 -5.473259443533606827e-05 -6.223541731742443517e-06 5.425909330369904637e-05
2.616000000000000000e+03 1.085023593902587891e+01 -4.946026325225830078e+00 -9.629412740468978882e-02 -1.053909137845039368e-01 -6.050551310181617737e-02 -2.191049978137016296e-02
2.617000000000000000e+03 9.513214111328125000e+00 4.717355251312255859e+00 9.512047836324200034e-05 2.708209649426862597e-05 3.666077100206166506e-05 -1.084347604773938656e-05
2.618000000000000000e+03 3.578581571578979492e+00 -6.293158531188964844e+00 -3.084564395248889923e-02 3.190800547599792480e-02 3.187089751008898020e-04 5.236783996224403381e-02
2.619000000000000000e+03 5.437924385070800781e+00 -5.578789234161376953e+00 -4.187883436679840088e-02 -5.057316739112138748e-03 -1.408084481954574585e-02 6.054230034351348877e-02
2.620000000000000000e+03 3.752109909057617188e+01 -4.964783668518066406e+00 -1.779687523841857910e+00 7.594143748283386230e-01 -3.060819506645202637e-01 1.417629234492778778e-02
2.621000000000000000e+03 1.433964443206787109e+01 -3.697164773941040039e+00 -8.045487105846405029e-02 -1.282138079404830933e-01 -6.260060518980026245e-02 -1.544959247112274170e-01
2.622000000000000000e+03 1.493879318237304688e+01 -4.379687786102294922e+00 -1.399996429681777954e-01 -1.806808412075042725e-01 -9.620414674282073975e-02 -2.114356309175491333e-01
2.623000000000000000e+03 5.862048149108886719e+00 5.562214851379394531e+00 2.182456082664430141e-04 -2.187499740102794021e-05 5.891118416911922395e-05 -3.811944407061673701e-05
2.624000000000000000e+03 7.359395980834960938e+00 -5.210950374603271484e+00 -5.560261383652687073e-02 -3.753417730331420898e-02 -2.794103696942329407e-02 4.848757386207580566e-02
2.625000000000000000e+03 6.111848831176757812e+00 -4.955242156982421875e+00 -2.782462351024150848e-02 -1.551791187375783920e-02 -1.300276070833206177e-02 6.406071037054061890e-02
2.626000000000000000e+03 9.166721343994140625e+00 -4.048065185546875000e+00 -1.948829740285873413e-02 -5.059459060430526733e-02 -2.102486602962017059e-02 3.491755574941635132e-02
2.627000000000000000e+03 9.937064170837402344e+00 -4.884116172790527344e+00 -7.898668199777603149e-02 -8.586505800485610962e-02 -4.945551976561546326e-02 4.956636577844619751e-03
2.628000000000000000e+03 7.342740058898925781e+00 4.842591762542724609e+00 1.951759986695833504e-05 -7.775812991894781590e-05 -1.747215901559684426e-05 4.380368045531213284e-05
2.629000000000000000e+03 1.300071430206298828e+01 -3.789009571075439453e+00 -5.685952678322792053e-02 -1.062483116984367371e-01 -4.893235117197036743e-02 -9.526971727609634399e-02
2.630000000000000000e+03 6.005654335021972656e+00 4.869405746459960938e+00 -3.189937342540360987e-05 -3.779634425882250071e-05 -2.090871566906571388e-05 -3.406487303436733782e-05
2.631000000000000000e+03 5.433534622192382812e+00 5.011587142944335938e+00 1.789110319805331528e-05 1.952628008439205587e-05 1.122521462093573064e-05 -3.307203223812393844e-05
2.632000000000000000e+03 7.673700332641601562e+00 -4.220388412475585938e+00 -1.179199106991291046e-02 -2.941242232918739319e-02 -1.236132346093654633e-02 5.551125109195709229e-02
2.633000000000000000e+03 8.053115844726562500e+00 4.032039642333984375e+00 2.294410114700440317e-05 -7.048666884656995535e-05 -1.426277049176860601e-05 3.634749737102538347e-05
2.634000000000000000e+03 8.463179588317871094e+00 -5.436311721801757812e+00 -8.333888649940490723e-02 -5.932458117604255676e-02 -4.279904067516326904e-02 3.044172935187816620e-02
2.635000000000000000e+03 8.422786712646484375e+00 -4.066720485687255859e+00 -1.349771209061145782e-02 -3.315889462828636169e-02 -1.399698201566934586e-02 4.646324366331100464e-02
2.636000000000000000e+03 8.784663200378417969e+00 4.732675075531005859e+00 3.273025140515528619e-05 -8.546951721655204892e-05 -1.582177901582326740e-05 4.919587445328943431e-05
2.637000000000000000e+03 1.783226585388183594e+01 -4.931490898132324219e+00 -2.567477524280548096e-01 -2.433976531028747559e-01 -1.500436216592788696e-01 -4.222970306873321533e-01
2.638000000000000000e+03 1.642886543273925781e+01 -3.882217884063720703e+00 -1.684619337320327759e-01 -1.704429537057876587e-01 -1.016714647412300110e-01 -2.897894978523254395e-01
2.639000000000000000e+03 1.850120544433593750e+01 -5.093549251556396484e+00 -2.869977653026580811e-01 -2.340341657400131226e-01 -1.563095897436141968e-01 -4.732489883899688721e-01
2.640000000000000000e+03 9.189356803894042969e+00 -4.652595043182373047e+00 -5.273520946502685547e-02 -5.563931539654731750e-02 -3.251235932111740112e-02 2.898561395704746246e-02
2.641000000000000000e+03 3.577388763427734375e+01 3.980261802673339844e+00 -7.125879637897014618e-04 -1.107181422412395477e-03 -5.459308158606290817e-04 7.139698718674480915e-04
2.642000000000000000e+03 1.375131225585937500e+01 -4.328107833862304688e+00 -1.032901778817176819e-01 -1.357861310243606567e-01 -7.172289490699768066e-02 -1.315980702638626099e-01
2.643000000000000000e+03 3.286580657958984375e+01 -4.263251781463623047e+00 -1.243255376815795898e+00 3.374993801116943359e-01 -2.717267870903015137e-01 -8.482422679662704468e-02
2.644000000000000000e+03 3.406838989257812500e+01 -4.496078491210937500e+00 -1.239903569221496582e+00 4.338313043117523193e-01 -2.418216913938522339e-01 7.561743259429931641e-02
2.645000000000000000e+03 3.854425430297851562e+01 -1.323699188232421875e+01 2.329304218292236328e+00 1.100063800811767578e+00 1.028810381889343262e+00 -1.288866281509399414e+00
2.646000000000000000e+03 3.884394836425781250e+01 -1.556263160705566406e+01 2.345524549484252930e+00 1.793356299400329590e+00 1.241664290428161621e+00 7.643705606460571289e-01
2.647000000000000000e+03 1.180961894989013672e+01 -4.826063632965087891e+00 -1.029954478144645691e-01 -1.305837184190750122e-01 -7.007375359535217285e-02 -5.802533775568008423e-02
2.648000000000000000e+03 1.313925743103027344e+01 -4.410572528839111328e+00 -9.756416827440261841e-02 -1.300145834684371948e-01 -6.827362626791000366e-02 -1.168654710054397583e-01
2.649000000000000000e+03 7.523384857177734375e+01 -1.208265399932861328e+01 -2.064943164587020874e-01 -5.431779101490974426e-02 -7.824362814426422119e-02 -2.183516025543212891e-01
2.650000000000000000e+03 1.702436447143554688e+01 -4.857258319854736328e+00 -2.259756475687026978e-01 -2.347213029861450195e-01 -1.382090896368026733e-01 -3.678686618804931641e-01
2.651000000000000000e+03 7.261550903320312500e+01 -1.104445934295654297e+01 -4.653189480304718018e-01 6.316590309143066406e-02 -1.206459179520606995e-01 -3.544282317161560059e-01
2.652000000000000000e+03 7.181781005859375000e+01 -1.114168453216552734e+01 -5.832888484001159668e-01 1.185416951775550842e-01 -1.394241452217102051e-01 -3.779915273189544678e-01
2.653000000000000000e+03 7.400595855712890625e+01 -1.107166385650634766e+01 -3.410885632038116455e-01 -2.574811130762100220e-02 -1.100510060787200928e-01 -3.411967158317565918e-01
2.654000000000000000e+03 1.555982112884521484e+01 -4.410935401916503906e+00 -1.613737493753433228e-01 -1.944069564342498779e-01 -1.067342087626457214e-01 -2.507418692111968994e-01
2.655000000000000000e+03 1.622611427307128906e+01 -4.630675792694091797e+00 -1.836532503366470337e-01 -2.177257686853408813e-01 -1.204137057065963745e-01 -3.003680408000946045e-01
2.656000000000000000e+03 4.319318008422851562e+01 -1.123588943481445312e+01 1.164620041847229004e+00 2.656247854232788086e+00 1.146260380744934082e+00 1.273870348930358887e+00
2.657000000000000000e+03 4.313494110107421875e+01 -1.222941017150878906e+01 2.181141376495361328e+00 3.354785680770874023e+00 1.660778045654296875e+00 1.625110864639282227e+00
2.658000000000000000e+03 2.388369750976562500e+01 -3.630432844161987305e+00 -7.432439923286437988e-01 -3.652059659361839294e-02 -2.339293807744979858e-01 -7.833977937698364258e-01
2.659000000000000000e+03 2.477388381958007812e+01 -4.420245647430419922e+00 -5.795729756355285645e-01 -1.248847171664237976e-01 -2.113372981548309326e-01 -9.127168655395507812e-01
2.660000000000000000e+03 6.896286010742187500e+01 -1.190150737762451172e+01 -9.456161260604858398e-01 2.410665601491928101e-01 -2.113648653030395508e-01 -1.469826251268386841e-01
2.661000000000000000e+03 3.296463394165039062e+01 -3.016451358795166016e+00 -2.001255750656127930e+00 -1.319657638669013977e-02 -6.043357253074645996e-01 7.761506829410791397e-03
2.662000000000000000e+03 4.184993743896484375e+01 -1.208443450927734375e+01 1.657158851623535156e+00 4.166755199432373047e+00 1.747174143791198730e+00 -2.591350376605987549e-01
2.663000000000000000e+03 2.300742149353027344e+01 -3.852490425109863281e+00 -6.237950921058654785e-01 -5.149036273360252380e-02 -2.025856375694274902e-01 -7.179523110389709473e-01
2.664000000000000000e+03 5.023049831390380859e+00 -6.779251575469970703e+00 -6.315293908119201660e-02 -4.898321349173784256e-03 -2.041537687182426453e-02 4.343117028474807739e-02
2.665000000000000000e+03 4.768055438995361328e+00 -6.127573013305664062e+00 -4.392712935805320740e-02 3.437830600887537003e-03 -1.214678958058357239e-02 5.491913110017776489e-02
2.666000000000000000e+03 7.014820098876953125e+01 -1.149441719055175781e+01 -7.754254341125488281e-01 2.158261537551879883e-01 -1.678797751665115356e-01 -2.776483893394470215e-01
2.667000000000000000e+03 2.723704338073730469e+01 -6.655833244323730469e+00 5.720797777175903320e-01 -5.555973947048187256e-02 1.549560129642486572e-01 -8.574370741844177246e-01
2.668000000000000000e+03 3.885007476806640625e+01 -2.215295410156250000e+01 1.027450188994407654e-01 1.934468865394592285e+00 6.111641526222229004e-01 9.755280017852783203e-01
2.669000000000000000e+03 4.259226989746093750e+01 -2.182787513732910156e+01 -1.934687197208404541e-01 2.201086282730102539e+00 6.022852659225463867e-01 4.571270570158958435e-02
2.670000000000000000e+03 2.001198959350585938e+01 -4.313687324523925781e+00 -3.659298121929168701e-01 -1.574193090200424194e-01 -1.570047289133071899e-01 -5.309389233589172363e-01
2.671000000000000000e+03 1.942741966247558594e+01 -3.848219871520996094e+00 -3.250087499618530273e-01 -1.498086005449295044e-01 -1.424452066421508789e-01 -4.542920887470245361e-01
2.672000000000000000e+03 3.922862625122070312e+01 1.607033729553222656e+01 -5.173129588365554810e-02 1.833445765078067780e-02 -1.001905091106891632e-02 3.652951214462518692e-03
2.673000000000000000e+03 7.655690765380859375e+01 -2.051291084289550781e+01 7.161831308621913195e-05 -2.648445370141416788e-04 -5.796786717837676406e-05 -7.627034938195720315e-05
2.674000000000000000e+03 7.440853118896484375e+01 -2.071403312683105469e+01 -1.363493211101740599e-04 -3.163743240293115377e-04 -1.358170993626117706e-04 -8.173822425305843353e-05
2.675000000000000000e+03 4.294272613525390625e+01 -1.888990974426269531e+01 -3.860564827919006348e-01 2.910239458084106445e+00 7.572548985481262207e-01 -4.069761335849761963e-01
2.676000000000000000e+03 4.218143463134765625e+01 -2.070343017578125000e+01 -3.312976956367492676e-01 2.554342746734619141e+00 6.669135093688964844e-01 8.999877423048019409e-02
2.677000000000000000e+03 2.924122619628906250e+01 -6.335099220275878906e+00 5.167897343635559082e-01 5.352122187614440918e-01 3.156006038188934326e-01 -9.381534457206726074e-01
2.678000000000000000e+03 1.681947135925292969e+01 -9.808082580566406250e+00 -5.395829677581787109e-01 -5.968284606933593750e-01 -3.409234285354614258e-01 -4.377768933773040771e-01
2.679000000000000000e+03 1.495944976806640625e+01 -9.472402572631835938e+00 -4.589172303676605225e-01 -5.240565538406372070e-01 -2.948921322822570801e-01 -2.936616539955139160e-01
2.680000000000000000e+03 2.177412223815917969e+01 -3.153979778289794922e+00 -5.762614011764526367e-01 -1.572342403233051300e-02 -1.775954514741897583e-01 -5.268476009368896484e-01
2.681000000000000000e+03 5.430855560302734375e+01 -9.802145957946777344e+00 -6.245437264442443848e-01 9.433433413505554199e-01 9.563987702131271362e-02 1.395666599273681641e+00
2.682000000000000000e+03 4.316914558410644531e+00 3.207904434204101562e+01 -1.411474368069320917e-04 -9.269149042665958405e-03 -2.823089016601443291e-03 6.089338101446628571e-03
2.683000000000000000e+03 4.880469131469726562e+01 -1.338424015045166016e+01 1.570773601531982422e+00 -1.586319059133529663e-01 4.236425161361694336e-01 8.906633257865905762e-01
2.684000000000000000e+03 3.979711055755615234e+00 1.822485733032226562e+01 4.415965304360724986e-05 -2.135582035407423973e-04 -5.081956260255537927e-05 -1.333063119091093540e-04
2.685000000000000000e+03 3.959581375122070312e+01 -1.809380149841308594e+01 9.444159269332885742e-02 3.117553710937500000e+00 9.635985493659973145e-01 1.495619893074035645e+00
2.686000000000000000e+03 7.505218505859375000e+01 -2.197198867797851562e+01 -3.793964278884232044e-04 -3.901037271134555340e-04 -2.308500406797975302e-04 -6.786957237636670470e-05
2.687000000000000000e+03 5.807681655883789062e+01 -9.100239753723144531e+00 -8.241760134696960449e-01 9.982327818870544434e-01 5.221702530980110168e-02 6.949660181999206543e-01
2.688000000000000000e+03 5.549090194702148438e+01 -1.113490104675292969e+01 -6.700503826141357422e-01 6.809251308441162109e-01 3.262417856603860855e-03 9.610534310340881348e-01
2.689000000000000000e+03 6.536981964111328125e+01 6.652914047241210938e+00 7.339983582496643066e-01 2.859419822692871094e+00 1.078025460243225098e+00 1.176820993423461914e-01
2.690000000000000000e+03 2.252602958679199219e+01 -4.373159885406494141e+00 -5.018185973167419434e-01 -1.066461727023124695e-01 -1.825394332408905029e-01 -7.010153532028198242e-01
2.691000000000000000e+03 5.110913276672363281e+00 1.447237777709960938e+01 1.892467662401031703e-05 -2.634653355926275253e-04 -7.336219277931377292e-05 -4.776341374963521957e-04
2.692000000000000000e+03 5.493967533111572266e+00 1.616479682922363281e+01 -3.824876039288938046e-04 -4.839345056097954512e-04 -2.599266299512237310e-04 -3.082879120483994484e-04
2.693000000000000000e+03 6.944837951660156250e+01 -1.105022430419921875e+01 -1.013867974281311035e+00 2.596139907836914062e-01 -2.262762039899826050e-01 -3.896450102329254150e-01
2.694000000000000000e+03 6.626859283447265625e+01 6.836383342742919922e+00 6.539968848228454590e-01 2.427509784698486328e+00 9.244520068168640137e-01 -1.301142852753400803e-02
2.695000000000000000e+03 3.949557113647460938e+01 -4.436583518981933594e+00 -2.681517839431762695e+00 5.669432878494262695e-01 -6.343723535537719727e-01 2.806734144687652588e-01
2.696000000000000000e+03 3.870148849487304688e+01 -3.648530960083007812e+00 -2.713286161422729492e+00 6.828373074531555176e-01 -6.091346144676208496e-01 5.081946253776550293e-01
2.697000000000000000e+03 2.524263191223144531e+01 -4.831929206848144531e+00 -4.545621871948242188e-01 -1.670903563499450684e-01 -1.864957660436630249e-01 -9.336789846420288086e-01
2.698000000000000000e+03 1.295571899414062500e+01 -2.222001838684082031e+01 3.834302723407745361e-01 -1.327807158231735229e-01 7.519486546516418457e-02 -4.137665331363677979e-01
2.699000000000000000e+03 4.427338123321533203e+00 1.556759357452392578e+01 2.599140279926359653e-04 -2.217328728875145316e-04 1.145434544014278799e-05 -2.751483989413827658e-04
2.700000000000000000e+03 4.244921493530273438e+01 -1.144870758056640625e+01 1.150015354156494141e+00 3.541909933090209961e+00 1.407577633857727051e+00 4.779621362686157227e-01
2.701000000000000000e+03 3.869618225097656250e+01 -1.714705276489257812e+01 6.322157979011535645e-01 2.280913829803466797e+00 8.739388585090637207e-01 1.487645387649536133e+00
2.702000000000000000e+03 3.364820480346679688e+01 -8.472746849060058594e+00 1.368348598480224609e+00 5.515783429145812988e-01 5.759781002998352051e-01 -7.667828798294067383e-01
2.703000000000000000e+03 3.346317291259765625e+01 -4.396917819976806641e+00 -1.226228833198547363e+00 3.533938825130462646e-01 -2.618505060672760010e-01 -1.551499590277671814e-02
2.704000000000000000e+03 2.449858283996582031e+01 -6.254392623901367188e+00 -1.036463826894760132e-01 -2.509084641933441162e-01 -1.063664555549621582e-01 -7.822985053062438965e-01
2.705000000000000000e+03 2.547196960449218750e+01 -7.185685157775878906e+00 1.968776583671569824e-01 -2.630857527256011963e-01 -1.986242644488811493e-02 -6.439079642295837402e-01
2.706000000000000000e+03 1.169328594207763672e+01 -1.128097343444824219e+01 -5.015358328819274902e-01 -3.355702459812164307e-01 -2.511318027973175049e-01 -2.352568656206130981e-01
2.707000000000000000e+03 1.322119140625000000e+01 -1.199006557464599609e+01 -6.379600167274475098e-01 -5.063488483428955078e-01 -3.432926535606384277e-01 -3.088959157466888428e-01
2.708000000000000000e+03 7.017639160156250000e+01 -2.491927719116210938e+01 -2.474961336702108383e-03 -4.295609542168676853e-04 -8.713566930964589119e-04 7.711185753578320146e-05
2.709000000000000000e+03 4.804697799682617188e+01 -1.324329566955566406e+01 1.864118814468383789e+00 -2.961017489433288574e-01 4.704051017761230469e-01 8.889580368995666504e-01
2.710000000000000000e+03 5.299543380737304688e+01 -8.467406272888183594e+00 -7.181906104087829590e-01 1.099490165710449219e+00 1.143898516893386841e-01 1.798578262329101562e+00
2.711000000000000000e+03 5.568782043457031250e+01 -7.582103252410888672e+00 -5.046422481536865234e-01 1.428946971893310547e+00 2.772914171218872070e-01 1.122178673744201660e+00
2.712000000000000000e+03 5.297830963134765625e+01 -9.768562316894531250e+00 -4.236849844455718994e-01 7.703220248222351074e-01 1.039911061525344849e-01 1.688110232353210449e+00
2.713000000000000000e+03 4.059241104125976562e+01 -1.886957168579101562e+01 -3.522103428840637207e-01 3.506766319274902344e+00 9.463667869567871094e-01 9.799764156341552734e-01
2.714000000000000000e+03 4.068584060668945312e+01 -1.829367637634277344e+01 -2.359800785779953003e-01 3.779484987258911133e+00 1.063051462173461914e+00 1.057162523269653320e+00
2.715000000000000000e+03 5.167971134185791016e+00 1.170403957366943359e+01 1.006003076327033341e-04 -2.471942570991814137e-04 -4.397818338475190103e-05 -1.304360775975510478e-04
2.716000000000000000e+03 3.901194095611572266e+00 1.076548671722412109e+01 -4.155862552579492331e-05 -3.509466114337556064e-05 -2.299598600075114518e-05 -1.251950016012415290e-04
2.717000000000000000e+03 4.104985046386718750e+01 1.638626480102539062e+01 -6.537976115942001343e-02 1.578805223107337952e-02 -1.487751305103302002e-02 -4.888366907835006714e-03
2.718000000000000000e+03 7.455608367919921875e+01 -8.119672775268554688e+00 -2.241887897253036499e-01 -2.046303302049636841e-01 -1.286457329988479614e-01 -5.631465911865234375e-01
2.719000000000000000e+03 7.569470214843750000e+01 -6.906156063079833984e+00 -1.160269230604171753e-01 -4.112113416194915771e-01 -1.581714898347854614e-01 -5.572287440299987793e-01
2.720000000000000000e+03 7.495029449462890625e+01 6.345681667327880859e+00 1.621660590171813965e-01 -1.254094600677490234e+00 -3.275785744190216064e-01 -5.077543258666992188e-01
2.721000000000000000e+03 7.453936767578125000e+01 3.495437145233154297e+00 1.494665741920471191e-01 -9.674607515335083008e-01 -2.453982532024383545e-01 -6.568552255630493164e-01
2.722000000000000000e+03 5.556142807006835938e+01 -9.947837829589843750e+00 -7.278894186019897461e-01 9.654397368431091309e-01 7.126509398221969604e-02 1.062337279319763184e+00
2.723000000000000000e+03 4.670595169067382812e+00 8.671251296997070312e+00 1.112284371629357338e-04 5.626393249258399010e-05 5.024771235184744000e-05 -2.314294833922758698e-04
2.724000000000000000e+03 3.687863540649414062e+01 -9.735499382019042969e+00 1.059079051017761230e+00 3.887442946434020996e-01 4.343470036983489990e-01 -1.435114026069641113e+00
2.725000000000000000e+03 4.544258117675781250e+00 -1.358030128479003906e+01 -1.157923564314842224e-01 -1.142346784472465515e-01 -6.900811195373535156e-02 -2.095727473497390747e-01
2.726000000000000000e+03 7.089554786682128906e+00 -1.267431640625000000e+01 -2.534881532192230225e-01 -1.420591473579406738e-01 -1.186641976237297058e-01 -2.383822500705718994e-01
2.727000000000000000e+03 1.160678958892822266e+01 -1.270557212829589844e+01 -5.428370237350463867e-01 -3.456782996654510498e-01 -2.665545940399169922e-01 -3.263207674026489258e-01
2.728000000000000000e+03 3.976024627685546875e+01 -5.418288707733154297e+00 -2.282767295837402344e+00 6.141455769538879395e-01 -5.005865097045898438e-01 -8.126717805862426758e-02
2.729000000000000000e+03 4.587452316284179688e+01 -8.469411849975585938e+00 -6.311680078506469727e-01 -9.959908574819564819e-02 -2.192301303148269653e-01 1.743805170059204102e+00
2.730000000000000000e+03 6.099475860595703125e+00 2.871049880981445312e+01 -1.982290996238589287e-03 -5.843769758939743042e-03 -2.347818342968821526e-03 7.166887633502483368e-03
2.731000000000000000e+03 4.800450325012207031e+00 2.922877120971679688e+01 -1.019357587210834026e-03 -6.460784003138542175e-03 -2.244042465463280678e-03 6.038464140146970749e-03
2.732000000000000000e+03 5.476716041564941406e+00 2.339955711364746094e+01 -2.722382312640547752e-03 -1.644371193833649158e-03 -1.310026040300726891e-03 2.487236866727471352e-03
2.733000000000000000e+03 1.974519538879394531e+01 -6.037007331848144531e+00 -3.284040391445159912e-01 -2.664632499217987061e-01 -1.784601956605911255e-01 -5.768399238586425781e-01
2.734000000000000000e+03 2.141739654541015625e+01 -7.486416816711425781e+00 -2.984189391136169434e-01 -2.758434712886810303e-01 -1.722787171602249146e-01 -6.020736098289489746e-01
2.735000000000000000e+03 3.728068542480468750e+01 1.247570610046386719e+01 -1.854555495083332062e-02 4.420401994138956070e-03 -4.237546119838953018e-03 2.781274961307644844e-03
2.736000000000000000e+03 6.075584030151367188e+01 1.010504245758056641e+00 7.940958738327026367e-01 2.669791936874389648e+00 1.039166331291198730e+00 1.125643253326416016e+00
2.737000000000000000e+03 3.892056274414062500e+01 1.375111675262451172e+01 -3.534492850303649902e-02 7.805803790688514709e-03 -8.261737413704395294e-03 2.941295970231294632e-04
2.738000000000000000e+03 3.862980270385742188e+01 1.495948696136474609e+01 -4.441810399293899536e-02 1.055936329066753387e-02 -1.015762239694595337e-02 7.116616237908601761e-03
2.739000000000000000e+03 4.009957122802734375e+01 -2.103636741638183594e+01 -2.566972076892852783e-01 2.504573106765747070e+00 6.743627190589904785e-01 8.945757746696472168e-01
2.740000000000000000e+03 4.123684692382812500e+01 -2.218989562988281250e+01 -1.370069682598114014e-01 2.179100751876831055e+00 6.126281619071960449e-01 4.307170212268829346e-01
2.741000000000000000e+03 7.560462188720703125e+01 -2.506389617919921875e+01 -9.599608602002263069e-04 -6.279772496782243252e-04 -4.763814213220030069e-04 6.052432581782341003e-04
2.742000000000000000e+03 7.362045288085937500e+01 -2.752451705932617188e+01 -3.564940765500068665e-03 -4.308609350118786097e-04 -1.198740443214774132e-03 2.060222206637263298e-03
2.743000000000000000e+03 4.790561676025390625e+01 -1.067544651031494141e+01 8.513718843460083008e-01 -2.816848456859588623e-01 1.709061115980148315e-01 1.863283753395080566e+00
2.744000000000000000e+03 4.903787612915039062e+01 -9.956749916076660156e+00 3.427861630916595459e-01 -1.652644574642181396e-01 5.325650796294212341e-02 2.017897129058837891e+00
2.745000000000000000e+03 7.239299011230468750e+01 -2.512359428405761719e+01 -1.927397330291569233e-03 -4.514864995144307613e-04 -7.136651547625660896e-04 4.530405858531594276e-04
2.746000000000000000e+03 7.572697448730468750e+01 -3.005232512950897217e-01 3.159766271710395813e-02 -1.046037793159484863e+00 -3.043320477008819580e-01 -6.716418862342834473e-01
2.747000000000000000e+03 7.428406524658203125e+01 -2.509788322448730469e+01 -1.253863796591758728e-03 -2.725536760408431292e-04 -4.579252272378653288e-04 3.622091317083686590e-04
2.748000000000000000e+03 5.488889217376708984e+00 8.443593025207519531e+00 1.530331646790727973e-04 -1.706832554191350937e-04 -5.295027676766039804e-06 1.368838820781093091e-05
2.749000000000000000e+03 4.306760787963867188e+00 7.927182197570800781e+00 2.264618378831073642e-04 -7.726919284323230386e-05 4.475779496715404093e-05 7.432618531311163679e-06
2.750000000000000000e+03 3.856017303466796875e+01 -1.412328147888183594e+01 2.380046129226684570e+00 1.212200403213500977e+00 1.077673912048339844e+00 -6.387420892715454102e-01
2.751000000000000000e+03 6.154732894897460938e+01 -1.046318626403808594e+01 -1.397288441658020020e+00 1.699027568101882935e-01 -3.682157099246978760e-01 8.055894821882247925e-02
2.752000000000000000e+03 3.702658462524414062e+01 5.789889335632324219e+00 2.731003565713763237e-03 1.869732950581237674e-04 8.753930451348423958e-04 -4.345742636360228062e-04
2.753000000000000000e+03 3.197723960876464844e+01 -6.070168495178222656e+00 3.140482306480407715e-02 7.498965263366699219e-01 2.343904078006744385e-01 -4.452292621135711670e-01
2.754000000000000000e+03 5.079125404357910156e+00 -7.566228389739990234e+00 -8.790814876556396484e-02 -1.844434067606925964e-02 -3.190574422478675842e-02 1.661450788378715515e-02
2.755000000000000000e+03 7.260226440429687500e+01 -2.400376319885253906e+01 -1.678348868153989315e-03 -9.034295362653210759e-05 -5.306075327098369598e-04 3.036284178961068392e-04
2.756000000000000000e+03 7.475946044921875000e+01 -3.484918212890625000e+01 -1.094627514248713851e-04 -6.649445742368698120e-03 -2.027672482654452324e-03 7.214412558823823929e-03
2.757000000000000000e+03 7.572665405273437500e+01 -3.324587249755859375e+01 -8.171088411472737789e-04 -5.519054364413022995e-03 -1.900848932564258575e-03 5.713851191103458405e-03
2.758000000000000000e+03 1.056736087799072266e+01 -1.983116912841796875e+01 7.166668772697448730e-02 -3.724951148033142090e-01 -9.024853259325027466e-02 -5.579103231430053711e-01
2.759000000000000000e+03 4.003559112548828125e+00 2.081724739074707031e+01 -4.314431862439960241e-04 -5.314184818416833878e-04 -2.888584858737885952e-04 5.463688285090029240e-04
2.760000000000000000e+03 5.055305957794189453e+00 2.082295989990234375e+01 -1.764051965437829494e-03 -8.062053821049630642e-04 -7.710772333666682243e-04 7.622162229381501675e-04
2.761000000000000000e+03 4.113565826416015625e+01 -2.711972618103027344e+01 1.354584693908691406e-01 1.411375522613525391e+00 4.640501737594604492e-01 2.255021184682846069e-01
2.762000000000000000e+03 4.965029907226562500e+01 -1.129087543487548828e+01 6.365023851394653320e-01 -4.445312172174453735e-02 1.776147782802581787e-01 1.649559974670410156e+00
2.763000000000000000e+03 4.918141555786132812e+01 -9.075593948364257812e+00 -1.890000998973846436e-01 -1.629857718944549561e-01 -1.055957674980163574e-01 2.127042770385742188e+00
2.764000000000000000e+03 6.631285095214843750e+01 1.121079730987548828e+01 6.958602666854858398e-01 3.120106697082519531e+00 1.144790053367614746e+00 7.422620058059692383e-02
2.765000000000000000e+03 6.870700836181640625e+01 -2.922484779357910156e+01 -1.184692513197660446e-02 2.924130065366625786e-03 -2.676838543266057968e-03 4.995368421077728271e-03
2.766000000000000000e+03 5.817272567749023438e+01 -7.079945087432861328e+00 -4.337290227413177490e-01 1.247061014175415039e+00 2.439995855093002319e-01 7.716633677482604980e-01
2.767000000000000000e+03 5.629647827148437500e+01 -5.279235363006591797e+00 1.076586768031120300e-01 1.739705204963684082e+00 5.542091727256774902e-01 1.059617042541503906e+00
2.768000000000000000e+03 5.438353347778320312e+01 -7.345574855804443359e+00 -5.280753374099731445e-01 1.505173921585083008e+00 2.931295931339263916e-01 1.386828184127807617e+00
2.769000000000000000e+03 2.272830963134765625e+01 -5.775940418243408203e+00 -3.343089520931243896e-01 -2.070353925228118896e-01 -1.624033004045486450e-01 -7.342541813850402832e-01
2.770000000000000000e+03 7.442495727539062500e+01 -1.021923732757568359e+01 -2.716900408267974854e-01 -8.785123378038406372e-02 -1.078623831272125244e-01 -4.019864201545715332e-01
2.771000000000000000e+03 5.525846004486083984e+00 1.279564571380615234e+01 2.574380196165293455e-04 -2.643739862833172083e-04 -2.080787453451193869e-06 -3.060563467442989349e-04
2.772000000000000000e+03 5.346194839477539062e+01 2.616827392578125000e+01 3.490851819515228271e-01 3.036597371101379395e-01 1.958234757184982300e-01 -4.725262522697448730e-01
2.773000000000000000e+03 7.170045471191406250e+01 -2.164680480957031250e+01 -1.144611815107055008e-04 -3.389454795978963375e-04 -1.360219903290271759e-04 -1.960430199687834829e-05
2.774000000000000000e+03 5.600054264068603516e+00 -2.102180290222167969e+01 4.618281498551368713e-02 -4.665008485317230225e-01 -1.260954141616821289e-01 -4.052451848983764648e-01
2.775000000000000000e+03 5.698190689086914062e+00 2.983411788940429688e+01 -1.309894374571740627e-03 -6.788142956793308258e-03 -2.429411280900239944e-03 7.293923757970333099e-03
2.776000000000000000e+03 5.803654193878173828e+00 -1.626448059082031250e+01 -1.153487414121627808e-01 -2.448587417602539062e-01 -1.080622449517250061e-01 -3.704270422458648682e-01
2.777000000000000000e+03 5.740765571594238281e+00 -1.367191410064697266e+01 -1.710415631532669067e-01 -1.397107392549514771e-01 -9.322568774223327637e-02 -2.547150254249572754e-01
2.778000000000000000e+03 4.009005737304687500e+01 -2.246115684509277344e+01 -2.172828465700149536e-02 2.037798643112182617e+00 6.048210859298706055e-01 7.267763614654541016e-01
2.779000000000000000e+03 7.483468627929687500e+01 8.706209182739257812e+00 2.005448937416076660e-01 -1.289212942123413086e+00 -3.266004025936126709e-01 -3.651301860809326172e-01
2.780000000000000000e+03 7.434974670410156250e+01 4.631555080413818359e+00 1.530051529407501221e-01 -9.481175541877746582e-01 -2.385337203741073608e-01 -6.260176301002502441e-01
2.781000000000000000e+03 7.926797389984130859e+00 -2.767851066589355469e+01 1.796747744083404541e-01 -4.977451562881469727e-01 -9.542111307382583618e-02 -2.394723892211914062e-01
2.782000000000000000e+03 6.054804229736328125e+01 -3.566636323928833008e+00 2.883783876895904541e-01 1.466886162757873535e+00 5.265793800354003906e-01 5.394046902656555176e-01
2.783000000000000000e+03 5.911744689941406250e+01 -1.030483245849609375e+01 -1.157164812088012695e+00 6.761891245841979980e-01 -1.442926824092864990e-01 4.320942759513854980e-01
2.784000000000000000e+03 1.849978637695312500e+01 -8.660968780517578125e+00 -4.556100368499755859e-01 -4.350657463073730469e-01 -2.672027349472045898e-01 -5.387210845947265625e-01
2.785000000000000000e+03 5.167749404907226562e+01 -8.294351577758789062e+00 -6.544820070266723633e-01 7.269204854965209961e-01 2.173154428601264954e-02 2.071812391281127930e+00
2.786000000000000000e+03 5.031705474853515625e+01 -9.272763252258300781e+00 -2.148677259683609009e-01 1.132459864020347595e-01 -3.048651851713657379e-02 2.132985591888427734e+00
2.787000000000000000e+03 7.609834289550781250e+01 2.893686676025390625e+01 -5.473164469003677368e-02 -1.065648555755615234e+00 -3.361140787601470947e-01 4.696939289569854736e-01
2.788000000000000000e+03 6.875740051269531250e+01 1.633688163757324219e+01 7.967216968536376953e-01 1.566775798797607422e+00 7.090492844581604004e-01 1.249068230390548706e-01
2.789000000000000000e+03 6.735511779785156250e+01 1.852636337280273438e+01 8.722804784774780273e-01 2.094454765319824219e+00 8.900205492973327637e-01 2.300802022218704224e-01
2.790000000000000000e+03 4.086094665527343750e+01 -6.877857685089111328e+00 -1.697448015213012695e+00 6.520939469337463379e-01 -3.136062324047088623e-01 -2.182884961366653442e-01
2.791000000000000000e+03 4.160098648071289062e+01 -7.364780902862548828e+00 -1.520682930946350098e+00 7.227402925491333008e-01 -2.393828034400939941e-01 1.940578036010265350e-02
2.792000000000000000e+03 1.726298713684082031e+01 -9.148468971252441406e+00 -4.758663773536682129e-01 -5.758194923400878906e-01 -3.155057728290557861e-01 -4.572955071926116943e-01
2.793000000000000000e+03 1.647807693481445312e+01 -9.059267044067382812e+00 -4.622724354267120361e-01 -5.385913848876953125e-01 -3.002591431140899658e-01 -4.184353053569793701e-01
2.794000000000000000e+03 1.004194831848144531e+01 -1.610830879211425781e+01 -3.042261302471160889e-01 -3.004314899444580078e-01 -1.813972890377044678e-01 -5.129679441452026367e-01
2.795000000000000000e+03 1.153421783447265625e+01 -1.693096351623535156e+01 -2.669221162796020508e-01 -3.771088719367980957e-01 -1.932092905044555664e-01 -5.600674748420715332e-01
2.796000000000000000e+03 4.131740188598632812e+01 2.200634765625000000e+01 -3.702943399548530579e-02 5.864910408854484558e-02 6.485900841653347015e-03 8.268672041594982147e-03
2.797000000000000000e+03 4.393568420410156250e+01 2.122909736633300781e+01 -6.152598932385444641e-02 3.497475385665893555e-02 -7.965371012687683105e-03 6.134800147265195847e-03
2.798000000000000000e+03 3.937750244140625000e+01 -3.208578872680664062e+01 3.736780583858489990e-02 1.228241205215454102e+00 3.796826899051666260e-01 1.283436715602874756e-01
2.799000000000000000e+03 7.426321411132812500e+01 1.166359806060791016e+01 2.833693623542785645e-01 -1.082054615020751953e+00 -2.396055757999420166e-01 -1.613389700651168823e-01
2.800000000000000000e+03 7.316514968872070312e+00 -1.714146423339843750e+01 -1.254493147134780884e-01 -2.901193797588348389e-01 -1.246706098318099976e-01 -4.661859869956970215e-01
2.801000000000000000e+03 7.385489654541015625e+01 5.704012870788574219e+00 2.043356448411941528e-01 -7.575505971908569336e-01 -1.659644991159439087e-01 -5.786179304122924805e-01
2.802000000000000000e+03 5.684598922729492188e+00 -1.494266510009765625e+01 -1.482538580894470215e-01 -1.861950159072875977e-01 -1.003346592187881470e-01 -3.140461742877960205e-01
2.803000000000000000e+03 1.822735404968261719e+01 -3.233924102783203125e+01 3.492264449596405029e-01 2.768372893333435059e-01 1.878191083669662476e-01 -1.820578873157501221e-01
2.804000000000000000e+03 2.641207695007324219e+01 -3.469026947021484375e+01 4.033826887607574463e-01 5.761150717735290527e-01 2.938493192195892334e-01 8.035530149936676025e-02
2.805000000000000000e+03 7.562612152099609375e+01 3.623701810836791992e+00 1.006601527333259583e-01 -1.349516391754150391e+00 -3.746568560600280762e-01 -5.829218626022338867e-01
2.806000000000000000e+03 7.429911041259765625e+01 -3.695805358886718750e+01 3.438774030655622482e-03 -9.397605434060096741e-03 -1.787649351172149181e-03 7.545888889580965042e-03
2.807000000000000000e+03 5.081592559814453125e+00 3.587444305419921875e+01 2.694530412554740906e-03 -1.382193993777036667e-02 -3.338222857564687729e-03 5.823626182973384857e-03
2.808000000000000000e+03 5.739959335327148438e+01 2.726886177062988281e+01 1.079143732786178589e-01 1.117876648902893066e+00 3.677373230457305908e-01 -7.485897541046142578e-01
2.809000000000000000e+03 7.562213897705078125e+01 1.404267024993896484e+01 1.904283165931701660e-01 -1.750578880310058594e+00 -4.680451452732086182e-01 4.236663877964019775e-02
2.810000000000000000e+03 7.438700103759765625e+01 1.285606384277343750e+01 2.840025722980499268e-01 -1.127753853797912598e+00 -2.531253993511199951e-01 -4.843292385339736938e-02
2.811000000000000000e+03 6.487749576568603516e+00 -2.170614242553710938e+01 8.461640775203704834e-02 -4.691224694252014160e-01 -1.153518185019493103e-01 -4.238239228725433350e-01
2.812000000000000000e+03 6.709386444091796875e+01 2.019292259216308594e+01 7.398248910903930664e-01 2.121602535247802734e+00 8.584282398223876953e-01 3.709169626235961914e-01
2.813000000000000000e+03 7.558731842041015625e+01 -2.804138946533203125e+01 -2.263230970129370689e-03 -1.100263325497508049e-03 -1.009048311971127987e-03 2.322396030649542809e-03
2.814000000000000000e+03 7.464122009277343750e+01 -2.946642684936523438e+01 -3.268157830461859703e-03 -1.344159594736993313e-03 -1.383695169351994991e-03 3.851314540952444077e-03
2.815000000000000000e+03 4.148820495605468750e+01 1.815583419799804688e+01 -7.862910628318786621e-02 2.908283099532127380e-02 -1.486388221383094788e-02 3.012945409864187241e-03
2.816000000000000000e+03 7.327664947509765625e+01 -7.219995260238647461e-01 4.675690829753875732e-02 -4.094855487346649170e-01 -1.088185906410217285e-01 -8.373804688453674316e-01
2.817000000000000000e+03 1.214149951934814453e+01 -2.528136825561523438e+01 3.525670766830444336e-01 -1.523623764514923096e-01 6.006141006946563721e-02 -3.106309175491333008e-01
2.818000000000000000e+03 6.726345062255859375e+01 1.439599323272705078e+01 8.659748435020446777e-01 2.634067296981811523e+00 1.050012588500976562e+00 -1.046708971261978149e-01
2.819000000000000000e+03 6.608788299560546875e+01 1.418800163269042969e+01 7.109962701797485352e-01 3.418491363525390625e+00 1.238846302032470703e+00 -8.153645694255828857e-02
2.820000000000000000e+03 4.256346130371093750e+01 -1.796136665344238281e+01 -3.548044562339782715e-01 3.810628175735473633e+00 1.036747097969055176e+00 -4.466445147991180420e-01
2.821000000000000000e+03 2.847183799743652344e+01 -2.647984027862548828e+00 -1.877143263816833496e+00 6.268565356731414795e-02 -5.443372726440429688e-01 -5.582147836685180664e-01
2.822000000000000000e+03 2.950349426269531250e+01 -2.294616699218750000e+00 -2.287276506423950195e+00 1.760266274213790894e-01 -6.333749890327453613e-01 -4.164440929889678955e-01
2.823000000000000000e+03 4.578140640258789062e+01 -1.345851230621337891e+01 3.206423759460449219e+00 -3.056645989418029785e-01 8.702277541160583496e-01 9.939913153648376465e-01
2.824000000000000000e+03 1.461634922027587891e+01 1.028343486785888672e+01 -1.588296872796490788e-04 1.632595085538923740e-04 1.328945245404611342e-06 6.132243288448080420e-05
2.825000000000000000e+03 4.695830535888671875e+01 -1.341278457641601562e+01 2.450297355651855469e+00 -4.224565923213958740e-01 6.083522439002990723e-01 8.340474367141723633e-01
2.826000000000000000e+03 1.334524631500244141e+01 1.964433479309082031e+01 -3.497983328998088837e-03 5.188038339838385582e-04 -8.937538950704038143e-04 -7.267499458976089954e-04
2.827000000000000000e+03 1.716647720336914062e+01 6.315776824951171875e+00 -7.522912346757948399e-05 2.201005190727300942e-05 -1.596572110429406166e-05 -1.897971924336161464e-05
2.828000000000000000e+03 3.153587722778320312e+01 -2.863795518875122070e+00 -2.186795949935913086e+00 2.168179452419281006e-01 -5.909934043884277344e-01 -3.966127932071685791e-01
2.829000000000000000e+03 3.061337089538574219e+01 -2.591556310653686523e+00 -2.263573646545410156e+00 2.991773486137390137e-01 -5.893188714981079102e-01 -4.022923707962036133e-01
2.830000000000000000e+03 4.152085113525390625e+01 -1.757603263854980469e+01 -1.900096386671066284e-01 4.750650405883789062e+00 1.368192195892333984e+00 6.328731775283813477e-01
2.831000000000000000e+03 4.176209259033203125e+01 -1.784625434875488281e+01 -3.876123726367950439e-01 4.448042869567871094e+00 1.218129158020019531e+00 3.094062805175781250e-01
2.832000000000000000e+03 1.577535724639892578e+01 8.034625053405761719e+00 -8.010416058823466301e-05 4.289712887839414179e-05 -1.116210933105321601e-05 -5.567468406297848560e-07
2.833000000000000000e+03 1.961467552185058594e+01 2.421162796020507812e+01 -4.525948688387870789e-02 -5.317579023540019989e-03 -1.517311949282884598e-02 1.941110193729400635e-02
2.834000000000000000e+03 1.327821636199951172e+01 1.642116737365722656e+01 3.998795582447201014e-04 7.176008075475692749e-04 3.352441126480698586e-04 4.932249430567026138e-04
2.835000000000000000e+03 3.374355316162109375e+01 1.166671848297119141e+01 -5.252401810139417648e-03 -9.758661617524921894e-04 -1.868480467237532139e-03 2.656458411365747452e-03
2.836000000000000000e+03 1.258526897430419922e+01 1.693425750732421875e+01 -4.412674388731829822e-05 3.527093940647318959e-05 -2.656741344253532588e-06 4.893701989203691483e-04
2.837000000000000000e+03 1.211827945709228516e+01 1.683439445495605469e+01 1.880783820524811745e-04 -3.076222492381930351e-05 4.719484786619432271e-05 1.987151190405711532e-04
2.838000000000000000e+03 3.380530929565429688e+01 1.089538669586181641e+01 -2.944766776636242867e-03 5.301370401866734028e-04 -7.243889267556369305e-04 1.046155462972819805e-03
2.839000000000000000e+03 1.863306808471679688e+01 5.022635459899902344e+00 3.229980575270019472e-05 2.564499300206080079e-05 1.738343962642829865e-05 -1.335910269517626148e-06
2.840000000000000000e+03 3.300291824340820312e+01 1.555313014984130859e+01 -2.111201174557209015e-02 -1.489717327058315277e-02 -1.080275606364011765e-02 2.471607178449630737e-02
2.841000000000000000e+03 3.289542770385742188e+01 1.598302841186523438e+01 -2.541419304907321930e-02 -1.508561801165342331e-02 -1.214994303882122040e-02 2.668601088225841522e-02
2.842000000000000000e+03 3.379135894775390625e+01 1.204375553131103516e+01 -3.323894226923584938e-03 -2.139764372259378433e-03 -1.639097579754889011e-03 5.186489783227443695e-03
2.843000000000000000e+03 1.288933086395263672e+01 1.661490249633789062e+01 1.378271554131060839e-04 2.377521886955946684e-04 1.126738061429932714e-04 5.711324047297239304e-04
2.844000000000000000e+03 1.470558071136474609e+01 9.051159858703613281e+00 -5.524138396140187979e-05 1.036019148159539327e-05 -1.346435783489141613e-05 5.462264380184933543e-05
2.845000000000000000e+03 4.229708862304687500e+01 -1.775945472717285156e+01 -3.876485228538513184e-01 4.276180744171142578e+00 1.166559696197509766e+00 -2.420614510774612427e-01
2.846000000000000000e+03 1.501366329193115234e+01 9.240942001342773438e+00 1.007872560876421630e-04 1.736684498609974980e-04 8.233670814661309123e-05 1.654348488955292851e-05
2.847000000000000000e+03 1.541448116302490234e+01 8.837803840637207031e+00 5.658968075294978917e-05 1.116555868065916002e-04 5.047357990406453609e-05 2.634941438373061828e-06
2.848000000000000000e+03 3.444333648681640625e+01 1.004745960235595703e+01 -3.780300321523100138e-04 -1.688582473434507847e-03 -6.199837662279605865e-04 -9.514873818261548877e-05
2.849000000000000000e+03 3.284134292602539062e+01 1.510188484191894531e+01 -1.710739545524120331e-02 -1.385498885065317154e-02 -9.288715198636054993e-03 2.030253969132900238e-02
2.850000000000000000e+03 3.403967666625976562e+01 1.328368568420410156e+01 -1.293774694204330444e-02 -3.302839817479252815e-03 -4.872175864875316620e-03 1.113442331552505493e-02
2.851000000000000000e+03 1.335249137878417969e+01 1.417465591430664062e+01 7.042082870611920953e-05 4.468406841624528170e-04 1.551784516777843237e-04 4.877765022683888674e-04
2.852000000000000000e+03 3.444081497192382812e+01 9.589522361755371094e+00 -1.507306122221052647e-03 -1.176725054392591119e-04 -4.874935839325189590e-04 7.516239420510828495e-04
2.853000000000000000e+03 1.280796146392822266e+01 1.282221508026123047e+01 2.098054246744140983e-04 3.002748126164078712e-04 1.530240842839702964e-04 2.983740414492785931e-04
2.854000000000000000e+03 3.392130661010742188e+01 1.008008575439453125e+01 -1.726494054310023785e-03 9.383549913763999939e-04 -2.364417450735345483e-04 8.041919209063053131e-04
2.855000000000000000e+03 3.438349914550781250e+01 1.049465084075927734e+01 -3.071431769058108330e-03 4.533349419943988323e-04 -7.854290888644754887e-04 1.201861537992954254e-03
2.856000000000000000e+03 3.328396224975585938e+01 1.496057605743408203e+01 -1.676565222442150116e-02 -1.116334460675716400e-02 -8.378698490560054779e-03 1.975482515990734100e-02
2.857000000000000000e+03 1.352952671051025391e+01 1.554942131042480469e+01 2.730126834649126977e-05 6.742734694853425026e-04 2.104724117089062929e-04 5.532014183700084686e-04
2.858000000000000000e+03 3.346587753295898438e+01 1.675118446350097656e+01 -3.558530285954475403e-02 -1.121018640697002411e-02 -1.403864659368991852e-02 3.278796374797821045e-02
2.859000000000000000e+03 1.481053829193115234e+01 1.090053462982177734e+01 -1.618484093341976404e-04 2.402349346084520221e-04 2.351596049265936017e-05 -3.147639745293417946e-06
2.860000000000000000e+03 3.394143295288085938e+01 1.284153461456298828e+01 -7.584153674542903900e-03 -3.359528025612235069e-03 -3.283104393631219864e-03 8.165245875716209412e-03
2.861000000000000000e+03 3.370229339599609375e+01 1.436873912811279297e+01 -1.544189732521772385e-02 -7.638066075742244720e-03 -6.923988927155733109e-03 1.669777184724807739e-02
2.862000000000000000e+03 1.738683891296386719e+01 7.743329048156738281e+00 1.054320000548614189e-05 4.039987834403291345e-05 1.528292341390624642e-05 2.412249341432470828e-05
2.863000000000000000e+03 3.567978668212890625e+01 6.687368869781494141e+00 2.578629413619637489e-03 -5.927074234932661057e-04 5.957765970379114151e-04 2.042193409579340369e-05
2.864000000000000000e+03 3.496309661865234375e+01 5.777261257171630859e+00 1.432875171303749084e-03 3.300568205304443836e-04 5.288795800879597664e-04 -5.776568432338535786e-04
2.865000000000000000e+03 2.105787277221679688e+01 2.375320434570312500e+01 -6.130349263548851013e-02 -1.015991065651178360e-02 -2.143902145326137543e-02 2.144768834114074707e-02
2.866000000000000000e+03 2.055291748046875000e+01 2.424104118347167969e+01 -5.132731050252914429e-02 -9.148779325187206268e-03 -1.814282685518264771e-02 2.288635075092315674e-02
2.867000000000000000e+03 1.925848388671875000e+01 4.617747783660888672e+00 4.614899808075278997e-06 -9.495758604316506535e-06 -1.464257479710795451e-06 7.741967237961944193e-06
2.868000000000000000e+03 2.334448814392089844e+01 2.365286827087402344e+01 -7.909487932920455933e-02 -1.754095405340194702e-02 -2.899075113236904144e-02 2.943873032927513123e-02
2.869000000000000000e+03 1.810835838317871094e+01 5.530824184417724609e+00 4.412110865814611316e-05 -8.263175004685763270e-06 1.075737964129075408e-05 -5.696019229617377277e-07
2.870000000000000000e+03 2.720604515075683594e+01 2.319851112365722656e+01 -8.348471671342849731e-02 -3.910499066114425659e-02 -3.677691146731376648e-02 4.578191414475440979e-02
2.871000000000000000e+03 2.620794296264648438e+01 2.377021217346191406e+01 -7.598524540662765503e-02 -3.088944964110851288e-02 -3.206240758299827576e-02 4.282203316688537598e-02
2.872000000000000000e+03 1.317001438140869141e+01 1.377365684509277344e+01 2.017807273659855127e-04 5.789600545540452003e-04 2.342222287552431226e-04 3.402896400075405836e-04
2.873000000000000000e+03 3.317467498779296875e+01 1.748547935485839844e+01 -4.430728033185005188e-02 -1.165456883609294891e-02 -1.678855530917644501e-02 3.720965608954429626e-02
2.874000000000000000e+03 3.472150802612304688e+01 1.319011688232421875e+01 -1.306611206382513046e-02 -2.677517477422952652e-03 -4.723088815808296204e-03 1.036944892257452011e-02
2.875000000000000000e+03 3.451580810546875000e+01 1.228712463378906250e+01 -7.194753270596265793e-03 -1.381926238536834717e-03 -2.573003759607672691e-03 6.749850697815418243e-03
2.876000000000000000e+03 3.415308380126953125e+01 1.377020835876464844e+01 -1.385149080306291580e-02 -4.760686773806810379e-03 -5.583653226494789124e-03 1.350457873195409775e-02
2.877000000000000000e+03 4.206352615356445312e+01 -1.753593444824218750e+01 -3.101008236408233643e-01 4.662975311279296875e+00 1.305862307548522949e+00 1.451739948242902756e-02
2.878000000000000000e+03 4.469406127929687500e+01 -1.252854728698730469e+01 2.980011224746704102e+00 1.021946549415588379e+00 1.200587272644042969e+00 1.971712827682495117e+00
2.879000000000000000e+03 4.453576660156250000e+01 -1.153437423706054688e+01 1.887151002883911133e+00 1.291358828544616699e+00 9.535529613494873047e-01 1.853378057479858398e+00
2.880000000000000000e+03 1.535308647155761719e+01 8.429386138916015625e+00 -9.247014531865715981e-05 5.979807610856369138e-05 -9.801621672522742301e-06 3.005514554388355464e-05
2.881000000000000000e+03 1.580934906005859375e+01 8.433753967285156250e+00 6.167712126625701785e-05 9.726371354190632701e-05 4.768224971485324204e-05 1.638264620851259679e-05
2.882000000000000000e+03 3.526394271850585938e+01 7.401391983032226562e+00 5.409407312981784344e-04 -1.001049065962433815e-03 -1.380324974888935685e-04 -5.001677782274782658e-04
2.883000000000000000e+03 3.151845359802246094e+01 1.962055778503417969e+01 -7.799705862998962402e-02 -3.056684508919715881e-02 -3.256916999816894531e-02 4.887750744819641113e-02
2.884000000000000000e+03 1.797349357604980469e+01 2.411067962646484375e+01 -3.539182245731353760e-02 -8.607133058831095695e-04 -1.087576057761907578e-02 1.408267766237258911e-02
2.885000000000000000e+03 1.608544921875000000e+01 2.315041923522949219e+01 -2.417996339499950409e-02 2.063446911051869392e-03 -6.634954828768968582e-03 5.900722462683916092e-03
2.886000000000000000e+03 3.218466949462890625e+01 1.818759155273437500e+01 -5.316742882132530212e-02 -2.637987025082111359e-02 -2.386418916285037994e-02 4.464603215456008911e-02
2.887000000000000000e+03 3.542573547363281250e+01 8.284009933471679688e+00 -9.629038977436721325e-04 -2.398555632680654526e-03 -1.008437946438789368e-03 1.319265429629012942e-04
2.888000000000000000e+03 3.464488220214843750e+01 8.176472663879394531e+00 -8.962472784332931042e-04 -1.124771079048514366e-03 -6.063055479899048805e-04 -7.081979420036077499e-04
2.889000000000000000e+03 1.958509635925292969e+01 4.699504375457763672e+00 2.363449857512023300e-05 3.575627124519087374e-05 1.781723040039651096e-05 2.289125040988437831e-05
2.890000000000000000e+03 4.602817153930664062e+01 -1.381636619567871094e+01 3.098322391510009766e+00 -4.371843338012695312e-01 7.983413934707641602e-01 6.764366030693054199e-01
2.891000000000000000e+03 1.404832363128662109e+01 2.152294731140136719e+01 -1.098931487649679184e-02 1.572809531353414059e-03 -2.824951661750674248e-03 5.392380990087985992e-04
2.892000000000000000e+03 1.264692878723144531e+01 1.397194385528564453e+01 7.378275768132880330e-05 5.539515768759883940e-05 3.875337279168888927e-05 5.934775108471512794e-04
2.893000000000000000e+03 2.719422340393066406e+01 -3.221244335174560547e+00 -1.262683391571044922e+00 -1.006930768489837646e-01 -4.090129137039184570e-01 -7.896112799644470215e-01
2.894000000000000000e+03 2.643938255310058594e+01 -3.378479957580566406e+00 -1.089689135551452637e+00 -1.297233700752258301e-01 -3.658237457275390625e-01 -8.851515054702758789e-01
2.895000000000000000e+03 2.154179573059082031e+01 2.379637718200683594e+01 -6.514554470777511597e-02 -1.174260396510362625e-02 -2.306644432246685028e-02 2.270343527197837830e-02
2.896000000000000000e+03 1.448589038848876953e+01 2.221415901184082031e+01 -1.529736910015344620e-02 2.610255964100360870e-03 -3.806133987382054329e-03 1.589699066244065762e-03
2.897000000000000000e+03 1.265435314178466797e+01 1.622031402587890625e+01 2.346211258554831147e-04 4.007992101833224297e-04 1.906261022668331861e-04 4.383532796055078506e-04
2.898000000000000000e+03 2.261490821838378906e+01 2.376820182800292969e+01 -7.200117409229278564e-02 -1.648250594735145569e-02 -2.654510363936424255e-02 2.714612334966659546e-02
2.899000000000000000e+03 1.256164550781250000e+01 1.751930046081542969e+01 -3.471767413429915905e-04 -1.269568601856008172e-04 -1.422400819137692451e-04 3.191301075275987387e-04
2.900000000000000000e+03 1.424174594879150391e+01 1.002116107940673828e+01 9.463318565394729376e-05 2.052553609246388078e-04 8.996656106319278479e-05 1.001770797302015126e-04
2.901000000000000000e+03 3.136461257934570312e+01 2.085850524902343750e+01 -8.747850358486175537e-02 -2.591569162905216217e-02 -3.401825949549674988e-02 3.890743106603622437e-02
2.902000000000000000e+03 3.095097923278808594e+01 2.084310722351074219e+01 -9.353018552064895630e-02 -3.194959461688995361e-02 -3.764393553137779236e-02 4.112793877720832825e-02
2.903000000000000000e+03 1.381686401367187500e+01 1.122262287139892578e+01 8.510779298376291990e-05 1.825413783080875874e-04 8.029475429793819785e-05 2.200831368099898100e-04
2.904000000000000000e+03 1.413513851165771484e+01 1.092637825012207031e+01 -1.289575302507728338e-04 2.777140180114656687e-04 4.462694414542056620e-05 9.296813368564471602e-05
2.905000000000000000e+03 3.257060241699218750e+01 -6.568811893463134766e+00 3.015905320644378662e-01 7.290922403335571289e-01 3.092048466205596924e-01 -3.724984824657440186e-01
2.906000000000000000e+03 4.180870437622070312e+01 -1.037006473541259766e+01 3.348238468170166016e-01 2.419017076492309570e+00 8.261522650718688965e-01 -1.160038188099861145e-01
2.907000000000000000e+03 4.351782608032226562e+01 -1.176204776763916016e+01 1.785444855690002441e+00 2.619170427322387695e+00 1.321384549140930176e+00 1.640233635902404785e+00
2.908000000000000000e+03 1.468843746185302734e+01 2.331816864013671875e+01 -2.007621712982654572e-02 1.935711363330483437e-03 -5.442151799798011780e-03 6.627639289945363998e-03
2.909000000000000000e+03 2.265246009826660156e+01 2.467066955566406250e+01 -5.658978968858718872e-02 -1.900705881416797638e-02 -2.267905510962009430e-02 3.117834776639938354e-02
2.910000000000000000e+03 3.248414611816406250e+01 2.058986663818359375e+01 -7.613188773393630981e-02 -7.626240607351064682e-03 -2.512743882834911346e-02 3.628072887659072876e-02
2.911000000000000000e+03 3.018781471252441406e+01 2.379376602172851562e+01 -5.426501110196113586e-02 -2.818126790225505829e-02 -2.473388426005840302e-02 2.516630105674266815e-02
2.912000000000000000e+03 2.871891212463378906e+01 2.266347885131835938e+01 -8.534495532512664795e-02 -5.152715742588043213e-02 -4.106163606047630310e-02 4.381018131971359253e-02
2.913000000000000000e+03 3.058668899536132812e+01 -4.780208110809326172e+00 -8.607038855552673340e-01 5.328646898269653320e-01 -9.835175424814224243e-02 -6.066347956657409668e-01
2.914000000000000000e+03 3.270428466796875000e+01 1.766280937194824219e+01 -4.751755669713020325e-02 -1.765952259302139282e-02 -1.955312490463256836e-02 4.002726823091506958e-02
2.915000000000000000e+03 3.278843307495117188e+01 1.885452842712402344e+01 -6.334561854600906372e-02 -9.553498588502407074e-03 -2.186973579227924347e-02 4.180296882987022400e-02
2.916000000000000000e+03 1.317670726776123047e+01 1.215886974334716797e+01 1.195532458950765431e-04 3.200673963874578476e-04 1.318861905019730330e-04 1.988350995816290379e-04
2.917000000000000000e+03 1.375513076782226562e+01 1.194720077514648438e+01 -2.990593202412128448e-05 2.814235340338200331e-04 7.545528205810114741e-05 2.841338573489338160e-04
2.918000000000000000e+03 1.664292716979980469e+01 2.275242042541503906e+01 -2.730843611061573029e-02 6.986953085288405418e-04 -7.982922717928886414e-03 5.084533244371414185e-03
2.919000000000000000e+03 1.493034648895263672e+01 2.384062957763671875e+01 -1.965013146400451660e-02 1.652206410653889179e-03 -5.399377550929784775e-03 8.045502938330173492e-03
2.920000000000000000e+03 1.532045745849609375e+01 8.002515792846679688e+00 7.904216909082606435e-05 8.240124589065089822e-05 4.843302303925156593e-05 1.926995355461258441e-05
2.921000000000000000e+03 1.746348571777343750e+01 6.669657707214355469e+00 8.124345185933634639e-05 1.976615567400585860e-05 3.030288280569948256e-05 -7.654209184693172574e-06
2.922000000000000000e+03 3.084683036804199219e+01 2.310900306701660156e+01 -6.306312233209609985e-02 -2.425490505993366241e-02 -2.619540877640247345e-02 2.346967905759811401e-02
2.923000000000000000e+03 3.560458755493164062e+01 8.856035232543945312e+00 3.379627596586942673e-04 -1.052212552167475224e-03 -2.142749290214851499e-04 -9.732855251058936119e-04
2.924000000000000000e+03 3.076384162902832031e+01 2.240701675415039062e+01 -7.539623975753784180e-02 -2.881503663957118988e-02 -3.126338496804237366e-02 2.787637151777744293e-02
2.925000000000000000e+03 1.317122936248779297e+01 2.025713920593261719e+01 -5.245340988039970398e-03 9.037761483341455460e-04 -1.302469521760940552e-03 -1.148322713561356068e-03
2.926000000000000000e+03 3.167750930786132812e+01 -3.381093740463256836e+00 -1.757141232490539551e+00 2.779647409915924072e-01 -4.437529444694519043e-01 -3.774189352989196777e-01
2.927000000000000000e+03 3.172381019592285156e+01 -3.936068773269653320e+00 -1.422123312950134277e+00 3.399426937103271484e-01 -3.246541917324066162e-01 -3.485002815723419189e-01
2.928000000000000000e+03 1.934587478637695312e+01 4.895404815673828125e+00 -2.296500861120875925e-05 -1.673256701906211674e-05 -1.190927287098020315e-05 -1.919259921123739332e-05
2.929000000000000000e+03 3.950181961059570312e+01 -1.715362167358398438e+01 7.039060592651367188e-01 3.093417882919311523e+00 1.139197111129760742e+00 1.546668648719787598e+00
2.930000000000000000e+03 1.811633110046386719e+01 4.945697784423828125e+00 -2.567850970081053674e-05 -5.992617843730840832e-06 -9.501338354311883450e-06 8.036055987759027630e-06
2.931000000000000000e+03 1.813660812377929688e+01 4.358934879302978516e+00 1.891677857202012092e-05 2.291099553985986859e-05 1.254833296115975827e-05 -7.048577572277281433e-06
2.932000000000000000e+03 2.787356948852539062e+01 2.367245101928710938e+01 -6.947053223848342896e-02 -4.442284628748893738e-02 -3.416801244020462036e-02 4.092557355761528015e-02
2.933000000000000000e+03 3.577980422973632812e+01 -3.686208724975585938e+00 -1.943772077560424805e+00 6.225655078887939453e-01 -3.963619768619537354e-01 3.191665410995483398e-01
2.934000000000000000e+03 1.609182357788085938e+01 4.989827632904052734e+00 2.222635157522745430e-05 3.795464726863428950e-05 1.805429928936064243e-05 4.544554485619300976e-06
2.935000000000000000e+03 1.720911979675292969e+01 7.010359764099121094e+00 -8.325004455400630832e-05 -1.717353006824851036e-05 -3.012707384186796844e-05 4.424679354997351766e-05
2.936000000000000000e+03 1.552216243743896484e+01 2.352988624572753906e+01 -2.331878058612346649e-02 1.487464993260800838e-03 -6.549395155161619186e-03 8.279724046587944031e-03
2.937000000000000000e+03 1.999932289123535156e+01 4.000926017761230469e+00 2.211243190686218441e-05 3.528473462210968137e-05 1.721915032248944044e-05 9.800104407986509614e-07
2.938000000000000000e+03 1.535335922241210938e+01 4.993346691131591797e+00 -4.206644007354043424e-05 -7.521428415202535689e-06 -1.487636109231971204e-05 8.461852303298655897e-06
2.939000000000000000e+03 1.680390357971191406e+01 4.920405387878417969e+00 -1.746687121340073645e-05 -7.518827516150849988e-08 -5.262617833068361506e-06 4.686687589128268883e-06
2.940000000000000000e+03 1.747414016723632812e+01 4.913510799407958984e+00 2.817564200086053461e-05 2.082578248518984765e-05 1.470042752771405503e-05 3.660988454612379428e-07
2.941000000000000000e+03 3.512104034423828125e+01 4.932404994964599609e+00 1.266359235160052776e-03 5.958186811767518520e-04 5.586533807218074799e-04 -1.672870130278170109e-04
2.942000000000000000e+03 3.486598205566406250e+01 -3.960010051727294922e+00 -1.692494273185729980e+00 4.871305525302886963e-01 -3.616091310977935791e-01 2.474911212921142578e-01
2.943000000000000000e+03 2.948668670654296875e+01 2.319258308410644531e+01 -6.832879036664962769e-02 -3.986274078488349915e-02 -3.245745971798896790e-02 3.274802491068840027e-02
2.944000000000000000e+03 1.192934513092041016e+01 5.343309879302978516e+00 3.496673525660298765e-05 4.049271228723227978e-05 2.263783426315058023e-05 2.701889934542123228e-05
2.945000000000000000e+03 3.791223907470703125e+01 -2.926905155181884766e+00 -2.516765117645263672e+00 7.504130601882934570e-01 -5.299056172370910645e-01 4.940155446529388428e-01
2.946000000000000000e+03 3.661590194702148438e+01 -3.390500307083129883e+00 -2.191332340240478516e+00 7.006064653396606445e-01 -4.472177624702453613e-01 3.952642381191253662e-01
2.947000000000000000e+03 1.463722419738769531e+01 4.932835102081298828e+00 3.959235255024395883e-05 6.227890116861090064e-05 3.056137575185857713e-05 3.083190313191153109e-05
2.948000000000000000e+03 2.386750221252441406e+01 -4.652985095977783203e+00 -4.959574639797210693e-01 -1.316090226173400879e-01 -1.882699429988861084e-01 -8.404636979103088379e-01
2.949000000000000000e+03 2.432196426391601562e+01 -4.006694316864013672e+00 -6.730747222900390625e-01 -8.336415886878967285e-02 -2.269316613674163818e-01 -8.506141901016235352e-01
2.950000000000000000e+03 2.167942810058593750e+01 -5.242347240447998047e+00 -3.943016827106475830e-01 -1.824915558099746704e-01 -1.730379760265350342e-01 -6.813677549362182617e-01
2.951000000000000000e+03 2.431226539611816406e+01 2.368656730651855469e+01 -8.017542213201522827e-02 -1.940285786986351013e-02 -2.987348474562168121e-02 3.352038189768791199e-02
2.952000000000000000e+03 1.262196731567382812e+01 5.169528961181640625e+00 3.269434819230809808e-05 -3.661855953396297991e-05 -1.177263243334891740e-06 5.154121026862412691e-05
2.953000000000000000e+03 3.091557693481445312e+01 -5.988482475280761719e+00 1.522083021700382233e-02 8.397754430770874023e-01 2.564988732337951660e-01 -6.185864210128784180e-01
2.954000000000000000e+03 2.447489166259765625e+01 2.323652458190917969e+01 -9.071988612413406372e-02 -1.940722391009330750e-02 -3.303813189268112183e-02 3.585566207766532898e-02
2.955000000000000000e+03 1.110566997528076172e+01 -5.714458465576171875e+00 -1.387587934732437134e-01 -1.373718529939651489e-01 -8.283919095993041992e-02 -3.585483506321907043e-02
2.956000000000000000e+03 1.255213546752929688e+01 -4.606619834899902344e+00 -1.025865748524665833e-01 -1.464105993509292603e-01 -7.469915598630905151e-02 -8.608525991439819336e-02
2.957000000000000000e+03 7.572879028320312500e+01 -9.459858894348144531e+00 -1.646665930747985840e-01 -2.055438905954360962e-01 -1.110631451010704041e-01 -3.887038528919219971e-01
2.958000000000000000e+03 6.584390163421630859e+00 5.739464759826660156e+00 -1.996972969209309667e-05 -8.237542351707816124e-05 -3.070354432566091418e-05 4.752514723804779351e-05
2.959000000000000000e+03 1.057979965209960938e+01 5.815407276153564453e+00 3.784590808209031820e-05 -2.292064527864567935e-05 4.477579295780742541e-06 4.817027001990936697e-05
2.960000000000000000e+03 2.572859001159667969e+01 -5.236658573150634766e+00 -2.872776985168457031e-01 -1.746688485145568848e-01 -1.385839581489562988e-01 -9.567933678627014160e-01
2.961000000000000000e+03 3.196243476867675781e+01 -5.178954601287841797e+00 -5.714765787124633789e-01 5.996953248977661133e-01 8.465612307190895081e-03 -3.713008761405944824e-01
2.962000000000000000e+03 7.074868774414062500e+01 -9.690380096435546875e+00 -6.733546853065490723e-01 1.505756229162216187e-01 -1.568337231874465942e-01 -5.502019524574279785e-01
2.963000000000000000e+03 6.230318069458007812e+00 -7.135848522186279297e+00 -1.091453284025192261e-01 -3.848355636000633240e-02 -4.428866505622863770e-02 2.078748494386672974e-02
2.964000000000000000e+03 8.967360496520996094e+00 -5.980461120605468750e+00 -1.258030086755752563e-01 -8.454123139381408691e-02 -6.310327351093292236e-02 1.166716311126947403e-02
2.965000000000000000e+03 8.962420463562011719e+00 -5.103565216064453125e+00 -7.203499227762222290e-02 -5.925380438566207886e-02 -3.938663750886917114e-02 2.545351907610893250e-02
2.966000000000000000e+03 1.518875312805175781e+01 -4.939952850341796875e+00 -1.684140712022781372e-01 -2.138492316007614136e-01 -1.146789938211441040e-01 -2.410019934177398682e-01
2.967000000000000000e+03 1.480736064910888672e+01 -6.731879234313964844e+00 -2.632206678390502930e-01 -3.329691588878631592e-01 -1.788569539785385132e-01 -2.539405822753906250e-01
2.968000000000000000e+03 8.062568664550781250e+00 4.782224178314208984e+00 1.021233038045465946e-04 1.473631982662482187e-05 3.505788845359347761e-05 -4.227387762512080371e-05
2.969000000000000000e+03 1.315451526641845703e+01 -5.033125877380371094e+00 -1.380766779184341431e-01 -1.679917126893997192e-01 -9.182051569223403931e-02 -1.235223338007926941e-01
2.970000000000000000e+03 3.813826370239257812e+01 -1.534119224548339844e+01 1.859860539436340332e+00 1.136012792587280273e+00 8.987619876861572266e-01 3.222343325614929199e-01
2.971000000000000000e+03 2.296441078186035156e+01 -4.740010261535644531e+00 -4.695846736431121826e-01 -1.366316527128219604e-01 -1.818649023771286011e-01 -7.685605883598327637e-01
2.972000000000000000e+03 2.008913993835449219e+01 2.422233581542968750e+01 -4.957829788327217102e-02 -6.257924251258373260e-03 -1.675086654722690582e-02 2.136370725929737091e-02
2.973000000000000000e+03 1.700725173950195312e+01 -6.982412338256835938e+00 -3.001891076564788818e-01 -3.998251557350158691e-01 -2.100042849779129028e-01 -4.178209602832794189e-01
2.974000000000000000e+03 4.889754104614257812e+01 -1.259326267242431641e+01 1.376466155052185059e+00 -1.850582808256149292e-01 3.574223518371582031e-01 1.192855238914489746e+00
2.975000000000000000e+03 1.954143142700195312e+01 -4.921667098999023438e+00 -3.311647474765777588e-01 -2.084065079689025879e-01 -1.618713736534118652e-01 -5.336738228797912598e-01
2.976000000000000000e+03 3.749731826782226562e+01 6.596066474914550781e+00 -2.107420237734913826e-03 -1.058232737705111504e-03 -9.496958809904754162e-04 1.111730816774070263e-03
2.977000000000000000e+03 3.593685531616210938e+01 7.303984642028808594e+00 -7.153538754209876060e-04 -1.402410212904214859e-03 -6.353292264975607395e-04 -3.150419797748327255e-04
2.978000000000000000e+03 7.357070922851562500e+01 -2.197764968872070312e+01 -5.518391262739896774e-04 -5.553558585233986378e-04 -3.321584954392164946e-04 -2.062441097905320930e-07
2.979000000000000000e+03 2.814645195007324219e+01 -6.292292594909667969e+00 2.896248102188110352e-01 3.110306560993194580e-01 1.801966428756713867e-01 -9.786604046821594238e-01
2.980000000000000000e+03 1.802549934387207031e+01 -5.597059726715087891e+00 -2.666739523410797119e-01 -2.801406681537628174e-01 -1.640443950891494751e-01 -4.569982886314392090e-01
2.981000000000000000e+03 1.909953498840332031e+01 -5.520200729370117188e+00 -3.013104200363159180e-01 -2.478390336036682129e-01 -1.647448390722274780e-01 -5.180820822715759277e-01
2.982000000000000000e+03 3.630756759643554688e+01 6.279191017150878906e+00 -1.598303904756903648e-03 -9.549839305691421032e-04 -7.659863913431763649e-04 3.741111722774803638e-04
2.983000000000000000e+03 2.132248878479003906e+01 -4.345319271087646484e+00 -4.372156560420989990e-01 -1.239872649312019348e-01 -1.683608740568161011e-01 -6.122218966484069824e-01
2.984000000000000000e+03 3.773687839508056641e+00 4.734309673309326172e+00 2.461487565597053617e-05 -6.021880835760384798e-05 -1.068117944669211283e-05 3.307685256004333496e-05
2.985000000000000000e+03 4.239381408691406250e+01 -7.850776195526123047e+00 -1.262649655342102051e+00 8.244023323059082031e-01 -1.314742118120193481e-01 2.922170460224151611e-01
2.986000000000000000e+03 4.164498138427734375e+01 -1.981820297241210938e+01 -4.663453400135040283e-01 3.057703018188476562e+00 7.774072885513305664e-01 3.290615975856781006e-01
2.987000000000000000e+03 7.363656616210937500e+01 -1.000935649871826172e+01 -3.705335557460784912e-01 -3.784080967307090759e-02 -1.225123107433319092e-01 -4.540337920188903809e-01
2.988000000000000000e+03 7.484618377685546875e+01 -1.143266963958740234e+01 -2.199845314025878906e-01 -6.067496910691261292e-02 -8.419784903526306152e-02 -2.704626917839050293e-01
2.989000000000000000e+03 5.028555679321289062e+01 -1.213464069366455078e+01 7.372270822525024414e-01 3.888082131743431091e-02 2.328323721885681152e-01 1.404308319091796875e+00
2.990000000000000000e+03 5.218552780151367188e+01 -1.149488353729248047e+01 1.934116153279319406e-04 3.972625136375427246e-01 1.192367747426033020e-01 1.511518716812133789e+00
2.991000000000000000e+03 7.109958648681640625e+01 -1.040329551696777344e+01 -6.624231934547424316e-01 1.535541713237762451e-01 -1.526607125997543335e-01 -5.099375247955322266e-01
2.992000000000000000e+03 7.111542510986328125e+01 -1.109909534454345703e+01 -6.344109177589416504e-01 1.566467136144638062e-01 -1.433292478322982788e-01 -3.394857347011566162e-01
2.993000000000000000e+03 3.986100769042968750e+01 -1.917559814453125000e+01 -2.641581594944000244e-01 2.990960597991943359e+00 8.180407285690307617e-01 1.199620485305786133e+00
2.994000000000000000e+03 6.725154113769531250e+01 -7.464707374572753906e+00 -6.305907964706420898e-01 2.112428247928619385e-01 -1.258043944835662842e-01 -7.322715520858764648e-01
2.995000000000000000e+03 6.642131805419921875e+01 -8.331743240356445312e+00 -7.332885265350341797e-01 1.131410747766494751e-01 -1.860442310571670532e-01 -6.530352234840393066e-01
2.996000000000000000e+03 2.577125549316406250e+01 -6.164578437805175781e+00 3.458682447671890259e-02 -2.185073792934417725e-01 -5.517616495490074158e-02 -8.611856698989868164e-01
2.997000000000000000e+03 2.760323333740234375e+01 -6.019862174987792969e+00 2.538253962993621826e-01 1.293465495109558105e-01 1.149515807628631592e-01 -1.044768929481506348e+00
2.998000000000000000e+03 2.708082580566406250e+01 -5.653547763824462891e+00 -2.525403164327144623e-02 -1.043166872113943100e-02 -1.070571038872003555e-02 -9.943142533302307129e-01
2.999000000000000000e+03 7.331404876708984375e+01 -1.066559219360351562e+01 -3.640818595886230469e-01 -3.177122678607702255e-03 -1.101776957511901855e-01 -3.864031434059143066e-01
3.000000000000000000e+03 6.148040771484375000e+00 1.758222007751464844e+01 -8.263373165391385555e-04 -7.451635901816189289e-04 -4.714502720162272453e-04 -9.070144733414053917e-05
3.001000000000000000e+03 6.042062759399414062e+00 1.376490592956542969e+01 1.411583216395229101e-04 -4.390414105728268623e-04 -8.936492667999118567e-05 -7.929413550300523639e-05
3.002000000000000000e+03 1.386221313476562500e+01 -8.808936119079589844e+00 -3.914416134357452393e-01 -4.165289402008056641e-01 -2.423911690711975098e-01 -2.139436304569244385e-01
3.003000000000000000e+03 4.245753860473632812e+01 -1.942977523803710938e+01 -4.432873725891113281e-01 2.996623516082763672e+00 7.660008668899536133e-01 -1.218320280313491821e-01
3.004000000000000000e+03 1.533911895751953125e+01 -6.030390262603759766e+00 -2.286935448646545410e-01 -2.970333099365234375e-01 -1.577180474996566772e-01 -2.733447849750518799e-01
3.005000000000000000e+03 1.868693923950195312e+01 -7.760168075561523438e+00 -3.728740513324737549e-01 -3.959502577781677246e-01 -2.306472957134246826e-01 -5.343355536460876465e-01
3.006000000000000000e+03 6.942138671875000000e+01 -9.686967849731445312e+00 -8.487414121627807617e-01 1.983880549669265747e-01 -1.951059997081756592e-01 -5.795289278030395508e-01
3.007000000000000000e+03 5.010882186889648438e+01 -1.038538551330566406e+01 2.431537061929702759e-01 5.852806195616722107e-02 9.050452709197998047e-02 1.914398908615112305e+00
3.008000000000000000e+03 1.105889034271240234e+01 4.763939380645751953e+00 5.628123108181171119e-05 4.287484262022189796e-05 2.974682138301432133e-05 5.551452431973302737e-06
3.009000000000000000e+03 6.437561988830566406e+00 2.612060546875000000e+01 -3.806520719081163406e-03 -3.163329092785716057e-03 -2.090954920276999474e-03 5.583900492638349533e-03
3.010000000000000000e+03 3.716367721557617188e+01 9.427755355834960938e+00 -3.463859902694821358e-03 5.350953433662652969e-04 -8.786293910816311836e-04 -3.003932361025363207e-04
3.011000000000000000e+03 3.566117858886718750e+01 9.452275276184082031e+00 -2.510827733203768730e-03 -7.220431580208241940e-04 -9.698612848296761513e-04 6.362504209391772747e-04
3.012000000000000000e+03 4.280959701538085938e+01 -1.174161815643310547e+01 1.456616044044494629e+00 3.726489305496215820e+00 1.554931521415710449e+00 1.133157491683959961e+00
3.013000000000000000e+03 7.466505432128906250e+01 -2.315355110168457031e+01 -4.483953525777906179e-04 -3.366871096659451723e-04 -2.355247415835037827e-04 -6.267285061767324805e-05
3.014000000000000000e+03 3.820513916015625000e+01 -1.067514610290527344e+01 1.165943503379821777e+00 9.258221387863159180e-01 6.275296807289123535e-01 -1.673688888549804688e+00
3.015000000000000000e+03 3.809351730346679688e+01 1.423427963256835938e+01 -3.682410344481468201e-02 1.542290206998586655e-02 -6.420359946787357330e-03 3.256010822951793671e-03
3.016000000000000000e+03 3.378154373168945312e+01 -6.379896640777587891e+00 -5.106531456112861633e-02 5.505486726760864258e-01 1.498450040817260742e-01 -2.801115512847900391e-01
3.017000000000000000e+03 3.809389495849609375e+01 -5.527951240539550781e+00 -1.738948225975036621e+00 7.287940979003906250e-01 -3.030462265014648438e-01 -1.280754953622817993e-01
3.018000000000000000e+03 6.721688747406005859e+00 -5.654290199279785156e+00 -6.485808640718460083e-02 -2.863503433763980865e-02 -2.804793603718280792e-02 4.811150580644607544e-02
3.019000000000000000e+03 1.154836750030517578e+01 -2.049103736877441406e+01 1.770888119935989380e-01 -3.030721545219421387e-01 -3.779500350356101990e-02 -5.169957876205444336e-01
3.020000000000000000e+03 7.150687694549560547e+00 -7.505893707275390625e+00 -1.460193991661071777e-01 -6.159296631813049316e-02 -6.228370964527130127e-02 1.482616062276065350e-03
3.021000000000000000e+03 3.642751312255859375e+01 1.172580718994140625e+01 -1.276500057429075241e-02 -2.107129112118855119e-04 -3.892713924869894981e-03 4.138106945902109146e-03
3.022000000000000000e+03 3.731341552734375000e+01 1.113383197784423828e+01 -1.109824795275926590e-02 -9.996609296649694443e-04 -3.629372688010334969e-03 2.682410646229982376e-03
3.023000000000000000e+03 5.578912258148193359e+00 2.699473953247070312e+01 -2.179122762754559517e-03 -4.148442763835191727e-03 -1.898269634693861008e-03 5.426552612334489822e-03
3.024000000000000000e+03 5.848829269409179688e+01 -6.297804355621337891e+00 -2.289976626634597778e-01 1.324895977973937988e+00 3.287694752216339111e-01 6.987732648849487305e-01
3.025000000000000000e+03 5.123363113403320312e+01 -1.184469318389892578e+01 3.730747997760772705e-01 1.688978523015975952e-01 1.625917851924896240e-01 1.461955428123474121e+00
3.026000000000000000e+03 4.140108871459960938e+01 -1.082903099060058594e+01 6.756865978240966797e-01 2.763431072235107422e+00 1.031735301017761230e+00 -5.300093889236450195e-01
3.027000000000000000e+03 4.038355255126953125e+01 -9.530594825744628906e+00 4.285334795713424683e-02 1.610414743423461914e+00 4.959804117679595947e-01 -9.065361022949218750e-01
3.028000000000000000e+03 7.353759002685546875e+01 -2.125091934204101562e+01 -4.358363003120757639e-05 -5.919947288930416107e-04 -1.906734978547319770e-04 -1.903101510833948851e-04
3.029000000000000000e+03 4.378934097290039062e+01 -8.417935371398925781e+00 -8.102974295616149902e-01 6.549472212791442871e-01 -4.660506173968315125e-02 1.001524925231933594e+00
3.030000000000000000e+03 7.470938110351562500e+01 -2.882457256317138672e+00 -2.865704335272312164e-02 -5.970311164855957031e-01 -1.877064406871795654e-01 -7.700901627540588379e-01
3.031000000000000000e+03 7.467639160156250000e+01 -1.649558782577514648e+00 3.881153650581836700e-03 -6.715694069862365723e-01 -2.003064751625061035e-01 -7.724124789237976074e-01
3.032000000000000000e+03 6.019079208374023438e+00 1.525957489013671875e+01 2.601433370728045702e-04 -6.420182180590927601e-04 -1.145624628406949341e-04 -1.195049044326879084e-04
3.033000000000000000e+03 6.433256149291992188e+00 1.665600585937500000e+01 8.162228186847642064e-05 -7.849092362448573112e-04 -2.109860797645524144e-04 -1.730497315293177962e-04
3.034000000000000000e+03 6.745868206024169922e+00 -1.019612598419189453e+01 -2.036265581846237183e-01 -9.037451446056365967e-02 -8.820031583309173584e-02 -1.006703451275825500e-01
3.035000000000000000e+03 5.920892715454101562e+00 -1.244800949096679688e+01 -1.853126585483551025e-01 -1.106906011700630188e-01 -8.880098164081573486e-02 -1.968691498041152954e-01
3.036000000000000000e+03 8.802884101867675781e+00 5.436960220336914062e+00 1.099107903428375721e-04 7.288874712685355917e-06 3.515989737934432924e-05 -2.507546014385297894e-05
3.037000000000000000e+03 4.009593963623046875e+01 1.611058044433593750e+01 -6.188953667879104614e-02 2.986876107752323151e-02 -9.606232866644859314e-03 -9.312584297731518745e-04
3.038000000000000000e+03 4.763594150543212891e+00 9.595136642456054688e+00 7.344460755120962858e-05 -1.493076997576281428e-04 -2.275892620673403144e-05 -2.823477734636981040e-05
3.039000000000000000e+03 7.259158325195312500e+01 -2.288391113281250000e+01 -7.442740607075393200e-04 -5.418490618467330933e-04 -3.858369309455156326e-04 3.638283669715747237e-05
3.040000000000000000e+03 4.025106430053710938e+01 -6.239450931549072266e+00 -1.998359918594360352e+00 5.724001526832580566e-01 -4.277879297733306885e-01 -2.208066731691360474e-01
3.041000000000000000e+03 6.875479888916015625e+01 -1.049465465545654297e+01 -9.834140539169311523e-01 2.191360592842102051e-01 -2.292834073305130005e-01 -5.568747520446777344e-01
3.042000000000000000e+03 1.861946678161621094e+01 -6.076843738555908203e+00 -3.060854375362396240e-01 -2.970322668552398682e-01 -1.809353083372116089e-01 -5.112029314041137695e-01
3.043000000000000000e+03 6.620378494262695312e+00 2.318547630310058594e+01 -2.624162239953875542e-03 -1.590471947565674782e-03 -1.264390302821993828e-03 2.663389779627323151e-03
3.044000000000000000e+03 5.236865520477294922e+00 2.207998466491699219e+01 -1.320017385296523571e-03 -1.155916717834770679e-03 -7.427802192978560925e-04 1.446880050934851170e-03
3.045000000000000000e+03 5.813522720336914062e+01 -8.039982795715332031e+00 -6.047310829162597656e-01 1.120010614395141602e+00 1.545838713645935059e-01 7.195805311203002930e-01
3.046000000000000000e+03 5.683355712890625000e+01 -8.950833320617675781e+00 -7.157301902770996094e-01 1.113092064857482910e+00 1.192085742950439453e-01 8.844720721244812012e-01
3.047000000000000000e+03 6.733106231689453125e+01 1.052562046051025391e+01 6.798027157783508301e-01 2.423696517944335938e+00 9.310498237609863281e-01 -6.851645559072494507e-02
3.048000000000000000e+03 5.294769763946533203e+00 6.148467540740966797e+00 -2.667097942321561277e-05 1.026200061460258439e-05 -4.922693278786027804e-06 -1.296987611567601562e-04
3.049000000000000000e+03 1.436734962463378906e+01 -1.038790225982666016e+01 -5.633037090301513672e-01 -5.524485707283020020e-01 -3.347256779670715332e-01 -2.765359580516815186e-01
3.050000000000000000e+03 1.345585060119628906e+01 -6.954821586608886719e+00 -2.580257356166839600e-01 -2.852284908294677734e-01 -1.629762649536132812e-01 -1.685083508491516113e-01
3.051000000000000000e+03 9.494207382202148438e+00 -1.178589725494384766e+01 -3.843028545379638672e-01 -1.942313313484191895e-01 -1.735602468252182007e-01 -2.247026115655899048e-01
3.052000000000000000e+03 4.537651443481445312e+01 -9.007029533386230469e+00 -2.632029056549072266e-01 1.563368737697601318e-01 -3.205981105566024780e-02 1.634228348731994629e+00
3.053000000000000000e+03 4.754611206054687500e+01 -9.830904006958007812e+00 4.088195860385894775e-01 -3.014436960220336914e-01 3.221277147531509399e-02 1.982494354248046875e+00
3.054000000000000000e+03 6.400370025634765625e+01 -7.011608600616455078e+00 -4.771182835102081299e-01 3.081707656383514404e-01 -5.068425834178924561e-02 -2.662134468555450439e-01
3.055000000000000000e+03 9.527437210083007812e+00 -1.930554008483886719e+01 8.471116423606872559e-03 -3.634825944900512695e-01 -1.065034419298171997e-01 -5.582301020622253418e-01
3.056000000000000000e+03 3.795197677612304688e+01 -9.718180656433105469e+00 7.508334517478942871e-01 7.681990265846252441e-01 4.557097554206848145e-01 -1.503526806831359863e+00
3.057000000000000000e+03 4.909525871276855469e+00 1.061935806274414062e+01 2.379711077082902193e-04 -5.881945617147721350e-05 5.374549436965025961e-05 -2.815513580571860075e-04
3.058000000000000000e+03 6.934193611145019531e+00 1.324477195739746094e+01 2.833279140759259462e-04 -4.612854099832475185e-04 -5.338724804460071027e-05 -2.376636548433452845e-04
3.059000000000000000e+03 7.460169219970703125e+01 -9.239908218383789062e+00 -2.753666043281555176e-01 -1.390754580497741699e-01 -1.243326142430305481e-01 -4.790424704551696777e-01
3.060000000000000000e+03 8.857396125793457031e+00 -1.797422409057617188e+01 -1.168159991502761841e-01 -3.192055821418762207e-01 -1.308064758777618408e-01 -5.357097387313842773e-01
3.061000000000000000e+03 7.436778259277343750e+01 -6.827678203582763672e+00 -2.087324559688568115e-01 -2.688072025775909424e-01 -1.432618945837020874e-01 -6.642569303512573242e-01
3.062000000000000000e+03 6.802250671386718750e+01 -9.861081123352050781e+00 -1.042668581008911133e+00 1.689276397228240967e-01 -2.621223032474517822e-01 -5.774710774421691895e-01
3.063000000000000000e+03 6.875936126708984375e+01 -8.992163658142089844e+00 -8.106315135955810547e-01 2.003363519906997681e-01 -1.830885559320449829e-01 -7.376787662506103516e-01
3.064000000000000000e+03 7.385582733154296875e+01 -2.393476104736328125e+01 -1.303548924624919891e-03 -7.273152004927396774e-04 -6.092592375352978706e-04 4.750906373374164104e-04
3.065000000000000000e+03 4.978513717651367188e+00 1.960694122314453125e+01 -4.465235106181353331e-04 -6.480887532234191895e-04 -3.283836704213172197e-04 2.213298139395192266e-04
3.066000000000000000e+03 3.943370437622070312e+01 -1.237592506408691406e+01 2.319518566131591797e+00 2.012304306030273438e+00 1.299546957015991211e+00 -1.710291028022766113e+00
3.067000000000000000e+03 3.808296966552734375e+01 -3.624629020690917969e+00 -2.413026094436645508e+00 7.352926135063171387e-01 -5.033200383186340332e-01 3.813841044902801514e-01
3.068000000000000000e+03 7.456940460205078125e+01 -4.123377323150634766e+00 -9.226548671722412109e-02 -4.889393448829650879e-01 -1.743614524602890015e-01 -7.509019970893859863e-01
3.069000000000000000e+03 4.552387619018554688e+01 2.294363975524902344e+01 -3.329168306663632393e-03 3.803718835115432739e-02 1.041240617632865906e-02 -1.079995464533567429e-02
3.070000000000000000e+03 6.098809432983398438e+01 -8.245404362678527832e-01 6.657627820968627930e-01 2.070386409759521484e+00 8.208447694778442383e-01 7.872677445411682129e-01
3.071000000000000000e+03 7.259953308105468750e+01 -2.679805183410644531e+01 -3.225795226171612740e-03 -8.977318066172301769e-05 -9.946705540642142296e-04 1.501493970863521099e-03
3.072000000000000000e+03 6.485668945312500000e+01 8.798048973083496094e+00 7.019330859184265137e-01 3.756736516952514648e+00 1.337600827217102051e+00 2.965728044509887695e-01
3.073000000000000000e+03 7.365676116943359375e+01 -2.288206291198730469e+01 -5.616453709080815315e-04 -4.194339853711426258e-04 -2.943238068837672472e-04 8.470279135508462787e-05
3.074000000000000000e+03 3.979894638061523438e+01 -2.823276519775390625e+01 1.737483590841293335e-01 1.408147096633911133e+00 4.745686352252960205e-01 2.564710974693298340e-01
3.075000000000000000e+03 4.403607559204101562e+01 -2.998730468750000000e+01 -3.642071783542633057e-02 1.060535073280334473e+00 3.072342872619628906e-01 -5.038577318191528320e-02
3.076000000000000000e+03 4.061088562011718750e+00 3.421290206909179688e+01 1.291265652980655432e-04 -1.157903764396905899e-02 -3.434973303228616714e-03 5.574775394052267075e-03
3.077000000000000000e+03 7.553747558593750000e+01 1.806559181213378906e+01 1.653130650520324707e-01 -1.627152919769287109e+00 -4.385519325733184814e-01 3.400923609733581543e-01
3.078000000000000000e+03 3.910766220092773438e+01 -2.618617248535156250e+01 3.019966483116149902e-01 1.559605360031127930e+00 5.584805607795715332e-01 4.368609786033630371e-01
3.079000000000000000e+03 3.848949050903320312e+01 -1.233253383636474609e+01 2.103148221969604492e+00 1.091942787170410156e+00 9.585272669792175293e-01 -1.597585201263427734e+00
3.080000000000000000e+03 1.885334014892578125e+01 -7.030125617980957031e+00 -3.387369811534881592e-01 -3.452490270137786865e-01 -2.051957994699478149e-01 -5.378257632255554199e-01
3.081000000000000000e+03 1.585568141937255859e+01 -5.346597671508789062e+00 -2.085971832275390625e-01 -2.610782086849212646e-01 -1.409026086330413818e-01 -2.945911586284637451e-01
3.082000000000000000e+03 7.431174468994140625e+01 1.542190170288085938e+01 2.841117978096008301e-01 -1.127570986747741699e+00 -2.530377805233001709e-01 1.456761509180068970e-01
3.083000000000000000e+03 5.981073856353759766e+00 -2.433868598937988281e+01 1.067883297801017761e-01 -5.757366418838500977e-01 -1.406845003366470337e-01 -3.286421298980712891e-01
3.084000000000000000e+03 6.921853065490722656e+00 -2.289105033874511719e+01 1.227119714021682739e-01 -4.879804551601409912e-01 -1.095805466175079346e-01 -4.050013124942779541e-01
3.085000000000000000e+03 4.467913055419921875e+01 -8.667568206787109375e+00 -5.601549744606018066e-01 4.224964976310729980e-01 -4.129754751920700073e-02 1.412655115127563477e+00
3.086000000000000000e+03 6.708811950683593750e+01 1.555031967163085938e+01 8.738111853599548340e-01 2.628534793853759766e+00 1.050703763961791992e+00 -4.548561573028564453e-02
3.087000000000000000e+03 7.356956481933593750e+01 9.391953468322753906e+00 3.089286088943481445e-01 -6.748585700988769531e-01 -1.097789779305458069e-01 -3.497716784477233887e-01
3.088000000000000000e+03 6.839295387268066406e+00 -1.884786605834960938e+01 -3.503492847084999084e-02 -3.584600090980529785e-01 -1.180484816431999207e-01 -4.701053202152252197e-01
3.089000000000000000e+03 4.046943664550781250e+01 -2.002937316894531250e+01 -3.759269118309020996e-01 2.879944562911987305e+00 7.512052655220031738e-01 8.723755478858947754e-01
3.090000000000000000e+03 7.400917816162109375e+01 2.185213470458984375e+01 1.430278569459915161e-01 -7.966029047966003418e-01 -1.960725039243698120e-01 6.030484437942504883e-01
3.091000000000000000e+03 7.542630767822265625e+01 2.075560188293457031e+01 1.106812879443168640e-01 -1.425644874572753906e+00 -3.944890797138214111e-01 4.797899723052978516e-01
3.092000000000000000e+03 7.450449371337890625e+01 2.313295364379882812e+00 1.171830669045448303e-01 -8.925244808197021484e-01 -2.326024174690246582e-01 -7.181144356727600098e-01
3.093000000000000000e+03 4.677456665039062500e+01 -9.306775093078613281e+00 9.147675335407257080e-02 -1.912899613380432129e-01 -2.994396165013313293e-02 1.898613333702087402e+00
3.094000000000000000e+03 4.914399337768554688e+01 -1.194686698913574219e+01 1.088349342346191406e+00 -1.482121050357818604e-01 2.820411622524261475e-01 1.469301939010620117e+00
3.095000000000000000e+03 6.707888793945312500e+01 1.232743835449218750e+01 7.087535858154296875e-01 2.705737590789794922e+00 1.024347424507141113e+00 -4.434520006179809570e-02
3.096000000000000000e+03 7.428287506103515625e+01 -2.636762237548828125e+01 -2.136576222255825996e-03 -5.837189964950084686e-04 -8.160885772667825222e-04 1.508890185505151749e-03
3.097000000000000000e+03 6.681584167480468750e+01 2.176763534545898438e+01 5.503674149513244629e-01 2.065326929092407227e+00 7.847083210945129395e-01 4.505935013294219971e-01
3.098000000000000000e+03 1.078954219818115234e+01 -2.478518867492675781e+01 3.025104403495788574e-01 -3.008872866630554199e-01 4.869536787737160921e-04 -3.427941203117370605e-01
3.099000000000000000e+03 5.488847255706787109e+00 -2.614766120910644531e+01 1.110918596386909485e-01 -6.352768540382385254e-01 -1.572555005550384521e-01 -2.596341669559478760e-01
3.100000000000000000e+03 5.543372344970703125e+01 2.845805740356445312e+01 1.070245727896690369e-01 7.876044511795043945e-01 2.683887183666229248e-01 -6.354813575744628906e-01
3.101000000000000000e+03 7.398354339599609375e+01 2.970175361633300781e+01 -1.222915798425674438e-01 -4.633055925369262695e-01 -1.756791472434997559e-01 5.819263458251953125e-01
3.102000000000000000e+03 1.090863418579101562e+01 -1.189913082122802734e+01 -4.738484919071197510e-01 -2.647011280059814453e-01 -2.215648889541625977e-01 -2.519813477993011475e-01
3.103000000000000000e+03 6.576524353027343750e+01 3.769699335098266602e+00 6.179559826850891113e-01 2.137811660766601562e+00 8.267302513122558594e-01 -8.779224753379821777e-02
3.104000000000000000e+03 6.503208160400390625e+01 5.030844211578369141e+00 6.772637367248535156e-01 2.583480596542358398e+00 9.782233238220214844e-01 1.320204883813858032e-01
3.105000000000000000e+03 6.230823898315429688e+01 2.964368343353271484e+00 8.102520108222961426e-01 2.985835790634155273e+00 1.138826370239257812e+00 8.083994388580322266e-01
3.106000000000000000e+03 1.266467380523681641e+01 -2.759739494323730469e+01 3.098888993263244629e-01 -9.117070585489273071e-02 6.561546027660369873e-02 -2.377008348703384399e-01
3.107000000000000000e+03 6.237647533416748047e+00 -1.128005981445312500e+01 -2.027951776981353760e-01 -9.233120083808898926e-02 -8.853791654109954834e-02 -1.440156102180480957e-01
3.108000000000000000e+03 6.140788555145263672e+00 -8.898447036743164062e+00 -1.488354802131652832e-01 -5.150258168578147888e-02 -6.010141596198081970e-02 -3.276786580681800842e-02
3.109000000000000000e+03 6.690969467163085938e+00 1.456242084503173828e+01 4.532932871370576322e-05 -5.215202108956873417e-04 -1.428572577424347401e-04 -3.603171498980373144e-04
3.110000000000000000e+03 5.011132717132568359e+00 1.841612243652343750e+01 -9.132184204645454884e-04 -5.252925911918282509e-04 -4.315533151384443045e-04 -4.588572846841998398e-05
3.111000000000000000e+03 6.617851257324218750e+01 7.936274051666259766e+00 6.891425251960754395e-01 2.712508916854858398e+00 1.020495414733886719e+00 -1.557168457657098770e-02
3.112000000000000000e+03 6.082395935058593750e+01 2.295467948913574219e+01 6.143869161605834961e-01 2.920540094375610352e+00 1.060478091239929199e+00 -1.033082127571105957e+00
3.113000000000000000e+03 6.002841949462890625e+01 2.635452461242675781e+01 3.082302212715148926e-02 1.868658900260925293e+00 5.698445439338684082e-01 -7.563010454177856445e-01
3.114000000000000000e+03 7.303870391845703125e+01 -5.005462169647216797e+00 -1.705456823110580444e-01 -2.269799560308456421e-01 -1.192576959729194641e-01 -8.094316720962524414e-01
3.115000000000000000e+03 7.439624023437500000e+01 1.015254616737365723e+00 8.126447349786758423e-02 -7.872605323791503906e-01 -2.117988169193267822e-01 -7.541722059249877930e-01
3.116000000000000000e+03 7.262869262695312500e+01 2.587169706821441650e-01 1.023863777518272400e-01 -3.068722486495971680e-01 -6.134576350450515747e-02 -8.368201255798339844e-01
3.117000000000000000e+03 7.325396728515625000e+01 -3.044483757019042969e+01 -4.756808280944824219e-03 -1.084820949472486973e-03 -1.752488780766725540e-03 5.883861333131790161e-03
3.118000000000000000e+03 5.559514999389648438e+01 -8.764982223510742188e+00 -6.661919951438903809e-01 1.201569437980651855e+00 1.606132239103317261e-01 1.156351923942565918e+00
3.119000000000000000e+03 7.572638988494873047e+00 3.254806900024414062e+01 5.942361312918365002e-04 -1.036597695201635361e-02 -2.931522438302636147e-03 9.642304852604866028e-03
3.120000000000000000e+03 7.292420196533203125e+01 -3.191036987304687500e+01 -3.554756520316004753e-03 -2.025568857789039612e-03 -1.674097729846835136e-03 8.057950995862483978e-03
3.121000000000000000e+03 5.137794971466064453e+00 2.816608428955078125e+01 -1.551813678815960884e-03 -5.095686297863721848e-03 -1.994249876588582993e-03 5.790854804217815399e-03
3.122000000000000000e+03 7.844448089599609375e+00 -1.410650062561035156e+01 -2.803463339805603027e-01 -1.882224678993225098e-01 -1.405706405639648438e-01 -3.411200642585754395e-01
3.123000000000000000e+03 2.855821418762207031e+01 -2.991966962814331055e+00 -1.672794103622436523e+00 1.022714599967002869e-01 -4.711568057537078857e-01 -6.271478533744812012e-01
3.124000000000000000e+03 2.779832267761230469e+01 -2.940347909927368164e+00 -1.542433857917785645e+00 -4.310331121087074280e-02 -4.756611585617065430e-01 -6.751285195350646973e-01
3.125000000000000000e+03 2.843602752685546875e+01 -3.348146438598632812e+00 -1.421439886093139648e+00 9.684238582849502563e-02 -3.973792493343353271e-01 -7.045325636863708496e-01
3.126000000000000000e+03 3.146259117126464844e+01 -4.344264984130859375e+00 -1.129224538803100586e+00 4.509976506233215332e-01 -2.034680545330047607e-01 -4.236791729927062988e-01
3.127000000000000000e+03 2.729614830017089844e+01 -2.838635206222534180e+00 -1.539002537727355957e+00 -1.138443350791931152e-01 -4.958540797233581543e-01 -6.821643114089965820e-01
3.128000000000000000e+03 4.239677810668945312e+01 -1.822930717468261719e+01 -4.521103501319885254e-01 3.761436462402343750e+00 9.927977919578552246e-01 -2.421782463788986206e-01
3.129000000000000000e+03 4.511042404174804688e+01 -1.333947277069091797e+01 3.667173624038696289e+00 7.035864144563674927e-02 1.121259689331054688e+00 1.350476145744323730e+00
3.130000000000000000e+03 4.294036102294921875e+01 -1.756449127197265625e+01 -1.511137783527374268e-01 3.542783737182617188e+00 1.017500996589660645e+00 -8.376033902168273926e-01
3.131000000000000000e+03 4.537641525268554688e+01 -1.370677852630615234e+01 3.595947980880737305e+00 -2.306251823902130127e-01 1.009596824645996094e+00 9.232159256935119629e-01
3.132000000000000000e+03 1.315256500244140625e+01 1.525663566589355469e+01 -1.394926366629078984e-04 6.544605130329728127e-04 1.544903643662109971e-04 4.859097534790635109e-04
3.133000000000000000e+03 2.640547561645507812e+01 -4.198565959930419922e+00 -6.992433071136474609e-01 -1.097319722175598145e-01 -2.426925897598266602e-01 -9.648399353027343750e-01
3.134000000000000000e+03 2.810751914978027344e+01 -3.145095109939575195e+00 -1.509636402130126953e+00 2.682930976152420044e-02 -4.448421299457550049e-01 -6.787329316139221191e-01
3.135000000000000000e+03 3.365842056274414062e+01 1.610477828979492188e+01 -3.024427406489849091e-02 -9.346506558358669281e-03 -1.187723409384489059e-02 2.829601056873798370e-02
3.136000000000000000e+03 1.286748027801513672e+01 1.725907325744628906e+01 -1.690648641670122743e-04 1.691131328698247671e-04 1.448170916518165541e-08 5.264979554340243340e-04
3.137000000000000000e+03 1.152188110351562500e+01 1.700842475891113281e+01 -3.360713017173111439e-04 -8.124972227960824966e-04 -3.445705515332520008e-04 4.719487333204597235e-04
3.138000000000000000e+03 4.504829788208007812e+01 -1.224095916748046875e+01 2.675682306289672852e+00 7.160829305648803711e-01 1.017529606819152832e+00 1.902302503585815430e+00
3.139000000000000000e+03 4.112584686279296875e+01 -1.789058876037597656e+01 -2.296535372734069824e-01 4.286955833435058594e+00 1.217190742492675781e+00 9.082375168800354004e-01
3.140000000000000000e+03 1.300264930725097656e+01 1.331265735626220703e+01 -2.622042484290432185e-05 2.017414808506146073e-04 5.265631989459507167e-05 4.684384621214121580e-04
3.141000000000000000e+03 2.998751831054687500e+01 -2.910115003585815430e+00 -1.943726539611816406e+00 2.864919006824493408e-01 -4.971703886985778809e-01 -4.816955626010894775e-01
3.142000000000000000e+03 2.896908569335937500e+01 -2.720925569534301758e+00 -1.900471687316894531e+00 1.443029195070266724e-01 -5.268506407737731934e-01 -5.356376171112060547e-01
3.143000000000000000e+03 2.009870910644531250e+01 2.480460548400878906e+01 -4.340992867946624756e-02 -9.277327917516231537e-03 -1.580617576837539673e-02 2.477632835507392883e-02
3.144000000000000000e+03 3.428602218627929688e+01 1.091114139556884766e+01 -1.725987764075398445e-03 -2.534087048843502998e-03 -1.278022420592606068e-03 2.350523136556148529e-03
3.145000000000000000e+03 3.313908004760742188e+01 1.443363475799560547e+01 -1.479567959904670715e-02 -9.074551984667778015e-03 -7.161069661378860474e-03 1.621698588132858276e-02
3.146000000000000000e+03 1.747586822509765625e+01 5.451420783996582031e+00 -3.553360147634521127e-05 1.060606609826209024e-05 -7.478260613424936309e-06 -4.335584435466444120e-06
3.147000000000000000e+03 3.491473007202148438e+01 1.054471302032470703e+01 -2.481527393683791161e-03 -3.070597769692540169e-03 -1.665637595579028130e-03 1.715033315122127533e-03
3.148000000000000000e+03 3.464672851562500000e+01 1.271601009368896484e+01 -1.276378892362117767e-02 -1.987381605431437492e-03 -4.425351042300462723e-03 9.027674794197082520e-03
3.149000000000000000e+03 3.574257278442382812e+01 1.149989604949951172e+01 -8.060500025749206543e-03 1.036498928442597389e-03 -2.107200212776660919e-03 2.692832145839929581e-03
3.150000000000000000e+03 3.384141921997070312e+01 1.660537528991699219e+01 -4.223903641104698181e-02 -3.816445823758840561e-03 -1.381664443761110306e-02 3.419566154479980469e-02
3.151000000000000000e+03 3.307929229736328125e+01 1.665670776367187500e+01 -3.462180495262145996e-02 -1.350718829780817032e-02 -1.443869806826114655e-02 3.244547918438911438e-02
3.152000000000000000e+03 3.636445236206054688e+01 9.414804458618164062e+00 -7.702834554947912693e-04 -2.888490445911884308e-03 -1.097632222808897495e-03 1.440080523025244474e-04
3.153000000000000000e+03 4.553215408325195312e+01 -1.304912471771240234e+01 3.194270133972167969e+00 -3.537179157137870789e-02 9.476694464683532715e-01 1.379955530166625977e+00
3.154000000000000000e+03 4.529173278808593750e+01 -1.263936233520507812e+01 2.980445384979248047e+00 2.831691205501556396e-01 9.790843129158020020e-01 1.671187043190002441e+00
3.155000000000000000e+03 1.487611007690429688e+01 8.451200485229492188e+00 5.541673453990370035e-05 1.390279940096661448e-04 5.833341856487095356e-05 2.193540422013029456e-05
3.156000000000000000e+03 1.440025615692138672e+01 1.061006069183349609e+01 1.109556033043190837e-04 2.204820048063993454e-04 9.943128679879009724e-05 1.174403514596633613e-04
3.157000000000000000e+03 1.722358894348144531e+01 7.374270439147949219e+00 1.804930434445850551e-05 4.544535840977914631e-06 6.778152055630926043e-06 -4.376416836748830974e-05
3.158000000000000000e+03 1.649514770507812500e+01 7.543694496154785156e+00 -4.777567028213525191e-06 6.571502308361232281e-05 1.828123640734702349e-05 -4.491091749514453113e-05
3.159000000000000000e+03 1.885968780517578125e+01 4.709388256072998047e+00 -4.722543962998315692e-05 3.816467142314650118e-06 -1.302269083680585027e-05 -1.503665771451778710e-05
3.160000000000000000e+03 1.868943405151367188e+01 5.511563301086425781e+00 -5.686492841050494462e-06 3.378141263965517282e-05 8.428475666732992977e-06 8.162214726326055825e-06
3.161000000000000000e+03 3.364852523803710938e+01 1.725903129577636719e+01 -4.899553209543228149e-02 -3.693723119795322418e-03 -1.580677740275859833e-02 3.613937646150588989e-02
3.162000000000000000e+03 3.503886032104492188e+01 7.858686447143554688e+00 1.405613613314926624e-03 5.055219517089426517e-04 5.733406869694590569e-04 -1.083743991330265999e-03
3.163000000000000000e+03 3.512503433227539062e+01 6.940011024475097656e+00 -8.936193771660327911e-04 -7.816120632924139500e-04 -5.025694263167679310e-04 -1.226885127834975719e-03
3.164000000000000000e+03 1.332035827636718750e+01 2.079110145568847656e+01 -7.641062606126070023e-03 1.474953140132129192e-03 -1.849832828156650066e-03 -9.261736413463950157e-04
3.165000000000000000e+03 3.255949020385742188e+01 1.723113632202148438e+01 -3.790240362286567688e-02 -2.199759520590305328e-02 -1.796999946236610413e-02 3.775739669799804688e-02
3.166000000000000000e+03 1.197703361511230469e+01 1.586645412445068359e+01 3.709288139361888170e-04 -1.397720770910382271e-04 6.934702105354517698e-05 2.438357769278809428e-04
3.167000000000000000e+03 3.137153816223144531e+01 2.128389549255371094e+01 -8.674555271863937378e-02 -1.987015455961227417e-02 -3.198471292853355408e-02 3.332098573446273804e-02
3.168000000000000000e+03 2.102519035339355469e+01 2.427620697021484375e+01 -5.437299981713294983e-02 -1.097413524985313416e-02 -1.960414089262485504e-02 2.521468326449394226e-02
3.169000000000000000e+03 2.054898452758789062e+01 2.479749870300292969e+01 -4.653064161539077759e-02 -1.056113746017217636e-02 -1.712753437459468842e-02 2.657982520759105682e-02
3.170000000000000000e+03 1.264724540710449219e+01 1.820247840881347656e+01 -7.589997258037328720e-04 1.085962285287678242e-04 -1.951210433617234230e-04 -5.565394531004130840e-05
3.171000000000000000e+03 1.228602313995361328e+01 1.849204635620117188e+01 -1.012907479889690876e-03 -6.032405071891844273e-04 -4.848444077651947737e-04 -2.308049151906743646e-04
3.172000000000000000e+03 1.235408401489257812e+01 1.470650577545166016e+01 1.441397216694895178e-05 2.070976370305288583e-05 1.053712094289949164e-05 6.573329446837306023e-04
3.173000000000000000e+03 1.255487155914306641e+01 1.574596405029296875e+01 -9.427719487575814128e-05 1.268780615646392107e-04 9.780261279956903309e-06 6.824950687587261200e-04
3.174000000000000000e+03 1.696336364746093750e+01 2.331699752807617188e+01 -2.930487878620624542e-02 1.209083246067166328e-03 -8.428738452494144440e-03 7.459465414285659790e-03
3.175000000000000000e+03 1.441967487335205078e+01 9.718769073486328125e+00 -1.099824585253372788e-04 9.263688116334378719e-05 -5.203673026699107140e-06 7.262984581757336855e-05
3.176000000000000000e+03 2.671209335327148438e+01 -3.834263801574707031e+00 -9.202836751937866211e-01 -9.463059157133102417e-02 -3.044742941856384277e-01 -8.988682031631469727e-01
3.177000000000000000e+03 2.668319511413574219e+01 -6.187124252319335938e+00 2.047798484563827515e-01 -1.434765905141830444e-01 1.839097402989864349e-02 -9.288310408592224121e-01
3.178000000000000000e+03 1.663711547851562500e+01 7.988448619842529297e+00 -4.169205203652381897e-05 2.588649294921196997e-05 -4.741667908092495054e-06 3.776155790546908975e-05
3.179000000000000000e+03 1.254673576354980469e+01 1.926035499572753906e+01 -2.166316611692309380e-03 2.557549451012164354e-04 -5.731685087084770203e-04 -5.183516768738627434e-04
3.180000000000000000e+03 1.413484382629394531e+01 2.188642883300781250e+01 -1.421543862670660019e-02 2.334899036213755608e-03 -3.564161946997046471e-03 1.534986775368452072e-03
3.181000000000000000e+03 2.209139633178710938e+01 2.493244361877441406e+01 -4.992394149303436279e-02 -1.754484884440898895e-02 -2.024063654243946075e-02 3.075357899069786072e-02
3.182000000000000000e+03 2.348448944091796875e+01 2.449678993225097656e+01 -6.400959193706512451e-02 -2.169282920658588409e-02 -2.571072615683078766e-02 3.393047675490379333e-02
3.183000000000000000e+03 2.543261528015136719e+01 2.469486236572265625e+01 -5.747566744685173035e-02 -2.931801415979862213e-02 -2.603810466825962067e-02 3.632231429219245911e-02
3.184000000000000000e+03 2.516332054138183594e+01 2.395742225646972656e+01 -7.608922570943832397e-02 -2.528244815766811371e-02 -3.041150048375129700e-02 3.992662951350212097e-02
3.185000000000000000e+03 3.483662033081054688e+01 8.550220489501953125e+00 4.913753364235162735e-04 6.183384684845805168e-04 3.329141472931951284e-04 -9.590664994902908802e-04
3.186000000000000000e+03 3.210160064697265625e+01 1.931752586364746094e+01 -7.076667249202728271e-02 -1.966857351362705231e-02 -2.713057398796081543e-02 4.497461766004562378e-02
3.187000000000000000e+03 3.160086631774902344e+01 2.026516914367675781e+01 -8.282539993524551392e-02 -2.352239564061164856e-02 -3.190433606505393982e-02 4.360894486308097839e-02
3.188000000000000000e+03 3.615069961547851562e+01 8.002200126647949219e+00 1.235372736118733883e-03 -4.987825523130595684e-04 2.209770318586379290e-04 -5.332563887350261211e-04
3.189000000000000000e+03 3.271702957153320312e+01 -4.907188892364501953e+00 -8.068175911903381348e-01 4.522550404071807861e-01 -1.063687652349472046e-01 -1.996437460184097290e-01
3.190000000000000000e+03 3.226521301269531250e+01 -4.092834472656250000e+00 -1.287832140922546387e+00 3.224818110466003418e-01 -2.896051108837127686e-01 -2.588591873645782471e-01
3.191000000000000000e+03 1.220055294036865234e+01 1.297686100006103516e+01 2.242008122266270220e-05 2.159035830118227750e-06 7.373735115834278986e-06 4.725108738057315350e-04
3.192000000000000000e+03 2.410189437866210938e+01 2.415315437316894531e+01 -7.232055068016052246e-02 -2.274713851511478424e-02 -2.852030843496322632e-02 3.601545467972755432e-02
3.193000000000000000e+03 1.261269664764404297e+01 1.875729751586914062e+01 -1.656079897657036781e-03 1.530919835204258561e-04 -4.508963611442595720e-04 -9.973492706194519997e-05
3.194000000000000000e+03 1.223149585723876953e+01 1.785233879089355469e+01 -4.071761504746973515e-04 -5.392524180933833122e-04 -2.839285880327224731e-04 3.113563871011137962e-04
3.195000000000000000e+03 1.341095924377441406e+01 1.147749519348144531e+01 1.002039698505541310e-05 3.110326360911130905e-04 9.631591092329472303e-05 1.201575505547225475e-04
3.196000000000000000e+03 1.679605674743652344e+01 6.990485668182373047e+00 2.405203304078895599e-06 6.132201815489679575e-05 1.911816616484429687e-05 -5.303614670992828906e-05
3.197000000000000000e+03 4.418274307250976562e+01 -1.182762050628662109e+01 2.062168598175048828e+00 1.745569109916687012e+00 1.142321348190307617e+00 1.850619316101074219e+00
3.198000000000000000e+03 4.444833374023437500e+01 -1.218394184112548828e+01 2.581115245819091797e+00 1.459369182586669922e+00 1.212145328521728516e+00 2.003660202026367188e+00
3.199000000000000000e+03 2.835776329040527344e+01 2.355087471008300781e+01 -6.937572360038757324e-02 -4.360549896955490112e-02 -3.389436751604080200e-02 3.918255493044853210e-02
3.200000000000000000e+03 2.150577735900878906e+01 2.433554840087890625e+01 -5.644197016954421997e-02 -1.379564311355352402e-02 -2.107128500938415527e-02 2.746591903269290924e-02
3.201000000000000000e+03 4.743251419067382812e+01 -1.292637252807617188e+01 2.133360862731933594e+00 -3.534892499446868896e-01 5.339615345001220703e-01 1.034008860588073730e+00
3.202000000000000000e+03 4.696701049804687500e+01 -1.254181575775146484e+01 2.210580587387084961e+00 -3.392686545848846436e-01 5.613936185836791992e-01 1.279659748077392578e+00
3.203000000000000000e+03 1.376778984069824219e+01 1.057167339324951172e+01 1.257788971997797489e-04 1.312845706706866622e-04 7.711903890594840050e-05 1.711877848720178008e-04
3.204000000000000000e+03 2.659388351440429688e+01 -5.184338569641113281e+00 -2.762866914272308350e-01 -9.745033830404281616e-02 -1.121211051940917969e-01 -9.890720248222351074e-01
3.205000000000000000e+03 1.442116451263427734e+01 2.287884521484375000e+01 -1.681466959416866302e-02 2.394051058217883110e-03 -4.326185677200555801e-03 4.138796590268611908e-03
3.206000000000000000e+03 1.740082359313964844e+01 2.381803512573242188e+01 -3.243761882185935974e-02 -8.644632180221378803e-04 -9.990625083446502686e-03 1.205722987651824951e-02
3.207000000000000000e+03 1.858139038085937500e+01 2.418987274169921875e+01 -3.843013942241668701e-02 -2.994611859321594238e-03 -1.242742594331502914e-02 1.642499864101409912e-02
3.208000000000000000e+03 4.204251861572265625e+01 -1.895073127746582031e+01 -4.961096644401550293e-01 3.490158081054687500e+00 8.982145190238952637e-01 5.935077741742134094e-02
3.209000000000000000e+03 3.215214920043945312e+01 1.875557708740234375e+01 -6.119589135050773621e-02 -2.591971307992935181e-02 -2.613468095660209656e-02 4.646696150302886963e-02
3.210000000000000000e+03 4.089124298095703125e+01 -1.750023269653320312e+01 1.469460129737854004e-01 4.432859897613525391e+00 1.373941779136657715e+00 1.229942202568054199e+00
3.211000000000000000e+03 1.258008956909179688e+01 1.231811809539794922e+01 -1.983822221518494189e-05 1.142810142482630908e-04 2.833283906511496753e-05 3.970647812820971012e-04
3.212000000000000000e+03 1.346716499328613281e+01 1.082048416137695312e+01 -8.205420454032719135e-05 2.801581285893917084e-04 5.943117866991087794e-05 1.190506663988344371e-04
3.213000000000000000e+03 2.098922920227050781e+01 2.478166961669921875e+01 -4.843042418360710144e-02 -1.275626197457313538e-02 -1.835600659251213074e-02 2.754579856991767883e-02
3.214000000000000000e+03 3.551530075073242188e+01 -4.278110980987548828e+00 -1.634846329689025879e+00 5.784824490547180176e-01 -3.169091343879699707e-01 2.199358940124511719e-01
3.215000000000000000e+03 3.692293930053710938e+01 -4.243333816528320312e+00 -2.005374193191528320e+00 7.289988994598388672e-01 -3.829126060009002686e-01 2.537023127079010010e-01
3.216000000000000000e+03 1.356351089477539062e+01 2.140131378173828125e+01 -1.067865733057260513e-02 2.180302049964666367e-03 -2.549506491050124168e-03 -2.304873196408152580e-04
3.217000000000000000e+03 3.135837745666503906e+01 2.178546905517578125e+01 -7.879675924777984619e-02 -2.248540706932544708e-02 -3.038464859127998352e-02 3.039163164794445038e-02
3.218000000000000000e+03 2.789282608032226562e+01 2.437228202819824219e+01 -5.517012625932693481e-02 -3.789991885423660278e-02 -2.792101353406906128e-02 3.523621708154678345e-02
3.219000000000000000e+03 2.701023292541503906e+01 2.454231071472167969e+01 -5.535349622368812561e-02 -3.462500870227813721e-02 -2.699355222284793854e-02 3.735289350152015686e-02
3.220000000000000000e+03 3.121867561340332031e+01 -5.085864067077636719e+00 -6.301181912422180176e-01 6.304314136505126953e-01 9.396674431627616286e-05 -4.887250661849975586e-01
3.221000000000000000e+03 2.963906669616699219e+01 2.387765693664550781e+01 -5.445090308785438538e-02 -3.502410650253295898e-02 -2.684250287711620331e-02 2.594519779086112976e-02
3.222000000000000000e+03 1.911831855773925781e+01 2.421372795104980469e+01 -4.300782084465026855e-02 -3.081202274188399315e-03 -1.382670737802982330e-02 1.790077425539493561e-02
3.223000000000000000e+03 2.471712493896484375e+01 2.393939781188964844e+01 -7.364360243082046509e-02 -2.527651749551296234e-02 -2.967603690922260284e-02 3.792914748191833496e-02
3.224000000000000000e+03 2.433917427062988281e+01 -5.088441848754882812e+00 -3.827984035015106201e-01 -1.731844991445541382e-01 -1.667948812246322632e-01 -8.679622411727905273e-01
3.225000000000000000e+03 4.246343994140625000e+01 -1.002884101867675781e+01 1.024027243256568909e-01 2.057118654251098633e+00 6.478564143180847168e-01 3.762339651584625244e-01
3.226000000000000000e+03 4.192640304565429688e+01 -1.128300857543945312e+01 9.323540329933166504e-01 3.267403364181518555e+00 1.259927272796630859e+00 -9.159830957651138306e-02
3.227000000000000000e+03 4.873221969604492188e+01 -1.079683589935302734e+01 7.110583186149597168e-01 -1.609685271978378296e-01 1.650269329547882080e-01 1.850058436393737793e+00
3.228000000000000000e+03 3.142637443542480469e+01 2.235893821716308594e+01 -7.398887723684310913e-02 -1.660673692822456360e-02 -2.717868424952030182e-02 2.461601793766021729e-02
3.229000000000000000e+03 3.013240432739257812e+01 2.310276603698730469e+01 -6.651132553815841675e-02 -3.500648587942123413e-02 -3.045534342527389526e-02 2.668824791908264160e-02
3.230000000000000000e+03 1.395997333526611328e+01 5.464949131011962891e+00 3.586086677387356758e-05 5.590688670054078102e-05 2.753032458713278174e-05 3.491052120807580650e-05
3.231000000000000000e+03 1.276831626892089844e+01 5.785197257995605469e+00 1.021540447254665196e-05 5.189230432733893394e-05 1.863231227616779506e-05 3.859618300339207053e-05
3.232000000000000000e+03 1.142874240875244141e+01 6.263390064239501953e+00 4.952529707225039601e-05 2.925260196207091212e-05 2.363337080169003457e-05 3.239943544031120837e-05
3.233000000000000000e+03 1.519804191589355469e+01 5.580373764038085938e+00 7.077720511006191373e-05 6.590529665118083358e-05 4.100475052837282419e-05 2.460309406160376966e-05
3.234000000000000000e+03 3.151939582824707031e+01 -5.587392807006835938e+00 -2.706409096717834473e-01 6.669496893882751465e-01 1.188926324248313904e-01 -4.273518621921539307e-01
3.235000000000000000e+03 3.752886962890625000e+01 -3.715147733688354492e+00 -2.250818014144897461e+00 7.701655030250549316e-01 -4.441957175731658936e-01 3.336485922336578369e-01
3.236000000000000000e+03 3.636083984375000000e+01 -4.000605106353759766e+00 -1.906864285469055176e+00 7.015399932861328125e-01 -3.615972995758056641e-01 2.526823878288269043e-01
3.237000000000000000e+03 3.468172454833984375e+01 -4.645740509033203125e+00 -1.252713084220886230e+00 4.908217787742614746e-01 -2.285673767328262329e-01 9.860274195671081543e-02
3.238000000000000000e+03 9.023992538452148438e+00 -6.590696811676025391e+00 -1.549426913261413574e-01 -9.438370168209075928e-02 -7.479792088270187378e-02 -6.551621016114950180e-03
3.239000000000000000e+03 4.828815460205078125e+01 -1.242426204681396484e+01 1.579107761383056641e+00 -2.559458911418914795e-01 3.969485461711883545e-01 1.278411626815795898e+00
3.240000000000000000e+03 1.014027881622314453e+01 5.435469150543212891e+00 1.621357077965512872e-04 3.303623998363036662e-06 4.963179890182800591e-05 7.335033842537086457e-07
3.241000000000000000e+03 7.494393348693847656e+00 6.453963756561279297e+00 6.662438681814819574e-05 -9.819174738368019462e-05 -9.470209079154301435e-06 4.046746107633225620e-05
3.242000000000000000e+03 2.908159255981445312e+01 2.415850639343261719e+01 -5.536225810647010803e-02 -3.584794700145721436e-02 -2.736306004226207733e-02 3.135249018669128418e-02
3.243000000000000000e+03 1.516184329986572266e+01 2.446304512023925781e+01 -2.191683650016784668e-02 6.330542382784187794e-04 -6.385134533047676086e-03 1.155431382358074188e-02
3.244000000000000000e+03 2.790703582763671875e+01 -5.429073333740234375e+00 -2.277698069810867310e-01 1.924606263637542725e-01 -1.059275493025779724e-02 -9.652145504951477051e-01
3.245000000000000000e+03 2.889879417419433594e+01 -5.960472106933593750e+00 2.826756238937377930e-02 4.672714173793792725e-01 1.486617028713226318e-01 -9.586434364318847656e-01
3.246000000000000000e+03 1.950574302673339844e+01 -7.066426277160644531e+00 -3.467162549495697021e-01 -3.276931345462799072e-01 -2.023228257894515991e-01 -5.646885037422180176e-01
3.247000000000000000e+03 2.975668525695800781e+01 -5.913024902343750000e+00 1.897512003779411316e-02 6.625439524650573730e-01 2.044557183980941772e-01 -8.648070693016052246e-01
3.248000000000000000e+03 7.176969146728515625e+01 -1.036270523071289062e+01 -5.467540025711059570e-01 1.016681641340255737e-01 -1.335257440805435181e-01 -4.676262438297271729e-01
3.249000000000000000e+03 7.020349884033203125e+01 -8.965844154357910156e+00 -6.675212383270263672e-01 1.663830280303955078e-01 -1.503414660692214966e-01 -7.049112319946289062e-01
3.250000000000000000e+03 2.847748565673828125e+01 2.438867568969726562e+01 -5.233196541666984558e-02 -4.204734042286872864e-02 -2.831379137933254242e-02 3.370862826704978943e-02
3.251000000000000000e+03 1.686169242858886719e+01 5.447967529296875000e+00 1.622930176381487399e-05 1.799174424377270043e-05 1.026631343847839162e-05 -1.319080411121831276e-06
3.252000000000000000e+03 3.738000869750976562e+01 -3.229281902313232422e+00 -2.367879867553710938e+00 7.342510819435119629e-01 -4.900886118412017822e-01 4.582723677158355713e-01
3.253000000000000000e+03 3.861122512817382812e+01 -4.576459884643554688e+00 -2.295983791351318359e+00 7.628002166748046875e-01 -4.599550962448120117e-01 8.188850432634353638e-02
3.254000000000000000e+03 3.452824020385742188e+01 -5.275575160980224609e+00 -9.074448347091674805e-01 5.164591670036315918e-01 -1.172957047820091248e-01 -5.963942781090736389e-02
3.255000000000000000e+03 4.513563919067382812e+01 -1.155084705352783203e+01 1.972904086112976074e+00 7.436513304710388184e-01 8.149666190147399902e-01 1.887074828147888184e+00
3.256000000000000000e+03 3.168998146057128906e+01 -4.771658420562744141e+00 -8.208115100860595703e-01 5.185623168945312500e-01 -9.067476540803909302e-02 -3.702683746814727783e-01
3.257000000000000000e+03 6.116585731506347656e+00 -6.181197166442871094e+00 -6.713715940713882446e-02 -2.632168680429458618e-02 -2.803765423595905304e-02 4.471159726381301880e-02
3.258000000000000000e+03 9.109365463256835938e+00 -7.755136489868164062e+00 -2.122956514358520508e-01 -1.201892346143722534e-01 -9.974546730518341064e-02 -3.708058968186378479e-02
3.259000000000000000e+03 1.038081264495849609e+01 -6.251288890838623047e+00 -1.636544018983840942e-01 -1.271770000457763672e-01 -8.724942058324813843e-02 -2.935631573200225830e-02
3.260000000000000000e+03 2.061872291564941406e+01 -4.788796901702880859e+00 -3.844825625419616699e-01 -1.659074276685714722e-01 -1.651169955730438232e-01 -5.893802046775817871e-01
3.261000000000000000e+03 3.488819503784179688e+01 -6.154336452484130859e+00 -4.178644418716430664e-01 5.341739654541015625e-01 3.489286080002784729e-02 -2.410897463560104370e-01
3.262000000000000000e+03 3.605772018432617188e+01 -8.423316001892089844e+00 6.315042972564697266e-01 4.118336439132690430e-01 3.130013942718505859e-01 -9.886192083358764648e-01
3.263000000000000000e+03 7.919711112976074219e+00 -7.400244712829589844e+00 -1.607164591550827026e-01 -7.279842346906661987e-02 -7.005446404218673706e-02 -3.204131266102194786e-03
3.264000000000000000e+03 2.109940719604492188e+01 -6.468199253082275391e+00 -3.256619870662689209e-01 -2.568807303905487061e-01 -1.747628152370452881e-01 -6.421076059341430664e-01
3.265000000000000000e+03 2.018918609619140625e+01 -5.411291599273681641e+00 -3.338395357131958008e-01 -2.267183661460876465e-01 -1.681673675775527954e-01 -5.821269154548645020e-01
3.266000000000000000e+03 3.886002349853515625e+01 1.776504135131835938e+01 -6.175653636455535889e-02 3.557298332452774048e-02 -7.855066098272800446e-03 9.451977908611297607e-03
3.267000000000000000e+03 3.960039901733398438e+01 1.691780471801757812e+01 -6.527431309223175049e-02 2.612837776541709900e-02 -1.174378022551536560e-02 9.533364325761795044e-03
3.268000000000000000e+03 8.104645729064941406e+00 5.531387329101562500e+00 4.810867176274769008e-05 -9.884302562568336725e-05 -1.522030652267858386e-05 4.956768680131062865e-05
3.269000000000000000e+03 1.617320251464843750e+01 -6.501212120056152344e+00 -2.700234651565551758e-01 -3.577369749546051025e-01 -1.883281320333480835e-01 -3.417247533798217773e-01
3.270000000000000000e+03 2.645135307312011719e+01 2.472052383422851562e+01 -5.399823933839797974e-02 -3.245040774345397949e-02 -2.593459375202655792e-02 3.748255595564842224e-02
3.271000000000000000e+03 4.108490371704101562e+01 -1.859990119934082031e+01 -4.345834851264953613e-01 3.792811155319213867e+00 1.007468342781066895e+00 7.092182040214538574e-01
3.272000000000000000e+03 4.361469268798828125e+01 -1.014295673370361328e+01 3.434580862522125244e-01 1.667838692665100098e+00 6.033890247344970703e-01 1.156386017799377441e+00
3.273000000000000000e+03 3.426642990112304688e+01 1.429102706909179688e+01 -2.139168418943881989e-02 -2.391844289377331734e-03 -7.135058753192424774e-03 1.709921658039093018e-02
3.274000000000000000e+03 1.918755722045898438e+01 -6.505962371826171875e+00 -3.112871646881103516e-01 -3.125688433647155762e-01 -1.871567964553833008e-01 -5.460926890373229980e-01
3.275000000000000000e+03 7.623398303985595703e+00 1.634067726135253906e+01 1.404689392074942589e-04 -9.914337424561381340e-04 -2.552894293330609798e-04 -2.785972174024209380e-05
3.276000000000000000e+03 5.997855663299560547e+00 1.860955619812011719e+01 -4.671431961469352245e-04 -7.685516029596328735e-04 -3.707084397319704294e-04 8.446976607956457883e-06
3.277000000000000000e+03 6.178427124023437500e+01 -5.747399330139160156e+00 -1.888324171304702759e-01 8.803176879882812500e-01 2.074455916881561279e-01 2.071082144975662231e-01
3.278000000000000000e+03 6.313836669921875000e+01 -7.569751262664794922e+00 -5.620232224464416504e-01 3.333715498447418213e-01 -6.859550625085830688e-02 -8.083859086036682129e-02
3.279000000000000000e+03 5.964080333709716797e+00 1.968347549438476562e+01 -1.633442938327789307e-03 -8.771134889684617519e-04 -7.531669107265770435e-04 4.791218088939785957e-04
3.280000000000000000e+03 6.305668830871582031e+00 2.193474388122558594e+01 -2.968548564240336418e-03 -1.204166794195771217e-03 -1.251814654096961021e-03 1.783902873285114765e-03
3.281000000000000000e+03 5.435207843780517578e+00 -8.329846382141113281e+00 -1.141446083784103394e-01 -2.711238525807857513e-02 -4.237709939479827881e-02 -6.353931501507759094e-03
3.282000000000000000e+03 7.344496250152587891e+00 -6.306129455566406250e+00 -1.005941033363342285e-01 -5.025523155927658081e-02 -4.525480046868324280e-02 2.661099843680858612e-02
3.283000000000000000e+03 7.088600158691406250e+01 -6.131512641906738281e+00 -3.376479446887969971e-01 6.274777650833129883e-02 -8.247005194425582886e-02 -8.394876718521118164e-01
3.284000000000000000e+03 6.807662963867187500e+01 -6.562109470367431641e+00 -4.274505972862243652e-01 2.405925989151000977e-01 -5.605740100145339966e-02 -7.678596377372741699e-01
3.285000000000000000e+03 3.891043090820312500e+01 -9.565044403076171875e+00 4.107844531536102295e-01 1.153501510620117188e+00 4.692857861518859863e-01 -1.345239758491516113e+00
3.286000000000000000e+03 3.905863571166992188e+01 -1.051994991302490234e+01 9.018014073371887207e-01 1.406838417053222656e+00 6.925919651985168457e-01 -1.518675327301025391e+00
3.287000000000000000e+03 7.223973083496093750e+01 -1.423502802848815918e+00 3.757181018590927124e-02 -1.663537174463272095e-01 -3.863457217812538147e-02 -8.711672425270080566e-01
3.288000000000000000e+03 7.370658874511718750e+01 -2.754535913467407227e+00 -3.628211840987205505e-02 -4.319829046726226807e-01 -1.404795050621032715e-01 -8.257679343223571777e-01
3.289000000000000000e+03 1.017004394531250000e+01 -1.249251556396484375e+01 -4.486593306064605713e-01 -2.445298582315444946e-01 -2.079567611217498779e-01 -2.846169769763946533e-01
3.290000000000000000e+03 6.560926818847656250e+01 -7.398434162139892578e+00 -6.117284297943115234e-01 1.782018393278121948e-01 -1.300579756498336792e-01 -5.653787255287170410e-01
3.291000000000000000e+03 7.892964839935302734e+00 -5.811408519744873047e+00 -9.740813821554183960e-02 -5.087320879101753235e-02 -4.448440298438072205e-02 3.059476613998413086e-02
3.292000000000000000e+03 7.332419586181640625e+01 -2.575997352600097656e+01 -2.658385084941983223e-03 -4.901146166957914829e-04 -9.445499163120985031e-04 1.187114976346492767e-03
3.293000000000000000e+03 3.983199310302734375e+01 -1.043328285217285156e+01 6.816843152046203613e-01 1.797804594039916992e+00 7.438466548919677734e-01 -1.317809939384460449e+00
3.294000000000000000e+03 2.385748863220214844e+01 -5.795165538787841797e+00 -2.594685852527618408e-01 -2.133052945137023926e-01 -1.418321728706359863e-01 -8.032193779945373535e-01
3.295000000000000000e+03 3.633245468139648438e+01 8.705675125122070312e+00 -1.849109772592782974e-03 -1.445243600755929947e-03 -9.883060120046138763e-04 4.946774570271372795e-04
3.296000000000000000e+03 9.039786338806152344e+00 6.764352798461914062e+00 1.084331815945915878e-04 -4.117079515708610415e-05 2.017871520365588367e-05 -3.598696275730617344e-05
3.297000000000000000e+03 6.680873394012451172e+00 6.671177387237548828e+00 1.251170033356174827e-04 -3.437245322857052088e-05 2.722336466831620783e-05 -1.048747217282652855e-04
3.298000000000000000e+03 3.700636291503906250e+01 -8.605533599853515625e+00 4.369450509548187256e-01 5.683116912841796875e-01 3.015770316123962402e-01 -1.112145543098449707e+00
3.299000000000000000e+03 3.718789672851562500e+01 -7.564257621765136719e+00 -2.021323144435882568e-01 6.233733892440795898e-01 1.263723373413085938e-01 -7.975283861160278320e-01
3.300000000000000000e+03 1.293796348571777344e+01 -5.770950794219970703e+00 -1.758660227060317993e-01 -2.066959887742996216e-01 -1.147686019539833069e-01 -1.262066066265106201e-01
3.301000000000000000e+03 8.109779357910156250e+00 -1.270450401306152344e+01 -3.103531301021575928e-01 -1.642675548791885376e-01 -1.423862129449844360e-01 -2.632179856300354004e-01
3.302000000000000000e+03 4.660702133178710938e+01 -1.292589282989501953e+01 2.522901058197021484e+00 -3.464935421943664551e-01 6.529222726821899414e-01 1.164977312088012695e+00
3.303000000000000000e+03 3.695956039428710938e+01 1.023014545440673828e+01 -4.248999990522861481e-03 -3.026169491931796074e-03 -2.182550728321075439e-03 1.987060531973838806e-03
3.304000000000000000e+03 3.546811676025390625e+01 1.065779781341552734e+01 -4.988258704543113708e-03 3.607122052926570177e-04 -1.388263888657093048e-03 1.378286280669271946e-03
3.305000000000000000e+03 3.794870758056640625e+01 -8.642131805419921875e+00 1.694373190402984619e-01 7.074101567268371582e-01 2.630542516708374023e-01 -1.139216661453247070e+00
3.306000000000000000e+03 1.256906223297119141e+01 -6.585427284240722656e+00 -2.155569046735763550e-01 -2.338634282350540161e-01 -1.348260939121246338e-01 -1.201678216457366943e-01
3.307000000000000000e+03 6.524092102050781250e+01 1.657049357891082764e-01 3.482017219066619873e-01 1.536784648895263672e+00 5.654959082603454590e-01 -1.877966374158859253e-01
3.308000000000000000e+03 6.257168197631835938e+01 1.122097134590148926e+00 6.476465463638305664e-01 2.350796461105346680e+00 8.995328545570373535e-01 5.881843566894531250e-01
3.309000000000000000e+03 4.231549453735351562e+01 -8.917006492614746094e+00 -6.068685054779052734e-01 1.428023457527160645e+00 2.463465034961700439e-01 2.199224084615707397e-01
3.310000000000000000e+03 4.094745635986328125e+01 -9.377223014831542969e+00 -2.193736135959625244e-01 1.694433569908142090e+00 4.425179958343505859e-01 -5.929087996482849121e-01
3.311000000000000000e+03 4.599978637695312500e+01 -9.185440063476562500e+00 -3.848994523286819458e-02 -2.427485305815935135e-03 -1.227522920817136765e-02 1.817894220352172852e+00
3.312000000000000000e+03 3.520405960083007812e+01 1.201794338226318359e+01 -1.277012005448341370e-02 -1.641127397306263447e-03 -4.323374014347791672e-03 5.872891284525394440e-03
3.313000000000000000e+03 3.522417831420898438e+01 1.120471000671386719e+01 -6.599251180887222290e-03 -3.377331886440515518e-03 -2.992974827066063881e-03 4.146161954849958420e-03
3.314000000000000000e+03 3.844858169555664062e+01 -1.147403144836425781e+01 1.587487578392028809e+00 1.192787766456604004e+00 8.340826034545898438e-01 -1.771646738052368164e+00
3.315000000000000000e+03 6.216812610626220703e+00 1.132839775085449219e+01 2.763374068308621645e-04 -2.223543851869180799e-04 1.619490831217262894e-05 -2.120868157362565398e-04
3.316000000000000000e+03 4.515475463867187500e+01 -9.700183868408203125e+00 3.089153170585632324e-01 4.788925051689147949e-01 2.363423407077789307e-01 1.651742458343505859e+00
3.317000000000000000e+03 6.856429100036621094e+00 1.586647605895996094e+01 -3.578795294743031263e-04 -6.343169952742755413e-04 -2.976589603349566460e-04 -2.707743551582098007e-04
3.318000000000000000e+03 2.197369003295898438e+01 -6.171026706695556641e+00 -3.081912100315093994e-01 -2.311266064643859863e-01 -1.617953479290008545e-01 -6.898728013038635254e-01
3.319000000000000000e+03 1.165907669067382812e+01 -9.873351097106933594e+00 -4.096003174781799316e-01 -2.938505113124847412e-01 -2.110352516174316406e-01 -1.563007384538650513e-01
3.320000000000000000e+03 1.234249591827392578e+01 -1.058117485046386719e+01 -5.124341845512390137e-01 -3.722989261150360107e-01 -2.654199302196502686e-01 -2.107035964727401733e-01
3.321000000000000000e+03 6.536796569824218750e+00 1.235124778747558594e+01 1.344992779195308685e-04 -3.972471749875694513e-04 -7.882437057560309768e-05 -4.751836240757256746e-05
3.322000000000000000e+03 7.346554565429687500e+01 -8.233018875122070312e+00 -3.295516073703765869e-01 -1.026467755436897278e-01 -1.296595185995101929e-01 -6.255617141723632812e-01
3.323000000000000000e+03 2.335377502441406250e+01 -5.260461807250976562e+00 -3.735120296478271484e-01 -1.726082712411880493e-01 -1.638360917568206787e-01 -7.890410423278808594e-01
3.324000000000000000e+03 4.584230041503906250e+01 -9.861644744873046875e+00 4.983993768692016602e-01 8.288222551345825195e-02 1.743844747543334961e-01 1.798610210418701172e+00
3.325000000000000000e+03 1.751821899414062500e+01 -8.273296356201171875e+00 -4.015917479991912842e-01 -4.872050583362579346e-01 -2.666390240192413330e-01 -4.793370366096496582e-01
3.326000000000000000e+03 5.786420345306396484e+00 2.481621360778808594e+01 -2.255730796605348587e-03 -2.380251185968518257e-03 -1.390794641338288784e-03 3.785369917750358582e-03
3.327000000000000000e+03 3.981621170043945312e+01 -8.555712699890136719e+00 -4.354099929332733154e-01 1.134079933166503906e+00 2.096009701490402222e-01 -8.934662342071533203e-01
3.328000000000000000e+03 7.205506896972656250e+01 1.200606465339660645e+00 1.624320596456527710e-01 -1.217132061719894409e-01 1.221565809100866318e-02 -8.245085477828979492e-01
3.329000000000000000e+03 9.399857521057128906e+00 -1.304075336456298828e+01 -3.927141726016998291e-01 -2.103125900030136108e-01 -1.809080392122268677e-01 -3.008342683315277100e-01
3.330000000000000000e+03 9.162346839904785156e+00 -1.429828453063964844e+01 -3.637291789054870605e-01 -2.262266874313354492e-01 -1.769867688417434692e-01 -3.923533558845520020e-01
3.331000000000000000e+03 7.168637084960937500e+01 -2.600361633300781250e+01 -4.195239860564470291e-03 2.863668669306207448e-05 -1.249980879947543144e-03 1.167039503343403339e-03
3.332000000000000000e+03 7.658249664306640625e+01 -3.532123565673828125e+01 4.111728921998292208e-04 -8.244406431913375854e-03 -2.349970163777470589e-03 4.831811413168907166e-03
3.333000000000000000e+03 1.474864578247070312e+01 -8.700426101684570312e+00 -3.976064622402191162e-01 -4.701385796070098877e-01 -2.603234946727752686e-01 -2.803847193717956543e-01
3.334000000000000000e+03 1.570732975006103516e+01 -7.225962162017822266e+00 -2.968169748783111572e-01 -3.887135386466979980e-01 -2.056591510772705078e-01 -3.137378990650177002e-01
3.335000000000000000e+03 3.681156158447265625e+01 -4.981432914733886719e+00 -1.602882742881774902e+00 7.390024662017822266e-01 -2.591640651226043701e-01 7.629128172993659973e-03
3.336000000000000000e+03 3.825827026367187500e+01 -6.918531417846679688e+00 -1.033781409263610840e+00 7.489206194877624512e-01 -8.545824140310287476e-02 -5.950437784194946289e-01
3.337000000000000000e+03 8.711135864257812500e+00 3.528808212280273438e+01 3.439420834183692932e-03 -1.342720910906791687e-02 -2.996336435899138451e-03 9.379179216921329498e-03
3.338000000000000000e+03 1.004493427276611328e+01 -1.826625442504882812e+01 -1.055633574724197388e-01 -3.565429747104644775e-01 -1.386318951845169067e-01 -5.671530961990356445e-01
3.339000000000000000e+03 8.959103584289550781e+00 -2.033803558349609375e+01 8.378850668668746948e-02 -3.926698863506317139e-01 -9.266441315412521362e-02 -5.296218991279602051e-01
3.340000000000000000e+03 7.670470428466796875e+01 2.079433822631835938e+01 7.481270283460617065e-02 -1.966995835304260254e+00 -5.676549673080444336e-01 3.887983262538909912e-01
3.341000000000000000e+03 5.937044143676757812e+01 -9.237703323364257812e+00 -8.825554847717285156e-01 7.467640638351440430e-01 -4.073741286993026733e-02 4.640528559684753418e-01
3.342000000000000000e+03 7.175502014160156250e+01 -2.789242553710937500e+01 -5.867230240255594254e-03 4.145779530517756939e-04 -1.635795691981911659e-03 2.720062155276536942e-03
3.343000000000000000e+03 5.999184036254882812e+01 -6.552742004394531250e+00 -3.291094303131103516e-01 1.052052855491638184e+00 2.168830335140228271e-01 4.820917248725891113e-01
3.344000000000000000e+03 7.132949829101562500e+01 -3.599892425537109375e+01 1.640006550587713718e-03 -7.087319623678922653e-03 -1.634193933568894863e-03 1.262583024799823761e-02
3.345000000000000000e+03 3.876383590698242188e+01 -7.560958862304687500e+00 -7.531483769416809082e-01 8.307868242263793945e-01 2.329152822494506836e-02 -7.708077430725097656e-01
3.346000000000000000e+03 3.952471542358398438e+01 -6.958065509796142578e+00 -1.329795479774475098e+00 8.107758164405822754e-01 -1.557058990001678467e-01 -5.789852142333984375e-01
3.347000000000000000e+03 4.107553863525390625e+01 -2.125374984741210938e+01 -2.522978484630584717e-01 2.468829154968261719e+00 6.649593710899353027e-01 5.324864983558654785e-01
3.348000000000000000e+03 7.295227813720703125e+01 1.544744300842285156e+01 4.082876443862915039e-01 -4.220602810382843018e-01 -4.131794907152652740e-03 1.647004336118698120e-01
3.349000000000000000e+03 8.124297142028808594e+00 -2.433394813537597656e+01 1.902119517326354980e-01 -4.693946540355682373e-01 -8.375481516122817993e-02 -3.662394881248474121e-01
3.350000000000000000e+03 9.425925254821777344e+00 -2.448263740539550781e+01 2.422437965869903564e-01 -4.025082588195800781e-01 -4.807934165000915527e-02 -3.699226081371307373e-01
3.351000000000000000e+03 6.203417205810546875e+01 -1.680888056755065918e+00 4.404440224170684814e-01 1.670304894447326660e+00 6.332246661186218262e-01 4.017951786518096924e-01
3.352000000000000000e+03 3.619721412658691406e+00 -2.490371894836425781e+01 5.127070099115371704e-02 -7.126007676124572754e-01 -1.983990222215652466e-01 -2.316309362649917603e-01
3.353000000000000000e+03 7.339965057373046875e+01 -3.794680833816528320e+00 -9.346942603588104248e-02 -3.311817348003387451e-01 -1.273953467607498169e-01 -8.349022865295410156e-01
3.354000000000000000e+03 7.312680053710937500e+01 1.261080026626586914e+00 1.354404985904693604e-01 -4.271256029605865479e-01 -8.750552684068679810e-02 -8.069890737533569336e-01
3.355000000000000000e+03 6.902441406250000000e+01 1.423111438751220703e+01 7.780564427375793457e-01 1.543835997581481934e+00 6.965677738189697266e-01 -3.738957270979881287e-02
3.356000000000000000e+03 6.758622169494628906e+00 -1.492268371582031250e+01 -1.933583021163940430e-01 -2.022089362144470215e-01 -1.186701729893684387e-01 -3.566020131111145020e-01
3.357000000000000000e+03 7.170230102539062500e+01 1.516208648681640625e+01 4.849666059017181396e-01 1.228712126612663269e-01 1.823513358831405640e-01 1.314533650875091553e-01
3.358000000000000000e+03 7.324359130859375000e+01 1.295298480987548828e+01 3.480487167835235596e-01 -6.091350317001342773e-01 -7.832589745521545410e-02 -6.324342638254165649e-02
3.359000000000000000e+03 6.933099746704101562e+00 2.444227600097656250e+01 -4.436745774000883102e-03 -2.057326259091496468e-03 -1.948221703059971333e-03 4.252685233950614929e-03
3.360000000000000000e+03 3.967948532104492188e+01 2.062553405761718750e+01 -6.203541532158851624e-02 4.831975698471069336e-02 -4.114697221666574478e-03 1.915249787271022797e-02
3.361000000000000000e+03 3.804521560668945312e+01 -2.860708236694335938e+01 2.202884405851364136e-01 1.422983288764953613e+00 4.929815232753753662e-01 3.324049413204193115e-01
3.362000000000000000e+03 6.926073455810546875e+01 9.985040664672851562e+00 6.009563803672790527e-01 1.314111828804016113e+00 5.745204687118530273e-01 -2.408423721790313721e-01
3.363000000000000000e+03 4.205725479125976562e+01 -1.807979774475097656e+01 -4.433798193931579590e-01 4.100210666656494141e+00 1.097049236297607422e+00 1.338479015976190567e-02
3.364000000000000000e+03 2.965030288696289062e+01 -2.816965818405151367e+00 -1.976070523262023926e+00 2.447759956121444702e-01 -5.193883776664733887e-01 -4.972473382949829102e-01
3.365000000000000000e+03 3.025673484802246094e+01 -3.037523269653320312e+00 -1.939751267433166504e+00 3.033404052257537842e-01 -4.909232854843139648e-01 -4.830122888088226318e-01
3.366000000000000000e+03 3.452236557006835938e+01 1.540312099456787109e+01 -3.246215730905532837e-02 3.158004255965352058e-04 -9.643906727433204651e-03 2.381910197436809540e-02
3.367000000000000000e+03 2.909774780273437500e+01 -4.217871665954589844e+00 -1.024122357368469238e+00 2.963274121284484863e-01 -2.183384746313095093e-01 -7.737178206443786621e-01
3.368000000000000000e+03 2.949909591674804688e+01 -3.579554080963134766e+00 -1.479255318641662598e+00 3.033508658409118652e-01 -3.527713119983673096e-01 -6.346944570541381836e-01
3.369000000000000000e+03 1.743931388854980469e+01 5.944442272186279297e+00 5.206104106036946177e-05 4.198163151158951223e-05 2.821280213538557291e-05 1.514651739853434265e-05
3.370000000000000000e+03 2.900696754455566406e+01 -3.365093231201171875e+00 -1.530040621757507324e+00 2.055278569459915161e-01 -3.973538279533386230e-01 -6.568574309349060059e-01
3.371000000000000000e+03 3.561302947998046875e+01 1.006053638458251953e+01 -2.402235055342316628e-03 -2.892734482884407043e-03 -1.588490908034145832e-03 8.059050887823104858e-04
3.372000000000000000e+03 3.347088241577148438e+01 1.553687000274658203e+01 -2.694417349994182587e-02 -8.856907486915588379e-03 -1.074032392352819443e-02 2.547159232199192047e-02
3.373000000000000000e+03 3.398713302612304688e+01 1.545823669433593750e+01 -2.657623030245304108e-02 -6.239102687686681747e-03 -9.844600223004817963e-03 2.417138032615184784e-02
3.374000000000000000e+03 3.126684951782226562e+01 -3.940784931182861328e+00 -1.426538586616516113e+00 4.040611684322357178e-01 -3.067432343959808350e-01 -4.406022727489471436e-01
3.375000000000000000e+03 4.489826202392578125e+01 -1.292462444305419922e+01 3.513619661331176758e+00 5.521406531333923340e-01 1.219728112220764160e+00 1.793527841567993164e+00
3.376000000000000000e+03 1.425145626068115234e+01 9.201614379882812500e+00 -9.065533231478184462e-05 7.658210233785212040e-05 -4.221969902573619038e-06 1.021487551042810082e-04
3.377000000000000000e+03 1.505326747894287109e+01 6.769665718078613281e+00 -4.996339339413680136e-05 -7.399101377814076841e-06 -1.720874752209056169e-05 -2.273884274472948164e-05
3.378000000000000000e+03 1.484528541564941406e+01 8.001255035400390625e+00 -8.866099960869178176e-05 5.912717097089625895e-05 -8.860149137035477906e-06 8.977063407655805349e-05
3.379000000000000000e+03 3.544448089599609375e+01 1.313700771331787109e+01 -1.879564486443996429e-02 2.332334639504551888e-03 -4.938993137329816818e-03 9.017961099743843079e-03
3.380000000000000000e+03 2.979092597961425781e+01 -4.589026451110839844e+00 -8.363668918609619141e-01 4.858653545379638672e-01 -1.051504611968994141e-01 -7.281173467636108398e-01
3.381000000000000000e+03 2.842642784118652344e+01 -5.675964832305908203e+00 -5.666643381118774414e-03 2.806589305400848389e-01 8.249768614768981934e-02 -9.682189822196960449e-01
3.382000000000000000e+03 3.500734710693359375e+01 1.003599834442138672e+01 -2.986292121931910515e-03 -1.215246538777137175e-05 -8.995333919301629066e-04 1.062242779880762100e-03
3.383000000000000000e+03 1.206856155395507812e+01 1.636992454528808594e+01 -1.516532211098819971e-04 -4.004028742201626301e-04 -1.656168315093964338e-04 6.312861805781722069e-04
3.384000000000000000e+03 1.250789451599121094e+01 1.523415470123291016e+01 4.803087504114955664e-04 1.868212275439873338e-04 2.001389948418363929e-04 3.465175395831465721e-04
3.385000000000000000e+03 1.208360004425048828e+01 1.418480300903320312e+01 3.284172271378338337e-04 9.769261669134721160e-05 1.278329582419246435e-04 3.159541520290076733e-04
3.386000000000000000e+03 1.380931568145751953e+01 9.252991676330566406e+00 -2.669508830877020955e-05 -8.825342774798627943e-06 -1.065612923412118107e-05 1.018135444610379636e-04
3.387000000000000000e+03 3.540437698364257812e+01 1.421235466003417969e+01 -2.657203935086727142e-02 3.137673251330852509e-03 -7.030309643596410751e-03 1.555650681257247925e-02
3.388000000000000000e+03 1.185926055908203125e+01 1.537310504913330078e+01 -5.275708099361509085e-05 -2.505564480088651180e-04 -9.099406452151015401e-05 6.568328826688230038e-04
3.389000000000000000e+03 1.931384468078613281e+01 2.564736366271972656e+01 -3.470915555953979492e-02 -8.377912454307079315e-03 -1.292612031102180481e-02 2.559708990156650543e-02
3.390000000000000000e+03 1.914996910095214844e+01 2.488770103454589844e+01 -3.769399598240852356e-02 -6.061833817511796951e-03 -1.312674861401319504e-02 2.171654067933559418e-02
3.391000000000000000e+03 1.225809192657470703e+01 1.721337509155273438e+01 -2.847029536496847868e-04 -2.791512524709105492e-04 -1.691562647465616465e-04 4.444692167453467846e-04
3.392000000000000000e+03 1.093533897399902344e+01 1.734128761291503906e+01 -6.425031460821628571e-04 -4.569776065181940794e-04 -3.298442170489579439e-04 -2.122020305250771344e-05
3.393000000000000000e+03 1.570708274841308594e+01 5.885873794555664062e+00 -4.773423279402777553e-05 -2.098767436109483242e-05 -2.061657323793042451e-05 -8.261210496129933745e-06
3.394000000000000000e+03 3.067971038818359375e+01 -3.556119203567504883e+00 -1.597197771072387695e+00 3.725339174270629883e-01 -3.673991560935974121e-01 -5.015332698822021484e-01
3.395000000000000000e+03 3.016997146606445312e+01 -3.537183046340942383e+00 -1.595843195915222168e+00 3.373043239116668701e-01 -3.775616586208343506e-01 -5.516107678413391113e-01
3.396000000000000000e+03 1.409896659851074219e+01 9.485242843627929688e+00 4.889044430456124246e-05 2.224489871878176928e-04 8.140182762872427702e-05 7.711306534474715590e-05
3.397000000000000000e+03 1.402349853515625000e+01 1.030361270904541016e+01 -1.400582550559192896e-04 2.155536494683474302e-04 2.264861723233480006e-05 9.700674127088859677e-05
3.398000000000000000e+03 1.242099857330322266e+01 1.348225498199462891e+01 2.681266632862389088e-04 2.366542175877839327e-04 1.514342584414407611e-04 3.221610968466848135e-04
3.399000000000000000e+03 1.197111129760742188e+01 1.245221900939941406e+01 2.679743920452892780e-04 5.400721784099005163e-05 9.659447823651134968e-05 2.695006842259317636e-04
3.400000000000000000e+03 3.483858108520507812e+01 1.423333168029785156e+01 -2.182945795357227325e-02 -1.289063016884028912e-03 -6.935556419193744659e-03 1.625113934278488159e-02
3.401000000000000000e+03 3.622775650024414062e+01 1.323842906951904297e+01 -2.302777394652366638e-02 1.406576018780469894e-03 -6.486359518021345139e-03 9.569545276463031769e-03
3.402000000000000000e+03 3.634646606445312500e+01 1.252588176727294922e+01 -1.731320098042488098e-02 2.296011662110686302e-03 -4.505157005041837692e-03 5.597544834017753601e-03
3.403000000000000000e+03 3.396715545654296875e+01 1.780544090270996094e+01 -4.993620887398719788e-02 2.377250930294394493e-04 -1.490954495966434479e-02 3.533591330051422119e-02
3.404000000000000000e+03 1.183946990966796875e+01 1.366797161102294922e+01 6.494103581644594669e-05 -1.399194879923015833e-04 -2.249353747174609452e-05 5.406703567132353783e-04
3.405000000000000000e+03 4.144665908813476562e+01 -1.820554542541503906e+01 -4.241921305656433105e-01 4.116883754730224609e+00 1.107807397842407227e+00 5.415852069854736328e-01
3.406000000000000000e+03 3.186171531677246094e+01 2.070175743103027344e+01 -8.472298085689544678e-02 -1.436439249664545059e-02 -2.972621284425258636e-02 3.809663280844688416e-02
3.407000000000000000e+03 1.293253517150878906e+01 1.999121475219726562e+01 -4.554529208689928055e-03 1.287778577534481883e-04 -1.327725360170006752e-03 -3.713720361702144146e-04
3.408000000000000000e+03 2.445452117919921875e+01 2.447483062744140625e+01 -6.283912062644958496e-02 -2.435866370797157288e-02 -2.615933679044246674e-02 3.413973748683929443e-02
3.409000000000000000e+03 1.582600498199462891e+01 2.413726425170898438e+01 -2.336225658655166626e-02 1.068751094862818718e-03 -6.688051391392946243e-03 1.028502266854047775e-02
3.410000000000000000e+03 1.643467521667480469e+01 2.374383163452148438e+01 -2.752992138266563416e-02 4.448599356692284346e-04 -8.125518448650836945e-03 1.031319331377744675e-02
3.411000000000000000e+03 1.305688953399658203e+01 2.115036201477050781e+01 -8.364887908101081848e-03 7.884557126089930534e-04 -2.272929530590772629e-03 5.912140477448701859e-04
3.412000000000000000e+03 1.291421127319335938e+01 1.167511558532714844e+01 -7.385103799606440589e-06 1.291329972445964813e-04 3.652436862466856837e-05 3.451285010669380426e-04
3.413000000000000000e+03 1.310511302947998047e+01 1.104056072235107422e+01 5.399572546593844891e-05 7.856901356717571616e-05 3.976942389272153378e-05 3.021869924850761890e-04
3.414000000000000000e+03 2.080238342285156250e+01 2.522329330444335938e+01 -4.136383906006813049e-02 -1.241052895784378052e-02 -1.613231003284454346e-02 2.755361050367355347e-02
3.415000000000000000e+03 1.292194747924804688e+01 1.925720596313476562e+01 -2.537296386435627937e-03 2.941383741017489228e-07 -7.611006731167435646e-04 -3.624212986323982477e-04
3.416000000000000000e+03 1.168552589416503906e+01 1.488630676269531250e+01 3.905652556568384171e-04 -1.297585840802639723e-04 7.824200292816385627e-05 3.138932515867054462e-04
3.417000000000000000e+03 1.147017574310302734e+01 1.437913227081298828e+01 7.205989822978153825e-05 -2.909200557041913271e-04 -6.565804505953565240e-05 5.574235692620277405e-04
3.418000000000000000e+03 4.240109634399414062e+01 -1.858555603027343750e+01 -4.728198349475860596e-01 3.536067962646484375e+00 9.189744591712951660e-01 -1.887861490249633789e-01
3.419000000000000000e+03 4.188552474975585938e+01 -1.932080268859863281e+01 -5.041183233261108398e-01 3.267636775970458984e+00 8.290555477142333984e-01 1.760523766279220581e-01
3.420000000000000000e+03 1.006389141082763672e+01 5.983218193054199219e+00 -1.126998631661990657e-05 -3.427994306548498571e-05 -1.366497872368199751e-05 3.715209459187462926e-05
3.421000000000000000e+03 1.211538696289062500e+01 6.020869255065917969e+00 4.985421401215717196e-05 -3.381150963832624257e-05 4.812811766896629706e-06 8.115565287880599499e-05
3.422000000000000000e+03 3.018633651733398438e+01 -4.774354934692382812e+00 -8.193002343177795410e-01 5.352869033813476562e-01 -8.520399779081344604e-02 -6.886799335479736328e-01
3.423000000000000000e+03 3.670438003540039062e+01 6.986587524414062500e+00 2.690395340323448181e-03 -2.577947452664375305e-04 7.297801785171031952e-04 -2.837230385921429843e-05
3.424000000000000000e+03 1.622953796386718750e+01 5.567337512969970703e+00 1.201092527480795979e-05 3.310966349090449512e-05 1.353617608401691541e-05 3.454644320299848914e-05
3.425000000000000000e+03 2.802330970764160156e+01 -4.868776321411132812e+00 -4.744724333286285400e-01 1.531045287847518921e-01 -9.641037136316299438e-02 -9.251034259796142578e-01
3.426000000000000000e+03 4.225138092041015625e+01 -1.064120006561279297e+01 4.663462340831756592e-01 2.544285535812377930e+00 9.031895399093627930e-01 1.961572170257568359e-01
3.427000000000000000e+03 1.282415676116943359e+01 1.063201141357421875e+01 2.019727162405615672e-06 2.026717993430793285e-04 6.140745972516015172e-05 1.174317076220177114e-04
3.428000000000000000e+03 3.118347549438476562e+01 -3.460471391677856445e+00 -1.711113572120666504e+00 3.376555144786834717e-01 -4.120374321937561035e-01 -4.490231573581695557e-01
3.429000000000000000e+03 3.243611526489257812e+01 -5.518364906311035156e+00 -4.103603363037109375e-01 5.872195959091186523e-01 5.305778980255126953e-02 -2.595531046390533447e-01
3.430000000000000000e+03 2.148449516296386719e+01 2.488553047180175781e+01 -4.832491651177406311e-02 -1.456585898995399475e-02 -1.886723190546035767e-02 2.861229889094829559e-02
3.431000000000000000e+03 2.943293190002441406e+01 2.499947738647460938e+01 -3.662535548210144043e-02 -2.871120162308216095e-02 -1.960096694529056549e-02 2.334950491786003113e-02
3.432000000000000000e+03 2.762629318237304688e+01 2.538829231262207031e+01 -3.811859339475631714e-02 -3.598680719733238220e-02 -2.223161980509757996e-02 3.426805138587951660e-02
3.433000000000000000e+03 2.663312339782714844e+01 2.397591018676757812e+01 -7.148388773202896118e-02 -3.727048635482788086e-02 -3.262631222605705261e-02 4.441839829087257385e-02
3.434000000000000000e+03 1.790562629699707031e+01 2.490410232543945312e+01 -3.153007477521896362e-02 -2.920922124758362770e-03 -1.033529825508594513e-02 1.849206723272800446e-02
3.435000000000000000e+03 1.964393997192382812e+01 2.479732894897460938e+01 -4.170745983719825745e-02 -6.591504905372858047e-03 -1.448968891054391861e-02 2.325727231800556183e-02
3.436000000000000000e+03 1.371514511108398438e+01 2.215455627441406250e+01 -1.284259371459484100e-02 2.188708400353789330e-03 -3.196165431290864944e-03 1.353598665446043015e-03
3.437000000000000000e+03 1.326554679870605469e+01 2.181722831726074219e+01 -1.126388739794492722e-02 1.535397954285144806e-03 -2.918546786531805992e-03 1.645906479097902775e-03
3.438000000000000000e+03 2.044108009338378906e+01 2.577476310729980469e+01 -3.590641170740127563e-02 -1.360401138663291931e-02 -1.485312636941671371e-02 2.973191253840923309e-02
3.439000000000000000e+03 1.988533020019531250e+01 2.534519577026367188e+01 -3.661429136991500854e-02 -9.234607219696044922e-03 -1.375466957688331604e-02 2.564992569386959076e-02
3.440000000000000000e+03 8.418663978576660156e+00 -6.284852027893066406e+00 -1.177927032113075256e-01 -7.001616805791854858e-02 -5.634266138076782227e-02 1.340530905872583389e-02
3.441000000000000000e+03 3.282258224487304688e+01 2.206882858276367188e+01 -6.386967748403549194e-02 3.052423242479562759e-03 -1.824517734348773956e-02 2.399264089763164520e-02
3.442000000000000000e+03 2.319967079162597656e+01 2.522882652282714844e+01 -4.819472134113311768e-02 -2.133173309266567230e-02 -2.085793577134609222e-02 3.308670967817306519e-02
3.443000000000000000e+03 2.135638046264648438e+01 2.544319725036621094e+01 -4.136021807789802551e-02 -1.627659052610397339e-02 -1.729104295372962952e-02 3.066201880574226379e-02
3.444000000000000000e+03 1.399192142486572266e+01 2.310847663879394531e+01 -1.731255277991294861e-02 1.903507276438176632e-03 -4.622713662683963776e-03 5.459094885736703873e-03
3.445000000000000000e+03 4.619568252563476562e+01 -1.319759941101074219e+01 2.832200527191162109e+00 -3.243912458419799805e-01 7.523427605628967285e-01 1.080109834671020508e+00
3.446000000000000000e+03 4.505634307861328125e+01 -1.091632652282714844e+01 1.331303596496582031e+00 7.709111571311950684e-01 6.306644082069396973e-01 1.803774118423461914e+00
3.447000000000000000e+03 2.925154876708984375e+01 -5.535164356231689453e+00 -1.412754952907562256e-01 4.337366223335266113e-01 8.773833513259887695e-02 -8.609961271286010742e-01
3.448000000000000000e+03 2.610838508605957031e+01 -4.706655979156494141e+00 -4.963207244873046875e-01 -1.251854151487350464e-01 -1.864518374204635620e-01 -9.668860435485839844e-01
3.449000000000000000e+03 1.337016010284423828e+01 5.583307266235351562e+00 2.513864637876395136e-05 -1.247156615136191249e-05 3.800124204644816928e-06 4.015981903648935258e-05
3.450000000000000000e+03 1.395320701599121094e+01 4.944258213043212891e+00 -3.463998382358113304e-06 -2.339399725315161049e-05 -8.057398190430831164e-06 2.580285945441573858e-05
3.451000000000000000e+03 1.550628471374511719e+01 7.056314468383789062e+00 9.489180229138582945e-05 6.359331018757075071e-05 4.754553447128273547e-05 4.749541767523624003e-05
3.452000000000000000e+03 2.485146141052246094e+01 -5.479450702667236328e+00 -2.651946842670440674e-01 -2.003549933433532715e-01 -1.396649032831192017e-01 -9.038378000259399414e-01
3.453000000000000000e+03 3.396999359130859375e+01 -5.211279869079589844e+00 -7.759549021720886230e-01 4.924695491790771484e-01 -8.504560589790344238e-02 -6.912644207477569580e-02
3.454000000000000000e+03 3.334404373168945312e+01 -5.147084236145019531e+00 -7.500243186950683594e-01 4.747550189495086670e-01 -8.258078247308731079e-02 -1.034672781825065613e-01
3.455000000000000000e+03 1.603689384460449219e+01 6.280139446258544922e+00 5.655978020513430238e-05 3.650037251645699143e-05 2.791804581647738814e-05 4.634923971025273204e-05
3.456000000000000000e+03 2.620304489135742188e+01 -5.688191890716552734e+00 -7.969778776168823242e-02 -1.524902284145355225e-01 -6.965640187263488770e-02 -9.317977428436279297e-01
3.457000000000000000e+03 2.732102203369140625e+01 -4.577534198760986328e+00 -6.046491861343383789e-01 3.728482499718666077e-02 -1.702093034982681274e-01 -9.786557555198669434e-01
3.458000000000000000e+03 1.301443481445312500e+01 6.376464366912841797e+00 4.644623913918621838e-05 1.921569491969421506e-05 1.969858021766413003e-05 7.596061914227902889e-05
3.459000000000000000e+03 4.101007461547851562e+01 -1.944704627990722656e+01 -4.675820469856262207e-01 3.294960021972656250e+00 8.482134342193603516e-01 6.951560974121093750e-01
3.460000000000000000e+03 1.276148223876953125e+01 -8.717648506164550781e+00 -3.744550645351409912e-01 -3.479001522064208984e-01 -2.167065590620040894e-01 -1.600423902273178101e-01
3.461000000000000000e+03 1.305603313446044922e+01 -7.775067806243896484e+00 -2.950401902198791504e-01 -3.130218386650085449e-01 -1.824186146259307861e-01 -1.592295169830322266e-01
3.462000000000000000e+03 8.420760154724121094e+00 6.969425678253173828e+00 8.369581337319687009e-05 -9.332655463367700577e-05 -2.889221832447219640e-06 8.738121687201783061e-05
3.463000000000000000e+03 2.998653984069824219e+01 2.441336059570312500e+01 -4.585643857717514038e-02 -2.996905520558357239e-02 -2.274764887988567352e-02 2.419400401413440704e-02
3.464000000000000000e+03 1.289638805389404297e+01 1.963374328613281250e+01 -2.754151821136474609e-03 1.343379553873091936e-04 -7.859441684558987617e-04 -8.444849518127739429e-04
3.465000000000000000e+03 4.416132354736328125e+01 -1.067988395690917969e+01 9.194042086601257324e-01 1.476517677307128906e+00 7.187765240669250488e-01 1.576240420341491699e+00
3.466000000000000000e+03 3.456434631347656250e+01 -6.864249229431152344e+00 1.300984472036361694e-01 5.021079778671264648e-01 1.896619349718093872e-01 -4.050257802009582520e-01
3.467000000000000000e+03 3.632687759399414062e+01 -7.403495788574218750e+00 -5.731866881251335144e-02 5.627340674400329590e-01 1.516246199607849121e-01 -7.003391981124877930e-01
3.468000000000000000e+03 1.453090858459472656e+01 -5.485647201538085938e+00 -1.897194236516952515e-01 -2.412684410810470581e-01 -1.292963624000549316e-01 -2.091826647520065308e-01
3.469000000000000000e+03 1.660331726074218750e+01 -7.748214721679687500e+00 -3.511856794357299805e-01 -4.689806699752807617e-01 -2.460499107837677002e-01 -3.934668600559234619e-01
3.470000000000000000e+03 2.520060920715332031e+01 -6.419969558715820312e+00 3.141521289944648743e-02 -2.534868717193603516e-01 -6.662149727344512939e-02 -8.003090023994445801e-01
3.471000000000000000e+03 2.536517715454101562e+01 -5.779607295989990234e+00 -1.635966300964355469e-01 -2.078017294406890869e-01 -1.114195063710212708e-01 -8.844842910766601562e-01
3.472000000000000000e+03 2.239936256408691406e+01 -5.024518013000488281e+00 -4.099647998809814453e-01 -1.589659452438354492e-01 -1.706792116165161133e-01 -7.224251627922058105e-01
3.473000000000000000e+03 7.363804626464843750e+01 -9.194858551025390625e+00 -3.332282006740570068e-01 -7.218606770038604736e-02 -1.216242834925651550e-01 -5.214480757713317871e-01
3.474000000000000000e+03 7.206610107421875000e+01 -9.744662284851074219e+00 -5.524739623069763184e-01 8.388879150152206421e-02 -1.405755430459976196e-01 -5.279800295829772949e-01
3.475000000000000000e+03 3.280954360961914062e+01 1.822589683532714844e+01 -5.491588264703750610e-02 -1.407187804579734802e-02 -2.069632709026336670e-02 4.195032268762588501e-02
3.476000000000000000e+03 3.341617584228515625e+01 1.808453941345214844e+01 -5.726896226406097412e-02 -3.687188262119889259e-03 -1.828684471547603607e-02 3.904554247856140137e-02
3.477000000000000000e+03 3.254352188110351562e+01 2.120046043395996094e+01 -7.617567479610443115e-02 -6.342683336697518826e-04 -2.304298244416713715e-02 2.992034703493118286e-02
3.478000000000000000e+03 3.372828674316406250e+01 1.864395332336425781e+01 -5.830023437738418579e-02 1.172224292531609535e-03 -1.713840290904045105e-02 3.848244622349739075e-02
3.479000000000000000e+03 1.447270774841308594e+01 2.467966270446777344e+01 -1.746981404721736908e-02 1.465694513171911240e-04 -5.196973681449890137e-03 1.067761238664388657e-02
3.480000000000000000e+03 1.668009376525878906e+01 6.527482986450195312e+00 3.514902346068993211e-05 1.997118033614242449e-06 1.114384212996810675e-05 5.134074672241695225e-05
3.481000000000000000e+03 1.225675964355468750e+01 1.981610298156738281e+01 -3.667158307507634163e-03 -4.881800559815019369e-04 -1.246601575985550880e-03 -4.581989196594804525e-05
3.482000000000000000e+03 1.239705848693847656e+01 1.897456359863281250e+01 -1.747499336488544941e-03 -6.440132274292409420e-04 -7.174537749961018562e-04 -3.779201651923358440e-04
3.483000000000000000e+03 3.306271743774414062e+01 -5.899686813354492188e+00 -2.060806900262832642e-01 5.643035769462585449e-01 1.074668616056442261e-01 -2.566666007041931152e-01
3.484000000000000000e+03 3.614184570312500000e+01 -4.604169845581054688e+00 -1.606486320495605469e+00 6.586415767669677734e-01 -2.843534350395202637e-01 1.460049450397491455e-01
3.485000000000000000e+03 8.604562759399414062e+00 1.273925781250000000e+01 4.390933900140225887e-04 -4.206243320368230343e-04 5.540717666008276865e-06 8.270760736195370555e-05
3.486000000000000000e+03 2.594236564636230469e+01 2.425094604492187500e+01 -6.577784568071365356e-02 -3.250079974532127380e-02 -2.948359400033950806e-02 4.179320484399795532e-02
3.487000000000000000e+03 2.398629188537597656e+01 2.466296768188476562e+01 -6.174529343843460083e-02 -2.229445613920688629e-02 -2.521192468702793121e-02 3.362945094704627991e-02
3.488000000000000000e+03 1.746298027038574219e+01 -6.192952632904052734e+00 -2.813263237476348877e-01 -3.300831913948059082e-01 -1.834228485822677612e-01 -4.355841875076293945e-01
3.489000000000000000e+03 4.457753372192382812e+01 -1.048208618164062500e+01 8.324352502822875977e-01 1.034267544746398926e+00 5.600108504295349121e-01 1.594958186149597168e+00
3.490000000000000000e+03 4.702980422973632812e+01 -1.032813549041748047e+01 8.415371775627136230e-01 -1.341857463121414185e-01 2.122054398059844971e-01 1.886991381645202637e+00
3.491000000000000000e+03 3.689672088623046875e+01 1.373564434051513672e+01 -2.687179483473300934e-02 9.495237842202186584e-03 -5.212967284023761749e-03 7.340207230299711227e-03
3.492000000000000000e+03 5.726518630981445312e+00 -6.773243427276611328e+00 -8.390215039253234863e-02 -2.295645885169506073e-02 -3.205758333206176758e-02 3.408525884151458740e-02
3.493000000000000000e+03 6.000651359558105469e+00 -7.907464981079101562e+00 -1.231157258152961731e-01 -3.889843448996543884e-02 -4.860424622893333435e-02 1.958122942596673965e-03
3.494000000000000000e+03 5.834379196166992188e+00 7.032514095306396484e+00 1.603215350769460201e-04 -1.113612015615217388e-04 1.468809841753682122e-05 1.885823257907759398e-05
3.495000000000000000e+03 7.285465717315673828e+00 1.705353927612304688e+01 -7.860792102292180061e-04 -8.552009821869432926e-04 -4.923840751871466637e-04 -8.213515684474259615e-05
3.496000000000000000e+03 6.764192104339599609e+00 -6.777337074279785156e+00 -1.116090416908264160e-01 -4.343781247735023499e-02 -4.651405662298202515e-02 2.371465973556041718e-02
3.497000000000000000e+03 5.658665657043457031e+00 9.444833755493164062e+00 1.991036551771685481e-04 -1.566277205711230636e-05 5.503226566361263394e-05 -2.665266219992190599e-04
3.498000000000000000e+03 8.431590080261230469e+00 9.713530540466308594e+00 4.256255342625081539e-04 -2.471884363330900669e-04 5.353112646844238043e-05 -4.229229671182110906e-05
3.499000000000000000e+03 3.732358169555664062e+01 1.460374927520751953e+01 -3.882998228073120117e-02 1.179807260632514954e-02 -8.109573274850845337e-03 1.185903139412403107e-02
3.500000000000000000e+03 1.457084274291992188e+01 5.462554454803466797e+00 -3.883087993017397821e-05 -1.002282715489855036e-05 -1.465611148887546733e-05 2.702071287785656750e-05
3.501000000000000000e+03 1.397863483428955078e+01 5.917197704315185547e+00 -4.164259007666260004e-05 3.134743747068569064e-05 -3.088545781793072820e-06 5.624559344141744077e-05
3.502000000000000000e+03 7.977349758148193359e+00 2.715685653686523438e+01 -4.678896162658929825e-03 -4.041416570544242859e-03 -2.616093959659337997e-03 7.454469334334135056e-03
3.503000000000000000e+03 7.246480464935302734e+00 2.811520195007324219e+01 -3.462865483015775681e-03 -5.199525505304336548e-03 -2.598717343062162399e-03 7.932780310511589050e-03
3.504000000000000000e+03 1.684113121032714844e+01 2.437851524353027344e+01 -2.782298065721988678e-02 -4.561467721941880882e-05 -8.360578678548336029e-03 1.319884508848190308e-02
3.505000000000000000e+03 3.668347167968750000e+01 1.097302627563476562e+01 -7.124965544790029526e-03 3.405043098609894514e-04 -2.035338431596755981e-03 -8.956039673648774624e-04
3.506000000000000000e+03 3.589208602905273438e+01 -5.140110969543457031e+00 -1.374143123626708984e+00 6.429446935653686523e-01 -2.193595170974731445e-01 4.431364685297012329e-02
3.507000000000000000e+03 3.797540283203125000e+01 -4.381065845489501953e+00 -2.164757728576660156e+00 7.712547183036804199e-01 -4.180509150028228760e-01 1.711488664150238037e-01
3.508000000000000000e+03 4.443146133422851562e+01 -9.487602233886718750e+00 5.130801349878311157e-02 8.412028551101684570e-01 2.677532732486724854e-01 1.404066324234008789e+00
3.509000000000000000e+03 4.371546173095703125e+01 -9.332798004150390625e+00 -1.720201671123504639e-01 1.242590308189392090e+00 3.211710453033447266e-01 1.069946289062500000e+00
3.510000000000000000e+03 4.251518249511718750e+01 -9.423022270202636719e+00 -2.709456980228424072e-01 1.597401022911071777e+00 3.979365825653076172e-01 3.749223053455352783e-01
3.511000000000000000e+03 4.305723953247070312e+01 -9.341771125793457031e+00 -2.692826986312866211e-01 1.406373739242553711e+00 3.411273062229156494e-01 7.408019900321960449e-01
3.512000000000000000e+03 4.367683410644531250e+01 -1.084119033813476562e+01 9.582547545433044434e-01 2.019725561141967773e+00 8.933940529823303223e-01 1.425830006599426270e+00
3.513000000000000000e+03 3.830910491943359375e+01 1.591762256622314453e+01 -5.261832103133201599e-02 2.649398334324359894e-02 -7.837302051484584808e-03 9.565360844135284424e-03
3.514000000000000000e+03 3.660789871215820312e+01 1.546367645263671875e+01 -4.206033796072006226e-02 1.529203448444604874e-02 -8.030491881072521210e-03 1.756208762526512146e-02
3.515000000000000000e+03 6.959411621093750000e+01 -8.196684837341308594e+00 -6.069608330726623535e-01 1.506121307611465454e-01 -1.369046121835708618e-01 -7.274865508079528809e-01
3.516000000000000000e+03 8.216155052185058594e+00 6.265805721282958984e+00 1.239302946487441659e-04 -2.885062531277071685e-05 2.852390207408461720e-05 -4.526253906078636646e-05
3.517000000000000000e+03 7.752332210540771484e+00 7.222981929779052734e+00 1.396602456225082278e-04 -8.484259160468354821e-05 1.644529584154952317e-05 -7.500936044380068779e-05
3.518000000000000000e+03 8.096891403198242188e+00 7.900058269500732422e+00 1.311267551500350237e-04 -1.091830854420550168e-04 6.583101821888703853e-06 1.103325776057317853e-04
3.519000000000000000e+03 7.043892383575439453e+00 7.563701152801513672e+00 1.441858184989541769e-04 -1.207631357829086483e-04 7.026805178611539304e-06 4.347592403064481914e-05
3.520000000000000000e+03 7.150027465820312500e+01 -5.451313972473144531e+00 -2.438434511423110962e-01 -1.841564476490020752e-02 -7.867772877216339111e-02 -8.455183506011962891e-01
3.521000000000000000e+03 2.090168190002441406e+01 -5.538852214813232422e+00 -3.528341650962829590e-01 -2.123569250106811523e-01 -1.695573329925537109e-01 -6.321132779121398926e-01
3.522000000000000000e+03 3.798598098754882812e+01 -7.702059268951416016e+00 -3.759101629257202148e-01 7.729577422142028809e-01 1.191142797470092773e-01 -8.776180744171142578e-01
3.523000000000000000e+03 3.642394638061523438e+01 -5.565523147583007812e+00 -1.246406197547912598e+00 6.783513426780700684e-01 -1.704164594411849976e-01 -1.193110346794128418e-01
3.524000000000000000e+03 7.291304111480712891e+00 1.015491008758544922e+01 4.030302225146442652e-04 -2.288270770804956555e-04 5.226094435784034431e-05 -9.531801333650946617e-05
3.525000000000000000e+03 6.642160797119140625e+01 -6.639232635498046875e+00 -4.303254485130310059e-01 2.863938510417938232e-01 -4.317947849631309509e-02 -6.456146836280822754e-01
3.526000000000000000e+03 3.890460968017578125e+01 -8.524231910705566406e+00 -2.468605935573577881e-01 9.741351604461669922e-01 2.181823700666427612e-01 -1.054483890533447266e+00
3.527000000000000000e+03 4.152734375000000000e+01 -9.254988670349121094e+00 -3.280948698520660400e-01 1.741161465644836426e+00 4.239199757575988770e-01 -2.850536108016967773e-01
3.528000000000000000e+03 4.105238723754882812e+01 -8.127598762512207031e+00 -9.023974537849426270e-01 1.133447647094726562e+00 6.931503862142562866e-02 -3.927500844001770020e-01
3.529000000000000000e+03 1.260847663879394531e+01 -9.708858489990234375e+00 -4.365185499191284180e-01 -3.632094264030456543e-01 -2.399183958768844604e-01 -1.737871319055557251e-01
3.530000000000000000e+03 1.426804924011230469e+01 -7.359615802764892578e+00 -2.785571813583374023e-01 -3.495800197124481201e-01 -1.884411573410034180e-01 -2.218493223190307617e-01
3.531000000000000000e+03 1.392124080657958984e+01 -6.191234111785888672e+00 -2.088421285152435303e-01 -2.544884681701660156e-01 -1.389991790056228638e-01 -1.828330904245376587e-01
3.532000000000000000e+03 4.024401855468750000e+01 -7.637857437133789062e+00 -1.090943932533264160e+00 9.294517636299133301e-01 -4.844765737652778625e-02 -5.517032742500305176e-01
3.533000000000000000e+03 6.055139541625976562e+01 -7.744101524353027344e+00 -6.311349272727966309e-01 7.495926022529602051e-01 3.553730994462966919e-02 3.973628282546997070e-01
3.534000000000000000e+03 1.612392807006835938e+01 -8.339802742004394531e+00 -3.786600232124328613e-01 -4.767171442508697510e-01 -2.566131353378295898e-01 -3.627116680145263672e-01
3.535000000000000000e+03 8.234146118164062500e+00 -1.190627574920654297e+01 -3.086549639701843262e-01 -1.535860151052474976e-01 -1.386722922325134277e-01 -2.086714655160903931e-01
3.536000000000000000e+03 4.567084884643554688e+01 -1.234240531921386719e+01 2.591803312301635742e+00 1.319819390773773193e-01 8.171355724334716797e-01 1.655264019966125488e+00
3.537000000000000000e+03 8.753624916076660156e+00 -1.549189376831054688e+01 -2.820728719234466553e-01 -2.455103695392608643e-01 -1.582749634981155396e-01 -4.507806599140167236e-01
3.538000000000000000e+03 1.000952243804931641e+01 -1.383214473724365234e+01 -4.371773898601531982e-01 -2.555723786354064941e-01 -2.078249305486679077e-01 -3.677433729171752930e-01
3.539000000000000000e+03 5.938562011718750000e+01 -8.077411651611328125e+00 -7.209171652793884277e-01 9.224382042884826660e-01 6.045630946755409241e-02 5.289543867111206055e-01
3.540000000000000000e+03 1.466085147857666016e+01 -7.949662208557128906e+00 -3.400470614433288574e-01 -4.012430310249328613e-01 -2.223870307207107544e-01 -2.588451206684112549e-01
3.541000000000000000e+03 7.422847747802734375e+01 1.809565734863281250e+01 2.912142872810363770e-01 -1.020656824111938477e+00 -2.188327610492706299e-01 3.729664683341979980e-01
3.542000000000000000e+03 6.154872131347656250e+01 -7.180797576904296875e+00 -5.076556801795959473e-01 6.554198861122131348e-01 4.432925581932067871e-02 2.228889763355255127e-01
3.543000000000000000e+03 6.095565414428710938e+01 -5.173125743865966797e+00 -6.139543652534484863e-02 1.100168108940124512e+00 3.116318285465240479e-01 3.741347193717956543e-01
3.544000000000000000e+03 9.047639846801757812e+00 -1.629523086547851562e+01 -2.402032762765884399e-01 -2.788867056369781494e-01 -1.557269841432571411e-01 -4.980508983135223389e-01
3.545000000000000000e+03 6.853409576416015625e+01 6.726940155029296875e+00 5.656384229660034180e-01 1.415483593940734863e+00 5.943365693092346191e-01 -3.215511143207550049e-01
3.546000000000000000e+03 3.748065948486328125e+01 -6.514209747314453125e+00 -1.010228276252746582e+00 7.517428398132324219e-01 -7.754563540220260620e-02 -4.708589315414428711e-01
3.547000000000000000e+03 1.818021011352539062e+01 -6.693259716033935547e+00 -3.076820373535156250e-01 -3.565797209739685059e-01 -1.992785334587097168e-01 -4.941984713077545166e-01
3.548000000000000000e+03 8.865323066711425781e+00 -1.235771656036376953e+01 -3.646059036254882812e-01 -1.900277137756347656e-01 -1.663900911808013916e-01 -2.559686005115509033e-01
3.549000000000000000e+03 7.186096191406250000e+01 1.744621086120605469e+01 4.664434492588043213e-01 4.730891063809394836e-02 1.541257053613662720e-01 3.451403081417083740e-01
3.550000000000000000e+03 7.824265003204345703e+00 -1.813401794433593750e+01 -8.878993242979049683e-02 -3.194786012172698975e-01 -1.224805563688278198e-01 -4.986833035945892334e-01
3.551000000000000000e+03 7.299589538574218750e+01 -1.006815052032470703e+01 -4.472157657146453857e-01 2.855989150702953339e-02 -1.255967617034912109e-01 -4.566552042961120605e-01
3.552000000000000000e+03 7.276725006103515625e+01 -2.864076995849609375e+01 -4.494630265980958939e-03 -3.158460895065218210e-04 -1.443142886273562908e-03 3.731669625267386436e-03
3.553000000000000000e+03 6.641291809082031250e+01 2.502664566040039062e+00 4.706302583217620850e-01 1.614800930023193359e+00 6.256293654441833496e-01 -2.942510247230529785e-01
3.554000000000000000e+03 6.598147583007812500e+01 5.832249641418457031e+00 6.690446734428405762e-01 2.450062274932861328e+00 9.357320666313171387e-01 -3.925599902868270874e-02
3.555000000000000000e+03 6.322075653076171875e+01 -4.362858295440673828e+00 2.157828398048877716e-02 9.624199867248535156e-01 2.951994836330413818e-01 -1.805160008370876312e-02
3.556000000000000000e+03 6.244895172119140625e+01 -6.617532730102539062e+00 -3.783896565437316895e-01 6.001116037368774414e-01 6.651658564805984497e-02 5.243915319442749023e-02
3.557000000000000000e+03 7.330651855468750000e+01 2.484356880187988281e+00 1.620632559061050415e-01 -5.223399400711059570e-01 -1.080830097198486328e-01 -7.432599663734436035e-01
3.558000000000000000e+03 7.887204647064208984e+00 -1.972273635864257812e+01 2.472211793065071106e-02 -3.858639001846313477e-01 -1.083425357937812805e-01 -5.128382444381713867e-01
3.559000000000000000e+03 6.308393955230712891e+00 8.036866188049316406e+00 4.977517528459429741e-05 -3.562483834684826434e-05 4.245101081323809922e-06 -1.213214782183058560e-04
3.560000000000000000e+03 7.163178253173828125e+01 -3.988309800624847412e-01 7.819657027721405029e-02 -3.335383534431457520e-02 1.345282141119241714e-02 -8.591877818107604980e-01
3.561000000000000000e+03 7.061294555664062500e+01 -9.782835245132446289e-01 8.312270045280456543e-02 2.037750482559204102e-01 8.606932312250137329e-02 -8.492681980133056641e-01
3.562000000000000000e+03 6.354702758789062500e+01 2.187789678573608398e-01 4.546936750411987305e-01 1.907514214515686035e+00 7.086623907089233398e-01 1.815217584371566772e-01
3.563000000000000000e+03 7.204125213623046875e+01 -7.704479694366455078e+00 -4.140564203262329102e-01 2.329524792730808258e-02 -1.172283515334129333e-01 -7.395530343055725098e-01
3.564000000000000000e+03 4.178032302856445312e+01 2.029784011840820312e+01 -6.726614385843276978e-02 4.109308496117591858e-02 -7.851918227970600128e-03 1.145157963037490845e-02
3.565000000000000000e+03 6.224144363403320312e+01 -9.710568428039550781e+00 -1.260094046592712402e+00 1.397729665040969849e-01 -3.360963165760040283e-01 1.027532368898391724e-01
3.566000000000000000e+03 6.277847671508789062e+01 -7.397909164428710938e-01 4.863791167736053467e-01 1.819617509841918945e+00 6.917989850044250488e-01 3.560622036457061768e-01
3.567000000000000000e+03 3.810644912719726562e+01 1.878091239929199219e+01 -6.592451781034469604e-02 3.379343822598457336e-02 -9.639323689043521881e-03 2.252858318388462067e-02
3.568000000000000000e+03 3.447971343994140625e+01 1.746104049682617188e+01 -5.404867976903915405e-02 5.573481321334838867e-03 -1.454256009310483932e-02 3.471524640917778015e-02
3.569000000000000000e+03 7.279284667968750000e+01 -9.368353843688964844e+00 -4.321481585502624512e-01 4.292129538953304291e-03 -1.283567994832992554e-01 -5.675771832466125488e-01
3.570000000000000000e+03 1.021055412292480469e+01 -2.956278800964355469e+01 2.099310159683227539e-01 -3.466146290302276611e-01 -4.100508615374565125e-02 -1.968892961740493774e-01
3.571000000000000000e+03 9.401900291442871094e+00 -1.051044940948486328e+01 -3.378031849861145020e-01 -1.717767715454101562e-01 -1.528739929199218750e-01 -1.492218375205993652e-01
3.572000000000000000e+03 1.090292930603027344e+01 -1.051917934417724609e+01 -4.196358919143676758e-01 -2.398163527250289917e-01 -1.978356689214706421e-01 -1.732468754053115845e-01
3.573000000000000000e+03 6.905211639404296875e+01 1.217657470703125000e+01 6.826949119567871094e-01 1.545488834381103516e+00 6.684551239013671875e-01 -1.258217692375183105e-01
3.574000000000000000e+03 7.995353698730468750e+00 3.086927604675292969e+01 -1.058399444445967674e-03 -8.263847790658473969e-03 -2.796674147248268127e-03 1.060586143285036087e-02
3.575000000000000000e+03 8.157941818237304688e+00 2.944335937500000000e+01 -3.012469504028558731e-03 -6.659257691353559494e-03 -2.901518251746892929e-03 9.672574698925018311e-03
3.576000000000000000e+03 4.729758834838867188e+01 2.311270713806152344e+01 1.980504952371120453e-02 3.696526587009429932e-02 1.703109405934810638e-02 -2.957573346793651581e-02
3.577000000000000000e+03 4.685338211059570312e+01 2.554618453979492188e+01 9.333623945713043213e-02 7.812490314245223999e-02 5.143834277987480164e-02 -7.641454786062240601e-02
3.578000000000000000e+03 4.224784469604492188e+01 2.412271690368652344e+01 5.934042856097221375e-03 6.655145436525344849e-02 2.174565009772777557e-02 -8.798626251518726349e-03
3.579000000000000000e+03 1.386601734161376953e+01 -2.887111663818359375e+01 3.233604431152343750e-01 -3.900075389537960291e-04 9.689113497734069824e-02 -2.110125869512557983e-01
3.580000000000000000e+03 6.909452819824218750e+01 2.448506927490234375e+01 5.740309879183769226e-02 1.060974121093750000e+00 3.355131447315216064e-01 7.043823599815368652e-01
3.581000000000000000e+03 6.631617736816406250e+01 2.330118179321289062e+01 2.123159170150756836e-01 2.096895217895507812e+00 6.927633881568908691e-01 4.546012878417968750e-01
3.582000000000000000e+03 8.231880187988281250e+00 -2.286308097839355469e+01 1.717629283666610718e-01 -4.501046836376190186e-01 -8.350252360105514526e-02 -4.252277612686157227e-01
3.583000000000000000e+03 6.326000595092773438e+01 -6.005027770996093750e+00 -2.577149569988250732e-01 6.354935169219970703e-01 1.133335754275321960e-01 -7.878809422254562378e-02
3.584000000000000000e+03 4.076541519165039062e+01 -3.031510734558105469e+01 4.640726745128631592e-02 1.258393168449401855e+00 3.914401233196258545e-01 1.252167820930480957e-01
3.585000000000000000e+03 6.973419952392578125e+01 1.750399017333984375e+01 6.470832824707031250e-01 1.052401185035705566e+00 5.098453164100646973e-01 3.063879311084747314e-01
3.586000000000000000e+03 6.987960815429687500e+01 1.529977130889892578e+01 6.578156352043151855e-01 1.022275209426879883e+00 5.040272474288940430e-01 1.239241659641265869e-01
3.587000000000000000e+03 3.889379501342773438e+01 1.962516975402832031e+01 -5.954031646251678467e-02 4.233054444193840027e-02 -5.162931978702545166e-03 1.515657640993595123e-02
3.588000000000000000e+03 7.087320709228515625e+01 -2.917259979248046875e+01 -7.122242823243141174e-03 7.815766730345785618e-04 -1.902199932374060154e-03 4.563992843031883240e-03
3.589000000000000000e+03 7.840749263763427734e+00 -2.587677192687988281e+01 1.833884268999099731e-01 -4.995490014553070068e-01 -9.484817087650299072e-02 -3.016807734966278076e-01
3.590000000000000000e+03 2.976671791076660156e+01 -3.373029947280883789e+00 -1.638921141624450684e+00 3.160864710807800293e-01 -3.968504071235656738e-01 -5.676817297935485840e-01
3.591000000000000000e+03 2.719161033630371094e+01 -4.189988136291503906e+00 -7.409254908561706543e-01 -1.268381602130830288e-03 -2.226581573486328125e-01 -9.359343051910400391e-01
3.592000000000000000e+03 2.824439239501953125e+01 -3.625087738037109375e+00 -1.250883460044860840e+00 1.022860258817672729e-01 -3.445792496204376221e-01 -7.551801800727844238e-01
3.593000000000000000e+03 4.541498184204101562e+01 -1.191630077362060547e+01 2.276177167892456055e+00 4.334396719932556152e-01 8.128850460052490234e-01 1.822798490524291992e+00
3.594000000000000000e+03 4.628067398071289062e+01 -1.070876789093017578e+01 1.190170407295227051e+00 3.594212234020233154e-02 3.678337633609771729e-01 1.859028816223144531e+00
3.595000000000000000e+03 3.598216247558593750e+01 1.376234245300292969e+01 -2.399137429893016815e-02 5.048194434493780136e-03 -5.682954099029302597e-03 1.077739242464303970e-02
3.596000000000000000e+03 1.235627746582031250e+01 1.181551742553710938e+01 1.831487606978043914e-04 1.446349197067320347e-04 9.833510557655245066e-05 2.277467719977721572e-04
3.597000000000000000e+03 1.314829730987548828e+01 1.043166065216064453e+01 1.310755906160920858e-04 3.579404074116609991e-05 5.006089122616685927e-05 2.353015734115615487e-04
3.598000000000000000e+03 1.299182319641113281e+01 2.300071525573730469e+01 -1.347603090107440948e-02 1.460880739614367485e-03 -3.604545025154948235e-03 4.040626343339681625e-03
3.599000000000000000e+03 1.279176616668701172e+01 2.151102828979492188e+01 -9.385206736624240875e-03 1.563075697049498558e-03 -2.346639288589358330e-03 5.074644577689468861e-04
3.600000000000000000e+03 1.396695518493652344e+01 8.961829185485839844e+00 4.986885687685571611e-05 1.950419100467115641e-04 7.347323116846382618e-05 3.191710220562526956e-06
3.601000000000000000e+03 1.391143512725830078e+01 9.746723175048828125e+00 -1.031731735565699637e-04 1.374630373902618885e-04 1.028696169669274241e-05 8.412975876126438379e-05
3.602000000000000000e+03 1.494746017456054688e+01 6.078790664672851562e+00 -6.708194996463134885e-05 -6.309276727733958978e-07 -2.031386429734993726e-05 2.643815378178260289e-06
3.603000000000000000e+03 3.540040588378906250e+01 1.368022346496582031e+01 -2.151468023657798767e-02 5.200027371756732464e-04 -6.298403255641460419e-03 1.300547178834676743e-02
3.604000000000000000e+03 3.601332092285156250e+01 1.474708557128906250e+01 -3.343701735138893127e-02 7.249068003147840500e-03 -7.856384851038455963e-03 1.823844201862812042e-02
3.605000000000000000e+03 1.135587692260742188e+01 1.258900070190429688e+01 6.527645746245980263e-05 -1.587231818120926619e-04 -2.803401548590045422e-05 4.251066711731255054e-04
3.606000000000000000e+03 2.712530517578125000e+01 -3.716766595840454102e+00 -1.045809149742126465e+00 -5.005787312984466553e-02 -3.287601172924041748e-01 -8.729107379913330078e-01
3.607000000000000000e+03 4.468937683105468750e+01 -1.094125175476074219e+01 1.284669041633605957e+00 9.818245768547058105e-01 6.799480915069580078e-01 1.759720444679260254e+00
3.608000000000000000e+03 4.479193496704101562e+01 -1.188146591186523438e+01 2.253890514373779297e+00 1.025792002677917480e+00 9.839047789573669434e-01 1.921824336051940918e+00
3.609000000000000000e+03 1.103502082824707031e+01 1.508439064025878906e+01 6.736154773534508422e-06 -5.119214183650910854e-04 -1.515555777586996555e-04 5.090896738693118095e-04
3.610000000000000000e+03 1.126486492156982422e+01 1.554501056671142578e+01 2.788425481412559748e-04 -3.896442940458655357e-04 -3.324052522657439113e-05 1.750759984133765101e-04
3.611000000000000000e+03 1.631869125366210938e+01 7.106779575347900391e+00 7.753810677968431264e-06 2.056546509265899658e-05 8.495782822137698531e-06 5.340950883692130446e-05
3.612000000000000000e+03 1.577118015289306641e+01 7.642382621765136719e+00 6.317227962426841259e-05 9.105870412895455956e-05 4.626929512596689165e-05 4.651612107409164310e-05
3.613000000000000000e+03 3.413838195800781250e+01 1.602229690551757812e+01 -3.633331879973411560e-02 -1.735051278956234455e-03 -1.142051070928573608e-02 2.828781120479106903e-02
3.614000000000000000e+03 2.759801673889160156e+01 -4.810171604156494141e+00 -5.133513808250427246e-01 9.110596776008605957e-02 -1.266736239194869995e-01 -9.429149627685546875e-01
3.615000000000000000e+03 2.848276138305664062e+01 -4.752595901489257812e+00 -6.109577417373657227e-01 2.313454151153564453e-01 -1.138836964964866638e-01 -9.053540825843811035e-01
3.616000000000000000e+03 4.592690277099609375e+01 -1.277327251434326172e+01 2.788366079330444336e+00 -1.465100795030593872e-01 7.925568222999572754e-01 1.389666914939880371e+00
3.617000000000000000e+03 3.338051605224609375e+01 1.906514739990234375e+01 -6.461622565984725952e-02 -2.985804108902812004e-03 -2.028061076998710632e-02 3.953982144594192505e-02
3.618000000000000000e+03 3.484660339355468750e+01 1.163952064514160156e+01 -4.762347787618637085e-03 -8.502324344590306282e-04 -1.683774054981768131e-03 2.937367418780922890e-03
3.619000000000000000e+03 3.039618492126464844e+01 -4.354097843170166016e+00 -1.093870520591735840e+00 4.479084312915802002e-01 -1.937886327505111694e-01 -5.982888936996459961e-01
3.620000000000000000e+03 1.123756599426269531e+01 1.385479736328125000e+01 3.541757469065487385e-04 -1.787001965567469597e-04 5.264266292215324938e-05 2.666438522282987833e-04
3.621000000000000000e+03 1.182605552673339844e+01 1.748092269897460938e+01 -4.435546288732439280e-04 -2.927680325228720903e-04 -2.208968071499839425e-04 1.541541132610291243e-05
3.622000000000000000e+03 1.075663757324218750e+01 1.639464378356933594e+01 -4.272476653568446636e-04 -7.130772573873400688e-04 -3.420974826440215111e-04 3.346466401126235723e-04
3.623000000000000000e+03 4.660164642333984375e+01 -1.223622035980224609e+01 2.202844381332397461e+00 -2.219590544700622559e-01 5.942655801773071289e-01 1.478330731391906738e+00
3.624000000000000000e+03 1.160029411315917969e+01 1.314041328430175781e+01 3.171643475070595741e-04 -4.163847552263177931e-05 8.265775977633893490e-05 2.756099565885961056e-04
3.625000000000000000e+03 3.390397644042968750e+01 1.990089225769042969e+01 -6.701404601335525513e-02 6.705458275973796844e-03 -1.809257641434669495e-02 3.470394760370254517e-02
3.626000000000000000e+03 3.246549987792968750e+01 2.003291320800781250e+01 -7.703524082899093628e-02 -8.734507486224174500e-03 -2.573092468082904816e-02 3.874543681740760803e-02
3.627000000000000000e+03 1.332481479644775391e+01 2.253312301635742188e+01 -1.352515537291765213e-02 1.820943551138043404e-03 -3.511263523250818253e-03 3.464933950453996658e-03
3.628000000000000000e+03 1.288761711120605469e+01 2.053487777709960938e+01 -5.997390020638704300e-03 3.839588607661426067e-04 -1.684029353782534599e-03 -9.006659820443019271e-05
3.629000000000000000e+03 1.181338691711425781e+01 1.920402336120605469e+01 -2.559568500146269798e-03 -6.537925801239907742e-04 -9.640082716941833496e-04 1.837105228332802653e-04
3.630000000000000000e+03 1.182161808013916016e+01 1.824985122680664062e+01 -1.471859868615865707e-03 -3.262932004872709513e-04 -5.394459003582596779e-04 -2.693358510441612452e-05
3.631000000000000000e+03 1.213230133056640625e+01 1.908772277832031250e+01 -1.949883648194372654e-03 -1.723600580589845777e-04 -6.366731249727308750e-04 -2.864663838408887386e-04
3.632000000000000000e+03 1.225145435333251953e+01 2.130278205871582031e+01 -6.994626950472593307e-03 2.961592981591820717e-04 -2.009540330618619919e-03 7.412387640215456486e-04
3.633000000000000000e+03 1.084417724609375000e+01 1.456374073028564453e+01 3.607265534810721874e-04 -3.554490103852003813e-04 1.583266453053511214e-06 2.271763805765658617e-04
3.634000000000000000e+03 4.143415832519531250e+01 -1.900548744201660156e+01 -4.745612442493438721e-01 3.581607341766357422e+00 9.321138262748718262e-01 4.718586802482604980e-01
3.635000000000000000e+03 4.180606079101562500e+01 -1.841844749450683594e+01 -4.965059757232666016e-01 3.869528055191040039e+00 1.011906623840332031e+00 2.144780606031417847e-01
3.636000000000000000e+03 2.956243515014648438e+01 -5.076756000518798828e+00 -5.246397852897644043e-01 5.031235814094543457e-01 -6.454858463257551193e-03 -8.188652396202087402e-01
3.637000000000000000e+03 1.175501537322998047e+01 1.191040229797363281e+01 1.080146739695919678e-05 -5.089117257739417255e-05 -1.202691146318102255e-05 3.605910169426351786e-04
3.638000000000000000e+03 3.505266571044921875e+01 1.534885406494140625e+01 -3.098102658987045288e-02 1.485386164858937263e-03 -8.848692290484905243e-03 2.125285379588603973e-02
3.639000000000000000e+03 3.086429595947265625e+01 2.390523338317871094e+01 -5.244627594947814941e-02 -2.246662788093090057e-02 -2.247387170791625977e-02 2.072533778846263885e-02
3.640000000000000000e+03 3.198880577087402344e+01 2.217311096191406250e+01 -6.827391684055328369e-02 -1.039242371916770935e-02 -2.359990403056144714e-02 2.457685582339763641e-02
3.641000000000000000e+03 2.398869323730468750e+01 2.544335365295410156e+01 -4.612243548035621643e-02 -2.557403035461902618e-02 -2.150893956422805786e-02 3.559438139200210571e-02
3.642000000000000000e+03 1.801563835144042969e+01 2.566180610656738281e+01 -2.878037840127944946e-02 -5.499329883605241776e-03 -1.028391253203153610e-02 2.207723818719387054e-02
3.643000000000000000e+03 2.178142738342285156e+01 2.625218582153320312e+01 -3.245992958545684814e-02 -1.997935399413108826e-02 -1.573178544640541077e-02 3.384542092680931091e-02
3.644000000000000000e+03 1.361960411071777344e+01 7.471901893615722656e+00 3.380252746865153313e-05 9.755072096595540643e-05 3.940597525797784328e-05 1.076868720701895654e-04
3.645000000000000000e+03 1.536544418334960938e+01 6.337036132812500000e+00 5.036255606682971120e-05 1.027992329909466207e-04 4.594853817252442241e-05 6.528010999318212271e-05
3.646000000000000000e+03 2.879290962219238281e+01 -5.191813468933105469e+00 -4.177910685539245605e-01 3.376761674880981445e-01 -2.403447590768337250e-02 -8.750129342079162598e-01
3.647000000000000000e+03 3.007282638549804688e+01 -5.337350368499755859e+00 -3.498964011669158936e-01 6.316791176795959473e-01 8.453480899333953857e-02 -7.380389571189880371e-01
3.648000000000000000e+03 3.066481018066406250e+01 -5.351371288299560547e+00 -3.562867641448974609e-01 6.976808905601501465e-01 1.024182364344596863e-01 -6.211987733840942383e-01
3.649000000000000000e+03 2.243548011779785156e+01 2.654316329956054688e+01 -2.817685529589653015e-02 -2.041880786418914795e-02 -1.457869913429021835e-02 3.356526792049407959e-02
3.650000000000000000e+03 2.342411994934082031e+01 2.855217552185058594e+01 -8.836079388856887817e-03 -2.516589127480983734e-02 -1.020059175789356232e-02 3.442710638046264648e-02
3.651000000000000000e+03 1.432950592041015625e+01 8.429240226745605469e+00 -8.455890929326415062e-05 1.930520738824270666e-05 -1.957611129910219461e-05 8.673194679431617260e-05
3.652000000000000000e+03 4.431748580932617188e+01 -1.113877010345458984e+01 1.370128035545349121e+00 1.446791172027587891e+00 8.450757861137390137e-01 1.673514366149902344e+00
3.653000000000000000e+03 1.414147281646728516e+01 2.353616333007812500e+01 -1.687074080109596252e-02 1.906472374685108662e-03 -4.489280283451080322e-03 6.511069368571043015e-03
3.654000000000000000e+03 1.369440460205078125e+01 2.419704437255859375e+01 -1.536829303950071335e-02 8.465081918984651566e-04 -4.356535617262125015e-03 8.360244333744049072e-03
3.655000000000000000e+03 1.613711738586425781e+01 2.481356811523437500e+01 -2.470158971846103668e-02 -1.101377420127391815e-03 -7.740890141576528549e-03 1.491526141762733459e-02
3.656000000000000000e+03 2.698576164245605469e+01 -4.802241325378417969e+00 -4.543836712837219238e-01 -2.719590254127979279e-02 -1.444738656282424927e-01 -9.774088859558105469e-01
3.657000000000000000e+03 4.787902832031250000e+01 -1.148513698577880859e+01 1.293561339378356934e+00 -2.462126761674880981e-01 3.142046034336090088e-01 1.633767008781433105e+00
3.658000000000000000e+03 4.678744506835937500e+01 -1.136141872406005859e+01 1.524134278297424316e+00 -1.633441150188446045e-01 4.082370400428771973e-01 1.707577466964721680e+00
3.659000000000000000e+03 3.438577651977539062e+01 1.483453369140625000e+01 -2.350839041173458099e-02 -3.597368486225605011e-03 -8.131727576255798340e-03 1.997727900743484497e-02
3.660000000000000000e+03 3.625906753540039062e+01 1.012172794342041016e+01 -4.246827214956283569e-03 7.880698103690519929e-05 -1.250406028702855110e-03 -1.310621883021667600e-04
3.661000000000000000e+03 3.510811233520507812e+01 -5.505834579467773438e+00 -8.986413478851318359e-01 5.551322102546691895e-01 -1.030527353286743164e-01 -9.502634406089782715e-02
3.662000000000000000e+03 3.010892486572265625e+01 2.577797698974609375e+01 -2.729262225329875946e-02 -2.336847595870494843e-02 -1.519832946360111237e-02 2.129064500331878662e-02
3.663000000000000000e+03 3.064576721191406250e+01 2.480097389221191406e+01 -3.791829198598861694e-02 -1.870482973754405975e-02 -1.698693633079528809e-02 1.971343904733657837e-02
3.664000000000000000e+03 2.476152610778808594e+01 2.517163848876953125e+01 -5.385915189981460571e-02 -2.659977972507476807e-02 -2.413767948746681213e-02 3.705316409468650818e-02
3.665000000000000000e+03 3.660255050659179688e+01 1.895923233032226562e+01 -6.441386044025421143e-02 2.835763804614543915e-02 -1.081686560064554214e-02 2.848354727029800415e-02
3.666000000000000000e+03 3.424947738647460938e+01 1.657610511779785156e+01 -3.961468487977981567e-02 -2.596094505861401558e-03 -1.266323402523994446e-02 3.106940910220146179e-02
3.667000000000000000e+03 8.093312263488769531e+00 1.034844779968261719e+01 2.857528488675598055e-05 -2.537801337894052267e-04 -6.756145739927887917e-05 1.023896766128018498e-04
3.668000000000000000e+03 1.236032962799072266e+01 6.679314136505126953e+00 1.505241561972070485e-05 3.311545879114419222e-05 1.445036286895629019e-05 4.635286313714459538e-05
3.669000000000000000e+03 4.108544921875000000e+01 -1.011256027221679688e+01 2.497800290584564209e-01 2.145974874496459961e+00 7.187265157699584961e-01 -6.385566592216491699e-01
3.670000000000000000e+03 4.300686645507812500e+01 -1.012835597991943359e+01 2.500858008861541748e-01 1.992906212806701660e+00 6.728975772857666016e-01 8.369004726409912109e-01
3.671000000000000000e+03 3.289090347290039062e+01 2.308089065551757812e+01 -5.411644279956817627e-02 3.475129837170243263e-03 -1.519239414483308792e-02 1.886687241494655609e-02
3.672000000000000000e+03 3.543397140502929688e+01 1.254862213134765625e+01 -1.219519507139921188e-02 -5.453216726891696453e-04 -3.822155063971877098e-03 6.973313633352518082e-03
3.673000000000000000e+03 4.205727005004882812e+01 -9.380234718322753906e+00 -3.109827339649200439e-01 1.770098090171813965e+00 4.377346038818359375e-01 7.539957761764526367e-02
3.674000000000000000e+03 9.861607551574707031e+00 7.049152374267578125e+00 1.355873791908379644e-05 -4.832448757952079177e-05 -1.042972508003003895e-05 3.947978257201611996e-06
3.675000000000000000e+03 1.212086963653564453e+01 -7.398108959197998047e+00 -2.689897119998931885e-01 -2.554096281528472900e-01 -1.573198139667510986e-01 -1.103969365358352661e-01
3.676000000000000000e+03 1.391328811645507812e+01 -8.000725746154785156e+00 -3.303525447845458984e-01 -3.733024299144744873e-01 -2.110964953899383545e-01 -2.062906324863433838e-01
3.677000000000000000e+03 1.211958026885986328e+01 2.045444297790527344e+01 -5.647428799420595169e-03 -1.075383770512416959e-04 -1.726490212604403496e-03 4.391686816234141588e-04
3.678000000000000000e+03 1.251074981689453125e+01 1.956334304809570312e+01 -3.595386398956179619e-03 3.634845197666436434e-04 -9.695705957710742950e-04 -4.771924577653408051e-04
3.679000000000000000e+03 3.409002685546875000e+01 1.700674819946289062e+01 -4.206645116209983826e-02 -2.380330406595021486e-04 -1.269134506583213806e-02 2.951496653258800507e-02
3.680000000000000000e+03 1.353407096862792969e+01 2.365538787841796875e+01 -1.630985736846923828e-02 1.348141347989439964e-03 -4.488514736294746399e-03 6.335396785289049149e-03
3.681000000000000000e+03 8.705080032348632812e+00 7.618613719940185547e+00 1.393663987983018160e-04 -9.328996384283527732e-05 1.382293339702300727e-05 -7.903651567175984383e-05
3.682000000000000000e+03 3.529450607299804688e+01 -4.881529331207275391e+00 -1.325641036033630371e+00 5.802982449531555176e-01 -2.236028462648391724e-01 6.817775219678878784e-02
3.683000000000000000e+03 1.718794059753417969e+01 2.510448265075683594e+01 -2.836789377033710480e-02 -2.868582494556903839e-03 -9.370942600071430206e-03 1.814036257565021515e-02
3.684000000000000000e+03 1.162566184997558594e+01 -8.267538070678710938e+00 -3.124607205390930176e-01 -2.524408102035522461e-01 -1.694704592227935791e-01 -1.069119125604629517e-01
3.685000000000000000e+03 6.920200824737548828e+00 8.862531661987304688e+00 3.302578697912395000e-04 -1.891040010377764702e-04 4.234616062603890896e-05 -2.392884016444440931e-05
3.686000000000000000e+03 7.655088901519775391e+00 9.385785102844238281e+00 -3.571752677089534700e-05 -1.506604166934266686e-04 -5.591338413069024682e-05 2.908261194534134120e-05
3.687000000000000000e+03 3.739384460449218750e+01 1.561205482482910156e+01 -4.420902580022811890e-02 1.294012181460857391e-02 -9.380671195685863495e-03 1.342299766838550568e-02
3.688000000000000000e+03 3.394335937500000000e+01 1.920584678649902344e+01 -6.570865958929061890e-02 9.408023208379745483e-03 -1.689019240438938141e-02 3.575412184000015259e-02
3.689000000000000000e+03 8.075740814208984375e+00 1.573436260223388672e+01 -3.014238900505006313e-04 -6.811446510255336761e-04 -2.947705506812781096e-04 -2.002420224016532302e-04
3.690000000000000000e+03 1.039937019348144531e+01 1.773480987548828125e+01 -7.784156478010118008e-04 -1.169646158814430237e-03 -5.844185361638665199e-04 2.862239198293536901e-04
3.691000000000000000e+03 1.140462398529052734e+01 1.647364997863769531e+01 2.026239817496389151e-04 -3.892642271239310503e-04 -5.599207361228764057e-05 7.538787031080573797e-05
3.692000000000000000e+03 3.365140151977539062e+01 2.302461242675781250e+01 -5.129616707563400269e-02 1.078712102025747299e-02 -1.215271372348070145e-02 1.928636431694030762e-02
3.693000000000000000e+03 3.231762695312500000e+01 2.268044662475585938e+01 -6.527637690305709839e-02 -4.474923945963382721e-03 -2.092538960278034210e-02 2.227928489446640015e-02
3.694000000000000000e+03 7.158497619628906250e+01 -9.107297897338867188e+00 -5.379356145858764648e-01 9.348060190677642822e-02 -1.333364993333816528e-01 -6.424245834350585938e-01
3.695000000000000000e+03 7.502106189727783203e+00 8.291178703308105469e+00 7.034946611383929849e-05 -1.138680527219548821e-04 -1.305557543673785403e-05 -9.221664367942139506e-05
3.696000000000000000e+03 3.323242950439453125e+01 1.968214797973632812e+01 -7.036910951137542725e-02 2.184433396905660629e-03 -2.045540139079093933e-02 3.711638227105140686e-02
3.697000000000000000e+03 3.362971496582031250e+01 2.065762138366699219e+01 -6.952621042728424072e-02 9.937502443790435791e-03 -1.787661202251911163e-02 2.944526262581348419e-02
3.698000000000000000e+03 3.162867164611816406e+01 2.305165290832519531e+01 -6.066349521279335022e-02 -1.279796566814184189e-02 -2.203843928873538971e-02 2.212040498852729797e-02
3.699000000000000000e+03 7.966830253601074219e+00 1.468417835235595703e+01 3.026284502993803471e-05 -6.170925917103886604e-04 -1.760489249136298895e-04 -2.165320765925571322e-04
3.700000000000000000e+03 7.388576030731201172e+00 1.521420764923095703e+01 2.481248520780354738e-04 -8.373839664272964001e-04 -1.767777284840121865e-04 4.681079008150845766e-05
3.701000000000000000e+03 7.248791217803955078e+00 -8.304612159729003906e+00 -1.747990548610687256e-01 -7.101177424192428589e-02 -7.374324649572372437e-02 -2.397430501878261566e-02
3.702000000000000000e+03 1.273131561279296875e+01 7.281316280364990234e+00 9.369377949042245746e-05 3.189600101904943585e-05 3.767693124245852232e-05 1.008770268526859581e-04
3.703000000000000000e+03 1.353425979614257812e+01 6.081601142883300781e+00 -2.054926699202042073e-05 1.836005503719206899e-05 -6.567636319232406095e-07 4.122336031286977232e-05
3.704000000000000000e+03 4.508652114868164062e+01 -1.038104629516601562e+01 8.677127361297607422e-01 6.174626946449279785e-01 4.455526471138000488e-01 1.729167342185974121e+00
3.705000000000000000e+03 3.656090164184570312e+01 -6.381557464599609375e+00 -8.378927707672119141e-01 6.523160934448242188e-01 -5.567300319671630859e-02 -3.627653121948242188e-01
3.706000000000000000e+03 6.382071304321289062e+01 -1.610648155212402344e+00 2.892563343048095703e-01 1.400136470794677734e+00 5.068178772926330566e-01 -1.897995546460151672e-02
3.707000000000000000e+03 8.999520301818847656e+00 1.788893318176269531e+01 -9.626415558159351349e-04 -8.691198891028761864e-04 -5.495284567587077618e-04 -2.151928638340905309e-04
3.708000000000000000e+03 2.688059234619140625e+01 2.664193344116210938e+01 -2.373735047876834869e-02 -3.108914010226726532e-02 -1.644794642925262451e-02 3.046850487589836121e-02
3.709000000000000000e+03 3.972142028808593750e+01 -9.517889022827148438e+00 1.850273013114929199e-01 1.444153666496276855e+00 4.887543022632598877e-01 -1.118211150169372559e+00
3.710000000000000000e+03 7.148490428924560547e+00 -9.190585136413574219e+00 -1.954621970653533936e-01 -8.009830862283706665e-02 -8.266815543174743652e-02 -5.876794457435607910e-02
3.711000000000000000e+03 8.576560974121093750e+00 -7.150905609130859375e+00 -1.678504198789596558e-01 -9.224883466958999634e-02 -7.802977412939071655e-02 -8.645318448543548584e-03
3.712000000000000000e+03 7.924251556396484375e+00 1.809708023071289062e+01 -1.337817288003861904e-03 -1.043223310261964798e-03 -7.143121329136192799e-04 1.330166851403191686e-04
3.713000000000000000e+03 7.808684825897216797e+00 1.889940834045410156e+01 -1.096860389225184917e-03 -9.107250953093171120e-04 -6.022756570018827915e-04 6.553482671733945608e-05
3.714000000000000000e+03 6.648033142089843750e+01 -3.683007717132568359e+00 -2.312843501567840576e-02 6.604103446006774902e-01 1.911845803260803223e-01 -5.763992071151733398e-01
3.715000000000000000e+03 6.446065521240234375e+01 -6.285731792449951172e-01 3.721642792224884033e-01 1.518990516662597656e+00 5.673463940620422363e-01 -6.729516386985778809e-02
3.716000000000000000e+03 3.566499710083007812e+01 -6.367473125457763672e+00 -4.776623845100402832e-01 5.618098974227905273e-01 2.524426393210887909e-02 -3.078823089599609375e-01
3.717000000000000000e+03 3.574876022338867188e+01 -5.679175376892089844e+00 -9.560727477073669434e-01 6.372601985931396484e-01 -9.564376622438430786e-02 -1.754796057939529419e-01
3.718000000000000000e+03 7.006999969482421875e+01 1.318500328063964844e+01 6.357212066650390625e-01 9.701303243637084961e-01 4.817554652690887451e-01 -6.522293388843536377e-02
3.719000000000000000e+03 6.810449981689453125e+01 1.514055633544921875e+01 8.096763491630554199e-01 2.045424938201904297e+00 8.565303683280944824e-01 2.354525029659271240e-02
3.720000000000000000e+03 4.731339263916015625e+01 -1.141793060302734375e+01 1.405674695968627930e+00 -2.678998112678527832e-01 3.413324654102325439e-01 1.674286246299743652e+00
3.721000000000000000e+03 4.730164337158203125e+01 -1.081440544128417969e+01 1.058804035186767578e+00 -2.709069252014160156e-01 2.363691329956054688e-01 1.786720395088195801e+00
3.722000000000000000e+03 6.130434417724609375e+01 -8.815835952758789062e+00 -9.195348620414733887e-01 4.591865539550781250e-01 -1.381044834852218628e-01 2.291762530803680420e-01
3.723000000000000000e+03 2.859453582763671875e+01 2.553604698181152344e+01 -3.486364707350730896e-02 -2.943305671215057373e-02 -1.928901113569736481e-02 2.888724580407142639e-02
3.724000000000000000e+03 8.371354103088378906e+00 2.510429954528808594e+01 -6.453528068959712982e-03 -1.824820297770202160e-03 -2.483504358679056168e-03 5.970725324004888535e-03
3.725000000000000000e+03 8.800839424133300781e+00 2.715731430053710938e+01 -4.653144162148237228e-03 -4.015566315501928329e-03 -2.600613282993435860e-03 8.806971833109855652e-03
3.726000000000000000e+03 7.507414340972900391e+00 1.201436996459960938e+01 3.668833232950419188e-04 -4.005935625173151493e-04 -1.011306994769256562e-05 -1.173791897599585354e-04
3.727000000000000000e+03 6.992581939697265625e+01 -6.625885486602783203e+00 -3.888376951217651367e-01 1.341164857149124146e-01 -7.641635835170745850e-02 -8.199176192283630371e-01
3.728000000000000000e+03 3.734391021728515625e+01 1.805758094787597656e+01 -5.851535499095916748e-02 3.147301450371742249e-02 -8.112701587378978729e-03 1.866305992007255554e-02
3.729000000000000000e+03 3.466136169433593750e+01 1.598419761657714844e+01 -3.522930666804313660e-02 -8.409651491092517972e-05 -1.059402059763669968e-02 2.596841566264629364e-02
3.730000000000000000e+03 6.731469726562500000e+01 6.772405147552490234e+00 6.219307184219360352e-01 2.037768840789794922e+00 7.979098558425903320e-01 -2.038305401802062988e-01
3.731000000000000000e+03 6.858142852783203125e+01 8.081664085388183594e+00 6.026425361633300781e-01 1.576074242591857910e+00 6.536150574684143066e-01 -2.798161506652832031e-01
3.732000000000000000e+03 7.240370941162109375e+01 -6.095710277557373047e+00 -2.578949034214019775e-01 -8.829069137573242188e-02 -1.038556843996047974e-01 -8.113220930099487305e-01
3.733000000000000000e+03 7.180815887451171875e+01 -4.367371559143066406e+00 -1.572935432195663452e-01 -4.979941621422767639e-02 -6.212788820266723633e-02 -8.813625574111938477e-01
3.734000000000000000e+03 1.063584518432617188e+01 -7.643089294433593750e+00 -2.507436871528625488e-01 -1.747251898050308228e-01 -1.276406645774841309e-01 -6.773823499679565430e-02
3.735000000000000000e+03 1.121630477905273438e+01 -6.897517204284667969e+00 -2.208266407251358032e-01 -1.879346966743469238e-01 -1.226283982396125793e-01 -6.507480144500732422e-02
3.736000000000000000e+03 6.838332366943359375e+01 9.327293395996093750e+00 5.862658619880676270e-01 1.644231081008911133e+00 6.691490411758422852e-01 -1.918036788702011108e-01
3.737000000000000000e+03 7.247627258300781250e+01 -8.576052665710449219e+00 -4.136493206024169922e-01 -9.377128444612026215e-03 -1.269079446792602539e-01 -6.346697211265563965e-01
3.738000000000000000e+03 7.144363403320312500e+01 2.224808692932128906e+00 2.589446306228637695e-01 6.617843359708786011e-02 9.753692150115966797e-02 -7.655540108680725098e-01
3.739000000000000000e+03 6.246861648559570312e+01 -5.079168319702148438e+00 -1.085059568285942078e-01 8.783597946166992188e-01 2.309561520814895630e-01 7.340866327285766602e-02
3.740000000000000000e+03 1.092508983612060547e+01 -9.087603569030761719e+00 -3.476670384407043457e-01 -2.275328487157821655e-01 -1.725599616765975952e-01 -1.175423860549926758e-01
3.741000000000000000e+03 6.710708618164062500e+01 4.191772937774658203e+00 5.440134406089782715e-01 1.676992177963256836e+00 6.663016676902770996e-01 -2.975229620933532715e-01
3.742000000000000000e+03 8.535678863525390625e+00 -1.351343917846679688e+01 -3.344229757785797119e-01 -1.940501034259796143e-01 -1.585419178009033203e-01 -3.158511221408843994e-01
3.743000000000000000e+03 3.489527511596679688e+01 1.806521224975585938e+01 -5.306743830442428589e-02 1.092524267733097076e-02 -1.264265831559896469e-02 3.068659454584121704e-02
3.744000000000000000e+03 1.017663383483886719e+01 -1.116630744934082031e+01 -4.137885868549346924e-01 -2.255206406116485596e-01 -1.917927712202072144e-01 -2.041214406490325928e-01
3.745000000000000000e+03 9.283816337585449219e+00 -9.214579582214355469e+00 -2.887477576732635498e-01 -1.502648741006851196e-01 -1.317037940025329590e-01 -9.028674662113189697e-02
3.746000000000000000e+03 6.534217071533203125e+01 1.883347630500793457e+00 4.652342498302459717e-01 1.862179517745971680e+00 6.982241272926330566e-01 -1.072399616241455078e-01
3.747000000000000000e+03 7.929046154022216797e+00 2.417861175537109375e+01 -4.218357149511575699e-03 -1.795012853108346462e-03 -1.804011058993637562e-03 4.284876398742198944e-03
3.748000000000000000e+03 8.761583328247070312e+00 2.404683303833007812e+01 -6.206158548593521118e-03 -1.435394398868083954e-03 -2.292465884238481522e-03 4.601947963237762451e-03
3.749000000000000000e+03 7.226775360107421875e+01 4.695905208587646484e+00 2.856019735336303711e-01 -1.647298336029052734e-01 3.626164048910140991e-02 -6.463547945022583008e-01
3.750000000000000000e+03 7.756888389587402344e+00 2.311340904235839844e+01 -4.671433940529823303e-03 -1.394887920469045639e-03 -1.819896628148853779e-03 3.050434170290827751e-03
3.751000000000000000e+03 7.063950347900390625e+01 -4.224890708923339844e+00 -1.679658442735671997e-01 9.098523855209350586e-02 -2.309417910873889923e-02 -8.742634654045104980e-01
3.752000000000000000e+03 4.252949142456054688e+01 2.236169242858886719e+01 -3.025835938751697540e-02 4.594151675701141357e-02 4.704947117716073990e-03 5.917049478739500046e-03
3.753000000000000000e+03 7.141954803466796875e+01 1.978043556213378906e+01 3.953290879726409912e-01 2.325403541326522827e-01 1.883608400821685791e-01 5.512124300003051758e-01
3.754000000000000000e+03 7.418653106689453125e+01 1.945547866821289062e+01 1.772848367691040039e-01 -9.895696640014648438e-01 -2.436854541301727295e-01 4.722579121589660645e-01
3.755000000000000000e+03 5.515830039978027344e+00 -2.203911972045898438e+01 7.288059592247009277e-02 -5.154712200164794922e-01 -1.327771991491317749e-01 -3.741678297519683838e-01
3.756000000000000000e+03 9.978456497192382812e+00 -2.077779960632324219e+01 1.456390470266342163e-01 -3.754276633262634277e-01 -6.893658638000488281e-02 -5.313652753829956055e-01
3.757000000000000000e+03 6.990154266357421875e+01 -3.067253303527832031e+01 -9.917833842337131500e-03 1.315309666097164154e-03 -2.580757252871990204e-03 8.015578612685203552e-03
3.758000000000000000e+03 7.089083099365234375e+01 1.847159194946289062e+01 5.247353911399841309e-01 4.526280164718627930e-01 2.932090461254119873e-01 3.951765894889831543e-01
3.759000000000000000e+03 6.223458862304687500e+01 -8.142642021179199219e+00 -7.627738118171691895e-01 3.498519062995910645e-01 -1.238765791058540344e-01 1.224123537540435791e-01
3.760000000000000000e+03 6.095950698852539062e+01 -6.159129619598388672e+00 -2.514347136020660400e-01 9.517949819564819336e-01 2.101080864667892456e-01 3.599049150943756104e-01
3.761000000000000000e+03 7.004558563232421875e+01 1.106979751586914062e+01 6.009195446968078613e-01 1.000268936157226562e+00 4.803565442562103271e-01 -1.928921043872833252e-01
3.762000000000000000e+03 6.991718292236328125e+01 8.000680923461914062e+00 4.997874796390533447e-01 8.766175508499145508e-01 4.129215180873870850e-01 -3.703913092613220215e-01
3.763000000000000000e+03 6.331720352172851562e+01 2.264751434326171875e+01 5.401821136474609375e-01 3.132545232772827148e+00 1.101818203926086426e+00 -3.056901097297668457e-01
3.764000000000000000e+03 6.762960815429687500e+01 2.397631645202636719e+01 1.352316290140151978e-01 1.566414952278137207e+00 5.104939937591552734e-01 5.928487181663513184e-01
3.765000000000000000e+03 6.156787490844726562e+01 -4.286053657531738281e+00 1.261515468358993530e-01 1.208894610404968262e+00 4.005138576030731201e-01 3.155421614646911621e-01
3.766000000000000000e+03 4.847267150878906250e+01 2.290362739562988281e+01 4.685136675834655762e-02 8.440088480710983276e-03 1.658743619918823242e-02 -5.513998493552207947e-02
3.767000000000000000e+03 4.522717666625976562e+01 2.637561416625976562e+01 8.038248866796493530e-02 7.440613955259323120e-02 4.643658548593521118e-02 -6.657359004020690918e-02
3.768000000000000000e+03 7.246461391448974609e+00 -2.080256271362304688e+01 7.208126038312911987e-02 -4.322950541973114014e-01 -1.080641373991966248e-01 -4.746531248092651367e-01
3.769000000000000000e+03 3.894316864013671875e+01 2.229843330383300781e+01 -4.414188489317893982e-02 5.404641851782798767e-02 2.971359528601169586e-03 1.766674406826496124e-02
3.770000000000000000e+03 2.785486602783203125e+01 -3.800379276275634766e+00 -1.088310360908508301e+00 4.910461232066154480e-02 -3.117617070674896240e-01 -8.180949091911315918e-01
3.771000000000000000e+03 2.899397468566894531e+01 -3.789701223373413086e+00 -1.244412660598754883e+00 2.514849007129669189e-01 -2.978783547878265381e-01 -7.278507947921752930e-01
3.772000000000000000e+03 3.492709350585937500e+01 1.478049564361572266e+01 -2.928039059042930603e-02 1.922895549796521664e-03 -8.207248523831367493e-03 1.991253346204757690e-02
3.773000000000000000e+03 1.363360595703125000e+01 9.466643333435058594e+00 7.712736260145902634e-05 9.637981565902009606e-05 5.205215347814373672e-05 1.713530655251815915e-04
3.774000000000000000e+03 1.331080532073974609e+01 6.953806400299072266e+00 -7.656601042071997654e-07 2.574455538706388324e-05 7.493668817915022373e-06 3.530389585648663342e-05
3.775000000000000000e+03 2.782988548278808594e+01 -4.135484695434570312e+00 -8.918738365173339844e-01 5.566398426890373230e-02 -2.508629560470581055e-01 -8.576663136482238770e-01
3.776000000000000000e+03 1.647052574157714844e+01 6.066633701324462891e+00 -4.166548023931682110e-05 4.449664993444457650e-05 8.493510676998994313e-07 -3.399676279514096677e-05
3.777000000000000000e+03 1.021909523010253906e+01 1.473022174835205078e+01 6.289380689850077033e-05 -6.914570112712681293e-04 -1.885689562186598778e-04 4.102809471078217030e-04
3.778000000000000000e+03 9.232345581054687500e+00 1.262885665893554688e+01 2.507607277948409319e-04 -5.011541070416569710e-04 -7.511801959481090307e-05 1.608197781024500728e-04
3.779000000000000000e+03 3.593505859375000000e+01 1.422498798370361328e+01 -2.949735149741172791e-02 5.680595058947801590e-03 -7.145027164369821548e-03 1.382170803844928741e-02
3.780000000000000000e+03 3.661408615112304688e+01 1.472464370727539062e+01 -3.557818755507469177e-02 1.034609135240316391e-02 -7.569628767669200897e-03 1.216051913797855377e-02
3.781000000000000000e+03 1.267452335357666016e+01 1.121833229064941406e+01 9.234491881215944886e-05 2.060681435978040099e-04 8.952392090577632189e-05 1.459606137359514832e-04
3.782000000000000000e+03 1.368290424346923828e+01 9.983026504516601562e+00 1.335959386778995395e-04 9.763364505488425493e-05 6.936887803021818399e-05 1.569781161379069090e-04
3.783000000000000000e+03 4.485901260375976562e+01 -1.126627826690673828e+01 1.637231111526489258e+00 9.201551079750061035e-01 7.672158479690551758e-01 1.839070558547973633e+00
3.784000000000000000e+03 2.867150688171386719e+01 -4.198731899261474609e+00 -9.595128893852233887e-01 2.272409349679946899e-01 -2.196815907955169678e-01 -8.173953294754028320e-01
3.785000000000000000e+03 1.593086147308349609e+01 7.313177108764648438e+00 -7.503932283725589514e-05 3.192036456312052906e-05 -1.293568675464484841e-05 -1.259966211364371702e-05
3.786000000000000000e+03 1.576083946228027344e+01 6.619405269622802734e+00 -7.238740363391116261e-05 -9.671078259998466820e-06 -2.461754411342553794e-05 -1.469462131353793666e-05
3.787000000000000000e+03 1.141084766387939453e+01 1.597116947174072266e+01 -1.929199934238567948e-04 -5.083623691461980343e-04 -2.103847073158249259e-04 6.005373434163630009e-04
3.788000000000000000e+03 1.031356716156005859e+01 1.569081687927246094e+01 -2.929405600298196077e-04 -6.056483252905309200e-04 -2.695766743272542953e-04 2.720873453654348850e-04
3.789000000000000000e+03 3.430535125732421875e+01 1.839409828186035156e+01 -6.206896156072616577e-02 8.552919141948223114e-03 -1.605481281876564026e-02 3.538218513131141663e-02
3.790000000000000000e+03 1.244924068450927734e+01 1.078859519958496094e+01 3.315798676339909434e-05 -3.550435963006748352e-07 9.840883649303577840e-06 3.542121557984501123e-04
3.791000000000000000e+03 1.318350982666015625e+01 7.827178478240966797e+00 -6.114989082561805844e-05 3.139075488434173167e-05 -8.927740964281838387e-06 8.595039253123104572e-05
3.792000000000000000e+03 4.603829574584960938e+01 -1.206982994079589844e+01 2.264390945434570312e+00 -7.348957005888223648e-03 6.771125793457031250e-01 1.652061700820922852e+00
3.793000000000000000e+03 1.111900520324707031e+01 1.199741363525390625e+01 3.159737971145659685e-04 -1.142750552389770746e-04 6.050962110748514533e-05 2.061800041701644659e-04
3.794000000000000000e+03 2.791430664062500000e+01 -4.446409702301025391e+00 -7.851435542106628418e-01 1.152962073683738708e-01 -2.009541988372802734e-01 -9.196628928184509277e-01
3.795000000000000000e+03 1.037613964080810547e+01 1.350412940979003906e+01 3.561306511983275414e-04 -3.594465670175850391e-04 -9.947717671821010299e-07 1.791678805602714419e-04
3.796000000000000000e+03 3.101436424255371094e+01 -4.587266921997070312e+00 -9.066607356071472168e-01 5.560567378997802734e-01 -1.051812022924423218e-01 -5.130715370178222656e-01
3.797000000000000000e+03 1.243318080902099609e+01 2.264460372924804688e+01 -1.158977486193180084e-02 9.455719846300780773e-04 -3.193260869011282921e-03 3.578691277652978897e-03
3.798000000000000000e+03 1.267595481872558594e+01 2.415242767333984375e+01 -1.326665282249450684e-02 5.155211547389626503e-04 -3.825339488685131073e-03 7.057768758386373520e-03
3.799000000000000000e+03 1.062272739410400391e+01 1.404156589508056641e+01 1.193101925309747458e-04 -4.646924789994955063e-04 -1.036146859405562282e-04 4.515794571489095688e-04
3.800000000000000000e+03 1.099397277832031250e+01 1.331587886810302734e+01 1.128933799918740988e-04 -2.997827250510454178e-04 -5.606680497294291854e-05 4.521212831605225801e-04
3.801000000000000000e+03 1.186665630340576172e+01 1.998260498046875000e+01 -3.403317648917436600e-03 -1.196049415739253163e-04 -1.056876732036471367e-03 -5.062575219199061394e-04
3.802000000000000000e+03 1.176366806030273438e+01 7.538886070251464844e+00 1.070891667040996253e-04 4.587626608554273844e-05 4.588962838170118630e-05 2.661016696947626770e-05
3.803000000000000000e+03 1.164362716674804688e+01 6.941321372985839844e+00 3.461534652160480618e-05 -3.244104300392791629e-05 6.522911917272722349e-07 1.047312107402831316e-04
3.804000000000000000e+03 9.709843635559082031e+00 2.113953208923339844e+01 -4.408427979797124863e-03 -8.113791118375957012e-04 -1.565942075103521347e-03 1.554812421090900898e-03
3.805000000000000000e+03 1.142133426666259766e+01 2.008736991882324219e+01 -4.431736655533313751e-03 -1.756489073159173131e-04 -1.382215647026896477e-03 8.030193566810339689e-05
3.806000000000000000e+03 1.090394878387451172e+01 7.182769775390625000e+00 8.024094859138131142e-05 -9.477461389906238765e-06 2.122904515999834985e-05 4.222883944748900831e-05
3.807000000000000000e+03 1.073560142517089844e+01 6.503078460693359375e+00 5.295833398122340441e-05 -7.001760241109877825e-05 -5.117779892316320911e-06 8.002489630598574877e-05
3.808000000000000000e+03 3.640066528320312500e+01 1.410363864898681641e+01 -3.031735680997371674e-02 4.788918420672416687e-03 -7.658531423658132553e-03 1.252786535769701004e-02
3.809000000000000000e+03 4.176430511474609375e+01 -1.874445343017578125e+01 -4.995713829994201660e-01 3.720628738403320312e+00 9.663172364234924316e-01 2.782558202743530273e-01
3.810000000000000000e+03 1.479700565338134766e+01 7.525260448455810547e+00 7.522851228713989258e-05 3.786800880334340036e-05 3.392895814613439143e-05 -7.089794507919577882e-06
3.811000000000000000e+03 1.446967124938964844e+01 5.939690589904785156e+00 7.263511361088603735e-05 5.095028973300941288e-05 3.707562063937075436e-05 1.468177470087539405e-05
3.812000000000000000e+03 4.580728912353515625e+01 -1.156068229675292969e+01 1.894021272659301758e+00 2.116288542747497559e-01 6.316950321197509766e-01 1.807907938957214355e+00
3.813000000000000000e+03 3.592069625854492188e+01 1.693084144592285156e+01 -4.952552169561386108e-02 1.712911017239093781e-02 -9.718922898173332214e-03 2.320782467722892761e-02
3.814000000000000000e+03 3.496562576293945312e+01 1.708284187316894531e+01 -4.551339149475097656e-02 7.817824371159076691e-03 -1.130867004394531250e-02 2.722273580729961395e-02
3.815000000000000000e+03 2.118682670593261719e+01 2.738488197326660156e+01 -2.278492040932178497e-02 -1.831055805087089539e-02 -1.232864335179328918e-02 3.265321627259254456e-02
3.816000000000000000e+03 2.111818313598632812e+01 2.604072189331054688e+01 -3.461496531963348389e-02 -1.525628380477428436e-02 -1.496137492358684540e-02 3.094426542520523071e-02
3.817000000000000000e+03 1.532366561889648438e+01 7.529242992401123047e+00 -1.148173541878350079e-04 6.226294499356299639e-05 -1.576632166688796133e-05 1.046780653268797323e-05
3.818000000000000000e+03 1.396750354766845703e+01 7.852236270904541016e+00 -6.873081292724236846e-05 3.053512409678660333e-05 -1.145870737673249096e-05 1.783119478204753250e-05
3.819000000000000000e+03 8.605808258056640625e+00 -9.898088455200195312e+00 -2.815912663936614990e-01 -1.401556581258773804e-01 -1.265240758657455444e-01 -1.151384115219116211e-01
3.820000000000000000e+03 9.775661468505859375e+00 -7.011307716369628906e+00 -1.906599104404449463e-01 -1.305740028619766235e-01 -9.637016803026199341e-02 -2.733148820698261261e-02
3.821000000000000000e+03 2.918487167358398438e+01 2.683494758605957031e+01 -1.458243653178215027e-02 -2.237654663622379303e-02 -1.108769513666629791e-02 2.067018859088420868e-02
3.822000000000000000e+03 3.473414611816406250e+01 1.656751251220703125e+01 -4.583663493394851685e-02 6.075953133404254913e-03 -1.192820444703102112e-02 2.966287173330783844e-02
3.823000000000000000e+03 3.632438659667968750e+01 1.620193672180175781e+01 -4.609351605176925659e-02 1.112601533532142639e-02 -1.049025077372789383e-02 2.281473577022552490e-02
3.824000000000000000e+03 2.277884674072265625e+01 2.592500686645507812e+01 -3.983830288052558899e-02 -2.150057442486286163e-02 -1.840166375041007996e-02 3.497664630413055420e-02
3.825000000000000000e+03 2.192704963684082031e+01 2.786922264099121094e+01 -1.492721028625965118e-02 -2.078781835734844208e-02 -1.071450859308242798e-02 3.311977162957191467e-02
3.826000000000000000e+03 4.276231765747070312e+01 -1.084972190856933594e+01 6.477792263031005859e-01 2.718346118927001953e+00 1.009837627410888672e+00 7.482138872146606445e-01
3.827000000000000000e+03 1.373012447357177734e+01 2.544868850708007812e+01 -1.520940382033586502e-02 -1.019954914227128029e-03 -4.868807736784219742e-03 1.221374701708555222e-02
3.828000000000000000e+03 1.151021575927734375e+01 2.112318611145019531e+01 -6.950755137950181961e-03 4.434481670614331961e-04 -1.952192164026200771e-03 7.481495849788188934e-04
3.829000000000000000e+03 3.531786346435546875e+01 2.172650337219238281e+01 -5.468722060322761536e-02 2.665440924465656281e-02 -8.409843780100345612e-03 2.135808207094669342e-02
3.830000000000000000e+03 3.709280776977539062e+01 1.659254646301269531e+01 -5.210641771554946899e-02 2.450592443346977234e-02 -8.280147798359394073e-03 1.640757732093334198e-02
3.831000000000000000e+03 3.661855697631835938e+01 1.745785140991210938e+01 -5.781478807330131531e-02 2.003768458962440491e-02 -1.133313123136758804e-02 2.626058273017406464e-02
3.832000000000000000e+03 1.133827972412109375e+01 1.787085533142089844e+01 -6.825756863690912724e-04 -1.004976569674909115e-03 -5.062656709924340248e-04 2.243642520625144243e-04
3.833000000000000000e+03 1.077463722229003906e+01 1.825638389587402344e+01 -1.197341829538345337e-03 -5.698339664377272129e-04 -5.301527562551200390e-04 -2.304642839590087533e-04
3.834000000000000000e+03 3.459422683715820312e+01 1.910260200500488281e+01 -6.035222858190536499e-02 1.199174299836158752e-02 -1.450814586132764816e-02 3.419303148984909058e-02
3.835000000000000000e+03 9.620407104492187500e+00 7.934645652770996094e+00 9.089742525247856975e-05 -5.637869253405369818e-05 1.035561945172958076e-05 -1.355417589365970343e-05
3.836000000000000000e+03 7.107906341552734375e+01 -8.316772460937500000e+00 -5.189650654792785645e-01 8.877501636743545532e-02 -1.290570199489593506e-01 -6.896371841430664062e-01
3.837000000000000000e+03 3.272560119628906250e+01 2.402405548095703125e+01 -4.643713310360908508e-02 1.328841666691005230e-03 -1.353248767554759979e-02 1.691972650587558746e-02
3.838000000000000000e+03 3.153531265258789062e+01 2.509012222290039062e+01 -3.435021638870239258e-02 -1.056648977100849152e-02 -1.347501203417778015e-02 1.733249239623546600e-02
3.839000000000000000e+03 7.816710472106933594e+00 1.286938762664794922e+01 1.277128612855449319e-04 -5.034744390286505222e-04 -1.127284704125486314e-04 5.453474659589119256e-05
3.840000000000000000e+03 1.073755931854248047e+01 1.275145816802978516e+01 3.207952249795198441e-04 -2.093656803481280804e-04 3.342886338941752911e-05 1.959026558324694633e-04
3.841000000000000000e+03 4.057503509521484375e+01 -8.842533111572265625e+00 -4.414096176624298096e-01 1.406389236450195312e+00 2.894938886165618896e-01 -6.525045037269592285e-01
3.842000000000000000e+03 3.262812805175781250e+01 2.525476646423339844e+01 -2.985946647822856903e-02 4.365070722997188568e-03 -7.648319005966186523e-03 1.283942908048629761e-02
3.843000000000000000e+03 2.141640090942382812e+01 2.870893096923828125e+01 -1.066221296787261963e-02 -2.145013771951198578e-02 -9.633705019950866699e-03 3.286655247211456299e-02
3.844000000000000000e+03 3.389866638183593750e+01 2.184801292419433594e+01 -5.950983241200447083e-02 1.374059263616800308e-02 -1.373077183961868286e-02 2.282396331429481506e-02
3.845000000000000000e+03 3.323043441772460938e+01 2.139815902709960938e+01 -7.154931873083114624e-02 4.123737569898366928e-03 -2.022767439484596252e-02 3.017197549343109131e-02
3.846000000000000000e+03 7.063863372802734375e+01 -5.323521614074707031e+00 -2.520610690116882324e-01 7.562947273254394531e-02 -5.292947962880134583e-02 -8.673630952835083008e-01
3.847000000000000000e+03 7.141158103942871094e+00 2.159948730468750000e+01 -2.657919190824031830e-03 -1.146511873230338097e-03 -1.141329295933246613e-03 1.456984085962176323e-03
3.848000000000000000e+03 8.214177131652832031e+00 2.158075714111328125e+01 -3.598192473873496056e-03 -8.269979734905064106e-04 -1.327557140029966831e-03 1.133164623752236366e-03
3.849000000000000000e+03 6.406198883056640625e+01 -3.637577533721923828e+00 5.106648802757263184e-02 9.712448716163635254e-01 3.066934049129486084e-01 -1.781579107046127319e-01
3.850000000000000000e+03 8.197119712829589844e+00 -8.197879791259765625e+00 -2.002641409635543823e-01 -9.942857921123504639e-02 -8.990781754255294800e-02 -3.715794160962104797e-02
3.851000000000000000e+03 8.013534545898437500e+00 8.820023536682128906e+00 3.193935845047235489e-04 -1.696497929515317082e-04 4.492313382797874510e-05 2.299109110026620328e-05
3.852000000000000000e+03 9.300132751464843750e+00 7.359989643096923828e+00 1.303365279454737902e-04 -1.033196094795130193e-04 8.105077540676575154e-06 1.378894521621987224e-04
3.853000000000000000e+03 1.744966316223144531e+01 2.702503967285156250e+01 -1.970805786550045013e-02 -6.882990244776010513e-03 -7.977314293384552002e-03 2.328453585505485535e-02
3.854000000000000000e+03 1.745838165283203125e+01 2.583307266235351562e+01 -2.531971409916877747e-02 -4.001417197287082672e-03 -8.796338923275470734e-03 2.057632990181446075e-02
3.855000000000000000e+03 2.066757202148437500e+01 2.797909545898437500e+01 -1.586721278727054596e-02 -1.823957264423370361e-02 -1.023203600198030472e-02 3.075226955115795135e-02
3.856000000000000000e+03 1.828208351135253906e+01 2.763586807250976562e+01 -1.800386793911457062e-02 -1.165606733411550522e-02 -8.897980675101280212e-03 2.792788669466972351e-02
3.857000000000000000e+03 6.482279205322265625e+01 -6.385934352874755859e+00 -3.481155037879943848e-01 3.783548772335052490e-01 9.071809239685535431e-03 -4.007853865623474121e-01
3.858000000000000000e+03 6.483061218261718750e+01 -4.734413623809814453e+00 -9.863411635160446167e-02 6.625769734382629395e-01 1.691828519105911255e-01 -3.534624278545379639e-01
3.859000000000000000e+03 1.064079666137695312e+01 1.974669647216796875e+01 -3.346834797412157059e-03 -9.390855557285249233e-04 -1.285776030272245407e-03 3.679031215142458677e-04
3.860000000000000000e+03 8.648540496826171875e+00 2.212553596496582031e+01 -4.929045215249061584e-03 -1.191582879982888699e-03 -1.836188370361924171e-03 2.693758578971028328e-03
3.861000000000000000e+03 8.621901512145996094e+00 1.900498771667480469e+01 -2.025368390604853630e-03 -1.172971911728382111e-03 -9.595020674169063568e-04 3.828260523732751608e-04
3.862000000000000000e+03 2.515435600280761719e+01 2.621970367431640625e+01 -3.257326409220695496e-02 -2.985374443233013153e-02 -1.872810348868370056e-02 3.522484749555587769e-02
3.863000000000000000e+03 2.314233207702636719e+01 2.672394180297851562e+01 -2.764775976538658142e-02 -2.379941381514072418e-02 -1.543415151536464691e-02 3.479101508855819702e-02
3.864000000000000000e+03 3.545915603637695312e+01 1.758759880065917969e+01 -5.727244913578033447e-02 1.378815621137619019e-02 -1.304528769105672836e-02 3.166873380541801453e-02
3.865000000000000000e+03 8.600218772888183594e+00 1.522152709960937500e+01 2.933856740128248930e-04 -9.272348252125084400e-04 -1.901547511806711555e-04 1.755137636791914701e-04
3.866000000000000000e+03 7.090154170989990234e+00 2.916949653625488281e+01 -2.266237046569585800e-03 -6.141968071460723877e-03 -2.522461581975221634e-03 8.745025843381881714e-03
3.867000000000000000e+03 9.314410209655761719e+00 3.108721160888671875e+01 -1.793057541362941265e-03 -8.731280453503131866e-03 -3.157301340252161026e-03 1.172623317688703537e-02
3.868000000000000000e+03 1.011533546447753906e+01 1.294743156433105469e+01 1.760343293426558375e-04 -4.068820271641016006e-04 -6.925431080162525177e-05 3.197591286152601242e-04
3.869000000000000000e+03 8.685331344604492188e+00 1.616534423828125000e+01 1.769986702129244804e-04 -1.122093177400529385e-03 -2.835283812601119280e-04 1.298226125072687864e-04
3.870000000000000000e+03 7.040460968017578125e+01 3.828070402145385742e+00 3.594482839107513428e-01 4.955498576164245605e-01 2.564994394779205322e-01 -6.346697807312011719e-01
3.871000000000000000e+03 6.706982421875000000e+01 1.396714806556701660e+00 3.718235790729522705e-01 1.275250673294067383e+00 4.941222667694091797e-01 -4.213490188121795654e-01
3.872000000000000000e+03 6.755161285400390625e+01 2.978321552276611328e+00 4.700860381126403809e-01 1.359100222587585449e+00 5.487558841705322266e-01 -4.271130859851837158e-01
3.873000000000000000e+03 6.862656402587890625e+01 -5.573032379150390625e+00 -3.138695359230041504e-01 2.770342528820037842e-01 -1.105058752000331879e-02 -8.212970495223999023e-01
3.874000000000000000e+03 6.769509124755859375e+01 3.797191679477691650e-01 2.829242050647735596e-01 9.461902379989624023e-01 3.687343299388885498e-01 -5.677124857902526855e-01
3.875000000000000000e+03 6.611302947998046875e+01 8.232289552688598633e-01 3.932403922080993652e-01 1.394264817237854004e+00 5.362515449523925781e-01 -3.163650631904602051e-01
3.876000000000000000e+03 7.051269531250000000e+01 -7.508955955505371094e+00 -5.062290430068969727e-01 1.243024766445159912e-01 -1.145779639482498169e-01 -7.927418351173400879e-01
3.877000000000000000e+03 9.492633819580078125e+00 2.338369369506835938e+01 -7.304382510483264923e-03 -8.634828263893723488e-04 -2.450359519571065903e-03 4.227912984788417816e-03
3.878000000000000000e+03 1.685544586181640625e+01 2.631080055236816406e+01 -2.231247350573539734e-02 -5.423821508884429932e-03 -8.320888504385948181e-03 2.151454798877239227e-02
3.879000000000000000e+03 1.538798904418945312e+01 2.518786430358886719e+01 -1.970669627189636230e-02 -8.080608677119016647e-04 -6.154426839202642441e-03 1.339473761618137360e-02
3.880000000000000000e+03 7.225119018554687500e+01 -3.204995393753051758e+00 -7.149961590766906738e-02 -1.456975638866424561e-01 -6.515915691852569580e-02 -8.736077547073364258e-01
3.881000000000000000e+03 5.496764659881591797e+00 -9.747790336608886719e+00 -1.357239931821823120e-01 -4.262448474764823914e-02 -5.350454151630401611e-02 -5.711543560028076172e-02
3.882000000000000000e+03 8.735454559326171875e+00 -1.119408702850341797e+01 -3.303976356983184814e-01 -1.658380478620529175e-01 -1.488707065582275391e-01 -1.833161562681198120e-01
3.883000000000000000e+03 6.560693359375000000e+01 -5.726125240325927734e+00 -3.039817214012145996e-01 4.264809191226959229e-01 3.674975410103797913e-02 -5.267640948295593262e-01
3.884000000000000000e+03 2.410395812988281250e+01 2.660132598876953125e+01 -3.087199665606021881e-02 -2.520301379263401031e-02 -1.682250387966632843e-02 3.536116331815719604e-02
3.885000000000000000e+03 6.961489105224609375e+01 -1.244043707847595215e+00 8.680735528469085693e-02 3.797910213470458984e-01 1.399795114994049072e-01 -7.911095023155212402e-01
3.886000000000000000e+03 7.217350006103515625e+01 3.101384401321411133e+00 2.103594988584518433e-01 -1.269246786832809448e-01 2.503044530749320984e-02 -7.376927137374877930e-01
3.887000000000000000e+03 8.739866256713867188e+00 1.742461204528808594e+01 -9.527368820272386074e-04 -1.101911300793290138e-03 -6.163944490253925323e-04 2.149894571630284190e-04
3.888000000000000000e+03 9.102212905883789062e+00 2.820601081848144531e+01 -5.398527253419160843e-03 -4.935574252158403397e-03 -3.100230358541011810e-03 1.001415774226188660e-02
3.889000000000000000e+03 8.980865478515625000e+00 2.593719482421875000e+01 -5.200555548071861267e-03 -2.861059270799160004e-03 -2.418484538793563843e-03 6.890000309795141220e-03
3.890000000000000000e+03 7.292662048339843750e+01 1.809072113037109375e+01 3.865978121757507324e-01 -3.896000981330871582e-01 -9.006820619106292725e-04 3.742380738258361816e-01
3.891000000000000000e+03 7.193688964843750000e+01 1.393922233581542969e+01 5.175203084945678711e-01 3.325545787811279297e-02 1.652327328920364380e-01 2.222079783678054810e-02
3.892000000000000000e+03 3.475305175781250000e+01 2.002533912658691406e+01 -6.635985523462295532e-02 2.090700715780258179e-02 -1.363585516810417175e-02 3.000323846936225891e-02
3.893000000000000000e+03 3.531162261962890625e+01 1.878928565979003906e+01 -6.531684100627899170e-02 1.919401809573173523e-02 -1.383684668689966202e-02 3.250135853886604309e-02
3.894000000000000000e+03 7.114059448242187500e+01 -3.365191650390625000e+01 -3.456104313954710960e-03 -2.548803109675645828e-03 -1.801472157239913940e-03 1.173568330705165863e-02
3.895000000000000000e+03 4.587813377380371094e+00 -2.335309600830078125e+01 6.081144511699676514e-02 -5.998058319091796875e-01 -1.616983264684677124e-01 -3.047393560409545898e-01
3.896000000000000000e+03 6.983387470245361328e+00 -2.419685745239257812e+01 1.547116786241531372e-01 -5.091776251792907715e-01 -1.063397899270057678e-01 -3.589005470275878906e-01
3.897000000000000000e+03 8.461955070495605469e+00 -2.149696731567382812e+01 1.392119824886322021e-01 -4.202466011047363281e-01 -8.431039005517959595e-02 -4.801297187805175781e-01
3.898000000000000000e+03 8.230751037597656250e+00 2.640247535705566406e+01 -5.765045061707496643e-03 -2.970111323520541191e-03 -2.620546845719218254e-03 7.720033638179302216e-03
3.899000000000000000e+03 6.597765350341796875e+01 -6.989545822143554688e-01 3.048767745494842529e-01 1.157188653945922852e+00 4.386196434497833252e-01 -3.612144589424133301e-01
3.900000000000000000e+03 3.833662414550781250e+01 2.535138511657714844e+01 -3.357049776241183281e-03 4.870461672544479370e-02 1.360427029430866241e-02 2.511666622012853622e-03
3.901000000000000000e+03 6.438018798828125000e+01 2.156765174865722656e+01 7.805733680725097656e-01 3.312284708023071289e+00 1.227857351303100586e+00 -3.129043430089950562e-02
3.902000000000000000e+03 7.316177368164062500e+01 2.106307029724121094e+01 2.230902314186096191e-01 -5.034742951393127441e-01 -8.411521464586257935e-02 5.897155404090881348e-01
3.903000000000000000e+03 7.113054656982421875e+01 2.131975936889648438e+01 3.280713260173797607e-01 2.957112491130828857e-01 1.871347725391387939e-01 6.463236808776855469e-01
3.904000000000000000e+03 1.216750240325927734e+01 3.069838333129882812e+01 -3.371998667716979980e-03 -9.264434687793254852e-03 -3.790930146351456642e-03 1.613306254148483276e-02
3.905000000000000000e+03 1.267622947692871094e+01 3.250665664672851562e+01 2.614355413243174553e-03 -1.290148869156837463e-02 -3.086139913648366928e-03 1.621906831860542297e-02
3.906000000000000000e+03 7.303643798828125000e+01 5.111798286437988281e+00 2.286101430654525757e-01 -5.142909884452819824e-01 -8.570424467325210571e-02 -6.198142170906066895e-01
3.907000000000000000e+03 7.248565673828125000e+01 2.507086753845214844e+01 4.000245593488216400e-03 -1.134313866496086121e-01 -3.282934054732322693e-02 7.189083695411682129e-01
3.908000000000000000e+03 7.330127716064453125e+01 2.323036575317382812e+01 1.007064506411552429e-01 -4.915720522403717041e-01 -1.172596737742424011e-01 6.663422584533691406e-01
3.909000000000000000e+03 2.753053474426269531e+01 -4.137001514434814453e+00 -8.847527503967285156e-01 3.372891247272491455e-02 -2.553071379661560059e-01 -8.859878778457641602e-01
3.910000000000000000e+03 2.956222152709960938e+01 -3.970759391784667969e+00 -1.252962827682495117e+00 3.451610207557678223e-01 -2.723405659198760986e-01 -6.842839121818542480e-01
3.911000000000000000e+03 2.863151359558105469e+01 -3.885313510894775391e+00 -1.150920867919921875e+00 1.778641939163208008e-01 -2.919170260429382324e-01 -7.620044946670532227e-01
3.912000000000000000e+03 2.885377502441406250e+01 -4.506509780883789062e+00 -8.110583424568176270e-01 2.857413291931152344e-01 -1.575951129198074341e-01 -8.318039774894714355e-01
3.913000000000000000e+03 2.680887985229492188e+01 -4.313475131988525391e+00 -6.886567473411560059e-01 -5.989700183272361755e-02 -2.245661169290542603e-01 -9.685783386230468750e-01
3.914000000000000000e+03 3.000237846374511719e+01 -4.080183506011962891e+00 -1.239904284477233887e+00 4.119437336921691895e-01 -2.483881711959838867e-01 -6.410951614379882812e-01
3.915000000000000000e+03 1.431585025787353516e+01 8.858399391174316406e+00 4.826126314583234489e-05 1.784795604180544615e-04 6.802225107094272971e-05 7.282009028131142259e-05
3.916000000000000000e+03 1.353235244750976562e+01 8.715757369995117188e+00 -7.476245809812098742e-05 -7.002491202001692727e-06 -2.452948501741047949e-05 1.467178517486900091e-04
3.917000000000000000e+03 1.254221248626708984e+01 9.741129875183105469e+00 1.599709212314337492e-04 -3.647400080808438361e-05 3.704907430801540613e-05 3.259594086557626724e-04
3.918000000000000000e+03 1.337687873840332031e+01 9.638578414916992188e+00 -1.196298908325843513e-04 1.987039577215909958e-04 2.372221752011682838e-05 9.043192403623834252e-05
3.919000000000000000e+03 4.546643447875976562e+01 -1.113370418548583984e+01 1.556091904640197754e+00 4.475222826004028320e-01 6.010842323303222656e-01 1.843410015106201172e+00
3.920000000000000000e+03 1.217447280883789062e+01 1.133656215667724609e+01 1.481821982451947406e-05 -2.155910624423995614e-05 -2.022266016865614802e-06 3.473275573924183846e-04
3.921000000000000000e+03 1.023208618164062500e+01 7.544069766998291016e+00 1.354261912638321519e-04 -8.333718869835138321e-05 1.562670149723999202e-05 1.115535342250950634e-04
3.922000000000000000e+03 1.157329654693603516e+01 2.056024551391601562e+01 -4.543134942650794983e-03 -1.867027021944522858e-04 -1.418951316736638546e-03 1.699882996035739779e-04
3.923000000000000000e+03 1.105276203155517578e+01 1.889232635498046875e+01 -2.193991793319582939e-03 -9.380226838402450085e-04 -9.396043024025857449e-04 2.171533560613170266e-04
3.924000000000000000e+03 1.437704372406005859e+01 8.008849143981933594e+00 1.037347828969359398e-04 8.837580389808863401e-05 5.763317676610313356e-05 5.764194611401762813e-06
3.925000000000000000e+03 9.020571708679199219e+00 1.475874328613281250e+01 -4.817499211640097201e-05 -6.922593456692993641e-04 -2.221303002443164587e-04 1.826459811127278954e-05
3.926000000000000000e+03 1.160493755340576172e+01 1.137077426910400391e+01 2.527887991163879633e-04 3.635697066783905029e-05 8.674373384565114975e-05 2.167472412111237645e-04
3.927000000000000000e+03 9.311582565307617188e+00 1.833053016662597656e+01 -1.435354817658662796e-03 -1.300756586715579033e-03 -8.208334329538047314e-04 3.125084331259131432e-04
3.928000000000000000e+03 1.439005374908447266e+01 6.694607257843017578e+00 3.127291711280122399e-05 1.030679686664370820e-05 1.247391355718718842e-05 -2.076188138744328171e-05
3.929000000000000000e+03 1.461708545684814453e+01 7.070360183715820312e+00 -3.090619429713115096e-05 1.064867974491789937e-04 2.267417949042282999e-05 1.039336275425739586e-04
3.930000000000000000e+03 1.089944553375244141e+01 1.588238239288330078e+01 3.275818889960646629e-04 -6.201431388035416603e-04 -8.776837785262614489e-05 2.948916226159781218e-04
3.931000000000000000e+03 3.546291351318359375e+01 1.474583148956298828e+01 -2.951015159487724304e-02 3.144374815747141838e-03 -7.909732870757579803e-03 1.732055284082889557e-02
3.932000000000000000e+03 9.747967720031738281e+00 1.370833301544189453e+01 1.332444080617278814e-04 -4.897842300124466419e-04 -1.069619465852156281e-04 3.017337876372039318e-04
3.933000000000000000e+03 1.001122665405273438e+01 1.423068046569824219e+01 3.591947315726429224e-04 -5.181467859074473381e-04 -4.768561484524980187e-05 8.921822882257401943e-05
3.934000000000000000e+03 8.536314964294433594e+00 1.426008605957031250e+01 2.352165029151365161e-04 -6.987450178712606430e-04 -1.390585530316457152e-04 1.517316122772172093e-04
3.935000000000000000e+03 8.625728607177734375e+00 9.066147804260253906e+00 8.988928357211989351e-07 -1.924797106767073274e-04 -5.747424802393652499e-05 1.624976139282807708e-04
3.936000000000000000e+03 9.316040039062500000e+00 8.916128158569335938e+00 1.365154748782515526e-04 -5.752499782829545438e-05 2.369714275118894875e-05 -4.078497295267879963e-05
3.937000000000000000e+03 3.528289413452148438e+01 1.659582710266113281e+01 -4.436482861638069153e-02 5.985681433230638504e-03 -1.151374354958534241e-02 2.758420445024967194e-02
3.938000000000000000e+03 1.389029884338378906e+01 6.779267311096191406e+00 -4.572132820612750947e-05 7.088154234224930406e-05 7.548062967543955892e-06 8.885413262760266662e-05
3.939000000000000000e+03 1.192825984954833984e+01 2.213199996948242188e+01 -9.099520742893218994e-03 9.727157303132116795e-04 -2.438041381537914276e-03 1.940980320796370506e-03
3.940000000000000000e+03 1.128177452087402344e+01 2.170693397521972656e+01 -6.904771551489830017e-03 -5.124106974108144641e-05 -2.086803782731294632e-03 1.780550694093108177e-03
3.941000000000000000e+03 1.279002475738525391e+01 9.489274978637695312e+00 -1.310434017796069384e-04 8.364813402295112610e-05 -1.421858178218826652e-05 1.660286943661049008e-04
3.942000000000000000e+03 1.431284904479980469e+01 7.635870933532714844e+00 -5.591270746663212776e-05 1.083122551790438592e-04 1.571986649651080370e-05 1.049364582286216319e-04
3.943000000000000000e+03 2.215539932250976562e+01 2.718514251708984375e+01 -2.658970281481742859e-02 -2.133078686892986298e-02 -1.437614671885967255e-02 3.406750783324241638e-02
3.944000000000000000e+03 1.984960746765136719e+01 2.739529228210449219e+01 -2.196324989199638367e-02 -1.489553321152925491e-02 -1.105763483792543411e-02 3.101786039769649506e-02
3.945000000000000000e+03 3.080175971984863281e+01 -4.092997550964355469e+00 -1.326200127601623535e+00 4.287212789058685303e-01 -2.692436575889587402e-01 -5.425577759742736816e-01
3.946000000000000000e+03 4.569197463989257812e+01 -1.054835891723632812e+01 1.084356904029846191e+00 2.831459939479827881e-01 4.102508425712585449e-01 1.829110145568847656e+00
3.947000000000000000e+03 3.553881835937500000e+01 1.527034950256347656e+01 -3.651486709713935852e-02 6.328720133751630783e-03 -9.055844508111476898e-03 2.256016619503498077e-02
3.948000000000000000e+03 9.918825149536132812e+00 -8.420733451843261719e+00 -2.670563459396362305e-01 -1.644011139869689941e-01 -1.294372379779815674e-01 -7.136266678571701050e-02
3.949000000000000000e+03 3.601361846923828125e+01 1.821610069274902344e+01 -5.636794120073318481e-02 2.201979979872703552e-02 -1.030444167554378510e-02 2.558369189500808716e-02
3.950000000000000000e+03 8.278154373168945312e+00 -9.110815048217773438e+00 -2.352666556835174561e-01 -1.156106367707252502e-01 -1.052631884813308716e-01 -6.874245405197143555e-02
3.951000000000000000e+03 1.222586917877197266e+01 2.469501495361328125e+01 -1.244985498487949371e-02 -5.579440039582550526e-04 -3.902339842170476913e-03 8.531025610864162445e-03
3.952000000000000000e+03 1.457735633850097656e+01 2.543433952331542969e+01 -1.904046162962913513e-02 -4.690961795859038830e-04 -5.852866917848587036e-03 1.341802813112735748e-02
3.953000000000000000e+03 1.471938991546630859e+01 6.471700668334960938e+00 6.157031748443841934e-05 8.848539437167346478e-05 4.501671355683356524e-05 6.411832873709499836e-05
3.954000000000000000e+03 9.174088478088378906e+00 1.654344940185546875e+01 -6.125025101937353611e-04 -5.658282316289842129e-04 -3.534992283675819635e-04 -8.136795077007263899e-05
3.955000000000000000e+03 1.285621833801269531e+01 2.220884895324707031e+01 -1.115360856056213379e-02 1.487084664404392242e-03 -2.899957355111837387e-03 1.983921276405453682e-03
3.956000000000000000e+03 9.208647727966308594e+00 1.572525215148925781e+01 -1.815774448914453387e-04 -6.080196471884846687e-04 -2.368791174376383424e-04 -8.608680946053937078e-05
3.957000000000000000e+03 8.125599861145019531e+00 1.363457202911376953e+01 2.950217458419501781e-04 -5.739425541833043098e-04 -8.367624832317233086e-05 -1.243847655132412910e-04
3.958000000000000000e+03 1.204231357574462891e+01 1.090582656860351562e+01 1.250417844858020544e-04 1.435531594324856997e-04 8.057848026510328054e-05 1.096140476875007153e-04
3.959000000000000000e+03 4.627264785766601562e+01 -1.135357761383056641e+01 1.676756024360656738e+00 3.306737169623374939e-02 5.129470229148864746e-01 1.784305095672607422e+00
3.960000000000000000e+03 9.296275138854980469e+00 1.975901985168457031e+01 -2.868293318897485733e-03 -1.164512010291218758e-03 -1.209841575473546982e-03 5.268729873932898045e-04
3.961000000000000000e+03 8.453490257263183594e+00 8.475831031799316406e+00 1.904998789541423321e-04 -1.483427331550046802e-04 1.264714228454977274e-05 -1.086418487830087543e-04
3.962000000000000000e+03 1.323474979400634766e+01 2.453974342346191406e+01 -1.516948360949754715e-02 2.909904869738966227e-04 -4.463547840714454651e-03 9.037273935973644257e-03
3.963000000000000000e+03 6.918236541748046875e+01 -1.856253296136856079e-01 1.781306564807891846e-01 5.276018381118774414e-01 2.117197513580322266e-01 -7.501373291015625000e-01
3.964000000000000000e+03 9.500073432922363281e+00 2.414150238037109375e+01 -6.615366321057081223e-03 -1.114529790356755257e-03 -2.318968763574957848e-03 5.100541282445192337e-03
3.965000000000000000e+03 6.564724731445312500e+01 -4.172341346740722656e+00 -8.644588291645050049e-02 6.740019917488098145e-01 1.762668341398239136e-01 -4.717980921268463135e-01
3.966000000000000000e+03 6.403986358642578125e+01 -5.365404605865478516e+00 -2.045673131942749023e-01 6.361962556838989258e-01 1.294886916875839233e-01 -2.468813657760620117e-01
3.967000000000000000e+03 6.634707641601562500e+01 -5.078012466430664062e+00 -1.979931443929672241e-01 4.783159196376800537e-01 8.409683406352996826e-02 -6.049001812934875488e-01
3.968000000000000000e+03 8.844892501831054688e+00 1.217937278747558594e+01 1.525495026726275682e-04 -3.906459314748644829e-04 -7.142892718547955155e-05 1.090534442482749000e-05
3.969000000000000000e+03 8.058604240417480469e+00 1.098523521423339844e+01 3.198130580130964518e-04 -2.803888055495917797e-04 1.182727373816305771e-05 -2.197256071667652577e-05
3.970000000000000000e+03 9.832209587097167969e+00 1.236588478088378906e+01 2.566440671216696501e-04 -2.799967187456786633e-04 -7.005800398474093527e-06 1.292949455091729760e-04
3.971000000000000000e+03 8.694849014282226562e+00 1.833317565917968750e+01 -9.479322470724582672e-04 -9.107915684580802917e-04 -5.576171679422259331e-04 1.706504190224222839e-05
3.972000000000000000e+03 6.118535041809082031e+00 -1.763942909240722656e+01 -7.282385975122451782e-02 -3.091563582420349121e-01 -1.145940721035003662e-01 -4.198940396308898926e-01
3.973000000000000000e+03 3.571082687377929688e+01 1.972450828552246094e+01 -5.935247614979743958e-02 2.393103390932083130e-02 -1.062643248587846756e-02 2.717460133135318756e-02
3.974000000000000000e+03 7.830890655517578125e+00 1.975590133666992188e+01 -2.337642246857285500e-03 -1.184921013191342354e-03 -1.056769047863781452e-03 7.543502724729478359e-04
3.975000000000000000e+03 7.861481666564941406e+00 2.218138694763183594e+01 -3.534908406436443329e-03 -1.109252218157052994e-03 -1.393248210661113262e-03 2.388475462794303894e-03
3.976000000000000000e+03 1.191515064239501953e+01 8.011912345886230469e+00 5.047118611400946975e-05 3.348574318806640804e-05 2.518707879062276334e-05 1.932710147229954600e-04
3.977000000000000000e+03 1.055813694000244141e+01 8.134090423583984375e+00 5.606937702395953238e-05 -2.417940595478285104e-05 9.566991138854064047e-06 5.326328391674906015e-05
3.978000000000000000e+03 8.298193931579589844e+00 1.669732856750488281e+01 -7.154595805332064629e-04 -7.612992194481194019e-04 -4.430276458151638508e-04 -7.414052379317581654e-05
3.979000000000000000e+03 7.195355987548828125e+01 7.378970623016357422e+00 3.484756052494049072e-01 -2.729703672230243683e-02 9.635357558727264404e-02 -4.735015332698822021e-01
3.980000000000000000e+03 1.925340270996093750e+01 2.829460525512695312e+01 -1.311224326491355896e-02 -1.415882818400859833e-02 -8.181321434676647186e-03 2.897697687149047852e-02
3.981000000000000000e+03 1.012906265258789062e+01 -9.815752029418945312e+00 -3.414277136325836182e-01 -2.027733474969863892e-01 -1.632603108882904053e-01 -1.300008744001388550e-01
3.982000000000000000e+03 3.379662704467773438e+01 2.395217704772949219e+01 -4.387702792882919312e-02 1.561253517866134644e-02 -8.479347452521324158e-03 1.527455542236566544e-02
3.983000000000000000e+03 1.674309921264648438e+01 2.779597282409667969e+01 -1.559394132345914841e-02 -8.665276691317558289e-03 -7.277765311300754547e-03 2.423378825187683105e-02
3.984000000000000000e+03 1.468424510955810547e+01 2.639338684082031250e+01 -1.484878174960613251e-02 -3.140157088637351990e-03 -5.396681837737560272e-03 1.546668168157339096e-02
3.985000000000000000e+03 3.110499954223632812e+01 2.634203338623046875e+01 -1.785223744809627533e-02 -9.204399771988391876e-03 -8.116991259157657623e-03 1.568528264760971069e-02
3.986000000000000000e+03 7.403816986083984375e+01 7.517975330352783203e+00 2.359726727008819580e-01 -9.067370891571044922e-01 -2.012293189764022827e-01 -4.528580605983734131e-01
3.987000000000000000e+03 9.136197090148925781e+00 2.472017860412597656e+01 -6.055136211216449738e-03 -1.544178579933941364e-03 -2.279794542118906975e-03 5.175262689590454102e-03
3.988000000000000000e+03 6.961651611328125000e+01 -4.510464668273925781e+00 -1.648841947317123413e-01 2.329257726669311523e-01 2.041247300803661346e-02 -8.593429327011108398e-01
3.989000000000000000e+03 6.866898345947265625e+01 3.385004043579101562e+00 4.367038607597351074e-01 1.005115747451782227e+00 4.325458705425262451e-01 -5.353415012359619141e-01
3.990000000000000000e+03 6.965338134765625000e+01 -5.588575839996337891e+00 -3.235519230365753174e-01 1.798534095287322998e-01 -4.310955479741096497e-02 -8.442745208740234375e-01
3.991000000000000000e+03 3.703904342651367188e+01 2.176156044006347656e+01 -4.782750457525253296e-02 4.016523435711860657e-02 -2.298681298270821571e-03 1.806122250854969025e-02
3.992000000000000000e+03 2.274203872680664062e+01 2.767713928222656250e+01 -1.634642109274864197e-02 -2.276453189551830292e-02 -1.173328608274459839e-02 3.323209285736083984e-02
3.993000000000000000e+03 6.963439178466796875e+01 1.278328418731689453e+00 2.527749240398406982e-01 5.238088369369506836e-01 2.329751253128051758e-01 -7.253605723381042480e-01
3.994000000000000000e+03 7.109680175781250000e+01 6.499934792518615723e-01 1.691077053546905518e-01 1.599054038524627686e-01 9.870392829179763794e-02 -8.109623789787292480e-01
3.995000000000000000e+03 7.143004608154296875e+01 4.159757614135742188e+00 3.389796614646911621e-01 1.277997195720672607e-01 1.400338113307952881e-01 -6.691259145736694336e-01
3.996000000000000000e+03 6.773942565917968750e+01 -5.119130134582519531e+00 -2.312249690294265747e-01 3.591051101684570312e-01 3.836404532194137573e-02 -7.395130395889282227e-01
3.997000000000000000e+03 6.715576171875000000e+01 -5.874034404754638672e+00 -3.551899492740631104e-01 3.393756449222564697e-01 -4.744287114590406418e-03 -7.145408391952514648e-01
3.998000000000000000e+03 9.755831718444824219e+00 2.547973251342773438e+01 -8.065650239586830139e-03 -1.897829119116067886e-03 -2.989043947309255600e-03 7.699115667492151260e-03
3.999000000000000000e+03 9.592378616333007812e+00 2.686047363281250000e+01 -7.517705205827951431e-03 -3.114188322797417641e-03 -3.189568175002932549e-03 9.467603638768196106e-03
4.000000000000000000e+03 7.037937164306640625e+01 2.664858341217041016e+00 3.086598217487335205e-01 4.284984767436981201e-01 2.211474925279617310e-01 -7.068347930908203125e-01
4.001000000000000000e+03 7.096952819824218750e+01 1.008722400665283203e+01 4.959523677825927734e-01 5.029007792472839355e-01 2.996559441089630127e-01 -2.996891736984252930e-01
4.002000000000000000e+03 7.181111907958984375e+01 1.084354686737060547e+01 4.479420185089111328e-01 6.338758021593093872e-02 1.533988863229751587e-01 -2.351394593715667725e-01
4.003000000000000000e+03 6.957842254638671875e+01 5.309939384460449219e+00 4.320240616798400879e-01 8.137325048446655273e-01 3.737269639968872070e-01 -5.064886212348937988e-01
4.004000000000000000e+03 6.485124969482421875e+01 -2.102578401565551758e+00 1.974320858716964722e-01 1.157278537750244141e+00 4.064131677150726318e-01 -2.177945226430892944e-01
4.005000000000000000e+03 6.796530914306640625e+01 -1.994449496269226074e+00 5.891125649213790894e-02 6.359215974807739258e-01 2.084498554468154907e-01 -6.901369690895080566e-01
4.006000000000000000e+03 7.313610839843750000e+01 1.411052703857421875e+01 3.846663534641265869e-01 -5.718669295310974121e-01 -5.616017431020736694e-02 4.123632237315177917e-02
4.007000000000000000e+03 7.093821716308593750e+01 2.284930229187011719e+01 1.851232051849365234e-01 4.119227230548858643e-01 1.791137754917144775e-01 7.263351678848266602e-01
4.008000000000000000e+03 4.039521408081054688e+01 2.535215759277343750e+01 8.249311707913875580e-03 7.105707377195358276e-02 2.379191666841506958e-02 -7.782125845551490784e-03
4.009000000000000000e+03 4.102981567382812500e+01 2.372316932678222656e+01 -1.286301296204328537e-02 5.679044499993324280e-02 1.317823026329278946e-02 4.824321717023849487e-03
4.010000000000000000e+03 2.618286132812500000e+01 2.930680847167968750e+01 4.647456575185060501e-03 -2.471185848116874695e-02 -6.019320804625749588e-03 2.800888381898403168e-02
4.011000000000000000e+03 2.446666908264160156e+01 2.790181350708007812e+01 -1.278732437640428543e-02 -2.556384354829788208e-02 -1.150535047054290771e-02 3.406624123454093933e-02
4.012000000000000000e+03 1.048690223693847656e+01 2.937261581420898438e+01 -5.190490745007991791e-03 -6.494617555290460587e-03 -3.505532396957278252e-03 1.281951274722814560e-02
4.013000000000000000e+03 3.863188552856445312e+01 2.136329269409179688e+01 -4.817089065909385681e-02 4.660743847489356995e-02 -4.690361965913325548e-04 1.706283353269100189e-02
4.014000000000000000e+03 3.792885589599609375e+01 2.236929512023925781e+01 -4.236898571252822876e-02 3.943269327282905579e-02 -8.808870916254818439e-04 2.001819387078285217e-02
4.015000000000000000e+03 7.307402038574218750e+01 1.195670986175537109e+01 4.057199060916900635e-01 -4.823119640350341797e-01 -2.297762408852577209e-02 -1.438295543193817139e-01
4.016000000000000000e+03 2.837905883789062500e+01 -3.894096851348876953e+00 -1.135943174362182617e+00 1.280490159988403320e-01 -3.023682534694671631e-01 -7.923297286033630371e-01
4.017000000000000000e+03 2.838590812683105469e+01 -4.282558441162109375e+00 -8.878178000450134277e-01 1.693897545337677002e-01 -2.155284136533737183e-01 -8.304668068885803223e-01
4.018000000000000000e+03 1.371635437011718750e+01 8.242389678955078125e+00 1.113465623348020017e-04 1.393344573443755507e-04 7.520430517615750432e-05 5.979483103146776557e-05
4.019000000000000000e+03 1.184580516815185547e+01 9.661495208740234375e+00 2.175728150177747011e-04 -8.713758870726451278e-05 3.913056934834457934e-05 2.501983544789254665e-04
4.020000000000000000e+03 1.284449481964111328e+01 1.006392955780029297e+01 -8.204734331229701638e-05 1.864904188551008701e-04 3.133292193524539471e-05 9.883604798233136535e-05
4.021000000000000000e+03 1.219899272918701172e+01 8.423910140991210938e+00 6.541488983202725649e-05 -1.629921462154015899e-05 1.473470183555036783e-05 3.190539428032934666e-05
4.022000000000000000e+03 1.309326362609863281e+01 9.238991737365722656e+00 1.172804768430069089e-04 -1.154616256826557219e-05 3.172029391862452030e-05 1.988303411053493619e-04
4.023000000000000000e+03 1.151999568939208984e+01 2.253566169738769531e+01 -9.052055887877941132e-03 5.515548764378763735e-05 -2.699070144444704056e-03 3.240187885239720345e-03
4.024000000000000000e+03 1.239487457275390625e+01 2.179879951477050781e+01 -9.691166691482067108e-03 9.123243507929146290e-04 -2.633652649819850922e-03 1.702182111330330372e-03
4.025000000000000000e+03 2.760448837280273438e+01 -4.485025882720947266e+00 -6.386505961418151855e-01 6.717266142368316650e-02 -1.714433878660202026e-01 -9.582226872444152832e-01
4.026000000000000000e+03 2.809575653076171875e+01 -4.225905418395996094e+00 -9.048680067062377930e-01 1.121505871415138245e-01 -2.378152310848236084e-01 -8.519289493560791016e-01
4.027000000000000000e+03 9.740135192871093750e+00 9.602765083312988281e+00 2.702120691537857056e-04 -2.180649462388828397e-04 1.564413287269417197e-05 1.793400588212534785e-04
4.028000000000000000e+03 2.941281700134277344e+01 -4.401550769805908203e+00 -9.450812339782714844e-01 3.866631388664245605e-01 -1.675254255533218384e-01 -7.780754566192626953e-01
4.029000000000000000e+03 2.922846031188964844e+01 -3.922770977020263672e+00 -1.221621632575988770e+00 3.107277154922485352e-01 -2.732681632041931152e-01 -7.214925289154052734e-01
4.030000000000000000e+03 1.229984951019287109e+01 7.680297374725341797e+00 -3.571204797481186688e-05 -3.176932659698650241e-05 -2.024441164394374937e-05 5.630082159768790007e-05
4.031000000000000000e+03 1.409870529174804688e+01 7.240939140319824219e+00 4.515719774644821882e-05 -2.143542815247201361e-06 1.290409636567346752e-05 -1.379630248266039416e-05
4.032000000000000000e+03 1.047009468078613281e+01 1.214202880859375000e+01 1.429275289410725236e-04 -2.832479367498308420e-04 -4.209612234262749553e-05 3.493708500172942877e-04
4.033000000000000000e+03 1.292435169219970703e+01 8.733041763305664062e+00 2.801142727548722178e-06 1.854930742410942912e-04 5.648826481774449348e-05 2.796530861814972013e-05
4.034000000000000000e+03 9.307132720947265625e+00 1.918192863464355469e+01 -1.958095235750079155e-03 -7.172588957473635674e-04 -8.026062278077006340e-04 1.109672230086289346e-04
4.035000000000000000e+03 8.607272148132324219e+00 1.969368171691894531e+01 -2.181051298975944519e-03 -7.068825070746243000e-04 -8.663801709190011024e-04 3.344764991197735071e-04
4.036000000000000000e+03 1.180431652069091797e+01 8.742661476135253906e+00 1.827339729061350226e-04 1.548192813061177731e-05 5.946476812823675573e-05 1.728330680634826422e-04
4.037000000000000000e+03 1.222133922576904297e+01 1.037104701995849609e+01 1.849177351687103510e-04 6.639976345468312502e-05 7.539524813182651997e-05 6.852139631519094110e-05
4.038000000000000000e+03 1.043690109252929688e+01 1.909452438354492188e+01 -2.057208446785807610e-03 -5.401584203355014324e-04 -7.792100659571588039e-04 -1.573620538692921400e-04
4.039000000000000000e+03 1.099720287322998047e+01 2.031172370910644531e+01 -4.466406069695949554e-03 -1.676951942499727011e-04 -1.390230376273393631e-03 1.384636416332796216e-04
4.040000000000000000e+03 9.438189506530761719e+00 1.442978286743164062e+01 1.086578486138023436e-04 -5.993708618916571140e-04 -1.472138974349945784e-04 3.006891347467899323e-04
4.041000000000000000e+03 8.816269874572753906e+00 1.337739658355712891e+01 1.238320255652070045e-04 -5.247987573966383934e-04 -1.202900239150039852e-04 1.445139205316081643e-04
4.042000000000000000e+03 9.960119247436523438e+00 8.535491943359375000e+00 1.722845481708645821e-04 -1.481569343013688922e-04 7.238287707878043875e-06 1.484381937189027667e-04
4.043000000000000000e+03 9.023881912231445312e+00 8.239351272583007812e+00 1.388107630191370845e-04 -1.531551533844321966e-04 -4.303317837184295058e-06 1.788847584975883365e-04
4.044000000000000000e+03 1.086071872711181641e+01 9.671934127807617188e+00 2.281036286149173975e-04 -1.078659915947355330e-04 3.607128746807575226e-05 2.400852827122434974e-04
4.045000000000000000e+03 1.159502601623535156e+01 1.088186168670654297e+01 -3.747184018720872700e-05 -7.396170258289203048e-05 -3.343006392242386937e-05 2.850931487046182156e-04
4.046000000000000000e+03 3.627700424194335938e+01 2.076016426086425781e+01 -6.234184280037879944e-02 3.123790211975574493e-02 -9.331182576715946198e-03 2.746657468378543854e-02
4.047000000000000000e+03 9.123600006103515625e+00 1.394368934631347656e+01 3.140603366773575544e-04 -6.079797167330980301e-04 -8.817582420306280255e-05 3.147300594719126821e-05
4.048000000000000000e+03 1.092503643035888672e+01 1.133440303802490234e+01 1.186520603368990123e-05 -1.665185409365221858e-04 -4.639600228983908892e-05 2.831295132637023926e-04
4.049000000000000000e+03 1.018853855133056641e+01 1.145713043212890625e+01 2.434446651022881269e-04 -1.712657976895570755e-04 2.165366277040448040e-05 1.243145816260948777e-04
4.050000000000000000e+03 1.782065582275390625e+01 3.067389297485351562e+01 3.245874249842017889e-04 -1.573483459651470184e-02 -4.623074084520339966e-03 2.541441842913627625e-02
4.051000000000000000e+03 1.760687446594238281e+01 2.864218711853027344e+01 -1.034113392233848572e-02 -1.146208029240369797e-02 -6.540964357554912567e-03 2.561280503869056702e-02
4.052000000000000000e+03 9.213706016540527344e+00 1.722529602050781250e+01 -7.539260550402104855e-04 -6.919163861311972141e-04 -4.337527207098901272e-04 -8.980135316960513592e-05
4.053000000000000000e+03 1.001151943206787109e+01 1.729068946838378906e+01 -7.440655608661472797e-04 -6.694379844702780247e-04 -4.240510752424597740e-04 -1.170119066955521703e-04
4.054000000000000000e+03 8.841525077819824219e+00 1.694367027282714844e+01 4.471664578886702657e-05 -1.240799785591661930e-03 -3.588249383028596640e-04 -2.543788468756247312e-06
4.055000000000000000e+03 1.565280342102050781e+01 2.601215934753417969e+01 -2.023254334926605225e-02 -3.072071122005581856e-03 -6.991384550929069519e-03 1.791952364146709442e-02
4.056000000000000000e+03 1.114925479888916016e+01 7.778337001800537109e+00 1.007727842079475522e-04 -7.098701462382450700e-05 8.935731784731615335e-06 1.458512560930103064e-04
4.057000000000000000e+03 9.085239410400390625e+00 1.121015739440917969e+01 2.317972539458423853e-04 -3.054277040064334869e-04 -2.208913065260276198e-05 7.747808558633551002e-05
4.058000000000000000e+03 9.594197273254394531e+00 1.488948345184326172e+01 3.675059124361723661e-04 -5.975698586553335190e-04 -6.901918823132291436e-05 -5.520983540918678045e-05
4.059000000000000000e+03 9.783819198608398438e+00 1.538014507293701172e+01 1.482140069128945470e-04 -9.549102978780865669e-04 -2.420088858343660831e-04 2.835284685716032982e-04
4.060000000000000000e+03 1.159535598754882812e+01 2.407619094848632812e+01 -1.049794722348451614e-02 2.500376431271433830e-04 -3.074372885748744011e-03 5.919632967561483383e-03
4.061000000000000000e+03 1.046952247619628906e+01 1.688994407653808594e+01 -6.495308480225503445e-05 -1.079271081835031509e-03 -3.432672529015690088e-04 2.826268028002232313e-04
4.062000000000000000e+03 8.654997825622558594e+00 1.067299461364746094e+01 2.820466470438987017e-04 -2.781862567644566298e-04 1.158113491328549571e-06 7.089908467605710030e-05
4.063000000000000000e+03 1.070733642578125000e+01 2.080755233764648438e+01 -4.450538195669651031e-03 -5.002885009162127972e-04 -1.485247979871928692e-03 8.091076160781085491e-04
4.064000000000000000e+03 9.295335769653320312e+00 2.031588172912597656e+01 -3.060620045289397240e-03 -6.536577711813151836e-04 -1.114283339120447636e-03 6.326761213131248951e-04
4.065000000000000000e+03 8.142328262329101562e+00 2.054494667053222656e+01 -2.652647905051708221e-03 -7.708115153945982456e-04 -1.027037738822400570e-03 6.271100719459354877e-04
4.066000000000000000e+03 1.358391284942626953e+01 2.639484405517578125e+01 -1.439942792057991028e-02 -1.964214025065302849e-03 -4.909092560410499573e-03 1.363286934792995453e-02
4.067000000000000000e+03 9.289159774780273438e+00 2.951143264770507812e+01 -2.800122369080781937e-03 -6.856280844658613205e-03 -2.896921010687947273e-03 1.165569573640823364e-02
4.068000000000000000e+03 1.479360103607177734e+01 2.943208694458007812e+01 -7.578787859529256821e-03 -9.404001757502555847e-03 -5.094836931675672531e-03 2.092871256172657013e-02
4.069000000000000000e+03 1.509464263916015625e+01 2.749788093566894531e+01 -1.453377027064561844e-02 -5.602921359241008759e-03 -6.041007582098245621e-03 1.975953392684459686e-02
4.070000000000000000e+03 9.127998352050781250e+00 2.272930526733398438e+01 -5.407791119068861008e-03 -7.369826198555529118e-04 -1.843432197347283363e-03 2.676174743101000786e-03
4.071000000000000000e+03 1.017254924774169922e+01 1.853411102294921875e+01 -1.689166645519435406e-03 -1.134977908805012703e-03 -8.472433546558022499e-04 2.507327299099415541e-04
4.072000000000000000e+03 9.856804847717285156e+00 1.805102157592773438e+01 -1.072032027877867222e-03 -7.533311145380139351e-04 -5.476089427247643471e-04 -1.765163324307650328e-04
4.073000000000000000e+03 1.047238254547119141e+01 2.144489860534667969e+01 -6.207764148712158203e-03 1.794427407730836421e-05 -1.856945920735597610e-03 1.189180416986346245e-03
4.074000000000000000e+03 1.287092018127441406e+01 2.358438873291015625e+01 -1.349561661481857300e-02 1.351703424006700516e-03 -3.643173957243561745e-03 6.155220326036214828e-03
4.075000000000000000e+03 1.223043251037597656e+01 2.366657447814941406e+01 -1.230017375200986862e-02 3.197521145921200514e-04 -3.594126319512724876e-03 5.714744329452514648e-03
4.076000000000000000e+03 8.527681350708007812e+00 -1.883622932434082031e+01 -4.149519652128219604e-02 -3.557015657424926758e-01 -1.191590353846549988e-01 -5.363087654113769531e-01
4.077000000000000000e+03 7.865069389343261719e+00 -1.578377819061279297e+01 -2.096580713987350464e-01 -2.453041672706604004e-01 -1.364886760711669922e-01 -4.375175237655639648e-01
4.078000000000000000e+03 1.100875091552734375e+01 2.273191261291503906e+01 -7.698444183915853500e-03 -4.130474917474202812e-05 -2.321924548596143723e-03 3.261265577748417854e-03
4.079000000000000000e+03 1.032968807220458984e+01 2.342305946350097656e+01 -7.352348417043685913e-03 -4.581914108712226152e-04 -2.343161962926387787e-03 4.285247065126895905e-03
4.080000000000000000e+03 1.674005699157714844e+01 2.967417144775390625e+01 -6.546571850776672363e-03 -1.279938127845525742e-02 -5.803785752505064011e-03 2.511624433100223541e-02
4.081000000000000000e+03 6.865021514892578125e+01 8.532082438468933105e-01 2.645353376865386963e-01 7.882107496261596680e-01 3.158238232135772705e-01 -6.467546820640563965e-01
4.082000000000000000e+03 6.810080718994140625e+01 1.900879621505737305e+00 3.664243519306182861e-01 1.042507886886596680e+00 4.226796627044677734e-01 -5.448322892189025879e-01
4.083000000000000000e+03 7.067839813232421875e+01 4.962527275085449219e+00 3.792925477027893066e-01 4.645498096942901611e-01 2.531526982784271240e-01 -6.097272038459777832e-01
4.084000000000000000e+03 7.252716827392578125e+01 1.002113342285156250e+01 3.910428285598754883e-01 -2.593342065811157227e-01 3.951258584856987000e-02 -2.986563742160797119e-01
4.085000000000000000e+03 6.606820678710937500e+01 -2.817355632781982422e+00 5.228554457426071167e-02 8.366351127624511719e-01 2.666761875152587891e-01 -4.846036434173583984e-01
4.086000000000000000e+03 7.185784912109375000e+01 9.193316459655761719e+00 4.183779060840606689e-01 -6.228989455848932266e-03 1.236446723341941833e-01 -3.443405032157897949e-01
4.087000000000000000e+03 6.525512695312500000e+01 -1.300396442413330078e+00 2.504779100418090820e-01 1.238476514816284180e+00 4.466863274574279785e-01 -2.667391300201416016e-01
4.088000000000000000e+03 6.505023956298828125e+01 -3.141756534576416016e+00 1.004456281661987305e-01 9.338586926460266113e-01 3.102912902832031250e-01 -3.162959218025207520e-01
4.089000000000000000e+03 6.731925201416015625e+01 -3.293939828872680664e+00 -3.986762091517448425e-02 5.880107879638671875e-01 1.644429415464401245e-01 -6.569843292236328125e-01
4.090000000000000000e+03 6.826860809326171875e+01 -5.926438570022583008e-01 1.666807979345321655e-01 7.239502072334289551e-01 2.671892940998077393e-01 -6.682412028312683105e-01
4.091000000000000000e+03 3.449711608886718750e+01 2.102558898925781250e+01 -6.632146239280700684e-02 1.660954952239990234e-02 -1.491357479244470596e-02 3.046006523072719574e-02
4.092000000000000000e+03 6.930311584472656250e+01 -3.562297821044921875e+00 -1.056480035185813904e-01 3.106273114681243896e-01 6.149379163980484009e-02 -8.209479451179504395e-01
4.093000000000000000e+03 6.864345550537109375e+01 -2.790317058563232422e+00 -1.273089833557605743e-02 4.287352263927459717e-01 1.248012930154800415e-01 -7.734755277633666992e-01
4.094000000000000000e+03 7.400434112548828125e+01 1.050985717773437500e+01 2.813815772533416748e-01 -9.435884952545166016e-01 -1.986620724201202393e-01 -2.468436360359191895e-01
4.095000000000000000e+03 1.864251899719238281e+01 2.943911933898925781e+01 -7.245240733027458191e-03 -1.591650955379009247e-02 -6.948525086045265198e-03 2.882039360702037811e-02
4.096000000000000000e+03 6.656484222412109375e+01 -1.552540421485900879e+00 1.524525880813598633e-01 9.348505139350891113e-01 3.261909484863281250e-01 -5.038660168647766113e-01
4.097000000000000000e+03 6.704247283935546875e+01 -2.447319269180297852e+00 6.814102083444595337e-02 7.071537375450134277e-01 2.325884252786636353e-01 -6.091768145561218262e-01
4.098000000000000000e+03 2.035183906555175781e+01 2.891967964172363281e+01 -8.843373507261276245e-03 -1.910472661256790161e-02 -8.384429849684238434e-03 3.195948898792266846e-02
4.099000000000000000e+03 1.174171257019042969e+01 2.903064727783203125e+01 -5.081811454147100449e-03 -6.749180145561695099e-03 -3.549297573044896126e-03 1.448845490813255310e-02
4.100000000000000000e+03 3.237913131713867188e+01 2.668382644653320312e+01 -1.380248926579952240e-02 2.796890679746866226e-03 -3.301679622381925583e-03 1.313633564859628677e-02
4.101000000000000000e+03 3.194603538513183594e+01 2.831052017211914062e+01 3.501021303236484528e-03 5.175719968974590302e-03 2.603022381663322449e-03 9.899475611746311188e-03
4.102000000000000000e+03 1.313990879058837891e+01 2.747954559326171875e+01 -1.037941128015518188e-02 -4.842558410018682480e-03 -4.566591233015060425e-03 1.580593176186084747e-02
4.103000000000000000e+03 3.652769470214843750e+01 2.431398391723632812e+01 -2.598746307194232941e-02 3.534395247697830200e-02 2.806946402415633202e-03 1.138199586421251297e-02
4.104000000000000000e+03 3.601272583007812500e+01 2.283603477478027344e+01 -4.944560676813125610e-02 3.388785570859909058e-02 -4.667324479669332504e-03 2.034895308315753937e-02
4.105000000000000000e+03 1.224530982971191406e+01 9.999059677124023438e+00 -2.100557903759181499e-04 2.019616658799350262e-04 -2.428237621643347666e-06 1.476793258916586637e-04
4.106000000000000000e+03 1.231667041778564453e+01 8.889991760253906250e+00 -3.626232501119375229e-05 -3.665481563075445592e-05 -2.187514110119082034e-05 2.385105763096362352e-04
4.107000000000000000e+03 1.234360504150390625e+01 9.372295379638671875e+00 1.243047445314005017e-04 1.118091022362932563e-04 7.083415403030812740e-05 -1.569015694258268923e-05
4.108000000000000000e+03 1.143474292755126953e+01 8.301142692565917969e+00 2.274377402500249445e-05 6.499265055026626214e-07 7.018109954515239224e-06 5.265966319711878896e-05
4.109000000000000000e+03 9.526357650756835938e+00 1.761512374877929688e+01 -7.121270173229277134e-04 -1.231678412295877934e-03 -5.831416347064077854e-04 2.581619773991405964e-04
4.110000000000000000e+03 9.597970962524414062e+00 1.690399360656738281e+01 -9.739000961417332292e-05 -1.309841638430953026e-03 -4.221694834996014833e-04 2.609126968309283257e-04
4.111000000000000000e+03 1.270755863189697266e+01 8.175655364990234375e+00 8.037842053454369307e-05 2.618291182443499565e-05 3.196840043528936803e-05 1.477280311519280076e-04
4.112000000000000000e+03 9.872341156005859375e+00 1.924686622619628906e+01 -2.520944923162460327e-03 -1.130991498939692974e-03 -1.095580868422985077e-03 3.739237145055085421e-04
4.113000000000000000e+03 9.985597610473632812e+00 1.984993171691894531e+01 -2.861962188035249710e-03 -4.997706855647265911e-04 -1.008519902825355530e-03 2.363880339544266462e-04
4.114000000000000000e+03 1.092687797546386719e+01 8.687546730041503906e+00 1.683236623648554087e-04 -8.187114144675433636e-05 2.593575663922820240e-05 1.768030197126790881e-04
4.115000000000000000e+03 9.755591392517089844e+00 1.076514339447021484e+01 2.566781186033040285e-04 -2.428232401143759489e-04 4.156462182436371222e-06 2.132526860805228353e-04
4.116000000000000000e+03 9.152496337890625000e+00 1.013906383514404297e+01 5.483390850713476539e-05 -1.690497592790052295e-04 -3.426475450396537781e-05 8.268075180239975452e-05
4.117000000000000000e+03 1.138828563690185547e+01 9.187457084655761719e+00 -2.663787927303928882e-05 1.298644838243490085e-05 -4.095429176231846213e-06 7.693620864301919937e-05
4.118000000000000000e+03 1.104654312133789062e+01 2.221631050109863281e+01 -8.107279427349567413e-03 4.094307369086891413e-04 -2.309354487806558609e-03 2.054292010143399239e-03
4.119000000000000000e+03 9.955519676208496094e+00 2.051159095764160156e+01 -4.288667812943458557e-03 -6.003903690725564957e-04 -1.466717571020126343e-03 6.708223954774439335e-04
4.120000000000000000e+03 9.609313964843750000e+00 1.878075599670410156e+01 -1.718657789751887321e-03 -7.733787642791867256e-04 -7.476109894923865795e-04 -5.634093758999370039e-05
4.121000000000000000e+03 1.034305000305175781e+01 1.023240947723388672e+01 3.896823909599334002e-05 -1.147570073953829706e-04 -2.273663085361476988e-05 1.179431856144219637e-04
4.122000000000000000e+03 1.106081390380859375e+01 2.461974143981933594e+01 -9.642958641052246094e-03 -9.946650825440883636e-04 -3.191287163645029068e-03 6.914934143424034119e-03
4.123000000000000000e+03 1.174267673492431641e+01 2.531929397583007812e+01 -1.084953919053077698e-02 -8.734845323488116264e-04 -3.516907338052988052e-03 8.829226717352867126e-03
4.124000000000000000e+03 9.103094100952148438e+00 2.076406669616699219e+01 -3.700705012306571007e-03 -5.896613583900034428e-04 -1.287109917029738426e-03 7.345428457483649254e-04
4.125000000000000000e+03 1.049756050109863281e+01 2.508793067932128906e+01 -7.904227823019027710e-03 -1.417572028003633022e-03 -2.796539803966879845e-03 6.962406449019908905e-03
4.126000000000000000e+03 1.031017303466796875e+01 2.427427482604980469e+01 -9.052204899489879608e-03 -6.413263618014752865e-04 -2.908059395849704742e-03 5.740133114159107208e-03
4.127000000000000000e+03 1.038044071197509766e+01 2.208017730712890625e+01 -6.035241764038801193e-03 -3.397731634322553873e-04 -1.912504434585571289e-03 2.286338480189442635e-03
4.128000000000000000e+03 8.687301635742187500e+00 2.115128135681152344e+01 -3.735737875103950500e-03 -1.131890458054840565e-03 -1.460288534872233868e-03 1.672163256444036961e-03
4.129000000000000000e+03 9.759337425231933594e+00 2.229042625427246094e+01 -6.293421145528554916e-03 -6.701224483549594879e-04 -2.089063171297311783e-03 2.832004800438880920e-03
4.130000000000000000e+03 6.574541473388671875e+01 -1.976421117782592773e+00 1.744733154773712158e-01 9.551795125007629395e-01 3.388958573341369629e-01 -4.039134383201599121e-01
4.131000000000000000e+03 2.375422477722167969e+01 3.102215576171875000e+01 1.056823786348104477e-02 -2.398798055946826935e-02 -4.025923088192939758e-03 2.932490222156047821e-02
4.132000000000000000e+03 7.287114715576171875e+01 8.368334770202636719e+00 3.145626783370971680e-01 -4.252035319805145264e-01 -3.319225832819938660e-02 -4.156403243541717529e-01
4.133000000000000000e+03 1.584491729736328125e+01 2.861112403869628906e+01 -9.584431536495685577e-03 -8.691286668181419373e-03 -5.482715088874101639e-03 2.165681682527065277e-02
4.134000000000000000e+03 1.564379978179931641e+01 3.073534202575683594e+01 -9.648366831243038177e-04 -1.286549307405948639e-02 -4.149098880589008331e-03 2.152598276734352112e-02
4.135000000000000000e+03 6.919811248779296875e+01 2.384182214736938477e+00 3.516358137130737305e-01 7.887766361236572266e-01 3.421237468719482422e-01 -6.297688484191894531e-01
4.136000000000000000e+03 7.103186035156250000e+01 8.317527770996093750e+00 4.435688555240631104e-01 3.562015593051910400e-01 2.399311214685440063e-01 -4.146095514297485352e-01
4.137000000000000000e+03 3.387533569335937500e+01 2.522192573547363281e+01 -2.760235220193862915e-02 1.495791412889957428e-02 -3.793331328779459000e-03 1.209942530840635300e-02
4.138000000000000000e+03 7.120104217529296875e+01 6.178024768829345703e+00 3.999170660972595215e-01 2.553077340126037598e-01 1.965674310922622681e-01 -5.483652353286743164e-01
4.139000000000000000e+03 3.899242782592773438e+01 2.347611618041992188e+01 -2.334789372980594635e-02 4.735820740461349487e-02 7.203093729913234711e-03 1.103221625089645386e-02
4.140000000000000000e+03 3.540601348876953125e+01 2.660615348815917969e+01 -5.891994107514619827e-03 3.079755045473575592e-02 7.471667136996984482e-03 4.916173405945301056e-03
4.141000000000000000e+03 1.011109542846679688e+01 2.799595451354980469e+01 -5.121306981891393661e-03 -5.011770874261856079e-03 -3.039923496544361115e-03 1.127970591187477112e-02
4.142000000000000000e+03 8.408350944519042969e+00 -1.471309852600097656e+01 -3.010894060134887695e-01 -2.228502631187438965e-01 -1.571819037199020386e-01 -3.992869257926940918e-01
4.143000000000000000e+03 9.492015838623046875e+00 1.178334617614746094e+01 2.328912232769653201e-04 -3.325465659145265818e-04 -2.989660060848109424e-05 2.179014991270378232e-04
4.144000000000000000e+03 1.100286293029785156e+01 1.067118740081787109e+01 3.459955041762441397e-04 -1.068781566573306918e-04 7.173520134529098868e-05 2.121133293258026242e-04
4.145000000000000000e+03 1.036570262908935547e+01 9.130982398986816406e+00 6.013773599988780916e-05 -6.469695654232054949e-05 -1.367767367810301948e-06 6.263682735152542591e-05
4.146000000000000000e+03 1.293000793457031250e+01 2.517959976196289062e+01 -1.386021729558706284e-02 -3.794505610130727291e-04 -4.271900281310081482e-03 9.952479042112827301e-03
4.147000000000000000e+03 1.117786407470703125e+01 2.337154579162597656e+01 -9.782470762729644775e-03 -2.813408500514924526e-04 -3.019143361598253250e-03 4.852128680795431137e-03
4.148000000000000000e+03 1.256327247619628906e+01 2.595629119873046875e+01 -1.214204728603363037e-02 -2.024983987212181091e-03 -4.250109195709228516e-03 1.175415609031915665e-02
4.149000000000000000e+03 9.959619522094726562e+00 1.656384086608886719e+01 -5.480396212078630924e-04 -5.887976149097084999e-04 -3.410511708352714777e-04 -8.936327503761276603e-06
4.150000000000000000e+03 1.139296436309814453e+01 1.012751483917236328e+01 -3.318352173664607108e-05 2.103917358908802271e-05 -3.643304808065295219e-06 8.714527939446270466e-05
4.151000000000000000e+03 3.446139526367187500e+01 2.253335952758789062e+01 -5.904610827565193176e-02 2.058252692222595215e-02 -1.153907459229230881e-02 2.206856384873390198e-02
4.152000000000000000e+03 1.301569843292236328e+01 2.870796585083007812e+01 -8.478658273816108704e-03 -6.286266259849071503e-03 -4.429477266967296600e-03 1.636850088834762573e-02
4.153000000000000000e+03 1.409604454040527344e+01 2.820268440246582031e+01 -9.891754947602748871e-03 -5.787017755210399628e-03 -4.703631624579429626e-03 1.749969460070133209e-02
4.154000000000000000e+03 3.694953155517578125e+01 2.609021949768066406e+01 -9.733148850500583649e-03 4.648378491401672363e-02 1.102519128471612930e-02 3.759363666176795959e-03
4.155000000000000000e+03 3.519107437133789062e+01 2.491098976135253906e+01 -2.987310104072093964e-02 3.032792173326015472e-02 1.364466443192213774e-04 1.082728616893291473e-02
4.156000000000000000e+03 2.221070480346679688e+01 3.230075836181640625e+01 1.741123758256435394e-02 -2.355295419692993164e-02 -1.842514844611287117e-03 2.628991194069385529e-02
4.157000000000000000e+03 2.051713371276855469e+01 3.228254318237304688e+01 1.331292092800140381e-02 -2.058636583387851715e-02 -2.182033611461520195e-03 2.558064274489879608e-02
4.158000000000000000e+03 1.115334415435791016e+01 2.593622016906738281e+01 -9.655782021582126617e-03 -2.200779737904667854e-03 -3.556968411430716515e-03 9.788567200303077698e-03
4.159000000000000000e+03 1.671957206726074219e+01 3.201417160034179688e+01 3.692773170769214630e-03 -1.673839427530765533e-02 -3.913686145097017288e-03 2.326555177569389343e-02
4.160000000000000000e+03 3.557600402832031250e+01 2.860033798217773438e+01 1.355335302650928497e-02 4.317428171634674072e-02 1.701829023659229279e-02 -4.254481755197048187e-03
4.161000000000000000e+03 2.453180122375488281e+01 2.928161430358886719e+01 9.295720956288278103e-04 -2.243839949369430542e-02 -6.452647969126701355e-03 3.004497103393077850e-02
4.162000000000000000e+03 1.732998085021972656e+01 -3.070359420776367188e+01 3.847063481807708740e-01 2.692331671714782715e-01 1.961818635463714600e-01 -2.190881222486495972e-01
4.163000000000000000e+03 4.616077041625976562e+01 -3.403305816650390625e+01 -4.829445481300354004e-02 6.715764999389648438e-01 1.869846135377883911e-01 -1.294060051441192627e-01
4.164000000000000000e+03 7.443434143066406250e+01 -2.838458824157714844e+01 -2.472521970048546791e-03 -8.726957603357732296e-04 -1.003565266728401184e-03 2.927283523604273796e-03
4.165000000000000000e+03 3.463467025756835938e+01 -3.530774688720703125e+01 1.052729338407516479e-01 1.103623747825622559e+00 3.626689910888671875e-01 1.784555166959762573e-01
4.166000000000000000e+03 7.189441680908203125e+01 2.917717361450195312e+01 -2.141621559858322144e-01 8.672553300857543945e-02 -3.823098540306091309e-02 6.394354104995727539e-01
4.167000000000000000e+03 7.343750000000000000e+01 2.720565223693847656e+01 -7.710302621126174927e-02 -3.721281886100769043e-01 -1.347693651914596558e-01 6.929132342338562012e-01
4.168000000000000000e+03 7.734072875976562500e+01 3.633021545410156250e+01 -3.946054354310035706e-02 -7.885964512825012207e-01 -2.484170943498611450e-01 1.952710747718811035e-01
4.169000000000000000e+03 7.340045166015625000e+01 2.864030838012695312e+01 -1.294713616371154785e-01 -3.288058638572692871e-01 -1.374831646680831909e-01 6.454728841781616211e-01
4.170000000000000000e+03 7.075413513183593750e+01 2.473937606811523438e+01 4.828358069062232971e-02 4.689959287643432617e-01 1.551838517189025879e-01 7.288860678672790527e-01
4.171000000000000000e+03 3.138371467590332031e+01 3.010558700561523438e+01 1.754427514970302582e-02 9.301058598794043064e-04 5.542314611375331879e-03 1.032593101263046265e-02
4.172000000000000000e+03 5.261732864379882812e+01 -3.489650344848632812e+01 2.875041030347347260e-02 9.774396568536758423e-02 3.794831037521362305e-02 -3.235647454857826233e-02
4.173000000000000000e+03 3.206427764892578125e+01 -3.436120986938476562e+01 2.474241703748703003e-01 1.004229187965393066e+00 3.754960000514984131e-01 2.746626138687133789e-01
4.174000000000000000e+03 1.257628631591796875e+01 -3.025379180908203125e+01 2.745266258716583252e-01 -9.094638377428054810e-02 5.507407337427139282e-02 -1.722726523876190186e-01
4.175000000000000000e+03 7.543518066406250000e+01 3.691871261596679688e+01 -8.892037719488143921e-02 -5.414503216743469238e-01 -1.891112029552459717e-01 2.097388356924057007e-01
4.176000000000000000e+03 4.065015029907226562e+01 2.838826751708984375e+01 4.081865400075912476e-02 9.364671260118484497e-02 4.033961147069931030e-02 -3.487793728709220886e-02
4.177000000000000000e+03 4.294155502319335938e+01 2.914962387084960938e+01 5.926008149981498718e-02 1.194768771529197693e-01 5.362108722329139709e-02 -6.472411006689071655e-02
4.178000000000000000e+03 1.654170608520507812e+01 3.500923919677734375e+01 1.279248762875795364e-02 -1.959896087646484375e-02 -2.041941974312067032e-03 1.767798885703086853e-02
4.179000000000000000e+03 6.557459259033203125e+01 -3.367511367797851562e+01 -1.275045610964298248e-02 -2.120039280271157622e-04 -3.888738108798861504e-03 2.351994253695011139e-02
4.180000000000000000e+03 6.071606826782226562e+01 3.208433914184570312e+01 -4.130825102329254150e-01 1.319005012512207031e+00 2.717767357826232910e-01 -2.791298329830169678e-01
4.181000000000000000e+03 7.628171539306640625e+01 2.755141067504882812e+01 -4.916350170969963074e-02 -1.220611333847045898e+00 -3.809324800968170166e-01 4.858627915382385254e-01
4.182000000000000000e+03 6.991835784912109375e+01 3.241189575195312500e+01 -3.569457828998565674e-01 4.336246550083160400e-01 2.300365641713142395e-02 4.631051421165466309e-01
4.183000000000000000e+03 6.612312316894531250e+00 -2.538095092773437500e+01 1.410022079944610596e-01 -5.570390820503234863e-01 -1.248110607266426086e-01 -3.034228682518005371e-01
4.184000000000000000e+03 6.990426635742187500e+01 2.953053855895996094e+01 -2.869095206260681152e-01 5.618613362312316895e-01 8.248554915189743042e-02 5.699176788330078125e-01
4.185000000000000000e+03 6.552717590332031250e+01 2.800491523742675781e+01 -3.692762255668640137e-01 1.595311284065246582e+00 3.678105473518371582e-01 2.343437075614929199e-01
4.186000000000000000e+03 6.844130706787109375e+01 2.664776229858398438e+01 -1.744885593652725220e-01 1.123595356941223145e+00 2.847320437431335449e-01 6.066744327545166016e-01
4.187000000000000000e+03 6.869241333007812500e+01 -1.883461189270019531e+01 3.577823808882385492e-04 -1.984669506782665849e-04 4.779462688020430505e-05 1.192707350128330290e-04
4.188000000000000000e+03 2.360202980041503906e+01 -4.169707894325256348e-01 -8.111475706100463867e-01 1.617168337106704712e-01 -1.948292255401611328e-01 -4.528372362256050110e-02
4.189000000000000000e+03 2.296412849426269531e+01 3.553976297378540039e+00 -1.162747958005638793e-05 -1.655425512581132352e-05 -8.454520866507664323e-06 6.265525826165685430e-06
4.190000000000000000e+03 3.133824729919433594e+01 -1.625862836837768555e+00 -3.004098176956176758e+00 3.281755745410919189e-01 -8.027768135070800781e-01 -2.415274679660797119e-01
4.191000000000000000e+03 3.058385848999023438e+01 -1.712264299392700195e+00 -2.794874668121337891e+00 2.909801304340362549e-01 -7.511683702468872070e-01 -2.346657961606979370e-01
4.192000000000000000e+03 3.082616424560546875e+01 -1.936476707458496094e+00 -2.726626157760620117e+00 3.049153983592987061e-01 -7.265132069587707520e-01 -3.006447255611419678e-01
4.193000000000000000e+03 3.038319587707519531e+01 -1.746878743171691895e+00 -2.741491079330444336e+00 2.703360617160797119e-01 -7.413465380668640137e-01 -2.609295248985290527e-01
4.194000000000000000e+03 2.258890151977539062e+01 3.775362014770507812e+00 1.443264318368164822e-05 1.980369597731623799e-05 1.027090183924883604e-05 7.295971499843290076e-06
4.195000000000000000e+03 3.043063354492187500e+01 -2.049358606338500977e+00 -2.574162721633911133e+00 2.818563580513000488e-01 -6.876918673515319824e-01 -3.202973604202270508e-01
4.196000000000000000e+03 3.022117996215820312e+01 -2.131016731262207031e+00 -2.483062267303466797e+00 2.691884934902191162e-01 -6.641620993614196777e-01 -3.408526182174682617e-01
4.197000000000000000e+03 2.999510574340820312e+01 -2.152431249618530273e+00 -2.437442779541015625e+00 2.502642571926116943e-01 -6.561535596847534180e-01 -3.555028140544891357e-01
4.198000000000000000e+03 2.878767204284667969e+01 -1.884380698204040527e+00 -2.400894880294799805e+00 5.491801351308822632e-02 -7.037930488586425781e-01 -4.162462353706359863e-01
4.199000000000000000e+03 2.822310638427734375e+01 -1.947351455688476562e+00 -2.267570734024047852e+00 -2.553700841963291168e-02 -6.879323124885559082e-01 -4.668493568897247314e-01
4.200000000000000000e+03 2.837796020507812500e+01 -2.148034334182739258e+00 -2.182210922241210938e+00 4.086101427674293518e-03 -6.534374356269836426e-01 -4.752252995967864990e-01
4.201000000000000000e+03 2.801230812072753906e+01 -2.608594894409179688e+00 -1.813537359237670898e+00 -2.544341236352920532e-02 -5.516942739486694336e-01 -5.842065215110778809e-01
4.202000000000000000e+03 2.776553344726562500e+01 -2.414562463760375977e+00 -1.891831278800964355e+00 -7.230769842863082886e-02 -5.892416834831237793e-01 -5.805030465126037598e-01
4.203000000000000000e+03 2.140703392028808594e+01 4.790161132812500000e+00 2.161754491680767387e-05 1.695196078799199313e-05 1.157085171143990010e-05 2.089318877551704645e-05
4.204000000000000000e+03 3.321948242187500000e+01 1.863002181053161621e+00 5.665947101078927517e-04 -7.109565776772797108e-04 -4.330856609158217907e-05 4.121655074413865805e-04
4.205000000000000000e+03 3.315650939941406250e+01 2.171071290969848633e+00 -1.548756379634141922e-03 3.942129551433026791e-04 -3.463629982434213161e-04 1.499084610259160399e-04
4.206000000000000000e+03 4.417389631271362305e-01 -2.198942899703979492e+00 3.384162439033389091e-03 1.981096155941486359e-02 6.958537269383668900e-03 8.926693350076675415e-03
4.207000000000000000e+03 1.854756164550781250e+01 7.489109992980957031e+00 5.143753878655843437e-05 3.268147338530980051e-05 2.523570401535835117e-05 4.623924905899912119e-05
4.208000000000000000e+03 1.432005500793457031e+01 1.898011207580566406e+01 -5.662059993483126163e-04 1.826450228691101074e-03 3.780732804443687201e-04 -1.442449774913256988e-05
4.209000000000000000e+03 4.577523040771484375e+01 -1.451115417480468750e+01 2.970668315887451172e+00 -4.497188031673431396e-01 7.562848329544067383e-01 1.607507616281509399e-01
4.210000000000000000e+03 4.520553970336914062e+01 -1.458524703979492188e+01 3.307984828948974609e+00 -3.550376892089843750e-01 8.858841657638549805e-01 5.319167673587799072e-02
4.211000000000000000e+03 4.510922241210937500e+01 -1.470296955108642578e+01 3.293170928955078125e+00 -3.183810710906982422e-01 8.924369215965270996e-01 -1.103990525007247925e-01
4.212000000000000000e+03 4.505209350585937500e+01 -1.447983455657958984e+01 3.652739286422729492e+00 -3.139713406562805176e-01 1.001630425453186035e+00 2.006872445344924927e-01
4.213000000000000000e+03 4.481199645996093750e+01 -1.447017383575439453e+01 3.990054368972778320e+00 -2.731125056743621826e-01 1.115082621574401855e+00 2.395994216203689575e-01
4.214000000000000000e+03 4.487907791137695312e+01 -1.418828487396240234e+01 4.114115238189697266e+00 -2.345591634511947632e-01 1.163866877555847168e+00 5.179654359817504883e-01
4.215000000000000000e+03 4.417517089843750000e+01 -1.310200786590576172e+01 4.038001537322998047e+00 1.492350816726684570e+00 1.659105658531188965e+00 2.251829385757446289e+00
4.216000000000000000e+03 4.353668212890625000e+01 -1.828318214416503906e+01 -1.572221368551254272e-01 2.370817184448242188e+00 6.640785336494445801e-01 -6.952641606330871582e-01
4.217000000000000000e+03 4.339541625976562500e+01 -1.736710166931152344e+01 1.073238179087638855e-01 2.780088901519775391e+00 8.662238121032714844e-01 -1.039004802703857422e+00
4.218000000000000000e+03 4.323591995239257812e+01 -1.726366233825683594e+01 8.793677389621734619e-02 3.045231103897094727e+00 9.399504065513610840e-01 -1.093098759651184082e+00
4.219000000000000000e+03 4.332117080688476562e+01 -1.752583503723144531e+01 4.314306005835533142e-02 2.879141330718994141e+00 8.766853213310241699e-01 -9.619711041450500488e-01
4.220000000000000000e+03 4.294431304931640625e+01 -1.705700874328613281e+01 4.748815670609474182e-03 3.775925159454345703e+00 1.134202241897583008e+00 -1.042155027389526367e+00
4.221000000000000000e+03 4.234347534179687500e+01 -1.724356460571289062e+01 -2.731651961803436279e-01 4.801219463348388672e+00 1.358416318893432617e+00 -3.532595932483673096e-01
4.222000000000000000e+03 2.481638336181640625e+01 2.231173133850097656e+01 -1.145233660936355591e-01 -1.329170260578393936e-02 -3.834452107548713684e-02 3.504955396056175232e-02
4.223000000000000000e+03 2.553119277954101562e+01 2.162328529357910156e+01 -1.399938166141510010e-01 -1.374664995819330215e-02 -4.612214118242263794e-02 3.864666819572448730e-02
4.224000000000000000e+03 2.608314704895019531e+01 2.205993652343750000e+01 -1.247017458081245422e-01 -2.201407030224800110e-02 -4.401474446058273315e-02 4.411096870899200439e-02
4.225000000000000000e+03 3.358116531372070312e+01 9.026865959167480469e+00 8.858414948917925358e-04 2.211805433034896851e-03 9.292940958403050900e-04 -9.296011994592845440e-04
4.226000000000000000e+03 3.445800781250000000e+01 -2.309135198593139648e+00 -2.504455566406250000e+00 3.235315680503845215e-01 -6.542772054672241211e-01 3.135721683502197266e-01
4.227000000000000000e+03 3.520598983764648438e+01 -1.215811967849731445e+00 -2.588242292404174805e+00 3.891343176364898682e-01 -6.597324013710021973e-01 2.286986634135246277e-02
4.228000000000000000e+03 3.514376449584960938e+01 -1.420821785926818848e+00 -2.626843929290771484e+00 4.473948478698730469e-01 -6.538347005844116211e-01 6.279541552066802979e-02
4.229000000000000000e+03 3.534232330322265625e+01 -1.570814728736877441e+00 -2.617897033691406250e+00 4.668935239315032959e-01 -6.453010439872741699e-01 1.789610087871551514e-01
4.230000000000000000e+03 3.500874328613281250e+01 -1.591333627700805664e+00 -2.750859498977661133e+00 4.535779058933258057e-01 -6.891844868659973145e-01 1.952246725559234619e-01
4.231000000000000000e+03 6.844959259033203125e+01 -1.860109710693359375e+01 -6.337012746371328831e-05 6.099848906160332263e-05 -7.114917934814002365e-07 8.800639625405892730e-05
4.232000000000000000e+03 6.852609252929687500e+01 -1.885913085937500000e+01 2.968669577967375517e-04 3.249960427638143301e-04 1.865589001681655645e-04 -2.745737147051841021e-04
4.233000000000000000e+03 6.856238555908203125e+01 -1.845204353332519531e+01 -2.106612082570791245e-04 -8.892465120879933238e-05 -8.987575711216777563e-05 -8.196230191970244050e-05
4.234000000000000000e+03 4.494622802734375000e+01 -1.436398792266845703e+01 3.879736423492431641e+00 -2.931526899337768555e-01 1.075975060462951660e+00 3.458781540393829346e-01
4.235000000000000000e+03 4.510044860839843750e+01 -1.434384059906005859e+01 3.745521783828735352e+00 -2.852445244789123535e-01 1.038083195686340332e+00 3.285213708877563477e-01
4.236000000000000000e+03 4.512485504150390625e+01 -1.393532085418701172e+01 3.900503396987915039e+00 -2.245571464300155640e-01 1.102783918380737305e+00 8.298332691192626953e-01
4.237000000000000000e+03 4.437612152099609375e+01 -1.278201389312744141e+01 3.417604446411132812e+00 1.449286103248596191e+00 1.460067152976989746e+00 2.209553480148315430e+00
4.238000000000000000e+03 6.842248535156250000e+01 -1.886470794677734375e+01 3.922852920368313789e-04 1.748440845403820276e-04 1.701388100627809763e-04 -3.618847695179283619e-04
4.239000000000000000e+03 2.225680923461914062e+01 3.439463853836059570e+00 -8.224646990129258484e-06 -3.442694287514314055e-05 -1.279547723243013024e-05 -5.046984369982965291e-06
4.240000000000000000e+03 4.339086532592773438e+01 -1.862834358215332031e+01 -2.351502180099487305e-01 2.505048751831054688e+00 6.809695363044738770e-01 -6.190685033798217773e-01
4.241000000000000000e+03 4.447444534301757812e+01 -2.077535438537597656e+01 -1.078364253044128418e-01 1.731867671012878418e+00 4.872093498706817627e-01 -2.980295419692993164e-01
4.242000000000000000e+03 2.622450065612792969e+01 2.260166740417480469e+01 -1.078507155179977417e-01 -2.579577825963497162e-02 -4.009394720196723938e-02 4.559673741459846497e-02
4.243000000000000000e+03 2.485227775573730469e+01 2.282252502441406250e+01 -1.012571528553962708e-01 -1.944971643388271332e-02 -3.621206060051918030e-02 3.661096841096878052e-02
4.244000000000000000e+03 6.866011047363281250e+01 -1.921717453002929688e+01 7.225257577374577522e-04 5.410400917753577232e-04 3.790697664953768253e-04 5.083781434223055840e-05
4.245000000000000000e+03 1.603591537475585938e+01 -2.572970962524414062e+01 4.730194211006164551e-01 3.381759524345397949e-01 2.433586120605468750e-01 -3.806030452251434326e-01
4.246000000000000000e+03 3.280064773559570312e+01 -3.244361877441406250e+01 3.146857619285583496e-01 1.066752195358276367e+00 4.144313931465148926e-01 3.495265245437622070e-01
4.247000000000000000e+03 2.431929397583007812e+01 -3.354973602294921875e+01 4.931980669498443604e-01 4.382327795028686523e-01 2.794292569160461426e-01 -6.643124669790267944e-02
4.248000000000000000e+03 4.124900436401367188e+01 -1.693854331970214844e+01 4.399317204952239990e-01 5.243824005126953125e+00 1.705126643180847168e+00 1.372057318687438965e+00
4.249000000000000000e+03 6.184122085571289062e+01 -3.301055526733398438e+01 -3.244360536336898804e-02 9.494379046373069286e-04 -9.448249824345111847e-03 3.053133375942707062e-02
4.250000000000000000e+03 7.072473144531250000e+01 -2.126424598693847656e+01 -1.630405749892815948e-04 -3.939374291803687811e-04 -1.670933997957035899e-04 1.684733288129791617e-04
4.251000000000000000e+03 7.265185546875000000e+01 3.544710922241210938e+01 -2.494209259748458862e-01 -7.143601030111312866e-02 -9.625708311796188354e-02 3.491921722888946533e-01
4.252000000000000000e+03 6.404504394531250000e+01 -3.472416687011718750e+01 -2.353922463953495026e-03 -5.181457381695508957e-03 -2.260613953694701195e-03 2.986184135079383850e-02
4.253000000000000000e+03 4.528787612915039062e+01 -1.440227508544921875e+01 3.466318607330322266e+00 -3.732478320598602295e-01 9.279212355613708496e-01 2.180810868740081787e-01
4.254000000000000000e+03 4.508777618408203125e+01 -1.415634346008300781e+01 3.942872524261474609e+00 -2.879538238048553467e-01 1.096475601196289062e+00 5.390682816505432129e-01
4.255000000000000000e+03 3.472118759155273438e+01 -2.131856203079223633e+00 -2.546806573867797852e+00 3.729588687419891357e-01 -6.521543264389038086e-01 3.245631158351898193e-01
4.256000000000000000e+03 6.840995788574218750e+01 -1.916422080993652344e+01 5.605089245364069939e-04 2.243624476250261068e-04 2.354614116484299302e-04 -1.278749114135280252e-04
4.257000000000000000e+03 4.302967453002929688e+01 -1.780409240722656250e+01 -1.711430549621582031e-01 3.277355432510375977e+00 9.318637251853942871e-01 -7.398137450218200684e-01
4.258000000000000000e+03 1.331554985046386719e+01 -1.103196620941162109e+01 -5.708911418914794922e-01 -4.607073962688446045e-01 -3.094795644283294678e-01 -2.501209080219268799e-01
4.259000000000000000e+03 2.266132926940917969e+01 -2.373983860015869141e+00 -7.507079839706420898e-01 7.145246863365173340e-02 -2.037766575813293457e-01 -4.649865031242370605e-01
4.260000000000000000e+03 2.077974319458007812e+01 4.698985576629638672e+00 2.302369648532476276e-05 2.604806286399252713e-05 1.472152780479518697e-05 5.615899226540932432e-06
4.261000000000000000e+03 4.254339218139648438e+01 -1.748556900024414062e+01 -2.596234083175659180e-01 4.248526096343994141e+00 1.196670770645141602e+00 -5.284838676452636719e-01
4.262000000000000000e+03 4.311603927612304688e+01 -1.742851638793945312e+01 -3.704674914479255676e-02 3.298521041870117188e+00 9.784423112869262695e-01 -9.443510174751281738e-01
4.263000000000000000e+03 3.102312660217285156e+01 -1.894032239913940430e+00 -2.877636909484863281e+00 3.351000547409057617e-01 -7.627610564231872559e-01 -3.423942327499389648e-01
4.264000000000000000e+03 2.719474220275878906e+01 -2.340982437133789062e+00 -1.817088127136230469e+00 -1.710651367902755737e-01 -5.964459776878356934e-01 -5.897384285926818848e-01
4.265000000000000000e+03 2.756499290466308594e+01 -2.311345577239990234e+00 -1.916005849838256836e+00 -1.188702210783958435e-01 -6.104627847671508789e-01 -5.558091998100280762e-01
4.266000000000000000e+03 2.757376670837402344e+01 -2.709216833114624023e+00 -1.629629731178283691e+00 -9.242668002843856812e-02 -5.166169404983520508e-01 -6.351489424705505371e-01
4.267000000000000000e+03 2.827074050903320312e+01 -2.851217269897460938e+00 -1.682497620582580566e+00 2.940102107822895050e-02 -4.959290027618408203e-01 -6.240878701210021973e-01
4.268000000000000000e+03 3.035281753540039062e+01 -2.467419862747192383e+00 -2.314012527465820312e+00 2.756460011005401611e-01 -6.115099787712097168e-01 -4.086101949214935303e-01
4.269000000000000000e+03 2.939942169189453125e+01 -2.545752525329589844e+00 -2.098203182220458984e+00 2.011660635471343994e-01 -5.691111683845520020e-01 -4.710881710052490234e-01
4.270000000000000000e+03 7.767873382568359375e+01 -3.712649917602539062e+01 7.634095381945371628e-04 -1.104938890784978867e-02 -3.085793927311897278e-03 3.035805886611342430e-03
4.271000000000000000e+03 4.583289337158203125e+01 -1.411077404022216797e+01 3.156401872634887695e+00 -4.218976497650146484e-01 8.203513026237487793e-01 4.954875409603118896e-01
4.272000000000000000e+03 4.246056365966796875e+01 -1.898364257812500000e+01 -4.681027829647064209e-01 3.218833446502685547e+00 8.252192139625549316e-01 -1.856190860271453857e-01
4.273000000000000000e+03 4.290806198120117188e+01 -2.097377967834472656e+01 -2.640955150127410889e-01 2.312252998352050781e+00 6.144472360610961914e-01 -1.288982629776000977e-01
4.274000000000000000e+03 6.833346557617187500e+01 -1.890618705749511719e+01 3.354846558067947626e-04 1.137769213528372347e-04 1.347784709651023149e-04 -1.539271324872970581e-04
4.275000000000000000e+03 6.965782165527343750e+01 -1.311635303497314453e+01 -6.584436297416687012e-01 1.441955417394638062e-01 -1.542744338512420654e-01 -2.147244475781917572e-02
4.276000000000000000e+03 6.978157043457031250e+01 -1.227582359313964844e+01 -8.023787736892700195e-01 1.744112968444824219e-01 -1.883902400732040405e-01 -1.767609119415283203e-01
4.277000000000000000e+03 7.698449707031250000e+01 -1.902016830444335938e+01 1.086075862986035645e-04 3.586260572774335742e-05 4.334105688030831516e-05 -1.883636577986180782e-04
4.278000000000000000e+03 1.892514038085937500e+01 6.948009490966796875e+00 2.596081867523025721e-05 4.923742744722403586e-05 2.255947401863522828e-05 3.826175816357135773e-05
4.279000000000000000e+03 3.260308837890625000e+01 1.538509941101074219e+01 -1.666006632149219513e-02 -1.752818934619426727e-02 -1.025647670030593872e-02 2.149901352822780609e-02
4.280000000000000000e+03 1.387289810180664062e+01 1.783259582519531250e+01 -3.418753331061452627e-04 1.445138128474354744e-03 3.309788298793137074e-04 5.394922918640077114e-04
4.281000000000000000e+03 3.356770706176757812e+01 1.387199974060058594e+01 -1.398208551108837128e-02 -5.880647804588079453e-03 -5.958819761872291565e-03 1.393124088644981384e-02
4.282000000000000000e+03 2.582982254028320312e+01 2.268878364562988281e+01 -1.047425866127014160e-01 -2.414285764098167419e-02 -3.866563364863395691e-02 4.133728519082069397e-02
4.283000000000000000e+03 2.590960311889648438e+01 2.314102363586425781e+01 -9.385323524475097656e-02 -2.552748657763004303e-02 -3.581421822309494019e-02 4.263672977685928345e-02
4.284000000000000000e+03 2.558563423156738281e+01 2.300955390930175781e+01 -9.702666848897933960e-02 -2.530825138092041016e-02 -3.670047596096992493e-02 4.106043279170989990e-02
4.285000000000000000e+03 4.238267135620117188e+01 -2.976218605041503906e+01 2.061349898576736450e-02 1.211698770523071289e+00 3.696936666965484619e-01 4.905486106872558594e-02
4.286000000000000000e+03 4.900292873382568359e+00 -2.469774055480957031e+01 7.528536766767501831e-02 -6.313570141792297363e-01 -1.668214946985244751e-01 -2.854724228382110596e-01
4.287000000000000000e+03 3.947416305541992188e+00 -3.390471267700195312e+01 4.283631592988967896e-02 -9.036867022514343262e-01 -2.582551240921020508e-01 -5.682596564292907715e-02
4.288000000000000000e+03 3.801606750488281250e+01 -1.616189765930175781e+01 1.237809300422668457e+00 1.262401700019836426e+00 7.500633001327514648e-01 8.334149718284606934e-01
4.289000000000000000e+03 3.518335723876953125e+01 -2.055305004119873047e+00 -2.507243871688842773e+00 4.866527020931243896e-01 -6.061773300170898438e-01 3.086763918399810791e-01
4.290000000000000000e+03 6.215049743652343750e+01 -3.483056259155273438e+01 -3.565476275980472565e-03 -8.929120376706123352e-03 -3.748378949239850044e-03 3.783614560961723328e-02
4.291000000000000000e+03 5.937383651733398438e+01 -3.454348373413085938e+01 -9.078026749193668365e-03 -6.881355773657560349e-03 -4.787814803421497345e-03 4.369589313864707947e-02
4.292000000000000000e+03 4.771887207031250000e+01 -1.221814537048339844e+01 1.671223402023315430e+00 -2.987969517707824707e-01 4.117279350757598877e-01 1.362418174743652344e+00
4.293000000000000000e+03 6.379528808593750000e+01 -9.638793945312500000e+00 -1.289240121841430664e+00 -3.113192915916442871e-01 -4.801678359508514404e-01 -2.206875234842300415e-01
4.294000000000000000e+03 1.029891681671142578e+01 -2.611639022827148438e+01 2.850660085678100586e-01 -3.159506022930145264e-01 -9.265374392271041870e-03 -2.937583625316619873e-01
4.295000000000000000e+03 4.527881622314453125e+01 -1.413799285888671875e+01 3.613503456115722656e+00 -2.996081113815307617e-01 9.941685795783996582e-01 5.466211438179016113e-01
4.296000000000000000e+03 2.582073020935058594e+01 2.368773460388183594e+01 -7.782959192991256714e-02 -2.994974143803119659e-02 -3.233380243182182312e-02 4.055165499448776245e-02
4.297000000000000000e+03 6.938887023925781250e+01 -3.368977355957031250e+01 -6.500246468931436539e-03 -2.110749715939164162e-03 -2.583298832178115845e-03 1.409232616424560547e-02
4.298000000000000000e+03 6.668762207031250000e+01 -3.250564956665039062e+01 -1.355879288166761398e-02 8.846517303027212620e-04 -3.802242456004023552e-03 1.571015082299709320e-02
4.299000000000000000e+03 6.435987854003906250e+01 2.363069343566894531e+01 1.457675546407699585e-01 2.589735269546508789e+00 8.206508159637451172e-01 1.217211708426475525e-01
4.300000000000000000e+03 2.014769554138183594e+01 4.640210628509521484e+00 1.376278760290006176e-05 5.044918725616298616e-05 1.926359254866838455e-05 1.841746598074678332e-05
4.301000000000000000e+03 2.760444831848144531e+01 -3.319448471069335938e+00 -1.322465896606445312e+00 -2.022718079388141632e-02 -4.028079509735107422e-01 -7.614548206329345703e-01
4.302000000000000000e+03 3.087201309204101562e+01 -2.186666965484619141e+00 -2.626344442367553711e+00 3.086277842521667480e-01 -6.953150033950805664e-01 -3.503041267395019531e-01
4.303000000000000000e+03 3.496305465698242188e+01 -2.972708320617675781e+01 3.633724153041839600e-01 1.360270023345947266e+00 5.170927047729492188e-01 4.882037341594696045e-01
4.304000000000000000e+03 3.778325271606445312e+01 1.149053764343261719e+01 -1.081881113350391388e-02 2.624802058562636375e-03 -2.458202652633190155e-03 -1.084787189029157162e-03
4.305000000000000000e+03 3.461711120605468750e+01 5.459763526916503906e+00 -1.372543192701414227e-04 -1.384780334774404764e-04 -8.271970727946609259e-05 1.521147787570953369e-04
4.306000000000000000e+03 3.430422973632812500e+01 5.704827785491943359e+00 1.699881511740386486e-03 -1.318603463005274534e-04 4.704063467215746641e-04 -3.605118545237928629e-04
4.307000000000000000e+03 6.518290710449218750e+01 2.256497192382812500e+01 3.492506444454193115e-01 2.542858600616455078e+00 8.676328063011169434e-01 2.497704476118087769e-01
4.308000000000000000e+03 2.915617942810058594e+01 -4.803649425506591797e+00 -6.326991319656372070e-01 3.527739048004150391e-01 -8.397758007049560547e-02 -8.303905129432678223e-01
4.309000000000000000e+03 2.891576766967773438e+01 -2.320919036865234375e+00 -2.155548334121704102e+00 1.010849997401237488e-01 -6.163389682769775391e-01 -4.742961227893829346e-01
4.310000000000000000e+03 3.109060096740722656e+01 -2.509525060653686523e+00 -2.418184995651245117e+00 2.733376324176788330e-01 -6.434542536735534668e-01 -3.964743316173553467e-01
4.311000000000000000e+03 3.082963180541992188e+01 -2.437024593353271484e+00 -2.364822387695312500e+00 3.103959858417510986e-01 -6.163278818130493164e-01 -3.953650295734405518e-01
4.312000000000000000e+03 3.535441589355468750e+01 4.169063568115234375e+00 1.778201549313962460e-03 6.116773147368803620e-05 5.518107791431248188e-04 2.528484037611633539e-04
4.313000000000000000e+03 1.717072868347167969e+01 2.250351142883300781e+01 -2.862225659191608429e-02 4.051358846481889486e-04 -8.465136401355266571e-03 2.337741898372769356e-03
4.314000000000000000e+03 1.738059806823730469e+01 2.292226982116699219e+01 -3.224173188209533691e-02 1.080449692381080240e-05 -9.669278748333454132e-03 6.240182090550661087e-03
4.315000000000000000e+03 1.621184730529785156e+01 8.037960052490234375e+00 3.838836710201576352e-05 7.055227615637704730e-05 3.268219370511360466e-05 2.679592903120919800e-08
4.316000000000000000e+03 7.605448150634765625e+01 3.029457092285156250e+01 -5.049138516187667847e-02 -9.541404843330383301e-01 -3.013895452022552490e-01 4.458956122398376465e-01
4.317000000000000000e+03 7.468161010742187500e+01 2.868043899536132812e+01 -8.111140877008438110e-02 -6.955075860023498535e-01 -2.329856902360916138e-01 5.887216925621032715e-01
4.318000000000000000e+03 1.341531944274902344e+01 1.481974124908447266e+01 3.874860994983464479e-04 5.430715973488986492e-04 2.791672886814922094e-04 5.340688512660562992e-04
4.319000000000000000e+03 4.133640289306640625e+01 -2.045059776306152344e+01 -3.916298449039459229e-01 2.773978710174560547e+00 7.147046923637390137e-01 4.533235728740692139e-01
4.320000000000000000e+03 6.543957519531250000e+01 2.481907844543457031e+01 -1.629471033811569214e-02 2.103746175765991211e+00 6.262354254722595215e-01 2.792495489120483398e-01
4.321000000000000000e+03 3.591420745849609375e+01 5.272880554199218750e+00 1.711574732325971127e-03 2.196160348830744624e-04 5.793572054244577885e-04 5.963685107417404652e-04
4.322000000000000000e+03 1.385084247589111328e+01 1.895227241516113281e+01 -3.915502456948161125e-04 9.917464340105652809e-04 1.800588506739586592e-04 -4.140173550695180893e-04
4.323000000000000000e+03 1.340911674499511719e+01 1.817616081237792969e+01 -6.702742539346218109e-04 6.962615880183875561e-04 7.796185855113435537e-06 1.898703631013631821e-04
4.324000000000000000e+03 1.364783954620361328e+01 1.595034694671630859e+01 3.913797845598310232e-04 1.129353884607553482e-03 4.562201211228966713e-04 3.883699537254869938e-04
4.325000000000000000e+03 1.308094501495361328e+01 1.567553806304931641e+01 3.368609468452632427e-04 6.149412365630269051e-04 2.855406492017209530e-04 5.440446548163890839e-04
4.326000000000000000e+03 3.604859161376953125e+01 1.081476593017578125e+01 -6.955124903470277786e-03 -2.357876859605312347e-03 -2.793900668621063232e-03 2.428612206131219864e-03
4.327000000000000000e+03 4.720706176757812500e+01 -1.201589679718017578e+01 1.821351170539855957e+00 -2.782610356807708740e-01 4.629270434379577637e-01 1.473187923431396484e+00
4.328000000000000000e+03 4.676331329345703125e+01 -1.186389350891113281e+01 1.910342454910278320e+00 -2.209239006042480469e-01 5.068255662918090820e-01 1.581861376762390137e+00
4.329000000000000000e+03 4.629140472412109375e+01 -1.250936603546142578e+01 2.467563629150390625e+00 -1.941527128219604492e-01 6.820232868194580078e-01 1.419553041458129883e+00
4.330000000000000000e+03 2.751976585388183594e+01 -3.739015340805053711e+00 -1.049240589141845703e+00 -1.396652031689882278e-02 -3.189621269702911377e-01 -8.386774063110351562e-01
4.331000000000000000e+03 3.217099761962890625e+01 -4.697603225708007812e+00 -9.332846999168395996e-01 4.566361308097839355e-01 -1.429945677518844604e-01 -2.459904998540878296e-01
4.332000000000000000e+03 2.262450599670410156e+01 -3.474657297134399414e+00 -6.312568783760070801e-01 -2.524727582931518555e-02 -1.969512403011322021e-01 -6.433751583099365234e-01
4.333000000000000000e+03 1.783638954162597656e+01 -7.439118862152099609e+00 -3.488318920135498047e-01 -4.068188369274139404e-01 -2.266952246427536011e-01 -4.861390888690948486e-01
4.334000000000000000e+03 1.233884811401367188e+01 -1.211212348937988281e+01 -5.794442296028137207e-01 -3.707070946693420410e-01 -2.850454151630401611e-01 -2.833974063396453857e-01
4.335000000000000000e+03 4.421768188476562500e+01 -1.016312026977539062e+01 5.412793159484863281e-01 1.263891100883483887e+00 5.415511131286621094e-01 1.466784715652465820e+00
4.336000000000000000e+03 6.598201751708984375e+01 9.160692214965820312e+00 7.001062035560607910e-01 3.001109123229980469e+00 1.110364675521850586e+00 1.228813007473945618e-01
4.337000000000000000e+03 6.453163909912109375e+01 9.935194015502929688e+00 6.295804977416992188e-01 4.135610580444335938e+00 1.429557204246520996e+00 3.717565238475799561e-01
4.338000000000000000e+03 3.698133468627929688e+01 -2.793677330017089844e+00 -2.329018592834472656e+00 7.070780992507934570e-01 -4.865821599960327148e-01 4.595902562141418457e-01
4.339000000000000000e+03 6.831829833984375000e+01 4.340748310089111328e+00 4.767966568470001221e-01 1.263865232467651367e+00 5.221985578536987305e-01 -4.515928030014038086e-01
4.340000000000000000e+03 4.183028030395507812e+01 -2.149098396301269531e+01 -2.424980700016021729e-01 2.341878652572631836e+00 6.298141479492187500e-01 2.133989185094833374e-01
4.341000000000000000e+03 2.794827270507812500e+01 -3.463128089904785156e+00 -1.285740852355957031e+00 3.187119215726852417e-02 -3.761608898639678955e-01 -7.677246332168579102e-01
4.342000000000000000e+03 1.604771804809570312e+01 2.168849372863769531e+01 -1.955116540193557739e-02 1.142363995313644409e-03 -5.522640421986579895e-03 1.478695630794391036e-04
4.343000000000000000e+03 2.913507080078125000e+01 -2.453535318374633789e+00 -2.122745752334594727e+00 1.377342790365219116e-01 -5.955034494400024414e-01 -4.754766225814819336e-01
4.344000000000000000e+03 4.156761932373046875e+01 -9.911725044250488281e+00 3.614996373653411865e-02 2.232255935668945312e+00 6.805217862129211426e-01 -3.045835793018341064e-01
4.345000000000000000e+03 1.557993507385253906e+01 1.014642810821533203e+01 5.486575173563323915e-05 2.099869161611422896e-04 7.945580000523477793e-05 -7.666540477657690644e-05
4.346000000000000000e+03 2.981386184692382812e+01 -2.698202371597290039e+00 -2.051023244857788086e+00 2.714807689189910889e-01 -5.338627099990844727e-01 -4.810354113578796387e-01
4.347000000000000000e+03 3.016990470886230469e+01 -2.671446323394775391e+00 -2.153557300567626953e+00 2.945538759231567383e-01 -5.577010512351989746e-01 -4.421091973781585693e-01
4.348000000000000000e+03 2.963355064392089844e+01 -2.599552392959594727e+00 -2.104666948318481445e+00 2.281626909971237183e-01 -5.629512667655944824e-01 -4.845007359981536865e-01
4.349000000000000000e+03 2.941491317749023438e+01 -2.857438802719116211e+00 -1.889961004257202148e+00 2.167223691940307617e-01 -5.019716024398803711e-01 -5.350908637046813965e-01
4.350000000000000000e+03 3.716836547851562500e+01 1.175651454925537109e+01 -1.470219157636165619e-02 1.502098981291055679e-03 -3.960027825087308884e-03 7.206901209428906441e-04
4.351000000000000000e+03 3.434875488281250000e+01 1.191113376617431641e+01 -8.908410556614398956e-03 -1.833216170780360699e-03 -3.222488099709153175e-03 4.830390214920043945e-03
4.352000000000000000e+03 7.638652038574218750e+01 -1.975869369506835938e+01 1.127896175603382289e-04 6.342557026073336601e-05 5.286455416353419423e-05 -2.745304664131253958e-04
4.353000000000000000e+03 6.880247497558593750e+01 -3.205784606933593750e+01 -1.019239332526922226e-02 6.864155293442308903e-04 -2.851793309673666954e-03 1.186286564916372299e-02
4.354000000000000000e+03 3.432372570037841797e+00 3.667104721069335938e+01 7.844298961572349072e-04 -1.446767058223485947e-02 -4.104972351342439651e-03 3.392077749595046043e-03
4.355000000000000000e+03 4.199768066406250000e+01 -9.911367416381835938e+00 3.368044272065162659e-02 2.014831304550170898e+00 6.145535707473754883e-01 8.178060874342918396e-03
4.356000000000000000e+03 6.754830169677734375e+01 -3.124860954284667969e+01 -1.360703073441982269e-02 2.583452500402927399e-03 -3.307073609903454781e-03 1.115619670599699020e-02
4.357000000000000000e+03 7.577594757080078125e+01 -1.984157562255859375e+01 2.700653203646652400e-05 -2.456515212543308735e-04 -6.559349276358261704e-05 -1.815834693843498826e-04
4.358000000000000000e+03 7.696769714355468750e+01 -3.323952484130859375e+01 -2.227910736110061407e-04 -5.740420892834663391e-03 -1.788963563740253448e-03 4.165755584836006165e-03
4.359000000000000000e+03 3.418785476684570312e+01 1.127465343475341797e+01 -4.624799825251102448e-03 -1.927513512782752514e-04 -1.445265370421111584e-03 1.813182490877807140e-03
4.360000000000000000e+03 3.420361709594726562e+01 1.158813190460205078e+01 -2.516848500818014145e-03 -2.071725670248270035e-03 -1.376572297886013985e-03 3.744404297322034836e-03
4.361000000000000000e+03 3.707629394531250000e+01 -3.651231765747070312e+00 -2.134886264801025391e+00 7.302008867263793945e-01 -4.214056432247161865e-01 3.260812759399414062e-01
4.362000000000000000e+03 1.556729602813720703e+01 9.468435287475585938e+00 7.286934851435944438e-05 1.804094208637252450e-04 7.598363299621269107e-05 -9.667951235314831138e-05
4.363000000000000000e+03 2.233476829528808594e+01 2.418456840515136719e+01 -6.257002800703048706e-02 -1.562972366809844971e-02 -2.345992624759674072e-02 2.708876132965087891e-02
4.364000000000000000e+03 1.330322074890136719e+01 1.676538467407226562e+01 -2.694494323804974556e-04 7.287185871973633766e-04 1.377807493554428220e-04 6.206331308931112289e-04
4.365000000000000000e+03 1.294512176513671875e+01 1.760275077819824219e+01 9.792724449653178453e-05 3.687925345730036497e-04 1.400159380864351988e-04 1.195272925542667508e-04
4.366000000000000000e+03 3.423237991333007812e+01 -5.791432857513427734e+00 -4.838404059410095215e-01 5.093857049942016602e-01 7.663582917302846909e-03 -1.707873642444610596e-01
4.367000000000000000e+03 4.681364440917968750e+01 -1.081676483154296875e+01 1.174119234085083008e+00 -9.381404519081115723e-02 3.240915536880493164e-01 1.836997151374816895e+00
4.368000000000000000e+03 4.292282485961914062e+01 -8.531014442443847656e+00 -8.031747937202453613e-01 9.818734526634216309e-01 5.360959842801094055e-02 5.609340071678161621e-01
4.369000000000000000e+03 1.542735290527343750e+01 -7.922429084777832031e+00 -3.401592969894409180e-01 -4.396354556083679199e-01 -2.339384257793426514e-01 -3.127502799034118652e-01
4.370000000000000000e+03 3.502280426025390625e+01 9.514564514160156250e+00 -4.189001047052443027e-04 -1.552520552650094032e-03 -5.914262146688997746e-04 -5.779267521575093269e-04
4.371000000000000000e+03 5.217763519287109375e+01 2.498714256286621094e+01 3.111260533332824707e-01 1.238552927970886230e-01 1.304944008588790894e-01 -3.158586323261260986e-01
4.372000000000000000e+03 6.838797760009765625e+01 5.467123031616210938e+00 5.228132605552673340e-01 1.342757463455200195e+00 5.596712231636047363e-01 -4.116051793098449707e-01
4.373000000000000000e+03 7.520290374755859375e+01 -2.086739540100097656e+01 1.717975464998744428e-05 -3.607417165767401457e-04 -1.030685889418236911e-04 -1.463955413782969117e-04
4.374000000000000000e+03 7.593090820312500000e+01 -2.072892379760742188e+01 6.761427357560023665e-05 8.526589226676151156e-05 4.586404975270852447e-05 -2.353770978515967727e-04
4.375000000000000000e+03 2.813456344604492188e+01 -3.887935638427734375e+00 -1.073890089988708496e+00 9.897290170192718506e-02 -2.924751639366149902e-01 -8.090434670448303223e-01
4.376000000000000000e+03 3.746467590332031250e+01 -4.307804584503173828e+00 -2.039611816406250000e+00 7.495592236518859863e-01 -3.870157599449157715e-01 2.220232933759689331e-01
4.377000000000000000e+03 1.409419918060302734e+01 2.250816345214843750e+01 -1.613659039139747620e-02 2.222640672698616982e-03 -4.174184985458850861e-03 3.693912643939256668e-03
4.378000000000000000e+03 1.522562313079833984e+01 9.726649284362792969e+00 1.263394951820373535e-04 1.808002416510134935e-04 9.214191959472373128e-05 1.896857429528608918e-05
4.379000000000000000e+03 7.268359375000000000e+01 3.062076950073242188e+01 -2.019152045249938965e-01 -5.753385648131370544e-02 -7.783471792936325073e-02 5.601151585578918457e-01
4.380000000000000000e+03 1.749731636047363281e+01 7.224444389343261719e+00 4.150419044890441000e-05 5.926307494519278407e-05 3.023017961822915822e-05 -2.217828841821756214e-05
4.381000000000000000e+03 4.178107833862304688e+01 -8.537138938903808594e+00 -7.500535249710083008e-01 1.349599838256835938e+00 1.798638850450515747e-01 -4.763595387339591980e-02
4.382000000000000000e+03 1.915316390991210938e+01 5.360575199127197266e+00 1.940803713296190836e-07 -4.085963882971554995e-05 -1.219966725329868495e-05 -8.509719918947666883e-06
4.383000000000000000e+03 1.901265144348144531e+01 5.019310474395751953e+00 3.292594919912517071e-05 -9.998168025049380958e-06 6.878334261273266748e-06 -3.222477062081452459e-06
4.384000000000000000e+03 2.977839469909667969e+01 -3.066439628601074219e+00 -1.825747132301330566e+00 3.016458153724670410e-01 -4.572303891181945801e-01 -5.251474380493164062e-01
4.385000000000000000e+03 1.293355369567871094e+01 1.445166969299316406e+01 1.410745462635532022e-04 5.398076609708368778e-04 2.042646665358915925e-04 3.499379963614046574e-04
4.386000000000000000e+03 1.489289569854736328e+01 9.584720611572265625e+00 -1.242562721017748117e-04 7.707353506702929735e-05 -1.415482074662577361e-05 2.441571632516570389e-05
4.387000000000000000e+03 7.760559844970703125e+01 -2.061827659606933594e+01 -2.597050915937870741e-04 2.283834473928436637e-04 -9.396489076607394964e-06 -3.355815715622156858e-04
4.388000000000000000e+03 4.204310989379882812e+01 -1.863915824890136719e+01 -5.129947662353515625e-01 3.706533432006835938e+00 9.580615758895874023e-01 1.875806786119937897e-02
4.389000000000000000e+03 1.254503345489501953e+01 2.018553543090820312e+01 -4.590743687003850937e-03 6.586795789189636707e-04 -1.179619226604700089e-03 -7.875295123085379601e-04
4.390000000000000000e+03 7.649965667724609375e+01 -2.130122566223144531e+01 -2.902321575675159693e-04 -1.101351081160828471e-04 -1.201101840706542134e-04 -2.739115152508020401e-04
4.391000000000000000e+03 2.954223823547363281e+01 -3.143684148788452148e+00 -1.711771368980407715e+00 2.539592087268829346e-01 -4.373436272144317627e-01 -5.647175908088684082e-01
4.392000000000000000e+03 1.991518974304199219e+01 3.014300727844238281e+01 -9.687422425486147404e-04 -1.848275028169155121e-02 -5.835447460412979126e-03 2.863909862935543060e-02
4.393000000000000000e+03 3.453571319580078125e+01 1.137704467773437500e+01 -5.909323226660490036e-03 -2.672224072739481926e-03 -2.574464073404669762e-03 4.479045048356056213e-03
4.394000000000000000e+03 3.475514984130859375e+01 1.100553321838378906e+01 -4.379895050078630447e-03 2.540631103329360485e-04 -1.237749587744474411e-03 1.575492904521524906e-03
4.395000000000000000e+03 7.060489654541015625e+01 1.646620035171508789e+00 2.531778812408447266e-01 3.298920094966888428e-01 1.749209612607955933e-01 -7.512243986129760742e-01
4.396000000000000000e+03 5.917375183105468750e+01 -5.555656909942626953e+00 -6.865578889846801758e-02 1.322221159934997559e+00 3.760696351528167725e-01 6.545163393020629883e-01
4.397000000000000000e+03 2.930186462402343750e+01 -3.259605646133422852e+00 -1.669978737831115723e+00 2.342984378337860107e-01 -4.307040870189666748e-01 -5.807952880859375000e-01
4.398000000000000000e+03 2.919121170043945312e+01 -3.651358127593994141e+00 -1.353086113929748535e+00 2.761170566082000732e-01 -3.230907022953033447e-01 -6.826110482215881348e-01
4.399000000000000000e+03 2.875069618225097656e+01 -3.569363832473754883e+00 -1.359980821609497070e+00 1.896197348833084106e-01 -3.511083424091339111e-01 -7.133956551551818848e-01
4.400000000000000000e+03 1.530483818054199219e+01 9.378195762634277344e+00 -1.322744210483506322e-04 6.660355575149878860e-05 -1.970125958905555308e-05 2.834974657162092626e-05
4.401000000000000000e+03 3.601287078857421875e+01 1.530264568328857422e+01 -3.695026040077209473e-02 6.922280415892601013e-03 -9.008393622934818268e-03 1.781911402940750122e-02
4.402000000000000000e+03 1.252701377868652344e+01 2.086240005493164062e+01 -6.870266515761613846e-03 1.035401364788413048e-03 -1.750459545291960239e-03 -3.868528874590992928e-04
4.403000000000000000e+03 3.949075222015380859e+00 2.895856094360351562e+01 -4.711230285465717316e-04 -5.755286663770675659e-03 -1.867922837845981121e-03 4.715286195278167725e-03
4.404000000000000000e+03 7.192201232910156250e+01 2.710201644897460938e+01 -1.022761687636375427e-01 1.233813390135765076e-01 6.331550888717174530e-03 6.883440613746643066e-01
4.405000000000000000e+03 6.349534988403320312e+01 2.948276519775390625e+01 -4.418786764144897461e-01 1.602528095245361328e+00 3.481948375701904297e-01 -2.154909446835517883e-02
4.406000000000000000e+03 6.903697013854980469e+00 -1.604976081848144531e+01 -1.598229408264160156e-01 -2.441249489784240723e-01 -1.211843639612197876e-01 -4.064124524593353271e-01
4.407000000000000000e+03 7.668395042419433594e+00 -1.491395378112792969e+01 -2.412685304880142212e-01 -2.092349529266357422e-01 -1.351510435342788696e-01 -3.833840787410736084e-01
4.408000000000000000e+03 4.639094924926757812e+01 -1.187540245056152344e+01 2.040115833282470703e+00 -9.418958425521850586e-02 5.837779045104980469e-01 1.631347775459289551e+00
4.409000000000000000e+03 7.372037887573242188e+00 5.647314548492431641e+00 1.225571468239650130e-04 2.558388814577483572e-06 3.753466080524958670e-05 -6.752710760338231921e-05
4.410000000000000000e+03 4.648336029052734375e+01 -1.003671360015869141e+01 6.680095791816711426e-01 -1.763319037854671478e-02 1.951129287481307983e-01 1.900190353393554688e+00
4.411000000000000000e+03 6.491500854492187500e+00 -8.234259605407714844e+00 -1.499214768409729004e-01 -5.105292052030563354e-02 -6.029232218861579895e-02 -1.498769689351320267e-02
4.412000000000000000e+03 7.369696807861328125e+01 -2.923824119567871094e+01 -3.982820548117160797e-03 -7.970345905050635338e-04 -1.433956436812877655e-03 3.956455737352371216e-03
4.413000000000000000e+03 3.576819992065429688e+01 1.576848030090332031e+01 -3.936608135700225830e-02 1.079365424811840057e-02 -8.571728132665157318e-03 1.976616680622100830e-02
4.414000000000000000e+03 3.524486160278320312e+01 1.596282100677490234e+01 -4.207881912589073181e-02 7.598592899739742279e-03 -1.034406851977109909e-02 2.532796747982501984e-02
4.415000000000000000e+03 3.269092559814453125e+01 1.635313796997070312e+01 -2.854603715240955353e-02 -2.030057832598686218e-02 -1.465398445725440979e-02 3.201210498809814453e-02
4.416000000000000000e+03 1.498692893981933594e+01 8.873324394226074219e+00 -9.577920718584209681e-05 1.161325417342595756e-04 6.106000910222064704e-06 5.022673940402455628e-05
4.417000000000000000e+03 2.196566581726074219e+01 2.436240577697753906e+01 -5.895314365625381470e-02 -1.544616930186748505e-02 -2.231979370117187500e-02 2.736661396920681000e-02
4.418000000000000000e+03 1.256605911254882812e+01 1.026607131958007812e+01 1.542298268759623170e-04 -4.143899786868132651e-05 3.383724833838641644e-05 2.713269495870918036e-04
4.419000000000000000e+03 1.311374950408935547e+01 9.847260475158691406e+00 1.689324126346036792e-04 2.573124402260873467e-05 5.839909863425418735e-05 1.734168326947838068e-04
4.420000000000000000e+03 1.792986297607421875e+01 6.595178604125976562e+00 5.792084630229510367e-05 6.775757810828508809e-06 1.940898073371499777e-05 -2.684279820641677361e-07
4.421000000000000000e+03 1.776883125305175781e+01 6.968125820159912109e+00 -8.492795313941314816e-05 2.645844006110564806e-06 -2.468463389959651977e-05 2.132466943294275552e-05
4.422000000000000000e+03 3.286860275268554688e+01 1.700955581665039062e+01 -3.977103158831596375e-02 -1.682565361261367798e-02 -1.697900518774986267e-02 3.705023601651191711e-02
4.423000000000000000e+03 1.354286003112792969e+01 2.315879249572753906e+01 -1.478402689099311829e-02 1.796066644601523876e-03 -3.896387992426753044e-03 5.275947973132133484e-03
4.424000000000000000e+03 7.579759216308593750e+01 -2.363911056518554688e+01 -6.311789038591086864e-04 -2.990539360325783491e-04 -2.790698490571230650e-04 1.065917604137212038e-04
4.425000000000000000e+03 7.296553039550781250e+01 1.679697799682617188e+01 4.055174887180328369e-01 -4.381753504276275635e-01 -9.797357954084873199e-03 2.664598822593688965e-01
4.426000000000000000e+03 1.619684791564941406e+01 6.675287723541259766e+00 -5.836950094817439094e-06 6.793649663450196385e-05 1.862986391643062234e-05 -3.235766780562698841e-05
4.427000000000000000e+03 1.431550693511962891e+01 2.405774879455566406e+01 -1.922684349119663239e-02 1.403289963491261005e-03 -5.347066093236207962e-03 8.529802784323692322e-03
4.428000000000000000e+03 1.041304969787597656e+01 2.645414161682128906e+01 -7.217189297080039978e-03 -2.801533089950680733e-03 -3.005616832524538040e-03 8.934311568737030029e-03
4.429000000000000000e+03 6.815817260742187500e+01 -4.448781967163085938e+00 -1.840572804212570190e-01 4.021962583065032959e-01 6.544169783592224121e-02 -7.659427523612976074e-01
4.430000000000000000e+03 1.182349681854248047e+01 1.051791000366210938e+01 1.938608183991163969e-04 -9.683740790933370590e-05 2.910702278313692659e-05 3.394432715140283108e-04
4.431000000000000000e+03 1.380737495422363281e+01 2.475179100036621094e+01 -1.733941957354545593e-02 5.890458705835044384e-04 -5.025112070143222809e-03 1.003063190728425980e-02
4.432000000000000000e+03 2.886160659790039062e+01 -4.020292758941650391e+00 -1.116662263870239258e+00 2.448879778385162354e-01 -2.615322768688201904e-01 -7.545242905616760254e-01
4.433000000000000000e+03 8.240551948547363281e+00 -1.663462066650390625e+01 -1.836782395839691162e-01 -2.703807950019836426e-01 -1.362177133560180664e-01 -4.800387918949127197e-01
4.434000000000000000e+03 3.193915557861328125e+01 1.984884834289550781e+01 -7.886050641536712646e-02 -2.100608311593532562e-02 -2.995997853577136993e-02 4.618455097079277039e-02
4.435000000000000000e+03 3.264891052246093750e+01 1.946705436706542969e+01 -7.075987011194229126e-02 -1.256214082241058350e-02 -2.499660477042198181e-02 4.315808787941932678e-02
4.436000000000000000e+03 1.857168006896972656e+01 2.491437339782714844e+01 -3.613578155636787415e-02 -4.282189067453145981e-03 -1.212539058178663254e-02 2.015683613717556000e-02
4.437000000000000000e+03 7.281478118896484375e+01 3.873819112777709961e+00 2.527124881744384766e-01 -3.718412518501281738e-01 -3.573863580822944641e-02 -6.994737982749938965e-01
4.438000000000000000e+03 8.001977920532226562e+00 -6.768180847167968750e+00 -1.358106583356857300e-01 -6.632888317108154297e-02 -6.064186245203018188e-02 8.562282659113407135e-03
4.439000000000000000e+03 1.436054515838623047e+01 6.344750404357910156e+00 -6.475600821431726217e-05 2.657748518686275929e-05 -1.145355690823635086e-05 7.484767411369830370e-05
4.440000000000000000e+03 1.695162963867187500e+01 5.917572021484375000e+00 2.263099486299324781e-05 -7.924129931780043989e-06 4.412059297465020791e-06 2.397850403212942183e-05
4.441000000000000000e+03 6.806788635253906250e+01 -3.405972003936767578e+00 -6.875886768102645874e-02 4.889800548553466797e-01 1.260663568973541260e-01 -7.486874461174011230e-01
4.442000000000000000e+03 1.210080146789550781e+01 1.880303573608398438e+01 -1.900584669783711433e-03 -4.099446523468941450e-04 -6.931587704457342625e-04 -4.152146357228048146e-05
4.443000000000000000e+03 8.878067970275878906e+00 6.116075515747070312e+00 6.160619523143395782e-05 -9.844285523286089301e-05 -1.105099727283231914e-05 6.765339639969170094e-05
4.444000000000000000e+03 1.349090576171875000e+01 9.142804145812988281e+00 4.257092950865626335e-05 1.689591736067086458e-04 6.345903238980099559e-05 6.130733527243137360e-05
4.445000000000000000e+03 7.019254302978515625e+01 9.172378540039062500e+00 5.265118479728698730e-01 8.679761886596679688e-01 4.183464050292968750e-01 -3.093854486942291260e-01
4.446000000000000000e+03 1.202896595001220703e+01 1.949275016784667969e+01 -2.899752464145421982e-03 1.143785339081659913e-04 -8.356121834367513657e-04 -7.243804284371435642e-04
4.447000000000000000e+03 1.165012836456298828e+01 1.877528381347656250e+01 -1.456992235034704208e-03 -4.211850464344024658e-04 -5.634531844407320023e-04 -3.657529305201023817e-04
4.448000000000000000e+03 1.864052963256835938e+01 2.569931983947753906e+01 -3.031408227980136871e-02 -6.884328089654445648e-03 -1.115952339023351669e-02 2.425393462181091309e-02
4.449000000000000000e+03 1.395832157135009766e+01 -4.905805110931396484e+00 -1.403522491455078125e-01 -1.881233900785446167e-01 -9.854269027709960938e-02 -1.629702150821685791e-01
4.450000000000000000e+03 7.289537811279296875e+01 -2.297366857528686523e+00 -1.729943417012691498e-02 -2.699023187160491943e-01 -8.616052567958831787e-02 -8.717210292816162109e-01
4.451000000000000000e+03 2.092744827270507812e+01 2.674189758300781250e+01 -2.644889615476131439e-02 -1.770278811454772949e-02 -1.324550528079271317e-02 3.253670409321784973e-02
4.452000000000000000e+03 1.389867210388183594e+01 6.326194286346435547e+00 1.071729493560269475e-04 3.952719271183013916e-05 4.401004116516560316e-05 1.390739498674520291e-06
4.453000000000000000e+03 1.862761878967285156e+01 2.661810111999511719e+01 -2.480159141123294830e-02 -8.902071043848991394e-03 -1.011109910905361176e-02 2.592817135155200958e-02
4.454000000000000000e+03 1.790812873840332031e+01 2.633315658569335938e+01 -2.413550950586795807e-02 -7.559292484074831009e-03 -9.508441202342510223e-03 2.419806458055973053e-02
4.455000000000000000e+03 6.861266326904296875e+01 -3.971913099288940430e+00 -9.376803040504455566e-02 3.592787981033325195e-01 7.965323328971862793e-02 -8.068143129348754883e-01
4.456000000000000000e+03 6.762177276611328125e+01 -3.953861236572265625e+00 -8.594778180122375488e-02 4.610582888126373291e-01 1.125331521034240723e-01 -7.134827375411987305e-01
4.457000000000000000e+03 1.121358013153076172e+01 1.955430984497070312e+01 -2.751310588791966438e-03 -3.738684463314712048e-04 -9.375537047162652016e-04 -2.389672008575871587e-04
4.458000000000000000e+03 1.227928829193115234e+01 1.935144615173339844e+01 -2.568828174844384193e-03 -8.203624165616929531e-04 -1.016757218167185783e-03 -1.981379755306988955e-04
4.459000000000000000e+03 3.298926544189453125e+01 2.028626060485839844e+01 -7.460127025842666626e-02 -2.185899298638105392e-03 -2.303615026175975800e-02 3.751502558588981628e-02
4.460000000000000000e+03 8.368375778198242188e+00 1.165205478668212891e+01 2.039958635577932000e-04 -3.423400921747088432e-04 -4.150326640228740871e-05 1.002171120489947498e-04
4.461000000000000000e+03 1.189146327972412109e+01 2.306564903259277344e+01 -1.045741699635982513e-02 9.213456651195883751e-04 -2.860821317881345749e-03 4.102644510567188263e-03
4.462000000000000000e+03 1.011900234222412109e+01 6.563629150390625000e+00 1.600804826011881232e-04 -3.207826694051618688e-06 4.706179970526136458e-05 7.672710489714518189e-05
4.463000000000000000e+03 9.591846466064453125e+00 6.587013721466064453e+00 8.586848707636818290e-05 -9.854447853285819292e-05 -3.802796982199652120e-06 6.709206354571506381e-05
4.464000000000000000e+03 3.188780593872070312e+01 2.171623611450195312e+01 -7.849808782339096069e-02 -9.944594465196132660e-03 -2.653280645608901978e-02 2.808192744851112366e-02
4.465000000000000000e+03 3.191955566406250000e+01 2.122109603881835938e+01 -7.880948483943939209e-02 -1.575220935046672821e-02 -2.836850844323635101e-02 3.340643271803855896e-02
4.466000000000000000e+03 1.169202899932861328e+01 1.952711677551269531e+01 -3.401993773877620697e-03 -3.846248146146535873e-04 -1.135985599830746651e-03 -1.318551367148756981e-04
4.467000000000000000e+03 6.942059326171875000e+01 -2.142974376678466797e+00 7.923477329313755035e-03 3.748154640197753906e-01 1.148216873407363892e-01 -8.171714544296264648e-01
4.468000000000000000e+03 6.876154327392578125e+01 -1.483213305473327637e+00 1.129236891865730286e-01 5.271897315979003906e-01 1.920340210199356079e-01 -7.572141289710998535e-01
4.469000000000000000e+03 1.038444423675537109e+01 1.521529102325439453e+01 3.660220827441662550e-04 -5.621227901428937912e-04 -5.883020276087336242e-05 2.306235401192680001e-04
4.470000000000000000e+03 6.934772491455078125e+00 1.877844047546386719e+01 -1.492829062044620514e-03 -9.638358023948967457e-04 -7.369995000772178173e-04 2.507111639715731144e-04
4.471000000000000000e+03 3.235649871826171875e+01 2.178337097167968750e+01 -7.250274717807769775e-02 -5.465174559503793716e-03 -2.339037694036960602e-02 2.922726795077323914e-02
4.472000000000000000e+03 1.014440441131591797e+01 1.615911102294921875e+01 2.246883959742262959e-04 -7.987118442542850971e-04 -1.722070446703583002e-04 4.240343696437776089e-05
4.473000000000000000e+03 1.033549594879150391e+01 2.268896865844726562e+01 -7.995510473847389221e-03 2.207544093835167587e-05 -2.392030553892254829e-03 2.961517544463276863e-03
4.474000000000000000e+03 9.261378288269042969e+00 2.168076133728027344e+01 -4.695989657193422318e-03 -5.389698198996484280e-04 -1.570487860590219498e-03 1.410248689353466034e-03
4.475000000000000000e+03 6.931149482727050781e+00 1.976876449584960938e+01 -1.304515870288014412e-03 -9.296212811022996902e-04 -6.702411337755620480e-04 3.885436453856527805e-04
4.476000000000000000e+03 8.724700927734375000e+00 2.329062271118164062e+01 -5.161076318472623825e-03 -1.029290026053786278e-03 -1.857109949924051762e-03 3.589833155274391174e-03
4.477000000000000000e+03 8.738191604614257812e+00 2.030709838867187500e+01 -3.040522336959838867e-03 -1.196356723085045815e-03 -1.271063694730401039e-03 9.431919897906482220e-04
4.478000000000000000e+03 9.602585792541503906e+00 1.620427894592285156e+01 3.933894913643598557e-05 -1.252509071491658688e-03 -3.639510250650346279e-04 4.015730228275060654e-04
4.479000000000000000e+03 4.590401077270507812e+01 -1.880267143249511719e+01 -4.666016250848770142e-02 2.665260434150695801e-01 6.595976650714874268e-02 2.439795760437846184e-03
4.480000000000000000e+03 4.481984329223632812e+01 -1.731778335571289062e+01 2.176654189825057983e-01 5.398446917533874512e-01 2.272530347108840942e-01 -4.199447333812713623e-01
4.481000000000000000e+03 4.537741470336914062e+01 -1.773029899597167969e+01 1.146166548132896423e-01 3.860079050064086914e-01 1.501873731613159180e-01 -1.874829977750778198e-01
4.482000000000000000e+03 4.592918014526367188e+01 -1.763825798034667969e+01 5.312973167747259140e-03 -2.612432464957237244e-02 -6.243405397981405258e-03 -1.212578848935663700e-03
4.483000000000000000e+03 4.520661544799804688e+01 -1.738917160034179688e+01 6.870473176240921021e-02 3.693718016147613525e-01 1.314229518175125122e-01 -1.841697841882705688e-01
4.484000000000000000e+03 4.487486648559570312e+01 -1.711631965637207031e+01 1.774459183216094971e-01 3.669573664665222168e-01 1.633209884166717529e-01 -2.961631417274475098e-01
4.485000000000000000e+03 4.470167541503906250e+01 -1.750450897216796875e+01 2.018544226884841919e-01 7.383753657341003418e-01 2.820689380168914795e-01 -4.775026440620422363e-01
4.486000000000000000e+03 4.551005172729492188e+01 -1.813968658447265625e+01 3.967387229204177856e-02 3.188250064849853516e-01 1.075496599078178406e-01 -1.507518142461776733e-01
4.487000000000000000e+03 4.455868530273437500e+01 -1.795643615722656250e+01 1.459499001502990723e-01 1.113625288009643555e+00 3.778725266456604004e-01 -6.059077382087707520e-01
4.488000000000000000e+03 4.458473968505859375e+01 -1.768462944030761719e+01 1.741388142108917236e-01 9.627802371978759766e-01 3.410757184028625488e-01 -5.791442990303039551e-01
4.489000000000000000e+03 4.551521301269531250e+01 -1.728063201904296875e+01 -5.226729437708854675e-02 1.001515090465545654e-01 1.436526514589786530e-02 -4.839143157005310059e-02
4.490000000000000000e+03 4.496392822265625000e+01 -1.777431869506835938e+01 1.189996972680091858e-01 7.241507768630981445e-01 2.529451251029968262e-01 -3.827930390834808350e-01
4.491000000000000000e+03 4.506500244140625000e+01 -1.813941574096679688e+01 8.434534817934036255e-02 9.106938838958740234e-01 2.985117733478546143e-01 -3.487107455730438232e-01
4.492000000000000000e+03 4.542613220214843750e+01 -1.853865814208984375e+01 -1.235757302492856979e-02 6.384092569351196289e-01 1.878155022859573364e-01 -2.454649806022644043e-01
4.493000000000000000e+03 4.607764053344726562e+01 -1.818138694763183594e+01 1.690124534070491791e-02 4.433162137866020203e-02 1.836985908448696136e-02 -3.321318328380584717e-02
4.494000000000000000e+03 4.496355438232421875e+01 -1.696413612365722656e+01 2.188837230205535889e-01 1.823545694351196289e-01 1.203714907169342041e-01 -2.277918010950088501e-01
4.495000000000000000e+03 4.538344573974609375e+01 -1.698552703857421875e+01 3.343097865581512451e-02 9.496632218360900879e-02 3.851919248700141907e-02 1.336044818162918091e-02
4.496000000000000000e+03 4.507858276367187500e+01 -1.683960914611816406e+01 5.373416468501091003e-02 -5.536907911300659180e-02 -4.904741654172539711e-04 -1.131762489676475525e-01
4.497000000000000000e+03 4.525779342651367188e+01 -1.707254409790039062e+01 1.663305014371871948e-01 2.855389714241027832e-01 1.355608403682708740e-01 -5.143183097243309021e-02
4.498000000000000000e+03 4.510198974609375000e+01 -1.714627265930175781e+01 1.513704359531402588e-01 2.088880687952041626e-01 1.080775558948516846e-01 -1.569182872772216797e-01
4.499000000000000000e+03 3.365373611450195312e+01 1.576640963554382324e+00 9.312474285252392292e-04 8.826179691823199391e-05 3.058527654502540827e-04 3.417330153752118349e-04
4.500000000000000000e+03 3.496414566040039062e+01 5.133104324340820312e-01 -2.740016861935146153e-05 2.922353087342344224e-05 5.470084261105512269e-07 6.758777453796938062e-05
4.501000000000000000e+03 3.455622100830078125e+01 1.531800985336303711e+00 -6.185600650496780872e-04 -5.265599465928971767e-04 -3.435359976720064878e-04 1.831587869673967361e-04
4.502000000000000000e+03 3.492177963256835938e+01 7.063324451446533203e-01 -8.920085383579134941e-05 -4.221214330755174160e-04 -1.533966860733926296e-04 -4.540778172668069601e-05
4.503000000000000000e+03 3.478488922119140625e+01 1.781563878059387207e+00 -4.500754002947360277e-04 -4.718542913906276226e-04 -2.765789104159921408e-04 -1.829234242904931307e-04
4.504000000000000000e+03 3.458167266845703125e+01 1.753330111503601074e+00 6.169014959596097469e-04 2.860140521079301834e-04 2.708746760617941618e-04 -5.201110034249722958e-04
4.505000000000000000e+03 3.462108230590820312e+01 1.320459365844726562e+00 -1.669525081524625421e-04 -5.795513861812651157e-04 -2.239511668449267745e-04 2.350729773752391338e-04
4.506000000000000000e+03 3.486197280883789062e+01 1.055792212486267090e+00 -2.180768351536244154e-04 1.506809057900682092e-04 -2.021878026425838470e-05 -8.357439073733985424e-04
4.507000000000000000e+03 3.320969009399414062e+01 1.529959678649902344e+00 -7.219957769848406315e-04 -2.947839675471186638e-04 -3.050339291803538799e-04 3.005613689310848713e-04
4.508000000000000000e+03 3.334902191162109375e+01 1.622598052024841309e+00 1.547448919154703617e-04 3.322039265185594559e-05 5.638958828058093786e-05 -3.167910908814519644e-04
4.509000000000000000e+03 3.350032043457031250e+01 1.674203872680664062e+00 3.907305072061717510e-04 -1.186099019832909107e-03 -2.386105479672551155e-04 6.361715350067242980e-05
4.510000000000000000e+03 3.483629989624023438e+01 1.236152768135070801e+00 7.094355532899498940e-04 1.818684249883517623e-04 2.673911803867667913e-04 6.323805428110063076e-04
4.511000000000000000e+03 3.479904937744140625e+01 1.588803052902221680e+00 7.661717827431857586e-04 1.941561349667608738e-04 2.880983811337500811e-04 -2.381535450695082545e-04
4.512000000000000000e+03 3.483137130737304688e+01 1.411675333976745605e+00 -6.494568078778684139e-04 2.144282625522464514e-04 -1.305085606873035431e-04 -3.385204399819485843e-05
4.513000000000000000e+03 3.490541458129882812e+01 8.838708996772766113e-01 3.783977881539613008e-04 2.559842832852154970e-04 1.903146185213699937e-04 5.026502767577767372e-04
4.514000000000000000e+03 3.373072814941406250e+01 1.148025155067443848e+00 4.347553185652941465e-04 3.554340219125151634e-04 2.370568108744919300e-04 -1.706492475932464004e-04
4.515000000000000000e+03 3.400005722045898438e+01 1.656924128532409668e+00 -5.338307237252593040e-04 -5.312380963005125523e-04 -3.195206518284976482e-04 3.007237974088639021e-04
4.516000000000000000e+03 3.350587081909179688e+01 1.435347199440002441e+00 -5.917298840358853340e-04 -1.523703976999968290e-04 -2.232300757896155119e-04 4.295351682230830193e-04
4.517000000000000000e+03 3.422412490844726562e+01 1.719584941864013672e+00 3.319258976262062788e-04 4.466191749088466167e-04 2.335635217605158687e-04 -1.085025491192936897e-03
4.518000000000000000e+03 3.407532882690429688e+01 5.203839540481567383e-01 3.250451991334557533e-04 5.676775981555692852e-05 1.145438873209059238e-04 -1.248616026714444160e-04
4.519000000000000000e+03 3.442555618286132812e+01 6.639856696128845215e-01 4.413596761878579855e-04 4.021204367745667696e-04 2.530440397094935179e-04 6.312157347565516829e-05
4.520000000000000000e+03 3.364273452758789062e+01 1.700774073600769043e+00 -1.364903437206521630e-04 4.394200223032385111e-04 9.087890794035047293e-05 7.339429430430755019e-05
4.521000000000000000e+03 3.433422088623046875e+01 1.559625267982482910e+00 4.637047532014548779e-04 1.343916752375662327e-03 5.422864342108368874e-04 -5.718641332350671291e-04
4.522000000000000000e+03 3.474470520019531250e+01 5.020679235458374023e-01 -1.193175921798683703e-04 -3.930673992726951838e-04 -1.537155039841309190e-04 -6.267447315622121096e-05
4.523000000000000000e+03 3.438750457763671875e+01 1.119982838630676270e+00 6.516630528494715691e-04 4.208853351883590221e-04 3.217645280528813601e-04 -2.155460388166829944e-04
4.524000000000000000e+03 3.410485458374023438e+01 1.378117084503173828e+00 -2.572666271589696407e-04 -6.774490466341376305e-04 -2.804146788548678160e-04 2.804210234899073839e-04
4.525000000000000000e+03 3.466735839843750000e+01 9.404675364494323730e-01 -9.509889641776680946e-04 -3.781758132390677929e-04 -3.987494565080851316e-04 -1.311183732468634844e-04
4.526000000000000000e+03 3.411146926879882812e+01 8.511812090873718262e-01 -8.015293860808014870e-04 -3.818159166257828474e-04 -3.550035762600600719e-04 3.452060991548933089e-05
4.527000000000000000e+03 3.379204177856445312e+01 1.664782166481018066e+00 9.904770413413643837e-04 1.265464932657778263e-03 6.767826271243393421e-04 -3.275929193478077650e-04
4.528000000000000000e+03 3.455142974853515625e+01 4.722054898738861084e-01 -1.487656700192019343e-04 9.036537958309054375e-04 2.264664362883195281e-04 -1.991094177355989814e-04
4.529000000000000000e+03 3.465433502197265625e+01 7.233890891075134277e-01 4.290469805710017681e-04 2.840743400156497955e-04 2.139363932656124234e-04 1.345385971944779158e-04
4.530000000000000000e+03 3.435990142822265625e+01 4.721285998821258545e-01 -1.329362130491062999e-04 -6.502500618807971478e-04 -2.349558781133964658e-04 4.856972664128988981e-04
4.531000000000000000e+03 3.439619827270507812e+01 1.747237682342529297e+00 -1.064450596459209919e-03 -4.644100263249129057e-04 -4.586581781040877104e-04 1.075552310794591904e-03
4.532000000000000000e+03 3.355002593994140625e+01 -1.336139678955078125e+00 -2.739438295364379883e+00 -4.076409935951232910e-01 -9.441238045692443848e-01 1.980101913213729858e-01
4.533000000000000000e+03 3.387998962402343750e+01 -1.357542157173156738e+00 -3.439787864685058594e+00 1.072281133383512497e-02 -1.028719544410705566e+00 1.190221384167671204e-01
4.534000000000000000e+03 3.400633621215820312e+01 -1.437711238861083984e+00 -3.208285331726074219e+00 1.904217600822448730e-01 -9.053590893745422363e-01 3.653812110424041748e-01
4.535000000000000000e+03 3.359782409667968750e+01 -1.530442714691162109e+00 -2.817631244659423828e+00 -4.133640527725219727e-01 -9.692986011505126953e-01 5.251483321189880371e-01
4.536000000000000000e+03 3.337884902954101562e+01 -1.355730533599853516e+00 -3.971698999404907227e+00 -9.174889326095581055e-01 -1.466756463050842285e+00 -2.284309715032577515e-01
4.537000000000000000e+03 3.318160629272460938e+01 -1.385946512222290039e+00 -3.408359766006469727e+00 -6.522884964942932129e-01 -1.218194484710693359e+00 1.076092123985290527e+00
4.538000000000000000e+03 3.272080612182617188e+01 -1.474612951278686523e+00 -3.499819278717041016e+00 -9.260914921760559082e-01 -1.327773213386535645e+00 -5.717331767082214355e-01
4.539000000000000000e+03 3.291108322143554688e+01 -1.866258263587951660e+00 -2.615302324295043945e+00 -6.119512319564819336e-01 -9.681760668754577637e-01 1.472035073675215244e-03
4.540000000000000000e+03 3.251934814453125000e+01 -1.439323782920837402e+00 -3.604803800582885742e+00 -4.036154150962829590e-01 -1.202525734901428223e+00 -5.014449357986450195e-01
4.541000000000000000e+03 3.221598434448242188e+01 -1.447337150573730469e+00 -3.312991619110107422e+00 -1.754815876483917236e-01 -1.046541929244995117e+00 -5.147083997726440430e-01
4.542000000000000000e+03 3.226885986328125000e+01 -1.600857377052307129e+00 -3.431058168411254883e+00 -2.909529507160186768e-01 -1.116603255271911621e+00 -5.627869963645935059e-01
4.543000000000000000e+03 3.204936599731445312e+01 -1.485772848129272461e+00 -3.321882963180541992e+00 -6.625223159790039062e-02 -1.016440510749816895e+00 -4.737468957901000977e-01
4.544000000000000000e+03 3.211537170410156250e+01 -1.726776599884033203e+00 -3.180940151214599609e+00 -7.421126216650009155e-02 -9.765454530715942383e-01 -5.899211168289184570e-01
4.545000000000000000e+03 3.182605171203613281e+01 -1.507937312126159668e+00 -3.080204010009765625e+00 2.395510822534561157e-01 -8.521958589553833008e-01 -2.909156084060668945e-01
4.546000000000000000e+03 3.372217178344726562e+01 -1.337684988975524902e+00 -3.891772270202636719e+00 1.130630914121866226e-02 -1.164139747619628906e+00 3.402458429336547852e-01
4.547000000000000000e+03 3.351655578613281250e+01 -1.788771152496337891e+00 -3.025555610656738281e+00 -3.567389845848083496e-01 -1.014688372611999512e+00 2.138370275497436523e-01
4.548000000000000000e+03 3.296868133544921875e+01 -1.440663218498229980e+00 -2.405685186386108398e+00 -1.398967981338500977e+00 -1.141395926475524902e+00 1.756383329629898071e-01
4.549000000000000000e+03 3.250159835815429688e+01 -1.746093511581420898e+00 -3.187456607818603516e+00 -5.710896849632263184e-01 -1.127563953399658203e+00 -5.100360512733459473e-01
4.550000000000000000e+03 3.236406326293945312e+01 -1.501782178878784180e+00 -3.348784446716308594e+00 -3.751270771026611328e-01 -1.117173433303833008e+00 -6.024857163429260254e-01
4.551000000000000000e+03 3.312557220458984375e+01 -1.569985032081604004e+00 -3.488010644912719727e+00 -9.037001132965087891e-01 -1.317513227462768555e+00 -2.269705533981323242e-01
4.552000000000000000e+03 3.236862182617187500e+01 -1.424049139022827148e+00 -3.660849094390869141e+00 -4.155381619930267334e-01 -1.222916245460510254e+00 -4.787632226943969727e-01
4.553000000000000000e+03 3.340180206298828125e+01 -1.497046351432800293e+00 -3.765968322753906250e+00 -4.234845340251922607e-01 -1.256835937500000000e+00 6.331771016120910645e-01
4.554000000000000000e+03 3.482025527954101562e+01 2.317851334810256958e-01 -2.234174013137817383e+00 -1.067714579403400421e-02 -6.734552979469299316e-01 -3.190277516841888428e-01
4.555000000000000000e+03 3.502776718139648438e+01 -3.995346128940582275e-01 -2.344486713409423828e+00 1.190592274069786072e-01 -6.676282286643981934e-01 -3.685377240180969238e-01
4.556000000000000000e+03 3.520851898193359375e+01 -9.952967762947082520e-01 -2.538321733474731445e+00 3.491407036781311035e-01 -6.567543148994445801e-01 -3.098151460289955139e-02
4.557000000000000000e+03 3.487051010131835938e+01 -9.423822760581970215e-01 -2.649775505065917969e+00 3.302583992481231689e-01 -6.958551406860351562e-01 -1.972604990005493164e-01
4.558000000000000000e+03 3.501298904418945312e+01 2.663194239139556885e-01 -2.393852472305297852e+00 -1.106482297182083130e-01 -7.513502240180969238e-01 -3.493736088275909424e-01
4.559000000000000000e+03 3.488112640380859375e+01 -1.439139619469642639e-02 -2.233438014984130859e+00 -8.620433509349822998e-02 -6.958926916122436523e-01 -4.051321446895599365e-01
4.560000000000000000e+03 3.504684829711914062e+01 -1.377833038568496704e-01 -2.213884115219116211e+00 1.633332669734954834e-02 -6.592652201652526855e-01 -3.203715384006500244e-01
4.561000000000000000e+03 3.448436355590820312e+01 -4.451995790004730225e-01 -2.461014509201049805e+00 2.099724262952804565e-01 -6.753126382827758789e-01 -6.526772379875183105e-01
4.562000000000000000e+03 3.444835281372070312e+01 1.789149492979049683e-01 -2.061193227767944336e+00 1.514785736799240112e-02 -6.138136386871337891e-01 -2.806065976619720459e-01
4.563000000000000000e+03 3.445236587524414062e+01 -9.279549121856689453e-01 -3.047773361206054688e+00 3.671151995658874512e-01 -8.041974902153015137e-01 -2.889514863491058350e-01
4.564000000000000000e+03 3.472159957885742188e+01 -4.574835002422332764e-01 -2.425806045532226562e+00 1.358470469713211060e-01 -6.869876980781555176e-01 -4.738525450229644775e-01
4.565000000000000000e+03 3.504224777221679688e+01 -9.963615536689758301e-01 -2.591753482818603516e+00 3.308091163635253906e-01 -6.782832741737365723e-01 -7.227814197540283203e-02
4.566000000000000000e+03 3.508397293090820312e+01 -6.545739173889160156e-01 -2.463501214981079102e+00 2.035266757011413574e-01 -6.779923439025878906e-01 -2.365784645080566406e-01
4.567000000000000000e+03 3.463124084472656250e+01 1.983687281608581543e-01 -2.144137382507324219e+00 -9.506206214427947998e-02 -6.717598438262939453e-01 -2.695247530937194824e-01
4.568000000000000000e+03 3.448096847534179688e+01 -8.303236216306686401e-02 -1.858507156372070312e+00 -4.939749091863632202e-02 -5.723713636398315430e-01 -5.662139058113098145e-01
4.569000000000000000e+03 3.466226196289062500e+01 -9.147076010704040527e-01 -2.826398134231567383e+00 3.668632507324218750e-01 -7.378604412078857422e-01 -2.743751108646392822e-01
4.570000000000000000e+03 3.429238891601562500e+01 1.145092993974685669e-01 -1.824216961860656738e+00 3.813771158456802368e-02 -5.358237624168395996e-01 -3.819387853145599365e-01
4.571000000000000000e+03 3.505037689208984375e+01 5.978215858340263367e-02 -2.177923679351806641e+00 -6.560448557138442993e-02 -6.730584502220153809e-01 -3.514396846294403076e-01
4.572000000000000000e+03 3.517032241821289062e+01 -8.236765265464782715e-01 -2.482853889465332031e+00 3.111751079559326172e-01 -6.515036225318908691e-01 -1.071130111813545227e-01
4.573000000000000000e+03 3.469303894042968750e+01 -8.869820088148117065e-02 -2.094967126846313477e+00 -1.274734549224376678e-02 -6.323143243789672852e-01 -5.043990612030029297e-01
4.574000000000000000e+03 3.400199890136718750e+01 -1.481593251228332520e-01 -1.816233038902282715e+00 1.005588918924331665e-01 -5.147022604942321777e-01 -7.812855839729309082e-01
4.575000000000000000e+03 3.396210098266601562e+01 -1.021292924880981445e+00 -3.679767131805419922e+00 3.015080988407135010e-01 -1.013477683067321777e+00 -4.759435728192329407e-02
4.576000000000000000e+03 3.408905029296875000e+01 9.776008874177932739e-02 -1.513361573219299316e+00 1.063653975725173950e-01 -4.220988452434539795e-01 -5.204847455024719238e-01
4.577000000000000000e+03 3.364619064331054688e+01 1.042624264955520630e-01 -4.912750422954559326e-01 -1.408413350582122803e-01 -1.896349191665649414e-01 -3.607059717178344727e-01
4.578000000000000000e+03 3.314983367919921875e+01 -7.385936975479125977e-01 -7.754781723022460938e+00 -1.805885553359985352e+00 -2.868200063705444336e+00 -6.557408571243286133e-01
4.579000000000000000e+03 3.311226272583007812e+01 4.197925329208374023e-02 9.656202197074890137e-01 1.025296300649642944e-01 3.204449415206909180e-01 -2.461799979209899902e-01
4.580000000000000000e+03 3.293719100952148438e+01 -1.020196080207824707e-02 2.672100365161895752e-01 -6.235912442207336426e-01 -1.069143712520599365e-01 5.936831831932067871e-01
4.581000000000000000e+03 3.265475845336914062e+01 -1.659001111984252930e-01 2.170968353748321533e-01 8.544466495513916016e-01 3.214630484580993652e-01 -4.421872198581695557e-01
4.582000000000000000e+03 3.276617813110351562e+01 -5.367523804306983948e-02 -4.623993039131164551e-01 -4.351326450705528259e-02 -1.517737805843353271e-01 6.614671349525451660e-01
4.583000000000000000e+03 3.156710624694824219e+01 -1.139999270439147949e+00 -3.460951328277587891e+00 4.633882641792297363e-01 -8.992688655853271484e-01 -6.261801719665527344e-02
4.584000000000000000e+03 3.131309318542480469e+01 -1.084291040897369385e-01 -1.938408136367797852e+00 -5.278120562434196472e-02 -5.973567962646484375e-01 -2.298231124877929688e-01
4.585000000000000000e+03 3.112607002258300781e+01 -1.395439654588699341e-01 -2.548621177673339844e+00 -2.246268093585968018e-01 -8.319743871688842773e-01 1.409503668546676636e-01
4.586000000000000000e+03 3.097275543212890625e+01 -1.923964768648147583e-01 -2.573816299438476562e+00 2.336842566728591919e-01 -7.020396590232849121e-01 -2.563701272010803223e-01
4.587000000000000000e+03 3.189393234252929688e+01 -1.208927392959594727e+00 -3.473341464996337891e+00 5.136294960975646973e-01 -8.879136443138122559e-01 -2.230709046125411987e-01
4.588000000000000000e+03 3.421673583984375000e+01 -9.602398872375488281e-01 -3.198944568634033203e+00 4.441906511783599854e-01 -8.264261484146118164e-01 -4.336313903331756592e-01
4.589000000000000000e+03 3.332613754272460938e+01 -1.090211391448974609e+00 -3.497241973876953125e+00 -6.070937514305114746e-01 -1.231300711631774902e+00 7.386140823364257812e-01
4.590000000000000000e+03 3.293823623657226562e+01 -8.090336322784423828e-01 -7.467767238616943359e+00 -3.023403167724609375e+00 -3.147351026535034180e+00 2.147427052259445190e-01
4.591000000000000000e+03 3.271237182617187500e+01 -1.201809287071228027e+00 -3.933449745178222656e+00 -6.841261386871337891e-01 -1.385272741317749023e+00 -6.525580883026123047e-01
4.592000000000000000e+03 3.169081687927246094e+01 -5.910111069679260254e-01 -3.169117212295532227e+00 5.774095654487609863e-01 -7.775123119354248047e-01 2.287775725126266479e-01
4.593000000000000000e+03 3.331299209594726562e+01 -2.003788948059082031e-01 -1.682679295539855957e+00 -2.998501360416412354e-01 -5.947588086128234863e-01 -1.056308984756469727e+00
4.594000000000000000e+03 3.383176803588867188e+01 -6.687225103378295898e-01 -3.190257549285888672e+00 3.301644921302795410e-01 -8.580279350280761719e-01 -1.036273121833801270e+00
4.595000000000000000e+03 3.385493087768554688e+01 1.196751296520233154e-01 -9.278821349143981934e-01 -1.388407051563262939e-01 -3.200168609619140625e-01 -4.911138415336608887e-01
4.596000000000000000e+03 3.342586898803710938e+01 -5.869226902723312378e-02 -6.557540893554687500e-01 -2.875543236732482910e-01 -2.829925417900085449e-01 -7.386525869369506836e-01
4.597000000000000000e+03 3.086922454833984375e+01 -3.279412388801574707e-01 -3.079171657562255859e+00 -1.444896012544631958e-01 -9.670983552932739258e-01 5.190034955739974976e-02
4.598000000000000000e+03 3.162461662292480469e+01 -1.862830966711044312e-01 -1.430981040000915527e+00 2.045732736587524414e-01 -3.679223060607910156e-01 3.720226585865020752e-01
4.599000000000000000e+03 3.416860198974609375e+01 -5.028523802757263184e-01 -2.723393201828002930e+00 1.914822012186050415e-01 -7.595733404159545898e-01 -6.805485486984252930e-01
4.600000000000000000e+03 3.360907745361328125e+01 -8.425797224044799805e-01 -4.946308612823486328e+00 1.035471186041831970e-01 -1.452828526496887207e+00 -4.306606948375701904e-01
4.601000000000000000e+03 3.276919937133789062e+01 -8.749681711196899414e-01 -4.625497817993164062e+00 -8.467108607292175293e-01 -1.641662597656250000e+00 -2.021057605743408203e-01
4.602000000000000000e+03 3.195477485656738281e+01 -3.696976304054260254e-01 -3.123019456863403320e+00 3.148082792758941650e-01 -8.424633741378784180e-01 1.001902580261230469e+00
4.603000000000000000e+03 3.252721786499023438e+01 -1.251863598823547363e+00 -3.870002508163452148e+00 -6.947610974311828613e-01 -1.369429111480712891e+00 -3.947199285030364990e-01
4.604000000000000000e+03 3.239929962158203125e+01 -9.122696518898010254e-01 -4.266862392425537109e+00 1.541682630777359009e-01 -1.233808279037475586e+00 -3.546810150146484375e-01
4.605000000000000000e+03 3.327270507812500000e+01 9.752890467643737793e-02 4.500725865364074707e-01 -1.379349082708358765e-01 9.364130347967147827e-02 -8.960698544979095459e-02
4.606000000000000000e+03 3.181629562377929688e+01 -2.469906955957412720e-02 -1.150980830192565918e+00 2.014322131872177124e-01 -2.848646044731140137e-01 8.398855477571487427e-02
4.607000000000000000e+03 3.197904205322265625e+01 -2.844978496432304382e-02 -8.628225922584533691e-01 -2.352294772863388062e-01 -3.294156193733215332e-01 -6.457179039716720581e-02
4.608000000000000000e+03 3.235213851928710938e+01 -1.281953215599060059e+00 -3.715495586395263672e+00 -1.225598305463790894e-01 -1.151416540145874023e+00 -5.691511631011962891e-01
4.609000000000000000e+03 3.244567871093750000e+01 -7.290428280830383301e-01 -4.268074512481689453e+00 -3.217110037803649902e-01 -1.376935601234436035e+00 6.870029121637344360e-02
4.610000000000000000e+03 3.355311584472656250e+01 -1.092567682266235352e+00 -4.418780803680419922e+00 -2.622082233428955078e-01 -1.404296636581420898e+00 3.918118774890899658e-01
4.611000000000000000e+03 3.296784591674804688e+01 -4.096782803535461426e-01 -4.773274660110473633e-01 -1.669324874877929688e+00 -6.439957022666931152e-01 -7.504743933677673340e-01
4.612000000000000000e+03 3.131776237487792969e+01 -6.395704746246337891e-01 -2.926440715789794922e+00 4.157121181488037109e-01 -7.532185316085815430e-01 1.741886138916015625e-01
4.613000000000000000e+03 3.368114471435546875e+01 -1.669717580080032349e-01 -1.594972014427185059e+00 -1.121752634644508362e-01 -5.121442079544067383e-01 -9.895621538162231445e-01
4.614000000000000000e+03 3.358239364624023438e+01 -4.102739095687866211e-01 -2.720073223114013672e+00 -1.507339477539062500e-01 -8.612421751022338867e-01 -8.602403998374938965e-01
4.615000000000000000e+03 3.337776565551757812e+01 -6.060455441474914551e-01 -3.436912298202514648e+00 -1.260286420583724976e-01 -1.068882346153259277e+00 -1.344282865524291992e+00
4.616000000000000000e+03 3.123846626281738281e+01 -3.502001464366912842e-01 -3.044321298599243164e+00 9.897088259458541870e-02 -8.836051225662231445e-01 5.120602250099182129e-02
4.617000000000000000e+03 3.214323425292968750e+01 -7.637282460927963257e-02 -5.479831993579864502e-02 6.136068701744079590e-01 1.676425635814666748e-01 6.098214983940124512e-01
4.618000000000000000e+03 3.233746719360351562e+01 -2.876764535903930664e-01 -2.047946929931640625e+00 -2.257510870695114136e-01 -6.821094155311584473e-01 1.027098536491394043e+00
4.619000000000000000e+03 3.215012741088867188e+01 -8.154843449592590332e-01 -4.189950466156005859e+00 1.899227052927017212e-01 -1.200008273124694824e+00 2.192725390195846558e-01
4.620000000000000000e+03 3.147759437561035156e+01 -6.211524456739425659e-02 -2.001304864883422852e+00 2.499715536832809448e-01 -5.253999829292297363e-01 -2.060223072767257690e-01
4.621000000000000000e+03 3.163834381103515625e+01 -3.776077926158905029e-02 -1.669864654541015625e+00 -1.757967919111251831e-01 -5.536984205245971680e-01 7.756503671407699585e-02
4.622000000000000000e+03 3.183118247985839844e+01 -1.824834942817687988e-01 -1.315829157829284668e+00 -1.113303154706954956e-01 -4.281478226184844971e-01 3.756542801856994629e-01
4.623000000000000000e+03 3.344159317016601562e+01 1.166179478168487549e-01 1.460501662222668529e-04 -3.467015549540519714e-02 -1.035723183304071426e-02 -2.877849936485290527e-01
4.624000000000000000e+03 3.375662612915039062e+01 -1.085907697677612305e+00 -3.561872959136962891e+00 1.987650096416473389e-01 -1.008932352066040039e+00 1.495487093925476074e-01
4.625000000000000000e+03 3.311204147338867188e+01 -1.131238102912902832e+00 -3.519238710403442383e+00 -1.930277943611145020e+00 -1.634855031967163086e+00 8.861698955297470093e-02
4.626000000000000000e+03 3.291574096679687500e+01 -1.168885946273803711e+00 -4.678090095520019531e+00 -2.208401679992675781e+00 -2.065947532653808594e+00 -5.663846731185913086e-01
4.627000000000000000e+03 3.215005874633789062e+01 -1.031110167503356934e+00 -3.748211383819580078e+00 2.692978382110595703e-01 -1.043674111366271973e+00 -1.939427256584167480e-01
4.628000000000000000e+03 3.214545440673828125e+01 -1.263760447502136230e+00 -3.731750965118408203e+00 -1.839472800493240356e-01 -1.174709439277648926e+00 -3.465904891490936279e-01
4.629000000000000000e+03 3.192040824890136719e+01 -8.839121460914611816e-01 -3.794908523559570312e+00 3.707788884639739990e-01 -1.027238965034484863e+00 4.321956261992454529e-02
4.630000000000000000e+03 3.315047454833984375e+01 -3.186087310314178467e-01 -1.942285776138305664e+00 -1.172890543937683105e+00 -9.345529079437255859e-01 -8.573321700096130371e-01
4.631000000000000000e+03 3.148613548278808594e+01 -3.122936487197875977e-01 -2.870901823043823242e+00 4.007958471775054932e-01 -7.410318255424499512e-01 5.139810442924499512e-01
4.632000000000000000e+03 3.237022781372070312e+01 -1.101313352584838867e+00 -4.023711681365966797e+00 -3.871139287948608398e-01 -1.323247671127319336e+00 -4.523897171020507812e-01
4.633000000000000000e+03 3.256470108032226562e+01 -6.016697287559509277e-01 -5.085790157318115234e+00 -8.500990271568298340e-01 -1.780766725540161133e+00 3.359398245811462402e-01
4.634000000000000000e+03 3.260083007812500000e+01 -9.403727054595947266e-01 -4.682335853576660156e+00 -1.082666516304016113e+00 -1.729500770568847656e+00 -2.084148377180099487e-01
4.635000000000000000e+03 3.262161254882812500e+01 -4.030735492706298828e-01 -3.066867113113403320e+00 -1.301913976669311523e+00 -1.310634374618530273e+00 1.199890136718750000e+00
4.636000000000000000e+03 3.219610214233398438e+01 -5.578918457031250000e-01 -3.719404220581054688e+00 5.456397533416748047e-01 -9.521293044090270996e-01 1.557943969964981079e-01
4.637000000000000000e+03 3.048606872558593750e+01 2.310402989387512207e-01 6.495829893538029864e-06 1.543660073366481811e-05 6.579729415534529835e-06 -7.462664143531583250e-06
4.638000000000000000e+03 3.067443084716796875e+01 8.053497970104217529e-02 -1.263296780962264165e-06 -8.052112434597802348e-07 -6.205523845892457757e-07 -7.663872565899509937e-06
4.639000000000000000e+03 3.083256912231445312e+01 7.534402608871459961e-02 7.745301445538643748e-06 -1.439692277926951647e-05 -1.995486400119261816e-06 -2.216585471614962444e-06
4.640000000000000000e+03 3.146447753906250000e+01 1.434350162744522095e-01 -1.621325168343901169e-06 -3.232836434108321555e-07 -5.833826435264199972e-07 1.350724119220103603e-06
4.641000000000000000e+03 3.169309043884277344e+01 2.968901693820953369e-01 2.166688318538945168e-06 -3.730582989192043897e-07 5.380890115702641197e-07 -8.885537567948631477e-07
4.642000000000000000e+03 3.156153106689453125e+01 5.812429189682006836e-01 -8.240662054959102534e-07 -2.261812824144726619e-06 -9.257636861548235174e-07 1.312412337028945331e-06
4.643000000000000000e+03 3.117042160034179688e+01 1.019975543022155762e-01 1.619832573851454072e-06 -4.624549092113738880e-06 -9.014149782160529867e-07 -8.180106760846683756e-07
4.644000000000000000e+03 3.075090408325195312e+01 3.309426605701446533e-01 -1.248373337148223072e-06 -1.259681539522716776e-05 -4.153556801611557603e-06 5.693262210115790367e-06
4.645000000000000000e+03 3.095979499816894531e+01 2.792930305004119873e-01 -1.238047752849524841e-05 -7.268538411153713241e-07 -3.932199433620553464e-06 1.080309743883844931e-06
4.646000000000000000e+03 3.131006622314453125e+01 2.190151810646057129e-01 -6.945720087969675660e-06 -5.690054081242124084e-07 -2.254417495350935496e-06 1.009517745842458680e-06
4.647000000000000000e+03 3.163131332397460938e+01 1.642359793186187744e-01 1.971496885744272731e-07 2.399531467744964175e-06 7.790043241584498901e-07 -1.696625872682488989e-06
4.648000000000000000e+03 3.180051803588867188e+01 1.577325165271759033e-01 4.198821272893837886e-07 -8.825712143334385473e-07 -1.388067261132164276e-07 -2.312718692110138363e-07
4.649000000000000000e+03 3.122459983825683594e+01 4.408085644245147705e-01 2.818873326759785414e-06 3.692011887324042618e-06 1.953265609699883498e-06 -2.751330839600996114e-06
4.650000000000000000e+03 3.100239944458007812e+01 9.454712271690368652e-02 8.139340934576466680e-06 1.065057494997745380e-05 5.636974947265116498e-06 6.994801879045553505e-06
4.651000000000000000e+03 3.131899452209472656e+01 9.043892472982406616e-02 3.143785534120979719e-06 2.377842292844434269e-06 1.656488393564359285e-06 1.307782326875894796e-06
4.652000000000000000e+03 3.191551780700683594e+01 2.150069624185562134e-01 -1.408038912131814868e-07 -1.281505319639109075e-06 -4.266927646767726401e-07 9.862072829491808079e-07
4.653000000000000000e+03 3.196529197692871094e+01 3.894459009170532227e-01 1.663587028133406420e-07 1.446175929231685586e-06 4.837604024032771122e-07 -5.947665044914174359e-07
4.654000000000000000e+03 3.252656173706054688e+01 1.474916934967041016e+00 -4.119887598790228367e-04 4.890114651061594486e-04 2.310681884409859776e-05 8.775928290560841560e-05
4.655000000000000000e+03 3.277453613281250000e+01 3.826866447925567627e-01 -4.050627467222511768e-05 3.900000956491567194e-05 -4.518792593444231898e-07 -1.410661116096889600e-05
4.656000000000000000e+03 3.231996536254882812e+01 1.288083195686340332e+00 -1.933063322212547064e-04 -3.129693795926868916e-04 -1.518827048130333424e-04 1.450906711397692561e-04
4.657000000000000000e+03 3.247399902343750000e+01 7.846297025680541992e-01 -1.281904842471703887e-04 -2.186466008424758911e-04 -1.040511269820854068e-04 1.549965236335992813e-04
4.658000000000000000e+03 3.306614303588867188e+01 1.100092530250549316e+00 6.519334274344146252e-04 2.604979672469198704e-04 2.737294125836342573e-04 4.867969619226641953e-05
4.659000000000000000e+03 3.320626068115234375e+01 3.682013154029846191e-01 -2.602183849376160651e-05 -3.089668098255060613e-05 -1.707555566099472344e-05 8.129201160045340657e-05
4.660000000000000000e+03 3.299676895141601562e+01 7.458893656730651855e-01 -4.106675914954394102e-04 3.097211163094470976e-07 -1.231073692906647921e-04 9.677441266831010580e-05
4.661000000000000000e+03 3.355887222290039062e+01 3.570089340209960938e-01 2.418109797872602940e-04 -3.936788707505911589e-04 -4.556036583380773664e-05 3.904859477188438177e-05
4.662000000000000000e+03 3.384705734252929688e+01 4.833906590938568115e-01 1.081238442566245794e-04 2.500978007446974516e-04 1.074664905900135636e-04 -9.352170309284701943e-05
4.663000000000000000e+03 3.371740341186523438e+01 4.005685746669769287e-01 1.274220994673669338e-04 -9.385757948621176183e-06 3.541089972713962197e-05 1.731974480208009481e-04
4.664000000000000000e+03 3.209313583374023438e+01 9.748304486274719238e-01 1.781962782843038440e-04 8.753995643928647041e-05 7.972087041707709432e-05 -1.160506581072695553e-04
4.665000000000000000e+03 3.339539337158203125e+01 3.439426422119140625e-01 1.780489837983623147e-04 3.543192578945308924e-04 1.597104710526764393e-04 -2.234924177173525095e-04
4.666000000000000000e+03 3.342350387573242188e+01 8.909338712692260742e-01 -3.388941695448011160e-04 -4.066242545377463102e-04 -2.236555301351472735e-04 2.809754805639386177e-04
4.667000000000000000e+03 3.273265075683593750e+01 7.511296272277832031e-01 -4.688687840825878084e-05 1.534255425212904811e-04 3.196160105289891362e-05 8.221108146244660020e-05
4.668000000000000000e+03 3.299393081665039062e+01 3.836881220340728760e-01 8.394554606638848782e-05 -7.559166260762140155e-05 2.506165174054331146e-06 -4.434911897988058627e-05
4.669000000000000000e+03 3.326683044433593750e+01 6.439960002899169922e-01 -2.701326229725964367e-05 3.416580730117857456e-04 9.439344285055994987e-05 -2.920347324106842279e-04
4.670000000000000000e+03 3.272225189208984375e+01 1.501854300498962402e+00 3.040998126380145550e-04 -2.707673775148577988e-05 8.310692646773532033e-05 -3.959516179747879505e-04
4.671000000000000000e+03 3.258716964721679688e+01 1.023952603340148926e+00 3.931637620553374290e-04 1.065757096512243152e-04 1.499218342360109091e-04 -9.932980901794508100e-05
4.672000000000000000e+03 3.220250701904296875e+01 4.758601486682891846e-01 -9.896109258988872170e-05 -3.076343637076206505e-05 -3.891735832439735532e-05 5.776634134235791862e-05
4.673000000000000000e+03 3.345799636840820312e+01 5.111693739891052246e-01 -8.255278953583911061e-05 -2.708098909351974726e-04 -1.060088034137152135e-04 1.896268440759740770e-05
4.674000000000000000e+03 3.253543472290039062e+01 3.972842991352081299e-01 3.821477730525657535e-05 3.415219543967396021e-05 2.171009145968127996e-05 -3.979611210525035858e-05
4.675000000000000000e+03 3.273504638671875000e+01 1.226690053939819336e+00 -3.877803101204335690e-04 -3.345127042848616838e-04 -2.166878985008224845e-04 1.263933372683823109e-04
4.676000000000000000e+03 3.299623489379882812e+01 1.477275013923645020e+00 -1.073827806976623833e-04 2.706781378947198391e-04 4.898860424873419106e-05 -2.724145888350903988e-04
4.677000000000000000e+03 3.361579895019531250e+01 6.195395588874816895e-01 -4.077784251421689987e-04 -2.835522464010864496e-04 -2.073992072837427258e-04 -8.944551518652588129e-05
4.678000000000000000e+03 2.781990051269531250e+01 -2.360724806785583496e-01 -2.448467072099447250e-03 1.371935941278934479e-03 -3.229593567084521055e-04 -3.341982956044375896e-04
4.679000000000000000e+03 2.646029090881347656e+01 7.749882936477661133e-01 -3.131431341171264648e-02 5.575191974639892578e-02 7.331281434744596481e-03 -8.181992918252944946e-02
4.680000000000000000e+03 2.671755599975585938e+01 8.129853606224060059e-01 2.639954676851630211e-03 7.795321196317672729e-02 2.417794987559318542e-02 -7.658469676971435547e-02
4.681000000000000000e+03 2.685140991210937500e+01 5.993382930755615234e-01 -5.456329137086868286e-02 8.733710646629333496e-02 9.832144714891910553e-03 -4.494526237249374390e-02
4.682000000000000000e+03 2.615445137023925781e+01 6.092628836631774902e-01 -1.136490702629089355e-01 -3.596280142664909363e-02 -4.488356038928031921e-02 -5.095477774739265442e-02
4.683000000000000000e+03 2.578784370422363281e+01 5.081817507743835449e-01 -1.940412521362304688e-01 -1.700972765684127808e-01 -1.092415601015090942e-01 4.604166746139526367e-02
4.684000000000000000e+03 2.515849876403808594e+01 3.271711468696594238e-01 -3.986961841583251953e-01 -1.613343805074691772e-01 -1.680091768503189087e-01 2.137350440025329590e-01
4.685000000000000000e+03 2.528490638732910156e+01 -1.167485713958740234e+00 -1.778474211692810059e+00 7.610166072845458984e-02 -5.107117891311645508e-01 -2.718177735805511475e-01
4.686000000000000000e+03 2.597053718566894531e+01 -1.693393230438232422e+00 -1.808241367340087891e+00 -2.957328259944915771e-01 -6.311922669410705566e-01 -5.494164824485778809e-01
4.687000000000000000e+03 2.837369155883789062e+01 -1.667419314384460449e+00 -2.491688013076782227e+00 -2.152532711625099182e-02 -7.539640069007873535e-01 -4.090933203697204590e-01
4.688000000000000000e+03 2.616794013977050781e+01 -1.584699869155883789e+00 -1.965649724006652832e+00 -3.238240182399749756e-01 -6.868421435356140137e-01 -4.924394786357879639e-01
4.689000000000000000e+03 2.545707130432128906e+01 -1.382107138633728027e+00 -1.817649006843566895e+00 1.272235251963138580e-02 -5.414779782295227051e-01 -4.185331761837005615e-01
4.690000000000000000e+03 2.507384490966796875e+01 -2.928588986396789551e-01 -1.076085925102233887e+00 -1.021992508322000504e-02 -3.258917629718780518e-01 2.588869035243988037e-01
4.691000000000000000e+03 2.553544807434082031e+01 3.138064444065093994e-01 -3.153649866580963135e-01 -2.332984060049057007e-01 -1.645990163087844849e-01 1.568321734666824341e-01
4.692000000000000000e+03 2.596484184265136719e+01 5.645281076431274414e-01 -1.371507942676544189e-01 -1.062656715512275696e-01 -7.302493602037429810e-02 -1.601844280958175659e-02
4.693000000000000000e+03 2.878841018676757812e+01 -7.704266905784606934e-02 -3.958628076361492276e-05 4.819488967768847942e-04 1.327087811660021544e-04 -3.590391997931874357e-06
4.694000000000000000e+03 2.790844726562500000e+01 2.747163772583007812e-01 1.218349789269268513e-03 4.229148384183645248e-03 1.634249463677406311e-03 -3.640277645899914205e-05
4.695000000000000000e+03 2.716904640197753906e+01 -9.880415350198745728e-02 1.031963806599378586e-02 3.444643691182136536e-02 1.342982333153486252e-02 3.877935558557510376e-02
4.696000000000000000e+03 2.750106239318847656e+01 6.892876625061035156e-01 4.353318829089403152e-03 1.167630311101675034e-02 4.808886442333459854e-03 -8.940192870795726776e-03
4.697000000000000000e+03 2.659551811218261719e+01 9.028003811836242676e-01 3.719561174511909485e-02 7.940492779016494751e-02 3.498016297817230225e-02 -8.600682020187377930e-02
4.698000000000000000e+03 2.561998748779296875e+01 4.662799537181854248e-01 -2.417801916599273682e-01 -1.765486150979995728e-01 -1.254986375570297241e-01 8.918347954750061035e-02
4.699000000000000000e+03 2.546137046813964844e+01 4.314995408058166504e-01 -2.955442070960998535e-01 -1.903501152992248535e-01 -1.457682996988296509e-01 1.367364972829818726e-01
4.700000000000000000e+03 2.541918945312500000e+01 2.043535113334655762e-01 -4.927012324333190918e-01 -1.970676779747009277e-01 -2.069306820631027222e-01 2.148476541042327881e-01
4.701000000000000000e+03 2.514461708068847656e+01 1.484151929616928101e-01 -5.450831055641174316e-01 -1.093198508024215698e-01 -1.963208913803100586e-01 1.687225103378295898e-01
4.702000000000000000e+03 3.124060249328613281e+01 -1.303454041481018066e+00 -3.204686403274536133e+00 3.736694753170013428e-01 -8.493050336837768555e-01 -1.481897681951522827e-01
4.703000000000000000e+03 3.089070892333984375e+01 -1.371482610702514648e+00 -3.006674766540527344e+00 3.057260811328887939e-01 -8.102846145629882812e-01 -1.519521921873092651e-01
4.704000000000000000e+03 3.008119964599609375e+01 -2.816029489040374756e-01 -3.281216144561767578e+00 -9.661431540735065937e-04 -9.846547245979309082e-01 -2.908900678157806396e-01
4.705000000000000000e+03 2.892089462280273438e+01 -1.029202699661254883e+00 -2.975570201873779297e+00 -2.467748243361711502e-03 -8.934113383293151855e-01 -3.318560123443603516e-01
4.706000000000000000e+03 2.867807006835937500e+01 -7.479233145713806152e-01 -3.142164945602416992e+00 -2.196542173624038696e-02 -9.492390751838684082e-01 -3.432969748973846436e-01
4.707000000000000000e+03 2.775576591491699219e+01 -1.722179293632507324e+00 -2.369598150253295898e+00 -9.721123427152633667e-02 -7.400428056716918945e-01 -4.294120371341705322e-01
4.708000000000000000e+03 2.707432937622070312e+01 -1.548220634460449219e+00 -2.329187631607055664e+00 -2.341003715991973877e-01 -7.689864039421081543e-01 -3.557869791984558105e-01
4.709000000000000000e+03 3.027514839172363281e+01 -2.667401432991027832e-01 -3.213996410369873047e+00 -3.772026393562555313e-03 -9.653304815292358398e-01 -2.568762302398681641e-01
4.710000000000000000e+03 2.954090499877929688e+01 -1.550057530403137207e+00 -2.701185941696166992e+00 1.259086281061172485e-01 -7.725831866264343262e-01 -3.098490238189697266e-01
4.711000000000000000e+03 2.804059028625488281e+01 -4.530044198036193848e-01 -3.368048667907714844e+00 -3.164859861135482788e-02 -1.019909143447875977e+00 -3.487306833267211914e-01
4.712000000000000000e+03 2.824248123168945312e+01 -4.449058473110198975e-01 -3.377863168716430664e+00 -4.302152618765830994e-02 -1.026265382766723633e+00 -3.510276973247528076e-01
4.713000000000000000e+03 2.719761276245117188e+01 -9.446302652359008789e-01 -2.998824357986450195e+00 -9.956168383359909058e-02 -9.295157790184020996e-01 -2.753226757049560547e-01
4.714000000000000000e+03 2.722833442687988281e+01 -7.250214219093322754e-01 -3.221115350723266602e+00 -6.986496597528457642e-02 -9.872941374778747559e-01 -2.849021255970001221e-01
4.715000000000000000e+03 2.723756790161132812e+01 -5.151501893997192383e-01 -3.370012521743774414e+00 -2.996274642646312714e-02 -1.019992589950561523e+00 -3.307813704013824463e-01
4.716000000000000000e+03 2.515667152404785156e+01 -8.476480245590209961e-01 -1.514239072799682617e+00 1.294658184051513672e-01 -4.154319763183593750e-01 -1.488321572542190552e-01
4.717000000000000000e+03 2.675755500793457031e+01 -1.431399822235107422e+00 -2.301711797714233398e+00 -3.190811276435852051e-01 -7.862378358840942383e-01 -3.045504987239837646e-01
4.718000000000000000e+03 2.721723747253417969e+01 -3.033818006515502930e-01 2.996772155165672302e-02 8.050083182752132416e-03 1.140534132719039917e-02 1.902054436504840851e-02
4.719000000000000000e+03 2.635912895202636719e+01 5.831415057182312012e-01 -1.020631119608879089e-01 3.512741625308990479e-02 -2.008070796728134155e-02 -6.966134160757064819e-02
4.720000000000000000e+03 2.528482055664062500e+01 2.188069820404052734e-01 -5.012360215187072754e-01 -1.770498156547546387e-01 -2.034857571125030518e-01 2.115095853805541992e-01
4.721000000000000000e+03 2.822923660278320312e+01 -1.914909631013870239e-01 -1.016151043586432934e-03 -2.836890962498728186e-05 -3.133559657726436853e-04 -3.717951767612248659e-04
4.722000000000000000e+03 2.966212654113769531e+01 4.668440297245979309e-02 -2.702227720874361694e-05 -2.847546738848905079e-06 -8.960946615843567997e-06 -7.354038643825333565e-06
4.723000000000000000e+03 3.001603126525878906e+01 2.810606360435485840e-01 -1.230091311299474910e-05 6.729816277584177442e-07 -3.488379434202215634e-06 1.351180344499880448e-05
4.724000000000000000e+03 3.014229011535644531e+01 3.720963746309280396e-02 1.952648199221584946e-05 7.529667982453247532e-06 8.116844583128113300e-06 -1.868748950073495507e-05
4.725000000000000000e+03 2.529310226440429688e+01 8.253997564315795898e-02 -5.786868333816528320e-01 -1.735455095767974854e-01 -2.256696969270706177e-01 2.278881072998046875e-01
4.726000000000000000e+03 2.677220344543457031e+01 4.099597036838531494e-01 -9.755102545022964478e-02 1.071243286132812500e-01 2.871989505365490913e-03 -2.671168930828571320e-02
4.727000000000000000e+03 2.790239715576171875e+01 5.528707504272460938e-01 -1.019742921926081181e-03 2.882255474105477333e-03 5.587537889368832111e-04 -5.007809377275407314e-04
4.728000000000000000e+03 2.709368515014648438e+01 9.841948002576828003e-02 -2.870266884565353394e-02 7.224376499652862549e-02 1.306232903152704239e-02 3.244105726480484009e-02
4.729000000000000000e+03 2.739620018005371094e+01 -4.905321821570396423e-02 3.399937413632869720e-03 2.039562165737152100e-02 7.138667628169059753e-03 1.919003389775753021e-02
4.730000000000000000e+03 2.778038978576660156e+01 -2.680426090955734253e-02 2.690229564905166626e-03 9.345823200419545174e-04 1.087443553842604160e-03 6.121099577285349369e-04
4.731000000000000000e+03 2.504582786560058594e+01 -6.777805089950561523e-01 -1.302469372749328613e+00 1.010701507329940796e-01 -3.604197800159454346e-01 5.943622812628746033e-02
4.732000000000000000e+03 2.517080116271972656e+01 -5.117816478013992310e-02 -8.471798896789550781e-01 -5.236230790615081787e-02 -2.698626518249511719e-01 2.206339389085769653e-01
4.733000000000000000e+03 2.726543045043945312e+01 4.595450162887573242e-01 -1.896979473531246185e-02 5.114788562059402466e-02 9.653426706790924072e-03 -1.401850115507841110e-02
4.734000000000000000e+03 2.696632385253906250e+01 2.802588045597076416e-01 -6.845161318778991699e-02 9.707178920507431030e-02 8.586053736507892609e-03 8.560330606997013092e-03
4.735000000000000000e+03 2.656919479370117188e+01 -1.512916088104248047e+00 -2.168713808059692383e+00 -3.576284646987915039e-01 -7.579027414321899414e-01 -3.508646488189697266e-01
4.736000000000000000e+03 2.524217987060546875e+01 -1.495204806327819824e+00 -1.647099614143371582e+00 5.716629698872566223e-02 -4.769800007343292236e-01 -4.629771709442138672e-01
4.737000000000000000e+03 2.580084037780761719e+01 -1.548887729644775391e+00 -1.849965929985046387e+00 -2.383837848901748657e-01 -6.265048980712890625e-01 -5.143500566482543945e-01
4.738000000000000000e+03 2.591897010803222656e+01 -1.845341563224792480e+00 -1.637086272239685059e+00 -2.467152476310729980e-01 -5.651404261589050293e-01 -6.223534345626831055e-01
4.739000000000000000e+03 2.644226455688476562e+01 -1.709385395050048828e+00 -1.951899290084838867e+00 -3.223458528518676758e-01 -6.822735071182250977e-01 -4.596141874790191650e-01
4.740000000000000000e+03 2.816950225830078125e+01 -1.683254241943359375e+00 -2.445008754730224609e+00 -3.910848498344421387e-02 -7.452352046966552734e-01 -4.152831733226776123e-01
4.741000000000000000e+03 2.744405555725097656e+01 -7.266522645950317383e-01 -3.186513423919677734e+00 -5.067542195320129395e-02 -9.711566567420959473e-01 -3.183414041996002197e-01
4.742000000000000000e+03 2.512719154357910156e+01 -7.094663977622985840e-01 -1.442764163017272949e+00 9.343436360359191895e-02 -4.047989547252655029e-01 7.545224577188491821e-02
4.743000000000000000e+03 2.637152290344238281e+01 -1.564704656600952148e+00 -1.993966698646545410e+00 -3.298212587833404541e-01 -6.971364021301269531e-01 -4.228503406047821045e-01
4.744000000000000000e+03 2.559491157531738281e+01 -1.626361131668090820e+00 -1.660327196121215820e+00 -8.173739910125732422e-02 -5.226193666458129883e-01 -4.902656972408294678e-01
4.745000000000000000e+03 2.519227409362792969e+01 -9.742129445075988770e-01 -1.732295155525207520e+00 1.269496381282806396e-01 -4.816036522388458252e-01 -1.918041557073593140e-01
4.746000000000000000e+03 2.694959831237792969e+01 -1.828551173210144043e+00 -2.051407098770141602e+00 -2.654459178447723389e-01 -6.950559020042419434e-01 -4.536909162998199463e-01
4.747000000000000000e+03 3.071470832824707031e+01 -7.099655270576477051e-01 -3.100005149841308594e+00 1.823511272668838501e-01 -8.752961754798889160e-01 -5.013240873813629150e-02
4.748000000000000000e+03 2.735287666320800781e+01 -1.777114272117614746e+00 -2.209580183029174805e+00 -1.815941333770751953e-01 -7.173522710800170898e-01 -4.363400638103485107e-01
4.749000000000000000e+03 2.755428123474121094e+01 -1.753542184829711914e+00 -2.316720962524414062e+00 -1.369841396808624268e-01 -7.361115217208862305e-01 -4.242917299270629883e-01
4.750000000000000000e+03 3.135067749023437500e+01 -1.199893712997436523e+00 -3.226507425308227539e+00 3.196681439876556396e-01 -8.720518350601196289e-01 5.967115983366966248e-03
4.751000000000000000e+03 3.106115722656250000e+01 -9.513271450996398926e-01 -3.066549062728881836e+00 2.449911683797836304e-01 -8.464673757553100586e-01 7.839580625295639038e-02
4.752000000000000000e+03 3.107223701477050781e+01 -1.337526679039001465e+00 -3.083036184310913086e+00 3.226187825202941895e-01 -8.281251788139343262e-01 -1.053008437156677246e-01
4.753000000000000000e+03 2.715109252929687500e+01 -1.798541426658630371e+00 -2.160944938659667969e+00 -2.165498733520507812e-01 -7.132484316825866699e-01 -4.447441697120666504e-01
4.754000000000000000e+03 2.674503326416015625e+01 -1.859190106391906738e+00 -1.972782015800476074e+00 -2.707662284374237061e-01 -6.730644702911376953e-01 -4.828421771526336670e-01
4.755000000000000000e+03 2.906841278076171875e+01 -3.854454159736633301e-01 -3.406390905380249023e+00 -4.169730097055435181e-02 -1.034426450729370117e+00 -3.451271057128906250e-01
4.756000000000000000e+03 2.910834693908691406e+01 -1.358438611030578613e+00 -2.768352508544921875e+00 5.082675069570541382e-02 -8.152577280998229980e-01 -3.339575827121734619e-01
4.757000000000000000e+03 2.915472984313964844e+01 -1.597915291786193848e+00 -2.620911836624145508e+00 6.627885252237319946e-02 -7.663899064064025879e-01 -3.595198094844818115e-01
4.758000000000000000e+03 2.968448257446289062e+01 -3.178385496139526367e-01 -3.363063573837280273e+00 -6.965709850192070007e-03 -1.011008739471435547e+00 -3.264433145523071289e-01
4.759000000000000000e+03 2.865559959411621094e+01 -4.283179044723510742e-01 -3.399798154830932617e+00 -3.674121946096420288e-02 -1.030961871147155762e+00 -3.539363443851470947e-01
4.760000000000000000e+03 2.826641464233398438e+01 2.519997358322143555e-01 1.227075001224875450e-03 -1.582745462656021118e-03 -1.067011253326199949e-04 -9.445824252907186747e-05
4.761000000000000000e+03 2.842575073242187500e+01 -1.913074105978012085e-01 -1.589761668583378196e-04 1.817352895159274340e-04 6.827737252024235204e-06 -6.358672399073839188e-04
4.762000000000000000e+03 2.944804954528808594e+01 -8.972559869289398193e-02 -3.678580014820909128e-06 -2.031571602856274694e-05 -7.198288585641421378e-06 -8.912471457733772695e-06
4.763000000000000000e+03 3.029812240600585938e+01 1.053279787302017212e-01 -1.501669612480327487e-05 -2.838544605765491724e-05 -1.302064265473745763e-05 1.754571894707623869e-05
4.764000000000000000e+03 2.950048637390136719e+01 3.034934401512145996e-01 -1.497093126090476289e-05 1.958746906893793494e-05 1.384961137773643713e-06 -2.052570016530808061e-05
4.765000000000000000e+03 2.944606971740722656e+01 7.450585067272186279e-02 -1.150090042756346520e-06 3.818054392468184233e-05 1.110913672164315358e-05 5.196661004447378218e-05
4.766000000000000000e+03 2.802137947082519531e+01 -2.082492411136627197e-01 -1.751087489537894726e-03 -6.471356027759611607e-04 -7.194669451564550400e-04 -8.080283878371119499e-04
4.767000000000000000e+03 2.904725456237792969e+01 -2.856845781207084656e-02 5.692079412256134674e-06 -1.415410224581137300e-04 -4.075468314113095403e-05 -6.024206959409639239e-05
4.768000000000000000e+03 3.051279258728027344e+01 -1.431428551673889160e+00 -2.909928083419799805e+00 2.705141603946685791e-01 -7.918241620063781738e-01 -1.930656433105468750e-01
4.769000000000000000e+03 2.844971275329589844e+01 -7.393308877944946289e-01 -3.160633087158203125e+00 -3.729221597313880920e-02 -9.593775868415832520e-01 -3.493523001670837402e-01
4.770000000000000000e+03 2.844795036315917969e+01 -4.390898346900939941e-01 -3.388803958892822266e+00 -3.419616818428039551e-02 -1.026900053024291992e+00 -3.551697731018066406e-01
4.771000000000000000e+03 2.784181976318359375e+01 -6.897981166839599609e-01 -3.196227788925170898e+00 -3.459095209836959839e-02 -9.692456722259521484e-01 -3.458091318607330322e-01
4.772000000000000000e+03 2.784101295471191406e+01 -4.653589725494384766e-01 -3.360293388366699219e+00 -4.167672991752624512e-02 -1.020591020584106445e+00 -3.462172448635101318e-01
4.773000000000000000e+03 2.764116668701171875e+01 -4.829903542995452881e-01 -3.353816032409667969e+00 -3.114712238311767578e-02 -1.015488982200622559e+00 -3.444984555244445801e-01
4.774000000000000000e+03 2.927213668823242188e+01 -3.567369878292083740e-01 -3.400826692581176758e+00 -1.516837812960147858e-02 -1.024798512458801270e+00 -3.414915204048156738e-01
4.775000000000000000e+03 2.882881164550781250e+01 -1.215668559074401855e+00 -2.810776948928833008e+00 1.403547637164592743e-02 -8.390224575996398926e-01 -3.452344238758087158e-01
4.776000000000000000e+03 2.858909034729003906e+01 1.528998911380767822e-01 -2.627067733556032181e-04 -5.001910030841827393e-04 -2.288693212904036045e-04 3.721062676049768925e-04
4.777000000000000000e+03 2.688063049316406250e+01 7.684969902038574219e-01 -9.060579352080821991e-03 7.743988931179046631e-02 2.051379345357418060e-02 -6.938666105270385742e-02
4.778000000000000000e+03 2.871318817138671875e+01 3.976906836032867432e-01 6.548794772243127227e-05 3.385977761354297400e-04 1.212257193401455879e-04 -1.365155767416581511e-04
4.779000000000000000e+03 2.493860626220703125e+01 -9.964184761047363281e-01 -1.483843207359313965e+00 1.731075495481491089e-01 -3.932206928730010986e-01 -1.424757391214370728e-01
4.780000000000000000e+03 2.857298660278320312e+01 -1.650406837463378906e+00 -2.517355680465698242e+00 5.981695372611284256e-03 -7.534121870994567871e-01 -4.010947644710540771e-01
4.781000000000000000e+03 2.875557708740234375e+01 -1.394296050071716309e+00 -2.707180261611938477e+00 1.502813678234815598e-02 -8.076456189155578613e-01 -3.639917671680450439e-01
4.782000000000000000e+03 2.694132995605468750e+01 -1.321903228759765625e+00 -2.533037900924682617e+00 -2.404459416866302490e-01 -8.320451378822326660e-01 -2.740571796894073486e-01
4.783000000000000000e+03 2.973933601379394531e+01 -1.530803084373474121e+00 -2.743587493896484375e+00 1.590796113014221191e-01 -7.753523588180541992e-01 -2.821424305438995361e-01
4.784000000000000000e+03 3.013170623779296875e+01 -1.486040472984313965e+00 -2.813750505447387695e+00 2.159325033426284790e-01 -7.793453931808471680e-01 -2.294312864542007446e-01
4.785000000000000000e+03 2.962875556945800781e+01 -1.063020944595336914e+00 -2.942314624786376953e+00 7.982435077428817749e-02 -8.587470650672912598e-01 -2.541242539882659912e-01
4.786000000000000000e+03 3.039701271057128906e+01 -1.152016401290893555e+00 -2.986917972564697266e+00 2.123251259326934814e-01 -8.323778510093688965e-01 -1.305808126926422119e-01
4.787000000000000000e+03 2.796207809448242188e+01 -1.698634266853332520e+00 -2.420173645019531250e+00 -7.430620491504669189e-02 -7.483439445495605469e-01 -4.151032865047454834e-01
4.788000000000000000e+03 3.057217597961425781e+01 -1.112314343452453613e+00 -3.023610830307006836e+00 2.427354156970977783e-01 -8.342626094818115234e-01 -1.419524550437927246e-01
4.789000000000000000e+03 2.993740844726562500e+01 -1.510368824005126953e+00 -2.772006034851074219e+00 1.703058481216430664e-01 -7.805100679397583008e-01 -2.518994212150573730e-01
4.790000000000000000e+03 2.947127151489257812e+01 -1.292900323867797852e+00 -2.825301647186279297e+00 9.205605089664459229e-02 -8.199737071990966797e-01 -2.919062674045562744e-01
4.791000000000000000e+03 2.892973709106445312e+01 -1.382635354995727539e+00 -2.729593038558959961e+00 3.177276998758316040e-02 -8.093460798263549805e-01 -3.543185889720916748e-01
4.792000000000000000e+03 2.927618789672851562e+01 -6.425587832927703857e-02 4.901413922198116779e-05 6.860317807877436280e-05 3.528519664541818202e-05 5.648115984513424337e-05
4.793000000000000000e+03 2.765856552124023438e+01 1.621758788824081421e-01 -2.957688120659440756e-04 1.191354449838399887e-02 3.485332708805799484e-03 2.238769317045807838e-03
4.794000000000000000e+03 2.976152038574218750e+01 -6.182944774627685547e-01 -3.171082973480224609e+00 1.131502725183963776e-02 -9.479303956031799316e-01 -2.521898746490478516e-01
4.795000000000000000e+03 2.947806930541992188e+01 -3.339114189147949219e-01 -3.387632369995117188e+00 -4.318014532327651978e-02 -1.029243826866149902e+00 -3.280342221260070801e-01
4.796000000000000000e+03 3.009435653686523438e+01 -9.150875210762023926e-01 -3.033735036849975586e+00 1.048630401492118835e-01 -8.786616325378417969e-01 -1.640480011701583862e-01
4.797000000000000000e+03 2.856544685363769531e+01 -1.390156388282775879e+00 -2.705996513366699219e+00 -1.245316118001937866e-02 -8.155348896980285645e-01 -3.766812682151794434e-01
4.798000000000000000e+03 3.034239959716796875e+01 -5.648652315139770508e-01 -3.074868679046630859e+00 7.770735025405883789e-02 -8.991484045982360840e-01 -1.525764912366867065e-01
4.799000000000000000e+03 2.734449577331542969e+01 -1.325474739074707031e+00 -2.626626491546630859e+00 -1.483680605888366699e-01 -8.324983716011047363e-01 -3.294813930988311768e-01
4.800000000000000000e+03 2.710558700561523438e+01 -1.159500002861022949e+00 -2.749551296234130859e+00 -1.774852424860000610e-01 -8.781109452247619629e-01 -2.535645365715026855e-01
4.801000000000000000e+03 2.664535522460937500e+01 6.655923128128051758e-01 -6.783520430326461792e-02 8.989031612873077393e-02 6.616534199565649033e-03 -6.791912019252777100e-02
4.802000000000000000e+03 2.739227104187011719e+01 2.043175101280212402e-01 -9.080002084374427795e-03 3.271562978625297546e-02 7.090688217431306839e-03 8.300450630486011505e-03
4.803000000000000000e+03 2.934688377380371094e+01 -1.574162364006042480e+00 -2.658551931381225586e+00 1.019240692257881165e-01 -7.669883370399475098e-01 -3.256563544273376465e-01
4.804000000000000000e+03 3.032261085510253906e+01 -1.459050178527832031e+00 -2.866687774658203125e+00 2.328691780567169189e-01 -7.901455760002136230e-01 -1.986711323261260986e-01
4.805000000000000000e+03 2.978258132934570312e+01 -8.587885499000549316e-01 -3.064422130584716797e+00 5.666361749172210693e-02 -9.023275375366210938e-01 -2.396495640277862549e-01
4.806000000000000000e+03 2.852941322326660156e+01 -1.134404420852661133e+00 -2.882329225540161133e+00 -1.210347656160593033e-02 -8.683298230171203613e-01 -3.593533933162689209e-01
4.807000000000000000e+03 2.913703918457031250e+01 -1.132955670356750488e+00 -2.907174825668334961e+00 3.676056861877441406e-02 -8.611242771148681641e-01 -3.206848204135894775e-01
4.808000000000000000e+03 2.891152954101562500e+01 -7.358937859535217285e-01 -3.148877620697021484e+00 -2.599272318184375763e-02 -9.524610638618469238e-01 -3.389073312282562256e-01
4.809000000000000000e+03 2.925645446777343750e+01 -9.566388726234436035e-01 -3.014038324356079102e+00 4.884393420070409775e-03 -9.027461409568786621e-01 -3.006841838359832764e-01
4.810000000000000000e+03 2.933537292480468750e+01 -6.373291015625000000e-01 -3.203681468963623047e+00 -2.204383164644241333e-02 -9.677175879478454590e-01 -3.069933950901031494e-01
4.811000000000000000e+03 2.800453186035156250e+01 -9.263651967048645020e-01 -3.030160903930664062e+00 -4.552806168794631958e-02 -9.227066636085510254e-01 -3.630648553371429443e-01
4.812000000000000000e+03 2.729001426696777344e+01 -1.531453728675842285e+00 -2.438931465148925781e+00 -1.875638961791992188e-01 -7.879486083984375000e-01 -3.523556590080261230e-01
4.813000000000000000e+03 2.997507095336914062e+01 -6.148938536643981934e-01 -3.135674476623535156e+00 4.808374494314193726e-02 -9.262772202491760254e-01 -2.282295972108840942e-01
4.814000000000000000e+03 2.745512580871582031e+01 -9.636750221252441406e-01 -2.991954803466796875e+00 -8.911773562431335449e-02 -9.243217110633850098e-01 -3.025151491165161133e-01
4.815000000000000000e+03 2.823396110534667969e+01 -7.079256176948547363e-01 -3.187018871307373047e+00 -3.696575388312339783e-02 -9.671953916549682617e-01 -3.560579121112823486e-01
4.816000000000000000e+03 2.755640602111816406e+01 -1.198829770088195801e+00 -2.757625579833984375e+00 -1.052662208676338196e-01 -8.588675260543823242e-01 -3.308751285076141357e-01
4.817000000000000000e+03 2.944159126281738281e+01 -1.064152121543884277e+00 -2.938720226287841797e+00 5.642673373222351074e-02 -8.646880388259887695e-01 -2.756514251232147217e-01
4.818000000000000000e+03 2.815221786499023438e+01 -1.422696471214294434e+00 -2.654089450836181641e+00 -4.630464687943458557e-02 -8.101182579994201660e-01 -3.832464516162872314e-01
4.819000000000000000e+03 3.059735870361328125e+01 -7.972539067268371582e-01 -3.099474191665649414e+00 2.095487266778945923e-01 -8.669776320457458496e-01 -1.096391677856445312e-01
4.820000000000000000e+03 2.995605850219726562e+01 -5.597616545855998993e-03 -1.801452162908390164e-05 2.350947170270956121e-06 -4.699072178482310846e-06 -8.676413017383310944e-06
4.821000000000000000e+03 2.979190826416015625e+01 -6.038608029484748840e-02 -1.925826109072659165e-05 4.381097824079915881e-06 -4.463148798095062375e-06 2.982892738145892508e-06
4.822000000000000000e+03 2.962926292419433594e+01 -8.498704433441162109e-02 -1.279570915357908234e-05 4.825986707146512344e-06 -2.390916733929770999e-06 8.083983630058355629e-06
4.823000000000000000e+03 2.978279876708984375e+01 1.970997005701065063e-01 4.729233842226676643e-05 1.092341517505701631e-05 1.746472662489395589e-05 1.131894578065839596e-06
4.824000000000000000e+03 3.070292282104492188e+01 -1.402674555778503418e+00 -2.949094772338867188e+00 2.746193408966064453e-01 -8.023426532745361328e-01 -1.335840523242950439e-01
4.825000000000000000e+03 3.090387916564941406e+01 -1.005632758140563965e+00 -3.079525709152221680e+00 2.675953805446624756e-01 -8.435790538787841797e-01 -5.606291443109512329e-02
4.826000000000000000e+03 3.022185134887695312e+01 -1.190913677215576172e+00 -2.935514450073242188e+00 1.991234123706817627e-01 -8.209173083305358887e-01 -1.766830682754516602e-01
4.827000000000000000e+03 2.859870910644531250e+01 -1.620338261127471924e-01 7.984957483131438494e-05 -7.505628746002912521e-04 -2.012140030274167657e-04 3.083118353970348835e-04
4.828000000000000000e+03 2.798626136779785156e+01 2.405132167041301727e-02 1.368494704365730286e-03 9.906549239531159401e-04 7.077449117787182331e-04 5.386719712987542152e-04
4.829000000000000000e+03 2.760408020019531250e+01 -4.810364171862602234e-02 1.340500544756650925e-03 1.241684798151254654e-02 4.127204883843660355e-03 5.455942824482917786e-03
4.830000000000000000e+03 2.762227249145507812e+01 -2.580721676349639893e-01 -2.801758273562882096e-05 2.433231333270668983e-03 7.215641089715063572e-04 2.974766306579113007e-03
4.831000000000000000e+03 2.742092132568359375e+01 -2.755425572395324707e-01 9.475210681557655334e-03 6.039234343916177750e-03 4.654333461076021194e-03 9.162439964711666107e-03
4.832000000000000000e+03 3.004961967468261719e+01 -1.233764171600341797e+00 -2.910354614257812500e+00 1.489526629447937012e-01 -8.284206390380859375e-01 -1.987114250659942627e-01
4.833000000000000000e+03 2.987006568908691406e+01 -1.269569873809814453e+00 -2.877411603927612305e+00 1.457899212837219238e-01 -8.194864988327026367e-01 -2.384479194879531860e-01
4.834000000000000000e+03 2.967793273925781250e+01 -1.289007782936096191e+00 -2.844140052795410156e+00 1.083322167396545410e-01 -8.207423090934753418e-01 -2.610127627849578857e-01
4.835000000000000000e+03 2.928291893005371094e+01 -1.328910589218139648e+00 -2.805331945419311523e+00 5.004964396357536316e-02 -8.265846371650695801e-01 -3.172646760940551758e-01
4.836000000000000000e+03 2.896192741394042969e+01 -1.619267821311950684e+00 -2.601610183715820312e+00 6.131254136562347412e-02 -7.620892524719238281e-01 -3.698995113372802734e-01
4.837000000000000000e+03 2.876846885681152344e+01 -1.636580586433410645e+00 -2.567829132080078125e+00 2.671298384666442871e-02 -7.623348832130432129e-01 -3.917932808399200439e-01
4.838000000000000000e+03 2.836238670349121094e+01 -1.414757847785949707e+00 -2.672011375427246094e+00 -2.108306996524333954e-02 -8.079283237457275391e-01 -3.834696710109710693e-01
4.839000000000000000e+03 2.792315673828125000e+01 -1.418533086776733398e+00 -2.614294052124023438e+00 -7.433365285396575928e-02 -8.065882921218872070e-01 -3.860160112380981445e-01
4.840000000000000000e+03 2.775188255310058594e+01 -1.074229359626770020e+00 -2.894240379333496094e+00 -6.948179751634597778e-02 -8.891167044639587402e-01 -3.500819504261016846e-01
4.841000000000000000e+03 2.768674468994140625e+01 -1.447214603424072266e+00 -2.568500280380249023e+00 -1.069249063730239868e-01 -8.026275038719177246e-01 -3.771605193614959717e-01
4.842000000000000000e+03 2.744003677368164062e+01 -5.022587180137634277e-01 -3.355295658111572266e+00 -4.568795114755630493e-02 -1.020295023918151855e+00 -3.372493684291839600e-01
4.843000000000000000e+03 2.764735794067382812e+01 -7.030430436134338379e-01 -3.189422845840454102e+00 -5.012713372707366943e-02 -9.718649983406066895e-01 -3.352921605110168457e-01
4.844000000000000000e+03 2.803458213806152344e+01 -6.944524645805358887e-01 -3.197347164154052734e+00 -4.743410646915435791e-02 -9.734343290328979492e-01 -3.514049351215362549e-01
4.845000000000000000e+03 2.716103935241699219e+01 8.718845844268798828e-01 3.770954161882400513e-02 3.245696052908897400e-02 2.104995027184486389e-02 -3.817217797040939331e-02
4.846000000000000000e+03 2.656223297119140625e+01 4.945255815982818604e-01 -1.132224649190902710e-01 8.588293939828872681e-02 -8.201857097446918488e-03 -5.683210492134094238e-02
4.847000000000000000e+03 2.686352920532226562e+01 -1.615345478057861328e+00 -2.217497825622558594e+00 -2.783463001251220703e-01 -7.487531900405883789e-01 -3.697845935821533203e-01
4.848000000000000000e+03 2.653672027587890625e+01 -1.884754896163940430e+00 -1.852461934089660645e+00 -3.122517168521881104e-01 -6.494140625000000000e-01 -5.214359760284423828e-01
4.849000000000000000e+03 2.632029342651367188e+01 -1.903447628021240234e+00 -1.773069024085998535e+00 -2.456427216529846191e-01 -6.056135296821594238e-01 -5.764937996864318848e-01
4.850000000000000000e+03 2.542119216918945312e+01 2.913774251937866211e-01 -3.954979777336120605e-01 -1.870909631252288818e-01 -1.747766733169555664e-01 1.850829422473907471e-01
4.851000000000000000e+03 2.530577659606933594e+01 3.775547146797180176e-01 -3.560054898262023926e-01 -1.553682684898376465e-01 -1.534121334552764893e-01 1.693814992904663086e-01
4.852000000000000000e+03 2.673913955688476562e+01 9.652376174926757812e-01 8.005455136299133301e-02 8.147923648357391357e-02 4.846013709902763367e-02 -9.562380611896514893e-02
4.853000000000000000e+03 2.691065597534179688e+01 9.572267532348632812e-01 8.035774528980255127e-02 5.340835079550743103e-02 4.012982919812202454e-02 -7.565835118293762207e-02
4.854000000000000000e+03 2.502824020385742188e+01 2.314311861991882324e-01 -4.863087832927703857e-01 -9.847623854875564575e-02 -1.754355132579803467e-01 1.601156443357467651e-01
4.855000000000000000e+03 2.507358169555664062e+01 -5.470762252807617188e-01 -1.231569051742553711e+00 5.801819264888763428e-02 -3.520652651786804199e-01 1.142477393150329590e-01
4.856000000000000000e+03 2.704986381530761719e+01 6.634962558746337891e-01 -2.175964042544364929e-02 7.008720189332962036e-02 1.449826825410127640e-02 -4.704578965902328491e-02
4.857000000000000000e+03 2.487689590454101562e+01 -1.669925600290298462e-01 -8.637102246284484863e-01 1.616957597434520721e-02 -2.542622089385986328e-01 1.835149079561233521e-01
4.858000000000000000e+03 2.913160896301269531e+01 -6.978766322135925293e-01 -3.173543691635131836e+00 1.986004179343581200e-03 -9.514672756195068359e-01 -3.245426416397094727e-01
4.859000000000000000e+03 2.886347579956054688e+01 -4.104328453540802002e-01 -3.405607938766479492e+00 -2.607023157179355621e-02 -1.029503464698791504e+00 -3.497895598411560059e-01
4.860000000000000000e+03 2.954154586791992188e+01 -6.111316680908203125e-01 -3.204986095428466797e+00 9.266636334359645844e-03 -9.587157964706420898e-01 -2.922998666763305664e-01
4.861000000000000000e+03 2.988592720031738281e+01 -3.011800348758697510e-01 -3.333840608596801758e+00 -3.035353869199752808e-02 -1.009258270263671875e+00 -3.018911480903625488e-01
4.862000000000000000e+03 3.047628402709960938e+01 -2.706106901168823242e-01 -3.111579418182373047e+00 4.287236556410789490e-02 -9.206120967864990234e-01 -2.121084183454513550e-01
4.863000000000000000e+03 2.831880378723144531e+01 4.833793938159942627e-01 -7.171438774093985558e-04 -1.427003066055476665e-03 -6.432440713979303837e-04 9.158205357380211353e-04
4.864000000000000000e+03 2.911303520202636719e+01 3.305088281631469727e-01 -1.624291485313733574e-06 -8.601629815530031919e-05 -2.629217669891659170e-05 2.865109490812756121e-05
4.865000000000000000e+03 2.596808815002441406e+01 -1.566657185554504395e+00 -1.877814412117004395e+00 -2.819515168666839600e-01 -6.479297876358032227e-01 -5.458568334579467773e-01
4.866000000000000000e+03 2.621855926513671875e+01 -1.727860927581787109e+00 -1.792369008064270020e+00 -2.658384442329406738e-01 -6.174622178077697754e-01 -5.308302640914916992e-01
4.867000000000000000e+03 2.665574264526367188e+01 -1.670958757400512695e+00 -2.047640085220336914e+00 -3.251290619373321533e-01 -7.118307352066040039e-01 -4.215501844882965088e-01
4.868000000000000000e+03 2.846273994445800781e+01 -2.514259889721870422e-02 5.541771533899009228e-04 -8.981285500340163708e-04 -1.031854117172770202e-04 -3.765417495742440224e-04
4.869000000000000000e+03 2.823483848571777344e+01 2.807835116982460022e-02 6.512987893074750900e-04 3.705208291648887098e-05 2.065052685793489218e-04 -1.217191922478377819e-03
4.870000000000000000e+03 2.766182136535644531e+01 -9.075917005538940430e-01 -3.013443231582641602e+00 -5.187378451228141785e-02 -9.195951223373413086e-01 -3.345537781715393066e-01
4.871000000000000000e+03 3.074271583557128906e+01 -1.065460920333862305e+00 -3.049407482147216797e+00 2.439911812543869019e-01 -8.416248559951782227e-01 -6.867151707410812378e-02
4.872000000000000000e+03 3.027247810363769531e+01 -8.734555840492248535e-01 -3.036546468734741211e+00 1.522735059261322021e-01 -8.652818799018859863e-01 -1.437803655862808228e-01
4.873000000000000000e+03 2.492745590209960938e+01 -6.808144450187683105e-01 -1.278094768524169922e+00 1.590202301740646362e-01 -3.357223570346832275e-01 -3.315942734479904175e-02
4.874000000000000000e+03 2.994399070739746094e+01 -9.906327724456787109e-01 -2.990603446960449219e+00 1.203266307711601257e-01 -8.610830307006835938e-01 -2.052675187587738037e-01
4.875000000000000000e+03 2.980185317993164062e+01 -1.050683498382568359e+00 -2.957646608352661133e+00 9.135627746582031250e-02 -8.598871231079101562e-01 -2.185271531343460083e-01
4.876000000000000000e+03 2.816070175170898438e+01 -1.180420279502868652e+00 -2.806593894958496094e+00 -4.371344670653343201e-02 -8.550922274589538574e-01 -3.721129596233367920e-01
4.877000000000000000e+03 2.835287284851074219e+01 -1.187522649765014648e+00 -2.820110797882080078e+00 -3.147373348474502563e-02 -8.554753661155700684e-01 -3.642541766166687012e-01
4.878000000000000000e+03 2.819769477844238281e+01 -9.494147300720214844e-01 -3.018754005432128906e+00 -3.916294500231742859e-02 -9.173750877380371094e-01 -3.572379648685455322e-01
4.879000000000000000e+03 2.871496963500976562e+01 -1.038137078285217285e+00 -2.963243246078491211e+00 -2.160014398396015167e-02 -8.954530358314514160e-01 -3.559097647666931152e-01
4.880000000000000000e+03 3.079138374328613281e+01 -5.324212312698364258e-01 -3.017280340194702148e+00 1.749271601438522339e-01 -8.527058959007263184e-01 -1.089379712939262390e-01
4.881000000000000000e+03 2.940887069702148438e+01 -8.685036301612854004e-01 -3.076967477798461914e+00 2.508517913520336151e-02 -9.155647158622741699e-01 -2.942351698875427246e-01
4.882000000000000000e+03 3.016384696960449219e+01 -5.854021906852722168e-01 -3.117335319519042969e+00 4.350120201706886292e-02 -9.221501946449279785e-01 -1.797560751438140869e-01
4.883000000000000000e+03 3.051674270629882812e+01 -5.657013654708862305e-01 -3.017229080200195312e+00 1.464016288518905640e-01 -8.612482547760009766e-01 -5.767906084656715393e-02
4.884000000000000000e+03 2.748492050170898438e+01 -1.515446901321411133e+00 -2.484786272048950195e+00 -1.310739666223526001e-01 -7.847580909729003906e-01 -3.819521069526672363e-01
4.885000000000000000e+03 3.044175529479980469e+01 -8.363916277885437012e-01 -3.065605163574218750e+00 1.815465092658996582e-01 -8.652175664901733398e-01 -7.726043462753295898e-02
4.886000000000000000e+03 2.958901405334472656e+01 -8.487625122070312500e-01 -3.080608129501342773e+00 3.032537177205085754e-02 -9.150848388671875000e-01 -2.619493305683135986e-01
4.887000000000000000e+03 2.782859802246093750e+01 -8.955772519111633301e-01 -3.035404205322265625e+00 -5.886112526059150696e-02 -9.282795786857604980e-01 -3.507252037525177002e-01
4.888000000000000000e+03 2.839513969421386719e+01 -9.859659671783447266e-01 -2.987201213836669922e+00 -3.216190636157989502e-02 -9.058089852333068848e-01 -3.668168187141418457e-01
4.889000000000000000e+03 2.794436264038085938e+01 -1.159523010253906250e+00 -2.830037117004394531e+00 -6.396277248859405518e-02 -8.681999444961547852e-01 -3.526293933391571045e-01
4.890000000000000000e+03 2.647685241699218750e+01 9.727759361267089844e-01 6.178370490670204163e-02 5.849505215883255005e-02 3.608362749218940735e-02 -1.032343655824661255e-01
4.891000000000000000e+03 2.610982894897460938e+01 9.217603206634521484e-01 -3.949350677430629730e-03 -3.124763956293463707e-03 -2.122234320268034935e-03 -6.188572570681571960e-02
4.892000000000000000e+03 2.501363372802734375e+01 4.009114503860473633e-01 -3.629645407199859619e-01 -1.666972935199737549e-01 -1.588985472917556763e-01 1.732944697141647339e-01
4.893000000000000000e+03 2.524869537353515625e+01 6.084479093551635742e-01 -2.345971018075942993e-01 -1.308970898389816284e-01 -1.096482574939727783e-01 1.204766631126403809e-01
4.894000000000000000e+03 2.596435928344726562e+01 7.445604801177978516e-01 -9.505761414766311646e-02 -6.921841204166412354e-02 -4.928280785679817200e-02 -2.205441705882549286e-02
4.895000000000000000e+03 2.529867744445800781e+01 5.080273151397705078e-01 -2.924409508705139160e-01 -1.566755920648574829e-01 -1.347349584102630615e-01 1.623665094375610352e-01
4.896000000000000000e+03 2.514510345458984375e+01 4.417403340339660645e-01 -3.676612377166748047e-01 -1.260627210140228271e-01 -1.481171995401382446e-01 1.676816046237945557e-01
4.897000000000000000e+03 2.574004173278808594e+01 8.379517197608947754e-01 -9.252072870731353760e-02 -1.064796671271324158e-01 -5.970012024044990540e-02 -6.327993236482143402e-03
4.898000000000000000e+03 2.540418624877929688e+01 6.995720267295837402e-01 -1.637619733810424805e-01 -1.316101700067520142e-01 -8.861164003610610962e-02 1.177392527461051941e-01
4.899000000000000000e+03 2.562668418884277344e+01 6.353848576545715332e-01 -1.643021255731582642e-01 -1.626440882682800293e-01 -9.808386117219924927e-02 6.469611823558807373e-02
4.900000000000000000e+03 2.546116828918457031e+01 5.738193392753601074e-01 -2.286236733198165894e-01 -1.409560889005661011e-01 -1.108739301562309265e-01 9.719342738389968872e-02
4.901000000000000000e+03 2.579438400268554688e+01 6.921237111091613770e-01 -1.001229733228683472e-01 -1.089353114366531372e-01 -6.271748244762420654e-02 5.488972179591655731e-03
4.902000000000000000e+03 2.630865478515625000e+01 9.588830471038818359e-01 3.555665537714958191e-02 4.649772495031356812e-02 2.461631409823894501e-02 -9.373379498720169067e-02
4.903000000000000000e+03 2.633842658996582031e+01 8.784570097923278809e-01 -1.040681544691324234e-02 4.439179971814155579e-02 1.019549556076526642e-02 -8.489122241735458374e-02
4.904000000000000000e+03 2.510928726196289062e+01 5.076749920845031738e-01 -3.415863811969757080e-01 -1.311775892972946167e-01 -1.418291926383972168e-01 1.781249344348907471e-01
4.905000000000000000e+03 2.614974594116210938e+01 8.036559820175170898e-01 -2.751226536929607391e-02 -7.388423196971416473e-03 -1.047020684927701950e-02 -6.634278595447540283e-02
4.906000000000000000e+03 2.591700744628906250e+01 8.839657902717590332e-01 -1.303149107843637466e-02 -5.545183643698692322e-02 -2.054499834775924683e-02 -4.034737125039100647e-02
4.907000000000000000e+03 2.556867980957031250e+01 7.764952182769775391e-01 -1.270732134580612183e-01 -9.218393266201019287e-02 -6.577714532613754272e-02 4.431812837719917297e-02
4.908000000000000000e+03 3.925119400024414062e+01 3.659583628177642822e-01 -3.384027779102325439e-01 -6.725532561540603638e-02 -1.216974332928657532e-01 2.354578971862792969e-01
4.909000000000000000e+03 3.926422500610351562e+01 -6.637467443943023682e-02 -8.012871146202087402e-01 -1.255456954240798950e-01 -2.780498266220092773e-01 5.508950352668762207e-01
4.910000000000000000e+03 3.853815841674804688e+01 8.006714582443237305e-01 -3.405463993549346924e-01 -1.046974025666713715e-02 -1.053048446774482727e-01 5.889398604631423950e-02
4.911000000000000000e+03 3.856700515747070312e+01 2.940661311149597168e-01 -7.777571678161621094e-01 4.260316491127014160e-02 -2.205462008714675903e-01 3.026747107505798340e-01
4.912000000000000000e+03 3.863258743286132812e+01 -1.873374730348587036e-01 -1.150228738784790039e+00 1.020394936203956604e-01 -3.144567608833312988e-01 5.172464847564697266e-01
4.913000000000000000e+03 3.940476989746093750e+01 9.400728940963745117e-01 -3.211668133735656738e-02 1.618174836039543152e-02 -4.780479706823825836e-03 3.393731266260147095e-02
4.914000000000000000e+03 4.009798812866210938e+01 4.773842692375183105e-01 1.103253960609436035e-01 3.361116722226142883e-02 4.318096861243247986e-02 -9.370796382427215576e-02
4.915000000000000000e+03 3.978098297119140625e+01 1.255261451005935669e-01 -2.157663553953170776e-01 -3.056952059268951416e-01 -1.564384698867797852e-01 3.024045526981353760e-01
4.916000000000000000e+03 2.643321990966796875e+01 -4.614933729171752930e-01 9.145916700363159180e-01 6.226693466305732727e-02 2.930575609207153320e-01 2.529508769512176514e-01
4.917000000000000000e+03 2.662815284729003906e+01 -4.212739467620849609e-01 3.466449975967407227e-01 3.325973078608512878e-02 1.139714196324348450e-01 1.101850196719169617e-01
4.918000000000000000e+03 2.682308387756347656e+01 -3.810544908046722412e-01 1.560037732124328613e-01 1.615015603601932526e-02 5.164618045091629028e-02 5.906563997268676758e-02
4.919000000000000000e+03 2.701801681518554688e+01 -3.408350646495819092e-01 7.111804932355880737e-02 1.325837429612874985e-02 2.531292662024497986e-02 3.426312282681465149e-02
4.920000000000000000e+03 2.641584777832031250e+01 -4.056465029716491699e-01 4.967881143093109131e-01 1.503384113311767578e-01 1.941379606723785400e-01 3.615809082984924316e-01
4.921000000000000000e+03 2.659919929504394531e+01 -3.281958401203155518e-01 2.146404981613159180e-01 1.304946541786193848e-01 1.035405397415161133e-01 2.026662826538085938e-01
4.922000000000000000e+03 2.678255081176757812e+01 -2.507451474666595459e-01 8.569482713937759399e-02 6.295371055603027344e-02 4.459455981850624084e-02 1.183312460780143738e-01
4.923000000000000000e+03 2.696590232849121094e+01 -1.732944548130035400e-01 2.964540384709835052e-02 5.521363765001296997e-02 2.545771189033985138e-02 7.029068470001220703e-02
4.924000000000000000e+03 2.638792037963867188e+01 -3.542579412460327148e-01 1.988861709833145142e-01 2.283515334129333496e-01 1.281713098287582397e-01 3.582284152507781982e-01
4.925000000000000000e+03 2.655265426635742188e+01 -2.425482273101806641e-01 3.600353375077247620e-02 1.856862157583236694e-01 6.650692969560623169e-02 1.924142837524414062e-01
4.926000000000000000e+03 2.671738815307617188e+01 -1.308384984731674194e-01 -1.640176028013229370e-02 1.324822604656219482e-01 3.482414782047271729e-02 1.299686282873153687e-01
4.927000000000000000e+03 2.688212394714355469e+01 -1.912877708673477173e-02 -3.684331476688385010e-02 9.591709822416305542e-02 1.772213540971279144e-02 7.328189164400100708e-02
4.928000000000000000e+03 2.635051155090332031e+01 -3.092997670173645020e-01 -4.654980078339576721e-02 2.601589560508728027e-01 6.408274173736572266e-02 2.782016396522521973e-01
4.929000000000000000e+03 2.649030685424804688e+01 -1.676179021596908569e-01 -9.564196318387985229e-02 1.987023353576660156e-01 3.091811388731002808e-02 1.420555114746093750e-01
4.930000000000000000e+03 2.663010215759277344e+01 -2.593605220317840576e-02 -1.160851344466209412e-01 1.568664163351058960e-01 1.223438419401645660e-02 8.823154121637344360e-02
4.931000000000000000e+03 2.676989746093750000e+01 1.157457977533340454e-01 -1.028308868408203125e-01 1.315833479166030884e-01 8.625735528767108917e-03 4.719876497983932495e-02
4.932000000000000000e+03 2.630505752563476562e+01 -2.724972069263458252e-01 -2.007620036602020264e-01 2.207058668136596680e-01 5.983160343021154404e-03 1.537868082523345947e-01
4.933000000000000000e+03 2.641454887390136719e+01 -1.062803491950035095e-01 -1.926324665546417236e-01 1.521781980991363525e-01 -1.213627960532903671e-02 7.596652954816818237e-02
4.934000000000000000e+03 2.652403831481933594e+01 5.993652343750000000e-02 -1.791297197341918945e-01 1.446278691291809082e-01 -1.035055704414844513e-02 3.275638818740844727e-02
4.935000000000000000e+03 2.663352775573730469e+01 2.261533886194229126e-01 -1.487081199884414673e-01 1.224968731403350830e-01 -7.863372564315795898e-03 3.048903541639447212e-03
4.936000000000000000e+03 2.625329971313476562e+01 -2.452626526355743408e-01 -2.779409885406494141e-01 7.403805106878280640e-02 -6.117088347673416138e-02 4.694249853491783142e-02
4.937000000000000000e+03 2.632828330993652344e+01 -6.088940799236297607e-02 -2.378475219011306763e-01 7.371616363525390625e-02 -4.923940449953079224e-02 1.416322682052850723e-02
4.938000000000000000e+03 2.640326881408691406e+01 1.234838366508483887e-01 -2.192014902830123901e-01 7.332062721252441406e-02 -4.376425966620445251e-02 -1.083883829414844513e-02
4.939000000000000000e+03 2.647825241088867188e+01 3.078570663928985596e-01 -1.659805774688720703e-01 8.686463534832000732e-02 -2.373478189110755920e-02 -3.886466845870018005e-02
4.940000000000000000e+03 2.619722366333007812e+01 -2.286412119865417480e-01 -2.700839340686798096e-01 -1.216885671019554138e-01 -1.175317540764808655e-01 -9.589701890945434570e-03
4.941000000000000000e+03 2.623482513427734375e+01 -3.318699449300765991e-02 -2.732574045658111572e-01 -5.753909051418304443e-02 -9.923895448446273804e-02 -5.613963585346937180e-03
4.942000000000000000e+03 2.627242660522460938e+01 1.622672230005264282e-01 -2.207285463809967041e-01 -1.193772815167903900e-02 -6.979988515377044678e-02 -3.773712739348411560e-02
4.943000000000000000e+03 2.631002807617187500e+01 3.577214479446411133e-01 -1.856817305088043213e-01 2.949818503111600876e-03 -5.481957271695137024e-02 -5.060054361820220947e-02
4.944000000000000000e+03 2.613898468017578125e+01 -2.232707291841506958e-01 -2.731261551380157471e-01 -3.533567786216735840e-01 -1.879448741674423218e-01 3.290242329239845276e-02
4.945000000000000000e+03 2.613776016235351562e+01 -2.423619106411933899e-02 -2.727873623371124268e-01 -1.859842389822006226e-01 -1.376314759254455566e-01 9.357776492834091187e-03
4.946000000000000000e+03 2.613653564453125000e+01 1.747983545064926147e-01 -2.463237047195434570e-01 -1.262246817350387573e-01 -1.117645204067230225e-01 -1.703042350709438324e-02
4.947000000000000000e+03 2.613531112670898438e+01 3.738328814506530762e-01 -1.783463209867477417e-01 -7.348985224962234497e-02 -7.555085420608520508e-02 -3.790691122412681580e-02
4.948000000000000000e+03 2.608081626892089844e+01 -2.293573021888732910e-01 -2.761265039443969727e-01 -5.346759557723999023e-01 -2.432407438755035400e-01 1.520827710628509521e-01
4.949000000000000000e+03 2.604081344604492188e+01 -3.438049182295799255e-02 -3.231017887592315674e-01 -3.138315081596374512e-01 -1.910799890756607056e-01 7.926614582538604736e-02
4.950000000000000000e+03 2.600080871582031250e+01 1.605963259935379028e-01 -2.590224444866180420e-01 -2.190499454736709595e-01 -1.434217244386672974e-01 3.183153644204139709e-02
4.951000000000000000e+03 2.596080589294433594e+01 3.555731475353240967e-01 -2.114012688398361206e-01 -1.646353453397750854e-01 -1.128109842538833618e-01 1.822726614773273468e-02
4.952000000000000000e+03 2.602495002746582031e+01 -2.466673702001571655e-01 -3.884433209896087646e-01 -6.471239328384399414e-01 -3.106701672077178955e-01 3.285555541515350342e-01
4.953000000000000000e+03 2.594770240783691406e+01 -6.323059648275375366e-02 -3.795902431011199951e-01 -3.964460492134094238e-01 -2.328108847141265869e-01 1.766873151063919067e-01
4.954000000000000000e+03 2.587045478820800781e+01 1.202061772346496582e-01 -3.387001752853393555e-01 -2.919427752494812012e-01 -1.891928762197494507e-01 1.186021342873573303e-01
4.955000000000000000e+03 2.579320716857910156e+01 3.036429584026336670e-01 -2.526490092277526855e-01 -2.267805337905883789e-01 -1.438288539648056030e-01 8.047336339950561523e-02
4.956000000000000000e+03 2.597352981567382812e+01 -2.745366394519805908e-01 -5.583956837654113770e-01 -6.575076580047607422e-01 -3.647710084915161133e-01 5.086158514022827148e-01
4.957000000000000000e+03 2.586200332641601562e+01 -1.096793785691261292e-01 -5.218706130981445312e-01 -4.303736984729766846e-01 -2.856732904911041260e-01 2.885666191577911377e-01
4.958000000000000000e+03 2.575047492980957031e+01 5.517788231372833252e-02 -4.304384887218475342e-01 -3.271507918834686279e-01 -2.272767871618270874e-01 2.100598365068435669e-01
4.959000000000000000e+03 2.563894844055175781e+01 2.200351357460021973e-01 -3.769712150096893311e-01 -2.477690279483795166e-01 -1.874220818281173706e-01 1.665309220552444458e-01
4.960000000000000000e+03 2.592853164672851562e+01 -3.118956089019775391e-01 -8.206037878990173340e-01 -5.900831222534179688e-01 -4.232060909271240234e-01 6.410392522811889648e-01
4.961000000000000000e+03 2.578700256347656250e+01 -1.719443351030349731e-01 -6.952725648880004883e-01 -4.146898090839385986e-01 -3.329887092113494873e-01 3.969358503818511963e-01
4.962000000000000000e+03 2.564547729492187500e+01 -3.199306875467300415e-02 -6.067143678665161133e-01 -3.039182424545288086e-01 -2.731897830963134766e-01 2.873063981533050537e-01
4.963000000000000000e+03 2.550395011901855469e+01 1.079582050442695618e-01 -5.020729303359985352e-01 -2.484756559133529663e-01 -2.251645773649215698e-01 2.378286719322204590e-01
4.964000000000000000e+03 2.589167785644531250e+01 -3.573106229305267334e-01 -1.123917222023010254e+00 -4.784618914127349854e-01 -4.807137250900268555e-01 7.017910480499267578e-01
4.965000000000000000e+03 2.572558212280273438e+01 -2.476360350847244263e-01 -9.092463254928588867e-01 -3.517520427703857422e-01 -3.782995045185089111e-01 4.696937501430511475e-01
4.966000000000000000e+03 2.555948638916015625e+01 -1.379614472389221191e-01 -8.233810067176818848e-01 -2.514273822307586670e-01 -3.224425315856933594e-01 3.569936752319335938e-01
4.967000000000000000e+03 2.539339256286621094e+01 -2.828685194253921509e-02 -7.139131426811218262e-01 -1.753089427947998047e-01 -2.667666375637054443e-01 2.592352032661437988e-01
4.968000000000000000e+03 2.586438560485839844e+01 -4.090388715267181396e-01 -1.409912467002868652e+00 -3.501979708671569824e-01 -5.280331373214721680e-01 6.939987540245056152e-01
4.969000000000000000e+03 2.568009567260742188e+01 -3.338497877120971680e-01 -1.164026141166687012e+00 -2.757066488265991211e-01 -4.319198429584503174e-01 4.922541677951812744e-01
4.970000000000000000e+03 2.549580574035644531e+01 -2.586606740951538086e-01 -1.036652207374572754e+00 -1.645381450653076172e-01 -3.603571057319641113e-01 3.882093429565429688e-01
4.971000000000000000e+03 2.531151580810546875e+01 -1.834715753793716431e-01 -9.975011944770812988e-01 -9.486945718526840210e-02 -3.277111947536468506e-01 2.999293804168701172e-01
4.972000000000000000e+03 2.584770202636718750e+01 -4.650952517986297607e-01 -1.681361794471740723e+00 -2.704985141754150391e-01 -5.855580568313598633e-01 6.206644773483276367e-01
4.973000000000000000e+03 2.565229034423828125e+01 -4.272770583629608154e-01 -1.406163811683654785e+00 -1.724138855934143066e-01 -4.735733270645141602e-01 4.722896516323089600e-01
4.974000000000000000e+03 2.545687675476074219e+01 -3.894588649272918701e-01 -1.273139119148254395e+00 -9.272377192974090576e-02 -4.097588956356048584e-01 3.611973822116851807e-01
4.975000000000000000e+03 2.526146507263183594e+01 -3.516406714916229248e-01 -1.181613683700561523e+00 -2.710140123963356018e-02 -3.626145124435424805e-01 3.147605359554290771e-01
4.976000000000000000e+03 2.584226799011230469e+01 -5.233285427093505859e-01 -1.894092202186584473e+00 -2.066117376089096069e-01 -6.302111744880676270e-01 5.302335619926452637e-01
4.977000000000000000e+03 2.564323234558105469e+01 -5.243325233459472656e-01 -1.651515483856201172e+00 -1.017549410462379456e-01 -5.259811282157897949e-01 3.927999734878540039e-01
4.978000000000000000e+03 2.544419670104980469e+01 -5.253365635871887207e-01 -1.479832291603088379e+00 -1.695607416331768036e-02 -4.490365087985992432e-01 2.923108041286468506e-01
4.979000000000000000e+03 2.524516105651855469e+01 -5.263405442237854004e-01 -1.327902674674987793e+00 1.539004594087600708e-02 -3.937537968158721924e-01 2.195114493370056152e-01
4.980000000000000000e+03 2.584828948974609375e+01 -5.815040469169616699e-01 -2.081071138381958008e+00 -2.022581398487091064e-01 -6.849988102912902832e-01 4.269715845584869385e-01
4.981000000000000000e+03 2.565326881408691406e+01 -6.212916970252990723e-01 -1.860370278358459473e+00 -3.258851170539855957e-02 -5.678876042366027832e-01 2.856794297695159912e-01
4.982000000000000000e+03 2.545824813842773438e+01 -6.610794067382812500e-01 -1.673873066902160645e+00 1.417808514088392258e-02 -4.979085028171539307e-01 1.629342883825302124e-01
4.983000000000000000e+03 2.526322746276855469e+01 -7.008671164512634277e-01 -1.491653084754943848e+00 7.685278356075286865e-02 -4.244400858879089355e-01 6.680870056152343750e-02
4.984000000000000000e+03 2.586553764343261719e+01 -6.373892426490783691e-01 -2.243844509124755859e+00 -1.980069130659103394e-01 -7.325553894042968750e-01 3.343785107135772705e-01
4.985000000000000000e+03 2.568201637268066406e+01 -7.144337892532348633e-01 -2.032947778701782227e+00 -2.226559072732925415e-02 -6.165640354156494141e-01 1.474387645721435547e-01
4.986000000000000000e+03 2.549849319458007812e+01 -7.914782762527465820e-01 -1.836624145507812500e+00 4.251285269856452942e-02 -5.382333993911743164e-01 1.936718821525573730e-02
4.987000000000000000e+03 2.531497192382812500e+01 -8.685227036476135254e-01 -1.705945730209350586e+00 9.324521571397781372e-02 -4.838101565837860107e-01 -9.839850664138793945e-02
4.988000000000000000e+03 2.589335060119628906e+01 -6.888395547866821289e-01 -2.387721538543701172e+00 -2.081866413354873657e-01 -7.787724137306213379e-01 2.355905324220657349e-01
4.989000000000000000e+03 2.572836875915527344e+01 -8.001842498779296875e-01 -2.169509410858154297e+00 -4.876211285591125488e-02 -6.654814481735229492e-01 1.457698270678520203e-02
4.990000000000000000e+03 2.556338882446289062e+01 -9.115288853645324707e-01 -1.965041399002075195e+00 2.959798276424407959e-02 -5.806330442428588867e-01 -1.361124664545059204e-01
4.991000000000000000e+03 2.539840888977050781e+01 -1.022873520851135254e+00 -1.858144283294677734e+00 7.312726974487304688e-02 -5.355051159858703613e-01 -2.056035548448562622e-01
4.992000000000000000e+03 2.593066024780273438e+01 -7.338804602622985840e-01 -2.549009084701538086e+00 -2.519224584102630615e-01 -8.402794599533081055e-01 1.453422158956527710e-01
4.993000000000000000e+03 2.579055213928222656e+01 -8.752524256706237793e-01 -2.232063055038452148e+00 -1.042207702994346619e-01 -7.008851766586303711e-01 -1.256897896528244019e-01
4.994000000000000000e+03 2.565044403076171875e+01 -1.016624450683593750e+00 -2.077786445617675781e+00 -3.103657625615596771e-02 -6.326468586921691895e-01 -2.316195815801620483e-01
4.995000000000000000e+03 2.551033592224121094e+01 -1.157996416091918945e+00 -1.910116910934448242e+00 1.883483305573463440e-02 -5.673846006393432617e-01 -3.397549390792846680e-01
4.996000000000000000e+03 2.597603416442871094e+01 -7.707836031913757324e-01 -2.615223884582519531e+00 -2.889138758182525635e-01 -8.712412714958190918e-01 2.664870209991931915e-02
4.997000000000000000e+03 2.586617469787597656e+01 -9.367576241493225098e-01 -2.329872608184814453e+00 -2.159899920225143433e-01 -7.637587785720825195e-01 -2.055137455463409424e-01
4.998000000000000000e+03 2.575631713867187500e+01 -1.102731585502624512e+00 -2.071958303451538086e+00 -1.249989122152328491e-01 -6.590871214866638184e-01 -3.314314484596252441e-01
4.999000000000000000e+03 2.564645767211914062e+01 -1.268705606460571289e+00 -1.985660910606384277e+00 -5.223098769783973694e-02 -6.113675832748413086e-01 -3.826586604118347168e-01
5.000000000000000000e+03 2.602773094177246094e+01 -7.981326580047607422e-01 -2.748592853546142578e+00 -4.078362286090850830e-01 -9.469286799430847168e-01 -5.809180438518524170e-02
5.001000000000000000e+03 2.595233917236328125e+01 -9.823395013809204102e-01 -2.297858953475952148e+00 -3.177616596221923828e-01 -7.846862077713012695e-01 -2.652989923954010010e-01
5.002000000000000000e+03 2.587694549560546875e+01 -1.166546225547790527e+00 -2.160009145736694336e+00 -2.476180791854858398e-01 -7.222881913185119629e-01 -3.692046701908111572e-01
5.003000000000000000e+03 2.580155181884765625e+01 -1.350752949714660645e+00 -1.894640445709228516e+00 -1.909554451704025269e-01 -6.256787776947021484e-01 -4.272359609603881836e-01
5.004000000000000000e+03 2.608376884460449219e+01 -8.148782849311828613e-01 -2.709800958633422852e+00 -5.188367962837219238e-01 -9.685913324356079102e-01 -1.125950291752815247e-01
5.005000000000000000e+03 2.604573440551757812e+01 -1.010248780250549316e+00 -2.399670839309692383e+00 -4.512933492660522461e-01 -8.552892208099365234e-01 -2.669495940208435059e-01
5.006000000000000000e+03 2.600769996643066406e+01 -1.205619215965270996e+00 -2.112062931060791016e+00 -3.442657887935638428e-01 -7.368986606597900391e-01 -3.680547773838043213e-01
5.007000000000000000e+03 2.596966552734375000e+01 -1.400989651679992676e+00 -1.992711424827575684e+00 -3.309908509254455566e-01 -6.971107125282287598e-01 -4.814274013042449951e-01
5.008000000000000000e+03 2.614199638366699219e+01 -8.203776478767395020e-01 -2.792466640472412109e+00 -6.883736252784729004e-01 -1.044252038002014160e+00 -1.085832118988037109e-01
5.009000000000000000e+03 2.614278030395507812e+01 -1.019414424896240234e+00 -2.389168739318847656e+00 -5.202638506889343262e-01 -8.728297352790832520e-01 -2.127562761306762695e-01
5.010000000000000000e+03 2.614356422424316406e+01 -1.218451261520385742e+00 -2.221630573272705078e+00 -4.514702260494232178e-01 -8.019301891326904297e-01 -3.475272357463836670e-01
5.011000000000000000e+03 2.614434814453125000e+01 -1.417487978935241699e+00 -2.025165319442749023e+00 -3.562083542346954346e-01 -7.144120931625366211e-01 -4.459252655506134033e-01
5.012000000000000000e+03 2.620017814636230469e+01 -8.144198656082153320e-01 -2.783830881118774414e+00 -7.768179178237915039e-01 -1.068194627761840820e+00 -1.046439260244369507e-02
5.013000000000000000e+03 2.623974990844726562e+01 -1.009484767913818359e+00 -2.528700828552246094e+00 -5.926871895790100098e-01 -9.364164471626281738e-01 -1.465197801589965820e-01
5.014000000000000000e+03 2.627932167053222656e+01 -1.204549789428710938e+00 -2.279415130615234375e+00 -4.634971618652343750e-01 -8.228736519813537598e-01 -2.743854820728302002e-01
5.015000000000000000e+03 2.631889343261718750e+01 -1.399614572525024414e+00 -2.157020807266235352e+00 -4.020498394966125488e-01 -7.677212357521057129e-01 -3.748047053813934326e-01
5.016000000000000000e+03 2.625608253479003906e+01 -7.972335815429687500e-01 -2.931580781936645508e+00 -8.374122381210327148e-01 -1.130697965621948242e+00 1.160753443837165833e-01
5.017000000000000000e+03 2.633292388916015625e+01 -9.808409214019775391e-01 -2.634439706802368164e+00 -5.614084005355834961e-01 -9.587544202804565430e-01 -4.868361726403236389e-02
5.018000000000000000e+03 2.640976524353027344e+01 -1.164448261260986328e+00 -2.460912466049194336e+00 -4.713731408119201660e-01 -8.796856999397277832e-01 -1.992950439453125000e-01
5.019000000000000000e+03 2.648660659790039062e+01 -1.348055601119995117e+00 -2.258405923843383789e+00 -3.831785321235656738e-01 -7.924753427505493164e-01 -2.916506230831146240e-01
5.020000000000000000e+03 2.630756378173828125e+01 -7.694782018661499023e-01 -3.106887817382812500e+00 -7.471345067024230957e-01 -1.156206727027893066e+00 2.671936452388763428e-01
5.021000000000000000e+03 2.641872596740722656e+01 -9.345819354057312012e-01 -2.850481033325195312e+00 -5.145359039306640625e-01 -1.009505033493041992e+00 1.608733646571636200e-02
5.022000000000000000e+03 2.652988815307617188e+01 -1.099685668945312500e+00 -2.620776176452636719e+00 -4.015513658523559570e-01 -9.066982865333557129e-01 -1.195522695779800415e-01
5.023000000000000000e+03 2.664105033874511719e+01 -1.264789462089538574e+00 -2.474690437316894531e+00 -3.605342805385589600e-01 -8.505674004554748535e-01 -2.313382327556610107e-01
5.024000000000000000e+03 2.635264587402343750e+01 -7.322189211845397949e-01 -3.407138586044311523e+00 -5.933089852333068848e-01 -1.200134277343750000e+00 3.447980582714080811e-01
5.025000000000000000e+03 2.649386215209960938e+01 -8.724831342697143555e-01 -3.055564403533935547e+00 -3.897196948528289795e-01 -1.033585309982299805e+00 5.511595308780670166e-02
5.026000000000000000e+03 2.663508033752441406e+01 -1.012747406959533691e+00 -2.847865104675292969e+00 -3.295685648918151855e-01 -9.532300829887390137e-01 -8.428090065717697144e-02
5.027000000000000000e+03 2.677629661560058594e+01 -1.153011679649353027e+00 -2.683005809783935547e+00 -2.858311235904693604e-01 -8.906511068344116211e-01 -1.854380071163177490e-01
5.028000000000000000e+03 2.638959884643554688e+01 -6.868855953216552734e-01 -3.718682289123535156e+00 -3.495689928531646729e-01 -1.220475435256958008e+00 3.257383406162261963e-01
5.029000000000000000e+03 2.655545234680175781e+01 -7.969276309013366699e-01 -3.290593624114990234e+00 -2.693439424037933350e-01 -1.067981243133544922e+00 2.649314142763614655e-02
5.030000000000000000e+03 2.672130393981933594e+01 -9.069696068763732910e-01 -3.048874855041503906e+00 -2.294889390468597412e-01 -9.835091829299926758e-01 -8.643057197332382202e-02
5.031000000000000000e+03 2.688715744018554688e+01 -1.017011642456054688e+00 -2.920145511627197266e+00 -1.996579170227050781e-01 -9.359410405158996582e-01 -1.737229973077774048e-01
5.032000000000000000e+03 2.641700553894042969e+01 -6.352178454399108887e-01 -4.000289916992187500e+00 -1.236792877316474915e-01 -1.237190723419189453e+00 1.749022305011749268e-01
5.033000000000000000e+03 2.660112953186035156e+01 -7.108147740364074707e-01 -3.484061241149902344e+00 -1.542604714632034302e-01 -1.091496586799621582e+00 -5.270677059888839722e-02
5.034000000000000000e+03 2.678525352478027344e+01 -7.864116430282592773e-01 -3.249095678329467773e+00 -1.375474184751510620e-01 -1.015992879867553711e+00 -1.410551220178604126e-01
5.035000000000000000e+03 2.696937561035156250e+01 -8.620085120201110840e-01 -3.101310968399047852e+00 -1.254169493913650513e-01 -9.680183529853820801e-01 -1.937465369701385498e-01
5.036000000000000000e+03 2.643381309509277344e+01 -5.791985392570495605e-01 -4.178807735443115234e+00 2.272111922502517700e-02 -1.246825933456420898e+00 -8.880238234996795654e-02
5.037000000000000000e+03 2.662914276123046875e+01 -6.174492239952087402e-01 -3.602166175842285156e+00 -8.082162588834762573e-02 -1.104896306991577148e+00 -1.690971851348876953e-01
5.038000000000000000e+03 2.682447052001953125e+01 -6.556999087333679199e-01 -3.418930768966674805e+00 -7.871785759925842285e-02 -1.049294590950012207e+00 -2.073704898357391357e-01
5.039000000000000000e+03 2.701979827880859375e+01 -6.939505934715270996e-01 -3.282189846038818359e+00 -4.103218019008636475e-02 -9.969666004180908203e-01 -2.703975439071655273e-01
5.040000000000000000e+03 2.643937683105468750e+01 -5.209773778915405273e-01 -4.127608299255371094e+00 5.130828171968460083e-02 -1.222890019416809082e+00 -3.620189726352691650e-01
5.041000000000000000e+03 2.663841629028320312e+01 -5.204139947891235352e-01 -3.724818229675292969e+00 -8.288422226905822754e-02 -1.142310738563537598e+00 -2.773233950138092041e-01
5.042000000000000000e+03 2.683745193481445312e+01 -5.198506116867065430e-01 -3.499090909957885742e+00 -5.547382868826389313e-03 -1.051391482353210449e+00 -3.236930668354034424e-01
5.043000000000000000e+03 2.703648948669433594e+01 -5.192871689796447754e-01 -3.416311025619506836e+00 -5.192232131958007812e-02 -1.040470004081726074e+00 -3.141484260559082031e-01
5.044000000000000000e+03 3.784771728515625000e+01 1.573838591575622559e-01 -1.202914237976074219e+00 1.540278345346450806e-01 -3.146659135818481445e-01 2.344996184110641479e-01
5.045000000000000000e+03 3.725452804565429688e+01 -4.614862799644470215e-01 -1.802293896675109863e+00 2.975297272205352783e-01 -4.514292478561401367e-01 3.230033218860626221e-01
5.046000000000000000e+03 3.576796340942382812e+01 -2.034789621829986572e-01 -2.041954278945922852e+00 4.791665449738502502e-02 -5.982112884521484375e-01 -1.427675932645797729e-01
5.047000000000000000e+03 3.773318862915039062e+01 6.399024128913879395e-01 -8.645991086959838867e-01 5.994978547096252441e-02 -2.413948029279708862e-01 1.162779517471790314e-03
5.048000000000000000e+03 3.793711853027343750e+01 -3.290801048278808594e-01 -1.524749398231506348e+00 2.324002832174301147e-01 -3.877047598361968994e-01 4.653550982475280762e-01
5.049000000000000000e+03 3.579476928710937500e+01 1.557014137506484985e-01 -2.104095935821533203e+00 2.474289946258068085e-02 -6.238058805465698242e-01 -2.590871751308441162e-01
5.050000000000000000e+03 3.544619369506835938e+01 -5.567274093627929688e-01 -2.317458868026733398e+00 2.131683975458145142e-01 -6.312870979309082031e-01 -1.244727447628974915e-01
5.051000000000000000e+03 3.542301177978515625e+01 -3.483869433403015137e-01 -2.180810928344726562e+00 7.870454341173171997e-02 -6.306318640708923340e-01 -1.299729645252227783e-01
5.052000000000000000e+03 3.557382965087890625e+01 -9.237620830535888672e-01 -2.377193927764892578e+00 3.064905703067779541e-01 -6.212110519409179688e-01 -5.820384249091148376e-03
5.053000000000000000e+03 3.620565032958984375e+01 -5.708550214767456055e-01 -2.121230840682983398e+00 2.378008067607879639e-01 -5.650290250778198242e-01 1.293197572231292725e-01
5.054000000000000000e+03 3.543449020385742188e+01 -7.468969821929931641e-01 -2.440444469451904297e+00 2.807663083076477051e-01 -6.479034423828125000e-01 -1.008135378360748291e-01
5.055000000000000000e+03 3.575466537475585938e+01 -7.140525579452514648e-01 -2.310470581054687500e+00 2.846502065658569336e-01 -6.077461242675781250e-01 -1.657752878963947296e-02
5.056000000000000000e+03 3.536248397827148438e+01 8.274657279253005981e-02 -2.225246191024780273e+00 -9.414472617208957672e-03 -6.703981757164001465e-01 -2.640955746173858643e-01
5.057000000000000000e+03 3.537422180175781250e+01 -1.330137997865676880e-01 -2.222118377685546875e+00 1.554470416158437729e-02 -6.619720458984375000e-01 -2.945682108402252197e-01
5.058000000000000000e+03 3.720196914672851562e+01 2.339655533432960510e-02 -1.524040222167968750e+00 1.301689743995666504e-01 -4.181613922119140625e-01 1.848499178886413574e-01
5.059000000000000000e+03 3.633927154541015625e+01 3.176230490207672119e-01 -1.859384179115295410e+00 1.116265449672937393e-02 -5.544664859771728516e-01 -1.850354522466659546e-01
5.060000000000000000e+03 3.702178573608398438e+01 4.951345026493072510e-01 -1.376721739768981934e+00 -6.278989370912313461e-03 -4.149002134799957275e-01 -9.124631434679031372e-02
5.061000000000000000e+03 3.670540237426757812e+01 -2.419523298740386963e-01 -1.811310410499572754e+00 1.677813231945037842e-01 -4.930587410926818848e-01 1.469227373600006104e-01
5.062000000000000000e+03 3.540359497070312500e+01 3.248628079891204834e-01 -2.215713262557983398e+00 -4.634850472211837769e-02 -6.786185503005981445e-01 -3.521728813648223877e-01
5.063000000000000000e+03 2.680468750000000000e+01 1.088164567947387695e+00 1.298255920410156250e-01 5.820225179195404053e-02 5.640835314989089966e-02 -8.102607727050781250e-02
5.064000000000000000e+03 3.282873153686523438e+01 1.759412050247192383e+00 1.354514533886685967e-04 -7.205739966593682766e-04 -1.755367557052522898e-04 -1.045233730110339820e-04
5.065000000000000000e+03 3.256165695190429688e+01 1.791955471038818359e+00 5.797490593977272511e-04 7.326744380407035351e-04 3.937270375899970531e-04 -2.790824801195412874e-04
5.066000000000000000e+03 3.268337631225585938e+01 1.737726449966430664e+00 -4.628170572686940432e-04 5.348427221179008484e-04 2.160769872716628015e-05 -1.211099515785463154e-05
5.067000000000000000e+03 3.273002243041992188e+01 1.890288829803466797e+00 1.734152669087052345e-03 2.965574676636606455e-04 6.092130206525325775e-04 -6.398063269443809986e-04
5.068000000000000000e+03 3.914461517333984375e+01 2.359752893447875977e+00 1.303285243920981884e-03 -5.537447286769747734e-04 2.248621458420529962e-04 -2.610963128972798586e-04
5.069000000000000000e+03 3.842591857910156250e+01 1.450954198837280273e+00 2.536185784265398979e-04 4.393580311443656683e-04 2.078929828712716699e-04 -3.194187011104077101e-04
5.070000000000000000e+03 3.827068328857421875e+01 2.174587726593017578e+00 -4.452780704014003277e-04 -2.273529025842435658e-05 -1.404040085617452860e-04 2.541521680541336536e-04
5.071000000000000000e+03 3.930421447753906250e+01 1.637129545211791992e+00 -1.498252968303859234e-03 -9.095919667743146420e-04 -7.223534630611538887e-04 1.010552747175097466e-03
5.072000000000000000e+03 3.970756530761718750e+01 2.307757139205932617e+00 1.658543245866894722e-03 1.950696110725402832e-03 1.082771806977689266e-03 -7.304261671379208565e-04
5.073000000000000000e+03 3.532656478881835938e+01 1.218266010284423828e+00 1.549978042021393776e-03 -2.323338558198884130e-04 3.952932602260261774e-04 -5.250838512438349426e-05
5.074000000000000000e+03 3.516021347045898438e+01 1.843163371086120605e+00 9.871487272903323174e-04 1.694820093689486384e-04 3.469892253633588552e-04 1.497246848884969950e-04
5.075000000000000000e+03 3.509786987304687500e+01 1.261741042137145996e+00 -4.254920058883726597e-04 -2.328331611352041364e-04 -1.974975457414984703e-04 -6.988309905864298344e-04
5.076000000000000000e+03 3.551464080810546875e+01 1.057103157043457031e+00 -5.715709412470459938e-04 -5.407026037573814392e-04 -3.336820809636265039e-04 7.733645616099238396e-04
5.077000000000000000e+03 3.518862915039062500e+01 9.300561547279357910e-01 1.570078325130452868e-06 2.245055220555514097e-04 6.782267882954329252e-05 -3.768263850361108780e-04
5.078000000000000000e+03 3.561892700195312500e+01 7.942531704902648926e-01 -6.148720276542007923e-04 -2.753280859906226397e-04 -2.670600370038300753e-04 1.292268134420737624e-04
5.079000000000000000e+03 3.683752059936523438e+01 1.132660150527954102e+00 -7.021264900686219335e-05 9.003035665955394506e-05 5.945311841060174629e-06 -1.583436969667673111e-04
5.080000000000000000e+03 3.744252777099609375e+01 2.003676176071166992e+00 2.320116036571562290e-04 2.155207475880160928e-04 1.342597097391262650e-04 -1.673679944360628724e-04
5.081000000000000000e+03 3.758993148803710938e+01 1.278456091880798340e+00 -1.022716751322150230e-04 -3.241069789510220289e-04 -1.279136049561202526e-04 1.543584512546658516e-04
5.082000000000000000e+03 3.510199737548828125e+01 1.635613560676574707e+00 -4.302331362850964069e-04 2.676658332347869873e-04 -4.877019091509282589e-05 8.690859249327331781e-05
5.083000000000000000e+03 3.585155868530273438e+01 1.316713333129882812e+00 1.659895759075880051e-03 3.862938319798558950e-04 6.138568860478699207e-04 -1.500995567766949534e-04
5.084000000000000000e+03 3.670141983032226562e+01 1.860043287277221680e+00 3.206617548130452633e-04 -1.992074685404077172e-04 3.643628588179126382e-05 2.837540814653038979e-04
5.085000000000000000e+03 3.535565185546875000e+01 5.763555169105529785e-01 4.493035667110234499e-04 3.958566958317533135e-05 1.466667599743232131e-04 -1.014897643472068012e-04
5.086000000000000000e+03 3.511064147949218750e+01 1.445441007614135742e+00 4.995317431166768074e-04 3.963880590163171291e-04 2.687759406398981810e-04 2.889083407353609800e-05
5.087000000000000000e+03 3.613363647460937500e+01 9.247913360595703125e-01 -1.638879475649446249e-04 8.482154225930571556e-05 -2.371992377447895706e-05 3.526976070133969188e-05
5.088000000000000000e+03 3.546948623657226562e+01 1.730145692825317383e+00 1.679464476183056831e-04 -4.582582041621208191e-04 -8.709353278391063213e-05 -8.300660556415095925e-05
5.089000000000000000e+03 3.545494842529296875e+01 1.439249277114868164e+00 -6.792756030336022377e-04 -7.545092958025634289e-04 -4.301354638300836086e-04 -4.729056963697075844e-04
5.090000000000000000e+03 3.598669815063476562e+01 1.795895457267761230e+00 -9.813131764531135559e-04 2.254695136798545718e-04 -2.267531090183183551e-04 -7.910283602541312575e-05
5.091000000000000000e+03 3.523711776733398438e+01 7.485983967781066895e-01 -1.696298859314993024e-04 2.922870044130831957e-04 3.679714063764549792e-05 -1.185918226838111877e-04
5.092000000000000000e+03 3.512268447875976562e+01 1.098272919654846191e+00 -2.099554985761642456e-04 7.654085493413731456e-06 -6.069042137823998928e-05 8.730369154363870621e-04
5.093000000000000000e+03 7.138031005859375000e+01 -1.674990081787109375e+01 3.243157116230577230e-04 -1.405924413120374084e-04 5.511698327609337866e-05 1.071584119927138090e-04
5.094000000000000000e+03 7.211955261230468750e+01 -1.671120262145996094e+01 4.160142561886459589e-04 8.456227806163951755e-05 1.501729566371068358e-04 3.619156996137462556e-05
5.095000000000000000e+03 7.071197509765625000e+01 -1.752739334106445312e+01 2.389964647591114044e-04 -1.148882583947852254e-04 3.723246481968089938e-05 2.435911592328920960e-04
5.096000000000000000e+03 7.287363433837890625e+01 -1.741421890258789062e+01 3.526233776938170195e-04 5.169186624698340893e-05 1.212945717270486057e-04 2.891306394303683192e-05
5.097000000000000000e+03 7.215311431884765625e+01 -1.745045852661132812e+01 3.236742631997913122e-04 -1.696306717349216342e-04 4.621308107743971050e-05 1.309440704062581062e-04
5.098000000000000000e+03 7.143251037597656250e+01 -1.748818206787109375e+01 2.894113131333142519e-04 1.002308054012246430e-04 1.168926391983404756e-04 9.145676449406892061e-05
5.099000000000000000e+03 7.285870361328125000e+01 -1.667398834228515625e+01 4.559325461741536856e-04 -8.442233229288831353e-05 1.114530605264008045e-04 3.139818363706581295e-05
5.100000000000000000e+03 7.064115142822265625e+01 -1.679008674621582031e+01 2.074043732136487961e-04 2.102490834658965468e-04 1.252960355486720800e-04 2.097803007927723229e-05
5.101000000000000000e+03 7.509190368652343750e+01 -1.672233772277832031e+01 4.334407276473939419e-04 -7.449993972841184586e-07 1.298087154282256961e-04 -5.580295692197978497e-05
5.102000000000000000e+03 7.507875823974609375e+01 -1.746236038208007812e+01 3.361905692145228386e-04 -5.953637082711793482e-05 8.299626642838120461e-05 -4.824661300517618656e-05
5.103000000000000000e+03 7.583750152587890625e+01 -1.675157546997070312e+01 3.764257708098739386e-04 2.402666541456710547e-05 1.201357372337952256e-04 -4.142228863202035427e-05
5.104000000000000000e+03 7.360292816162109375e+01 -1.740974807739257812e+01 4.090221482329070568e-04 -1.269262284040451050e-04 8.462878031423315406e-05 1.887676626211032271e-05
5.105000000000000000e+03 7.434651947021484375e+01 -1.669533538818359375e+01 4.845284856855869293e-04 -4.286307739675976336e-05 1.324996264884248376e-04 -1.547025203763041645e-05
5.106000000000000000e+03 7.581685638427734375e+01 -1.749131965637207031e+01 2.706228406168520451e-04 -5.458518899104092270e-06 7.954929606057703495e-05 -1.389268145430833101e-04
5.107000000000000000e+03 7.434088134765625000e+01 -1.743563652038574219e+01 3.180808562319725752e-04 1.481928939028875902e-05 9.987004887079820037e-05 -7.105839904397726059e-05
5.108000000000000000e+03 7.360105895996093750e+01 -1.666916847229003906e+01 4.581016255542635918e-04 4.235595770296640694e-05 1.501372753409668803e-04 -7.401229140668874606e-06
5.109000000000000000e+03 7.968632507324218750e+01 -1.742419242858886719e+01 9.691201557870954275e-05 1.006621241685934365e-04 5.927224265178665519e-05 3.356453089509159327e-05
5.110000000000000000e+03 7.850669860839843750e+01 -1.755505180358886719e+01 2.023038541665300727e-05 3.842568548861891031e-05 1.759682163537945598e-05 -7.919222116470336914e-05
5.111000000000000000e+03 7.652082824707031250e+01 -1.751028823852539062e+01 2.137830742867663503e-04 1.234529918292537332e-06 6.450527871493250132e-05 -1.288326748181134462e-04
5.112000000000000000e+03 7.873721313476562500e+01 -1.681438636779785156e+01 4.904593515675514936e-05 3.531133552314713597e-05 2.530718120397068560e-05 -1.167958726000506431e-05
5.113000000000000000e+03 7.785486602783203125e+01 -1.753419113159179688e+01 1.278207200812175870e-04 5.247044464340433478e-05 5.408734796219505370e-05 -1.405668590450659394e-04
5.114000000000000000e+03 7.802648925781250000e+01 -1.679383087158203125e+01 8.386166882701218128e-05 -1.865369267761707306e-05 1.956239248102065176e-05 -3.746301081264391541e-05
5.115000000000000000e+03 7.718931579589843750e+01 -1.751985740661621094e+01 1.716166443657130003e-04 -1.120913475460838526e-05 4.812225233763456345e-05 -1.211899725603871047e-04
5.116000000000000000e+03 7.657466888427734375e+01 -1.677053260803222656e+01 2.845359267666935921e-04 -4.243078728904947639e-05 7.263154111569747329e-05 -5.948692705715075135e-05
5.117000000000000000e+03 7.909966278076171875e+01 -1.758989524841308594e+01 1.534826878923922777e-04 -1.451967273169429973e-05 4.168890518485568464e-05 -3.775188088184222579e-05
5.118000000000000000e+03 7.938906860351562500e+01 -1.684892654418945312e+01 -1.038231348502449691e-04 -7.098554488038644195e-05 -5.244260682957246900e-05 -9.257874626200646162e-05
5.119000000000000000e+03 7.730204772949218750e+01 -1.677979850769042969e+01 1.825441577238962054e-04 4.452371649676933885e-05 6.812036735936999321e-05 -5.702332782675512135e-05
5.120000000000000000e+03 7.943219757080078125e+01 -1.525699043273925781e+01 -5.029403138905763626e-03 -3.040046794922091067e-05 -1.517941011115908623e-03 3.849143395200371742e-03
5.121000000000000000e+03 7.838642120361328125e+01 -1.516350746154785156e+01 -6.235529668629169464e-03 -1.098287757486104965e-02 -5.165521986782550812e-03 -3.169460454955697060e-03
5.122000000000000000e+03 7.780564117431640625e+01 -1.512424659729003906e+01 -1.779223047196865082e-02 -2.315626293420791626e-02 -1.228454802185297012e-02 -1.684815995395183563e-02
5.123000000000000000e+03 7.662574768066406250e+01 -1.525570678710937500e+01 -4.440919682383537292e-02 -1.805880665779113770e-02 -1.874040067195892334e-02 -2.840049937367439270e-02
5.124000000000000000e+03 7.725820159912109375e+01 -1.518011665344238281e+01 -2.785760723054409027e-02 7.553095929324626923e-04 -8.130689151585102081e-03 -1.964315213263034821e-02
5.125000000000000000e+03 7.888636779785156250e+01 -1.611222648620605469e+01 7.027005311101675034e-03 -5.641662981361150742e-03 4.156027280259877443e-04 2.883450128138065338e-03
5.126000000000000000e+03 7.888313293457031250e+01 -1.558502388000488281e+01 3.205714980140328407e-03 3.263245336711406708e-03 1.940688118338584900e-03 3.969289828091859818e-03
5.127000000000000000e+03 7.663484954833984375e+01 -1.599727630615234375e+01 -7.437042891979217529e-03 5.621327087283134460e-03 -5.447147996164858341e-04 -7.964817807078361511e-03
5.128000000000000000e+03 7.962244415283203125e+01 -1.590537452697753906e+01 1.366763259284198284e-03 5.392162129282951355e-03 2.027677604928612709e-03 2.691925503313541412e-03
5.129000000000000000e+03 7.827157592773437500e+01 -1.562149429321289062e+01 -2.659328514710068703e-03 -6.586895324289798737e-03 -2.773867221549153328e-03 2.692804438993334770e-03
5.130000000000000000e+03 7.741748809814453125e+01 -1.606798362731933594e+01 7.157189305871725082e-03 -8.397670462727546692e-03 -3.721442481037229300e-04 -6.451674271374940872e-03
5.131000000000000000e+03 7.816462707519531250e+01 -1.613920974731445312e+01 1.435004733502864838e-02 4.134932532906532288e-03 5.545493680983781815e-03 2.049467293545603752e-03
5.132000000000000000e+03 7.763186645507812500e+01 -1.553283691406250000e+01 -1.487643737345933914e-02 -8.605604991316795349e-03 -7.044612430036067963e-03 -9.502774104475975037e-03
5.133000000000000000e+03 7.896445465087890625e+01 -1.517584800720214844e+01 -5.123349372297525406e-03 4.165893420577049255e-03 -2.872367913369089365e-04 7.082456722855567932e-03
5.134000000000000000e+03 7.435244750976562500e+01 -1.591604232788085938e+01 -9.573704004287719727e-02 -9.585202671587467194e-03 -3.159667178988456726e-02 -1.444756891578435898e-02
5.135000000000000000e+03 7.588006591796875000e+01 -1.523305606842041016e+01 -7.177377492189407349e-02 2.937353216111660004e-03 -2.065092697739601135e-02 -3.801662474870681763e-02
5.136000000000000000e+03 7.359722137451171875e+01 -1.514822292327880859e+01 -1.661091744899749756e-01 -1.272262888960540295e-03 -5.021443217992782593e-02 -4.461021721363067627e-02
5.137000000000000000e+03 7.510590362548828125e+01 -1.594404602050781250e+01 -6.132466346025466919e-02 1.012151595205068588e-02 -1.536094490438699722e-02 -1.426968816667795181e-02
5.138000000000000000e+03 7.359909057617187500e+01 -1.588880252838134766e+01 -1.342607587575912476e-01 8.822804316878318787e-03 -3.763138875365257263e-02 -1.668526232242584229e-02
5.139000000000000000e+03 7.435808563232421875e+01 -1.517574119567871094e+01 -1.359092444181442261e-01 5.620873533189296722e-03 -3.908651322126388550e-02 -5.077220872044563293e-02
5.140000000000000000e+03 7.585942077636718750e+01 -1.597279930114746094e+01 -3.064402937889099121e-02 -1.017052307724952698e-02 -1.224436610937118530e-02 -1.334683690220117569e-02
5.141000000000000000e+03 7.511904144287109375e+01 -1.520402336120605469e+01 -1.004023402929306030e-01 -8.793065324425697327e-03 -3.275861963629722595e-02 -4.423017799854278564e-02
5.142000000000000000e+03 7.132652282714843750e+01 -1.597409629821777344e+01 -1.590140163898468018e-01 4.979531513527035713e-05 -4.768926650285720825e-02 -3.996590967290103436e-04
5.143000000000000000e+03 7.056670379638671875e+01 -1.601350212097167969e+01 -1.306798011064529419e-01 1.465353928506374359e-02 -3.480787575244903564e-02 1.203071698546409607e-02
5.144000000000000000e+03 7.208541107177734375e+01 -1.593443489074707031e+01 -1.651445776224136353e-01 8.479549549520015717e-03 -4.699950665235519409e-02 -1.066716294735670090e-02
5.145000000000000000e+03 7.284317016601562500e+01 -1.589438438415527344e+01 -1.602932512760162354e-01 -6.278782617300748825e-03 -4.997161030769348145e-02 -1.326425559818744659e-02
5.146000000000000000e+03 7.282823944091796875e+01 -1.515415287017822266e+01 -1.951248347759246826e-01 1.088284701108932495e-02 -5.527259781956672668e-02 -4.065057262778282166e-02
5.147000000000000000e+03 7.049587249755859375e+01 -1.527619743347167969e+01 -2.276278883218765259e-01 4.157071933150291443e-02 -5.581715330481529236e-02 3.190837427973747253e-02
5.148000000000000000e+03 7.127433013916015625e+01 -1.523581504821777344e+01 -2.246805578470230103e-01 1.873891428112983704e-02 -6.178249046206474304e-02 5.286203231662511826e-04
5.149000000000000000e+03 7.205184173583984375e+01 -1.519517898559570312e+01 -2.210413962602615356e-01 1.569806039333343506e-02 -6.160300225019454956e-02 -1.598177850246429443e-02
5.150000000000000000e+03 6.817024993896484375e+01 -1.550610160827636719e+01 -5.561763420701026917e-02 -1.015607342123985291e-01 -4.715351015329360962e-02 1.030496358871459961e-01
5.151000000000000000e+03 6.846852111816406250e+01 -1.537384891510009766e+01 -1.341389864683151245e-01 -5.914754420518875122e-02 -5.798595771193504333e-02 1.142757236957550049e-01
5.152000000000000000e+03 6.969725036621093750e+01 -1.535203933715820312e+01 -2.152964323759078979e-01 -2.185571007430553436e-03 -6.524460017681121826e-02 4.553738608956336975e-02
5.153000000000000000e+03 6.900823211669921875e+01 -1.536187553405761719e+01 -1.251711249351501465e-01 1.766376383602619171e-02 -3.225221112370491028e-02 9.114821255207061768e-02
5.154000000000000000e+03 6.970433807373046875e+01 -1.610097312927246094e+01 -6.664903461933135986e-02 8.083322900347411633e-04 -1.975221186876296997e-02 2.395883575081825256e-02
5.155000000000000000e+03 6.807101440429687500e+01 -1.580119132995605469e+01 6.814144551753997803e-02 5.970973521471023560e-02 3.835535421967506409e-02 -2.414115145802497864e-02
5.156000000000000000e+03 6.868652343750000000e+01 -1.567752170562744141e+01 -4.184248298406600952e-02 -2.342644892632961273e-02 -1.958067901432514191e-02 8.951080590486526489e-02
5.157000000000000000e+03 6.877530670166015625e+01 -1.623340034484863281e+01 -2.275475300848484039e-02 -2.382484823465347290e-02 -1.397388055920600891e-02 -6.523145828396081924e-03
5.158000000000000000e+03 6.846734619140625000e+01 -1.765766716003417969e+01 -1.227242755703628063e-04 -1.859806652646511793e-04 -9.261148079531267285e-05 1.574272173456847668e-04
5.159000000000000000e+03 6.902794647216796875e+01 -1.774423980712890625e+01 -6.404120358638465405e-05 9.419243724551051855e-05 9.045369552040938288e-06 1.536047420813702047e-05
5.160000000000000000e+03 6.989218139648437500e+01 -1.761616897583007812e+01 4.720415017800405622e-05 1.337428257102146745e-04 5.428409349406138062e-05 1.459789782529696822e-04
5.161000000000000000e+03 6.980416870117187500e+01 -1.688065528869628906e+01 8.308132964884862304e-05 -1.827485975809395313e-04 -2.990018037962727249e-05 1.097517015296034515e-04
5.162000000000000000e+03 6.892420196533203125e+01 -1.701133537292480469e+01 1.388366945320740342e-04 2.620302548166364431e-04 1.202600833494216204e-04 -9.544960630591958761e-05
5.163000000000000000e+03 1.639982223510742188e+01 -2.317397296428680420e-01 8.198389410972595215e-02 -6.442078389227390289e-03 2.266254462301731110e-02 -3.347484022378921509e-02
5.164000000000000000e+03 1.798723983764648438e+01 -8.314419388771057129e-01 -1.394777297973632812e-01 -3.778261691331863403e-02 -5.317810550332069397e-02 -1.480236202478408813e-01
5.165000000000000000e+03 1.645354080200195312e+01 -9.699125885963439941e-01 2.130790380761027336e-03 -2.881896495819091797e-02 -8.006452582776546478e-03 -1.106827855110168457e-01
5.166000000000000000e+03 1.875374794006347656e+01 -7.599936723709106445e-01 -2.152963727712631226e-01 -4.012208431959152222e-02 -7.662554085254669189e-02 -1.628938019275665283e-01
5.167000000000000000e+03 1.790756225585937500e+01 -9.563824534416198730e-02 -9.419436007738113403e-02 -9.404911659657955170e-03 -3.107978217303752899e-02 -5.664769187569618225e-02
5.168000000000000000e+03 1.866109085083007812e+01 -2.537456899881362915e-02 -1.960992068052291870e-01 -1.969712786376476288e-02 -6.473889946937561035e-02 -7.288362085819244385e-02
5.169000000000000000e+03 1.715376663208007812e+01 -1.644264459609985352e-01 -2.523141680285334587e-03 -1.183845195919275284e-02 -4.308478441089391708e-03 -4.430186003446578979e-02
5.170000000000000000e+03 1.722046470642089844e+01 -9.014146924018859863e-01 -6.433536112308502197e-02 -3.125421330332756042e-02 -2.867687307298183441e-02 -1.278370171785354614e-01
5.171000000000000000e+03 1.941230964660644531e+01 7.625918835401535034e-02 -2.880320250988006592e-01 -1.923215202987194061e-02 -9.217925369739532471e-02 -8.944182842969894409e-02
5.172000000000000000e+03 2.090952491760253906e+01 3.449267148971557617e-01 -4.114063084125518799e-01 -1.109478995203971863e-02 -1.267503350973129272e-01 -9.525843709707260132e-02
5.173000000000000000e+03 1.952174568176269531e+01 -6.559218764305114746e-01 -2.909655570983886719e-01 -4.088014364242553711e-02 -9.955371171236038208e-02 -1.668441146612167358e-01
5.174000000000000000e+03 2.106011390686035156e+01 -3.798714280128479004e-01 -4.359629452228546143e-01 -8.202262222766876221e-03 -1.332495659589767456e-01 -1.482214331626892090e-01
5.175000000000000000e+03 2.183077621459960938e+01 -2.417316585779190063e-01 -4.905516803264617920e-01 2.883386425673961639e-02 -1.385153383016586304e-01 -1.117788106203079224e-01
5.176000000000000000e+03 2.165959548950195312e+01 4.794237911701202393e-01 -4.398502111434936523e-01 -8.372299373149871826e-03 -1.344667524099349976e-01 -8.309443295001983643e-02
5.177000000000000000e+03 2.016033744812011719e+01 2.105962187051773071e-01 -3.568412363529205322e-01 -2.073820494115352631e-02 -1.132738292217254639e-01 -9.593228995800018311e-02
5.178000000000000000e+03 2.029035186767578125e+01 -5.178933739662170410e-01 -3.691292405128479004e-01 -2.544083818793296814e-02 -1.183710247278213501e-01 -1.630976945161819458e-01
5.179000000000000000e+03 2.655191993713378906e+01 1.211927890777587891e+00 1.845231801271438599e-01 7.339741289615631104e-02 7.737617939710617065e-02 -1.216052621603012085e-01
5.180000000000000000e+03 2.642835426330566406e+01 1.133576512336730957e+00 1.006652489304542542e-01 6.073789298534393311e-02 4.842094331979751587e-02 -1.005304157733917236e-01
5.181000000000000000e+03 2.606766891479492188e+01 1.098246335983276367e+00 7.655537873506546021e-02 2.813941985368728638e-02 3.140844032168388367e-02 -7.414719462394714355e-02
5.182000000000000000e+03 2.582571220397949219e+01 1.493316173553466797e+00 1.911183744668960571e-01 3.250607103109359741e-02 6.708733737468719482e-02 -8.900812268257141113e-02
5.183000000000000000e+03 2.501582145690917969e+01 5.861303806304931641e-01 -3.049885928630828857e-01 -1.494841426610946655e-01 -1.363418251276016235e-01 1.666459590196609497e-01
5.184000000000000000e+03 2.419348907470703125e+01 1.309267878532409668e+00 2.035941462963819504e-03 2.687404304742813110e-02 8.672995492815971375e-03 7.483915239572525024e-02
5.185000000000000000e+03 2.509922599792480469e+01 7.193784713745117188e-01 -2.825922667980194092e-01 -1.063452512025833130e-01 -1.166812554001808167e-01 1.210665851831436157e-01
5.186000000000000000e+03 2.335133743286132812e+01 9.742200970649719238e-01 -1.783344745635986328e-01 3.914985060691833496e-02 -4.175538942217826843e-02 3.346143290400505066e-02
5.187000000000000000e+03 2.246587944030761719e+01 6.890802979469299316e-01 -3.604978621006011963e-01 2.465746924281120300e-02 -1.007521227002143860e-01 -3.994088619947433472e-02
5.188000000000000000e+03 2.265129470825195312e+01 -3.019443526864051819e-02 -5.499491095542907715e-01 9.677836298942565918e-02 -1.359512209892272949e-01 -4.528932645916938782e-02
5.189000000000000000e+03 2.354462623596191406e+01 2.551128566265106201e-01 -5.410053730010986328e-01 1.048905327916145325e-01 -1.308344453573226929e-01 4.789635166525840759e-02
5.190000000000000000e+03 2.584380340576171875e+01 1.124831318855285645e+00 5.460236966609954834e-02 -3.350637853145599365e-02 6.328796967864036560e-03 -2.936428040266036987e-02
5.191000000000000000e+03 2.487414550781250000e+01 4.951079189777374268e-01 -3.603092730045318604e-01 -1.217642426490783691e-01 -1.446220576763153076e-01 1.844854056835174561e-01
5.192000000000000000e+03 2.494935035705566406e+01 1.589968442916870117e+00 1.245266422629356384e-01 -3.031455166637897491e-02 2.826362662017345428e-02 3.152918443083763123e-02
5.193000000000000000e+03 2.549102401733398438e+01 1.621851563453674316e+00 1.342178434133529663e-01 -2.188258804380893707e-02 3.370057791471481323e-02 -3.985863551497459412e-02
5.194000000000000000e+03 2.559309387207031250e+01 1.118039727210998535e+00 5.261986330151557922e-02 -6.955482065677642822e-02 -5.080488510429859161e-03 3.488439135253429413e-03
5.195000000000000000e+03 2.540032577514648438e+01 1.009757041931152344e+00 -4.817450535483658314e-04 -9.517686814069747925e-02 -2.869758382439613342e-02 2.036426961421966553e-02
5.196000000000000000e+03 2.625621414184570312e+01 1.101973772048950195e+00 9.795337170362472534e-02 3.856819123029708862e-02 4.095647111535072327e-02 -9.478750824928283691e-02
5.197000000000000000e+03 2.504071807861328125e+01 1.115116357803344727e+00 -1.658248365856707096e-03 -9.130596369504928589e-02 -2.788926288485527039e-02 3.715014457702636719e-02
5.198000000000000000e+03 2.523330116271972656e+01 8.552555441856384277e-01 -1.519334614276885986e-01 -1.117638051509857178e-01 -7.910917699337005615e-02 5.250922590494155884e-02
5.199000000000000000e+03 2.457161521911621094e+01 8.719542026519775391e-01 -2.236669659614562988e-01 -1.508275698870420456e-02 -7.162491977214813232e-02 7.962753623723983765e-02
5.200000000000000000e+03 2.627415084838867188e+01 1.360334515571594238e+00 2.382541149854660034e-01 6.321763992309570312e-02 9.044152498245239258e-02 -1.270695775747299194e-01
5.201000000000000000e+03 2.609403038024902344e+01 1.311385989189147949e+00 1.858559995889663696e-01 4.813181608915328979e-02 7.019634544849395752e-02 -1.039064526557922363e-01
5.202000000000000000e+03 2.439571952819824219e+01 4.309497177600860596e-01 -4.392618238925933838e-01 3.197317197918891907e-02 -1.221865937113761902e-01 1.094833984971046448e-01
5.203000000000000000e+03 2.488675880432128906e+01 6.897756457328796387e-01 -3.150824904441833496e-01 -1.147905439138412476e-01 -1.289619207382202148e-01 1.578507721424102783e-01
5.204000000000000000e+03 2.337566375732421875e+01 2.629750251770019531e+00 8.604889444541186094e-06 1.293410878133727238e-05 6.461699285864597186e-06 -2.719719759625149891e-06
5.205000000000000000e+03 2.201377296447753906e+01 2.125266075134277344e+00 3.341911224197247066e-06 1.907562364067416638e-05 6.725260845996672288e-06 -5.106589469505706802e-06
5.206000000000000000e+03 2.225197982788085938e+01 1.423350930213928223e+00 -1.072169538929301780e-06 -1.824721039156429470e-05 -5.795814104203600436e-06 3.445962420300929807e-06
5.207000000000000000e+03 2.309097290039062500e+01 1.672813296318054199e+00 1.602629026820068248e-06 1.235912895936053246e-05 4.188527327642077580e-06 -2.353266381760477088e-06
5.208000000000000000e+03 2.428779029846191406e+01 2.625434398651123047e+00 1.339212212769780308e-05 -1.328445819126500282e-06 3.619102699303766713e-06 -2.689747020667709876e-07
5.209000000000000000e+03 2.478089141845703125e+01 2.056442260742187500e+00 2.902336746046785265e-06 3.905291578121250495e-06 2.042288315351470374e-06 1.950622390722855926e-06
5.210000000000000000e+03 2.395736885070800781e+01 2.308834791183471680e+00 -1.192044419440208003e-05 -1.635163243918213993e-06 -4.066682322445558384e-06 1.198948893943452276e-06
5.211000000000000000e+03 2.392651367187500000e+01 2.926619052886962891e+00 -3.100080618878564565e-07 -2.073936684610089287e-06 -7.151834324758965522e-07 3.725930810105637647e-06
5.212000000000000000e+03 2.456351280212402344e+01 2.352871417999267578e+00 -1.130576038121944293e-05 -1.695335186013835482e-06 -3.900328465533675626e-06 -6.199758445291081443e-06
5.213000000000000000e+03 2.273927497863769531e+01 2.339991807937622070e+00 -4.704972070612711832e-06 -1.642368806642480195e-05 -6.338598268484929577e-06 4.697379154094960541e-06
5.214000000000000000e+03 2.395885276794433594e+01 1.871361255645751953e+00 2.627369440233451314e-06 -8.146076652337796986e-06 -1.655612095419201069e-06 9.807474725676001981e-07
5.215000000000000000e+03 2.075237083435058594e+01 1.106616377830505371e+00 -3.664956238935701549e-06 -2.847743962774984539e-05 -9.642718396207783371e-06 4.646171873901039362e-06
5.216000000000000000e+03 2.060178184509277344e+01 1.831414580345153809e+00 3.344297738294699229e-06 2.355844844714738429e-05 8.070823241723701358e-06 -4.732780325866769999e-06
5.217000000000000000e+03 2.130817413330078125e+01 1.960395336151123047e+00 -2.739480578384245746e-06 -2.189187762269284576e-05 -7.389407528535230085e-06 2.859386540876585059e-06
5.218000000000000000e+03 1.918785858154296875e+01 1.579434752464294434e+00 3.254360080973128788e-06 3.113827915512956679e-05 1.031779174809344113e-05 -4.167451152170542628e-06
5.219000000000000000e+03 1.989505195617675781e+01 1.704050064086914062e+00 -4.345198249211534858e-06 -2.794854663079604506e-05 -9.688123100204393268e-06 2.033911641774466261e-06
5.220000000000000000e+03 1.929729461669921875e+01 8.472537398338317871e-01 -5.434843387774890289e-06 -3.508108056848868728e-05 -1.215477732330327854e-05 3.614915840444155037e-06
5.221000000000000000e+03 2.147934150695800781e+01 1.239288687705993652e+00 1.074420538316189777e-06 2.479154500178992748e-05 7.759789696137886494e-06 -5.828491339343599975e-06
5.222000000000000000e+03 2.002506446838378906e+01 9.755603671073913574e-01 -4.973182399226061534e-07 3.120525070698931813e-05 9.212379154632799327e-06 -6.072738869988825172e-06
5.223000000000000000e+03 1.701650238037109375e+01 1.350294589996337891e+00 -5.634555691358400509e-06 -3.793984797084704041e-05 -1.307232105318689719e-05 4.349630671640625224e-06
5.224000000000000000e+03 1.708320045471191406e+01 6.133062839508056641e-01 -3.276297093179891817e-06 4.356567296781577170e-05 1.208681351272389293e-05 -4.572014404402580112e-06
5.225000000000000000e+03 1.634315681457519531e+01 5.465459823608398438e-01 -6.650398518104339018e-06 -4.550142693915404379e-05 -1.564554804645013064e-05 3.600573791118222289e-06
5.226000000000000000e+03 1.782329559326171875e+01 6.808430552482604980e-01 -6.656071491306647658e-06 -4.096634438610635698e-05 -1.428672476322390139e-05 3.786786010095966049e-06
5.227000000000000000e+03 1.847070503234863281e+01 1.483781576156616211e+00 -4.570140390569576994e-06 -3.329322498757392168e-05 -1.135901038651354611e-05 2.250642637591226958e-06
5.228000000000000000e+03 1.856336212158203125e+01 7.491624951362609863e-01 -2.699915512494044378e-06 3.814681986114010215e-05 1.063407216861378402e-05 -5.280238383420510218e-06
5.229000000000000000e+03 1.628943824768066406e+01 1.284718871116638184e+00 5.275151124806143343e-06 4.286239345674403012e-05 1.444126337446505204e-05 -1.951774720510002226e-06
5.230000000000000000e+03 1.774361801147460938e+01 1.416646718978881836e+00 2.278780812048353255e-06 3.676184132928028703e-05 1.171218718809541315e-05 -4.295226062822621316e-06
5.231000000000000000e+03 1.408120155334472656e+01 1.187072157859802246e+00 1.658831024542450905e-06 -4.462815559236332774e-05 -1.289079682464944199e-05 1.060466820490546525e-05
5.232000000000000000e+03 1.410851097106933594e+01 4.475762248039245605e-01 4.834887931792763993e-06 5.202675311011262238e-05 1.705849172140005976e-05 -1.087766804630518891e-06
5.233000000000000000e+03 1.336430931091308594e+01 4.183164834976196289e-01 4.926437668473226950e-06 -5.217159196035936475e-05 -1.417354633304057643e-05 5.380532002163818106e-06
5.234000000000000000e+03 1.485382461547851562e+01 4.748390913009643555e-01 -2.356203367526177317e-06 -4.972066744812764227e-05 -1.562306169944349676e-05 4.753978828375693411e-06
5.235000000000000000e+03 1.555697250366210938e+01 1.239178419113159180e+00 -3.129592187178786844e-06 -4.122202153666876256e-05 -1.330548366240691394e-05 6.721922545693814754e-06
5.236000000000000000e+03 1.560021686553955078e+01 5.002670884132385254e-01 -1.472485905651410576e-06 4.852004349231719971e-05 1.411426728736842051e-05 -2.318718998139956966e-06
5.237000000000000000e+03 1.334496879577636719e+01 1.158104777336120605e+00 1.680734385445248336e-05 4.819484820473007858e-05 1.950065779965370893e-05 1.857616211964341346e-06
5.238000000000000000e+03 1.481854820251464844e+01 1.214042663574218750e+00 8.488892490277066827e-06 4.588230149238370359e-05 1.631135819479823112e-05 5.741507607126550283e-07
5.239000000000000000e+03 1.111325168609619141e+01 1.138490676879882812e+00 1.679389970377087593e-05 -4.624436041922308505e-05 -8.835138032736722380e-06 1.683004120422992855e-05
5.240000000000000000e+03 1.186833381652832031e+01 4.020517766475677490e-01 1.594690547790378332e-05 -5.102875002194195986e-05 -1.052455354511039332e-05 6.701813163090264425e-06
5.241000000000000000e+03 1.037295722961425781e+01 3.924405574798583984e-01 2.568023592175450176e-05 -4.766464917338453233e-05 -6.595323156943777576e-06 5.446160230349050835e-06
5.242000000000000000e+03 1.260390949249267578e+01 1.143149375915527344e+00 1.071435599442338571e-05 -4.639980761567130685e-05 -1.070563575922278687e-05 1.476824763813056052e-05
5.243000000000000000e+03 1.261756992340087891e+01 4.032067656517028809e-01 1.404068643751088530e-05 5.245313877821899951e-05 1.994814738282002509e-05 -2.139832560033028130e-07
5.244000000000000000e+03 1.036947441101074219e+01 1.132432341575622559e+00 3.737657243618741632e-05 4.163709309068508446e-05 2.370410038565751165e-05 -2.952781642306945287e-06
5.245000000000000000e+03 1.185806560516357422e+01 1.142010807991027832e+00 2.601132837298791856e-05 4.647700188797898591e-05 2.174649853259325027e-05 -5.219528986799559789e-08
5.246000000000000000e+03 1.112012767791748047e+01 3.985152244567871094e-01 2.646632674441207200e-05 4.908476694254204631e-05 2.266532828798517585e-05 -7.939056558825541288e-07
5.247000000000000000e+03 8.771651268005371094e+00 3.881228864192962646e-01 3.136903615086339414e-05 -3.984927388955838978e-05 -2.544070866861147806e-06 2.099608309436007403e-06
5.248000000000000000e+03 8.818146705627441406e+00 1.128122925758361816e+00 4.427175372256897390e-05 3.285270577180199325e-05 2.313733784831129014e-05 -6.787312031519832090e-06
5.249000000000000000e+03 7.953170776367187500e+00 3.921383917331695557e-01 3.896428825100883842e-05 3.594151348806917667e-05 2.247174052172340453e-05 -8.762960987951373681e-07
5.250000000000000000e+03 6.319846630096435547e+00 3.892590403556823730e-01 3.313183333375491202e-05 2.936814780696295202e-05 1.874999361461959779e-05 -1.068578967533539981e-06
5.251000000000000000e+03 5.502897262573242188e+00 3.910058438777923584e-01 1.971177698578685522e-05 -2.549982491473201662e-05 -1.736414219521975610e-06 -3.173159257130464539e-06
5.252000000000000000e+03 4.685476779937744141e+00 3.909447193145751953e-01 2.006609429372474551e-05 1.934403735504020005e-05 1.182303913083160296e-05 -3.972757895098766312e-06
5.253000000000000000e+03 3.050973415374755859e+00 3.907458484172821045e-01 4.899497980659361929e-06 4.820163667318411171e-06 2.915898676292272285e-06 -8.611608791397884488e-06
5.254000000000000000e+03 2.234469175338745117e+00 3.876248300075531006e-01 1.146852537203812972e-05 9.765706636244431138e-06 6.370269602484768257e-06 1.598179915163200349e-05
5.255000000000000000e+03 2.538473606109619141e+00 1.127624869346618652e+00 -2.856834498743410222e-06 5.955830602033529431e-06 9.296987855123006739e-07 -2.796676017169374973e-05
5.256000000000000000e+03 1.768125653266906738e+00 1.127171397209167480e+00 1.333078489551553503e-05 -3.836214091279543936e-06 2.848371195796062239e-06 3.084377385675907135e-05
5.257000000000000000e+03 1.067988038063049316e+00 1.148616075515747070e+00 -4.327357964939437807e-05 3.776342782657593489e-05 -1.653045728744473308e-06 -2.699657852645032108e-05
5.258000000000000000e+03 6.996063590049743652e-01 4.086160361766815186e-01 8.740161865716800094e-05 6.905405462021008134e-05 4.693670052802190185e-05 7.695941167185083032e-05
5.259000000000000000e+03 3.732481598854064941e-01 9.636608362197875977e-01 -8.737602183828130364e-05 -5.316998431226238608e-05 -4.216380330035462976e-05 -4.147977961110882461e-05
5.260000000000000000e+03 3.322789192199707031e+00 1.130745887756347656e+00 9.983625204768031836e-06 -1.910543232952477410e-06 2.421924591544666328e-06 1.468714617658406496e-05
5.261000000000000000e+03 3.868146419525146484e+00 3.889868557453155518e-01 7.257115157699445263e-06 -1.246495685336412862e-05 -1.562352622386242729e-06 5.296192284731660038e-08
5.262000000000000000e+03 5.678146839141845703e+00 1.131005883216857910e+00 3.263131293351761997e-05 2.071626295219175518e-05 1.600427276571281254e-05 -1.794341915228869766e-05
5.263000000000000000e+03 7.247090816497802734e+00 1.132560849189758301e+00 4.419760443852283061e-05 2.657366167113650590e-05 2.123138074239250273e-05 -1.168923972727498040e-05
5.264000000000000000e+03 7.136218547821044922e+00 3.925608992576599121e-01 2.891039184760302305e-05 -3.360828486620448530e-05 -1.409367428095720243e-06 -1.914903123179101385e-06
5.265000000000000000e+03 8.031854629516601562e+00 1.132138371467590332e+00 2.413212132523767650e-05 -3.427196861593984067e-05 -3.041954414584324695e-06 7.551579983555711806e-06
5.266000000000000000e+03 9.590107917785644531e+00 3.879971206188201904e-01 3.582608769647777081e-05 4.132037793169729412e-05 2.314394077984616160e-05 -7.503249435103498399e-07
5.267000000000000000e+03 9.604414939880371094e+00 1.127997159957885742e+00 2.280398075527045876e-05 -3.971294790972024202e-05 -5.072689873486524448e-06 1.332971442025154829e-05
5.268000000000000000e+03 6.462907791137695312e+00 1.129258990287780762e+00 2.006503382290247828e-05 -2.696301635296549648e-05 -2.069394895443110727e-06 2.056524408544646576e-06
5.269000000000000000e+03 4.892915248870849609e+00 1.130944728851318359e+00 1.351622086076531559e-05 -1.756646634021308273e-05 -1.215073552884859964e-06 4.463662207854213193e-06
5.270000000000000000e+03 4.107773303985595703e+00 1.128986835479736328e+00 1.955033803824335337e-05 1.152490767708513886e-05 9.322573532699607313e-06 -2.522925569792278111e-05
5.271000000000000000e+03 1.431932568550109863e+00 3.871713578701019287e-01 -1.126555616792757064e-05 -2.870422213163692504e-05 -1.199093367176828906e-05 -2.938372199423611164e-05
5.272000000000000000e+03 1.338494110107421875e+01 -3.624081611633300781e-01 2.856211364269256592e-01 -1.380983158014714718e-03 8.527205139398574829e-02 -4.022656939923763275e-03
5.273000000000000000e+03 1.492772197723388672e+01 -1.047161340713500977e+00 1.113368719816207886e-01 -2.065191604197025299e-02 2.720548771321773529e-02 -6.661812961101531982e-02
5.274000000000000000e+03 1.340428161621093750e+01 -1.102196455001831055e+00 1.780901104211807251e-01 -1.298233494162559509e-02 4.953233152627944946e-02 -3.135061636567115784e-02
5.275000000000000000e+03 1.489244556427001953e+01 -3.079577088356018066e-01 2.096642404794692993e-01 -4.322457127273082733e-03 6.160253658890724182e-02 -1.666302792727947235e-02
5.276000000000000000e+03 1.568929195404052734e+01 -1.018365263938903809e+00 6.026602536439895630e-02 -2.307724952697753906e-02 1.115663349628448486e-02 -8.784384280443191528e-02
5.277000000000000000e+03 1.564604759216308594e+01 -2.794539332389831543e-01 1.543917953968048096e-01 -5.742823239415884018e-03 4.459469392895698547e-02 -2.522616088390350342e-02
5.278000000000000000e+03 1.413872909545898438e+01 -3.356079757213592529e-01 2.526297271251678467e-01 -4.167628008872270584e-03 7.453863322734832764e-02 -9.078354574739933014e-03
5.279000000000000000e+03 1.416603755950927734e+01 -1.075103878974914551e+00 1.508364081382751465e-01 -1.652008853852748871e-02 4.029489681124687195e-02 -4.826631769537925720e-02
5.280000000000000000e+03 1.037684440612792969e+01 -3.884835243225097656e-01 2.930942773818969727e-01 -8.294348372146487236e-04 8.767945319414138794e-02 7.737710606306791306e-03
5.281000000000000000e+03 1.189073276519775391e+01 -1.121461629867553711e+00 2.107181400060653687e-01 -9.358889423310756683e-03 6.040777638554573059e-02 -2.022617729380726814e-03
5.282000000000000000e+03 1.038032817840576172e+01 -1.128475308418273926e+00 2.106597572565078735e-01 -6.857644766569137573e-03 6.114063411951065063e-02 1.641654223203659058e-02
5.283000000000000000e+03 1.264584636688232422e+01 -1.117530822753906250e+00 1.973149627447128296e-01 -9.338825941085815430e-03 5.639284104108810425e-02 -1.505965925753116608e-02
5.284000000000000000e+03 1.188046455383300781e+01 -3.815026283264160156e-01 3.062428534030914307e-01 -1.470800489187240601e-03 9.143161028623580933e-02 1.548181404359638691e-03
5.285000000000000000e+03 1.263218593597412109e+01 -3.775882422924041748e-01 3.033843636512756348e-01 -1.397585845552384853e-03 9.059603512287139893e-02 -1.389382872730493546e-03
5.286000000000000000e+03 1.112868118286132812e+01 -3.851337432861328125e-01 3.028849065303802490e-01 -1.857409602962434292e-03 9.030825644731521606e-02 4.925832152366638184e-03
5.287000000000000000e+03 1.113555717468261719e+01 -1.125109195709228516e+00 2.134386003017425537e-01 -6.976750213652849197e-03 6.193855404853820801e-02 7.884820923209190369e-03
5.288000000000000000e+03 9.624593734741210938e+00 -1.131355285644531250e+00 2.021720856428146362e-01 -4.368963185697793961e-03 5.934093892574310303e-02 2.389800176024436951e-02
5.289000000000000000e+03 9.636611938476562500e+00 -3.913553059101104736e-01 2.775194048881530762e-01 -1.212641829624772072e-03 8.289203047752380371e-02 9.761265479028224945e-03
5.290000000000000000e+03 8.908035278320312500e+00 -3.932945430278778076e-01 2.571990191936492920e-01 -7.067587575875222683e-04 7.694768160581588745e-02 1.166478358209133148e-02
5.291000000000000000e+03 8.179648399353027344e+00 -3.947979807853698730e-01 2.338596433401107788e-01 -8.622925961390137672e-04 6.989920884370803833e-02 1.312637608498334885e-02
5.292000000000000000e+03 7.451354026794433594e+00 -3.965992927551269531e-01 2.080156356096267700e-01 -3.051548264920711517e-04 6.231314316391944885e-02 1.434650178998708725e-02
5.293000000000000000e+03 6.723036766052246094e+00 -3.981454968452453613e-01 1.805750131607055664e-01 -3.863410383928567171e-04 5.405660346150398254e-02 1.496406644582748413e-02
5.294000000000000000e+03 5.994731426239013672e+00 -3.993945717811584473e-01 1.522097885608673096e-01 1.952933816937729716e-04 4.572152718901634216e-02 1.530133839696645737e-02
5.295000000000000000e+03 5.266466140747070312e+00 -4.014726877212524414e-01 1.236977279186248779e-01 -1.711843215161934495e-04 3.705796226859092712e-02 1.517205778509378433e-02
5.296000000000000000e+03 4.538172721862792969e+00 -4.045463800430297852e-01 9.557299315929412842e-02 6.128415116108953953e-04 2.885575033724308014e-02 1.501183770596981049e-02
5.297000000000000000e+03 3.810027122497558594e+00 -4.076895117759704590e-01 6.858965009450912476e-02 4.527095588855445385e-04 2.071270719170570374e-02 1.395043917000293732e-02
5.298000000000000000e+03 3.082192897796630859e+00 -4.105251729488372803e-01 4.382660239934921265e-02 1.442082691937685013e-03 1.358060538768768311e-02 1.258191838860511780e-02
5.299000000000000000e+03 2.355662584304809570e+00 -4.111475944519042969e-01 2.281239628791809082e-02 2.634436124935746193e-03 7.634049747139215469e-03 9.252783842384815216e-03
5.300000000000000000e+03 1.642585277557373047e+00 -4.047921001911163330e-01 8.258539251983165741e-03 2.109953435137867928e-03 3.110548015683889389e-03 4.757737740874290466e-03
5.301000000000000000e+03 6.508445143699645996e-01 -1.120625138282775879e+00 2.357090124860405922e-03 3.055030014365911484e-03 1.623635995201766491e-03 2.921102335676550865e-03
5.302000000000000000e+03 8.868407249450683594e+00 -1.133294582366943359e+00 1.900133937597274780e-01 -4.871212877333164215e-03 5.554265156388282776e-02 2.947934158146381378e-02
5.303000000000000000e+03 8.112410545349121094e+00 -1.134797930717468262e+00 1.741073280572891235e-01 -2.520069014281034470e-03 5.147617682814598083e-02 3.429247066378593445e-02
5.304000000000000000e+03 7.356505870819091797e+00 -1.136599302291870117e+00 1.559343039989471436e-01 -2.405179664492607117e-03 4.605873674154281616e-02 3.710285201668739319e-02
5.305000000000000000e+03 6.600578308105468750e+00 -1.138145565986633301e+00 1.362158805131912231e-01 -4.531309532467275858e-04 4.072882235050201416e-02 3.924506157636642456e-02
5.306000000000000000e+03 5.844663143157958984e+00 -1.139394640922546387e+00 1.157781779766082764e-01 -3.696100029628723860e-04 3.462256863713264465e-02 3.978209942579269409e-02
5.307000000000000000e+03 5.088787555694580078e+00 -1.141472697257995605e+00 9.483529627323150635e-02 1.235635485500097275e-03 2.882127836346626282e-02 3.970860689878463745e-02
5.308000000000000000e+03 4.332883834838867188e+00 -1.144546389579772949e+00 7.446381449699401855e-02 1.220421749167144299e-03 2.270526997745037079e-02 3.834735229611396790e-02
5.309000000000000000e+03 3.577128171920776367e+00 -1.147689461708068848e+00 5.422640591859817505e-02 3.457671497017145157e-03 1.730522327125072479e-02 3.687062114477157593e-02
5.310000000000000000e+03 2.821683883666992188e+00 -1.150525212287902832e+00 3.523730114102363586e-02 6.983373314142227173e-03 1.266620215028524399e-02 3.119710646569728851e-02
5.311000000000000000e+03 2.067543268203735352e+00 -1.151147603988647461e+00 2.001925557851791382e-02 1.042757648974657059e-02 9.134049527347087860e-03 2.281637676060199738e-02
5.312000000000000000e+03 1.326855897903442383e+00 -1.144792079925537109e+00 8.647855371236801147e-03 9.444381110370159149e-03 5.427670665085315704e-03 1.140797138214111328e-02
5.313000000000000000e+03 9.941840171813964844e-01 -3.806251585483551025e-01 1.381296664476394653e-03 1.258203410543501377e-03 7.918500341475009918e-04 1.244677696377038956e-03
5.314000000000000000e+03 3.480942845344543457e-01 -5.610816478729248047e-01 -1.498177061876049265e-05 -5.503487409441731870e-05 -2.100499295920599252e-05 -1.885238998511340469e-05
5.315000000000000000e+03 2.623828697204589844e+01 -5.017127990722656250e-01 1.796733856201171875e+00 -2.896646410226821899e-02 5.303302407264709473e-01 1.985076218843460083e-01
5.316000000000000000e+03 2.623249626159667969e+01 -4.830971956253051758e-01 1.669076681137084961e+00 -9.071277827024459839e-02 4.735091626644134521e-01 3.134003877639770508e-01
5.317000000000000000e+03 2.622318840026855469e+01 -4.659676551818847656e-01 1.383976697921752930e+00 -1.423662900924682617e-01 3.724831044673919678e-01 4.696680307388305664e-01
5.318000000000000000e+03 2.621071815490722656e+01 -4.509815871715545654e-01 1.043465614318847656e+00 -2.115629613399505615e-01 2.495707720518112183e-01 5.783234834671020508e-01
5.319000000000000000e+03 2.619556617736816406e+01 -4.387140870094299316e-01 6.815516352653503418e-01 -3.321575820446014404e-01 1.048182174563407898e-01 6.514917016029357910e-01
5.320000000000000000e+03 2.617831420898437500e+01 -4.296358823776245117e-01 3.434588611125946045e-01 -4.788486361503601074e-01 -4.061692580580711365e-02 7.034779191017150879e-01
5.321000000000000000e+03 2.615962219238281250e+01 -4.240954220294952393e-01 1.818187301978468895e-04 -6.664900183677673340e-01 -1.998924612998962402e-01 7.785293459892272949e-01
5.322000000000000000e+03 2.614020919799804688e+01 -4.223052561283111572e-01 -3.113167285919189453e-01 -8.218517303466796875e-01 -3.399505317211151123e-01 8.686907887458801270e-01
5.323000000000000000e+03 2.612081909179687500e+01 -4.243341088294982910e-01 -6.736666560173034668e-01 -9.394735693931579590e-01 -4.839420914649963379e-01 9.844428896903991699e-01
5.324000000000000000e+03 2.610219764709472656e+01 -4.301041364669799805e-01 -1.025265455245971680e+00 -9.668990373611450195e-01 -5.976493358612060547e-01 1.087333083152770996e+00
5.325000000000000000e+03 2.608505821228027344e+01 -4.393938779830932617e-01 -1.421971678733825684e+00 -9.214749932289123535e-01 -7.030339837074279785e-01 1.147904038429260254e+00
5.326000000000000000e+03 2.607005882263183594e+01 -4.518468976020812988e-01 -1.786918759346008301e+00 -8.078947663307189941e-01 -7.784440517425537109e-01 1.141862988471984863e+00
5.327000000000000000e+03 2.605777359008789062e+01 -4.669852256774902344e-01 -2.094262123107910156e+00 -6.716136932373046875e-01 -8.297627568244934082e-01 1.060502886772155762e+00
5.328000000000000000e+03 2.604867744445800781e+01 -4.842279851436614990e-01 -2.328858375549316406e+00 -5.648415088653564453e-01 -8.681099414825439453e-01 9.130634665489196777e-01
5.329000000000000000e+03 2.604311561584472656e+01 -5.029134154319763184e-01 -2.441967725753784180e+00 -4.818748533725738525e-01 -8.771528005599975586e-01 7.521804571151733398e-01
5.330000000000000000e+03 2.604130363464355469e+01 -5.223245024681091309e-01 -2.480766773223876953e+00 -4.762101769447326660e-01 -8.870930671691894531e-01 5.987588167190551758e-01
5.331000000000000000e+03 2.604331207275390625e+01 -5.417163372039794922e-01 -2.455265045166015625e+00 -4.849743545055389404e-01 -8.820718526840209961e-01 5.003675818443298340e-01
5.332000000000000000e+03 2.604906082153320312e+01 -5.603447556495666504e-01 -2.428637504577636719e+00 -5.331641435623168945e-01 -8.885405063629150391e-01 4.531618654727935791e-01
5.333000000000000000e+03 2.605833053588867188e+01 -5.774948596954345703e-01 -2.442348718643188477e+00 -5.851926803588867188e-01 -9.082624316215515137e-01 4.563308358192443848e-01
5.334000000000000000e+03 2.607076835632324219e+01 -5.925084948539733887e-01 -2.481283426284790039e+00 -6.182821393013000488e-01 -9.298696517944335938e-01 4.715467989444732666e-01
5.335000000000000000e+03 2.608589172363281250e+01 -6.048095226287841797e-01 -2.645008802413940430e+00 -7.070697546005249023e-01 -1.005623579025268555e+00 5.153416991233825684e-01
5.336000000000000000e+03 2.610312461853027344e+01 -6.139258742332458496e-01 -2.751169919967651367e+00 -7.737061977386474609e-01 -1.057462930679321289e+00 5.436960458755493164e-01
5.337000000000000000e+03 2.612180519104003906e+01 -6.195077300071716309e-01 -3.033495664596557617e+00 -9.201294183731079102e-01 -1.186087489128112793e+00 5.964341759681701660e-01
5.338000000000000000e+03 2.614121246337890625e+01 -6.213409304618835449e-01 -3.222926139831542969e+00 -1.023666858673095703e+00 -1.273977875709533691e+00 6.837204694747924805e-01
5.339000000000000000e+03 2.616060638427734375e+01 -6.193549633026123047e-01 -3.590672492980957031e+00 -1.150867700576782227e+00 -1.422462105751037598e+00 7.769973874092102051e-01
5.340000000000000000e+03 2.617924118041992188e+01 -6.136261820793151855e-01 -3.938811779022216797e+00 -1.158663988113403320e+00 -1.529242753982543945e+00 9.012959599494934082e-01
5.341000000000000000e+03 2.619640159606933594e+01 -6.043744087219238281e-01 -4.421205043792724609e+00 -1.117536664009094238e+00 -1.661622524261474609e+00 9.682242870330810547e-01
5.342000000000000000e+03 2.621142959594726562e+01 -5.919546484947204590e-01 -4.902182102203369141e+00 -9.403770565986633301e-01 -1.752767801284790039e+00 9.698331952095031738e-01
5.343000000000000000e+03 2.622374725341796875e+01 -5.768435597419738770e-01 -5.395710945129394531e+00 -7.272890210151672363e-01 -1.836899995803833008e+00 8.402302265167236328e-01
5.344000000000000000e+03 2.623288345336914062e+01 -5.596209764480590820e-01 -5.804666042327880859e+00 -4.797939062118530273e-01 -1.885337948799133301e+00 5.792393684387207031e-01
5.345000000000000000e+03 2.623848533630371094e+01 -5.409478545188903809e-01 -6.057469844818115234e+00 -2.605279088020324707e-01 -1.895399332046508789e+00 2.093691825866699219e-01
5.346000000000000000e+03 2.624034118652343750e+01 -5.215408205986022949e-01 -6.139209747314453125e+00 -1.324736326932907104e-01 -1.881505012512207031e+00 -2.859452962875366211e-01
5.347000000000000000e+03 4.272568893432617188e+01 -1.492339515686035156e+01 1.584939098358154297e+01 2.559390306472778320e+00 5.522634506225585938e+00 -4.865859508514404297e+00
5.348000000000000000e+03 4.273359298706054688e+01 -1.490560340881347656e+01 2.105921936035156250e+01 1.012511849403381348e+00 6.621519088745117188e+00 -6.640253663063049316e-01
5.349000000000000000e+03 4.273788452148437500e+01 -1.488661384582519531e+01 2.364779853820800781e+01 2.435260295867919922e+00 7.824917316436767578e+00 2.584763526916503906e+00
5.350000000000000000e+03 4.273839187622070312e+01 -1.486715221405029297e+01 2.475947570800781250e+01 4.677457809448242188e+00 8.831079483032226562e+00 5.809793472290039062e+00
5.351000000000000000e+03 4.273510360717773438e+01 -1.484796333312988281e+01 2.473305511474609375e+01 8.081616401672363281e+00 9.844401359558105469e+00 8.473515510559082031e+00
5.352000000000000000e+03 4.272814559936523438e+01 -1.482978248596191406e+01 2.346998023986816406e+01 1.175329780578613281e+01 1.056698322296142578e+01 1.042837715148925781e+01
5.353000000000000000e+03 4.271777725219726562e+01 -1.481330394744873047e+01 2.164526176452636719e+01 1.599903106689453125e+01 1.129328823089599609e+01 1.130065345764160156e+01
5.354000000000000000e+03 4.270439910888671875e+01 -1.479916000366210938e+01 1.925062179565429688e+01 1.991578674316406250e+01 1.174992275238037109e+01 1.113448810577392578e+01
5.355000000000000000e+03 4.268852615356445312e+01 -1.478789043426513672e+01 1.709257698059082031e+01 2.313126182556152344e+01 1.206715202331542969e+01 9.940640449523925781e+00
5.356000000000000000e+03 4.267076110839843750e+01 -1.477992630004882812e+01 1.548252391815185547e+01 2.562072372436523438e+01 1.233097457885742188e+01 7.845552921295166016e+00
5.357000000000000000e+03 4.265178298950195312e+01 -1.477557373046875000e+01 1.456827926635742188e+01 2.687408828735351562e+01 1.243270969390869141e+01 5.409782409667968750e+00
5.358000000000000000e+03 4.263232421875000000e+01 -1.477499866485595703e+01 1.429302883148193359e+01 2.695063209533691406e+01 1.237309837341308594e+01 2.867888450622558594e+00
5.359000000000000000e+03 4.261312484741210938e+01 -1.477822303771972656e+01 1.527587223052978516e+01 2.633286094665527344e+01 1.248262023925781250e+01 8.072839975357055664e-01
5.360000000000000000e+03 4.259492111206054688e+01 -1.478512382507324219e+01 1.639912986755371094e+01 2.464561080932617188e+01 1.231342220306396484e+01 -9.371020197868347168e-01
5.361000000000000000e+03 4.257840728759765625e+01 -1.479543685913085938e+01 1.820751190185546875e+01 2.299112319946289062e+01 1.235959053039550781e+01 -1.741308689117431641e+00
5.362000000000000000e+03 4.256422042846679688e+01 -1.480876636505126953e+01 1.991859054565429688e+01 2.090149116516113281e+01 1.224602508544921875e+01 -1.930298209190368652e+00
5.363000000000000000e+03 4.255289840698242188e+01 -1.482460308074951172e+01 2.180661010742187500e+01 1.931701850891113281e+01 1.233708858489990234e+01 -1.267336726188659668e+00
5.364000000000000000e+03 4.254487609863281250e+01 -1.484234237670898438e+01 2.318281936645507812e+01 1.782210731506347656e+01 1.230147838592529297e+01 -3.061512112617492676e-02
5.365000000000000000e+03 4.254045867919921875e+01 -1.486130237579345703e+01 2.411420631408691406e+01 1.710017395019531250e+01 1.236431407928466797e+01 1.751619458198547363e+00
5.366000000000000000e+03 4.253981781005859375e+01 -1.488076019287109375e+01 2.432611083984375000e+01 1.714286804199218750e+01 1.244069385528564453e+01 3.859245300292968750e+00
5.367000000000000000e+03 4.254298019409179688e+01 -1.489997005462646484e+01 2.358597183227539062e+01 1.789237022399902344e+01 1.244350242614746094e+01 6.049949645996093750e+00
5.368000000000000000e+03 4.254981994628906250e+01 -1.491819763183593750e+01 2.196082687377929688e+01 1.950097846984863281e+01 1.243854141235351562e+01 7.906473159790039062e+00
5.369000000000000000e+03 4.256007766723632812e+01 -1.493474388122558594e+01 1.943635177612304688e+01 2.173555755615234375e+01 1.235157299041748047e+01 9.156855583190917969e+00
5.370000000000000000e+03 4.257336044311523438e+01 -1.494897747039794922e+01 1.625687980651855469e+01 2.424609375000000000e+01 1.215089130401611328e+01 9.495699882507324219e+00
5.371000000000000000e+03 4.258915710449218750e+01 -1.496035289764404297e+01 1.282246017456054688e+01 2.660591697692871094e+01 1.182851314544677734e+01 8.767200469970703125e+00
5.372000000000000000e+03 4.260686874389648438e+01 -1.496843433380126953e+01 9.488574028015136719e+00 2.840279388427734375e+01 1.136740970611572266e+01 6.974212646484375000e+00
5.373000000000000000e+03 4.262581634521484375e+01 -1.497291278839111328e+01 6.669291019439697266e+00 2.915848541259765625e+01 1.074833297729492188e+01 4.384165287017822266e+00
5.374000000000000000e+03 4.264527130126953125e+01 -1.497361755371093750e+01 4.585401535034179688e+00 2.863973808288574219e+01 9.967541694641113281e+00 1.244564533233642578e+00
5.375000000000000000e+03 4.266449356079101562e+01 -1.497052097320556641e+01 3.431716680526733398e+00 2.676764106750488281e+01 9.059806823730468750e+00 -1.889071345329284668e+00
5.376000000000000000e+03 4.268274307250976562e+01 -1.496374225616455078e+01 3.291171073913574219e+00 2.342948913574218750e+01 8.016198158264160156e+00 -4.881808757781982422e+00
5.377000000000000000e+03 4.269932174682617188e+01 -1.495353984832763672e+01 3.929803133010864258e+00 1.899941253662109375e+01 6.878765106201171875e+00 -7.068818092346191406e+00
5.378000000000000000e+03 4.271360015869140625e+01 -1.494030475616455078e+01 7.429692745208740234e+00 1.171581649780273438e+01 5.743652820587158203e+00 -8.332116127014160156e+00
