# el_label, x, y, sXX, sYY, sZZ, sXY
1.000000000000000000e+00 1.270319080352783203e+01 -1.812271773815155029e-02 -3.582303524017333984e+00 -2.408303499221801758e+00 -1.797182202339172363e+00 -2.601417541503906250e+00
2.000000000000000000e+00 1.250534057617187500e+01 -3.986705839633941650e-02 5.949220657348632812e-01 8.846179842948913574e-01 4.438619911670684814e-01 6.963043808937072754e-01
3.000000000000000000e+00 1.230749034881591797e+01 -6.161140277981758118e-02 -4.981217086315155029e-01 -3.639987707138061523e-01 -2.586361467838287354e-01 1.390855468343943357e-04
4.000000000000000000e+00 1.210964107513427734e+01 -8.335574716329574585e-02 -6.919927000999450684e-01 2.228096276521682739e-01 -1.407549232244491577e-01 1.087913587689399719e-01
5.000000000000000000e+00 1.271521854400634766e+01 -7.527521997690200806e-02 1.049141502380371094e+01 -2.239565849304199219e+00 2.475554704666137695e+00 1.688736081123352051e+00
6.000000000000000000e+00 1.252538776397705078e+01 -1.351212263107299805e-01 4.099473953247070312e+00 2.339907884597778320e-01 1.300039410591125488e+00 1.165117859840393066e+00
7.000000000000000000e+00 1.233555603027343750e+01 -1.949672400951385498e-01 4.021010398864746094e+00 7.851049900054931641e-01 1.441834568977355957e+00 1.941379427909851074e+00
8.000000000000000000e+00 1.214572525024414062e+01 -2.548132538795471191e-01 2.817685604095458984e+00 2.952516078948974609e-01 9.338811635971069336e-01 1.215741038322448730e+00
9.000000000000000000e+00 1.273814296722412109e+01 -1.289925277233123779e-01 1.508703327178955078e+01 2.308486700057983398e+00 5.218656063079833984e+00 8.099843025207519531e+00
1.000000000000000000e+01 1.256359577178955078e+01 -2.246500700712203979e-01 9.412704467773437500e+00 1.471619725227355957e+00 3.265297174453735352e+00 4.681889533996582031e+00
1.100000000000000000e+01 1.238904762268066406e+01 -3.203076124191284180e-01 6.504636287689208984e+00 1.766330361366271973e+00 2.481290102005004883e+00 3.714320898056030273e+00
1.200000000000000000e+01 1.221449947357177734e+01 -4.159651696681976318e-01 5.736259937286376953e+00 1.894938588142395020e+00 2.289359569549560547e+00 3.611078739166259766e+00
1.300000000000000000e+01 1.277108669281005859e+01 -1.772190332412719727e-01 1.653641891479492188e+01 8.852393150329589844e+00 7.616643428802490234e+00 1.294870662689208984e+01
1.400000000000000000e+01 1.261850166320800781e+01 -3.050276041030883789e-01 1.077878379821777344e+01 5.364207744598388672e+00 4.842897415161132812e+00 8.455048561096191406e+00
1.500000000000000000e+01 1.246591567993164062e+01 -4.328361451625823975e-01 8.601480484008789062e+00 4.474428653717041016e+00 3.922772645950317383e+00 6.576106071472167969e+00
1.600000000000000000e+01 1.231333065032958984e+01 -5.606446862220764160e-01 6.793865680694580078e+00 3.763131380081176758e+00 3.167098999023437500e+00 5.575448989868164062e+00
1.700000000000000000e+01 1.281278896331787109e+01 -2.181092649698257446e-01 1.468999576568603516e+01 1.677460479736328125e+01 9.439379692077636719e+00 1.590129375457763672e+01
1.800000000000000000e+01 1.268800544738769531e+01 -3.731779754161834717e-01 1.073530769348144531e+01 1.083745384216308594e+01 6.471828460693359375e+00 1.110270118713378906e+01
1.900000000000000000e+01 1.256322097778320312e+01 -5.282466411590576172e-01 8.354651451110839844e+00 8.530900955200195312e+00 5.065666198730468750e+00 8.811246871948242188e+00
2.000000000000000000e+01 1.243843746185302734e+01 -6.833153963088989258e-01 6.951804161071777344e+00 7.379113197326660156e+00 4.299274921417236328e+00 7.581278800964355469e+00
2.100000000000000000e+01 1.286165428161621094e+01 -2.500984668731689453e-01 1.204523563385009766e+01 2.500213813781738281e+01 1.111421203613281250e+01 1.637538337707519531e+01
2.200000000000000000e+01 1.276944637298583984e+01 -4.264932870864868164e-01 9.034084320068359375e+00 1.694729042053222656e+01 7.794412612915039062e+00 1.203349590301513672e+01
2.300000000000000000e+01 1.267723941802978516e+01 -6.028881072998046875e-01 7.321210861206054688e+00 1.350913238525390625e+01 6.249103069305419922e+00 9.962938308715820312e+00
2.400000000000000000e+01 1.258503150939941406e+01 -7.792829871177673340e-01 6.063120841979980469e+00 1.157914638519287109e+01 5.292680263519287109e+00 8.617465972900390625e+00
2.500000000000000000e+01 1.291581153869628906e+01 -2.719624936580657959e-01 9.162185668945312500e+00 3.244548797607421875e+01 1.248230266571044922e+01 1.438807201385498047e+01
2.600000000000000000e+01 1.285970878601074219e+01 -4.629333317279815674e-01 7.233627319335937500e+00 2.289678382873535156e+01 9.039123535156250000e+00 1.128118419647216797e+01
2.700000000000000000e+01 1.280360698699951172e+01 -6.539041996002197266e-01 5.731092453002929688e+00 1.847715568542480469e+01 7.262474536895751953e+00 9.543497085571289062e+00
2.800000000000000000e+01 1.274750518798828125e+01 -8.448750972747802734e-01 4.804543495178222656e+00 1.588478183746337891e+01 6.206797599792480469e+00 8.402360916137695312e+00
2.900000000000000000e+01 1.297318935394287109e+01 -2.828646898269653320e-01 7.524923801422119141e+00 3.823653411865234375e+01 1.372843742370605469e+01 1.057203388214111328e+01
3.000000000000000000e+01 1.295533943176269531e+01 -4.811036586761474609e-01 5.717426776885986328e+00 2.783509254455566406e+01 1.006575584411621094e+01 8.964101791381835938e+00
3.100000000000000000e+01 1.293748950958251953e+01 -6.793426871299743652e-01 4.544468402862548828e+00 2.288356208801269531e+01 8.228408813476562500e+00 7.794358253479003906e+00
3.200000000000000000e+01 1.291963863372802734e+01 -8.775816559791564941e-01 3.564733028411865234e+00 1.971567916870117188e+01 6.984123706817626953e+00 6.892980575561523438e+00
3.300000000000000000e+01 1.303159236907958984e+01 -2.823878526687622070e-01 7.378448486328125000e+00 4.170416641235351562e+01 1.472478485107421875e+01 5.730286598205566406e+00
3.400000000000000000e+01 1.305267715454101562e+01 -4.803089499473571777e-01 5.400404453277587891e+00 3.136506652832031250e+01 1.102964115142822266e+01 5.669136524200439453e+00
3.500000000000000000e+01 1.307376194000244141e+01 -6.782300472259521484e-01 3.960843086242675781e+00 2.605300521850585938e+01 9.004154205322265625e+00 5.041857242584228516e+00
3.600000000000000000e+01 1.309484672546386719e+01 -8.761511445045471191e-01 3.166999340057373047e+00 2.276609420776367188e+01 7.779928207397460938e+00 4.561076641082763672e+00
3.700000000000000000e+01 1.308878421783447266e+01 -2.705502212047576904e-01 9.206593513488769531e+00 4.292062377929687500e+01 1.563816547393798828e+01 9.480102062225341797e-01
3.800000000000000000e+01 1.314799785614013672e+01 -4.605795741081237793e-01 6.207649230957031250e+00 3.309796905517578125e+01 1.179168510437011719e+01 1.944678425788879395e+00
3.900000000000000000e+01 1.320721054077148438e+01 -6.506089568138122559e-01 4.628728866577148438e+00 2.784774017333984375e+01 9.742940902709960938e+00 1.951857686042785645e+00
4.000000000000000000e+01 1.326642322540283203e+01 -8.406382799148559570e-01 3.578822135925292969e+00 2.439480781555175781e+01 8.392088890075683594e+00 1.805867552757263184e+00
4.100000000000000000e+01 1.314257812500000000e+01 -2.478048205375671387e-01 1.239397621154785156e+01 4.206874084472656250e+01 1.633881378173828125e+01 -3.021993875503540039e+00
4.200000000000000000e+01 1.323765277862548828e+01 -4.226705729961395264e-01 8.376226425170898438e+00 3.326538467407226562e+01 1.249248313903808594e+01 -1.427594542503356934e+00
4.300000000000000000e+01 1.333272838592529297e+01 -5.975363254547119141e-01 6.340997695922851562e+00 2.808370971679687500e+01 1.032741165161132812e+01 -1.009983181953430176e+00
4.400000000000000000e+01 1.342780303955078125e+01 -7.724021077156066895e-01 5.075102806091308594e+00 2.466782569885253906e+01 8.922879219055175781e+00 -7.993277311325073242e-01
4.500000000000000000e+01 1.319091415405273438e+01 -2.150220274925231934e-01 1.656200027465820312e+01 4.000446319580078125e+01 1.696993827819824219e+01 -5.533045768737792969e+00
4.600000000000000000e+01 1.331821346282958984e+01 -3.680325746536254883e-01 1.137887668609619141e+01 3.199489784240722656e+01 1.301213169097900391e+01 -3.966084957122802734e+00
4.700000000000000000e+01 1.344551277160644531e+01 -5.210431218147277832e-01 9.020342826843261719e+00 2.718623733520507812e+01 1.086197376251220703e+01 -3.250228881835937500e+00
4.800000000000000000e+01 1.357281112670898438e+01 -6.740536689758300781e-01 7.366701126098632812e+00 2.383544540405273438e+01 9.360643386840820312e+00 -2.908553123474121094e+00
4.900000000000000000e+01 1.323194313049316406e+01 -1.734563261270523071e-01 2.072268867492675781e+01 3.724924468994140625e+01 1.739158058166503906e+01 -6.499840259552001953e+00
5.000000000000000000e+01 1.338659477233886719e+01 -2.987564206123352051e-01 1.495117378234863281e+01 3.003411674499511719e+01 1.349558734893798828e+01 -5.208327293395996094e+00
5.100000000000000000e+01 1.354124736785888672e+01 -4.240565001964569092e-01 1.200253582000732422e+01 2.540438079833984375e+01 1.122207450866699219e+01 -4.508856773376464844e+00
5.200000000000000000e+01 1.369589900970458984e+01 -5.493565797805786133e-01 1.018611621856689453e+01 2.249858093261718750e+01 9.805409431457519531e+00 -4.014628410339355469e+00
5.300000000000000000e+01 1.326409435272216797e+01 -1.246983408927917480e-01 2.450159263610839844e+01 3.477513885498046875e+01 1.778301811218261719e+01 -5.939338684082031250e+00
5.400000000000000000e+01 1.344018173217773438e+01 -2.174930870532989502e-01 1.823811531066894531e+01 2.770443916320800781e+01 1.378276634216308594e+01 -5.167657852172851562e+00
5.500000000000000000e+01 1.361626815795898438e+01 -3.102878630161285400e-01 1.498741245269775391e+01 2.357790946960449219e+01 1.156959629058837891e+01 -4.524660110473632812e+00
5.600000000000000000e+01 1.379235458374023438e+01 -4.030826091766357422e-01 1.280515575408935547e+01 2.067429351806640625e+01 1.004383468627929688e+01 -4.063235282897949219e+00
5.700000000000000000e+01 1.328613853454589844e+01 -7.061387598514556885e-02 2.715264701843261719e+01 3.274664688110351562e+01 1.796978950500488281e+01 -4.312498092651367188e+00
5.800000000000000000e+01 1.347692203521728516e+01 -1.273523271083831787e-01 2.092234230041503906e+01 2.591305160522460938e+01 1.405061817169189453e+01 -3.895987033843994141e+00
5.900000000000000000e+01 1.366770458221435547e+01 -1.840907782316207886e-01 1.723862648010253906e+01 2.188937950134277344e+01 1.173840236663818359e+01 -3.479205608367919922e+00
6.000000000000000000e+01 1.385848808288574219e+01 -2.408292293548583984e-01 1.495149803161621094e+01 1.918262100219726562e+01 1.024023532867431641e+01 -3.154538154602050781e+00
6.100000000000000000e+01 1.329723262786865234e+01 -1.327259745448827744e-02 2.866920661926269531e+01 3.181981849670410156e+01 1.814670753479003906e+01 -1.932032108306884766e+00
6.200000000000000000e+01 1.349541091918945312e+01 -3.178352490067481995e-02 2.228335571289062500e+01 2.477923583984375000e+01 1.411877727508544922e+01 -1.865641593933105469e+00
6.300000000000000000e+01 1.369358921051025391e+01 -5.029445514082908630e-02 1.860738754272460938e+01 2.102873992919921875e+01 1.189083766937255859e+01 -1.653058886528015137e+00
6.400000000000000000e+01 1.389176750183105469e+01 -6.880538910627365112e-02 1.605252838134765625e+01 1.829408836364746094e+01 1.030398464202880859e+01 -1.604460835456848145e+00
6.500000000000000000e+01 1.329695034027099609e+01 4.513121768832206726e-02 2.864051437377929688e+01 3.166860389709472656e+01 1.809273529052734375e+01 5.735765695571899414e-01
6.600000000000000000e+01 1.349494075775146484e+01 6.555616855621337891e-02 2.239360427856445312e+01 2.494869995117187500e+01 1.420269107818603516e+01 5.564197897911071777e-01
6.700000000000000000e+01 1.369293117523193359e+01 8.598110824823379517e-02 1.854691505432128906e+01 2.091553497314453125e+01 1.183873462677001953e+01 3.466392457485198975e-01
6.800000000000000000e+01 1.389092159271240234e+01 1.064060553908348083e-01 1.614359474182128906e+01 1.844641685485839844e+01 1.037700366973876953e+01 2.708926796913146973e-01
6.900000000000000000e+01 1.328530311584472656e+01 1.023626253008842468e-01 2.735443878173828125e+01 3.295512008666992188e+01 1.809286689758300781e+01 2.920432090759277344e+00
7.000000000000000000e+01 1.347552967071533203e+01 1.609418392181396484e-01 2.099092483520507812e+01 2.578291893005371094e+01 1.403215312957763672e+01 2.615443944931030273e+00
7.100000000000000000e+01 1.366575431823730469e+01 2.195210605859756470e-01 1.733941841125488281e+01 2.211446952819824219e+01 1.183616638183593750e+01 2.226121187210083008e+00
7.200000000000000000e+01 1.385597991943359375e+01 2.781002819538116455e-01 1.485176563262939453e+01 1.920175933837890625e+01 1.021605777740478516e+01 1.800935149192810059e+00
7.300000000000000000e+01 1.326273727416992188e+01 1.562315523624420166e-01 2.468913841247558594e+01 3.472122192382812500e+01 1.782310867309570312e+01 4.595048904418945312e+00
7.400000000000000000e+01 1.343791961669921875e+01 2.507233917713165283e-01 1.848556137084960938e+01 2.787855911254882812e+01 1.390923595428466797e+01 3.867666721343994141e+00
7.500000000000000000e+01 1.361310100555419922e+01 3.452152311801910400e-01 1.508248043060302734e+01 2.351965522766113281e+01 1.158064079284667969e+01 3.344957828521728516e+00
7.600000000000000000e+01 1.378828239440917969e+01 4.397070705890655518e-01 1.274030685424804688e+01 2.108931159973144531e+01 1.014888572692871094e+01 2.908573150634765625e+00
7.700000000000000000e+01 1.323011589050292969e+01 2.046765983104705811e-01 2.116663169860839844e+01 3.737195968627929688e+01 1.756157684326171875e+01 5.103295803070068359e+00
7.800000000000000000e+01 1.338354969024658203e+01 3.314651250839233398e-01 1.518832492828369141e+01 3.004803085327148438e+01 1.357090663909912109e+01 4.024396419525146484e+00
7.900000000000000000e+01 1.353698444366455078e+01 4.582536816596984863e-01 1.218423748016357422e+01 2.558178710937500000e+01 1.132980728149414062e+01 3.294016599655151367e+00
8.000000000000000000e+01 1.369041824340820312e+01 5.850421786308288574e-01 1.028197669982910156e+01 2.252241134643554688e+01 9.841316223144531250e+00 3.040590524673461914e+00
8.100000000000000000e+01 1.318868732452392578e+01 2.458439022302627563e-01 1.707336425781250000e+01 4.004324340820312500e+01 1.713498115539550781e+01 4.214756488800048828e+00
8.200000000000000000e+01 1.331450176239013672e+01 4.000773131847381592e-01 1.175234508514404297e+01 3.211798477172851562e+01 1.316109943389892578e+01 2.792144298553466797e+00
8.300000000000000000e+01 1.344031715393066406e+01 5.543107390403747559e-01 9.204142570495605469e+00 2.732852554321289062e+01 1.095980072021484375e+01 2.160544395446777344e+00
8.400000000000000000e+01 1.356613159179687500e+01 7.085441350936889648e-01 7.492662906646728516e+00 2.390221977233886719e+01 9.418464660644531250e+00 1.752168655395507812e+00
8.500000000000000000e+01 1.314003658294677734e+01 2.781581580638885498e-01 1.309199428558349609e+01 4.211768341064453125e+01 1.656290245056152344e+01 1.775008916854858398e+00
8.600000000000000000e+01 1.323341846466064453e+01 4.539343714714050293e-01 8.782493591308593750e+00 3.342345428466796875e+01 1.266178512573242188e+01 3.286732733249664307e-01
8.700000000000000000e+01 1.332679939270019531e+01 6.297106146812438965e-01 6.572309494018554688e+00 2.826340293884277344e+01 1.045071315765380859e+01 -6.086916103959083557e-02
8.800000000000000000e+01 1.342018032073974609e+01 8.054867982864379883e-01 5.165853500366210938e+00 2.492769050598144531e+01 9.028062820434570312e+00 -2.720759212970733643e-01
8.900000000000000000e+01 1.308602619171142578e+01 3.003827333450317383e-01 1.004037380218505859e+01 4.299481964111328125e+01 1.591055774688720703e+01 -2.099550485610961914e+00
9.000000000000000000e+01 1.314340019226074219e+01 4.909753501415252686e-01 6.657581806182861328e+00 3.330453491210937500e+01 1.198863506317138672e+01 -2.970064401626586914e+00
9.100000000000000000e+01 1.320077419281005859e+01 6.815679669380187988e-01 4.887110710144042969e+00 2.811677932739257812e+01 9.901166915893554688e+00 -2.975980520248413086e+00
9.200000000000000000e+01 1.325814819335937500e+01 8.721606135368347168e-01 3.692609786987304688e+00 2.466662025451660156e+01 8.507768630981445312e+00 -2.811134576797485352e+00
9.300000000000000000e+01 1.302872180938720703e+01 3.116671741008758545e-01 8.307207107543945312e+00 4.183567428588867188e+01 1.504286479949951172e+01 -6.776659011840820312e+00
9.400000000000000000e+01 1.304789352416992188e+01 5.097827911376953125e-01 5.908708095550537109e+00 3.161627578735351562e+01 1.125749492645263672e+01 -6.632716178894042969e+00
9.500000000000000000e+01 1.306706523895263672e+01 7.078983187675476074e-01 4.231144428253173828e+00 2.638196563720703125e+01 9.183933258056640625e+00 -5.993151187896728516e+00
9.600000000000000000e+01 1.308623600006103516e+01 9.060139060020446777e-01 3.302709102630615234e+00 2.313332176208496094e+01 7.930809497833251953e+00 -5.544857501983642578e+00
9.700000000000000000e+01 1.297031784057617188e+01 3.115797042846679688e-01 8.517963409423828125e+00 3.845073318481445312e+01 1.409060859680175781e+01 -1.153267192840576172e+01
9.800000000000000000e+01 1.295055294036865234e+01 5.096369385719299316e-01 6.299011707305908203e+00 2.811661148071289062e+01 1.032468700408935547e+01 -9.877720832824707031e+00
9.900000000000000000e+01 1.293078804016113281e+01 7.076942324638366699e-01 4.844585418701171875e+00 2.322042655944824219e+01 8.419503211975097656e+00 -8.664725303649902344e+00
1.000000000000000000e+02 1.291102313995361328e+01 9.057514667510986328e-01 3.700574874877929688e+00 2.019153404235839844e+01 7.167632579803466797e+00 -7.771523475646972656e+00
1.010000000000000000e+02 1.291304779052734375e+01 3.001236021518707275e-01 1.019869613647460938e+01 3.273020553588867188e+01 1.287866973876953125e+01 -1.528500938415527344e+01
1.020000000000000000e+02 1.285510349273681641e+01 4.905434846878051758e-01 7.906000614166259766e+00 2.320463562011718750e+01 9.333190917968750000e+00 -1.215566349029541016e+01
1.030000000000000000e+02 1.279715824127197266e+01 6.809633374214172363e-01 6.102014064788818359e+00 1.879730224609375000e+01 7.469794750213623047e+00 -1.035109138488769531e+01
1.040000000000000000e+02 1.273921298980712891e+01 8.713832497596740723e-01 4.975506305694580078e+00 1.621269416809082031e+01 6.356460094451904297e+00 -9.143354415893554688e+00
1.050000000000000000e+02 1.285910415649414062e+01 2.777373194694519043e-01 1.325441646575927734e+01 2.535263252258300781e+01 1.158211517333984375e+01 -1.724317169189453125e+01
1.060000000000000000e+02 1.276519680023193359e+01 4.532330036163330078e-01 9.717053413391113281e+00 1.722803497314453125e+01 8.083526611328125000e+00 -1.286068534851074219e+01
1.070000000000000000e+02 1.267128944396972656e+01 6.287286877632141113e-01 7.850352764129638672e+00 1.382468223571777344e+01 6.502510547637939453e+00 -1.071428585052490234e+01
1.080000000000000000e+02 1.257738208770751953e+01 8.042243719100952148e-01 6.292715549468994141e+00 1.175606060028076172e+01 5.414632797241210938e+00 -9.379064559936523438e+00
1.090000000000000000e+02 1.281055068969726562e+01 2.452774941921234131e-01 1.595337963104248047e+01 1.706095504760742188e+01 9.904300689697265625e+00 -1.678070259094238281e+01
1.100000000000000000e+02 1.268427371978759766e+01 3.991332948207855225e-01 1.161075019836425781e+01 1.113368034362792969e+01 6.823328971862792969e+00 -1.181941604614257812e+01
1.110000000000000000e+02 1.255799770355224609e+01 5.529890656471252441e-01 8.856204986572265625e+00 8.751600265502929688e+00 5.282341480255126953e+00 -9.543462753295898438e+00
1.120000000000000000e+02 1.243172073364257812e+01 7.068448662757873535e-01 7.351758956909179688e+00 7.764473438262939453e+00 4.534869670867919922e+00 -8.324432373046875000e+00
1.130000000000000000e+02 1.276924514770507812e+01 2.039862424135208130e-01 1.805315399169921875e+01 9.112945556640625000e+00 8.149829864501953125e+00 -1.374837017059326172e+01
1.140000000000000000e+02 1.261543178558349609e+01 3.303145468235015869e-01 1.170607852935791016e+01 5.569384574890136719e+00 5.182639122009277344e+00 -9.095140457153320312e+00
1.150000000000000000e+02 1.246161842346191406e+01 4.566428363323211670e-01 9.216217041015625000e+00 4.713234901428222656e+00 4.178835868835449219e+00 -7.211943626403808594e+00
1.160000000000000000e+02 1.230780506134033203e+01 5.829711556434631348e-01 7.122502326965332031e+00 4.100458621978759766e+00 3.366888284683227539e+00 -6.130293846130371094e+00
1.170000000000000000e+02 1.273676872253417969e+01 1.554436981678009033e-01 1.678104972839355469e+01 2.438525676727294922e+00 5.765872478485107422e+00 -8.789477348327636719e+00
1.180000000000000000e+02 1.256130504608154297e+01 2.494102865457534790e-01 1.049352550506591797e+01 1.646909952163696289e+00 3.642130613327026367e+00 -5.192556858062744141e+00
1.190000000000000000e+02 1.238584136962890625e+01 3.433768749237060547e-01 7.137233734130859375e+00 1.969590425491333008e+00 2.732047319412231445e+00 -4.219714641571044922e+00
1.200000000000000000e+02 1.221037673950195312e+01 4.373434782028198242e-01 6.187115669250488281e+00 1.918836355209350586e+00 2.431785583496093750e+00 -3.974826574325561523e+00
1.210000000000000000e+02 1.271436405181884766e+01 1.015073955059051514e-01 1.242701625823974609e+01 -2.161308050155639648e+00 3.079712629318237305e+00 -2.142676591873168945e+00
1.220000000000000000e+02 1.252396392822265625e+01 1.595164686441421509e-01 5.239712715148925781e+00 3.512947857379913330e-01 1.677302241325378418e+00 -1.582767009735107422e+00
1.230000000000000000e+02 1.233356380462646484e+01 2.175255268812179565e-01 4.802733898162841797e+00 8.699887990951538086e-01 1.701816797256469727e+00 -2.217087745666503906e+00
1.240000000000000000e+02 1.214316368103027344e+01 2.755346000194549561e-01 3.322181463241577148e+00 2.170586735010147095e-01 1.061772108078002930e+00 -1.563930749893188477e+00
1.250000000000000000e+02 1.270288944244384766e+01 4.424135386943817139e-02 -1.455960512161254883e+00 -2.428963899612426758e+00 -1.165477275848388672e+00 2.321706533432006836e+00
1.260000000000000000e+02 1.250483894348144531e+01 6.407305598258972168e-02 1.874104261398315430e+00 9.817629456520080566e-01 8.567602038383483887e-01 -8.652436137199401855e-01
1.270000000000000000e+02 1.230678749084472656e+01 8.390475809574127197e-02 3.244609534740447998e-01 -4.366406798362731934e-01 -3.365391120314598083e-02 -1.342374086380004883e-01
1.280000000000000000e+02 1.210873699188232422e+01 1.037364602088928223e-01 -1.796217560768127441e-01 2.869633436203002930e-01 3.220247849822044373e-02 -2.481939345598220825e-01
1.290000000000000000e+02 9.823388099670410156e+00 -7.498294115066528320e-01 -3.080229461193084717e-01 1.002852916717529297e-01 -6.232129782438278198e-02 3.840301632881164551e-01
1.300000000000000000e+02 9.700755119323730469e+00 -1.375754952430725098e+00 7.231508493423461914e-01 3.385449945926666260e-01 3.185087740421295166e-01 8.619697093963623047e-01
1.310000000000000000e+02 9.820697784423828125e+00 -9.543808698654174805e-01 1.467321515083312988e-01 1.490558385848999023e-01 8.873640000820159912e-02 4.650076031684875488e-01
1.320000000000000000e+02 8.068387031555175781e+00 -1.247861027717590332e+00 -4.364992082118988037e-01 1.127508655190467834e-01 -9.712450206279754639e-02 6.454841047525405884e-02
1.330000000000000000e+02 8.767588615417480469e+00 -7.688118219375610352e-01 -9.424789547920227051e-01 2.875557355582714081e-02 -2.741169929504394531e-01 3.044353239238262177e-02
1.340000000000000000e+02 9.297545433044433594e+00 -8.536362051963806152e-01 -5.736522674560546875e-01 1.519160866737365723e-01 -1.265208572149276733e-01 2.394662797451019287e-01
1.350000000000000000e+02 9.806981086730957031e+00 -3.466233909130096436e-01 -1.357674956321716309e+00 1.192847192287445068e-01 -3.715170621871948242e-01 -2.600004896521568298e-02
1.360000000000000000e+02 8.793193817138671875e+00 -1.253475427627563477e+00 -1.065058410167694092e-01 2.164681106805801392e-01 3.298868238925933838e-02 3.141646981239318848e-01
1.370000000000000000e+02 6.540471553802490234e+00 -1.247692584991455078e+00 -6.856895089149475098e-01 5.747582018375396729e-02 -1.884641051292419434e-01 -1.846000850200653076e-01
1.380000000000000000e+02 4.238662719726562500e+00 -7.584403753280639648e-01 -6.758884191513061523e-01 -4.158026538789272308e-03 -2.040139287710189819e-01 -2.289833575487136841e-01
1.390000000000000000e+02 4.235295772552490234e+00 -1.253758311271667480e+00 -5.009018182754516602e-01 1.382452086545526981e-03 -1.498558074235916138e-01 -3.166583776473999023e-01
1.400000000000000000e+02 2.734423637390136719e+00 -1.244194746017456055e+00 -2.901102006435394287e-01 -5.108048021793365479e-02 -1.023572012782096863e-01 -2.744401991367340088e-01
1.410000000000000000e+02 2.785777330398559570e+00 -2.604489326477050781e-01 -3.758579790592193604e-01 -2.286326605826616287e-03 -1.134432926774024963e-01 -6.795652955770492554e-02
1.420000000000000000e+02 1.056786417961120605e+00 -3.726062178611755371e-01 -4.291174933314323425e-02 -9.683572687208652496e-03 -1.577859744429588318e-02 -2.842136472463607788e-02
1.430000000000000000e+02 6.722378730773925781e-01 -1.112606167793273926e+00 -5.106177181005477905e-02 -6.332853436470031738e-02 -3.431709110736846924e-02 -6.809650361537933350e-02
1.440000000000000000e+02 3.718343973159790039e-01 -5.559698343276977539e-01 -2.804471179842948914e-03 -1.039274595677852631e-02 -3.959165420383214951e-03 -5.335106048732995987e-03
1.450000000000000000e+02 7.308791160583496094e+00 -1.245316863059997559e+00 -6.414509415626525879e-01 8.850928395986557007e-02 -1.658824980258941650e-01 -8.244163542985916138e-02
1.460000000000000000e+02 5.770056247711181641e+00 -1.250926256179809570e+00 -6.709362268447875977e-01 4.058340564370155334e-02 -1.891058534383773804e-01 -2.543416619300842285e-01
1.470000000000000000e+02 5.001226902008056641e+00 -1.253310561180114746e+00 -5.988090038299560547e-01 1.783627271652221680e-02 -1.742918193340301514e-01 -3.006961047649383545e-01
1.480000000000000000e+02 3.475517749786376953e+00 -1.254068970680236816e+00 -3.981477320194244385e-01 -2.173710428178310394e-02 -1.259654611349105835e-01 -3.171451985836029053e-01
1.490000000000000000e+02 2.027359485626220703e+00 -1.201407194137573242e+00 -1.706419587135314941e-01 -7.683368772268295288e-02 -7.424269616603851318e-02 -2.177478224039077759e-01
1.500000000000000000e+02 1.719086408615112305e+00 -4.110462367534637451e-01 -1.558932662010192871e-01 -2.196568436920642853e-02 -5.335768684744834900e-02 -6.597191840410232544e-02
1.510000000000000000e+02 9.515922546386718750e+00 -6.225807666778564453e-01 -9.985507726669311523e-01 4.036062210798263550e-02 -2.874570488929748535e-01 1.880608797073364258e-01
1.520000000000000000e+02 9.709962844848632812e+00 -1.316840052604675293e-01 -2.190595626831054688e+00 6.024361774325370789e-02 -6.391056180000305176e-01 -3.909699618816375732e-02
1.530000000000000000e+02 9.560712814331054688e+00 -1.026684761047363281e+00 6.525536626577377319e-02 9.955091029405593872e-02 4.944188147783279419e-02 5.096228122711181641e-01
1.540000000000000000e+02 9.831918716430664062e+00 -5.503773093223571777e-01 -1.118066310882568359e+00 3.940507769584655762e-02 -3.235983848571777344e-01 1.372652947902679443e-01
1.550000000000000000e+02 9.815814971923828125e+00 -1.155744433403015137e+00 4.713883996009826660e-01 1.649151295423507690e-01 1.908910572528839111e-01 6.418863534927368164e-01
1.560000000000000000e+02 9.311950683593750000e+00 -1.185759305953979492e+00 7.048650085926055908e-02 2.718947827816009521e-01 1.027143895626068115e-01 4.551979899406433105e-01
1.570000000000000000e+02 8.822173118591308594e+00 -2.753364145755767822e-01 -1.953624725341796875e+00 7.012292626313865185e-04 -5.858770608901977539e-01 -2.569344080984592438e-02
1.580000000000000000e+02 7.306973457336425781e+00 -7.448255419731140137e-01 -1.168126106262207031e+00 2.409905381500720978e-02 -3.432081341743469238e-01 -1.119036227464675903e-01
1.590000000000000000e+02 2.827399015426635742e+00 -7.446436882019042969e-01 -3.712396323680877686e-01 -2.218257822096347809e-02 -1.180266663432121277e-01 -2.048672735691070557e-01
1.600000000000000000e+02 2.295219182968139648e+00 -5.814173221588134766e-01 -2.634789645671844482e-01 -1.532107125967741013e-02 -8.364000916481018066e-02 -1.191539093852043152e-01
1.610000000000000000e+02 5.768700599670410156e+00 -2.635292410850524902e-01 -1.354254126548767090e+00 5.976564716547727585e-03 -4.044832885265350342e-01 -8.141642808914184570e-02
1.620000000000000000e+02 5.768466949462890625e+00 -7.544555664062500000e-01 -9.955450892448425293e-01 9.847561828792095184e-03 -2.957092523574829102e-01 -1.989585459232330322e-01
1.630000000000000000e+02 4.234912872314453125e+00 -2.646820545196533203e-01 -8.510401248931884766e-01 7.817385485395789146e-04 -2.550775110721588135e-01 -8.570506423711776733e-02
1.640000000000000000e+02 9.403262138366699219e+00 -3.215783536434173584e-01 -1.803075551986694336e+00 -3.979337215423583984e-02 -5.528606772422790527e-01 6.619340740144252777e-03
1.650000000000000000e+02 1.334675431251525879e+00 -1.151046276092529297e+00 -9.163736552000045776e-02 -8.456668257713317871e-02 -5.286121368408203125e-02 -1.488318741321563721e-01
1.660000000000000000e+02 3.482805252075195312e+00 -2.622205018997192383e-01 -6.018947362899780273e-01 -5.600249394774436951e-03 -1.822485029697418213e-01 -7.892037183046340942e-02
1.670000000000000000e+02 5.000321865081787109e+00 -7.587987780570983887e-01 -8.438899517059326172e-01 7.281716912984848022e-03 -2.509824633598327637e-01 -2.185007929801940918e-01
1.680000000000000000e+02 5.000012874603271484e+00 -2.654882371425628662e-01 -1.107888460159301758e+00 -2.810626057907938957e-03 -3.332097232341766357e-01 -8.748181164264678955e-02
1.690000000000000000e+02 6.538504123687744141e+00 -2.607580125331878662e-01 -1.576502084732055664e+00 -1.407179632224142551e-03 -4.733727574348449707e-01 -7.275817543268203735e-02
1.700000000000000000e+02 7.307216644287109375e+00 -2.595086991786956787e-01 -1.764010548591613770e+00 7.895538583397865295e-03 -5.268344879150390625e-01 -6.147519499063491821e-02
1.710000000000000000e+02 8.071022033691406250e+00 -2.615022659301757812e-01 -1.890626907348632812e+00 6.537071894854307175e-03 -5.652269721031188965e-01 -3.725168853998184204e-02
1.720000000000000000e+02 6.539313793182373047e+00 -7.484506368637084961e-01 -1.117020010948181152e+00 2.087564393877983093e-02 -3.288433253765106201e-01 -1.630660444498062134e-01
1.730000000000000000e+02 8.061002731323242188e+00 -7.493633627891540527e-01 -1.151477694511413574e+00 4.172820597887039185e-02 -3.329248428344726562e-01 -5.645315349102020264e-02
1.740000000000000000e+02 3.496148824691772461e+00 -7.562894225120544434e-01 -4.999803006649017334e-01 -9.901214390993118286e-03 -1.529644578695297241e-01 -2.210781872272491455e-01
1.750000000000000000e+02 1.214476490020751953e+01 7.339825630187988281e-01 5.932760715484619141e+00 3.734501361846923828e+00 2.900178670883178711e+00 -5.586190223693847656e+00
1.760000000000000000e+02 1.247887611389160156e+01 1.343382477760314941e+00 3.507113933563232422e+00 1.117817783355712891e+01 4.405587673187255859e+00 -7.466017246246337891e+00
1.770000000000000000e+02 1.364659404754638672e+01 1.070404171943664551e+00 4.423655033111572266e+00 2.103358840942382812e+01 7.637173175811767578e+00 5.085026025772094727e-01
1.780000000000000000e+02 1.376440238952636719e+01 1.049996137619018555e+00 5.035156726837158203e+00 1.963052177429199219e+01 7.399703502655029297e+00 7.571014761924743652e-01
1.790000000000000000e+02 1.269655513763427734e+01 -1.071172714233398438e+00 3.891429901123046875e+00 1.412383556365966797e+01 5.404579639434814453e+00 7.353888511657714844e+00
1.800000000000000000e+02 1.212256908416748047e+01 -7.295373082160949707e-01 5.693623542785644531e+00 3.538195610046386719e+00 2.769545793533325195e+00 5.002209186553955078e+00
1.810000000000000000e+02 1.104154872894287109e+01 -3.353134989738464355e-01 -5.058501362800598145e-01 1.549849379807710648e-02 -1.471055001020431519e-01 2.441741079092025757e-01
1.820000000000000000e+02 1.230062198638916016e+01 -8.713000416755676270e-01 5.804701328277587891e+00 6.473392486572265625e+00 3.683428049087524414e+00 6.632363319396972656e+00
1.830000000000000000e+02 1.310265636444091797e+01 -1.093633055686950684e+00 2.570621728897094727e+00 2.009951019287109375e+01 6.801039695739746094e+00 4.313256263732910156e+00
1.840000000000000000e+02 1.009947776794433594e+01 1.255594342947006226e-01 -2.725913286209106445e+00 -1.744735091924667358e-01 -8.701160550117492676e-01 -7.507649809122085571e-02
1.850000000000000000e+02 1.070285415649414062e+01 1.385442256927490234e+00 1.900511741638183594e+00 1.283370733261108398e+00 9.551647305488586426e-01 -2.302612304687500000e+00
1.860000000000000000e+02 1.101276302337646484e+01 2.556859552860260010e-01 -1.442676544189453125e+00 7.730989158153533936e-02 -4.096100032329559326e-01 -3.183148801326751709e-01
1.870000000000000000e+02 1.009733867645263672e+01 7.574741244316101074e-01 -5.535542368888854980e-01 7.997675240039825439e-02 -1.420732438564300537e-01 -4.454942941665649414e-01
1.880000000000000000e+02 1.071538543701171875e+01 9.237248301506042480e-01 1.030364394187927246e+00 5.499220490455627441e-01 4.740859270095825195e-01 -1.385745167732238770e+00
1.890000000000000000e+02 1.091153526306152344e+01 1.140153557062149048e-01 -2.290933609008789062e+00 2.393276058137416840e-02 -6.801002621650695801e-01 -3.889395296573638916e-02
1.900000000000000000e+02 1.191143703460693359e+01 1.210208982229232788e-01 -6.463606953620910645e-01 -1.814122200012207031e-01 -2.483318895101547241e-01 -2.008231282234191895e-01
1.910000000000000000e+02 1.410739040374755859e+01 1.041932851076126099e-01 1.425381469726562500e+01 1.623168754577636719e+01 9.145650863647460938e+00 -1.113803312182426453e-01
1.920000000000000000e+02 1.289351272583007812e+01 1.374935507774353027e+00 2.180948972702026367e+00 1.649332618713378906e+01 5.602282524108886719e+00 -6.361676216125488281e+00
1.930000000000000000e+02 1.249742698669433594e+01 1.033336758613586426e+00 5.062816143035888672e+00 1.100756168365478516e+01 4.821113109588623047e+00 -8.272409439086914062e+00
1.940000000000000000e+02 1.195065689086914062e+01 3.286108672618865967e-01 2.473523616790771484e+00 4.936749339103698730e-01 8.901595473289489746e-01 -1.460000038146972656e+00
1.950000000000000000e+02 1.170674037933349609e+01 -1.167583018541336060e-01 -1.154961228370666504e+00 7.439317554235458374e-02 -3.241704404354095459e-01 1.309404373168945312e-01
1.960000000000000000e+02 1.199907970428466797e+01 -5.348089337348937988e-01 4.441872119903564453e+00 1.319275021553039551e+00 1.728344202041625977e+00 2.944449901580810547e+00
1.970000000000000000e+02 1.329203224182128906e+01 -1.065559506416320801e+00 2.888216733932495117e+00 2.167424964904785156e+01 7.368740081787109375e+00 2.037908077239990234e+00
1.980000000000000000e+02 1.365640258789062500e+01 -1.108904242515563965e+00 3.948574542999267578e+00 2.010697937011718750e+01 7.216666221618652344e+00 -1.031761169433593750e+00
1.990000000000000000e+02 1.171712779998779297e+01 -1.386244893074035645e+00 3.738923788070678711e+00 3.964440822601318359e+00 2.311009407043457031e+00 4.516942977905273438e+00
2.000000000000000000e+02 1.150493717193603516e+01 -1.212478876113891602e-01 -1.373982429504394531e+00 -1.226713182404637337e-03 -4.125627577304840088e-01 7.882430404424667358e-02
2.010000000000000000e+02 1.129814624786376953e+01 -1.301432251930236816e-01 -1.539318203926086426e+00 2.726191096007823944e-02 -4.536168873310089111e-01 5.673870071768760681e-02
2.020000000000000000e+02 1.089408779144287109e+01 -1.385336279869079590e+00 2.268201112747192383e+00 1.499963045120239258e+00 1.130449175834655762e+00 2.338772535324096680e+00
2.030000000000000000e+02 1.033842182159423828e+01 -3.392154574394226074e-01 -1.365909576416015625e+00 3.969951719045639038e-02 -3.978630304336547852e-01 1.106833741068840027e-01
2.040000000000000000e+02 1.010497474670410156e+01 -1.261970698833465576e-01 -2.202594280242919922e+00 -1.458364874124526978e-01 -7.045292854309082031e-01 4.243097454309463501e-02
2.050000000000000000e+02 1.010502338409423828e+01 -1.397456049919128418e+00 1.303451061248779297e+00 8.421761989593505859e-01 6.436882019042968750e-01 1.319678783416748047e+00
2.060000000000000000e+02 1.029996585845947266e+01 -1.409935235977172852e+00 1.516644239425659180e+00 7.775832414627075195e-01 6.882682442665100098e-01 1.472829699516296387e+00
2.070000000000000000e+02 1.013957595825195312e+01 -7.763373255729675293e-01 -5.554889142513275146e-02 1.300948709249496460e-01 2.236379310488700867e-02 4.556911885738372803e-01
2.080000000000000000e+02 1.067965698242187500e+01 -1.365520358085632324e+00 1.953162789344787598e+00 1.108426332473754883e+00 9.184767007827758789e-01 1.942461013793945312e+00
2.090000000000000000e+02 1.013187599182128906e+01 -5.595262050628662109e-01 -5.892180204391479492e-01 1.325040906667709351e-01 -1.370141804218292236e-01 1.850567162036895752e-01
2.100000000000000000e+02 1.249059486389160156e+01 -9.920225739479064941e-01 5.011937618255615234e+00 1.041799163818359375e+01 4.628978729248046875e+00 7.592425346374511719e+00
2.110000000000000000e+02 1.168427753448486328e+01 -8.648257255554199219e-01 3.852490901947021484e+00 1.887186169624328613e+00 1.721903085708618164e+00 3.210135698318481445e+00
2.120000000000000000e+02 1.131298351287841797e+01 -1.050473213195800781e+00 2.976957321166992188e+00 1.437862396240234375e+00 1.324445962905883789e+00 2.531532526016235352e+00
2.130000000000000000e+02 1.129270172119140625e+01 -1.340085387229919434e+00 3.121184110641479492e+00 2.257594108581542969e+00 1.613633394241333008e+00 3.215508222579956055e+00
2.140000000000000000e+02 1.034115982055664062e+01 -1.243623256683349609e+00 1.346671700477600098e+00 6.150321364402770996e-01 5.885111689567565918e-01 1.305809855461120605e+00
2.150000000000000000e+02 1.399448871612548828e+01 4.938091933727264404e-01 1.154670906066894531e+01 1.834200668334960938e+01 8.966614723205566406e+00 2.318224430084228516e+00
2.160000000000000000e+02 1.406647968292236328e+01 3.061367571353912354e-01 1.326053905487060547e+01 1.713374519348144531e+01 9.118285179138183594e+00 1.430336475372314453e+00
2.170000000000000000e+02 1.426105499267578125e+01 -1.876128911972045898e-01 1.295218467712402344e+01 1.523730278015136719e+01 8.456846237182617188e+00 -1.881230950355529785e+00
2.180000000000000000e+02 1.396972560882568359e+01 -5.265408158302307129e-01 1.097109794616699219e+01 1.853711891174316406e+01 8.852465629577636719e+00 -3.719625234603881836e+00
2.190000000000000000e+02 1.009749126434326172e+01 1.393032550811767578e+00 9.441171288490295410e-01 9.507891535758972168e-01 5.684718489646911621e-01 -1.546648502349853516e+00
2.200000000000000000e+02 1.090693187713623047e+01 1.383116364479064941e+00 2.298171520233154297e+00 1.619963169097900391e+00 1.175440430641174316e+00 -2.728987932205200195e+00
2.210000000000000000e+02 1.187668418884277344e+01 1.400981664657592773e+00 3.646096706390380859e+00 5.347115039825439453e+00 2.697963476181030273e+00 -5.643214702606201172e+00
2.220000000000000000e+02 1.226974678039550781e+01 1.351457238197326660e+00 3.843876123428344727e+00 8.709331512451171875e+00 3.765962123870849609e+00 -7.101264953613281250e+00
2.230000000000000000e+02 1.207050704956054688e+01 1.383066058158874512e+00 3.784633159637451172e+00 6.767642498016357422e+00 3.165682792663574219e+00 -6.357792377471923828e+00
2.240000000000000000e+02 1.432421588897705078e+01 3.092376887798309326e-01 1.194549751281738281e+01 1.479258918762207031e+01 8.021426200866699219e+00 1.055710196495056152e+00
2.250000000000000000e+02 1.269764995574951172e+01 1.092482209205627441e+00 3.878537893295288086e+00 1.484780406951904297e+01 5.617902278900146484e+00 -8.188860893249511719e+00
2.260000000000000000e+02 1.377206707000732422e+01 7.924555540084838867e-01 7.220584392547607422e+00 2.159247589111328125e+01 8.643918037414550781e+00 2.079377889633178711e+00
2.270000000000000000e+02 1.168344402313232422e+01 1.412127256393432617e+00 3.437527894973754883e+00 4.241736888885498047e+00 2.303779363632202148e+00 -4.963649749755859375e+00
2.280000000000000000e+02 1.231184768676757812e+01 9.057056903839111328e-01 5.858512401580810547e+00 7.311542987823486328e+00 3.951016664505004883e+00 -7.557820796966552734e+00
2.290000000000000000e+02 1.113910865783691406e+01 1.141296148300170898e+00 2.484194993972778320e+00 1.507355332374572754e+00 1.197465181350708008e+00 -2.761874675750732422e+00
2.300000000000000000e+02 1.310242652893066406e+01 1.115949034690856934e+00 2.497857809066772461e+00 2.073591613769531250e+01 6.970132350921630859e+00 -5.142956256866455078e+00
2.310000000000000000e+02 1.289766311645507812e+01 1.120328664779663086e+00 3.045745849609375000e+00 1.808650970458984375e+01 6.339676856994628906e+00 -7.076238155364990234e+00
2.320000000000000000e+02 1.134805297851562500e+01 4.837582111358642578e-01 8.714231252670288086e-01 2.304491400718688965e-01 3.305616676807403564e-01 -1.044697523117065430e+00
2.330000000000000000e+02 1.146955966949462891e+01 8.329758644104003906e-01 2.899681329727172852e+00 1.120112419128417969e+00 1.205938100814819336e+00 -2.532923936843872070e+00
2.340000000000000000e+02 1.329550361633300781e+01 1.366377115249633789e+00 1.785753011703491211e+00 1.936785888671875000e+01 6.346083641052246094e+00 -3.510844469070434570e+00
2.350000000000000000e+02 1.348898887634277344e+01 1.068711042404174805e+00 3.495176315307617188e+00 2.199513626098632812e+01 7.647093772888183594e+00 -1.104496359825134277e+00
2.360000000000000000e+02 1.400115108489990234e+01 7.306138873100280762e-01 9.010010719299316406e+00 1.816468048095703125e+01 8.152407646179199219e+00 2.378546953201293945e+00
2.370000000000000000e+02 1.290376377105712891e+01 -1.096166729927062988e+00 3.000737428665161133e+00 1.769067573547363281e+01 6.207424163818359375e+00 6.205856800079345703e+00
2.380000000000000000e+02 1.210642719268798828e+01 -1.355272531509399414e+00 3.967194318771362305e+00 6.546432495117187500e+00 3.154088020324707031e+00 5.832954406738281250e+00
2.390000000000000000e+02 1.421041488647460938e+01 -3.828993737697601318e-01 1.175773239135742188e+01 1.613060188293457031e+01 8.366499900817871094e+00 -2.842904090881347656e+00
2.400000000000000000e+02 1.269025421142578125e+01 -1.344462394714355469e+00 2.999978065490722656e+00 1.341434478759765625e+01 4.924296855926513672e+00 6.409510135650634766e+00
2.410000000000000000e+02 1.190921783447265625e+01 -1.036055311560630798e-01 -9.222863912582397461e-01 -1.465842127799987793e-01 -3.206611871719360352e-01 8.217729628086090088e-02
2.420000000000000000e+02 1.384804821014404297e+01 -6.974467039108276367e-01 8.453599929809570312e+00 2.018586540222167969e+01 8.591839790344238281e+00 -3.591733694076538086e+00
2.430000000000000000e+02 1.347757625579833984e+01 -1.292358756065368652e+00 2.504345655441284180e+00 1.948816299438476562e+01 6.597752571105957031e+00 1.029023647308349609e+00
2.440000000000000000e+02 1.347221088409423828e+01 1.358769893646240234e+00 2.215933322906494141e+00 1.947192001342773438e+01 6.506356239318847656e+00 -1.867857217788696289e+00
2.450000000000000000e+02 1.401136302947998047e+01 9.655618071556091309e-01 6.762887001037597656e+00 1.856962013244628906e+01 7.599751949310302734e+00 2.204542160034179688e+00
2.460000000000000000e+02 1.390910816192626953e+01 1.103288292884826660e+00 4.888056278228759766e+00 1.920297431945800781e+01 7.227309226989746094e+00 1.108701229095458984e+00
2.470000000000000000e+02 1.369493675231933594e+01 -8.177587389945983887e-01 6.496725559234619141e+00 2.160759735107421875e+01 8.431297302246093750e+00 -2.655536174774169922e+00
2.480000000000000000e+02 1.355201148986816406e+01 -9.092128276824951172e-01 4.500072002410888672e+00 2.264373016357421875e+01 8.143140792846679688e+00 -1.041228294372558594e+00
2.490000000000000000e+02 1.426404190063476562e+01 5.015640258789062500e-01 1.084452724456787109e+01 1.561365985870361328e+01 7.937456130981445312e+00 1.869012117385864258e+00
2.500000000000000000e+02 1.435137081146240234e+01 -4.226939082145690918e-01 1.071650409698486328e+01 1.469030380249023438e+01 7.622042179107666016e+00 -2.827558040618896484e+00
2.510000000000000000e+02 1.426952552795410156e+01 -5.635122060775756836e-01 1.015656661987304688e+01 1.577562141418457031e+01 7.779656410217285156e+00 -3.528910160064697266e+00
2.520000000000000000e+02 1.421319389343261719e+01 6.724809408187866211e-01 9.610702514648437500e+00 1.634150123596191406e+01 7.785661220550537109e+00 2.135010957717895508e+00
2.530000000000000000e+02 1.412899589538574219e+01 8.212124109268188477e-01 8.063481330871582031e+00 1.720420265197753906e+01 7.580304622650146484e+00 2.161359786987304688e+00
2.540000000000000000e+02 1.404579734802246094e+01 -3.246946036815643311e-01 1.291147708892822266e+01 1.727246856689453125e+01 9.055183410644531250e+00 -3.114179134368896484e+00
2.550000000000000000e+02 1.409439754486083984e+01 -1.071412190794944763e-01 1.431651973724365234e+01 1.631173706054687500e+01 9.188476562500000000e+00 -1.531236886978149414e+00
2.560000000000000000e+02 1.375941181182861328e+01 9.218105077743530273e-01 6.133814334869384766e+00 2.079837799072265625e+01 8.079657554626464844e+00 1.316427469253540039e+00
2.570000000000000000e+02 1.363629436492919922e+01 1.307671904563903809e+00 2.681708335876464844e+00 1.940600585937500000e+01 6.626314163208007812e+00 -8.445643186569213867e-01
2.580000000000000000e+02 1.364781379699707031e+01 -1.252893567085266113e+00 3.211215496063232422e+00 1.945131301879882812e+01 6.798758506774902344e+00 -4.773851633071899414e-01
2.590000000000000000e+02 1.371952247619628906e+01 -9.608502984046936035e-01 5.219584941864013672e+00 2.049178695678710938e+01 7.713411808013916016e+00 -2.035343647003173828e+00
2.600000000000000000e+02 1.309983634948730469e+01 1.367679595947265625e+00 1.922400951385498047e+00 1.838036155700683594e+01 6.090828418731689453e+00 -4.895530223846435547e+00
2.610000000000000000e+02 1.030216217041015625e+01 1.171981811523437500e+00 8.730059266090393066e-01 7.015898823738098145e-01 4.723787307739257812e-01 -1.382676601409912109e+00
2.620000000000000000e+02 1.145063304901123047e+01 1.259871959686279297e+00 3.290891647338867188e+00 2.692647695541381836e+00 1.795061826705932617e+00 -3.885295629501342773e+00
2.630000000000000000e+02 1.029905414581298828e+01 1.390569090843200684e+00 1.161201357841491699e+00 9.387022256851196289e-01 6.299710869789123535e-01 -1.666221499443054199e+00
2.640000000000000000e+02 1.009727668762207031e+01 5.470964312553405762e-01 -1.022260427474975586e+00 1.647995263338088989e-01 -2.572382688522338867e-01 -2.205065339803695679e-01
2.650000000000000000e+02 1.081954002380371094e+01 6.130750775337219238e-01 2.346939444541931152e-01 2.889994978904724121e-01 1.571080386638641357e-01 -9.356957077980041504e-01
2.660000000000000000e+02 1.029706859588623047e+01 3.360853195190429688e-01 -1.810143947601318359e+00 8.179679512977600098e-02 -5.185041427612304688e-01 -1.965391188859939575e-01
2.670000000000000000e+02 1.119834423065185547e+01 3.465681374073028564e-01 -3.340249359607696533e-01 9.953223913908004761e-02 -7.034780830144882202e-02 -4.459103047847747803e-01
2.680000000000000000e+02 1.175101089477539062e+01 3.658157885074615479e-01 1.660889744758605957e+00 1.330631822347640991e-01 5.381858944892883301e-01 -1.225413084030151367e+00
2.690000000000000000e+02 1.171162509918212891e+01 1.346008628606796265e-01 -1.032720088958740234e+00 1.339631527662277222e-01 -2.696270644664764404e-01 -2.064820826053619385e-01
2.700000000000000000e+02 1.109006214141845703e+01 -1.263624429702758789e-01 -1.689697742462158203e+00 -5.675058811902999878e-02 -5.239345431327819824e-01 7.757829874753952026e-02
2.710000000000000000e+02 1.194093704223632812e+01 -3.149972856044769287e-01 2.147269487380981445e+00 3.148379027843475342e-01 7.386322021484375000e-01 1.172603845596313477e+00
2.720000000000000000e+02 1.290195274353027344e+01 -1.350802302360534668e+00 2.366199731826782227e+00 1.594061851501464844e+01 5.492045402526855469e+00 5.528281211853027344e+00
2.730000000000000000e+02 1.310249900817871094e+01 -1.345376849174499512e+00 2.090867042541503906e+00 1.778245353698730469e+01 5.961996078491210938e+00 4.122526645660400391e+00
2.740000000000000000e+02 1.230881023406982422e+01 -1.383639931678771973e+00 3.686096191406250000e+00 8.558343887329101562e+00 3.673331975936889648e+00 6.214133739471435547e+00
2.750000000000000000e+02 1.069672966003417969e+01 -3.163407146930694580e-01 -9.991121888160705566e-01 1.000197380781173706e-01 -2.697277367115020752e-01 2.022164165973663330e-01
2.760000000000000000e+02 1.108176612854003906e+01 -1.364502549171447754e+00 2.697827100753784180e+00 1.658021569252014160e+00 1.306754589080810547e+00 2.716495752334594727e+00
2.770000000000000000e+02 1.249091434478759766e+01 -1.368559002876281738e+00 3.422995328903198242e+00 1.101801586151123047e+01 4.332303524017333984e+00 6.651545524597167969e+00
2.780000000000000000e+02 1.179983234405517578e+01 -1.196998000144958496e+00 4.167264461517333984e+00 3.918181896209716797e+00 2.425633907318115234e+00 4.674004554748535156e+00
2.790000000000000000e+02 1.237675380706787109e+01 -1.197484970092773438e+00 4.339542865753173828e+00 9.366875648498535156e+00 4.111925601959228516e+00 6.774904251098632812e+00
2.800000000000000000e+02 1.011634826660156250e+01 -1.195173740386962891e+00 8.400700688362121582e-01 5.470279455184936523e-01 4.161294102668762207e-01 9.251701235771179199e-01
2.810000000000000000e+02 1.029956150054931641e+01 1.257597506046295166e-01 -2.621366262435913086e+00 7.767970860004425049e-02 -7.631059885025024414e-01 1.714035682380199432e-02
2.820000000000000000e+02 1.071298885345458984e+01 1.338638961315155029e-01 -2.400133371353149414e+00 -1.752595789730548859e-02 -7.252978086471557617e-01 -4.208901152014732361e-02
2.830000000000000000e+02 1.009821605682373047e+01 9.679603576660156250e-01 4.633622709661722183e-03 4.588354229927062988e-01 1.390407085418701172e-01 -7.217167019844055176e-01
2.840000000000000000e+02 1.013288116455078125e+01 -9.896888136863708496e-01 4.613565206527709961e-01 2.219395190477371216e-01 2.049888223409652710e-01 6.529878973960876465e-01
2.850000000000000000e+02 1.030985069274902344e+01 -1.227855831384658813e-01 -2.125278949737548828e+00 6.583268195390701294e-02 -6.178339123725891113e-01 -4.980494827032089233e-02
2.860000000000000000e+02 1.172340965270996094e+01 -3.508400022983551025e-01 1.457758188247680664e+00 1.487366408109664917e-01 4.819484353065490723e-01 8.921036720275878906e-01
2.870000000000000000e+02 1.050674533843994141e+01 1.163208484649658203e+00 1.164849400520324707e+00 7.466862201690673828e-01 5.734606981277465820e-01 -1.572384834289550781e+00
2.880000000000000000e+02 1.050179195404052734e+01 1.276471167802810669e-01 -2.536823987960815430e+00 1.317696180194616318e-03 -7.606518864631652832e-01 -5.712455883622169495e-02
2.890000000000000000e+02 1.108994388580322266e+01 1.042697206139564514e-01 -2.060199499130249023e+00 6.690971553325653076e-03 -6.160525083541870117e-01 -7.937974482774734497e-02
2.900000000000000000e+02 1.087088966369628906e+01 -3.228363096714019775e-01 -8.685607910156250000e-01 3.582409769296646118e-02 -2.498210072517395020e-01 1.473574489355087280e-01
2.910000000000000000e+02 1.067677783966064453e+01 -1.115097403526306152e+00 1.660036802291870117e+00 6.220990419387817383e-01 6.846407651901245117e-01 1.411041259765625000e+00
2.920000000000000000e+02 1.101492023468017578e+01 -9.711965918540954590e-01 2.058988332748413086e+00 7.783876061439514160e-01 8.512127399444580078e-01 1.703157663345336914e+00
2.930000000000000000e+02 1.080070304870605469e+01 -6.464942097663879395e-01 5.474008917808532715e-01 2.423529177904129028e-01 2.369261533021926880e-01 6.768832802772521973e-01
2.940000000000000000e+02 1.009870433807373047e+01 1.179475426673889160e+00 4.826311767101287842e-01 8.006116747856140137e-01 3.849728405475616455e-01 -1.161016464233398438e+00
2.950000000000000000e+02 1.180728054046630859e+01 6.023392677307128906e-01 3.875912666320800781e+00 1.336235404014587402e+00 1.563644409179687500e+00 -2.913309574127197266e+00
2.960000000000000000e+02 1.193958282470703125e+01 -9.739044308662414551e-01 4.796113967895507812e+00 3.467031955718994141e+00 2.478943824768066406e+00 4.750628948211669922e+00
2.970000000000000000e+02 1.180423736572265625e+01 8.494678139686584473e-01 4.438405036926269531e+00 2.297485351562500000e+00 2.020767211914062500e+00 -4.042330265045166016e+00
2.980000000000000000e+02 1.066752624511718750e+01 5.484197735786437988e-01 -3.584468066692352295e-01 1.142278611660003662e-01 -7.326567918062210083e-02 -5.395270586013793945e-01
2.990000000000000000e+02 1.070545482635498047e+01 3.540228009223937988e-01 -1.256631851196289062e+00 6.928995996713638306e-02 -3.562025725841522217e-01 -2.836438417434692383e-01
3.000000000000000000e+02 1.173807048797607422e+01 -6.006668210029602051e-01 3.371864795684814453e+00 1.051889538764953613e+00 1.327126264572143555e+00 2.308981657028198242e+00
3.010000000000000000e+02 1.131310558319091797e+01 -5.265269875526428223e-01 1.278410196304321289e+00 4.040451645851135254e-01 5.047366023063659668e-01 1.035833954811096191e+00
3.020000000000000000e+02 1.071798992156982422e+01 -8.718312978744506836e-01 1.011695384979248047e+00 3.920407295227050781e-01 4.211208224296569824e-01 1.017017841339111328e+00
3.030000000000000000e+02 1.050714969635009766e+01 -1.142044514417648315e-01 -2.112795829772949219e+00 -4.038377106189727783e-02 -6.459538936614990234e-01 -1.389074046164751053e-02
3.040000000000000000e+02 1.217789173126220703e+01 1.084596276283264160e+00 5.103974342346191406e+00 6.886181354522705078e+00 3.597046613693237305e+00 -6.910537242889404297e+00
3.050000000000000000e+02 1.170276451110839844e+01 1.053166747093200684e+00 4.194288730621337891e+00 2.927053928375244141e+00 2.136402845382690430e+00 -4.461710929870605469e+00
3.060000000000000000e+02 1.029992580413818359e+01 9.596768021583557129e-01 3.140722513198852539e-01 4.560739696025848389e-01 2.310438603162765503e-01 -1.028773903846740723e+00
3.070000000000000000e+02 1.061079883575439453e+01 -4.914663732051849365e-01 -3.687053024768829346e-01 1.331857442855834961e-01 -7.065586745738983154e-02 3.015482127666473389e-01
3.080000000000000000e+02 1.047835063934326172e+01 -1.388668775558471680e+00 1.718530058860778809e+00 8.502199649810791016e-01 7.706249952316284180e-01 1.634051918983459473e+00
3.090000000000000000e+02 1.040186023712158203e+01 -1.047958254814147949e+00 9.983363747596740723e-01 4.950035810470581055e-01 4.480019807815551758e-01 1.060194730758666992e+00
3.100000000000000000e+02 1.042503547668457031e+01 -8.064486980438232422e-01 4.576671123504638672e-01 2.524470984935760498e-01 2.130342721939086914e-01 6.509130001068115234e-01
3.110000000000000000e+02 1.093592166900634766e+01 -1.188276648521423340e+00 2.327669858932495117e+00 1.144639492034912109e+00 1.041692733764648438e+00 2.090565443038940430e+00
3.120000000000000000e+02 1.152040290832519531e+01 -1.360256910324096680e+00 3.506897449493408203e+00 3.138505935668945312e+00 1.993620991706848145e+00 3.962152481079101562e+00
3.130000000000000000e+02 1.190186786651611328e+01 -1.371047616004943848e+00 4.026746749877929688e+00 4.893794536590576172e+00 2.676162481307983398e+00 5.151941299438476562e+00
3.140000000000000000e+02 1.158058738708496094e+01 -1.112351775169372559e+00 3.891067743301391602e+00 2.481906890869140625e+00 1.911892414093017578e+00 3.707184314727783203e+00
3.150000000000000000e+02 1.011693668365478516e+01 -3.421741127967834473e-01 -1.403361201286315918e+00 -1.025415658950805664e-01 -4.517708420753479004e-01 5.191357061266899109e-02
3.160000000000000000e+02 1.039495468139648438e+01 -5.661576986312866211e-01 -3.159310519695281982e-01 2.281993441283702850e-02 -8.793333917856216431e-02 3.529061377048492432e-01
3.170000000000000000e+02 1.069969272613525391e+01 -1.117668449878692627e-01 -2.059254169464111328e+00 4.195659607648849487e-02 -6.051892638206481934e-01 -1.513782050460577011e-02
3.180000000000000000e+02 1.052733707427978516e+01 -3.108991682529449463e-01 -1.258529543876647949e+00 7.888499647378921509e-03 -3.751923143863677979e-01 9.338328242301940918e-02
3.190000000000000000e+02 1.089154243469238281e+01 -1.142081767320632935e-01 -1.911564350128173828e+00 6.375975161790847778e-02 -5.543413758277893066e-01 8.596980571746826172e-02
3.200000000000000000e+02 1.132084083557128906e+01 -3.488889336585998535e-01 9.813839942216873169e-02 7.500937581062316895e-02 5.194433405995368958e-02 4.971972703933715820e-01
3.210000000000000000e+02 1.216595935821533203e+01 -1.101226568222045898e+00 4.954058170318603516e+00 6.310980319976806641e+00 3.379511594772338867e+00 6.163916110992431641e+00
3.220000000000000000e+02 1.329354858398437500e+01 -1.323786139488220215e+00 2.096402883529663086e+00 1.881685256958007812e+01 6.273976325988769531e+00 2.534491539001464844e+00
3.230000000000000000e+02 1.378621387481689453e+01 -1.172042965888977051e+00 4.096545219421386719e+00 1.877812576293945312e+01 6.862401008605957031e+00 -1.463493466377258301e+00
3.240000000000000000e+02 1.390132808685302734e+01 -1.034590125083923340e+00 5.415391921997070312e+00 1.877020835876464844e+01 7.255679607391357422e+00 -2.477468967437744141e+00
3.250000000000000000e+02 1.402646827697753906e+01 -8.749228715896606445e-01 7.176558494567871094e+00 1.808731842041015625e+01 7.579163074493408203e+00 -3.248932123184204102e+00
3.260000000000000000e+02 1.415377807617187500e+01 -7.073283195495605469e-01 8.951814651489257812e+00 1.690849304199218750e+01 7.758092403411865234e+00 -3.598860263824462891e+00
3.270000000000000000e+02 1.439678001403808594e+01 -2.547117471694946289e-01 1.148952484130859375e+01 1.470968627929687500e+01 7.859763622283935547e+00 -2.184076547622680664e+00
3.280000000000000000e+02 1.439437961578369141e+01 -8.580493181943893433e-02 1.275397586822509766e+01 1.457562065124511719e+01 8.198879241943359375e+00 -1.189992547035217285e+00
3.290000000000000000e+02 1.435896110534667969e+01 1.056856215000152588e-01 1.252922725677490234e+01 1.463646507263183594e+01 8.149707794189453125e+00 -1.073857620358467102e-01
3.300000000000000000e+02 1.387595653533935547e+01 6.596536636352539062e-01 9.513549804687500000e+00 2.030331230163574219e+01 8.945058822631835938e+00 2.652162313461303711e+00
3.310000000000000000e+02 1.378452682495117188e+01 1.220474958419799805e+00 3.849340200424194336e+00 1.892933845520019531e+01 6.833603858947753906e+00 3.506267964839935303e-01
3.320000000000000000e+02 1.370498180389404297e+01 1.145750999450683594e+00 4.005133628845214844e+00 1.986165428161621094e+01 7.160036563873291016e+00 2.260482609272003174e-01
3.330000000000000000e+02 1.337038707733154297e+01 1.178194403648376465e+00 2.649309396743774414e+00 2.101648139953613281e+01 7.099737167358398438e+00 -2.456874847412109375e+00
3.340000000000000000e+02 1.329785823822021484e+01 1.054082989692687988e+00 2.957946300506591797e+00 2.224216270446777344e+01 7.560032844543457031e+00 -2.957997322082519531e+00
3.350000000000000000e+02 1.268907165527343750e+01 1.365699887275695801e+00 2.888521909713745117e+00 1.404564666748046875e+01 5.080250740051269531e+00 -7.189820766448974609e+00
3.360000000000000000e+02 1.200595855712890625e+01 1.144431233406066895e+00 4.429286003112792969e+00 5.151494979858398438e+00 2.874234199523925781e+00 -5.899272441864013672e+00
3.370000000000000000e+02 1.182945346832275391e+01 1.189379811286926270e+00 4.102243900299072266e+00 4.422811985015869141e+00 2.557516813278198242e+00 -5.276853084564208984e+00
3.380000000000000000e+02 1.165273380279541016e+01 1.224408984184265137e+00 3.582672357559204102e+00 3.263018131256103516e+00 2.053707122802734375e+00 -4.503911972045898438e+00
3.390000000000000000e+02 1.131912517547607422e+01 1.404325127601623535e+00 2.925395727157592773e+00 2.422554731369018555e+00 1.604385137557983398e+00 -3.761641979217529297e+00
3.400000000000000000e+02 1.050070476531982422e+01 1.388066768646240234e+00 1.544649362564086914e+00 1.145905494689941406e+00 8.071664571762084961e-01 -2.040489673614501953e+00
3.410000000000000000e+02 1.092049217224121094e+01 1.148667573928833008e+00 2.010712623596191406e+00 1.102959990501403809e+00 9.341018199920654297e-01 -2.199857234954833984e+00
3.420000000000000000e+02 1.112216663360595703e+01 1.378957867622375488e+00 2.737978935241699219e+00 1.982457160949707031e+00 1.416130900382995605e+00 -3.146595239639282227e+00
3.430000000000000000e+02 1.149492549896240234e+01 1.423484325408935547e+00 3.094373226165771484e+00 3.464341878890991211e+00 1.967614531517028809e+00 -4.284368038177490234e+00
3.440000000000000000e+02 1.049120044708251953e+01 7.432599663734436035e-01 1.274255514144897461e-01 2.353105545043945312e-01 1.088208332657814026e-01 -8.236273527145385742e-01
3.450000000000000000e+02 1.029523181915283203e+01 7.517581582069396973e-01 -2.300031930208206177e-01 3.253419995307922363e-01 2.860163711011409760e-02 -5.843817591667175293e-01
3.460000000000000000e+02 1.009831619262695312e+01 3.365496993064880371e-01 -1.914831638336181641e+00 -1.635275185108184814e-01 -6.235077381134033203e-01 -8.768472820520401001e-02
3.470000000000000000e+02 1.090398502349853516e+01 4.197919368743896484e-01 -5.232143998146057129e-01 1.336000859737396240e-01 -1.168842986226081848e-01 -4.450961649417877197e-01
3.480000000000000000e+02 1.128432273864746094e+01 1.394569724798202515e-01 -1.704326152801513672e+00 1.101625710725784302e-01 -4.782490730285644531e-01 -2.116973996162414551e-01
3.490000000000000000e+02 1.149982929229736328e+01 1.503344774246215820e-01 -1.387273550033569336e+00 -9.830728918313980103e-02 -4.456742405891418457e-01 -2.035456150770187378e-01
3.500000000000000000e+02 1.160235881805419922e+01 6.169928908348083496e-01 2.746569395065307617e+00 7.923894524574279785e-01 1.061687707901000977e+00 -2.140837669372558594e+00
3.510000000000000000e+02 1.202034854888916016e+01 5.419855117797851562e-01 4.857076644897460938e+00 1.333734750747680664e+00 1.857243418693542480e+00 -3.458134174346923828e+00
3.520000000000000000e+02 1.201167488098144531e+01 9.273467063903808594e-01 5.243587493896484375e+00 3.944600820541381836e+00 2.756456613540649414e+00 -5.509896278381347656e+00
3.530000000000000000e+02 1.151451301574707031e+01 -3.513401746749877930e-01 6.812753677368164062e-01 2.701869904994964600e-01 2.854387164115905762e-01 6.958917379379272461e-01
3.540000000000000000e+02 1.149703693389892578e+01 -5.755389332771301270e-01 2.096525430679321289e+00 4.984781444072723389e-01 7.785010337829589844e-01 1.418824911117553711e+00
3.550000000000000000e+02 1.346124076843261719e+01 9.624370336532592773e-01 4.199532985687255859e+00 2.332682418823242188e+01 8.257906913757324219e+00 -4.486975669860839844e-01
3.560000000000000000e+02 1.348074054718017578e+01 -1.072705149650573730e+00 3.464827299118041992e+00 2.140539360046386719e+01 7.461066722869873047e+00 2.251721918582916260e-01
3.570000000000000000e+02 1.118061828613281250e+01 -4.322742223739624023e-01 1.566555500030517578e-01 1.430764943361282349e-01 8.991961926221847534e-02 4.575944244861602783e-01
3.580000000000000000e+02 1.136730003356933594e+01 1.083997368812561035e+00 3.192375421524047852e+00 1.671822190284729004e+00 1.459259271621704102e+00 -3.274018764495849609e+00
3.590000000000000000e+02 1.050371265411376953e+01 9.474544525146484375e-01 6.590999960899353027e-01 5.696212053298950195e-01 3.686163723468780518e-01 -1.193236589431762695e+00
3.600000000000000000e+02 1.071298122406005859e+01 1.153715610504150391e+00 1.573617100715637207e+00 9.891238808631896973e-01 7.688223123550415039e-01 -1.908877372741699219e+00
3.610000000000000000e+02 1.092690467834472656e+01 9.195960164070129395e-01 1.442808032035827637e+00 7.883625030517578125e-01 6.693511605262756348e-01 -1.718875765800476074e+00
3.620000000000000000e+02 1.112591361999511719e+01 9.301255941390991211e-01 2.097598314285278320e+00 8.318237662315368652e-01 8.788266181945800781e-01 -2.047654390335083008e+00
3.630000000000000000e+02 1.141031455993652344e+01 -8.013141155242919922e-01 2.685560226440429688e+00 8.603246808052062988e-01 1.063765525817871094e+00 2.014412879943847656e+00
3.640000000000000000e+02 1.127763652801513672e+01 7.330211997032165527e-01 1.862142086029052734e+00 5.309690833091735840e-01 7.179333567619323730e-01 -1.745234966278076172e+00
3.650000000000000000e+02 1.113596725463867188e+01 7.484856843948364258e-01 1.433232307434082031e+00 6.499748826026916504e-01 6.249621510505676270e-01 -1.613158106803894043e+00
3.660000000000000000e+02 1.348921108245849609e+01 1.227294802665710449e+00 2.561814546585083008e+00 2.022435188293457031e+01 6.835850238800048828e+00 -1.796282529830932617e+00
3.670000000000000000e+02 1.360207939147949219e+01 1.211659908294677734e+00 3.096939563751220703e+00 2.015650939941406250e+01 6.976034641265869141e+00 -5.201659202575683594e-01
3.680000000000000000e+02 1.049742984771728516e+01 3.388842940330505371e-01 -1.594735503196716309e+00 8.501145988702774048e-03 -4.758703112602233887e-01 -1.308651864528656006e-01
3.690000000000000000e+02 1.029390144348144531e+01 5.442680716514587402e-01 -9.173508286476135254e-01 -2.549562044441699982e-02 -2.828539311885833740e-01 -3.146552741527557373e-01
3.700000000000000000e+02 1.048702716827392578e+01 5.429319143295288086e-01 -7.272105216979980469e-01 1.796447634696960449e-01 -1.642697304487228394e-01 -4.436706900596618652e-01
3.710000000000000000e+02 1.131057167053222656e+01 8.985217213630676270e-01 2.522011756896972656e+00 1.030627012252807617e+00 1.065791606903076172e+00 -2.372692584991455078e+00
3.720000000000000000e+02 1.097490406036376953e+01 7.021961212158203125e-01 8.813511729240417480e-01 4.097512662410736084e-01 3.873307406902313232e-01 -1.187020301818847656e+00
3.730000000000000000e+02 1.107320022583007812e+01 5.162409543991088867e-01 3.621074259281158447e-01 2.289330810308456421e-01 1.773121505975723267e-01 -9.085099101066589355e-01
3.740000000000000000e+02 1.093357181549072266e+01 -4.851738810539245605e-01 6.005086377263069153e-02 1.171482130885124207e-01 5.315972492098808289e-02 5.003132820129394531e-01
3.750000000000000000e+02 1.357997989654541016e+01 9.745948314666748047e-01 4.842836856842041016e+00 2.248667335510253906e+01 8.198852539062500000e+00 5.588723421096801758e-01
3.760000000000000000e+02 1.355471134185791016e+01 1.137002229690551758e+00 3.407499313354492188e+00 2.130292129516601562e+01 7.413125991821289062e+00 -7.000933289527893066e-01
3.770000000000000000e+02 1.153993225097656250e+01 3.984003961086273193e-01 1.093606352806091309e+00 3.355494439601898193e-01 4.287467598915100098e-01 -1.002351760864257812e+00
3.780000000000000000e+02 1.142759799957275391e+01 6.650775074958801270e-01 2.157284736633300781e+00 7.605578303337097168e-01 8.753527998924255371e-01 -1.869920015335083008e+00
3.790000000000000000e+02 1.120696926116943359e+01 6.081845760345458984e-01 1.015045881271362305e+00 4.308501780033111572e-01 4.337688386440277100e-01 -1.227863430976867676e+00
3.800000000000000000e+02 1.121888923645019531e+01 -6.932747364044189453e-01 1.660740137100219727e+00 5.678987503051757812e-01 6.685916781425476074e-01 1.332502841949462891e+00
3.810000000000000000e+02 1.108428573608398438e+01 -5.829490423202514648e-01 6.772012114524841309e-01 1.665656864643096924e-01 2.531300485134124756e-01 7.883359193801879883e-01
3.820000000000000000e+02 1.154584217071533203e+01 9.661174416542053223e-01 3.678910970687866211e+00 1.869595408439636230e+00 1.664551854133605957e+00 -3.410086870193481445e+00
3.830000000000000000e+02 1.161769866943359375e+01 8.094942569732666016e-01 3.499909639358520508e+00 1.499452471733093262e+00 1.499808669090270996e+00 -3.067564010620117188e+00
3.840000000000000000e+02 1.103860950469970703e+01 -7.468672990798950195e-01 1.519966125488281250e+00 4.596797227859497070e-01 5.938937664031982422e-01 1.173678755760192871e+00
3.850000000000000000e+02 1.068257904052734375e+01 7.226658463478088379e-01 3.554706871509552002e-01 4.077077805995941162e-01 2.289535403251647949e-01 -9.477897286415100098e-01
3.860000000000000000e+02 3.143796920776367188e+01 -8.756078720092773438e+00 4.122622907161712646e-01 2.679348707199096680e+00 9.274833202362060547e-01 -1.711703777313232422e+00
3.870000000000000000e+02 3.255145645141601562e+01 -9.779920578002929688e+00 2.152806758880615234e+00 5.268786907196044922e+00 2.226478099822998047e+00 -3.379772901535034180e+00
3.880000000000000000e+02 3.352019500732421875e+01 -1.086514949798583984e+01 3.173597335815429688e+00 9.328184127807617188e+00 3.750534296035766602e+00 -4.921145915985107422e+00
3.890000000000000000e+02 3.486560058593750000e+01 -1.341658401489257812e+01 2.047988414764404297e+00 1.458802700042724609e+01 4.990804672241210938e+00 -4.438976764678955078e+00
3.900000000000000000e+02 3.430734252929687500e+01 -1.207972240447998047e+01 2.895847558975219727e+00 1.287939739227294922e+01 4.732573509216308594e+00 -5.204626083374023438e+00
3.910000000000000000e+02 3.608324432373046875e+01 -1.285221004486083984e+01 2.047564506530761719e+00 1.164130783081054688e+01 4.106661319732666016e+00 -2.913541316986083984e+00
3.920000000000000000e+02 3.543271636962890625e+01 -1.624264717102050781e+01 7.339499592781066895e-01 1.452522945404052734e+01 4.577754020690917969e+00 -2.136257648468017578e+00
3.930000000000000000e+02 3.564677810668945312e+01 -2.046062088012695312e+01 4.925785064697265625e-01 1.243113040924072266e+01 3.877112865447998047e+00 3.213928341865539551e-01
3.940000000000000000e+02 3.540351486206054688e+01 -2.316469383239746094e+01 1.328914761543273926e+00 9.502160072326660156e+00 3.249322414398193359e+00 2.240144491195678711e+00
3.950000000000000000e+02 3.424942779541015625e+01 -2.516413688659667969e+01 1.718106627464294434e+00 5.847134590148925781e+00 2.269572496414184570e+00 2.585502147674560547e+00
3.960000000000000000e+02 3.621619796752929688e+01 -2.578737068176269531e+01 7.891699075698852539e-01 7.045102596282958984e+00 2.350281715393066406e+00 8.712316751480102539e-01
3.970000000000000000e+02 3.563813400268554688e+01 -2.451044654846191406e+01 1.452636837959289551e+00 7.793589115142822266e+00 2.773867845535278320e+00 1.730003356933593750e+00
3.980000000000000000e+02 3.329745483398437500e+01 -2.611050415039062500e+01 1.330003499984741211e+00 3.196507453918457031e+00 1.357953190803527832e+00 2.081979274749755859e+00
3.990000000000000000e+02 2.877849197387695312e+01 -2.932394218444824219e+01 -1.836225628852844238e+00 7.199137657880783081e-02 -5.292702913284301758e-01 -2.471774816513061523e-02
4.000000000000000000e+02 3.233349227905273438e+01 -4.088943099975585938e+01 -8.506594300270080566e-01 3.296475410461425781e+00 7.337448000907897949e-01 2.911705076694488525e-01
4.010000000000000000e+02 2.791519165039062500e+01 -3.566611862182617188e+01 -3.641430139541625977e-01 1.389911055564880371e+00 3.077304065227508545e-01 6.972897052764892578e-01
4.020000000000000000e+02 4.255610656738281250e+01 -4.090026092529296875e+01 -1.709037423133850098e+00 5.405263423919677734e+00 1.108867883682250977e+00 -1.125930920243263245e-01
4.030000000000000000e+02 3.743468475341796875e+01 -4.084254074096679688e+01 -1.548442244529724121e+00 4.886018753051757812e+00 1.001273036003112793e+00 2.095243930816650391e-01
4.040000000000000000e+02 4.524378204345703125e+01 -3.114050102233886719e+01 -5.588734745979309082e-01 6.992827415466308594e+00 1.930186152458190918e+00 -1.426700115203857422e+00
4.050000000000000000e+02 4.548742675781250000e+01 -2.483527755737304688e+01 2.151518106460571289e+00 1.376463222503662109e+01 4.774845123291015625e+00 -3.540168523788452148e+00
4.060000000000000000e+02 4.605298614501953125e+01 -2.604926872253417969e+01 2.686087846755981445e+00 1.161355304718017578e+01 4.289892196655273438e+00 -4.770681858062744141e+00
4.070000000000000000e+02 4.517602920532226562e+01 -2.272752761840820312e+01 8.734617829322814941e-01 1.365085411071777344e+01 4.357294559478759766e+00 -1.383773326873779297e+00
4.080000000000000000e+02 4.195376586914062500e+01 -2.272923660278320312e+01 2.047287940979003906e+00 9.861717224121093750e+00 3.572701454162597656e+00 -1.547182202339172363e+00
4.090000000000000000e+02 4.536885452270507812e+01 -2.015064430236816406e+01 5.341331362724304199e-01 1.204652404785156250e+01 3.774197101593017578e+00 3.649865984916687012e-01
4.100000000000000000e+02 4.461769485473632812e+01 -1.587563896179199219e+01 1.712463617324829102e+00 6.701589107513427734e+00 2.524215698242187500e+00 5.032891035079956055e-01
4.110000000000000000e+02 4.433554077148437500e+01 -6.978650093078613281e+00 -9.493023157119750977e-01 2.124249696731567383e+00 3.524842262268066406e-01 -4.903623163700103760e-01
4.120000000000000000e+02 4.674506759643554688e+01 -4.755579948425292969e+00 -4.232327938079833984e+00 -5.237355232238769531e-01 -1.426819086074829102e+00 1.325615763664245605e+00
4.130000000000000000e+02 4.295766067504882812e+01 -5.615041732788085938e+00 -1.549667477607727051e+00 3.049929141998291016e+00 4.500784873962402344e-01 -1.461011052131652832e+00
4.140000000000000000e+02 4.284855270385742188e+01 -3.863895177841186523e+00 -2.130154132843017578e+00 1.552415251731872559e+00 -1.733217090368270874e-01 -4.870163202285766602e-01
4.150000000000000000e+02 4.105804824829101562e+01 -2.497720956802368164e+00 2.483137547969818115e-01 5.362479209899902344e+00 1.683237910270690918e+00 -2.446515321731567383e+00
4.160000000000000000e+02 3.979951477050781250e+01 -3.190743684768676758e+00 -1.432063102722167969e+00 8.599513053894042969e+00 2.150235176086425781e+00 -1.676428318023681641e+00
4.170000000000000000e+02 2.764821243286132812e+01 -1.280990004539489746e+00 4.318984985351562500e+00 1.934914737939834595e-01 1.353742837905883789e+00 -7.481405884027481079e-02
4.180000000000000000e+02 2.838711357116699219e+01 3.889048099517822266e-02 5.244527816772460938e+00 5.185070633888244629e-01 1.728910446166992188e+00 -7.868958115577697754e-01
4.190000000000000000e+02 2.722964286804199219e+01 -3.038411140441894531e-01 4.502296924591064453e+00 4.168796911835670471e-02 1.363195538520812988e+00 -4.525969922542572021e-01
4.200000000000000000e+02 2.647290420532226562e+01 5.915750861167907715e-01 3.580237150192260742e+00 7.646348327398300171e-02 1.097010135650634766e+00 -8.065300583839416504e-01
4.210000000000000000e+02 2.329258728027343750e+01 3.214763164520263672e+00 -8.015276789665222168e-01 -1.696226596832275391e+00 -7.493262887001037598e-01 1.391858458518981934e+00
4.220000000000000000e+02 1.021267509460449219e+01 1.661214470863342285e+00 1.366323113441467285e+00 1.346560120582580566e+00 8.138649463653564453e-01 -2.029507875442504883e+00
4.230000000000000000e+02 2.810847282409667969e+01 -3.122641944885253906e+01 -1.242137551307678223e+00 3.968504071235656738e-01 -2.535861432552337646e-01 6.953815221786499023e-01
4.240000000000000000e+02 2.464625358581542969e+01 -2.980902290344238281e+01 -2.988678455352783203e+00 -2.151949107646942139e-01 -9.611619710922241211e-01 3.743012845516204834e-01
4.250000000000000000e+02 2.250319290161132812e+01 -2.933806037902832031e+01 -2.147163629531860352e+00 -9.502137452363967896e-02 -6.726555228233337402e-01 3.535366952419281006e-01
4.260000000000000000e+02 2.132823371887207031e+01 -2.856223106384277344e+01 -1.208114385604858398e+00 1.948419362306594849e-01 -3.039817512035369873e-01 2.233575880527496338e-01
4.270000000000000000e+02 1.800508308410644531e+01 -2.786485862731933594e+01 -6.672654151916503906e-01 2.310743570327758789e+00 4.930434823036193848e-01 -7.057344317436218262e-01
4.280000000000000000e+02 1.540608692169189453e+01 -2.227296257019042969e+01 1.980446219444274902e+00 7.026846885681152344e+00 2.702187776565551758e+00 -3.311241149902343750e+00
4.290000000000000000e+02 1.474253082275390625e+01 -2.102227592468261719e+01 1.984945297241210938e+00 1.261859607696533203e+01 4.381062507629394531e+00 -3.126690387725830078e+00
4.300000000000000000e+02 1.441469287872314453e+01 -1.967229843139648438e+01 9.868840575218200684e-01 1.429133892059326172e+01 4.583467006683349609e+00 -9.615339040756225586e-01
4.310000000000000000e+02 1.368542575836181641e+01 -1.589256763458251953e+01 2.056571483612060547e+00 1.200430774688720703e+01 4.218263626098632812e+00 1.919430851936340332e+00
4.320000000000000000e+02 1.486580848693847656e+01 -1.492744064331054688e+01 2.392125844955444336e+00 1.260945224761962891e+01 4.500473499298095703e+00 3.687395811080932617e+00
4.330000000000000000e+02 1.664299774169921875e+01 -1.275479698181152344e+01 7.356372475624084473e-01 4.090571880340576172e+00 1.447862744331359863e+00 2.228249073028564453e+00
4.340000000000000000e+02 1.789726638793945312e+01 -1.198070144653320312e+01 -1.708143830299377441e+00 1.331887006759643555e+00 -1.128770485520362854e-01 7.260055541992187500e-01
4.350000000000000000e+02 1.478638839721679688e+01 -1.315728950500488281e+01 -9.235105663537979126e-02 9.215513229370117188e+00 2.736948728561401367e+00 1.899831891059875488e+00
4.360000000000000000e+02 1.438017559051513672e+01 -9.158164858818054199e-01 7.403445243835449219e+00 1.513689708709716797e+01 6.762102603912353516e+00 -3.213289499282836914e+00
4.370000000000000000e+02 1.433215045928955078e+01 -1.438548684120178223e+00 4.395027160644531250e+00 1.524351692199707031e+01 5.891563415527343750e+00 -2.351201057434082031e+00
4.380000000000000000e+02 1.028703212738037109e+01 -1.745002865791320801e+00 1.765611886978149414e+00 1.297512412071228027e+00 9.189373254776000977e-01 1.918760895729064941e+00
4.390000000000000000e+02 2.778198242187500000e+00 -2.052307844161987305e+00 -1.709401607513427734e-01 -8.629664033651351929e-02 -7.717104256153106689e-02 -3.654941618442535400e-01
4.400000000000000000e+02 3.551999807357788086e+00 -1.984054923057556152e+00 -2.361816614866256714e-01 -2.417392097413539886e-02 -7.810667157173156738e-02 -3.830102384090423584e-01
4.410000000000000000e+02 5.509264469146728516e-01 -1.063218116760253906e+01 3.246402367949485779e-03 -1.616914272308349609e+00 -4.841003417968750000e-01 -3.725923225283622742e-02
4.420000000000000000e+02 1.663631081581115723e+00 -1.052369880676269531e+01 1.286560576409101486e-02 -7.854509949684143066e-01 -2.317756116390228271e-01 -1.053496524691581726e-01
4.430000000000000000e+02 5.996621847152709961e-01 -1.766852569580078125e+01 2.804776839911937714e-02 -1.484186649322509766e+00 -4.368416666984558105e-01 1.045573875308036804e-01
4.440000000000000000e+02 1.173663330078125000e+01 -2.711671447753906250e+01 -8.970620036125183105e-01 5.182025909423828125e+00 1.285489082336425781e+00 7.593865394592285156e-01
4.450000000000000000e+02 1.931217956542968750e+01 -1.161117553710937500e+01 -3.138691186904907227e+00 9.532075375318527222e-02 -9.130111336708068848e-01 -3.678066134452819824e-01
4.460000000000000000e+02 2.133318901062011719e+01 -9.841999053955078125e+00 -1.528901100158691406e+00 2.544043064117431641e-01 -3.823490440845489502e-01 -5.883365273475646973e-01
4.470000000000000000e+02 2.687014579772949219e+01 -8.756025314331054688e+00 -2.691909313201904297e+00 -7.339003682136535645e-01 -1.027742981910705566e+00 -1.206104397773742676e+00
4.480000000000000000e+02 2.863896179199218750e+01 -8.038379669189453125e+00 -2.825234889984130859e+00 -4.671570360660552979e-01 -9.877175688743591309e-01 -5.519430041313171387e-01
4.490000000000000000e+02 3.007785415649414062e+01 -8.105984687805175781e+00 -1.553887486457824707e+00 9.177294373512268066e-01 -1.908474117517471313e-01 -7.430450320243835449e-01
4.500000000000000000e+02 2.422687339782714844e+01 2.185894250869750977e+00 4.238375723361968994e-01 -1.228095412254333496e+00 -2.412773370742797852e-01 5.912040472030639648e-01
4.510000000000000000e+02 2.627156448364257812e+01 -1.108062386512756348e+00 3.819133043289184570e+00 -5.338372588157653809e-01 9.855887293815612793e-01 1.006512567400932312e-01
4.520000000000000000e+02 2.370829772949218750e+01 -5.237879753112792969e+00 2.106617450714111328e+00 -3.906421959400177002e-01 5.147925615310668945e-01 -1.800724565982818604e-01
4.530000000000000000e+02 1.472083663940429688e+01 -3.610372841358184814e-01 1.000326061248779297e+01 1.243491840362548828e+01 6.731453418731689453e+00 -2.053641319274902344e+00
4.540000000000000000e+02 1.962727165222167969e+01 5.128411769866943359e+00 -1.108303308486938477e+00 5.373021364212036133e-01 -1.713003665208816528e-01 8.308193087577819824e-01
4.550000000000000000e+02 5.981768417358398438e+01 -2.070141792297363281e+00 1.470043897628784180e+00 3.247630596160888672e+00 1.415302276611328125e+00 1.358565688133239746e+00
4.560000000000000000e+02 6.072984313964843750e+01 3.750741958618164062e+00 1.269115686416625977e+00 5.933285713195800781e+00 2.160720348358154297e+00 2.193337440490722656e+00
4.570000000000000000e+02 5.890446090698242188e+01 3.079672813415527344e+00 1.716668963432312012e+00 4.005478858947753906e+00 1.716644287109375000e+00 2.541284799575805664e+00
4.580000000000000000e+02 5.650894927978515625e+01 -4.008732140064239502e-01 2.087553739547729492e+00 3.562828302383422852e+00 1.695114731788635254e+00 2.553537845611572266e+00
4.590000000000000000e+02 5.563254928588867188e+01 -1.519801378250122070e+00 2.424381971359252930e+00 3.188714027404785156e+00 1.683928728103637695e+00 2.634812831878662109e+00
4.600000000000000000e+02 5.906967163085937500e+01 -3.229700088500976562e+00 1.488700628280639648e+00 2.776434183120727539e+00 1.279540419578552246e+00 1.329262137413024902e+00
4.610000000000000000e+02 6.751752471923828125e+01 -1.406610393524169922e+01 2.479703664779663086e+00 7.772888660430908203e+00 3.075777769088745117e+00 -4.475142478942871094e+00
4.620000000000000000e+02 6.838578796386718750e+01 -1.510344696044921875e+01 2.781474351882934570e+00 1.436908626556396484e+01 5.145168304443359375e+00 -4.181993961334228516e+00
4.630000000000000000e+02 6.968817138671875000e+01 -1.596173286437988281e+01 2.506190061569213867e+00 1.459514236450195312e+01 5.130399703979492188e+00 -1.607921123504638672e+00
4.640000000000000000e+02 6.871389007568359375e+01 -2.000724792480468750e+01 9.849982261657714844e-01 1.718422508239746094e+01 5.450767040252685547e+00 2.072694778442382812e+00
4.650000000000000000e+02 6.775409698486328125e+01 -2.264975929260253906e+01 2.480949163436889648e+00 1.024384021759033203e+01 3.817436695098876953e+00 4.123504638671875000e+00
4.660000000000000000e+02 6.865529632568359375e+01 -2.324584770202636719e+01 6.565390825271606445e-01 1.026325225830078125e+01 3.275937557220458984e+00 1.552776932716369629e+00
4.670000000000000000e+02 6.786128997802734375e+01 -2.449682998657226562e+01 1.269267052412033081e-01 7.868558406829833984e+00 2.398645401000976562e+00 1.879093408584594727e+00
4.680000000000000000e+02 6.692948913574218750e+01 -2.380777549743652344e+01 1.734409332275390625e+00 5.281260490417480469e+00 2.104701042175292969e+00 3.059350013732910156e+00
4.690000000000000000e+02 6.406586456298828125e+01 -2.700196838378906250e+01 -2.809509336948394775e-01 1.004649877548217773e+00 2.171096950769424438e-01 2.581713199615478516e-01
4.700000000000000000e+02 6.051845550537109375e+01 -2.956032180786132812e+01 -2.444761514663696289e+00 -2.872469723224639893e-01 -8.196025490760803223e-01 -6.937879920005798340e-01
4.710000000000000000e+02 6.002917861938476562e+01 -3.785246658325195312e+01 6.333643794059753418e-01 1.191943287849426270e+00 5.475922822952270508e-01 6.939865648746490479e-02
4.720000000000000000e+02 6.286990356445312500e+01 -4.102091598510742188e+01 7.594094276428222656e-01 2.319160938262939453e+00 9.235711693763732910e-01 1.434884071350097656e-01
4.730000000000000000e+02 7.353882598876953125e+01 -3.709446716308593750e+01 -1.438805609941482544e-01 7.654036998748779297e+00 2.253046989440917969e+00 2.604564279317855835e-02
4.740000000000000000e+02 7.928663635253906250e+01 -3.328094482421875000e+01 -2.303355745971202850e-02 1.027158164978027344e+01 3.074564456939697266e+00 -9.197230637073516846e-02
4.750000000000000000e+02 7.795440673828125000e+01 -3.020624160766601562e+01 -1.099183559417724609e-01 9.337248802185058594e+00 2.768198966979980469e+00 -4.631082415580749512e-01
4.760000000000000000e+02 7.931671905517578125e+01 -2.630294609069824219e+01 1.501704752445220947e-02 8.397236824035644531e+00 2.523676395416259766e+00 -3.284811377525329590e-01
4.770000000000000000e+02 7.798314666748046875e+01 -2.307650756835937500e+01 5.669821798801422119e-02 7.521427154541015625e+00 2.273437500000000000e+00 -8.102216124534606934e-01
4.780000000000000000e+02 7.935783386230468750e+01 -2.210066795349121094e+01 -7.469973526895046234e-03 6.488492012023925781e+00 1.944306612014770508e+00 -2.674732804298400879e-01
4.790000000000000000e+02 7.063806915283203125e+01 -1.801784706115722656e+01 2.394962787628173828e+00 1.272457790374755859e+01 4.535862445831298828e+00 -6.624793410301208496e-01
4.800000000000000000e+02 6.125828933715820312e+01 -3.116068077087402344e+01 -1.208873271942138672e+00 5.801229476928710938e-01 -1.886250972747802734e-01 1.818969398736953735e-01
4.810000000000000000e+02 5.626527404785156250e+01 -3.064990997314453125e+01 -2.898114681243896484e+00 -1.441012620925903320e-01 -9.126647710800170898e-01 -4.868972301483154297e-01
4.820000000000000000e+02 5.758221817016601562e+01 -3.692348480224609375e+01 5.666209459304809570e-01 6.659364700317382812e-01 3.697672188282012939e-01 -3.079923689365386963e-01
4.830000000000000000e+02 5.496410751342773438e+01 -3.246784591674804688e+01 -8.764250278472900391e-01 5.717133358120918274e-02 -2.457761019468307495e-01 -7.595033645629882812e-01
4.840000000000000000e+02 5.213367080688476562e+01 -3.065641593933105469e+01 -6.028771400451660156e-01 5.935929417610168457e-01 -2.785262186080217361e-03 -8.165838122367858887e-01
4.850000000000000000e+02 4.989978790283203125e+01 -3.009559822082519531e+01 8.676874637603759766e-01 1.702261805534362793e+00 7.709847688674926758e-01 -1.875671148300170898e+00
4.860000000000000000e+02 4.884917449951171875e+01 -2.927800941467285156e+01 2.473243474960327148e+00 3.356188774108886719e+00 1.748829722404479980e+00 -2.621560335159301758e+00
4.870000000000000000e+02 4.191411590576171875e+01 -3.231552505493164062e+01 -1.100541710853576660e+00 6.979815006256103516e+00 1.763782024383544922e+00 -2.244994640350341797e-01
4.880000000000000000e+02 4.556533050537109375e+01 -3.683662033081054688e+01 -1.373902678489685059e+00 5.350027561187744141e+00 1.192837476730346680e+00 -7.613445520401000977e-01
4.890000000000000000e+02 4.745973968505859375e+01 -4.095134353637695312e+01 -1.067792534828186035e+00 4.282581329345703125e+00 9.644365906715393066e-01 -3.213767409324645996e-01
4.900000000000000000e+02 5.196696853637695312e+01 -4.093059539794921875e+01 4.042800888419151306e-02 2.335726737976074219e+00 7.128463983535766602e-01 -3.184613585472106934e-01
4.910000000000000000e+02 4.986799621582031250e+01 -3.458526229858398438e+01 -5.340881943702697754e-01 3.198779106140136719e+00 7.994072437286376953e-01 -1.820786595344543457e+00
4.920000000000000000e+02 4.645233917236328125e+01 -1.688198852539062500e+01 2.732900857925415039e+00 6.119627475738525391e+00 2.655758380889892578e+00 3.065784454345703125e+00
4.930000000000000000e+02 4.585633087158203125e+01 -1.543864917755126953e+01 1.736996769905090332e+00 5.776452541351318359e+00 2.254034757614135742e+00 1.373509526252746582e+00
4.940000000000000000e+02 4.877106094360351562e+01 -1.548122882843017578e+01 2.983269453048706055e+00 1.314988017082214355e+00 1.289477229118347168e+00 1.559696197509765625e+00
4.950000000000000000e+02 5.016726684570312500e+01 -1.505621242523193359e+01 1.498666524887084961e+00 1.351192593574523926e-01 4.901357293128967285e-01 8.736444711685180664e-01
4.960000000000000000e+02 4.752608871459960938e+01 -1.609053993225097656e+01 3.323101282119750977e+00 2.730011463165283203e+00 1.815933823585510254e+00 2.651991367340087891e+00
4.970000000000000000e+02 5.845293045043945312e+01 -1.429941654205322266e+01 -2.321130990982055664e+00 2.178069204092025757e-02 -6.898050904273986816e-01 -3.150640428066253662e-01
4.980000000000000000e+02 5.813018417358398438e+01 -1.333839893341064453e+01 -2.055330038070678711e+00 2.823743224143981934e-01 -5.318867564201354980e-01 -1.559461802244186401e-01
4.990000000000000000e+02 5.493715286254882812e+01 -4.487746715545654297e+00 1.938685417175292969e+00 2.344969749450683594e+00 1.285096526145935059e+00 2.016784429550170898e+00
5.000000000000000000e+02 5.375265884399414062e+01 -3.637005567550659180e+00 2.594101428985595703e+00 2.745980739593505859e+00 1.602024674415588379e+00 2.605427265167236328e+00
5.010000000000000000e+02 5.074582672119140625e+01 -5.424403667449951172e+00 7.805082201957702637e-01 7.930508852005004883e-01 4.720677137374877930e-01 1.577352046966552734e+00
5.020000000000000000e+02 4.942378234863281250e+01 -5.336410045623779297e+00 -2.122054100036621094e+00 -3.117261826992034912e-01 -7.301340699195861816e-01 9.432932138442993164e-01
5.030000000000000000e+02 4.958506011962890625e+01 -1.378660678863525391e+01 1.490310549736022949e+00 1.254732728004455566e+00 8.235129714012145996e-01 1.795249938964843750e+00
5.040000000000000000e+02 4.866847229003906250e+01 -7.605259418487548828e+00 -9.065828472375869751e-02 3.025158941745758057e-01 6.355728209018707275e-02 2.297974586486816406e+00
5.050000000000000000e+02 5.053718185424804688e+01 -1.286614036560058594e+01 9.894016981124877930e-01 7.778536677360534668e-01 5.301765799522399902e-01 1.911586523056030273e+00
5.060000000000000000e+02 5.970098114013671875e+01 -1.394732952117919922e+01 -2.396225452423095703e+00 -4.697516094893217087e-03 -7.202768921852111816e-01 -6.617644429206848145e-01
5.070000000000000000e+02 6.015710067749023438e+01 -1.234070682525634766e+01 -2.532730340957641602e+00 4.494039118289947510e-01 -6.249979734420776367e-01 -3.201959729194641113e-01
5.080000000000000000e+02 6.494333648681640625e+01 -1.046146583557128906e+01 -1.160764455795288086e+00 1.674140095710754395e+00 1.540127098560333252e-01 -2.290655374526977539e+00
5.090000000000000000e+02 6.318544006347656250e+01 -1.214915847778320312e+01 -4.957129955291748047e+00 -6.969934701919555664e-01 -1.696237087249755859e+00 -1.303642630577087402e+00
5.100000000000000000e+02 6.161163330078125000e+01 1.992388153076171875e+01 1.268978238105773926e+00 7.344269752502441406e+00 2.583974361419677734e+00 -2.136990070343017578e+00
5.110000000000000000e+02 6.073255157470703125e+01 2.097266960144042969e+01 -3.329598605632781982e-01 3.482677698135375977e+00 9.449153542518615723e-01 -1.815555214881896973e+00
5.120000000000000000e+02 5.899648284912109375e+01 2.412111854553222656e+01 -1.014197111129760742e+00 1.869247794151306152e+00 2.565152049064636230e-01 -1.386815309524536133e+00
5.130000000000000000e+02 6.454724884033203125e+01 3.194260025024414062e+01 -2.808246910572052002e-01 5.137816905975341797e+00 1.457097649574279785e+00 -4.557508230209350586e-01
5.140000000000000000e+02 5.763101577758789062e+01 4.060629653930664062e+01 4.159076213836669922e-01 3.317096948623657227e+00 1.119901418685913086e+00 -3.816432505846023560e-02
5.150000000000000000e+02 6.258293914794921875e+01 4.096958923339843750e+01 2.620945274829864502e-01 4.375492095947265625e+00 1.391276001930236816e+00 -6.495518237352371216e-02
5.160000000000000000e+02 5.868188858032226562e+01 3.702519226074218750e+01 3.555537164211273193e-01 3.411868095397949219e+00 1.130226492881774902e+00 -1.541268974542617798e-01
5.170000000000000000e+02 5.923317718505859375e+01 2.990239715576171875e+01 7.737581152468919754e-03 3.046280860900878906e+00 9.162055850028991699e-01 -6.689505577087402344e-01
5.180000000000000000e+02 5.610708999633789062e+01 2.148108100891113281e+01 -3.488844871520996094e+00 1.428402811288833618e-01 -1.003801345825195312e+00 -4.619921147823333740e-01
5.190000000000000000e+02 5.468186569213867188e+01 2.134577369689941406e+01 -3.127671480178833008e+00 -1.533875018358230591e-01 -9.843177199363708496e-01 -3.364339172840118408e-01
5.200000000000000000e+02 5.988434600830078125e+01 2.242690849304199219e+01 -1.412562012672424316e+00 2.417363405227661133e+00 3.014403879642486572e-01 -1.430766940116882324e+00
5.210000000000000000e+02 6.296003341674804688e+01 1.910278511047363281e+01 1.086183309555053711e+00 8.808889389038085938e+00 2.968521595001220703e+00 -1.142347097396850586e+00
5.220000000000000000e+02 6.250884246826171875e+01 1.643853950500488281e+01 3.526929914951324463e-01 1.135309791564941406e+01 3.511737108230590820e+00 -6.842635869979858398e-01
5.230000000000000000e+02 6.611978912353515625e+01 1.254652690887451172e+01 1.000688195228576660e+00 8.407722473144531250e+00 2.822523117065429688e+00 2.568492889404296875e-01
5.240000000000000000e+02 7.804146575927734375e+01 4.295966148376464844e+00 3.171337768435478210e-02 6.799824237823486328e+00 2.049461364746093750e+00 -3.006439507007598877e-01
5.250000000000000000e+02 7.934172821044921875e+01 8.417119026184082031e+00 1.117125619202852249e-02 6.169710159301757812e+00 1.854264497756958008e+00 -5.716616660356521606e-02
5.260000000000000000e+02 7.804872131347656250e+01 1.133302593231201172e+01 5.699846893548965454e-02 6.285555362701416016e+00 1.902766227722167969e+00 -1.839280128479003906e-02
5.270000000000000000e+02 7.934318542480468750e+01 1.677084922790527344e+01 9.562880732119083405e-03 6.333086490631103516e+00 1.902794837951660156e+00 9.049595147371292114e-02
5.280000000000000000e+02 7.287077331542968750e+01 2.330981636047363281e+01 -1.937537342309951782e-01 7.182332992553710938e+00 2.096573829650878906e+00 6.331347227096557617e-01
5.290000000000000000e+02 6.830555725097656250e+01 1.584442234039306641e+01 8.001899719238281250e-01 7.598633766174316406e+00 2.519647121429443359e+00 4.273852407932281494e-01
5.300000000000000000e+02 7.142514801025390625e+01 1.700070762634277344e+01 4.639530479907989502e-01 7.128144741058349609e+00 2.277629375457763672e+00 5.744598507881164551e-01
5.310000000000000000e+02 6.424725341796875000e+01 1.730049896240234375e+01 1.122210979461669922e+00 8.486440658569335938e+00 2.882595539093017578e+00 -1.843290328979492188e-01
5.320000000000000000e+02 6.226689529418945312e+01 1.226458454132080078e+01 2.862205207347869873e-01 1.106830215454101562e+01 3.406356811523437500e+00 8.387294411659240723e-01
5.330000000000000000e+02 6.181241989135742188e+01 3.257478713989257812e+00 1.038476824760437012e+00 6.043022632598876953e+00 2.124449968338012695e+00 1.461238026618957520e+00
5.340000000000000000e+02 6.147439956665039062e+01 8.105240821838378906e+00 7.692601680755615234e-01 9.233176231384277344e+00 3.000730991363525391e+00 2.487108469009399414e+00
5.350000000000000000e+02 7.298027038574218750e+01 1.331135034561157227e+00 6.021816283464431763e-02 6.951536178588867188e+00 2.103526353836059570e+00 -7.807346582412719727e-01
5.360000000000000000e+02 7.106774902343750000e+01 -7.485228538513183594e+00 -1.164033293724060059e+00 7.820080757141113281e+00 1.996814250946044922e+00 -9.498278498649597168e-01
5.370000000000000000e+02 7.191721343994140625e+01 -3.023863315582275391e+00 -3.959610462188720703e-01 7.099281311035156250e+00 2.010996103286743164e+00 -9.098397493362426758e-01
5.380000000000000000e+02 7.808118438720703125e+01 -9.608288764953613281e+00 -1.169570088386535645e-01 7.764449119567871094e+00 2.294247627258300781e+00 4.228148758411407471e-01
5.390000000000000000e+02 7.936128997802734375e+01 -5.531009674072265625e+00 1.538499724119901657e-03 8.135795593261718750e+00 2.441200256347656250e+00 -9.194636717438697815e-03
5.400000000000000000e+02 7.806240844726562500e+01 -2.701322078704833984e+00 -7.144732773303985596e-02 7.724839687347412109e+00 2.296017646789550781e+00 -2.292980402708053589e-01
5.410000000000000000e+02 7.934826660156250000e+01 2.826302528381347656e+00 1.112625282257795334e-02 6.971142768859863281e+00 2.094680547714233398e+00 -1.179621517658233643e-01
5.420000000000000000e+02 6.677693176269531250e+01 9.474994659423828125e+00 9.726454615592956543e-01 7.789813995361328125e+00 2.628737688064575195e+00 1.807931661605834961e-01
5.430000000000000000e+02 6.184662628173828125e+01 9.475828170776367188e+00 8.177784681320190430e-01 1.061557960510253906e+01 3.430007457733154297e+00 2.017210245132446289e+00
5.440000000000000000e+02 3.931931304931640625e+01 1.140750050544738770e+00 1.099237918853759766e+00 1.317409610748291016e+01 4.282000064849853516e+00 -2.396733522415161133e+00
5.450000000000000000e+02 3.821638870239257812e+01 2.089488655328750610e-01 1.402663588523864746e+00 1.141714763641357422e+01 3.845943450927734375e+00 -1.173278450965881348e+00
5.460000000000000000e+02 3.505357742309570312e+01 6.520346641540527344e+00 7.447500824928283691e-01 1.291289710998535156e+01 4.097293853759765625e+00 6.583696007728576660e-01
5.470000000000000000e+02 3.313249206542968750e+01 1.079697608947753906e+01 3.690258562564849854e-01 9.220259666442871094e+00 2.876785755157470703e+00 -1.732925534248352051e+00
5.480000000000000000e+02 3.465529632568359375e+01 1.554089164733886719e+01 5.741623044013977051e-01 7.742767810821533203e+00 2.495079040527343750e+00 -1.098373293876647949e+00
5.490000000000000000e+02 3.640044403076171875e+01 2.132590293884277344e+01 -7.122239470481872559e-01 5.660870552062988281e+00 1.484593987464904785e+00 2.000322937965393066e-01
5.500000000000000000e+02 3.489420700073242188e+01 3.248451614379882812e+01 -8.567113280296325684e-01 3.452218532562255859e+00 7.786521911621093750e-01 -1.303465664386749268e-01
5.510000000000000000e+02 3.787353515625000000e+01 4.056383132934570312e+01 -4.635537564754486084e-01 3.017281293869018555e+00 7.661182880401611328e-01 3.449079021811485291e-02
5.520000000000000000e+02 3.285376739501953125e+01 4.053103256225585938e+01 -4.498204290866851807e-01 2.881730318069458008e+00 7.295729517936706543e-01 -3.468848019838333130e-02
5.530000000000000000e+02 2.843610191345214844e+01 3.745641708374023438e+01 -3.208702206611633301e-01 2.597135782241821289e+00 6.828796863555908203e-01 -2.106404900550842285e-01
5.540000000000000000e+02 2.847844886779785156e+01 2.960823440551757812e+01 -6.626212000846862793e-01 2.549739122390747070e+00 5.661353468894958496e-01 -8.505038619041442871e-01
5.550000000000000000e+02 2.712406539916992188e+01 2.150215530395507812e+01 -9.041587114334106445e-01 3.623262345790863037e-01 -1.625497490167617798e-01 -2.654063105583190918e-01
5.560000000000000000e+02 2.581813430786132812e+01 2.193649482727050781e+01 -1.773772716522216797e+00 1.077381744980812073e-01 -4.998103678226470947e-01 7.418067753314971924e-02
5.570000000000000000e+02 2.841294860839843750e+01 2.094162368774414062e+01 4.507292807102203369e-01 1.438099145889282227e+00 5.666485428810119629e-01 -1.144538164138793945e+00
5.580000000000000000e+02 2.962881660461425781e+01 2.011601638793945312e+01 1.402926564216613770e+00 3.960096597671508789e+00 1.608906984329223633e+00 -2.026067018508911133e+00
5.590000000000000000e+02 3.057288932800292969e+01 1.893025779724121094e+01 1.309565067291259766e+00 5.552623271942138672e+00 2.058656454086303711e+00 -2.356933832168579102e+00
5.600000000000000000e+02 3.212875747680664062e+01 1.485945510864257812e+01 7.552315592765808105e-01 7.714122295379638672e+00 2.540806055068969727e+00 -2.281528711318969727e+00
5.610000000000000000e+02 3.252001571655273438e+01 1.351336097717285156e+01 7.521538734436035156e-01 8.478865623474121094e+00 2.769305944442749023e+00 -2.216891288757324219e+00
5.620000000000000000e+02 3.365730667114257812e+01 7.996345996856689453e+00 3.121447861194610596e-01 1.128068923950195312e+01 3.477850198745727539e+00 -9.119678735733032227e-01
5.630000000000000000e+02 3.694788742065429688e+01 2.861090421676635742e+00 2.108303070068359375e+00 1.245412635803222656e+01 4.368729114532470703e+00 5.163360834121704102e-01
5.640000000000000000e+02 3.273502349853515625e+01 9.613301753997802734e-01 4.720516204833984375e+00 8.329747200012207031e+00 3.915079116821289062e+00 4.842081546783447266e+00
5.650000000000000000e+02 3.089738082885742188e+01 -1.355984956026077271e-01 6.786607742309570312e+00 2.717406272888183594e+00 2.851204156875610352e+00 2.337881565093994141e+00
5.660000000000000000e+02 3.428490447998046875e+01 1.108077907562255859e+01 6.605467796325683594e-01 9.813762664794921875e+00 3.142292976379394531e+00 -1.301915407180786133e+00
5.670000000000000000e+02 4.265933609008789062e+01 1.384440517425537109e+01 2.583165168762207031e+00 4.694508552551269531e+00 2.183302164077758789e+00 3.304848909378051758e+00
5.680000000000000000e+02 4.397403717041015625e+01 1.691934204101562500e+01 1.090553402900695801e+00 3.482379674911499023e+00 1.371879935264587402e+00 2.099444627761840820e+00
5.690000000000000000e+02 4.293729782104492188e+01 2.140180969238281250e+01 -5.390982627868652344e-01 4.120667457580566406e+00 1.074470758438110352e+00 1.549608707427978516e+00
5.700000000000000000e+02 3.879031372070312500e+01 3.251870727539062500e+01 -7.936973571777343750e-01 3.516009807586669922e+00 8.166937828063964844e-01 3.480830490589141846e-01
5.710000000000000000e+02 4.271992492675781250e+01 4.087511825561523438e+01 -2.646383345127105713e-01 2.946299791336059570e+00 8.044984340667724609e-01 1.104138940572738647e-01
5.720000000000000000e+02 4.688156509399414062e+01 1.766615486145019531e+01 1.016054391860961914e+00 1.349989652633666992e+00 7.098131775856018066e-01 1.203615903854370117e+00
5.730000000000000000e+02 4.919893264770507812e+01 1.934557533264160156e+01 -2.058003991842269897e-01 5.526611804962158203e-01 1.040582358837127686e-01 3.868936300277709961e-01
5.740000000000000000e+02 5.182057189941406250e+01 2.052999305725097656e+01 -1.811469197273254395e+00 4.550685733556747437e-02 -5.297886729240417480e-01 -1.732850670814514160e-01
5.750000000000000000e+02 5.047203445434570312e+01 2.002388763427734375e+01 -1.060853600502014160e+00 2.251161783933639526e-01 -2.507212460041046143e-01 4.446995258331298828e-02
5.760000000000000000e+02 4.984870910644531250e+01 2.139743232727050781e+01 -9.149373769760131836e-01 9.806125760078430176e-01 1.970255933701992035e-02 8.316026926040649414e-01
5.770000000000000000e+02 5.128880691528320312e+01 2.193233108520507812e+01 -1.263577580451965332e+00 6.117442250251770020e-01 -1.955499947071075439e-01 5.655754804611206055e-01
5.780000000000000000e+02 4.932315063476562500e+01 2.856490325927734375e+01 -2.157199978828430176e-01 2.086128473281860352e+00 5.611225366592407227e-01 1.050687074661254883e+00
5.790000000000000000e+02 4.726817321777343750e+01 3.475832748413085938e+01 -5.786876007914543152e-02 2.724991083145141602e+00 8.001366853713989258e-01 6.000441312789916992e-01
5.800000000000000000e+02 4.753231430053710938e+01 4.088918304443359375e+01 9.057421982288360596e-02 2.721294403076171875e+00 8.435605764389038086e-01 1.106785833835601807e-01
5.810000000000000000e+02 4.746464538574218750e+01 3.771453094482421875e+01 3.968840837478637695e-02 2.736340045928955078e+00 8.328084945678710938e-01 3.597083687782287598e-01
5.820000000000000000e+02 2.451752853393554688e+01 2.234160995483398438e+01 -2.276191234588623047e+00 2.726781927049160004e-02 -6.746770143508911133e-01 2.432051748037338257e-01
5.830000000000000000e+02 2.298444747924804688e+01 2.528163719177246094e+01 -8.630307912826538086e-01 3.112694621086120605e-01 -1.655284017324447632e-01 -1.960909813642501831e-01
5.840000000000000000e+02 1.885611534118652344e+01 2.370753479003906250e+01 -1.412301063537597656e+00 7.969818115234375000e-01 -1.845957785844802856e-01 1.002521038055419922e+00
5.850000000000000000e+02 1.645928955078125000e+01 2.264974403381347656e+01 -6.999850273132324219e-01 3.038929224014282227e+00 7.016832232475280762e-01 1.923091769218444824e+00
5.860000000000000000e+02 1.587562847137451172e+01 2.093630981445312500e+01 1.593410730361938477e+00 3.780704259872436523e+00 1.612234473228454590e+00 2.660282135009765625e+00
5.870000000000000000e+02 1.714034843444824219e+01 8.839985847473144531e+00 -8.899144828319549561e-02 3.913539409637451172e+00 1.147364377975463867e+00 -1.490676641464233398e+00
5.880000000000000000e+02 1.562201309204101562e+01 1.129039287567138672e+01 2.226229906082153320e+00 1.085085391998291016e+01 3.923125028610229492e+00 -4.382139205932617188e+00
5.890000000000000000e+02 1.329895305633544922e+01 1.470545005798339844e+01 1.405454635620117188e+00 1.147277164459228516e+01 3.863467693328857422e+00 -1.494821190834045410e+00
5.900000000000000000e+02 6.437821388244628906e-01 1.906604576110839844e+01 6.002148613333702087e-03 -8.732032775878906250e-01 -2.601603269577026367e-01 -2.457059919834136963e-01
5.910000000000000000e+02 1.811708927154541016e+00 1.603899955749511719e+01 1.236349567770957947e-01 -6.619763970375061035e-01 -1.615024358034133911e-01 -3.724367618560791016e-01
5.920000000000000000e+02 6.026229858398437500e-01 1.482952690124511719e+01 4.699452593922615051e-02 -2.043360471725463867e+00 -5.989097952842712402e-01 -9.520749747753143311e-02
5.930000000000000000e+02 1.605308175086975098e+00 9.091091156005859375e+00 4.556315019726753235e-02 -1.178320884704589844e+00 -3.398273289203643799e-01 1.987376064062118530e-01
5.940000000000000000e+02 9.459741592407226562e+00 2.135143280029296875e+00 8.896973133087158203e-01 1.222072362899780273e+00 6.335309147834777832e-01 -1.430760860443115234e+00
5.950000000000000000e+02 1.428978824615478516e+01 8.836630821228027344e+00 -1.443688750267028809e+00 9.257897377014160156e+00 2.344262361526489258e+00 -1.336141586303710938e+00
5.960000000000000000e+02 1.412562942504882812e+01 9.781339645385742188e+00 -5.830384492874145508e-01 9.388859748840332031e+00 2.641746282577514648e+00 -1.176597118377685547e+00
5.970000000000000000e+02 1.468986415863037109e+01 1.387692260742187500e+01 8.963848352432250977e-01 1.519744968414306641e+01 4.828150272369384766e+00 -2.895444869995117188e+00
5.980000000000000000e+02 1.438501548767089844e+01 1.523011302947998047e+01 9.467199444770812988e-01 1.514399814605712891e+01 4.827215194702148438e+00 -1.187125444412231445e+00
5.990000000000000000e+02 1.416593170166015625e+01 1.800660514831542969e+01 1.302850723266601562e+00 1.418290996551513672e+01 4.645728111267089844e+00 8.822501301765441895e-01
6.000000000000000000e+02 1.147735214233398438e+01 1.724094772338867188e+01 1.559596657752990723e+00 8.321833610534667969e+00 2.964428901672363281e+00 -1.152701139450073242e+00
6.010000000000000000e+02 7.182658672332763672e+00 2.332173347473144531e+01 -3.529208302497863770e-01 4.108944416046142578e+00 1.126807093620300293e+00 -1.623610138893127441e+00
6.020000000000000000e+02 6.749007105827331543e-01 2.618198013305664062e+01 -2.613822184503078461e-02 2.037367820739746094e+00 6.033688783645629883e-01 -2.499481290578842163e-01
6.030000000000000000e+02 2.000976562500000000e+00 2.609034347534179688e+01 -7.102519273757934570e-02 2.339761018753051758e+00 6.806207895278930664e-01 -6.816095709800720215e-01
6.040000000000000000e+02 1.710020828247070312e+01 2.158303451538085938e+01 -1.265392750501632690e-01 1.329393744468688965e+00 3.608563542366027832e-01 8.584172129631042480e-01
6.050000000000000000e+02 1.967956924438476562e+01 2.244498443603515625e+01 -2.343251466751098633e+00 2.108333557844161987e-01 -6.397253870964050293e-01 -2.027860283851623535e-01
6.060000000000000000e+02 1.279640913009643555e+00 2.163906812667846680e+00 -7.796678692102432251e-02 -2.759884595870971680e-01 -1.061865761876106262e-01 2.832002043724060059e-01
6.070000000000000000e+02 5.419270396232604980e-01 6.402624130249023438e+00 1.698256283998489380e-02 -1.529629826545715332e+00 -4.537941515445709229e-01 1.240044906735420227e-01
6.080000000000000000e+02 2.029874038696289062e+01 5.940107822418212891e+00 -2.500746965408325195e+00 -1.457408785820007324e+00 -1.187446713447570801e+00 1.993170261383056641e+00
6.090000000000000000e+02 1.794254422187805176e+00 -1.749048995971679688e+01 8.560930937528610229e-02 -4.469957053661346436e-01 -1.084159240126609802e-01 2.625468969345092773e-01
6.100000000000000000e+02 6.339159607887268066e-01 -2.330566024780273438e+01 2.409223839640617371e-02 2.436685711145401001e-01 8.032824099063873291e-02 2.561551630496978760e-01
6.110000000000000000e+02 6.268524169921875000e+00 -3.194147491455078125e+01 -4.776321053504943848e-01 3.689814090728759766e+00 9.636546373367309570e-01 8.539113402366638184e-01
6.120000000000000000e+02 1.736140251159667969e+01 -4.105448532104492188e+01 -3.143678903579711914e-01 2.094198703765869141e+00 5.339492559432983398e-01 -1.016401126980781555e-01
6.130000000000000000e+02 2.740528106689453125e+01 -3.803966522216796875e+01 -1.903192549943923950e-01 1.514238715171813965e+00 3.971758186817169189e-01 3.605226874351501465e-01
6.140000000000000000e+02 2.358199882507324219e+01 -3.042913818359375000e+01 -2.164730072021484375e+00 -4.984601959586143494e-02 -6.643728613853454590e-01 1.023701056838035583e-01
6.150000000000000000e+02 6.454362273216247559e-01 -2.471673011779785156e+01 -9.890925139188766479e-03 8.241242170333862305e-01 2.442699968814849854e-01 2.659875452518463135e-01
6.160000000000000000e+02 7.812411189079284668e-01 -3.037780570983886719e+01 -1.693939790129661560e-02 2.940023422241210938e+00 8.769251704216003418e-01 2.363541573286056519e-01
6.170000000000000000e+02 1.691564178466796875e+01 -3.792671585083007812e+01 -5.072492361068725586e-01 2.313763856887817383e+00 5.419543981552124023e-01 -2.751604914665222168e-01
6.180000000000000000e+02 8.488442301750183105e-01 -3.180786323547363281e+01 -1.326918415725231171e-02 3.320353746414184570e+00 9.921253323554992676e-01 2.101576030254364014e-01
6.190000000000000000e+02 8.216611146926879883e-01 -3.741376876831054688e+01 -1.098161842674016953e-02 4.166918277740478516e+00 1.246781110763549805e+00 5.119696259498596191e-02
6.200000000000000000e+02 2.652672052383422852e+00 -3.821462631225585938e+01 -5.963113531470298767e-02 4.045029640197753906e+00 1.195619583129882812e+00 1.284500211477279663e-01
6.210000000000000000e+02 7.798330688476562500e+01 -4.170509338378906250e+01 1.996703445911407471e-01 9.974167823791503906e+00 3.052151441574096680e+00 5.591199174523353577e-02
6.220000000000000000e+02 7.733562469482421875e+01 -3.701130676269531250e+01 -1.103836745023727417e-01 9.567613601684570312e+00 2.837169170379638672e+00 -2.733877301216125488e-02
6.230000000000000000e+02 7.823862457275390625e+01 -1.648507308959960938e+01 1.840946376323699951e-01 6.465489387512207031e+00 1.994875192642211914e+00 2.407981902360916138e-01
6.240000000000000000e+02 7.935611724853515625e+01 -1.249491214752197266e+01 -6.708744447678327560e-03 6.766109466552734375e+00 2.027820110321044922e+00 2.353184372186660767e-01
6.250000000000000000e+02 6.533433532714843750e+01 -1.233991813659667969e+01 -2.826389074325561523e+00 8.163875341415405273e-01 -6.030004620552062988e-01 -1.128273367881774902e+00
6.260000000000000000e+02 7.803976440429687500e+01 1.965125274658203125e+01 1.538660377264022827e-02 6.855779170989990234e+00 2.061349630355834961e+00 3.081797659397125244e-01
6.270000000000000000e+02 7.933278656005859375e+01 2.377292442321777344e+01 -1.008022204041481018e-02 7.458229541778564453e+00 2.234444856643676758e+00 1.140005812048912048e-01
6.280000000000000000e+02 7.154526519775390625e+01 2.919384765625000000e+01 -3.631910085678100586e-01 6.889618396759033203e+00 1.957928180694580078e+00 1.888741701841354370e-01
6.290000000000000000e+02 7.667085266113281250e+01 2.251473426818847656e+01 -2.558393403887748718e-02 7.196884632110595703e+00 2.151390314102172852e+00 4.581660926342010498e-01
6.300000000000000000e+02 7.933265686035156250e+01 2.924606895446777344e+01 -7.741394918411970139e-03 8.137135505676269531e+00 2.438818216323852539e+00 5.663396418094635010e-02
6.310000000000000000e+02 7.067992401123046875e+01 3.799891281127929688e+01 -4.138120636343955994e-02 6.452704906463623047e+00 1.923397064208984375e+00 -4.038331657648086548e-02
6.320000000000000000e+02 7.931420898437500000e+01 3.206266784667968750e+01 -1.176555961137637496e-04 8.295100212097167969e+00 2.488494873046875000e+00 4.131259769201278687e-02
6.330000000000000000e+02 7.938725280761718750e+01 3.757739257812500000e+01 -3.970556333661079407e-02 8.322956085205078125e+00 2.484975099563598633e+00 -1.823328435420989990e-02
6.340000000000000000e+02 1.767125511169433594e+01 4.043268966674804688e+01 -1.709316521883010864e-01 2.701489925384521484e+00 7.591674923896789551e-01 3.037164732813835144e-02
6.350000000000000000e+02 2.288748931884765625e+01 4.059162902832031250e+01 -1.370586752891540527e-01 2.459255456924438477e+00 6.966590285301208496e-01 -7.268653716892004013e-03
6.360000000000000000e+02 2.235181999206542969e+01 2.965665817260742188e+01 -2.204588204622268677e-01 1.494133710861206055e+00 3.821024596691131592e-01 4.035347700119018555e-02
6.370000000000000000e+02 2.017471504211425781e+01 3.290036392211914062e+01 -2.149052768945693970e-01 2.226608991622924805e+00 6.035111546516418457e-01 2.217552065849304199e-01
6.380000000000000000e+02 1.780785560607910156e+01 3.667442321777343750e+01 -2.231920808553695679e-01 2.668498992919921875e+00 7.335920929908752441e-01 1.477772593498229980e-01
6.390000000000000000e+02 1.863910675048828125e+01 2.950332069396972656e+01 -4.623416960239410400e-01 2.196635961532592773e+00 5.202882289886474609e-01 7.628072500228881836e-01
6.400000000000000000e+02 1.255859851837158203e+01 4.076522064208984375e+01 -2.405040264129638672e-01 3.131444692611694336e+00 8.672822117805480957e-01 2.591745182871818542e-02
6.410000000000000000e+02 7.990236759185791016e+00 4.107216262817382812e+01 -1.728524118661880493e-01 3.505696773529052734e+00 9.998533129692077637e-01 -6.053990870714187622e-02
6.420000000000000000e+02 7.105476379394531250e+00 3.189767456054687500e+01 -4.678969979286193848e-01 3.704627990722656250e+00 9.710192680358886719e-01 -5.159264802932739258e-01
6.430000000000000000e+02 6.024410724639892578e+00 2.292511749267578125e+01 -9.748136252164840698e-02 3.540560007095336914e+00 1.032923579216003418e+00 -1.598474502563476562e+00
6.440000000000000000e+02 1.993780016899108887e+00 4.164427947998046875e+01 2.410843223333358765e-02 4.004737854003906250e+00 1.208653926849365234e+00 6.853731349110603333e-03
6.450000000000000000e+02 4.244218349456787109e+00 3.783563995361328125e+01 -1.023852676153182983e-01 3.788664579391479492e+00 1.105883836746215820e+00 -1.561924070119857788e-01
6.460000000000000000e+02 2.087145328521728516e+00 3.594808959960937500e+01 -6.273115426301956177e-02 3.829106569290161133e+00 1.129912614822387695e+00 -1.057236790657043457e-01
6.470000000000000000e+02 2.174051761627197266e+00 3.029364395141601562e+01 -8.900798857212066650e-02 3.251299619674682617e+00 9.486874341964721680e-01 -4.144888818264007568e-01
6.480000000000000000e+02 3.564733886718750000e+01 6.689193844795227051e-01 2.153983116149902344e+00 1.077254962921142578e+01 3.877959728240966797e+00 4.999149739742279053e-01
6.490000000000000000e+02 2.644813728332519531e+01 -7.880067348480224609e+00 -9.790415763854980469e-01 -6.409894824028015137e-01 -4.860093295574188232e-01 -4.737465977668762207e-01
6.500000000000000000e+02 1.208327007293701172e+01 -1.398062896728515625e+01 5.159202814102172852e-01 8.010624885559082031e+00 2.557963609695434570e+00 3.300128281116485596e-01
6.510000000000000000e+02 1.132118320465087891e+01 -1.907365441322326660e+00 2.620770692825317383e+00 3.674125671386718750e+00 1.888468980789184570e+00 3.859477519989013672e+00
6.520000000000000000e+02 1.307140636444091797e+01 -1.186997032165527344e+01 -1.062647223472595215e+00 8.061551094055175781e+00 2.099671125411987305e+00 9.461563825607299805e-01
6.530000000000000000e+02 1.260347080230712891e+01 -1.769545936584472656e+01 1.721634864807128906e+00 9.323042869567871094e+00 3.313403367996215820e+00 9.827859997749328613e-01
6.540000000000000000e+02 1.417778205871582031e+01 -1.702795982360839844e+01 1.160448193550109863e+00 1.429660129547119141e+01 4.637115001678466797e+00 1.602933764457702637e+00
6.550000000000000000e+02 4.735799407958984375e+01 -1.188473320007324219e+01 1.008013129234313965e+00 2.625881671905517578e+00 1.090168476104736328e+00 1.725709438323974609e+00
6.560000000000000000e+02 5.716053009033203125e+01 -1.444899272918701172e+01 -2.245890140533447266e+00 7.698296755552291870e-02 -6.506721377372741699e-01 -1.155934035778045654e-01
6.570000000000000000e+02 6.819809722900390625e+01 -1.308946704864501953e+01 -2.940876483917236328e-01 9.894405364990234375e+00 2.880095481872558594e+00 -2.319065570831298828e+00
6.580000000000000000e+02 3.672322845458984375e+01 -1.736353111267089844e+01 1.046389937400817871e+00 1.231415462493896484e+01 4.008163452148437500e+00 -1.868174314498901367e+00
6.590000000000000000e+02 4.533376693725585938e+01 -2.145808219909667969e+01 5.447286367416381836e-02 1.196752834320068359e+01 3.606600284576416016e+00 -2.980010807514190674e-01
6.600000000000000000e+02 3.081060028076171875e+01 -2.987587547302246094e+01 -7.923717498779296875e-01 1.721874952316284180e+00 2.788509428501129150e-01 1.107356429100036621e+00
6.610000000000000000e+02 4.038920211791992188e+01 -3.017212867736816406e+01 -4.724954962730407715e-01 7.352071762084960938e+00 2.063873052597045898e+00 1.067554205656051636e-01
6.620000000000000000e+02 3.510630798339843750e+01 -2.846738433837890625e+01 -3.100901246070861816e-01 5.496633529663085938e+00 1.555962920188903809e+00 1.232896924018859863e+00
6.630000000000000000e+02 8.976453781127929688e+00 -3.014799308776855469e+01 -8.022173047065734863e-01 4.184194087982177734e+00 1.014593005180358887e+00 9.478231072425842285e-01
6.640000000000000000e+02 1.802541923522949219e+01 -3.018549156188964844e+01 -1.185813784599304199e+00 2.439685344696044922e+00 3.761614859104156494e-01 -6.507111191749572754e-01
6.650000000000000000e+02 1.910120391845703125e+01 -3.148525047302246094e+01 -1.039930462837219238e+00 1.806339979171752930e+00 2.299228608608245850e-01 -6.758813858032226562e-01
6.660000000000000000e+02 1.691542053222656250e+01 -2.672973060607910156e+01 -3.728702366352081299e-01 3.150642871856689453e+00 8.333318233489990234e-01 -9.174281358718872070e-01
6.670000000000000000e+02 7.334188842773437500e+01 -3.372438812255859375e+01 -4.199979305267333984e-01 7.992901325225830078e+00 2.271871089935302734e+00 -7.975719124078750610e-02
6.680000000000000000e+02 7.152105712890625000e+01 -3.239031982421875000e+01 -7.173051834106445312e-01 7.328766345977783203e+00 1.983438372611999512e+00 -7.423025672324001789e-04
6.690000000000000000e+02 6.270775985717773438e+01 -3.028320884704589844e+01 -1.217070817947387695e+00 1.090790748596191406e+00 -3.788403049111366272e-02 4.484013915061950684e-01
6.700000000000000000e+02 1.259997272491455078e+01 -2.209280204772949219e+01 8.200465440750122070e-01 7.785223484039306641e+00 2.581581115722656250e+00 5.639230608940124512e-01
6.710000000000000000e+02 2.029886245727539062e+01 -3.013963890075683594e+01 -1.321014761924743652e+00 1.183402776718139648e+00 -4.128358140587806702e-02 -5.202010273933410645e-01
6.720000000000000000e+02 1.293910503387451172e+01 -1.887320327758789062e+01 1.499195456504821777e+00 1.088261032104492188e+01 3.714541673660278320e+00 5.091475248336791992e-01
6.730000000000000000e+02 5.661877441406250000e+01 2.254206275939941406e+01 -2.061281919479370117e+00 -8.259735256433486938e-02 -6.431637406349182129e-01 -5.736580118536949158e-02
6.740000000000000000e+02 4.423168182373046875e+01 2.116761207580566406e+01 -4.072173833847045898e-01 3.605846405029296875e+00 9.595887064933776855e-01 1.589862942695617676e+00
6.750000000000000000e+02 3.432207870483398438e+01 2.226868247985839844e+01 -8.683070540428161621e-01 5.316082954406738281e+00 1.334332823753356934e+00 -2.871311902999877930e-01
6.760000000000000000e+02 4.473753738403320312e+01 1.580532360076904297e+01 1.877034068107604980e+00 2.443459987640380859e+00 1.296148180961608887e+00 2.130358457565307617e+00
6.770000000000000000e+02 7.297487640380859375e+01 4.270479202270507812e+00 2.425586432218551636e-01 6.891095161437988281e+00 2.140096187591552734e+00 -6.462043523788452148e-01
6.780000000000000000e+02 2.964233779907226562e+01 -1.202192008495330811e-01 6.336912631988525391e+00 2.184539437294006348e-01 1.966610074043273926e+00 -8.339744806289672852e-02
6.790000000000000000e+02 3.903603744506835938e+01 4.708457469940185547e+00 1.004047542810440063e-01 1.500083255767822266e+01 4.530371189117431641e+00 5.680714845657348633e-01
6.800000000000000000e+02 3.917746353149414062e+01 6.051007270812988281e+00 5.070155858993530273e-01 1.645754051208496094e+01 5.089366912841796875e+00 1.076728940010070801e+00
6.810000000000000000e+02 3.609185791015625000e+01 4.670532703399658203e+00 1.592639565467834473e+00 1.331522274017333984e+01 4.472358703613281250e+00 1.559029579162597656e+00
6.820000000000000000e+02 5.741715621948242188e+01 3.230567932128906250e+01 2.677190005779266357e-01 2.809410333633422852e+00 9.231387972831726074e-01 -2.592819333076477051e-01
6.830000000000000000e+02 6.491448974609375000e+01 2.939813804626464844e+01 -5.645993351936340332e-01 5.538036823272705078e+00 1.492031216621398926e+00 -4.772905409336090088e-01
6.840000000000000000e+02 4.108171081542968750e+01 3.379031753540039062e+01 -5.922717452049255371e-01 3.263463020324707031e+00 8.013573884963989258e-01 4.702800214290618896e-01
6.850000000000000000e+02 3.133766937255859375e+01 3.115892791748046875e+01 -8.084563016891479492e-01 3.158579826354980469e+00 7.050370573997497559e-01 -5.552606582641601562e-01
6.860000000000000000e+02 3.562708282470703125e+01 -1.905568122863769531e+01 2.679986953735351562e-01 1.275079727172851562e+01 3.905638694763183594e+00 -5.774067640304565430e-01
6.870000000000000000e+02 3.230704498291015625e+01 -2.707316589355468750e+01 9.336773753166198730e-01 2.233875274658203125e+00 9.502658247947692871e-01 1.424309968948364258e+00
6.880000000000000000e+02 3.127223205566406250e+01 -2.801902008056640625e+01 3.247195482254028320e-01 1.398972153663635254e+00 5.171075463294982910e-01 9.298928976058959961e-01
6.890000000000000000e+02 2.740910911560058594e+01 -2.970635795593261719e+01 -2.560562372207641602e+00 -1.594401523470878601e-02 -7.729519605636596680e-01 -5.368077009916305542e-02
6.900000000000000000e+02 2.022246360778808594e+01 -2.762434768676757812e+01 -5.214197635650634766e-01 5.375202894210815430e-01 4.830158315598964691e-03 -1.146136671304702759e-01
6.910000000000000000e+02 1.914461708068847656e+01 -2.664281272888183594e+01 3.731891047209501266e-03 1.051207542419433594e+00 3.164818286895751953e-01 -5.182925462722778320e-01
6.920000000000000000e+02 1.624325942993164062e+01 -2.343278503417968750e+01 1.329154610633850098e+00 4.022874832153320312e+00 1.605608820915222168e+00 -2.325221061706542969e+00
6.930000000000000000e+02 1.567088699340820312e+01 -1.382802677154541016e+01 2.297628641128540039e+00 7.897442340850830078e+00 3.058521270751953125e+00 4.081429004669189453e+00
6.940000000000000000e+02 2.065348243713378906e+01 -1.132622909545898438e+01 -2.984714031219482422e+00 -1.291818264871835709e-02 -8.992896676063537598e-01 -6.409078240394592285e-01
6.950000000000000000e+02 2.194954109191894531e+01 -1.097169685363769531e+01 -2.640886306762695312e+00 -1.019838675856590271e-01 -8.228610157966613770e-01 -9.182440638542175293e-01
6.960000000000000000e+02 2.450465583801269531e+01 -9.868182182312011719e+00 -1.930150747299194336e+00 -4.204603433609008789e-01 -7.051833271980285645e-01 -1.085767626762390137e+00
6.970000000000000000e+02 6.895973968505859375e+01 -1.864715003967285156e+01 5.996040105819702148e-01 1.821353530883789062e+01 5.643941402435302734e+00 6.376833915710449219e-01
6.980000000000000000e+02 6.600469970703125000e+01 -2.488777160644531250e+01 9.759502410888671875e-01 3.059796571731567383e+00 1.210723996162414551e+00 1.734477400779724121e+00
6.990000000000000000e+02 6.301421356201171875e+01 -2.800820159912109375e+01 -1.096550583839416504e+00 2.769460678100585938e-01 -2.458813488483428955e-01 -1.892128735780715942e-01
7.000000000000000000e+02 6.182966995239257812e+01 -2.886740684509277344e+01 -1.849482417106628418e+00 -5.765908956527709961e-02 -5.721424221992492676e-01 -5.894070863723754883e-01
7.010000000000000000e+02 5.912083816528320312e+01 -3.007781410217285156e+01 -2.748627901077270508e+00 -2.211265712976455688e-01 -8.909263014793395996e-01 -6.980829834938049316e-01
7.020000000000000000e+02 5.485016632080078125e+01 -3.071580314636230469e+01 -2.434781551361083984e+00 -1.206558942794799805e-01 -7.666312456130981445e-01 -2.997305691242218018e-01
7.030000000000000000e+02 5.066608810424804688e+01 -3.144561004638671875e+01 -4.457005113363265991e-02 1.753054141998291016e+00 5.125452280044555664e-01 -1.598475575447082520e+00
7.040000000000000000e+02 4.771018981933593750e+01 -2.840499687194824219e+01 3.028550863265991211e+00 5.874072551727294922e+00 2.670787096023559570e+00 -3.713426828384399414e+00
7.050000000000000000e+02 4.673056793212890625e+01 -2.732376289367675781e+01 3.174078464508056641e+00 8.703008651733398438e+00 3.563126087188720703e+00 -4.406448364257812500e+00
7.060000000000000000e+02 4.446584320068359375e+01 -2.394977760314941406e+01 2.247582435607910156e+00 1.256865215301513672e+01 4.444870471954345703e+00 -2.307085514068603516e+00
7.070000000000000000e+02 4.516536712646484375e+01 -1.739831542968750000e+01 2.217193365097045898e+00 8.461152076721191406e+00 3.203503608703613281e+00 1.583579540252685547e+00
7.080000000000000000e+02 5.308344650268554688e+01 -1.473795509338378906e+01 -4.494034945964813232e-01 9.211888164281845093e-02 -1.071853786706924438e-01 3.656981885433197021e-01
7.090000000000000000e+02 5.447128295898437500e+01 -1.464039325714111328e+01 -1.233216762542724609e+00 1.344593614339828491e-01 -3.296272158622741699e-01 1.763116866350173950e-01
7.100000000000000000e+02 5.583353042602539062e+01 -1.453455352783203125e+01 -1.846024155616760254e+00 2.061344496905803680e-02 -5.476232171058654785e-01 2.213233150541782379e-02
7.110000000000000000e+02 6.245582199096679688e+01 1.505331230163574219e+01 2.100286483764648438e-01 1.109747791290283203e+01 3.392251968383789062e+00 -1.284451037645339966e-01
7.120000000000000000e+02 6.238609313964843750e+01 1.366018009185791016e+01 2.152952998876571655e-01 1.122688007354736328e+01 3.432652473449707031e+00 3.433111011981964111e-01
7.130000000000000000e+02 6.341087722778320312e+01 1.195187282562255859e+01 5.706166028976440430e-01 1.006759548187255859e+01 3.191463470458984375e+00 6.796363592147827148e-01
7.140000000000000000e+02 6.102627563476562500e+01 6.753494739532470703e+00 1.314349174499511719e+00 8.570896148681640625e+00 2.965573549270629883e+00 2.813265562057495117e+00
7.150000000000000000e+02 5.809324264526367188e+01 1.935136079788208008e+00 1.505647540092468262e+00 3.459090471267700195e+00 1.489421367645263672e+00 2.301017284393310547e+00
7.160000000000000000e+02 5.730905532836914062e+01 7.680776119232177734e-01 1.616393446922302246e+00 3.499267101287841797e+00 1.534698128700256348e+00 2.327775239944458008e+00
7.170000000000000000e+02 5.470211410522460938e+01 -2.593521118164062500e+00 2.456293821334838867e+00 2.834972620010375977e+00 1.587379932403564453e+00 2.597933530807495117e+00
7.180000000000000000e+02 5.277560806274414062e+01 -4.592107772827148438e+00 2.778843879699707031e+00 2.482689380645751953e+00 1.578459978103637695e+00 2.474013090133666992e+00
7.190000000000000000e+02 4.410930252075195312e+01 -4.149907588958740234e+00 -3.642886638641357422e+00 8.298183791339397430e-03 -1.090376496315002441e+00 6.587872505187988281e-01
7.200000000000000000e+02 4.155277252197265625e+01 -4.001801967620849609e+00 -1.382882475852966309e+00 4.386283397674560547e+00 9.010202884674072266e-01 -1.687676787376403809e+00
7.210000000000000000e+02 3.980435180664062500e+01 -7.805708795785903931e-02 1.411112070083618164e+00 1.159933853149414062e+01 3.903135299682617188e+00 -3.350458860397338867e+00
7.220000000000000000e+02 3.833616638183593750e+01 2.133940458297729492e+00 1.538481831550598145e+00 1.344477748870849609e+01 4.494977951049804688e+00 -9.094983935356140137e-01
7.230000000000000000e+02 3.377813720703125000e+01 6.562282562255859375e+00 3.927918374538421631e-01 1.221504783630371094e+01 3.782351970672607422e+00 -2.918654084205627441e-01
7.240000000000000000e+02 3.968688964843750000e+01 8.755046844482421875e+00 2.173462629318237305e+00 1.678377532958984375e+01 5.687171459197998047e+00 4.529065608978271484e+00
7.250000000000000000e+02 4.073581314086914062e+01 1.148283195495605469e+01 2.594183921813964844e+00 9.206383705139160156e+00 3.540170192718505859e+00 4.374930381774902344e+00
7.260000000000000000e+02 4.159524917602539062e+01 1.277014732360839844e+01 2.759834527969360352e+00 6.974666118621826172e+00 2.920350313186645508e+00 3.820178031921386719e+00
7.270000000000000000e+02 4.368998336791992188e+01 1.484649467468261719e+01 2.321025133132934570e+00 3.446401596069335938e+00 1.730228066444396973e+00 2.700503587722778320e+00
7.280000000000000000e+02 4.800858306884765625e+01 1.854245948791503906e+01 4.707542955875396729e-01 9.091619253158569336e-01 4.139748811721801758e-01 7.910758256912231445e-01
7.290000000000000000e+02 5.321530151367187500e+01 2.093611145019531250e+01 -2.405163049697875977e+00 1.918756635859608650e-03 -7.209732532501220703e-01 -3.502147197723388672e-01
7.300000000000000000e+02 5.735836410522460938e+01 2.160198974609375000e+01 -3.979321718215942383e+00 -2.913554012775421143e-01 -1.281203150749206543e+00 -3.385575115680694580e-01
7.310000000000000000e+02 3.121090888977050781e+01 1.756395530700683594e+01 1.110927939414978027e+00 6.730841636657714844e+00 2.352530956268310547e+00 -2.414543390274047852e+00
7.320000000000000000e+02 3.170296096801757812e+01 1.620908927917480469e+01 8.638457059860229492e-01 7.266796112060546875e+00 2.439192533493041992e+00 -2.319605588912963867e+00
7.330000000000000000e+02 3.341155242919921875e+01 9.416218757629394531e+00 5.108558535575866699e-01 1.006477737426757812e+01 3.172689914703369141e+00 -1.394680023193359375e+00
7.340000000000000000e+02 3.880335235595703125e+01 9.051493644714355469e+00 2.118451833724975586e+00 1.397457218170166016e+01 4.827907085418701172e+00 2.463279247283935547e+00
7.350000000000000000e+02 3.378772735595703125e+01 5.177685737609863281e+00 6.337768584489822388e-02 1.382637882232666016e+01 4.166926860809326172e+00 2.562159001827239990e-01
7.360000000000000000e+02 3.373719024658203125e+01 3.921441793441772461e+00 1.313311338424682617e+00 1.676902961730957031e+01 5.424702644348144531e+00 2.040934562683105469e+00
7.370000000000000000e+02 2.531802940368652344e+01 1.286152362823486328e+00 1.817878961563110352e+00 -5.326991081237792969e-01 3.855539560317993164e-01 -1.811887621879577637e-01
7.380000000000000000e+02 2.234454536437988281e+01 4.172556877136230469e+00 -1.601640820503234863e+00 -1.866793513298034668e+00 -1.040530323982238770e+00 1.829001069068908691e+00
7.390000000000000000e+02 1.820804214477539062e+01 7.786134719848632812e+00 -1.188956856727600098e+00 1.439580440521240234e+00 7.518707960844039917e-02 1.392865777015686035e-01
7.400000000000000000e+02 1.628866577148437500e+01 1.005425071716308594e+01 1.305220961570739746e+00 6.746541500091552734e+00 2.415528774261474609e+00 -3.153760194778442383e+00
7.410000000000000000e+02 1.425054454803466797e+01 1.663603782653808594e+01 -4.071031138300895691e-02 1.378275871276855469e+01 4.122614383697509766e+00 -5.196382403373718262e-01
7.420000000000000000e+02 1.365511322021484375e+01 1.939052200317382812e+01 2.097741365432739258e+00 1.134766197204589844e+01 4.033620834350585938e+00 7.192958593368530273e-01
7.430000000000000000e+02 2.092084693908691406e+01 2.283032035827636719e+01 -2.927915334701538086e+00 -2.246343344449996948e-01 -9.457648992538452148e-01 3.212416544556617737e-02
7.440000000000000000e+02 1.000332546234130859e+01 1.656373858451843262e+00 1.017908453941345215e+00 9.624859094619750977e-01 5.941182971000671387e-01 -1.625150084495544434e+00
7.450000000000000000e+02 9.505927085876464844e+00 1.701208233833312988e+00 5.403699278831481934e-01 7.752089500427246094e-01 3.946736454963684082e-01 -1.139093279838562012e+00
7.460000000000000000e+02 8.738389968872070312e+00 1.746446251869201660e+00 1.059673652052879333e-01 5.062661170959472656e-01 1.836700588464736938e-01 -5.269082188606262207e-01
7.470000000000000000e+02 7.936500072479248047e+00 1.786490201950073242e+00 -3.026285767555236816e-01 3.583900928497314453e-01 1.672845706343650818e-02 -1.768165379762649536e-01
7.480000000000000000e+02 5.482303142547607422e+00 1.882720828056335449e+00 -5.661119222640991211e-01 7.875603437423706055e-02 -1.462067663669586182e-01 4.438757002353668213e-01
7.490000000000000000e+02 4.654549121856689453e+00 1.923750400543212891e+00 -4.819507598876953125e-01 6.181692704558372498e-02 -1.260401606559753418e-01 4.949749112129211426e-01
7.500000000000000000e+02 2.596744060516357422e+00 4.541944026947021484e+00 6.278618425130844116e-02 -3.466238975524902344e-01 -8.515130728483200073e-02 5.341401696205139160e-01
7.510000000000000000e+02 3.819941759109497070e+00 1.977294087409973145e+00 -3.717598319053649902e-01 -3.174462169408798218e-02 -1.210513338446617126e-01 5.321001410484313965e-01
7.520000000000000000e+02 2.977809667587280273e+00 2.042488336563110352e+00 -2.724272906780242920e-01 -1.134475693106651306e-01 -1.157624572515487671e-01 5.032218694686889648e-01
7.530000000000000000e+02 1.045970726013183594e+01 2.132414817810058594e+00 1.740583777427673340e+00 2.315572738647460938e+00 1.216846942901611328e+00 -2.817524194717407227e+00
7.540000000000000000e+02 1.061413097381591797e+01 1.724436521530151367e+00 1.793910026550292969e+00 1.802167057991027832e+00 1.078823089599609375e+00 -2.640453338623046875e+00
7.550000000000000000e+02 1.083542919158935547e+01 1.745990872383117676e+00 2.043544769287109375e+00 2.290651559829711914e+00 1.300258994102478027e+00 -3.091897964477539062e+00
7.560000000000000000e+02 1.129443740844726562e+01 1.805261015892028809e+00 2.656296730041503906e+00 3.644965410232543945e+00 1.890378594398498535e+00 -4.211852550506591797e+00
7.570000000000000000e+02 1.039907169342041016e+01 1.702306628227233887e+00 1.560428977012634277e+00 1.454934597015380859e+00 9.046090841293334961e-01 -2.245222091674804688e+00
7.580000000000000000e+02 1.105888652801513672e+01 1.797636628150939941e+00 2.321866035461425781e+00 2.978832244873046875e+00 1.590209484100341797e+00 -3.691475629806518555e+00
7.590000000000000000e+02 1.193211174011230469e+01 1.675895214080810547e+00 3.247002124786376953e+00 6.583029270172119141e+00 2.949009418487548828e+00 -5.954823970794677734e+00
7.600000000000000000e+02 1.269773292541503906e+01 1.646103501319885254e+00 1.901089668273925781e+00 1.328591537475585938e+01 4.556101322174072266e+00 -6.377242565155029297e+00
7.610000000000000000e+02 1.331525039672851562e+01 1.651756167411804199e+00 1.169515371322631836e+00 1.731983375549316406e+01 5.546804904937744141e+00 -3.333327531814575195e+00
7.620000000000000000e+02 1.352017593383789062e+01 1.598285675048828125e+00 1.412358999252319336e+00 1.800721931457519531e+01 5.825873374938964844e+00 -2.076082706451416016e+00
7.630000000000000000e+02 1.391511440277099609e+01 1.433751225471496582e+00 2.989584445953369141e+00 1.760417366027832031e+01 6.178127288818359375e+00 1.514848023653030396e-01
7.640000000000000000e+02 1.411652469635009766e+01 1.331979513168334961e+00 4.170104503631591797e+00 1.698262977600097656e+01 6.345820426940917969e+00 1.215978860855102539e+00
7.650000000000000000e+02 1.465323448181152344e+01 3.555700778961181641e-01 1.042457485198974609e+01 1.271480178833007812e+01 6.941812992095947266e+00 6.425279974937438965e-01
7.660000000000000000e+02 1.424387836456298828e+01 -1.069623470306396484e+00 6.039258003234863281e+00 1.602327728271484375e+01 6.618760585784912109e+00 -2.994706392288208008e+00
7.670000000000000000e+02 1.332598018646240234e+01 -1.629454970359802246e+00 1.462742209434509277e+00 1.662263679504394531e+01 5.425613403320312500e+00 2.512051820755004883e+00
7.680000000000000000e+02 1.250719356536865234e+01 -1.584770441055297852e+00 2.784283399581909180e+00 1.117781925201416016e+01 4.188631057739257812e+00 6.123045444488525391e+00
7.690000000000000000e+02 1.311102676391601562e+01 -1.639640808105468750e+00 1.434886336326599121e+00 1.572071170806884766e+01 5.146679401397705078e+00 3.773968935012817383e+00
7.700000000000000000e+02 1.094942188262939453e+01 -1.674157381057739258e+00 2.679501295089721680e+00 2.081174612045288086e+00 1.428202748298645020e+00 2.947175979614257812e+00
7.710000000000000000e+02 1.052815723419189453e+01 -1.776461124420166016e+00 2.082474231719970703e+00 1.512300968170166016e+00 1.078432559967041016e+00 2.277781963348388672e+00
7.720000000000000000e+02 1.093299007415771484e+01 -1.978502273559570312e+00 2.442554235458374023e+00 2.713743209838867188e+00 1.546889185905456543e+00 3.244137048721313477e+00
7.730000000000000000e+02 8.093174934387207031e+00 -1.781322836875915527e+00 8.573421090841293335e-02 2.935171425342559814e-01 1.137754023075103760e-01 2.799146771430969238e-01
7.740000000000000000e+02 8.835629463195800781e+00 -1.768169403076171875e+00 4.515673220157623291e-01 4.279911816120147705e-01 2.638675570487976074e-01 5.933551192283630371e-01
7.750000000000000000e+02 7.343269348144531250e+00 -1.802992939949035645e+00 -1.373491436243057251e-01 2.020387202501296997e-01 1.940687373280525208e-02 3.115198202431201935e-02
7.760000000000000000e+02 5.834703445434570312e+00 -1.858042955398559570e+00 -3.221352994441986084e-01 1.053900122642517090e-01 -6.502359360456466675e-02 -2.520483732223510742e-01
7.770000000000000000e+02 4.316264152526855469e+00 -1.933717846870422363e+00 -2.892759144306182861e-01 2.254687249660491943e-02 -8.001871407032012939e-02 -3.758992254734039307e-01
7.780000000000000000e+02 1.519677639007568359e+00 -7.767823219299316406e+00 2.580759301781654358e-02 -7.553031444549560547e-01 -2.188486754894256592e-01 -1.549889892339706421e-01
7.790000000000000000e+02 1.993226051330566406e+00 -2.133719682693481445e+00 -1.081848368048667908e-01 -1.586678028106689453e-01 -8.005579560995101929e-02 -3.081483542919158936e-01
7.800000000000000000e+02 1.201156020164489746e+00 -2.190099239349365234e+00 -4.982625320553779602e-02 -2.150388807058334351e-01 -7.945954054594039917e-02 -2.177678644657135010e-01
7.810000000000000000e+02 4.018956124782562256e-01 -2.205943107604980469e+00 -7.956732995808124542e-03 -2.442509979009628296e-01 -7.566232234239578247e-02 -8.216199278831481934e-02
7.820000000000000000e+02 2.009285926818847656e+00 -4.164015197753906250e+01 4.188867751508951187e-03 4.262695312500000000e+00 1.280065298080444336e+00 -1.098051434382796288e-03
7.830000000000000000e+02 9.125435829162597656e+00 -3.828350067138671875e+01 -4.944141209125518799e-01 3.527278900146484375e+00 9.098594188690185547e-01 2.504622936248779297e-01
7.840000000000000000e+02 9.694153070449829102e-01 -3.875401687622070312e+01 -1.606521545909345150e-03 4.240095615386962891e+00 1.271546721458435059e+00 4.313002899289131165e-02
7.850000000000000000e+02 8.715741634368896484e-01 -3.466524887084960938e+01 -1.769223250448703766e-02 3.858356952667236328e+00 1.152199387550354004e+00 1.369313299655914307e-01
7.860000000000000000e+02 8.963123559951782227e-01 -3.324334335327148438e+01 -3.022445924580097198e-02 3.622508525848388672e+00 1.077685236930847168e+00 1.737769693136215210e-01
7.870000000000000000e+02 7.246594429016113281e-01 -2.895767593383789062e+01 2.762682735919952393e-03 2.481631040573120117e+00 7.453181147575378418e-01 2.527838051319122314e-01
7.880000000000000000e+02 6.875326633453369141e-01 -2.754202079772949219e+01 -1.582073047757148743e-02 1.966985702514648438e+00 5.853495001792907715e-01 2.634101510047912598e-01
7.890000000000000000e+02 6.625331044197082520e-01 -2.612822532653808594e+01 1.223866641521453857e-02 1.406411051750183105e+00 4.255949258804321289e-01 2.720895409584045410e-01
7.900000000000000000e+02 6.245660781860351562e-01 -2.189467811584472656e+01 -1.259125419892370701e-03 -3.019181787967681885e-01 -9.095318615436553955e-02 2.260742783546447754e-01
7.910000000000000000e+02 6.149111986160278320e-01 -2.048538208007812500e+01 3.238393366336822510e-02 -7.886038422584533691e-01 -2.268659770488739014e-01 1.961132138967514038e-01
7.920000000000000000e+02 1.840261816978454590e+00 -2.028607177734375000e+01 7.466006278991699219e-02 1.157494634389877319e-01 5.712285637855529785e-02 5.148975253105163574e-01
7.930000000000000000e+02 5.925278067588806152e-01 -1.626025581359863281e+01 1.193291135132312775e-02 -1.672917962074279785e+00 -4.982955157756805420e-01 5.435371771454811096e-02
7.940000000000000000e+02 5.830391645431518555e-01 -1.485494899749755859e+01 1.594356261193752289e-02 -1.760796666145324707e+00 -5.234559178352355957e-01 2.144819311797618866e-02
7.950000000000000000e+02 5.745072364807128906e-01 -1.344799041748046875e+01 9.071496315300464630e-03 -1.767465114593505859e+00 -5.275180935859680176e-01 -1.022530160844326019e-02
7.960000000000000000e+02 1.720490574836730957e+00 -1.332092285156250000e+01 3.887609392404556274e-02 -7.662398219108581543e-01 -2.182091176509857178e-01 -2.866912819445133209e-02
7.970000000000000000e+02 5.300490260124206543e-01 -9.228490829467773438e+00 1.496606040745973587e-03 -1.498977661132812500e+00 -4.492443203926086426e-01 -4.302659630775451660e-02
7.980000000000000000e+02 5.020133256912231445e-01 -7.832276344299316406e+00 7.551139220595359802e-03 -1.351468801498413086e+00 -4.031752943992614746e-01 -5.458205565810203552e-02
7.990000000000000000e+02 1.331908702850341797e+00 -3.602648496627807617e+00 6.285957992076873779e-03 -4.007683694362640381e-01 -1.183447167277336121e-01 -2.760846614837646484e-01
8.000000000000000000e+02 4.756007492542266846e-01 -6.434941768646240234e+00 5.599882919341325760e-03 -1.152729034423828125e+00 -3.441387712955474854e-01 -7.278855144977569580e-02
8.010000000000000000e+02 7.237374114990234375e+01 -3.877185440063476562e+01 -3.876177966594696045e-02 7.077442169189453125e+00 2.111604213714599609e+00 1.530121862888336182e-01
8.020000000000000000e+02 1.265118026733398438e+01 -4.113595199584960938e+01 -5.124863982200622559e-01 2.974662065505981445e+00 7.386527061462402344e-01 -8.611334487795829773e-03
8.030000000000000000e+02 7.880406188964843750e+01 3.999549865722656250e+01 -5.156109482049942017e-02 8.140541076660156250e+00 2.426694154739379883e+00 -8.227511495351791382e-02
8.040000000000000000e+02 7.928420257568359375e+01 3.876477050781250000e+01 2.304662205278873444e-02 8.252060890197753906e+00 2.482532262802124023e+00 -2.728735096752643585e-02
8.050000000000000000e+02 7.822158050537109375e+01 3.783810806274414062e+01 -2.499757334589958191e-02 8.075561523437500000e+00 2.415169239044189453e+00 -3.595175966620445251e-02
8.060000000000000000e+02 7.927531433105468750e+01 3.484768295288085938e+01 7.711916230618953705e-03 8.339368820190429688e+00 2.504124164581298828e+00 -5.614477209746837616e-03
8.070000000000000000e+02 7.798040771484375000e+01 3.341868591308593750e+01 -3.763786703348159790e-02 8.017921447753906250e+00 2.394085168838500977e+00 6.397638469934463501e-02
8.080000000000000000e+02 7.931991577148437500e+01 3.344914245605468750e+01 -2.634418755769729614e-02 8.340773582458496094e+00 2.494328975677490234e+00 1.333352457731962204e-02
8.090000000000000000e+02 7.929277038574218750e+01 3.066203308105468750e+01 -3.645501332357525826e-03 8.223519325256347656e+00 2.465962171554565430e+00 4.518926888704299927e-02
8.100000000000000000e+02 7.815181732177734375e+01 2.775467491149902344e+01 -2.386749349534511566e-02 7.792283058166503906e+00 2.330524682998657227e+00 1.802658140659332275e-01
8.110000000000000000e+02 7.943331146240234375e+01 2.648956489562988281e+01 -9.535709396004676819e-03 7.866816997528076172e+00 2.357184410095214844e+00 7.894486188888549805e-02
8.120000000000000000e+02 7.605717468261718750e+01 2.559405899047851562e+01 -1.012847572565078735e-01 7.398600578308105469e+00 2.189194679260253906e+00 4.150906205177307129e-01
8.130000000000000000e+02 7.939746856689453125e+01 2.514219856262207031e+01 -4.798668902367353439e-03 7.666264533996582031e+00 2.298439741134643555e+00 9.709494560956954956e-02
8.140000000000000000e+02 7.933056640625000000e+01 2.096267127990722656e+01 7.480557542294263840e-04 6.987127304077148438e+00 2.096362590789794922e+00 1.273464113473892212e-01
8.150000000000000000e+02 7.933857727050781250e+01 1.956147003173828125e+01 6.698530167341232300e-03 6.746337413787841797e+00 2.025910615921020508e+00 1.194335371255874634e-01
8.160000000000000000e+02 7.934184265136718750e+01 1.816458511352539062e+01 5.650567822158336639e-03 6.525460243225097656e+00 1.959333300590515137e+00 1.065987795591354370e-01
8.170000000000000000e+02 7.934485626220703125e+01 1.398977756500244141e+01 1.048183441162109375e-02 6.072416305541992188e+00 1.824869394302368164e+00 4.625678807497024536e-02
8.180000000000000000e+02 7.934705352783203125e+01 1.260049057006835938e+01 1.380543690174818039e-02 6.015623569488525391e+00 1.808828830718994141e+00 1.993068680167198181e-02
8.190000000000000000e+02 7.934656524658203125e+01 1.120920753479003906e+01 1.127346884459257126e-02 6.013408184051513672e+00 1.807404518127441406e+00 -6.558652035892009735e-03
8.200000000000000000e+02 7.934069824218750000e+01 7.019217014312744141e+00 7.118452806025743484e-03 6.318806648254394531e+00 1.897777557373046875e+00 -7.637825608253479004e-02
8.210000000000000000e+02 7.934254455566406250e+01 5.621603012084960938e+00 1.088068820536136627e-02 6.507229804992675781e+00 1.955433130264282227e+00 -9.570971876382827759e-02
8.220000000000000000e+02 7.934547424316406250e+01 4.224539279937744141e+00 -6.170702981762588024e-04 6.727381706237792969e+00 2.018029451370239258e+00 -1.060240566730499268e-01
8.230000000000000000e+02 7.934959411621093750e+01 3.796856105327606201e-02 1.052213087677955627e-02 7.482236862182617188e+00 2.247827768325805664e+00 -1.169741600751876831e-01
8.240000000000000000e+02 7.934938812255859375e+01 -1.357320785522460938e+00 -2.497162669897079468e-02 7.719638347625732422e+00 2.308400154113769531e+00 -9.971582889556884766e-02
8.250000000000000000e+02 7.807394409179687500e+01 -4.086074829101562500e+00 -5.802119150757789612e-02 7.847705841064453125e+00 2.336905479431152344e+00 -1.530588865280151367e-01
8.260000000000000000e+02 7.935444641113281250e+01 -4.141602039337158203e+00 -3.857683390378952026e-02 8.067515373229980469e+00 2.408681631088256836e+00 -4.734138771891593933e-02
8.270000000000000000e+02 7.936083221435546875e+01 -8.308664321899414062e+00 -1.489911973476409912e-02 7.942017078399658203e+00 2.378135442733764648e+00 1.115361452102661133e-01
8.280000000000000000e+02 7.804061889648437500e+01 -1.102170467376708984e+01 -7.552763819694519043e-02 7.548615455627441406e+00 2.241926431655883789e+00 5.335299372673034668e-01
8.290000000000000000e+02 7.934526824951171875e+01 -1.110385704040527344e+01 -8.697791025042533875e-03 7.239248752593994141e+00 2.169165372848510742e+00 2.193559557199478149e-01
8.300000000000000000e+02 7.939944458007812500e+01 -1.526162719726562500e+01 4.946181923151016235e-02 5.803574085235595703e+00 1.755910754203796387e+00 1.682176589965820312e-01
8.310000000000000000e+02 7.828236389160156250e+01 -1.778137969970703125e+01 1.858519166707992554e-01 6.388083457946777344e+00 1.972180604934692383e+00 1.310066878795623779e-02
8.320000000000000000e+02 7.943088531494140625e+01 -1.800152015686035156e+01 7.137756049633026123e-02 5.391320705413818359e+00 1.638809442520141602e+00 -8.550511673092842102e-03
8.330000000000000000e+02 7.933011627197265625e+01 -2.348734283447265625e+01 5.155088379979133606e-02 7.110266208648681641e+00 2.148545026779174805e+00 -3.314110040664672852e-01
8.340000000000000000e+02 7.796888732910156250e+01 -2.452601242065429688e+01 3.536097332835197449e-02 7.957091808319091797e+00 2.397735834121704102e+00 -8.668774962425231934e-01
8.350000000000000000e+02 7.931944274902343750e+01 -2.489204216003417969e+01 -2.762282453477382660e-02 7.761326313018798828e+00 2.320111036300659180e+00 -3.313888311386108398e-01
8.360000000000000000e+02 7.932002258300781250e+01 -2.910671997070312500e+01 -6.274691782891750336e-03 9.449288368225097656e+00 2.832904100418090820e+00 -2.350785136222839355e-01
8.370000000000000000e+02 7.792713928222656250e+01 -3.158561515808105469e+01 -1.182936131954193115e-01 9.535985946655273438e+00 2.825307846069335938e+00 -3.423812687397003174e-01
8.380000000000000000e+02 7.930999755859375000e+01 -3.189445304870605469e+01 -1.152928266674280167e-02 1.008905792236328125e+01 3.023258686065673828e+00 -1.292407661676406860e-01
8.390000000000000000e+02 7.918441772460937500e+01 -3.605339431762695312e+01 -1.873573102056980133e-02 1.041210842132568359e+01 3.118011713027954102e+00 -1.975638046860694885e-02
8.400000000000000000e+02 7.907974243164062500e+01 -3.743801116943359375e+01 -4.552529752254486084e-02 1.036977195739746094e+01 3.097273826599121094e+00 3.860197961330413818e-02
8.410000000000000000e+02 7.892337036132812500e+01 -3.881153106689453125e+01 -5.152959376573562622e-02 1.024189758300781250e+01 3.057110309600830078e+00 1.084571331739425659e-01
8.420000000000000000e+02 7.864820098876953125e+01 -4.020341873168945312e+01 -3.851038962602615356e-02 1.006563854217529297e+01 3.008138418197631836e+00 1.602901965379714966e-01
8.430000000000000000e+02 2.784940338134765625e+01 4.076848220825195312e+01 -2.620033919811248779e-01 2.547945261001586914e+00 6.857825517654418945e-01 -9.151905775070190430e-02
8.440000000000000000e+02 4.266422092914581299e-01 2.195624828338623047e+00 -1.550974510610103607e-02 -2.930227220058441162e-01 -9.255973994731903076e-02 1.035909876227378845e-01
8.450000000000000000e+02 3.162574529647827148e+00 3.100167036056518555e+00 -8.787822723388671875e-02 -1.424693912267684937e-01 -6.910428404808044434e-02 5.853205919265747070e-01
8.460000000000000000e+02 5.645508289337158203e+00 2.636116504669189453e+00 -1.520711928606033325e-01 2.512232661247253418e-01 2.974562160670757294e-02 3.767265677452087402e-01
8.470000000000000000e+02 1.581066846847534180e+00 4.887796401977539062e+00 3.894534707069396973e-02 -6.969055533409118652e-01 -1.973880678415298462e-01 3.995074331760406494e-01
8.480000000000000000e+02 5.384358763694763184e-01 9.208443641662597656e+00 2.982954494655132294e-02 -2.083508014678955078e+00 -6.161035895347595215e-01 6.221917644143104553e-02
8.490000000000000000e+02 5.742613077163696289e-01 1.201318836212158203e+01 3.800136595964431763e-02 -2.259866952896118164e+00 -6.665596961975097656e-01 -1.449959632009267807e-02
8.500000000000000000e+02 1.721440076828002930e+00 1.183162975311279297e+01 5.878983065485954285e-02 -1.148031473159790039e+00 -3.267725110054016113e-01 1.023315708152949810e-03
8.510000000000000000e+02 6.102442145347595215e-01 1.623861885070800781e+01 -1.407932606525719166e-03 -1.768020510673522949e+00 -5.308285355567932129e-01 -1.404642015695571899e-01
8.520000000000000000e+02 1.842803597450256348e+00 1.743878936767578125e+01 7.856567203998565674e-02 -3.266552090644836426e-01 -7.442685961723327637e-02 -5.191953182220458984e-01
8.530000000000000000e+02 6.219801306724548340e-01 1.765037918090820312e+01 4.301640018820762634e-02 -1.375763416290283203e+00 -3.998241126537322998e-01 -1.964045763015747070e-01
8.540000000000000000e+02 6.983440518379211426e-01 2.190822982788085938e+01 2.020612126216292381e-03 3.009976148605346680e-01 9.090546518564224243e-02 -3.050011098384857178e-01
8.550000000000000000e+02 7.069216370582580566e-01 2.333617019653320312e+01 -6.099082063883543015e-03 9.046837091445922852e-01 2.695753872394561768e-01 -2.994365692138671875e-01
8.560000000000000000e+02 2.121585845947265625e+00 2.319733619689941406e+01 -1.529593300074338913e-02 1.523321270942687988e+00 4.524075984954833984e-01 -8.326599001884460449e-01
8.570000000000000000e+02 6.963691711425781250e-01 2.476161003112792969e+01 -6.986032705754041672e-03 1.488499879837036133e+00 4.444541335105895996e-01 -2.865551114082336426e-01
8.580000000000000000e+02 6.821286678314208984e-01 2.901181793212890625e+01 -2.745355106890201569e-02 2.938839912414550781e+00 8.734159469604492188e-01 -1.766097247600555420e-01
8.590000000000000000e+02 7.219501137733459473e-01 3.042819595336914062e+01 -3.202997148036956787e-03 3.261635303497314453e+00 9.775297045707702637e-01 -1.477007120847702026e-01
8.600000000000000000e+02 2.334648370742797852e+00 3.173413276672363281e+01 -6.962263584136962891e-02 3.444913148880004883e+00 1.012587189674377441e+00 -3.430748879909515381e-01
8.610000000000000000e+02 7.613969445228576660e-01 3.184383010864257812e+01 -2.226357534527778625e-02 3.513051986694335938e+00 1.047236442565917969e+00 -1.217680722475051880e-01
8.620000000000000000e+02 7.019323110580444336e-01 3.605055236816406250e+01 5.528329638764262199e-04 3.950155973434448242e+00 1.185212612152099609e+00 -4.335490986704826355e-02
8.630000000000000000e+02 3.078975439071655273e+00 3.729964065551757812e+01 -7.339843362569808960e-02 3.833470582962036133e+00 1.128021717071533203e+00 -1.062187328934669495e-01
8.640000000000000000e+02 8.655917644500732422e-01 3.875497055053710938e+01 1.332080084830522537e-02 4.023820877075195312e+00 1.211142539978027344e+00 -1.078181527554988861e-02
8.650000000000000000e+02 1.241173982620239258e+00 4.009993362426757812e+01 -3.185447305440902710e-02 4.014685153961181641e+00 1.194849252700805664e+00 1.431556977331638336e-02
8.660000000000000000e+02 1.460705375671386719e+01 -5.680489540100097656e-01 9.581089973449707031e+00 1.338176059722900391e+01 6.888854980468750000e+00 -2.742754459381103516e+00
8.670000000000000000e+02 1.450373840332031250e+01 -7.538182735443115234e-01 8.743407249450683594e+00 1.430558681488037109e+01 6.914698123931884766e+00 -3.217523574829101562e+00
8.680000000000000000e+02 1.861158943176269531e+01 5.996534347534179688e+00 -1.580414414405822754e+00 1.994830250740051270e+00 1.243247464299201965e-01 3.074383735656738281e-01
8.690000000000000000e+02 1.479829311370849609e+01 -1.158719882369041443e-01 1.043005466461181641e+01 1.197576999664306641e+01 6.721747398376464844e+00 -1.162304878234863281e+00
8.700000000000000000e+02 1.474954414367675781e+01 1.380836963653564453e-01 1.052675819396972656e+01 1.207443618774414062e+01 6.780358314514160156e+00 -2.562530636787414551e-01
8.710000000000000000e+02 1.458896350860595703e+01 5.591405034065246582e-01 9.685779571533203125e+00 1.338988780975341797e+01 6.922700405120849609e+00 1.358224511146545410e+00
8.720000000000000000e+02 1.446049594879150391e+01 -1.267832875251770020e+00 5.411496162414550781e+00 1.481726646423339844e+01 6.068628787994384766e+00 -2.760325670242309570e+00
8.730000000000000000e+02 1.482605934143066406e+01 -1.016975045204162598e+00 7.017310142517089844e+00 1.269449996948242188e+01 5.913542747497558594e+00 -2.965486526489257812e+00
8.740000000000000000e+02 1.355094623565673828e+01 -1.599067807197570801e+00 1.784044265747070312e+00 1.714395523071289062e+01 5.678400039672851562e+00 1.078505635261535645e+00
8.750000000000000000e+02 1.376513957977294922e+01 -1.507936358451843262e+00 2.490875720977783203e+00 1.751845932006835938e+01 6.002800464630126953e+00 -2.855170667171478271e-01
8.760000000000000000e+02 1.410173320770263672e+01 -1.221832156181335449e+00 4.866889953613281250e+00 1.687556648254394531e+01 6.522737026214599609e+00 -2.482959032058715820e+00
8.770000000000000000e+02 1.428425025939941406e+01 1.169552445411682129e+00 5.508325576782226562e+00 1.587805366516113281e+01 6.415913581848144531e+00 1.651602149009704590e+00
8.780000000000000000e+02 1.310610866546630859e+01 1.674002647399902344e+00 1.169022202491760254e+00 1.621082496643066406e+01 5.213954448699951172e+00 -4.598936557769775391e+00
8.790000000000000000e+02 9.961514472961425781e+00 1.944038867950439453e+00 1.209227085113525391e+00 1.300538897514343262e+00 7.529298067092895508e-01 -1.916117668151855469e+00
8.800000000000000000e+02 1.138638401031494141e+01 2.353991746902465820e+00 1.930590152740478516e+00 5.235871791839599609e+00 2.149938583374023438e+00 -4.664964675903320312e+00
8.810000000000000000e+02 1.249153709411621094e+01 2.679522275924682617e+00 3.790651261806488037e-01 1.033966159820556641e+01 3.215617895126342773e+00 -4.861587047576904297e+00
8.820000000000000000e+02 1.237704086303710938e+01 1.887888550758361816e+00 2.066334486007690430e+00 1.034753513336181641e+01 3.724160671234130859e+00 -6.182580471038818359e+00
8.830000000000000000e+02 1.250354957580566406e+01 1.631913185119628906e+00 2.352325201034545898e+00 1.147288799285888672e+01 4.147563934326171875e+00 -6.709228038787841797e+00
8.840000000000000000e+02 1.287588024139404297e+01 1.986902832984924316e+00 8.600267767906188965e-01 1.352410602569580078e+01 4.315239906311035156e+00 -5.128790378570556641e+00
8.850000000000000000e+02 1.251974964141845703e+01 1.842808365821838379e+00 1.935952782630920410e+00 1.161938190460205078e+01 4.066600322723388672e+00 -6.434987068176269531e+00
8.860000000000000000e+02 1.269626617431640625e+01 -1.611804485321044922e+00 2.194657087326049805e+00 1.277315044403076172e+01 4.490342140197753906e+00 5.609932899475097656e+00
8.870000000000000000e+02 1.197698593139648438e+01 -1.691082000732421875e+00 3.305405855178833008e+00 6.366532802581787109e+00 2.901581525802612305e+00 5.387681961059570312e+00
8.880000000000000000e+02 1.011966609954833984e+01 -2.079411983489990234e+00 1.732228159904479980e+00 1.367236733436584473e+00 9.298394918441772461e-01 2.032854080200195312e+00
8.890000000000000000e+02 1.004374504089355469e+01 -1.741276025772094727e+00 1.457549095153808594e+00 9.775373935699462891e-01 7.305259704589843750e-01 1.631089448928833008e+00
8.900000000000000000e+02 9.558223724365234375e+00 -1.772710680961608887e+00 1.017210245132446289e+00 7.224010825157165527e-01 5.218833684921264648e-01 1.154538273811340332e+00
8.910000000000000000e+02 1.166494178771972656e+01 -1.603992819786071777e+00 3.522168874740600586e+00 4.356872558593750000e+00 2.363712310791015625e+00 4.686472892761230469e+00
8.920000000000000000e+02 1.213800621032714844e+01 -2.074780702590942383e+00 2.177662849426269531e+00 8.017536163330078125e+00 3.058559656143188477e+00 5.125950813293457031e+00
8.930000000000000000e+02 1.115331268310546875e+01 -1.652174830436706543e+00 2.975358009338378906e+00 2.521092891693115234e+00 1.648935317993164062e+00 3.371226787567138672e+00
8.940000000000000000e+02 7.549167633056640625e+00 -3.058309316635131836e+00 5.617748498916625977e-01 7.425376772880554199e-01 3.912937641143798828e-01 5.057366490364074707e-01
8.950000000000000000e+02 3.010788679122924805e+00 -3.113080739974975586e+00 -1.631520129740238190e-02 -9.359775483608245850e-02 -3.297388926148414612e-02 -4.022555649280548096e-01
8.960000000000000000e+02 5.985171318054199219e+00 -2.581188678741455078e+00 2.173794992268085480e-02 2.463990747928619385e-01 8.044110238552093506e-02 -1.468441635370254517e-01
8.970000000000000000e+02 8.133248329162597656e+00 -2.357270479202270508e+00 5.033115148544311523e-01 5.637004375457763672e-01 3.201035857200622559e-01 5.353935360908508301e-01
8.980000000000000000e+02 6.590006351470947266e+00 -1.828512787818908691e+00 -2.752076387405395508e-01 1.518021076917648315e-01 -3.702165931463241577e-02 -1.326682418584823608e-01
8.990000000000000000e+02 7.426895141601562500e+00 -2.420969486236572266e+00 2.735776305198669434e-01 4.215543270111083984e-01 2.085395902395248413e-01 2.489086240530014038e-01
9.000000000000000000e+02 6.709612369537353516e+00 -2.496502399444580078e+00 1.225702837109565735e-01 3.252431750297546387e-01 1.343440413475036621e-01 1.950413547456264496e-02
9.010000000000000000e+02 5.076754570007324219e+00 -1.892871379852294922e+00 -3.241875469684600830e-01 6.540308892726898193e-02 -7.763533294200897217e-02 -3.294605910778045654e-01
9.020000000000000000e+02 5.253497600555419922e+00 -2.677388906478881836e+00 -2.581251785159111023e-02 1.729521006345748901e-01 4.414187744259834290e-02 -2.741068601608276367e-01
9.030000000000000000e+02 3.773146390914916992e+00 -2.926547288894653320e+00 -3.799650445580482483e-02 5.779481492936611176e-03 -9.665107354521751404e-03 -3.989433944225311279e-01
9.040000000000000000e+02 3.343684434890747070e+00 -4.056951999664306641e+00 7.712392508983612061e-02 -2.617545239627361298e-02 1.528454106301069260e-02 -3.696494996547698975e-01
9.050000000000000000e+02 4.400330781936645508e-01 -3.619599819183349609e+00 -4.421418067067861557e-03 -5.651192069053649902e-01 -1.708621829748153687e-01 -1.042623296380043030e-01
9.060000000000000000e+02 4.627749323844909668e-01 -5.031566619873046875e+00 1.055186055600643158e-02 -8.823544383049011230e-01 -2.615407705307006836e-01 -9.636913985013961792e-02
9.070000000000000000e+02 6.304519176483154297e+00 1.848666310310363770e+00 -5.209757089614868164e-01 1.881700754165649414e-01 -9.984169900417327881e-02 3.264814317226409912e-01
9.080000000000000000e+02 1.598207116127014160e+00 7.735817909240722656e+00 5.891429260373115540e-02 -1.070568799972534180e+00 -3.034963607788085938e-01 2.538696229457855225e-01
9.090000000000000000e+02 3.481808900833129883e+00 4.070598602294921875e+00 6.215525045990943909e-02 -2.002504467964172363e-02 1.263906154781579971e-02 5.505833625793457031e-01
9.100000000000000000e+02 4.011816501617431641e+00 6.013270378112792969e+00 2.162790000438690186e-01 2.667269706726074219e-01 1.449017971754074097e-01 3.794625401496887207e-01
9.110000000000000000e+02 1.382597804069519043e+00 3.501205682754516602e+00 -2.160442061722278595e-02 -5.176904797554016113e-01 -1.617884784936904907e-01 3.911435306072235107e-01
9.120000000000000000e+02 2.130327224731445312e+00 2.110466480255126953e+00 -1.736377626657485962e-01 -2.026372998952865601e-01 -1.128825247287750244e-01 4.265717566013336182e-01
9.130000000000000000e+02 7.229792118072509766e+00 2.461391925811767578e+00 1.650820858776569366e-02 5.040126442909240723e-01 1.561562716960906982e-01 -7.431562989950180054e-02
9.140000000000000000e+02 7.123255729675292969e+00 1.818148016929626465e+00 -4.675326347351074219e-01 1.812699437141418457e-01 -8.587880432605743408e-02 1.133231967687606812e-01
9.150000000000000000e+02 8.009321212768554688e+00 2.380194664001464844e+00 2.216857969760894775e-01 6.333466768264770508e-01 2.565097510814666748e-01 -4.492051601409912109e-01
9.160000000000000000e+02 5.562179183959960938e+01 2.352346229553222656e+01 -1.282218933105468750e+00 2.028720229864120483e-01 -3.238040506839752197e-01 -9.297981113195419312e-02
9.170000000000000000e+02 1.195597934722900391e+01 1.627931976318359375e+01 1.795614361763000488e+00 8.751379013061523438e+00 3.164098024368286133e+00 -4.704187512397766113e-01
9.180000000000000000e+02 1.485758590698242188e+01 2.008036994934082031e+01 2.230434417724609375e+00 1.023661422729492188e+01 3.740114688873291016e+00 3.087197542190551758e+00
9.190000000000000000e+02 4.541644668579101562e+01 -1.884818649291992188e+01 1.516595244407653809e+00 1.108508491516113281e+01 3.780503988265991211e+00 1.969676971435546875e+00
9.200000000000000000e+02 6.204504394531250000e+01 -1.275975799560546875e+01 -3.743447542190551758e+00 -5.262181162834167480e-01 -1.280899643898010254e+00 -1.451590180397033691e+00
9.210000000000000000e+02 2.845251846313476562e+01 2.400827789306640625e+01 -9.829980134963989258e-01 2.538624525070190430e+00 4.666879773139953613e-01 -1.392695307731628418e+00
9.220000000000000000e+02 2.712963485717773438e+01 2.447552680969238281e+01 -9.674350023269653320e-01 1.675733327865600586e+00 2.124895006418228149e-01 -1.214565396308898926e+00
9.230000000000000000e+02 2.948904228210449219e+01 -1.250412344932556152e+00 5.079882144927978516e+00 1.397504687309265137e+00 1.943216085433959961e+00 6.944057941436767578e-01
9.240000000000000000e+02 3.116313934326171875e+01 -5.504086017608642578e+00 4.493752717971801758e-01 3.612401247024536133e+00 1.218532919883728027e+00 -1.399980902671813965e+00
9.250000000000000000e+02 3.024531936645507812e+01 2.122615051269531250e+01 -1.937398463487625122e-01 4.362991333007812500e+00 1.250775337219238281e+00 -1.347999095916748047e+00
9.260000000000000000e+02 1.508989524841308594e+01 1.255833244323730469e+01 1.693931818008422852e+00 1.384222507476806641e+01 4.660847187042236328e+00 -3.917352914810180664e+00
9.270000000000000000e+02 1.473278903961181641e+01 1.105180644989013672e+01 1.042054891586303711e+00 1.030266475677490234e+01 3.403415679931640625e+00 -2.180220127105712891e+00
9.280000000000000000e+02 2.633406639099121094e+01 -6.804537296295166016e+00 1.060728132724761963e-01 -5.731927156448364258e-01 -1.401359736919403076e-01 -1.792699694633483887e-01
9.290000000000000000e+02 2.325334548950195312e+01 2.276669692993164062e+01 -2.797919511795043945e+00 -1.241052225232124329e-01 -8.766074180603027344e-01 1.471997797489166260e-01
9.300000000000000000e+02 1.839389038085937500e+01 2.204190826416015625e+01 -1.646477460861206055e+00 1.093476861715316772e-01 -4.611389636993408203e-01 2.015343457460403442e-01
9.310000000000000000e+02 3.204487609863281250e+01 -2.910638236999511719e+01 -3.507964313030242920e-01 2.582211971282958984e+00 6.694246530532836914e-01 1.258527636528015137e+00
9.320000000000000000e+02 3.009732818603515625e+01 -2.878471946716308594e+01 -7.345327734947204590e-01 6.155110001564025879e-01 -3.570653870701789856e-02 3.225811421871185303e-01
9.330000000000000000e+02 5.163554763793945312e+01 -1.481986331939697266e+01 5.142893791198730469e-01 3.280624747276306152e-01 2.527055442333221436e-01 6.329223513603210449e-01
9.340000000000000000e+02 1.403381538391113281e+01 2.140353965759277344e+01 -7.861886620521545410e-01 8.156556129455566406e+00 2.211110353469848633e+00 6.033714115619659424e-02
9.350000000000000000e+02 3.345048141479492188e+01 2.063664197921752930e+00 3.332030057907104492e+00 1.359714889526367188e+01 5.078753471374511719e+00 4.770871162414550781e+00
9.360000000000000000e+02 2.516553878784179688e+01 -7.032736301422119141e+00 3.162348270416259766e-01 -5.267195701599121094e-01 -6.314542144536972046e-02 -2.972002327442169189e-01
9.370000000000000000e+02 3.005709838867187500e+01 -5.700272083282470703e+00 8.617355227470397949e-01 2.294206857681274414e+00 9.467827081680297852e-01 -1.066574811935424805e+00
9.380000000000000000e+02 3.373089599609375000e+01 1.383085250854492188e+01 7.272319197654724121e-01 8.369832038879394531e+00 2.729119062423706055e+00 -1.610104441642761230e+00
9.390000000000000000e+02 3.253154373168945312e+01 1.810984611511230469e+01 7.386243939399719238e-01 6.308541774749755859e+00 2.114149808883666992e+00 -1.558257222175598145e+00
9.400000000000000000e+02 1.885608100891113281e+01 2.539716339111328125e+01 -7.365910410881042480e-01 1.244175314903259277e+00 1.522752791643142700e-01 1.049286365509033203e+00
9.410000000000000000e+02 3.789096069335937500e+01 9.266568183898925781e+00 1.879022121429443359e+00 1.272730064392089844e+01 4.381896972656250000e+00 1.478892803192138672e+00
9.420000000000000000e+02 2.315726470947265625e+01 1.571208715438842773e+00 2.052515745162963867e+00 -1.484349250793457031e+00 1.704499572515487671e-01 2.452004253864288330e-01
9.430000000000000000e+02 1.284112644195556641e+01 2.081770324707031250e+01 2.394365370273590088e-01 7.686821460723876953e+00 2.377877473831176758e+00 -7.968068122863769531e-01
9.440000000000000000e+02 1.886984825134277344e+01 -1.059660530090332031e+01 -1.421620011329650879e+00 9.689817428588867188e-01 -1.357914656400680542e-01 5.689465999603271484e-01
9.450000000000000000e+02 1.988703536987304688e+01 2.434030342102050781e+01 -1.037451624870300293e+00 6.238873004913330078e-01 -1.240692958235740662e-01 7.540954947471618652e-01
9.460000000000000000e+02 2.080082702636718750e+01 2.528019714355468750e+01 -7.823227643966674805e-01 4.822652935981750488e-01 -9.001723676919937134e-02 4.930050969123840332e-01
9.470000000000000000e+02 2.202528762817382812e+01 2.380806159973144531e+01 -2.144810914993286133e+00 -8.314383774995803833e-02 -6.683863997459411621e-01 7.990246638655662537e-03
9.480000000000000000e+02 3.456537628173828125e+01 9.672645568847656250e+00 6.143811941146850586e-01 1.060310745239257812e+01 3.365246534347534180e+00 -8.910908699035644531e-01
9.490000000000000000e+02 3.491743850708007812e+01 8.135088920593261719e+00 9.729042649269104004e-01 1.169243144989013672e+01 3.799600839614868164e+00 -3.956228028982877731e-03
9.500000000000000000e+02 3.937002944946289062e+01 7.397731304168701172e+00 9.761700630187988281e-01 1.811332511901855469e+01 5.726848602294921875e+00 2.623627185821533203e+00
9.510000000000000000e+02 2.774671936035156250e+01 2.265954017639160156e+01 -8.123469352722167969e-01 1.565343976020812988e+00 2.258991301059722900e-01 -1.232200384140014648e+00
9.520000000000000000e+02 3.194791412353515625e+01 1.961871528625488281e+01 4.790833592414855957e-01 5.565091609954833984e+00 1.813252449035644531e+00 -1.249555826187133789e+00
9.530000000000000000e+02 2.134270858764648438e+01 5.070219993591308594e+00 -2.184491634368896484e+00 -1.743519425392150879e+00 -1.178403377532958984e+00 2.115410327911376953e+00
9.540000000000000000e+02 2.242164230346679688e+01 2.588207960128784180e+00 8.200792670249938965e-01 -1.387279987335205078e+00 -1.701602190732955933e-01 6.627430319786071777e-01
9.550000000000000000e+02 2.158979225158691406e+01 3.498037576675415039e+00 9.469049051403999329e-03 -1.190046906471252441e+00 -3.541733324527740479e-01 1.059247255325317383e+00
9.560000000000000000e+02 1.927350997924804688e+01 6.848733425140380859e+00 -2.054425954818725586e+00 -5.392451882362365723e-01 -7.781013250350952148e-01 1.406418323516845703e+00
9.570000000000000000e+02 1.229906272888183594e+01 1.409293365478515625e+01 1.457803606986999512e+00 9.778793334960937500e+00 3.370979070663452148e+00 -9.261990785598754883e-01
9.580000000000000000e+02 2.526747512817382812e+01 2.370745277404785156e+01 -1.480566859245300293e+00 5.240471363067626953e-01 -2.869559228420257568e-01 -5.821801424026489258e-01
9.590000000000000000e+02 3.339415359497070312e+01 1.522800350189208984e+01 6.403117179870605469e-01 7.803671360015869141e+00 2.533195018768310547e+00 -1.738531589508056641e+00
9.600000000000000000e+02 1.521731662750244141e+01 9.838455200195312500e+00 -2.215348035097122192e-01 8.926341056823730469e+00 2.611441850662231445e+00 -2.025703907012939453e+00
9.610000000000000000e+02 1.532370090484619141e+01 8.775437355041503906e+00 -1.300080895423889160e+00 8.025731086730957031e+00 2.017694950103759766e+00 -1.577553629875183105e+00
9.620000000000000000e+02 1.760509109497070312e+01 6.846393108367919922e+00 -1.753531813621520996e+00 4.003843307495117188e+00 6.750934123992919922e-01 -4.137356877326965332e-01
9.630000000000000000e+02 3.300260925292968750e+01 1.665238952636718750e+01 7.369794249534606934e-01 7.064476966857910156e+00 2.340436935424804688e+00 -1.737128257751464844e+00
9.640000000000000000e+02 3.284693527221679688e+01 1.215896415710449219e+01 6.175417900085449219e-01 8.932544708251953125e+00 2.865025997161865234e+00 -1.918235659599304199e+00
9.650000000000000000e+02 1.270893669128417969e+01 1.769501113891601562e+01 1.668362855911254883e+00 9.802461624145507812e+00 3.441247463226318359e+00 -1.376638747751712799e-02
9.660000000000000000e+02 4.426734924316406250e+01 -2.577485466003417969e+01 2.337871074676513672e+00 1.008901405334472656e+01 3.728065490722656250e+00 -1.864382982254028320e+00
9.670000000000000000e+02 6.912326812744140625e+01 -1.731263732910156250e+01 1.494617581367492676e+00 1.820656585693359375e+01 5.910355091094970703e+00 -1.554071784019470215e+00
9.680000000000000000e+02 6.886815643310546875e+01 -1.204235363006591797e+01 -1.743657588958740234e+00 9.305154800415039062e+00 2.268449068069458008e+00 -1.199681878089904785e+00
9.690000000000000000e+02 2.746291923522949219e+01 -7.924760341644287109e+00 -1.976209044456481934e+00 -6.210315823554992676e-01 -7.791721820831298828e-01 -7.157269716262817383e-01
9.700000000000000000e+02 6.975186157226562500e+01 -2.056762123107910156e+01 1.545602798461914062e+00 1.384189701080322266e+01 4.616250038146972656e+00 8.857449293136596680e-01
9.710000000000000000e+02 6.834718322753906250e+01 -2.136387062072753906e+01 1.726419925689697266e+00 1.495305442810058594e+01 5.003842353820800781e+00 3.715870857238769531e+00
9.720000000000000000e+02 3.557943344116210938e+01 -2.184847450256347656e+01 7.834042310714721680e-01 1.151844501495361328e+01 3.690554618835449219e+00 1.414502382278442383e+00
9.730000000000000000e+02 6.648875427246093750e+01 -1.312499141693115234e+01 1.329221606254577637e+00 3.952737331390380859e+00 1.584587693214416504e+00 -2.167233705520629883e+00
9.740000000000000000e+02 6.603229522705078125e+01 -1.134067821502685547e+01 -1.846077561378479004e+00 3.859168291091918945e+00 6.039272546768188477e-01 -2.962274551391601562e+00
9.750000000000000000e+02 6.888303375244140625e+01 -2.525598526000976562e+01 -6.042162179946899414e-01 8.465907096862792969e+00 2.358507156372070312e+00 7.734105587005615234e-01
9.760000000000000000e+02 7.127088165283203125e+01 -1.678975868225097656e+01 2.017999887466430664e+00 1.155739498138427734e+01 4.072618484497070312e+00 9.174411743879318237e-02
9.770000000000000000e+02 1.427427482604980469e+01 -1.831862831115722656e+01 2.383230030536651611e-01 1.381722736358642578e+01 4.216665267944335938e+00 1.591248214244842529e-01
9.780000000000000000e+02 6.782644653320312500e+01 -1.117772865295410156e+01 -1.867791056632995605e+00 7.617482662200927734e+00 1.724907517433166504e+00 -2.538343429565429688e+00
9.790000000000000000e+02 5.768972396850585938e+01 -3.041794967651367188e+01 -2.921513557434082031e+00 -2.302738279104232788e-01 -9.455361962318420410e-01 -6.154645085334777832e-01
9.800000000000000000e+02 2.599765777587890625e+01 -2.988010978698730469e+01 -2.923706054687500000e+00 -1.365894377231597900e-01 -9.180886745452880859e-01 1.191320568323135376e-01
9.810000000000000000e+02 4.902968215942382812e+01 -3.283493423461914062e+01 -3.573562204837799072e-01 3.963258743286132812e+00 1.081770777702331543e+00 -2.349335193634033203e+00
9.820000000000000000e+02 6.396496582031250000e+01 -2.922329139709472656e+01 -1.049178600311279297e+00 1.913852095603942871e+00 2.594020366668701172e-01 5.357883572578430176e-01
9.830000000000000000e+02 5.247357177734375000e+01 -3.231160736083984375e+01 -4.219146966934204102e-01 1.054500102996826172e+00 1.897756457328796387e-01 -1.543082833290100098e+00
9.840000000000000000e+02 6.505453491210937500e+01 -2.805480003356933594e+01 -7.862070798873901367e-01 2.720008850097656250e+00 5.801405310630798340e-01 7.929666042327880859e-01
9.850000000000000000e+02 5.346194839477539062e+01 -3.065657806396484375e+01 -1.764751195907592773e+00 1.333137750625610352e-01 -4.894312322139739990e-01 -3.090668618679046631e-01
9.860000000000000000e+02 5.314604187011718750e+01 -6.256710052490234375e+00 8.456443548202514648e-01 2.339861869812011719e+00 9.556518793106079102e-01 2.130648374557495117e+00
9.870000000000000000e+02 4.807328796386718750e+01 -5.092142105102539062e+00 -3.778565168380737305e+00 -2.735852599143981934e-01 -1.215645074844360352e+00 1.276015996932983398e+00
9.880000000000000000e+02 6.089076232910156250e+01 -1.340825462341308594e+01 -2.825082778930664062e+00 -2.843521535396575928e-01 -9.328305125236511230e-01 -1.022610187530517578e+00
9.890000000000000000e+02 1.388657951354980469e+01 -1.408704280853271484e+01 8.153443932533264160e-01 9.527491569519042969e+00 3.102850914001464844e+00 8.901846408843994141e-01
9.900000000000000000e+02 5.778852462768554688e+01 -1.124343013763427734e+01 -1.305031776428222656e+00 8.227694630622863770e-01 -1.446786820888519287e-01 6.576818227767944336e-01
9.910000000000000000e+02 2.280184745788574219e+01 -8.337908744812011719e+00 -4.730470478534698486e-01 5.161157343536615372e-03 -1.403657644987106323e-01 -6.500533223152160645e-01
9.920000000000000000e+02 2.575697326660156250e+01 -9.310252189636230469e+00 -2.106235504150390625e+00 -7.442490458488464355e-01 -8.551453351974487305e-01 -1.216932415962219238e+00
9.930000000000000000e+02 5.589001464843750000e+01 -3.544126510620117188e+01 2.277672886848449707e-01 5.188667178153991699e-01 2.239902168512344360e-01 -6.106021404266357422e-01
9.940000000000000000e+02 6.117370223999023438e+01 -1.169486427307128906e+01 -2.824137210845947266e+00 4.032455384731292725e-01 -7.262674570083618164e-01 -7.934778928756713867e-02
9.950000000000000000e+02 5.647140121459960938e+01 -3.234957122802734375e+01 -1.012524843215942383e+00 -2.056843936443328857e-01 -3.654627799987792969e-01 -5.220655202865600586e-01
9.960000000000000000e+02 7.017002868652343750e+01 -1.926102828979492188e+01 1.671049475669860840e+00 1.440673065185546875e+01 4.823334217071533203e+00 -3.041014075279235840e-01
9.970000000000000000e+02 3.636570358276367188e+01 -1.033449745178222656e+01 3.312835693359375000e-01 1.005708312988281250e+01 3.116509914398193359e+00 -1.946457743644714355e+00
9.980000000000000000e+02 3.444773483276367188e+01 -1.013951873779296875e+01 7.518609762191772461e-01 9.833034515380859375e+00 3.175468683242797852e+00 -2.830015420913696289e+00
9.990000000000000000e+02 5.033140563964843750e+01 -6.697468280792236328e+00 -1.667961776256561279e-01 7.639530301094055176e-01 1.791470497846603394e-01 2.743407487869262695e+00
1.000000000000000000e+03 1.749944114685058594e+01 -1.096388816833496094e+01 -1.457764625549316406e+00 3.310708999633789062e+00 5.558833479881286621e-01 1.737174153327941895e+00
1.001000000000000000e+03 4.309064483642578125e+01 -2.335023880004882812e+01 2.087802886962890625e+00 1.011950683593750000e+01 3.662192821502685547e+00 -1.636233210563659668e+00
1.002000000000000000e+03 6.215699768066406250e+01 -1.101905345916748047e+01 -1.824358701705932617e+00 2.120171338319778442e-01 -4.837024807929992676e-01 -7.107495330274105072e-03
1.003000000000000000e+03 7.186966705322265625e+01 -1.886018371582031250e+01 1.966035485267639160e+00 1.110710048675537109e+01 3.921940803527832031e+00 -2.901399433612823486e-01
1.004000000000000000e+03 5.586589813232421875e+01 -1.332642936706542969e+01 -1.314028382301330566e+00 3.060961663722991943e-01 -3.023796677589416504e-01 4.746347963809967041e-01
1.005000000000000000e+03 5.709326553344726562e+01 -1.339992809295654297e+01 -1.694456338882446289e+00 2.401902228593826294e-01 -4.362798333168029785e-01 1.630102992057800293e-01
1.006000000000000000e+03 6.704888153076171875e+01 -2.771706581115722656e+01 -8.963571786880493164e-01 5.197593212127685547e+00 1.290370821952819824e+00 1.101502776145935059e+00
1.007000000000000000e+03 1.282907485961914062e+01 -1.490364456176757812e+01 1.514781355857849121e+00 8.785031318664550781e+00 3.089943885803222656e+00 7.721624970436096191e-01
1.008000000000000000e+03 5.316179275512695312e+01 -1.345476913452148438e+01 -2.037101387977600098e-01 4.097934365272521973e-01 6.182499229907989502e-02 1.054749488830566406e+00
1.009000000000000000e+03 5.960612487792968750e+01 -3.186908721923828125e+01 -1.189955353736877441e+00 5.771020054817199707e-02 -3.396735489368438721e-01 -6.541164219379425049e-02
1.010000000000000000e+03 5.357907867431640625e+01 -3.217053604125976562e+01 -5.959256291389465332e-01 3.983213305473327637e-01 -5.928127840161323547e-02 -1.101077795028686523e+00
1.011000000000000000e+03 4.251414489746093750e+01 -2.017023849487304688e+01 1.871826767921447754e+00 9.906983375549316406e+00 3.533643245697021484e+00 -1.083144664764404297e+00
1.012000000000000000e+03 4.417008972167968750e+01 -2.123126983642578125e+01 8.544322848320007324e-01 1.219101524353027344e+01 3.913634300231933594e+00 -8.250837326049804688e-01
1.013000000000000000e+03 6.504819488525390625e+01 -2.594909477233886719e+01 2.419273257255554199e-01 1.751907706260681152e+00 5.981504917144775391e-01 9.662515521049499512e-01
1.014000000000000000e+03 3.418485641479492188e+01 -2.730318069458007812e+01 3.190293908119201660e-01 5.084147453308105469e+00 1.620952963829040527e+00 1.805033564567565918e+00
1.015000000000000000e+03 6.603639984130859375e+01 -2.686668968200683594e+01 -3.768613636493682861e-01 3.841525554656982422e+00 1.039399266242980957e+00 1.161571621894836426e+00
1.016000000000000000e+03 4.375357437133789062e+01 -2.225438690185546875e+01 1.653790354728698730e+00 1.100107479095458984e+01 3.796459436416625977e+00 -1.899233222007751465e+00
1.017000000000000000e+03 2.321252632141113281e+01 -1.044668292999267578e+01 -2.184599876403808594e+00 -3.281160295009613037e-01 -7.538148164749145508e-01 -9.869962930679321289e-01
1.018000000000000000e+03 3.521884918212890625e+01 -1.482647418975830078e+01 1.267097592353820801e+00 1.506034755706787109e+01 4.898233413696289062e+00 -3.301121950149536133e+00
1.019000000000000000e+03 3.759888458251953125e+01 -1.415602302551269531e+01 2.034492254257202148e+00 1.064530277252197266e+01 3.803938627243041992e+00 -2.369419097900390625e+00
1.020000000000000000e+03 3.346515655517578125e+01 -8.973345756530761719e+00 -3.342326730489730835e-02 7.884812831878662109e+00 2.355416774749755859e+00 -2.753415822982788086e+00
1.021000000000000000e+03 3.541506576538085938e+01 -1.137870502471923828e+01 1.643757939338684082e+00 1.090016365051269531e+01 3.763176679611206055e+00 -2.799951791763305664e+00
1.022000000000000000e+03 3.555631637573242188e+01 -1.765132904052734375e+01 3.790659308433532715e-01 1.349100971221923828e+01 4.161022663116455078e+00 -1.227118730545043945e+00
1.023000000000000000e+03 3.658237075805664062e+01 -1.593049430847167969e+01 1.510369181632995605e+00 1.249499416351318359e+01 4.201608657836914062e+00 -2.446053028106689453e+00
1.024000000000000000e+03 2.012472534179687500e+01 -1.017062854766845703e+01 -1.571984648704528809e+00 5.761339068412780762e-01 -2.987551987171173096e-01 -3.112305104732513428e-01
1.025000000000000000e+03 3.243042755126953125e+01 -7.819427490234375000e+00 -4.614733159542083740e-01 5.604089260101318359e+00 1.542784810066223145e+00 -2.410768032073974609e+00
1.026000000000000000e+03 5.857865905761718750e+01 2.182785415649414062e+01 -2.610356569290161133e+00 4.484172463417053223e-01 -6.485818028450012207e-01 -6.851608157157897949e-01
1.027000000000000000e+03 5.416102981567382812e+01 2.627977943420410156e+01 -2.432039976119995117e-01 1.140543818473815918e+00 2.692019343376159668e-01 3.197228908538818359e-01
1.028000000000000000e+03 3.315381240844726562e+01 -2.820834732055664062e+01 1.253223866224288940e-01 3.464237451553344727e+00 1.076867938041687012e+00 1.528945922851562500e+00
1.029000000000000000e+03 1.809830665588378906e+01 -2.563704299926757812e+01 4.713391065597534180e-01 1.792673230171203613e+00 6.792036890983581543e-01 -1.043397665023803711e+00
1.030000000000000000e+03 1.713103485107421875e+01 -2.456245040893554688e+01 9.309625625610351562e-01 2.792500734329223633e+00 1.117038965225219727e+00 -1.600865125656127930e+00
1.031000000000000000e+03 3.682913208007812500e+01 -1.877527618408203125e+01 9.447197318077087402e-01 1.191814041137695312e+01 3.858858108520507812e+00 -1.037471890449523926e+00
1.032000000000000000e+03 1.436226367950439453e+01 -2.288266944885253906e+01 3.288626074790954590e-01 8.012647628784179688e+00 2.502453088760375977e+00 -1.035885572433471680e+00
1.033000000000000000e+03 1.510495376586914062e+01 -2.419968795776367188e+01 1.118589341640472412e-01 5.780988216400146484e+00 1.767854213714599609e+00 -1.421393990516662598e+00
1.034000000000000000e+03 7.696322631835937500e+01 -3.832764816284179688e+01 -1.681557893753051758e-01 9.523790359497070312e+00 2.806690454483032227e+00 2.861198596656322479e-02
1.035000000000000000e+03 7.924845886230468750e+01 -3.466485214233398438e+01 -1.820256747305393219e-02 1.037425136566162109e+01 3.106814622879028320e+00 -5.294976755976676941e-02
1.036000000000000000e+03 7.931800842285156250e+01 -2.770913314819335938e+01 -4.601863399147987366e-02 8.971170425415039062e+00 2.677545547485351562e+00 -2.809399664402008057e-01
1.037000000000000000e+03 7.791144561767578125e+01 3.213979721069335938e+01 -2.678977511823177338e-02 7.953956604003906250e+00 2.378150224685668945e+00 7.668617367744445801e-02
1.038000000000000000e+03 7.928230285644531250e+01 3.624603271484375000e+01 9.782150387763977051e-03 8.335400581359863281e+00 2.503554821014404297e+00 1.090032327920198441e-02
1.039000000000000000e+03 7.939766693115234375e+01 -2.073142623901367188e+01 6.884581595659255981e-02 5.948532104492187500e+00 1.805213332176208496e+00 -2.226152122020721436e-01
1.040000000000000000e+03 7.795814514160156250e+01 -2.740336608886718750e+01 -7.154031842947006226e-02 8.756825447082519531e+00 2.605585575103759766e+00 -7.164599299430847168e-01
1.041000000000000000e+03 7.796573638916015625e+01 -2.597545814514160156e+01 -8.305829018354415894e-02 8.396675109863281250e+00 2.494085073471069336e+00 -8.158276081085205078e-01
1.042000000000000000e+03 7.931880187988281250e+01 -3.050205993652343750e+01 -4.127960652112960815e-02 9.823120117187500000e+00 2.934552192687988281e+00 -1.775630861520767212e-01
1.043000000000000000e+03 7.776348876953125000e+01 -3.429799270629882812e+01 -7.578689604997634888e-02 9.673308372497558594e+00 2.879256248474121094e+00 -1.723653078079223633e-01
1.044000000000000000e+03 7.785933685302734375e+01 -3.294257736206054688e+01 -8.395881950855255127e-02 9.624383926391601562e+00 2.862127542495727539e+00 -2.290180027484893799e-01
1.045000000000000000e+03 7.475184631347656250e+01 -3.922348022460937500e+01 -2.643474936485290527e-02 8.084447860717773438e+00 2.417403936386108398e+00 -2.106364220380783081e-01
1.046000000000000000e+03 7.649025726318359375e+01 -3.961584091186523438e+01 -7.139362394809722900e-02 9.729297637939453125e+00 2.897371292114257812e+00 -6.908209621906280518e-02
1.047000000000000000e+03 7.804140472412109375e+01 1.409325695037841797e+01 5.306329205632209778e-02 6.341932296752929688e+00 1.918498635292053223e+00 1.183539479970932007e-01
1.048000000000000000e+03 7.934352111816406250e+01 1.537930679321289062e+01 1.087014190852642059e-02 6.180130958557128906e+00 1.857300281524658203e+00 6.869471818208694458e-02
1.049000000000000000e+03 7.801835632324218750e+01 2.105947303771972656e+01 7.671466097235679626e-03 7.030024528503417969e+00 2.111308813095092773e+00 3.227165341377258301e-01
1.050000000000000000e+03 7.932107543945312500e+01 2.236903190612792969e+01 -2.135825809091329575e-03 7.230123996734619141e+00 2.168396472930908203e+00 1.259475350379943848e-01
1.051000000000000000e+03 7.779288482666015625e+01 3.069061851501464844e+01 -3.055084496736526489e-02 7.901079177856445312e+00 2.361158609390258789e+00 1.185044348239898682e-01
1.052000000000000000e+03 7.939169311523437500e+01 2.785397529602050781e+01 -7.891494315117597580e-04 8.020137786865234375e+00 2.405804634094238281e+00 6.643395870923995972e-02
1.053000000000000000e+03 7.816709136962890625e+01 2.533656120300292969e+01 -3.677924722433090210e-02 7.558576107025146484e+00 2.256539106369018555e+00 2.567794620990753174e-01
1.054000000000000000e+03 7.793749237060546875e+01 2.399864959716796875e+01 -2.229969389736652374e-02 7.392981529235839844e+00 2.211204528808593750e+00 3.055245876312255859e-01
1.055000000000000000e+03 7.804161834716796875e+01 1.825369071960449219e+01 3.294063359498977661e-02 6.686501979827880859e+00 2.015832662582397461e+00 2.797746360301971436e-01
1.056000000000000000e+03 7.803741455078125000e+01 1.547440624237060547e+01 4.967680573463439941e-02 6.426314830780029297e+00 1.942797422409057617e+00 1.832074671983718872e-01
1.057000000000000000e+03 7.803828430175781250e+01 1.686283874511718750e+01 3.846160322427749634e-02 6.543992519378662109e+00 1.974736213684082031e+00 2.342591285705566406e-01
1.058000000000000000e+03 7.804856872558593750e+01 1.271645450592041016e+01 5.755367875099182129e-02 6.293944835662841797e+00 1.905449628829956055e+00 5.155139788985252380e-02
1.059000000000000000e+03 7.676866912841796875e+01 1.145558071136474609e+01 1.388352364301681519e-01 6.489147186279296875e+00 1.988394618034362793e+00 -1.656364649534225464e-02
1.060000000000000000e+03 7.803388977050781250e+01 8.528042793273925781e+00 4.871192947030067444e-02 6.391231536865234375e+00 1.931983113288879395e+00 -1.530398577451705933e-01
1.061000000000000000e+03 7.934436798095703125e+01 9.814249038696289062e+00 1.247945334762334824e-02 6.065763950347900391e+00 1.823472976684570312e+00 -3.217832371592521667e-02
1.062000000000000000e+03 7.942758941650390625e+01 -1.936459922790527344e+01 1.738472655415534973e-02 5.543735980987548828e+00 1.668336272239685059e+00 -1.051856651902198792e-01
1.063000000000000000e+03 7.672550201416015625e+01 7.204348564147949219e+00 1.022658422589302063e-01 6.630010128021240234e+00 2.019682884216308594e+00 -3.009409606456756592e-01
1.064000000000000000e+03 7.936467742919921875e+01 -6.918540954589843750e+00 -4.769278317689895630e-02 8.105933189392089844e+00 2.417472124099731445e+00 4.469775408506393433e-02
1.065000000000000000e+03 7.805722808837890625e+01 9.366589784622192383e-02 -2.858702838420867920e-02 7.372525215148925781e+00 2.203181505203247070e+00 -3.161664605140686035e-01
1.066000000000000000e+03 7.934975433349609375e+01 1.430930852890014648e+00 -1.134505309164524078e-02 7.227472305297851562e+00 2.164838075637817383e+00 -1.166934818029403687e-01
1.067000000000000000e+03 7.937857818603515625e+01 -1.387979984283447266e+01 5.843963008373975754e-03 6.254478454589843750e+00 1.878096818923950195e+00 2.364555895328521729e-01
1.068000000000000000e+03 7.798081970214843750e+01 2.914932632446289062e+01 -3.555223718285560608e-02 7.850005149841308594e+00 2.344335794448852539e+00 1.522408127784729004e-01
1.069000000000000000e+03 7.800273895263671875e+01 4.158665466308593750e+01 8.822102844715118408e-02 8.103965759277343750e+00 2.457655906677246094e+00 -2.479354664683341980e-02
1.070000000000000000e+03 7.690734863281250000e+01 3.865976333618164062e+01 -5.429829284548759460e-02 7.959955692291259766e+00 2.371697187423706055e+00 -3.136369213461875916e-02
1.071000000000000000e+03 7.804254150390625000e+01 9.935485839843750000e+00 5.642876401543617249e-02 6.319225788116455078e+00 1.912696361541748047e+00 -8.986917138099670410e-02
1.072000000000000000e+03 7.677683258056640625e+01 1.080118715763092041e-01 -2.287750132381916046e-02 7.285293102264404297e+00 2.178724765777587891e+00 -4.854339659214019775e-01
1.073000000000000000e+03 7.805110168457031250e+01 2.887377023696899414e+00 6.052081473171710968e-03 6.983608722686767578e+00 2.096898078918457031e+00 -3.166857361793518066e-01
1.074000000000000000e+03 7.805766296386718750e+01 -1.305205583572387695e+00 -2.101650089025497437e-02 7.557498455047607422e+00 2.260944604873657227e+00 -2.931712865829467773e-01
1.075000000000000000e+03 7.935074615478515625e+01 -2.751111745834350586e+00 7.793207187205553055e-03 7.920371055603027344e+00 2.378449201583862305e+00 -8.277633041143417358e-02
1.076000000000000000e+03 7.811426544189453125e+01 -8.208781242370605469e+00 -1.464518010616302490e-01 7.907037258148193359e+00 2.328175544738769531e+00 2.349143028259277344e-01
1.077000000000000000e+03 7.809752655029296875e+01 -5.465841293334960938e+00 -1.120418012142181396e-01 7.935150623321533203e+00 2.346932649612426758e+00 -4.622127115726470947e-02
1.078000000000000000e+03 7.935199737548828125e+01 -9.706291198730468750e+00 -3.786305338144302368e-02 7.645556449890136719e+00 2.282308101654052734e+00 1.704749166965484619e-01
1.079000000000000000e+03 7.820478057861328125e+01 -1.515155029296875000e+01 1.157515645027160645e-01 6.686674118041992188e+00 2.040727853775024414e+00 4.659273028373718262e-01
1.080000000000000000e+03 7.806643676757812500e+01 -1.242367649078369141e+01 -3.869746625423431396e-02 7.272721767425537109e+00 2.170207262039184570e+00 6.094202399253845215e-01
1.081000000000000000e+03 7.941711425781250000e+01 -1.663742065429687500e+01 1.099962461739778519e-02 5.492962837219238281e+00 1.651188850402832031e+00 1.022577807307243347e-01
1.082000000000000000e+03 7.828111267089843750e+01 -1.906040954589843750e+01 2.158765643835067749e-01 6.495722293853759766e+00 2.013479709625244141e+00 -2.655867338180541992e-01
1.083000000000000000e+03 3.036634635925292969e+01 -3.176729202270507812e+01 -8.580169677734375000e-01 1.659196138381958008e+00 2.403537631034851074e-01 1.261940836906433105e+00
1.084000000000000000e+03 2.410567474365234375e+01 -8.470630645751953125e+00 -9.060065746307373047e-01 -3.057159781455993652e-01 -3.635167479515075684e-01 -7.456551790237426758e-01
1.085000000000000000e+03 2.649064636230468750e+01 -3.170142555236816406e+01 -1.239368796348571777e+00 8.590644598007202148e-02 -3.460386991500854492e-01 4.036348164081573486e-01
1.086000000000000000e+03 2.482063293457031250e+01 -3.152969169616699219e+01 -1.265347361564636230e+00 1.505799591541290283e-02 -3.750867843627929688e-01 6.339819519780576229e-04
1.087000000000000000e+03 3.714120483398437500e+01 -2.287385940551757812e+01 1.530789613723754883e+00 9.259236335754394531e+00 3.237007856369018555e+00 -2.959586679935455322e-02
1.088000000000000000e+03 3.837384414672851562e+01 -2.115028190612792969e+01 1.679059624671936035e+00 9.826764106750488281e+00 3.451747179031372070e+00 -8.395970463752746582e-01
1.089000000000000000e+03 3.515856170654296875e+01 -2.647049140930175781e+01 2.862159013748168945e-01 6.296719551086425781e+00 1.974880576133728027e+00 1.315543532371520996e+00
1.090000000000000000e+03 1.593984985351562500e+01 -2.549884986877441406e+01 -1.337755322456359863e-01 4.119299411773681641e+00 1.195657253265380859e+00 -1.186064124107360840e+00
1.091000000000000000e+03 1.216576480865478516e+01 -1.662383460998535156e+01 1.737071633338928223e+00 8.668027877807617188e+00 3.121530055999755859e+00 6.144220232963562012e-01
1.092000000000000000e+03 5.200562667846679688e+01 -5.709905147552490234e+00 1.473854184150695801e+00 2.034060716629028320e+00 1.052374482154846191e+00 2.195044994354248047e+00
1.093000000000000000e+03 5.432176589965820312e+01 -6.456601142883300781e+00 9.655789732933044434e-01 2.103245496749877930e+00 9.206473231315612793e-01 1.942003726959228516e+00
1.094000000000000000e+03 6.203312683105468750e+01 2.211653137207031250e+01 -1.625685453414916992e+00 6.573738574981689453e+00 1.484415888786315918e+00 -1.235213398933410645e+00
1.095000000000000000e+03 6.465413665771484375e+01 1.854294204711914062e+01 7.171974182128906250e-01 8.217067718505859375e+00 2.680279731750488281e+00 1.699219942092895508e-01
1.096000000000000000e+03 6.250121307373046875e+01 1.777148246765136719e+01 9.407035112380981445e-01 1.069320201873779297e+01 3.490171670913696289e+00 -1.548246026039123535e+00
1.097000000000000000e+03 3.930987167358398438e+01 -1.963251233100891113e+00 2.868445962667465210e-02 9.143060684204101562e+00 2.751523494720458984e+00 -1.461446285247802734e+00
1.098000000000000000e+03 4.035896682739257812e+01 -1.331587553024291992e+00 1.884726762771606445e+00 9.211586952209472656e+00 3.328894138336181641e+00 -3.524088859558105469e+00
1.099000000000000000e+03 5.426045608520507812e+01 2.274388313293457031e+01 -1.613932967185974121e+00 1.413273513317108154e-01 -4.417816996574401855e-01 2.189655750989913940e-01
1.100000000000000000e+03 5.676298522949218750e+01 2.455917358398437500e+01 -7.243960499763488770e-01 7.645599246025085449e-01 1.204915996640920639e-02 -4.966247975826263428e-01
1.101000000000000000e+03 5.776955413818359375e+01 2.331959152221679688e+01 -9.227374196052551270e-01 5.942261219024658203e-01 -9.855337440967559814e-02 -9.461101293563842773e-01
1.102000000000000000e+03 4.015705490112304688e+01 1.009209728240966797e+01 2.441424608230590820e+00 1.251389884948730469e+01 4.486597061157226562e+00 5.022778034210205078e+00
1.103000000000000000e+03 6.271811294555664062e+01 2.111750984191894531e+01 -1.300850152969360352e+00 7.221285820007324219e+00 1.776130795478820801e+00 -2.574283480644226074e-01
1.104000000000000000e+03 4.662634277343750000e+01 -5.833399295806884766e+00 -2.209787607192993164e+00 6.618780549615621567e-03 -6.609506011009216309e-01 9.815250039100646973e-01
1.105000000000000000e+03 6.044242858886718750e+01 5.455029010772705078e+00 1.898425936698913574e+00 7.124459266662597656e+00 2.706865549087524414e+00 3.187194585800170898e+00
1.106000000000000000e+03 5.970322036743164062e+01 4.241486549377441406e+00 1.859491944313049316e+00 5.088057994842529297e+00 2.084264993667602539e+00 2.932045936584472656e+00
1.107000000000000000e+03 6.209483718872070312e+01 1.086805248260498047e+01 3.437749445438385010e-01 1.089381122589111328e+01 3.371275901794433594e+00 1.353227019309997559e+00
1.108000000000000000e+03 5.756624221801757812e+01 -9.719562530517578125e-01 1.994820833206176758e+00 3.130247592926025391e+00 1.537520527839660645e+00 2.116473436355590820e+00
1.109000000000000000e+03 3.891625595092773438e+01 3.377440214157104492e+00 7.512416839599609375e-01 1.455757427215576172e+01 4.592644691467285156e+00 -4.649057686328887939e-01
1.110000000000000000e+03 3.737990570068359375e+01 1.034853935241699219e+00 1.886201858520507812e+00 1.132311725616455078e+01 3.962795734405517578e+00 -6.036370992660522461e-01
1.111000000000000000e+03 3.769878768920898438e+01 5.345591068267822266e+00 1.115983605384826660e+00 1.458025169372558594e+01 4.708870410919189453e+00 1.368671417236328125e+00
1.112000000000000000e+03 4.415442276000976562e+01 -5.600499153137207031e+00 -1.510901451110839844e+00 1.258478760719299316e+00 -7.572683691978454590e-02 -3.364419937133789062e-01
1.113000000000000000e+03 5.918214416503906250e+01 1.367046356201171875e+00 1.463217258453369141e+00 4.069950103759765625e+00 1.659950256347656250e+00 2.267584800720214844e+00
1.114000000000000000e+03 6.318221664428710938e+01 1.055990886688232422e+01 8.272773027420043945e-01 9.854572296142578125e+00 3.204554796218872070e+00 1.109637618064880371e+00
1.115000000000000000e+03 4.542822265625000000e+01 -4.419049263000488281e+00 -4.008966922760009766e+00 -5.121059715747833252e-02 -1.218053221702575684e+00 1.122935891151428223e+00
1.116000000000000000e+03 3.779610061645507812e+01 1.321235275268554688e+01 7.855035662651062012e-01 9.449464797973632812e+00 3.070490598678588867e+00 6.734465360641479492e-01
1.117000000000000000e+03 6.143407440185546875e+01 5.026240348815917969e+00 1.350691080093383789e+00 6.916633605957031250e+00 2.480197429656982422e+00 1.955615997314453125e+00
1.118000000000000000e+03 6.203263854980468750e+01 6.370364665985107422e+00 1.299325227737426758e+00 7.802323341369628906e+00 2.730494737625122070e+00 2.026206254959106445e+00
1.119000000000000000e+03 4.320456695556640625e+01 1.807171630859375000e+01 4.298216700553894043e-01 4.128313064575195312e+00 1.367440462112426758e+00 1.917359352111816406e+00
1.120000000000000000e+03 4.290720367431640625e+01 1.597661209106445312e+01 1.299364209175109863e+00 4.373186588287353516e+00 1.701765298843383789e+00 2.399208068847656250e+00
1.121000000000000000e+03 5.584728622436523438e+01 -3.303853511810302734e+00 2.069253206253051758e+00 2.651980876922607422e+00 1.416370272636413574e+00 2.144476890563964844e+00
1.122000000000000000e+03 4.579623413085937500e+01 1.674894905090332031e+01 1.459977388381958008e+00 1.866862177848815918e+00 9.980518817901611328e-01 1.648101687431335449e+00
1.123000000000000000e+03 5.275700378417968750e+01 2.232212638854980469e+01 -1.696511387825012207e+00 3.287149071693420410e-01 -4.103389382362365723e-01 4.104077517986297607e-01
1.124000000000000000e+03 3.923455810546875000e+01 1.347048282623291016e+01 9.977040290832519531e-01 8.630374908447265625e+00 2.888423681259155273e+00 1.771825194358825684e+00
1.125000000000000000e+03 3.935118103027343750e+01 1.188114833831787109e+01 1.567960619926452637e+00 1.015151023864746094e+01 3.515841245651245117e+00 2.516847133636474609e+00
1.126000000000000000e+03 4.849113082885742188e+01 2.066562461853027344e+01 -5.285835266113281250e-01 1.387116432189941406e+00 2.575598657131195068e-01 9.705873131752014160e-01
1.127000000000000000e+03 4.656447601318359375e+01 -6.886910915374755859e+00 -9.122998118400573730e-01 2.415989637374877930e-01 -2.012102454900741577e-01 9.032445549964904785e-01
1.128000000000000000e+03 4.910699462890625000e+01 -6.427468299865722656e+00 -4.951021373271942139e-01 -1.270367801189422607e-01 -1.866416782140731812e-01 2.108630895614624023e+00
1.129000000000000000e+03 6.250997924804687500e+01 7.753436565399169922e+00 9.666250944137573242e-01 8.908503532409667969e+00 2.962538719177246094e+00 1.711026191711425781e+00
1.130000000000000000e+03 6.399440002441406250e+01 1.603209114074707031e+01 9.088189601898193359e-01 9.465759277343750000e+00 3.112373590469360352e+00 -4.934325218200683594e-01
1.131000000000000000e+03 5.996956253051757812e+01 2.539093971252441406e+00 1.306439280509948730e+00 4.799542903900146484e+00 1.831794619560241699e+00 2.239765405654907227e+00
1.132000000000000000e+03 5.671987915039062500e+01 -2.137896776199340820e+00 2.057076215744018555e+00 2.953579902648925781e+00 1.503196835517883301e+00 2.108514547348022461e+00
1.133000000000000000e+03 4.061876296997070312e+01 1.408549785614013672e+01 1.288641452789306641e+00 7.445785999298095703e+00 2.620328187942504883e+00 2.466387033462524414e+00
1.134000000000000000e+03 5.838362121582031250e+01 2.004712671041488647e-01 1.758344650268554688e+00 3.468384504318237305e+00 1.568018794059753418e+00 2.231741428375244141e+00
1.135000000000000000e+03 6.360690307617187500e+01 1.333050537109375000e+01 6.145487427711486816e-01 1.005038356781005859e+01 3.199479818344116211e+00 3.271075487136840820e-01
1.136000000000000000e+03 3.738712310791015625e+01 4.066700458526611328e+00 1.478713989257812500e+00 1.357504844665527344e+01 4.516128540039062500e+00 8.353746533393859863e-01
1.137000000000000000e+03 6.026196289062500000e+01 8.168785572052001953e-01 1.322891354560852051e+00 4.331792831420898438e+00 1.696405291557312012e+00 1.818069338798522949e+00
1.138000000000000000e+03 1.294935703277587891e+00 -4.010111618041992188e+01 -3.993492946028709412e-02 4.263087272644042969e+00 1.266945719718933105e+00 6.414077244699001312e-03
1.139000000000000000e+03 2.032856941223144531e+00 2.888105964660644531e+01 -7.681316882371902466e-02 2.988439321517944336e+00 8.734878897666931152e-01 -4.918915927410125732e-01
1.140000000000000000e+03 6.653618216514587402e-01 2.759793853759765625e+01 -7.423700764775276184e-03 2.527870893478393555e+00 7.561341524124145508e-01 -2.160180211067199707e-01
1.141000000000000000e+03 7.123565077781677246e-01 3.742041015625000000e+01 -2.532802149653434753e-02 4.003383159637451172e+00 1.193416595458984375e+00 -1.376235950738191605e-02
1.142000000000000000e+03 7.369835376739501953e-01 3.465796661376953125e+01 -2.380159310996532440e-02 3.849450588226318359e+00 1.147694706916809082e+00 -6.369864195585250854e-02
1.143000000000000000e+03 7.674991488456726074e-01 3.325348663330078125e+01 -8.203118108212947845e-03 3.705548286437988281e+00 1.109203577041625977e+00 -9.514681994915008545e-02
1.144000000000000000e+03 8.041443824768066406e-01 -3.605563354492187500e+01 -3.536819666624069214e-02 4.045757770538330078e+00 1.203116893768310547e+00 9.067495167255401611e-02
1.145000000000000000e+03 2.776646137237548828e+00 -3.311607742309570312e+01 -1.220997422933578491e-01 3.543360948562622070e+00 1.026378393173217773e+00 4.931762516498565674e-01
1.146000000000000000e+03 3.211937904357910156e+00 2.739766693115234375e+01 -1.928364336490631104e-01 2.934257030487060547e+00 8.224261999130249023e-01 -8.197243213653564453e-01
1.147000000000000000e+03 3.477625608444213867e+00 2.466121292114257812e+01 -1.434867680072784424e-01 2.514217853546142578e+00 7.112193703651428223e-01 -1.120897650718688965e+00
1.148000000000000000e+03 2.239159822463989258e+00 3.459220504760742188e+01 -6.619005650281906128e-02 3.733263969421386719e+00 1.100122213363647461e+00 -1.940157860517501831e-01
1.149000000000000000e+03 2.366708993911743164e+00 3.317613601684570312e+01 -7.890127599239349365e-02 3.595981359481811523e+00 1.055124044418334961e+00 -2.740606367588043213e-01
1.150000000000000000e+03 2.309048652648925781e+00 3.820314025878906250e+01 -4.731160402297973633e-02 3.899469852447509766e+00 1.155647516250610352e+00 -4.330991953611373901e-02
1.151000000000000000e+03 3.204223155975341797e+00 3.919158935546875000e+01 -4.636123403906822205e-02 3.911449193954467773e+00 1.159526348114013672e+00 -6.992711871862411499e-02
1.152000000000000000e+03 2.159730434417724609e+00 -2.870071983337402344e+01 -6.625686585903167725e-02 2.646483898162841797e+00 7.740681171417236328e-01 6.854746937751770020e-01
1.153000000000000000e+03 1.975751280784606934e+00 -2.589205169677734375e+01 -2.432447485625743866e-02 1.810394525527954102e+00 5.358210206031799316e-01 7.368541359901428223e-01
1.154000000000000000e+03 1.607817530632019043e+00 -9.133702278137207031e+00 2.122043631970882416e-02 -7.744377255439758301e-01 -2.259652018547058105e-01 -1.293195635080337524e-01
1.155000000000000000e+03 1.771957874298095703e+00 -1.609529304504394531e+01 8.373306691646575928e-02 -6.165674328804016113e-01 -1.598502993583679199e-01 1.542564332485198975e-01
1.156000000000000000e+03 6.736572384834289551e-01 2.048504257202148438e+01 2.413114160299301147e-02 -3.027120530605316162e-01 -8.357427269220352173e-02 -2.808363735675811768e-01
1.157000000000000000e+03 5.919036269187927246e-01 1.342115306854248047e+01 -9.481281973421573639e-03 -2.201609611511230469e+00 -6.633272767066955566e-01 -4.130096361041069031e-02
1.158000000000000000e+03 5.359700918197631836e-01 7.808836936950683594e+00 1.362464390695095062e-04 -1.846144318580627441e+00 -5.538024306297302246e-01 1.046605035662651062e-01
1.159000000000000000e+03 2.335757970809936523e+00 -3.711969375610351562e+01 -7.271912693977355957e-02 4.039265155792236328e+00 1.189963817596435547e+00 1.749761402606964111e-01
1.160000000000000000e+03 3.327836990356445312e+00 -3.921601867675781250e+01 -1.003995910286903381e-01 4.102207183837890625e+00 1.200542211532592773e+00 1.763747036457061768e-01
1.161000000000000000e+03 6.226940631866455078e+00 -3.578976440429687500e+01 -3.861506283283233643e-01 3.726248502731323242e+00 1.002029299736022949e+00 4.822986721992492676e-01
1.162000000000000000e+03 2.702771425247192383e+00 -3.467342758178710938e+01 -1.249160915613174438e-01 3.728662729263305664e+00 1.081123948097229004e+00 3.836246728897094727e-01
1.163000000000000000e+03 2.538025856018066406e+00 -3.157176971435546875e+01 -1.134275943040847778e-01 3.298785924911499023e+00 9.556074738502502441e-01 5.802568197250366211e-01
1.164000000000000000e+03 2.049830436706542969e+00 -2.729611206054687500e+01 -3.100415132939815521e-02 2.242777347564697266e+00 6.635319590568542480e-01 7.181453108787536621e-01
1.165000000000000000e+03 3.384794473648071289e+00 -2.701828384399414062e+01 -9.623888880014419556e-02 2.600364685058593750e+00 7.512377500534057617e-01 1.055459380149841309e+00
1.166000000000000000e+03 1.867164969444274902e+00 -2.168754577636718750e+01 7.215810567140579224e-02 4.915612637996673584e-01 1.691158115863800049e-01 6.227090954780578613e-01
1.167000000000000000e+03 1.927035093307495117e+00 -2.449189758300781250e+01 2.297400869429111481e-02 1.356418490409851074e+00 4.138177633285522461e-01 7.277818322181701660e-01
1.168000000000000000e+03 3.057731389999389648e+00 -2.009926605224609375e+01 2.072509676218032837e-01 9.434667229652404785e-01 3.452152907848358154e-01 7.638696432113647461e-01
1.169000000000000000e+03 6.059873104095458984e-01 -1.907739257812500000e+01 8.421825245022773743e-03 -1.188718795776367188e+00 -3.540890812873840332e-01 1.445099413394927979e-01
1.170000000000000000e+03 1.814702033996582031e+00 -1.888905334472656250e+01 1.007110700011253357e-01 -2.061297297477722168e-01 -3.162559494376182556e-02 4.028709828853607178e-01
1.171000000000000000e+03 2.855283498764038086e+00 -1.322046947479248047e+01 9.732272475957870483e-02 1.473234742879867554e-01 7.339385896921157837e-02 -3.507022187113761902e-02
1.172000000000000000e+03 5.647702813148498535e-01 -1.204053974151611328e+01 4.569540265947580338e-03 -1.711209416389465332e+00 -5.119919776916503906e-01 -2.729242667555809021e-02
1.173000000000000000e+03 1.697685599327087402e+00 -1.192528438568115234e+01 2.764155529439449310e-02 -7.844990491867065430e-01 -2.270572483539581299e-01 -7.706077396869659424e-02
1.174000000000000000e+03 2.574330091476440430e+00 -7.680789947509765625e+00 7.144051790237426758e-02 -1.640809774398803711e-01 -2.779213711619377136e-02 -1.960252225399017334e-01
1.175000000000000000e+03 2.203170061111450195e+00 -3.405694007873535156e+00 4.362148698419332504e-03 -2.357389777898788452e-01 -6.941304355859756470e-02 -3.637300729751586914e-01
1.176000000000000000e+03 5.163092613220214844e-01 4.993968009948730469e+00 6.107616238296031952e-03 -1.156313657760620117e+00 -3.450618088245391846e-01 1.534785777330398560e-01
1.177000000000000000e+03 1.652936816215515137e+00 1.045040225982666016e+01 8.785960078239440918e-02 -1.206115722656250000e+00 -3.354768455028533936e-01 9.154948592185974121e-02
1.178000000000000000e+03 5.532799363136291504e-01 1.060876274108886719e+01 -4.243806004524230957e-03 -2.224205017089843750e+00 -6.685346364974975586e-01 3.445344790816307068e-02
1.179000000000000000e+03 1.778172373771667480e+00 1.323125648498535156e+01 9.108520299196243286e-02 -1.037962198257446289e+00 -2.840631306171417236e-01 -1.160208880901336670e-01
1.180000000000000000e+03 1.909090518951416016e+00 1.884840774536132812e+01 9.317837655544281006e-02 8.491413295269012451e-02 5.342775210738182068e-02 -6.339834332466125488e-01
1.181000000000000000e+03 2.081976175308227539e+00 2.466094017028808594e+01 -5.249277874827384949e-02 1.954542994499206543e+00 5.706150531768798828e-01 -7.723865509033203125e-01
1.182000000000000000e+03 3.402141189575195312e+01 1.245242214202880859e+01 6.939614415168762207e-01 8.989272117614746094e+00 2.904970169067382812e+00 -1.647547006607055664e+00
1.183000000000000000e+03 3.061703491210937500e+01 -1.562581300735473633e+00 3.807532310485839844e+00 3.460576772689819336e+00 2.180432796478271484e+00 1.055920720100402832e+00
1.184000000000000000e+03 3.217527770996093750e+01 -4.207832217216491699e-01 4.628350734710693359e+00 5.995799541473388672e+00 3.187245130538940430e+00 2.565511941909790039e+00
1.185000000000000000e+03 1.173431682586669922e+01 1.708948969841003418e+00 3.143230199813842773e+00 5.380761623382568359e+00 2.557197570800781250e+00 -5.380106449127197266e+00
1.186000000000000000e+03 1.071133613586425781e+01 2.150743246078491211e+00 1.971230983734130859e+00 2.757248878479003906e+00 1.418544054031372070e+00 -3.276762485504150391e+00
1.187000000000000000e+03 1.289747810363769531e+01 1.667822599411010742e+00 1.528786182403564453e+00 1.500606536865234375e+01 4.960455417633056641e+00 -5.590800285339355469e+00
1.188000000000000000e+03 8.816097259521484375e+00 -2.319977283477783203e+00 8.485297560691833496e-01 7.604181766510009766e-01 4.826843738555908203e-01 9.481350779533386230e-01
1.189000000000000000e+03 1.120030593872070312e+01 -2.098852634429931641e+00 2.510413169860839844e+00 3.692360877990722656e+00 1.860832214355468750e+00 3.749739408493041992e+00
1.190000000000000000e+03 1.133047962188720703e+01 -1.596223831176757812e+00 3.077661991119384766e+00 3.097271203994750977e+00 1.852479934692382812e+00 3.700739622116088867e+00
1.191000000000000000e+03 1.191273403167724609e+01 -2.643874168395996094e+00 1.620125770568847656e+00 7.109368801116943359e+00 2.618848323822021484e+00 4.490744113922119141e+00
1.192000000000000000e+03 1.149626255035400391e+01 -1.586042761802673340e+00 3.236614704132080078e+00 3.693338155746459961e+00 2.078985929489135742e+00 4.123888015747070312e+00
1.193000000000000000e+03 1.442192077636718750e+01 9.728949069976806641e-01 7.101547718048095703e+00 1.501841449737548828e+01 6.635988712310791016e+00 1.950319409370422363e+00
1.194000000000000000e+03 1.452824306488037109e+01 7.704772353172302246e-01 8.551454544067382812e+00 1.423404693603515625e+01 6.835650444030761719e+00 1.974057078361511230e+00
1.195000000000000000e+03 2.087082481384277344e+01 2.868394136428833008e+00 1.281508445739746094e+00 -3.974598050117492676e-01 2.652146220207214355e-01 4.802621006965637207e-01
1.196000000000000000e+03 1.371896266937255859e+01 1.520500779151916504e+00 2.137007474899291992e+00 1.793431663513183594e+01 6.021397113800048828e+00 -8.108781576156616211e-01
1.197000000000000000e+03 1.394578456878662109e+01 -1.366657972335815430e+00 3.677572488784790039e+00 1.746923828125000000e+01 6.344043254852294922e+00 -1.574366927146911621e+00
1.198000000000000000e+03 1.314168834686279297e+01 2.389327049255371094e+00 6.385449320077896118e-02 1.357707881927490234e+01 4.092279911041259766e+00 -3.977299451828002930e+00
1.199000000000000000e+03 1.789479255676269531e+01 5.323252201080322266e+00 -1.134923815727233887e+00 4.129550457000732422e+00 8.983879685401916504e-01 -9.246984869241714478e-02
1.200000000000000000e+03 1.491915988922119141e+01 6.495693922042846680e-01 8.590154647827148438e+00 1.206569671630859375e+01 6.196755409240722656e+00 1.234468579292297363e+00
1.201000000000000000e+03 1.389083290100097656e+01 -2.419273614883422852e+00 7.849925756454467773e-01 1.367500782012939453e+01 4.338000297546386719e+00 7.372748851776123047e-01
1.202000000000000000e+03 1.251186466217041016e+01 2.295399665832519531e+00 9.459345340728759766e-01 1.072313499450683594e+01 3.500720739364624023e+00 -5.362281322479248047e+00
1.203000000000000000e+03 1.037620544433593750e+01 2.511744260787963867e+00 1.567714214324951172e+00 2.819633483886718750e+00 1.316204309463500977e+00 -2.991649150848388672e+00
1.204000000000000000e+03 1.060153675079345703e+01 -2.334738969802856445e+00 2.028531789779663086e+00 2.584936618804931641e+00 1.384040474891662598e+00 2.900885105133056641e+00
1.205000000000000000e+03 9.503068923950195312e+00 2.626150369644165039e+00 1.024860262870788574e+00 1.819553971290588379e+00 8.533242940902709961e-01 -1.819586753845214844e+00
1.206000000000000000e+03 9.604677200317382812e+00 3.098321199417114258e+00 9.968063235282897949e-01 2.386944532394409180e+00 1.015125274658203125e+00 -2.087966442108154297e+00
1.207000000000000000e+03 1.424008369445800781e+00 -6.412305831909179688e+00 4.354417324066162109e-02 -6.974780559539794922e-01 -1.961801648139953613e-01 -2.016691267490386963e-01
1.208000000000000000e+03 5.478003025054931641e+00 -3.464319705963134766e+00 1.955237537622451782e-01 3.651577830314636230e-01 1.682044565677642822e-01 -1.338260173797607422e-01
1.209000000000000000e+03 7.716560840606689453e+00 -3.704751491546630859e+00 6.992722153663635254e-01 1.158365488052368164e+00 5.572913289070129395e-01 7.894614338874816895e-01
1.210000000000000000e+03 6.871416568756103516e+00 -3.182401657104492188e+00 4.014050066471099854e-01 5.930941104888916016e-01 2.983497381210327148e-01 2.463405579328536987e-01
1.211000000000000000e+03 4.771847248077392578e+00 -3.628936052322387695e+00 1.416247338056564331e-01 2.481956034898757935e-01 1.169461011886596680e-01 -2.596325576305389404e-01
1.212000000000000000e+03 4.516839504241943359e+00 -2.790205478668212891e+00 -4.423698037862777710e-02 9.366926550865173340e-02 1.482968498021364212e-02 -3.543300032615661621e-01
1.213000000000000000e+03 4.059805393218994141e+00 -3.820764303207397461e+00 1.059314161539077759e-01 1.150789633393287659e-01 6.630311161279678345e-02 -3.346275985240936279e-01
1.214000000000000000e+03 3.934143066406250000e+00 -8.950926780700683594e+00 7.794734835624694824e-02 7.356171011924743652e-01 2.440693229436874390e-01 -7.457878440618515015e-02
1.215000000000000000e+03 9.452593803405761719e+00 -2.330503225326538086e+00 1.249952554702758789e+00 1.231067061424255371e+00 7.443059086799621582e-01 1.493914723396301270e+00
1.216000000000000000e+03 4.011681556701660156e+00 2.901925563812255859e+00 -1.425869464874267578e-01 3.968327119946479797e-02 -3.087110072374343872e-02 5.612002015113830566e-01
1.217000000000000000e+03 4.837214946746826172e+00 2.749682664871215820e+00 -1.628138124942779541e-01 1.099072620272636414e-01 -1.587196439504623413e-02 5.128368139266967773e-01
1.218000000000000000e+03 6.440190792083740234e+00 2.542117834091186523e+00 -1.269071996212005615e-01 3.262442946434020996e-01 5.980112776160240173e-02 2.021994292736053467e-01
1.219000000000000000e+03 5.064443111419677734e+00 5.136271476745605469e+00 2.710175216197967529e-01 6.014559268951416016e-01 2.617420256137847900e-01 2.644403874874114990e-01
1.220000000000000000e+03 4.295548915863037109e+00 3.745841264724731445e+00 6.848136335611343384e-02 1.146739274263381958e-01 5.494658648967742920e-02 5.171223282814025879e-01
1.221000000000000000e+03 5.855383396148681641e+00 3.358754158020019531e+00 1.105497851967811584e-01 4.372221827507019043e-01 1.643316000699996948e-01 2.591548562049865723e-01
1.222000000000000000e+03 8.760042190551757812e+00 2.269288539886474609e+00 4.707461595535278320e-01 9.298434257507324219e-01 4.201768636703491211e-01 -8.919788002967834473e-01
1.223000000000000000e+03 7.362225055694580078e+00 3.105250358581542969e+00 3.029058277606964111e-01 8.245676159858703613e-01 3.382420241832733154e-01 -2.955816090106964111e-01
1.224000000000000000e+03 6.610509872436523438e+00 3.221272468566894531e+00 2.013383209705352783e-01 6.330862045288085938e-01 2.503273487091064453e-01 1.562351267784833908e-02
1.225000000000000000e+03 8.855849266052246094e+00 2.847020626068115234e+00 7.389256954193115234e-01 1.428614854812622070e+00 6.502621769905090332e-01 -1.250037431716918945e+00
1.226000000000000000e+03 4.619553983211517334e-01 3.590958118438720703e+00 -1.015655416995286942e-02 -7.084381580352783203e-01 -2.155784219503402710e-01 1.464840173721313477e-01
1.227000000000000000e+03 5.913654708862304688e+01 -1.290337181091308594e+01 -2.292108535766601562e+00 3.430542945861816406e-01 -5.847162604331970215e-01 -2.559821009635925293e-01
1.228000000000000000e+03 5.530130767822265625e+01 -8.025571823120117188e+00 2.860340476036071777e-01 1.679735422134399414e+00 5.897308588027954102e-01 1.693856596946716309e+00
1.229000000000000000e+03 2.162212753295898438e+01 -7.899498939514160156e+00 1.267473548650741577e-01 5.860392451286315918e-01 2.138359844684600830e-01 -4.950728118419647217e-01
1.230000000000000000e+03 2.535493850708007812e+01 -8.188114166259765625e+00 -1.088811755180358887e+00 -4.179461300373077393e-01 -4.520273506641387939e-01 -5.726177692413330078e-01
1.231000000000000000e+03 5.177712631225585938e+01 -1.337836170196533203e+01 4.727322757244110107e-01 4.752879142761230469e-01 2.844060659408569336e-01 1.346890330314636230e+00
1.232000000000000000e+03 5.451067352294921875e+01 -1.340924549102783203e+01 -8.254909515380859375e-01 3.011865317821502686e-01 -1.572913229465484619e-01 7.570113539695739746e-01
1.233000000000000000e+03 6.027708053588867188e+01 -1.068590259552001953e+01 -1.371353745460510254e+00 6.842958927154541016e-01 -2.061173468828201294e-01 3.568760454654693604e-01
1.234000000000000000e+03 3.711951828002929688e+01 1.602976608276367188e+01 2.940536439418792725e-01 7.573860168457031250e+00 2.360374212265014648e+00 1.450870931148529053e-01
1.235000000000000000e+03 2.402810668945312500e+01 -7.225245952606201172e+00 3.884380161762237549e-01 -2.890453040599822998e-01 2.981781214475631714e-02 -3.529488444328308105e-01
1.236000000000000000e+03 1.422178936004638672e+01 1.227054786682128906e+01 1.447873592376708984e+00 1.160011386871337891e+01 3.914396047592163086e+00 -2.389681100845336914e+00
1.237000000000000000e+03 1.297342109680175781e+01 1.653213310241699219e+01 1.289799094200134277e+00 1.185293865203857422e+01 3.942821264266967773e+00 -4.410190880298614502e-01
1.238000000000000000e+03 2.232731819152832031e+01 -9.349279403686523438e+00 -1.227113604545593262e+00 2.938481606543064117e-02 -3.593186438083648682e-01 -7.836016416549682617e-01
1.239000000000000000e+03 2.125355339050292969e+01 -8.844154357910156250e+00 -5.330338478088378906e-01 5.620540976524353027e-01 8.706069551408290863e-03 -4.148954153060913086e-01
1.240000000000000000e+03 2.020927619934082031e+01 -8.365097045898437500e+00 -2.353555411100387573e-01 1.313466906547546387e+00 3.234334290027618408e-01 -1.558845043182373047e-01
1.241000000000000000e+03 6.121070098876953125e+01 -9.990036964416503906e+00 -1.198105216026306152e+00 7.151815295219421387e-01 -1.448771208524703979e-01 1.943528093397617340e-02
1.242000000000000000e+03 2.156443786621093750e+01 2.057896137237548828e+00 2.099857807159423828e+00 -8.720607161521911621e-01 3.683391511440277100e-01 2.405961006879806519e-01
1.243000000000000000e+03 2.066586112976074219e+01 4.336302280426025391e+00 -6.104440689086914062e-01 -7.131851911544799805e-01 -3.970887660980224609e-01 1.153363943099975586e+00
1.244000000000000000e+03 2.005708885192871094e+01 3.599285125732421875e+00 6.328195929527282715e-01 3.870579302310943604e-01 3.059632480144500732e-01 5.315036177635192871e-01
1.245000000000000000e+03 5.848180770874023438e+01 -1.200374984741210938e+01 -1.695973992347717285e+00 6.596755385398864746e-01 -3.108895421028137207e-01 2.570638656616210938e-01
1.246000000000000000e+03 2.291152763366699219e+01 -7.205156326293945312e+00 5.274034738540649414e-01 -4.745089448988437653e-03 1.567975133657455444e-01 -4.589800834655761719e-01
1.247000000000000000e+03 5.079693984985351562e+01 2.349886322021484375e+01 -8.864815831184387207e-01 1.116992831230163574e+00 6.915337592363357544e-02 1.052954316139221191e+00
1.248000000000000000e+03 2.155440711975097656e+01 -3.093218040466308594e+01 -1.233242273330688477e+00 7.782585620880126953e-01 -1.364950835704803467e-01 -5.762563347816467285e-01
1.249000000000000000e+03 3.490583419799804688e+01 5.058006286621093750e+00 1.338400959968566895e+00 1.382277011871337891e+01 4.548351287841796875e+00 1.693380594253540039e+00
1.250000000000000000e+03 3.470201492309570312e+01 3.865705251693725586e+00 2.066931724548339844e+00 1.317673778533935547e+01 4.573101043701171875e+00 2.005564928054809570e+00
1.251000000000000000e+03 4.345690536499023438e+01 -8.410058021545410156e+00 -2.481336891651153564e-01 3.741334199905395508e+00 1.047960162162780762e+00 -6.634035706520080566e-01
1.252000000000000000e+03 6.214423370361328125e+01 -9.298365592956542969e+00 -7.360503077507019043e-01 1.024590730667114258e+00 8.656214177608489990e-02 -1.374320238828659058e-01
1.253000000000000000e+03 6.414928436279296875e+01 -1.140724372863769531e+01 -3.333512306213378906e+00 -2.260638028383255005e-01 -1.067872762680053711e+00 -1.207826375961303711e+00
1.254000000000000000e+03 5.796270751953125000e+01 -3.211792755126953125e+01 -1.237305879592895508e+00 -4.148509725928306580e-02 -3.836373090744018555e-01 -2.934678196907043457e-01
1.255000000000000000e+03 5.707472991943359375e+01 -3.915699005126953125e+00 1.699016213417053223e+00 2.474900007247924805e+00 1.252174854278564453e+00 1.696260690689086914e+00
1.256000000000000000e+03 1.387909698486328125e+01 -2.488169288635253906e+01 -5.469276309013366699e-01 6.204267978668212891e+00 1.697202086448669434e+00 -2.341024279594421387e-01
1.257000000000000000e+03 6.104726791381835938e+01 2.014133691787719727e+00 1.094297289848327637e+00 5.215895652770996094e+00 1.893057823181152344e+00 1.726421952247619629e+00
1.258000000000000000e+03 3.417766571044921875e+01 2.982272624969482422e+00 2.958387374877929688e+00 1.533829975128173828e+01 5.489006042480468750e+00 2.624256849288940430e+00
1.259000000000000000e+03 1.375024414062500000e+01 1.350058460235595703e+01 1.526438117027282715e+00 1.243534755706787109e+01 4.188535690307617188e+00 -1.658190250396728516e+00
1.260000000000000000e+03 6.461127471923828125e+01 1.158960723876953125e+01 9.081867337226867676e-01 9.130903244018554688e+00 3.011726856231689453e+00 5.407040119171142578e-01
1.261000000000000000e+03 6.379124832153320312e+01 1.469359493255615234e+01 5.891890525817871094e-01 1.006231498718261719e+01 3.195451021194458008e+00 -3.066321276128292084e-02
1.262000000000000000e+03 2.414201736450195312e+01 2.436000823974609375e+01 -1.181445121765136719e+00 2.959544062614440918e-01 -2.656472325325012207e-01 -5.847634673118591309e-01
1.263000000000000000e+03 4.478483581542968750e+01 -2.683227729797363281e+01 2.121130228042602539e+00 9.951889038085937500e+00 3.621905803680419922e+00 -2.125925779342651367e+00
1.264000000000000000e+03 4.419458770751953125e+01 -2.019868278503417969e+01 1.159914016723632812e+00 1.098548603057861328e+01 3.643620014190673828e+00 2.527143657207489014e-01
1.265000000000000000e+03 4.264413452148437500e+01 -2.170271873474121094e+01 1.900342226028442383e+00 1.011306571960449219e+01 3.604022264480590820e+00 -1.176060318946838379e+00
1.266000000000000000e+03 6.796403503417968750e+01 -2.646566963195800781e+01 -7.927445173263549805e-01 6.828450679779052734e+00 1.810711860656738281e+00 1.087754368782043457e+00
1.267000000000000000e+03 6.697170257568359375e+01 -2.568489456176757812e+01 -1.424550861120223999e-01 5.309032440185546875e+00 1.549973249435424805e+00 1.722777366638183594e+00
1.268000000000000000e+03 7.483965301513671875e+01 -3.491231536865234375e+01 -2.777751088142395020e-01 8.525850296020507812e+00 2.474422693252563477e+00 -1.019862368702888489e-01
1.269000000000000000e+03 7.613990020751953125e+01 -3.524822235107421875e+01 -1.609615534543991089e-01 9.006047248840332031e+00 2.653525829315185547e+00 -1.440081447362899780e-01
1.270000000000000000e+03 7.536634063720703125e+01 -2.253542327880859375e+01 3.437793254852294922e-01 8.527275085449218750e+00 2.661316156387329102e+00 -1.246527552604675293e+00
1.271000000000000000e+03 7.795594787597656250e+01 -2.880790519714355469e+01 -1.270027160644531250e-01 9.081100463867187500e+00 2.686229467391967773e+00 -6.052787303924560547e-01
1.272000000000000000e+03 7.543829345703125000e+01 1.563257598876953125e+01 2.156558185815811157e-01 6.752479553222656250e+00 2.090440511703491211e+00 3.464106023311614990e-01
1.273000000000000000e+03 7.673802185058593750e+01 1.555660247802734375e+01 1.124276816844940186e-01 6.609467983245849609e+00 2.016568660736083984e+00 2.685306668281555176e-01
1.274000000000000000e+03 7.773941040039062500e+01 3.482470703125000000e+01 -3.745456784963607788e-02 8.063420295715332031e+00 2.407789707183837891e+00 3.399971127510070801e-02
1.275000000000000000e+03 7.678231811523437500e+01 3.292652511596679688e+01 -3.921332210302352905e-02 7.762709140777587891e+00 2.317048788070678711e+00 9.372045844793319702e-02
1.276000000000000000e+03 7.805754852294921875e+01 -2.167577171325683594e+01 1.491808742284774780e-01 7.101549148559570312e+00 2.175219058990478516e+00 -6.908630728721618652e-01
1.277000000000000000e+03 7.666448211669921875e+01 -2.421286392211914062e+01 2.112349867820739746e-02 8.276297569274902344e+00 2.489226341247558594e+00 -1.173408865928649902e+00
1.278000000000000000e+03 7.652822113037109375e+01 -3.127372932434082031e+01 -2.615715265274047852e-01 9.072769165039062500e+00 2.643359184265136719e+00 -4.705680012702941895e-01
1.279000000000000000e+03 7.522190856933593750e+01 -3.780930709838867188e+01 -1.409911066293716431e-01 8.564661979675292969e+00 2.527101278305053711e+00 -1.380400210618972778e-01
1.280000000000000000e+03 7.659368896484375000e+01 -2.993694686889648438e+01 -2.907564640045166016e-01 9.021090507507324219e+00 2.619100332260131836e+00 -6.699396371841430664e-01
1.281000000000000000e+03 7.539751434326171875e+01 -2.539429092407226562e+01 -1.605498790740966797e-01 8.725406646728515625e+00 2.569457054138183594e+00 -1.299830436706542969e+00
1.282000000000000000e+03 7.659832000732421875e+01 -2.711155700683593750e+01 -2.302253097295761108e-01 8.741686820983886719e+00 2.553438425064086914e+00 -1.006244182586669922e+00
1.283000000000000000e+03 7.665370941162109375e+01 -2.567942428588867188e+01 -1.082163602113723755e-01 8.498890876770019531e+00 2.517202138900756836e+00 -1.122388601303100586e+00
1.284000000000000000e+03 7.640231323242187500e+01 -3.258538818359375000e+01 -2.158268690109252930e-01 9.120100021362304688e+00 2.671282052993774414e+00 -3.643138110637664795e-01
1.285000000000000000e+03 7.630474090576171875e+01 -3.392169952392578125e+01 -1.983846724033355713e-01 9.090794563293457031e+00 2.667722940444946289e+00 -2.085622698068618774e-01
1.286000000000000000e+03 7.291260528564453125e+01 -3.044335365295410156e+01 -7.539303302764892578e-01 8.201504707336425781e+00 2.234272241592407227e+00 -4.054662585258483887e-01
1.287000000000000000e+03 7.527667999267578125e+01 -4.078824996948242188e+01 3.277181833982467651e-02 8.715754508972167969e+00 2.624557971954345703e+00 -2.022430151700973511e-01
1.288000000000000000e+03 7.797575378417968750e+01 2.249372482299804688e+01 -1.469694264233112335e-02 7.210799217224121094e+00 2.158830642700195312e+00 3.244342207908630371e-01
1.289000000000000000e+03 7.678630065917968750e+01 1.971287727355957031e+01 4.240718111395835876e-02 6.926786899566650391e+00 2.090758085250854492e+00 4.447195231914520264e-01
1.290000000000000000e+03 7.540161895751953125e+01 2.240461921691894531e+01 -4.833810776472091675e-02 7.184769630432128906e+00 2.140929460525512695e+00 5.594217181205749512e-01
1.291000000000000000e+03 7.675939178466796875e+01 2.109948921203613281e+01 3.309600288048386574e-03 7.066328525543212891e+00 2.120891332626342773e+00 4.629420042037963867e-01
1.292000000000000000e+03 7.675618743896484375e+01 1.282583427429199219e+01 1.334234029054641724e-01 6.501338481903076172e+00 1.990428447723388672e+00 8.348996937274932861e-02
1.293000000000000000e+03 7.548579406738281250e+01 8.757421493530273438e+00 2.134371250867843628e-01 6.673081874847412109e+00 2.065955638885498047e+00 -2.461728304624557495e-01
1.294000000000000000e+03 7.674139404296875000e+01 1.418221950531005859e+01 1.321115940809249878e-01 6.543586254119873047e+00 2.002709388732910156e+00 1.815431416034698486e-01
1.295000000000000000e+03 7.650728607177734375e+01 2.403183364868164062e+01 -5.745904520153999329e-02 7.326325893402099609e+00 2.180660009384155273e+00 4.377740025520324707e-01
1.296000000000000000e+03 7.832067871093750000e+01 2.649150848388671875e+01 -2.084668166935443878e-02 7.716952323913574219e+00 2.308831691741943359e+00 1.915627866983413696e-01
1.297000000000000000e+03 7.818212127685546875e+01 -2.035001945495605469e+01 1.417940258979797363e-01 6.742928504943847656e+00 2.065416812896728516e+00 -4.694626629352569580e-01
1.298000000000000000e+03 7.663491821289062500e+01 -2.267082023620605469e+01 2.296175360679626465e-01 8.002539634704589844e+00 2.469647169113159180e+00 -1.098326683044433594e+00
1.299000000000000000e+03 7.661662292480468750e+01 2.888341331481933594e+01 -8.748307824134826660e-02 7.637730121612548828e+00 2.265074253082275391e+00 2.355675995349884033e-01
1.300000000000000000e+03 7.803128814697265625e+01 5.704202651977539062e+00 3.092780895531177521e-02 6.636672973632812500e+00 2.000280380249023438e+00 -2.571770548820495605e-01
1.301000000000000000e+03 7.542832946777343750e+01 5.810429573059082031e+00 1.522515416145324707e-01 6.792945861816406250e+00 2.083559274673461914e+00 -4.524356126785278320e-01
1.302000000000000000e+03 7.583617401123046875e+01 -8.079167366027832031e+00 -4.876824021339416504e-01 8.064739227294921875e+00 2.273117065429687500e+00 1.739313602447509766e-01
1.303000000000000000e+03 7.694749450683593750e+01 -1.379002380371093750e+01 7.309193909168243408e-02 7.561898708343505859e+00 2.290497064590454102e+00 7.704704999923706055e-01
1.304000000000000000e+03 7.551623535156250000e+01 -1.332392811775207520e+00 -1.170635297894477844e-01 7.344070434570312500e+00 2.168102025985717773e+00 -5.775763988494873047e-01
1.305000000000000000e+03 7.693566131591796875e+01 -8.123258590698242188e+00 -2.840296030044555664e-01 7.944491386413574219e+00 2.298138380050659180e+00 2.745109200477600098e-01
1.306000000000000000e+03 7.426146697998046875e+01 -2.063247489929199219e+01 1.023101687431335449e+00 8.996484756469726562e+00 3.005876064300537109e+00 -9.522045850753784180e-01
1.307000000000000000e+03 7.591613006591796875e+01 3.663239669799804688e+01 -6.541160494089126587e-02 7.688159942626953125e+00 2.286824464797973633e+00 6.275402009487152100e-02
1.308000000000000000e+03 7.776020812988281250e+01 3.637369918823242188e+01 -3.001994825899600983e-02 8.061866760253906250e+00 2.409554004669189453e+00 -4.448084160685539246e-02
1.309000000000000000e+03 7.686521911621093750e+01 2.747817802429199219e+01 -7.024616003036499023e-02 7.585603713989257812e+00 2.254607439041137695e+00 2.847307026386260986e-01
1.310000000000000000e+03 7.802796936035156250e+01 7.116021633148193359e+00 4.550433903932571411e-02 6.500140666961669922e+00 1.963693499565124512e+00 -2.150469124317169189e-01
1.311000000000000000e+03 7.672643280029296875e+01 5.765374183654785156e+00 9.059067070484161377e-02 6.730684757232666016e+00 2.046382665634155273e+00 -3.832661807537078857e-01
1.312000000000000000e+03 7.678684234619140625e+01 -2.698478221893310547e+00 -1.168486177921295166e-01 7.591031074523925781e+00 2.242254734039306641e+00 -3.706314563751220703e-01
1.313000000000000000e+03 7.687931060791015625e+01 -9.495267868041992188e+00 -2.937934696674346924e-01 7.978874206542968750e+00 2.305524110794067383e+00 4.636144936084747314e-01
1.314000000000000000e+03 7.701074981689453125e+01 -1.639057350158691406e+01 4.121682345867156982e-01 7.312234401702880859e+00 2.317320823669433594e+00 3.510083258152008057e-01
1.315000000000000000e+03 7.264203643798828125e+01 3.485384368896484375e+01 -1.119079366326332092e-01 6.950110435485839844e+00 2.051460742950439453e+00 3.625484928488731384e-02
1.316000000000000000e+03 7.553339385986328125e+01 3.201493835449218750e+01 -8.740589022636413574e-02 7.532587528228759766e+00 2.233554363250732422e+00 1.343429088592529297e-01
1.317000000000000000e+03 7.676811218261718750e+01 1.833003234863281250e+01 6.475898623466491699e-02 6.810352325439453125e+00 2.062533378601074219e+00 4.062435626983642578e-01
1.318000000000000000e+03 7.676459503173828125e+01 1.005770492553710938e+01 1.319303065538406372e-01 6.505016803741455078e+00 1.991084098815917969e+00 -1.182612031698226929e-01
1.319000000000000000e+03 7.811779785156250000e+01 -6.835789203643798828e+00 -1.013324335217475891e-01 7.946292400360107422e+00 2.353487968444824219e+00 9.115147590637207031e-02
1.320000000000000000e+03 7.805638122558593750e+01 1.486233711242675781e+00 1.085859537124633789e-02 7.176768302917480469e+00 2.156288146972656250e+00 -3.340835869312286377e-01
1.321000000000000000e+03 7.677886199951171875e+01 -1.295727729797363281e+00 -9.184939414262771606e-02 7.445499420166015625e+00 2.206094980239868164e+00 -4.374830126762390137e-01
1.322000000000000000e+03 7.814505767822265625e+01 -1.379800033569335938e+01 5.638253316283226013e-02 6.981093406677246094e+00 2.111242771148681641e+00 5.582963824272155762e-01
1.323000000000000000e+03 7.704508209228515625e+01 -1.508378219604492188e+01 2.926024198532104492e-01 7.373639106750488281e+00 2.299872398376464844e+00 6.094539761543273926e-01
1.324000000000000000e+03 7.674510192871093750e+01 4.333108425140380859e+00 5.768810212612152100e-02 6.848804950714111328e+00 2.071948051452636719e+00 -4.300490021705627441e-01
1.325000000000000000e+03 7.676296997070312500e+01 2.910701036453247070e+00 4.371238499879837036e-02 6.985417366027832031e+00 2.108738899230957031e+00 -4.796183407306671143e-01
1.326000000000000000e+03 7.680746459960937500e+01 -4.086154460906982422e+00 -1.923060566186904907e-01 7.734741687774658203e+00 2.262730598449707031e+00 -2.516204118728637695e-01
1.327000000000000000e+03 7.685259246826171875e+01 -5.456842422485351562e+00 -2.039277404546737671e-01 7.824659347534179688e+00 2.286219596862792969e+00 -1.046517565846443176e-01
1.328000000000000000e+03 7.673684692382812500e+01 -1.094283199310302734e+01 -2.145005166530609131e-01 7.920813560485839844e+00 2.311893939971923828e+00 7.258256673812866211e-01
1.329000000000000000e+03 7.550279998779296875e+01 -1.065009212493896484e+01 -4.202828705310821533e-01 8.338204383850097656e+00 2.375376462936401367e+00 6.483870744705200195e-01
1.330000000000000000e+03 7.696862030029296875e+01 -1.986216926574707031e+01 4.096803367137908936e-01 7.394061565399169922e+00 2.341122627258300781e+00 -5.675305724143981934e-01
1.331000000000000000e+03 7.718198394775390625e+01 -1.873157882690429688e+01 4.051344096660614014e-01 7.165200233459472656e+00 2.271100282669067383e+00 -2.938926219940185547e-01
1.332000000000000000e+03 1.166803264617919922e+01 -1.948043441772460938e+01 1.939199805259704590e+00 7.549972534179687500e+00 2.846751689910888672e+00 7.245309948921203613e-01
1.333000000000000000e+03 3.805778121948242188e+01 6.589043617248535156e+00 1.367440581321716309e+00 1.483399295806884766e+01 4.860430240631103516e+00 2.079211711883544922e+00
1.334000000000000000e+03 5.475917053222656250e+01 2.454407310485839844e+01 -7.507275342941284180e-01 5.558726191520690918e-01 -5.845646560192108154e-02 1.982126832008361816e-01
1.335000000000000000e+03 6.363315582275390625e+01 7.360945701599121094e+00 1.071452617645263672e+00 8.069022178649902344e+00 2.742142438888549805e+00 1.080572724342346191e+00
1.336000000000000000e+03 6.538712310791015625e+01 1.556503677368164062e+01 9.822082519531250000e-01 8.545880317687988281e+00 2.858426570892333984e+00 1.537563949823379517e-01
1.337000000000000000e+03 4.725224685668945312e+01 1.978853416442871094e+01 -6.187561899423599243e-02 1.793800234794616699e+00 5.195773839950561523e-01 1.156137585639953613e+00
1.338000000000000000e+03 4.636575317382812500e+01 2.110484886169433594e+01 -3.697459399700164795e-01 2.520133018493652344e+00 6.451160907745361328e-01 1.431532979011535645e+00
1.339000000000000000e+03 2.558198165893554688e+01 -3.372248113155364990e-01 3.709796190261840820e+00 -1.000904321670532227e+00 8.126675486564636230e-01 2.285621911287307739e-01
1.340000000000000000e+03 2.682616233825683594e+01 -3.621294498443603516e+00 3.181733131408691406e+00 -4.189920425415039062e-01 8.288223743438720703e-01 1.652984768152236938e-01
1.341000000000000000e+03 4.503977966308593750e+01 1.787473106384277344e+01 7.948234677314758301e-01 2.716298341751098633e+00 1.053336501121520996e+00 1.727766156196594238e+00
1.342000000000000000e+03 4.107389068603515625e+01 1.629661369323730469e+01 5.415300726890563965e-01 6.089852809906005859e+00 1.989414930343627930e+00 1.942417383193969727e+00
1.343000000000000000e+03 3.593762874603271484e+00 3.007047653198242188e+01 -1.879542171955108643e-01 3.315016031265258789e+00 9.381185173988342285e-01 -6.329151988029479980e-01
1.344000000000000000e+03 1.970832943916320801e+00 2.749038124084472656e+01 -8.135760575532913208e-02 2.687410831451416016e+00 7.818160057067871094e-01 -5.708143115043640137e-01
1.345000000000000000e+03 4.666618347167968750e+00 3.645585632324218750e+01 -1.520720869302749634e-01 3.679444313049316406e+00 1.058211684226989746e+00 -2.289360910654067993e-01
1.346000000000000000e+03 6.222246170043945312e+00 3.387392425537109375e+01 -3.430303633213043213e-01 3.643478631973266602e+00 9.901344776153564453e-01 -3.812005519866943359e-01
1.347000000000000000e+03 4.061490535736083984e+00 3.158276557922363281e+01 -2.140679210424423218e-01 3.504915714263916016e+00 9.872543811798095703e-01 -5.246963500976562500e-01
1.348000000000000000e+03 3.337830543518066406e+00 2.870308494567871094e+01 -1.764289885759353638e-01 3.128280639648437500e+00 8.855554461479187012e-01 -7.016232609748840332e-01
1.349000000000000000e+03 3.771985054016113281e+00 3.473293304443359375e+01 -1.733507066965103149e-01 3.681906938552856445e+00 1.052566885948181152e+00 -2.666526436805725098e-01
1.350000000000000000e+03 6.009856224060058594e+00 2.960381126403808594e+01 -4.728344082832336426e-01 3.648762702941894531e+00 9.527785181999206543e-01 -7.875625491142272949e-01
1.351000000000000000e+03 3.597645044326782227e+00 -3.655454635620117188e+01 -1.544493734836578369e-01 3.812182903289794922e+00 1.097320079803466797e+00 3.343851566314697266e-01
1.352000000000000000e+03 2.323258161544799805e+00 -3.011665344238281250e+01 -7.333906739950180054e-02 2.995221614837646484e+00 8.765647411346435547e-01 6.385772228240966797e-01
1.353000000000000000e+03 3.561131238937377930e+00 -2.838042068481445312e+01 -1.384448707103729248e-01 2.902789354324340820e+00 8.293033838272094727e-01 9.990020394325256348e-01
1.354000000000000000e+03 3.263942480087280273e+00 -2.564241600036621094e+01 -2.664231881499290466e-02 2.260446071624755859e+00 6.701411604881286621e-01 1.074177026748657227e+00
1.355000000000000000e+03 2.095232486724853516e+00 2.172356605529785156e+01 2.604551240801811218e-02 1.050633072853088379e+00 3.230035901069641113e-01 -8.047601580619812012e-01
1.356000000000000000e+03 3.558833837509155273e+00 2.310925483703613281e+01 -4.746959358453750610e-02 2.254755020141601562e+00 6.621856093406677246e-01 -1.209333181381225586e+00
1.357000000000000000e+03 2.800469636917114258e+00 -1.044120979309082031e+01 4.279910773038864136e-02 3.819332271814346313e-02 2.429772913455963135e-02 -9.986890107393264771e-02
1.358000000000000000e+03 3.007428169250488281e+00 1.724766731262207031e+01 2.249490618705749512e-01 5.685089230537414551e-01 2.380374073982238770e-01 -7.121119499206542969e-01
1.359000000000000000e+03 2.868215560913085938e+00 1.163916587829589844e+01 1.973109096288681030e-01 -1.342681348323822021e-01 1.891283318400382996e-02 -2.442023344337940216e-02
1.360000000000000000e+03 2.984004974365234375e+00 -1.731708145141601562e+01 2.234032452106475830e-01 4.832511246204376221e-01 2.119963169097900391e-01 3.962398469448089600e-01
1.361000000000000000e+03 1.743623971939086914e+00 -1.471108055114746094e+01 6.462696194648742676e-02 -7.261269092559814453e-01 -1.984499841928482056e-01 3.844460472464561462e-02
1.362000000000000000e+03 3.687557697296142578e+00 -4.976256370544433594e+00 1.585097908973693848e-01 1.233714222908020020e-01 8.456436544656753540e-02 -2.771010100841522217e-01
1.363000000000000000e+03 3.018402576446533203e+00 -1.870896339416503906e+01 2.266148328781127930e-01 6.900386214256286621e-01 2.749960422515869141e-01 5.729939937591552734e-01
1.364000000000000000e+03 2.831952810287475586e+00 -1.184252929687500000e+01 3.841368854045867920e-02 1.158451512455940247e-01 4.627764970064163208e-02 -7.613532990217208862e-02
1.365000000000000000e+03 2.645234346389770508e+00 7.754789352416992188e+00 1.210287511348724365e-01 -4.059956967830657959e-01 -8.549008518457412720e-02 3.270581960678100586e-01
1.366000000000000000e+03 1.657492160797119141e+00 6.326919555664062500e+00 5.631976574659347534e-02 -8.724039793014526367e-01 -2.448252737522125244e-01 3.645384609699249268e-01
1.367000000000000000e+03 1.800355434417724609e+00 1.463739109039306641e+01 7.882329076528549194e-02 -8.767227530479431152e-01 -2.393698394298553467e-01 -2.287438958883285522e-01
1.368000000000000000e+03 2.972926139831542969e+00 1.587581062316894531e+01 2.350361794233322144e-01 3.575451076030731201e-01 1.777743846178054810e-01 -5.445192456245422363e-01
1.369000000000000000e+03 2.657954692840576172e+00 9.006737709045410156e+00 1.208956316113471985e-01 -3.721635937690734863e-01 -7.538039237260818481e-02 2.066400945186614990e-01
1.370000000000000000e+03 3.099485874176025391e+00 -2.149429702758789062e+01 1.471916735172271729e-01 1.251478075981140137e+00 4.196009039878845215e-01 8.985463380813598633e-01
1.371000000000000000e+03 2.733770847320556641e+00 -9.040214538574218750e+00 4.877657070755958557e-02 -6.509364396333694458e-02 -4.895121324807405472e-03 -1.433405876159667969e-01
1.372000000000000000e+03 2.945630550384521484e+00 -1.593553256988525391e+01 1.890289485454559326e-01 3.375178277492523193e-01 1.579640358686447144e-01 2.085024267435073853e-01
1.373000000000000000e+03 2.894846916198730469e+00 -1.457996654510498047e+01 1.529434770345687866e-01 2.285782545804977417e-01 1.144565194845199585e-01 8.592423051595687866e-02
1.374000000000000000e+03 2.012349843978881836e+00 2.027432632446289062e+01 4.497285932302474976e-02 5.743945837020874023e-01 1.858102381229400635e-01 -7.547305226325988770e-01
1.375000000000000000e+03 3.508617162704467773e+00 2.153111457824707031e+01 7.753870636224746704e-02 1.833260416984558105e+00 5.732397437095642090e-01 -1.214372277259826660e+00
1.376000000000000000e+03 1.893945217132568359e+00 -2.309120941162109375e+01 2.714957855641841888e-02 9.175875186920166016e-01 2.834211289882659912e-01 6.879924535751342773e-01
1.377000000000000000e+03 4.097679615020751953e+00 -3.783799362182617188e+01 -1.691488474607467651e-01 3.917908191680908203e+00 1.124627828598022461e+00 3.392462730407714844e-01
1.378000000000000000e+03 2.337011337280273438e+00 -3.600777816772460938e+01 -1.007595360279083252e-01 3.911217927932739258e+00 1.143137454986572266e+00 2.489986419677734375e-01
1.379000000000000000e+03 4.635003566741943359e+00 -3.268630599975585938e+01 -2.938701808452606201e-01 3.593881368637084961e+00 9.900034070014953613e-01 7.208143472671508789e-01
1.380000000000000000e+03 4.514125347137451172e+00 -2.538674163818359375e+01 -4.668172821402549744e-02 2.756153106689453125e+00 8.128414154052734375e-01 1.329729557037353516e+00
1.381000000000000000e+03 1.398334145545959473e+00 -5.031826019287109375e+00 3.076380863785743713e-02 -5.593927502632141113e-01 -1.585886776447296143e-01 -2.566826045513153076e-01
1.382000000000000000e+03 2.737234830856323242e+00 1.029195594787597656e+01 1.499469727277755737e-01 -2.708880603313446045e-01 -3.628232702612876892e-02 1.380549222230911255e-01
1.383000000000000000e+03 4.229923725128173828e+00 1.287518501281738281e+01 3.583390116691589355e-01 1.101014256477355957e+00 4.378059506416320801e-01 -2.384864687919616699e-01
1.384000000000000000e+03 2.977467536926269531e+00 1.305069351196289062e+01 1.712450683116912842e-01 3.611555323004722595e-02 6.220818683505058289e-02 -1.687412559986114502e-01
1.385000000000000000e+03 4.073579788208007812e+00 1.578311538696289062e+01 4.017293155193328857e-01 1.205113887786865234e+00 4.820529818534851074e-01 -6.392754912376403809e-01
1.386000000000000000e+03 3.908987808227539062e+01 1.039508628845214844e+01 1.779703855514526367e+00 1.235967922210693359e+01 4.241815090179443359e+00 2.682112932205200195e+00
1.387000000000000000e+03 2.503432846069335938e+01 2.570404624938964844e+01 -7.561229467391967773e-01 8.356890082359313965e-01 2.386981993913650513e-02 -6.794001460075378418e-01
1.388000000000000000e+03 2.648120880126953125e+01 2.317509651184082031e+01 -1.124763250350952148e+00 8.855708241462707520e-01 -7.175772637128829956e-02 -7.559290528297424316e-01
1.389000000000000000e+03 5.583741378784179688e+01 -1.206630134582519531e+01 -9.849045872688293457e-01 5.983956456184387207e-01 -1.159526854753494263e-01 8.972979784011840820e-01
1.390000000000000000e+03 3.756737518310546875e+01 8.291567802429199219e+00 1.855102896690368652e+00 1.310721492767333984e+01 4.488695621490478516e+00 1.481230497360229492e+00
1.391000000000000000e+03 4.044707489013671875e+01 -1.779758071899414062e+01 1.990051746368408203e+00 9.296744346618652344e+00 3.386038780212402344e+00 -1.579806566238403320e+00
1.392000000000000000e+03 3.638450622558593750e+01 -1.444493579864501953e+01 1.909541964530944824e+00 1.229406261444091797e+01 4.261081695556640625e+00 -2.890509843826293945e+00
1.393000000000000000e+03 5.444271087646484375e+01 -3.417194366455078125e+01 -1.221882477402687073e-01 6.235073208808898926e-01 1.503957211971282959e-01 -1.075261116027832031e+00
1.394000000000000000e+03 4.215042877197265625e+01 1.716955184936523438e+01 5.635643601417541504e-01 4.990500450134277344e+00 1.666219472885131836e+00 2.051350116729736328e+00
1.395000000000000000e+03 1.461038112640380859e+01 -2.640734291076660156e+01 -7.795960307121276855e-01 4.960802555084228516e+00 1.254361867904663086e+00 -4.777921438217163086e-01
1.396000000000000000e+03 2.462625885009765625e+01 2.788178622722625732e-01 3.351470232009887695e+00 -1.386494517326354980e+00 5.894926786422729492e-01 2.843564376235008240e-02
1.397000000000000000e+03 3.691764450073242188e+01 -2.018014907836914062e+01 1.121971487998962402e+00 1.117107295989990234e+01 3.687913417816162109e+00 -3.691928982734680176e-01
1.398000000000000000e+03 4.191119384765625000e+01 -1.954834556579589844e+01 2.063919305801391602e+00 9.483230590820312500e+00 3.464144945144653320e+00 -1.327163457870483398e+00
1.399000000000000000e+03 5.867149734497070312e+01 -1.529994606971740723e+00 1.744959115982055664e+00 3.150783538818359375e+00 1.468722820281982422e+00 1.787762284278869629e+00
1.400000000000000000e+03 3.700801467895507812e+01 -2.155908775329589844e+01 1.504083514213562012e+00 1.018068599700927734e+01 3.505430936813354492e+00 8.823948353528976440e-02
1.401000000000000000e+03 3.804627227783203125e+01 -1.844410896301269531e+01 1.496078252792358398e+00 1.082561588287353516e+01 3.696508169174194336e+00 -1.526176214218139648e+00
1.402000000000000000e+03 1.805201148986816406e+01 2.480551147460937500e+01 -7.551153302192687988e-01 1.901325106620788574e+00 3.438629209995269775e-01 1.375061154365539551e+00
1.403000000000000000e+03 2.602906227111816406e+01 2.492466354370117188e+01 -8.268264532089233398e-01 1.025254368782043457e+00 5.952837690711021423e-02 -1.004621624946594238e+00
1.404000000000000000e+03 3.743067550659179688e+01 -2.422416877746582031e+01 1.222667574882507324e+00 8.726447105407714844e+00 2.984734296798706055e+00 1.471384018659591675e-01
1.405000000000000000e+03 3.665191650390625000e+01 1.161858940124511719e+01 9.812874794006347656e-01 1.034842300415039062e+01 3.398912906646728516e+00 -7.725954987108707428e-03
1.406000000000000000e+03 6.066308593750000000e+01 -3.547282409667968750e+01 3.077230751514434814e-01 1.125747799873352051e+00 4.300412535667419434e-01 2.056666016578674316e-01
1.407000000000000000e+03 6.508411407470703125e+01 -3.047606468200683594e+01 -9.433763027191162109e-01 3.209195852279663086e+00 6.797459125518798828e-01 8.498714566230773926e-01
1.408000000000000000e+03 6.670292663574218750e+01 1.510184860229492188e+01 9.364275336265563965e-01 8.120850563049316406e+00 2.717183351516723633e+00 2.429572343826293945e-01
1.409000000000000000e+03 6.571688079833984375e+01 1.680499267578125000e+01 8.488799929618835449e-01 8.314765930175781250e+00 2.749093770980834961e+00 1.877627223730087280e-01
1.410000000000000000e+03 1.694884872436523438e+01 2.438238143920898438e+01 -1.129194617271423340e+00 2.776625871658325195e+00 4.942293763160705566e-01 1.621067523956298828e+00
1.411000000000000000e+03 1.769016838073730469e+01 2.318390083312988281e+01 -9.218069911003112793e-01 1.737059831619262695e+00 2.445758432149887085e-01 1.296745896339416504e+00
1.412000000000000000e+03 3.638111114501953125e+01 6.087691783905029297e+00 1.497364640235900879e+00 1.330352497100830078e+01 4.440266609191894531e+00 1.529027104377746582e+00
1.413000000000000000e+03 3.690573501586914062e+01 7.358664035797119141e+00 1.566865324974060059e+00 1.331507968902587891e+01 4.464583396911621094e+00 1.432058453559875488e+00
1.414000000000000000e+03 1.624720573425292969e+01 8.235375404357910156e+00 -1.369320631027221680e+00 6.604623794555664062e+00 1.570590853691101074e+00 -1.422302603721618652e+00
1.415000000000000000e+03 1.337548732757568359e+01 1.993843913078308105e+00 5.855444073677062988e-01 1.564637660980224609e+01 4.869576454162597656e+00 -3.196858167648315430e+00
1.416000000000000000e+03 6.612689208984375000e+01 -2.905570030212402344e+01 -9.808757901191711426e-01 4.223785400390625000e+00 9.728728532791137695e-01 9.455019831657409668e-01
1.417000000000000000e+03 3.742749404907226562e+01 -1.253721714019775391e+01 1.577078342437744141e+00 1.008818531036376953e+01 3.499578952789306641e+00 -2.100318193435668945e+00
1.418000000000000000e+03 6.252743530273437500e+01 4.565147876739501953e+00 1.093490481376647949e+00 6.780145168304443359e+00 2.362090587615966797e+00 1.364436507225036621e+00
1.419000000000000000e+03 4.181077957153320312e+01 1.503227138519287109e+01 1.423954844474792480e+00 5.725664138793945312e+00 2.144885778427124023e+00 2.677601099014282227e+00
1.420000000000000000e+03 6.402313232421875000e+01 8.790029525756835938e+00 9.726006388664245605e-01 8.683115959167480469e+00 2.896714925765991211e+00 9.027032256126403809e-01
1.421000000000000000e+03 6.289014816284179688e+01 9.154596328735351562e+00 8.749830126762390137e-01 9.282273292541503906e+00 3.047176837921142578e+00 1.319543242454528809e+00
1.422000000000000000e+03 5.946906661987304688e+01 -3.589567244052886963e-01 1.557555675506591797e+00 3.675899028778076172e+00 1.570036411285400391e+00 1.835038065910339355e+00
1.423000000000000000e+03 4.917369842529296875e+01 2.298635864257812500e+01 -7.366082668304443359e-01 1.532785654067993164e+00 2.388532161712646484e-01 1.212354421615600586e+00
1.424000000000000000e+03 4.766706085205078125e+01 2.213058662414550781e+01 -5.962845683097839355e-01 2.051010370254516602e+00 4.364177286624908447e-01 1.338504910469055176e+00
1.425000000000000000e+03 2.948801231384277344e+01 -3.056591796875000000e+01 -1.107072710990905762e+00 9.513775706291198730e-01 -4.670854285359382629e-02 9.364945888519287109e-01
1.426000000000000000e+03 5.320886611938476562e+01 -3.333959197998046875e+01 -4.594634771347045898e-01 1.005927801132202148e+00 1.639392822980880737e-01 -1.395776033401489258e+00
1.427000000000000000e+03 5.787150573730468750e+01 -2.706541776657104492e+00 1.808440446853637695e+00 2.751874446868896484e+00 1.368094444274902344e+00 1.730469703674316406e+00
1.428000000000000000e+03 5.735983276367187500e+01 -3.373575210571289062e+01 -2.368986308574676514e-01 5.402766540646553040e-02 -5.486129224300384521e-02 -4.043747484683990479e-01
1.429000000000000000e+03 3.791415023803710938e+01 -1.705879211425781250e+01 1.657521843910217285e+00 1.101970291137695312e+01 3.803167343139648438e+00 -1.944095015525817871e+00
1.430000000000000000e+03 3.776710128784179688e+01 -1.564174652099609375e+01 1.806095838546752930e+00 1.090804290771484375e+01 3.814241647720336914e+00 -2.322147846221923828e+00
1.431000000000000000e+03 2.262835884094238281e+01 -4.855004787445068359e+00 2.436761617660522461e+00 -6.363622844219207764e-02 7.119376063346862793e-01 -3.464207947254180908e-01
1.432000000000000000e+03 6.928337097167968750e+01 -2.191071510314941406e+01 1.520497679710388184e+00 1.245154190063476562e+01 4.191611766815185547e+00 1.209441900253295898e+00
1.433000000000000000e+03 7.127410888671875000e+01 -1.999770164489746094e+01 1.935975313186645508e+00 1.151061630249023438e+01 4.033977508544921875e+00 -4.533895850181579590e-01
1.434000000000000000e+03 3.311357498168945312e+01 -2.535856723785400391e+00 1.370106220245361328e+00 7.185759067535400391e+00 2.566759586334228516e+00 2.071726769208908081e-01
1.435000000000000000e+03 2.571762275695800781e+01 -3.471237564086914062e+01 -3.821482658386230469e-01 6.667782068252563477e-01 8.538898825645446777e-02 1.990082412958145142e-01
1.436000000000000000e+03 6.485982513427734375e+01 1.294447898864746094e+01 7.981306314468383789e-01 9.179815292358398438e+00 2.993383646011352539e+00 2.951766848564147949e-01
1.437000000000000000e+03 6.510952758789062500e+01 1.427372646331787109e+01 9.410221576690673828e-01 8.927542686462402344e+00 2.960569381713867188e+00 6.462730467319488525e-02
1.438000000000000000e+03 3.845742797851562500e+01 7.786732673645019531e+00 1.953970670700073242e+00 1.488722229003906250e+01 5.052357673645019531e+00 2.296786308288574219e+00
1.439000000000000000e+03 1.159191417694091797e+01 -1.559497833251953125e+01 1.660774230957031250e+00 7.995399475097656250e+00 2.896852016448974609e+00 5.242537856101989746e-01
1.440000000000000000e+03 1.006339836120605469e+01 -1.884974288940429688e+01 1.669161319732666016e+00 5.907579898834228516e+00 2.273022413253784180e+00 9.857128858566284180e-01
1.441000000000000000e+03 7.585434722900390625e+01 -1.608615493774414062e+01 7.295938730239868164e-01 7.974862575531005859e+00 2.611336946487426758e+00 4.215313494205474854e-01
1.442000000000000000e+03 3.544285583496093750e+01 1.136133956909179688e+01 8.047335743904113770e-01 1.000694751739501953e+01 3.243504524230957031e+00 -8.393692970275878906e-01
1.443000000000000000e+03 7.031322479248046875e+01 -1.465495204925537109e+01 1.131846785545349121e+00 1.107032012939453125e+01 3.660650253295898438e+00 -3.007864346727728844e-03
1.444000000000000000e+03 4.786181259155273438e+01 -6.111052036285400391e+00 -1.660138487815856934e+00 -4.421803355216979980e-01 -6.306956410408020020e-01 1.411053061485290527e+00
1.445000000000000000e+03 4.957641220092773438e+01 -1.207286167144775391e+01 1.027481198310852051e+00 1.377842426300048828e+00 7.215970754623413086e-01 2.149961471557617188e+00
1.446000000000000000e+03 2.901222991943359375e+01 2.199681854248046875e+01 -5.242415666580200195e-01 2.963137149810791016e+00 7.316687107086181641e-01 -1.509682297706604004e+00
1.447000000000000000e+03 5.391857528686523438e+01 -5.408949375152587891e+00 1.299937248229980469e+00 2.313247680664062500e+00 1.083955407142639160e+00 1.877673268318176270e+00
1.448000000000000000e+03 5.629679870605468750e+01 -5.200112342834472656e+00 1.315154790878295898e+00 2.227211475372314453e+00 1.062709808349609375e+00 1.620451211929321289e+00
1.449000000000000000e+03 3.567720031738281250e+01 9.990944862365722656e+00 1.001422762870788574e+00 1.094392871856689453e+01 3.583605527877807617e+00 -2.798402607440948486e-01
1.450000000000000000e+03 2.752670288085937500e+01 -6.751421928405761719e+00 -1.954511180520057678e-02 -5.957086086273193359e-01 -1.845761090517044067e-01 -8.924318850040435791e-02
1.451000000000000000e+03 1.687423324584960938e+01 -2.904508972167968750e+01 -1.010195493698120117e+00 3.036177635192871094e+00 6.077946424484252930e-01 -6.155928969383239746e-01
1.452000000000000000e+03 1.912798500061035156e+01 -2.897961235046386719e+01 -9.524688720703125000e-01 1.704319357872009277e+00 2.255551367998123169e-01 -4.742514491081237793e-01
1.453000000000000000e+03 3.573866653442382812e+01 3.434935092926025391e+00 2.341646432876586914e+00 1.328246307373046875e+01 4.687232971191406250e+00 1.532144427299499512e+00
1.454000000000000000e+03 3.632085037231445312e+01 1.731191158294677734e+00 2.319037675857543945e+00 1.196850490570068359e+01 4.286262989044189453e+00 2.809230685234069824e-01
1.455000000000000000e+03 2.975310516357421875e+01 2.318288040161132812e+01 -1.000777244567871094e+00 3.596832036972045898e+00 7.788164019584655762e-01 -1.314987182617187500e+00
1.456000000000000000e+03 2.916199874877929688e+01 -3.284226989746093750e+01 -7.431045174598693848e-01 1.220523357391357422e+00 1.432256549596786499e-01 1.113668560981750488e+00
1.457000000000000000e+03 2.403607749938964844e+01 -3.312788009643554688e+01 -7.702106833457946777e-01 3.338596820831298828e-01 -1.309053003787994385e-01 -7.182635366916656494e-02
1.458000000000000000e+03 6.030286026000976562e+01 -3.363213729858398438e+01 -2.938572168350219727e-01 7.514504790306091309e-01 1.372779756784439087e-01 1.828876584768295288e-01
1.459000000000000000e+03 3.758849334716796875e+01 -1.089166450500488281e+01 6.591246724128723145e-01 9.577049255371093750e+00 3.070852041244506836e+00 -1.730810523033142090e+00
1.460000000000000000e+03 3.162913894653320312e+01 -6.613525867462158203e+00 -2.770551145076751709e-01 4.242146968841552734e+00 1.189527630805969238e+00 -1.979344964027404785e+00
1.461000000000000000e+03 2.847796249389648438e+01 -1.050505757331848145e+00 4.723115444183349609e+00 3.283935785293579102e-01 1.515452623367309570e+00 -4.857424274086952209e-02
1.462000000000000000e+03 6.971171569824218750e+01 -2.398465156555175781e+01 -3.380622714757919312e-02 1.005220985412597656e+01 3.005521059036254883e+00 2.486957311630249023e-01
1.463000000000000000e+03 4.541170883178710938e+01 -1.409551143646240234e+01 1.507119655609130859e+00 5.040654659271240234e+00 1.964332342147827148e+00 8.664150834083557129e-01
1.464000000000000000e+03 4.364789199829101562e+01 -1.767936897277832031e+01 1.910441756248474121e+00 8.783836364746093750e+00 3.208283424377441406e+00 -3.081028461456298828e-01
1.465000000000000000e+03 3.859834289550781250e+01 -2.243186187744140625e+01 1.699624896049499512e+00 9.416152954101562500e+00 3.334733486175537109e+00 -5.851941704750061035e-01
1.466000000000000000e+03 5.887030410766601562e+01 -3.484160995483398438e+01 1.155352145433425903e-01 4.612553715705871582e-01 1.730371862649917603e-01 -4.817751795053482056e-02
1.467000000000000000e+03 4.022869491577148438e+01 -2.297743606567382812e+01 1.929988145828247070e+00 9.240786552429199219e+00 3.351232528686523438e+00 -1.068909525871276855e+00
1.468000000000000000e+03 3.550617980957031250e+01 -7.449720859527587891e+00 -1.383160710334777832e+00 9.439438819885253906e+00 2.416883468627929688e+00 -1.776842594146728516e+00
1.469000000000000000e+03 3.880710601806640625e+01 -7.934179306030273438e-01 1.170906305313110352e+00 1.050858497619628906e+01 3.503847360610961914e+00 -1.801428079605102539e+00
1.470000000000000000e+03 6.386479949951171875e+01 2.044137382507324219e+01 -9.290265291929244995e-02 7.257767200469970703e+00 2.149459362030029297e+00 5.039952322840690613e-02
1.471000000000000000e+03 3.534371566772460938e+01 -9.313492774963378906e+00 -3.238030970096588135e-01 9.861162185668945312e+00 2.861207485198974609e+00 -2.062204122543334961e+00
1.472000000000000000e+03 1.388618469238281250e+01 -1.249817466735839844e+01 -8.835602402687072754e-01 8.384089469909667969e+00 2.250158786773681641e+00 8.904902338981628418e-01
1.473000000000000000e+03 6.677168273925781250e+01 -1.032072257995605469e+01 -1.541403055191040039e+00 5.080965518951416016e+00 1.061868667602539062e+00 -2.630597591400146484e+00
1.474000000000000000e+03 6.713642883300781250e+01 -1.219625854492187500e+01 -1.584237098693847656e+00 6.289257526397705078e+00 1.411506175994873047e+00 -2.582580089569091797e+00
1.475000000000000000e+03 6.306893539428710938e+01 -1.030970478057861328e+01 -1.236041188240051270e+00 2.483117580413818359e-01 -2.963188588619232178e-01 -7.940261363983154297e-01
1.476000000000000000e+03 2.878115272521972656e+01 -6.835989475250244141e+00 1.449151635169982910e-01 -1.956516355276107788e-01 -1.522093918174505234e-02 -6.087266802787780762e-01
1.477000000000000000e+03 3.446058654785156250e+01 -8.178444862365722656e+00 -9.995150566101074219e-01 8.927311897277832031e+00 2.378339052200317383e+00 -2.167632818222045898e+00
1.478000000000000000e+03 4.839591598510742188e+01 -3.145045852661132812e+01 -2.275253385305404663e-01 4.901843070983886719e+00 1.402295231819152832e+00 -2.489447116851806641e+00
1.479000000000000000e+03 3.794645690917968750e+01 1.046408367156982422e+01 1.611230492591857910e+00 1.162357044219970703e+01 3.970440149307250977e+00 1.270400166511535645e+00
1.480000000000000000e+03 5.330800628662109375e+01 -1.224349975585937500e+01 -1.099711284041404724e-01 6.223224997520446777e-01 1.537054032087326050e-01 1.516623377799987793e+00
1.481000000000000000e+03 5.110322570800781250e+01 -1.175818252563476562e+01 5.086491107940673828e-01 9.328434467315673828e-01 4.324477612972259521e-01 2.091873407363891602e+00
1.482000000000000000e+03 1.341103458404541016e+01 8.822942733764648438e+00 -1.194074273109436035e+00 9.028570175170898438e+00 2.350348949432373047e+00 -1.119675397872924805e+00
1.483000000000000000e+03 6.213860321044921875e+01 -3.293769073486328125e+01 -5.786716341972351074e-01 1.350282907485961914e+00 2.314833849668502808e-01 6.180604696273803711e-01
1.484000000000000000e+03 6.378567886352539062e+01 -3.185950088500976562e+01 -7.349178791046142578e-01 2.205506563186645508e+00 4.411766231060028076e-01 7.548708319664001465e-01
1.485000000000000000e+03 1.453180217742919922e+01 -2.927126121520996094e+01 -1.149989008903503418e+00 4.103136062622070312e+00 8.859440684318542480e-01 -2.409177720546722412e-01
1.486000000000000000e+03 6.919880676269531250e+01 -1.395011043548583984e+01 5.646451935172080994e-02 1.155527782440185547e+01 3.483522891998291016e+00 -8.065002560615539551e-01
1.487000000000000000e+03 6.956722259521484375e+01 -1.100559806823730469e+01 -1.603988289833068848e+00 8.965544700622558594e+00 2.208467006683349609e+00 -1.254284739494323730e+00
1.488000000000000000e+03 1.617485046386718750e+01 -9.983213424682617188e+00 -1.729531168937683105e+00 5.637415409088134766e+00 1.172365188598632812e+00 1.880002975463867188e+00
1.489000000000000000e+03 6.314234161376953125e+01 5.941409587860107422e+00 1.066587924957275391e+00 7.572920799255371094e+00 2.591852426528930664e+00 1.165842413902282715e+00
1.490000000000000000e+03 4.175675201416015625e+01 -5.783778190612792969e+00 -1.942786335945129395e+00 4.976310729980468750e+00 9.100573658943176270e-01 -1.645945191383361816e+00
1.491000000000000000e+03 4.317870712280273438e+01 -7.102995395660400391e+00 -1.019739866256713867e+00 3.516380310058593750e+00 7.489921450614929199e-01 -8.347731232643127441e-01
1.492000000000000000e+03 6.279755020141601562e+01 2.476306152343750000e+01 -1.251054406166076660e+00 5.737984657287597656e+00 1.346079111099243164e+00 -1.015435695648193359e+00
1.493000000000000000e+03 6.176646804809570312e+01 2.621472549438476562e+01 -8.540266156196594238e-01 4.514110565185546875e+00 1.098025083541870117e+00 -1.250444889068603516e+00
1.494000000000000000e+03 2.390271949768066406e+01 2.651317214965820312e+01 -6.458537578582763672e-01 8.253235220909118652e-01 5.384093895554542542e-02 -4.899749159812927246e-01
1.495000000000000000e+03 2.171181297302246094e+01 2.661670303344726562e+01 -6.041066050529479980e-01 7.062266469001770020e-01 3.063600137829780579e-02 1.623512357473373413e-01
1.496000000000000000e+03 5.214583206176757812e+01 -1.214653968811035156e+01 3.115031719207763672e-01 7.703026533126831055e-01 3.245417475700378418e-01 1.889052510261535645e+00
1.497000000000000000e+03 5.150724411010742188e+01 -6.992459297180175781e+00 -2.248341217637062073e-02 1.560015559196472168e+00 4.612596333026885986e-01 2.562211513519287109e+00
1.498000000000000000e+03 4.048640823364257812e+01 -6.103289604187011719e+00 -1.789100050926208496e+00 6.764181137084960938e+00 1.492524266242980957e+00 -1.868758797645568848e+00
1.499000000000000000e+03 4.216489028930664062e+01 -2.460082244873046875e+01 2.228290796279907227e+00 9.550869941711425781e+00 3.533748149871826172e+00 -1.394797801971435547e+00
1.500000000000000000e+03 4.249775314331054688e+01 -1.818523406982421875e+01 2.074934959411621094e+00 8.987162590026855469e+00 3.318629264831542969e+00 -8.766065239906311035e-01
1.501000000000000000e+03 4.329545974731445312e+01 -2.074202156066894531e+01 1.944140076637268066e+00 1.010628795623779297e+01 3.615128278732299805e+00 -1.203981876373291016e+00
1.502000000000000000e+03 3.692269897460937500e+01 -2.669129753112792969e+01 3.436651527881622314e-01 7.060372352600097656e+00 2.221211194992065430e+00 6.840115785598754883e-01
1.503000000000000000e+03 3.749369812011718750e+01 -2.559155654907226562e+01 1.045593857765197754e+00 7.878962039947509766e+00 2.677366733551025391e+00 3.035395145416259766e-01
1.504000000000000000e+03 4.538618850708007812e+01 -5.671829223632812500e+00 -2.222509145736694336e+00 2.216927260160446167e-01 -6.002449393272399902e-01 5.347616672515869141e-01
1.505000000000000000e+03 7.035075378417968750e+01 -2.260862541198730469e+01 7.111513018608093262e-01 1.095570182800292969e+01 3.500056028366088867e+00 -1.594339013099670410e-01
1.506000000000000000e+03 7.224597930908203125e+01 -1.568211841583251953e+01 1.585307598114013672e+00 1.061942481994628906e+01 3.661419630050659180e+00 3.724158108234405518e-01
1.507000000000000000e+03 2.347651481628417969e+01 4.622475802898406982e-01 3.164098024368286133e+00 -1.400158405303955078e+00 5.291818976402282715e-01 -6.604781374335289001e-03
1.508000000000000000e+03 2.392426490783691406e+01 -6.166521549224853516e+00 1.331209778785705566e+00 -4.003000259399414062e-01 2.792729437351226807e-01 -2.596241235733032227e-01
1.509000000000000000e+03 1.575883674621582031e+01 2.386311149597167969e+01 -1.299399018287658691e+00 4.638357162475585938e+00 1.001687407493591309e+00 1.703291416168212891e+00
1.510000000000000000e+03 1.334520149230957031e+01 2.276871871948242188e+01 -1.020098090171813965e+00 6.656338691711425781e+00 1.690872192382812500e+00 1.785537414252758026e-02
1.511000000000000000e+03 3.739591217041015625e+01 -5.734668970108032227e-01 1.331362485885620117e+00 1.032984924316406250e+01 3.498363733291625977e+00 -7.426068186759948730e-01
1.512000000000000000e+03 3.858394241333007812e+01 -3.716621875762939453e+00 -1.331516981124877930e+00 9.184379577636718750e+00 2.355858802795410156e+00 -1.481589317321777344e+00
1.513000000000000000e+03 6.525434875488281250e+01 1.984226417541503906e+01 3.195336163043975830e-01 7.801958560943603516e+00 2.436447620391845703e+00 2.950963675975799561e-01
1.514000000000000000e+03 1.516008567810058594e+01 -9.856983184814453125e+00 -1.939254999160766602e+00 6.938595771789550781e+00 1.499802231788635254e+00 1.845214605331420898e+00
1.515000000000000000e+03 1.612612915039062500e+01 -1.101685237884521484e+01 -1.663547515869140625e+00 5.768793106079101562e+00 1.231573581695556641e+00 2.071282863616943359e+00
1.516000000000000000e+03 4.419743728637695312e+01 -1.447199153900146484e+01 1.511003255844116211e+00 6.320210456848144531e+00 2.349364042282104492e+00 2.691976428031921387e-01
1.517000000000000000e+03 4.322304153442382812e+01 -1.623597908020019531e+01 1.912333369255065918e+00 7.935659408569335938e+00 2.954397916793823242e+00 -3.436706662178039551e-01
1.518000000000000000e+03 1.373887157440185547e+01 -2.152199935913085938e+01 1.469497561454772949e+00 9.329485893249511719e+00 3.239695072174072266e+00 -2.830903530120849609e-01
1.519000000000000000e+03 1.328382587432861328e+01 -2.016232872009277344e+01 1.828417062759399414e+00 1.021606445312500000e+01 3.613344192504882812e+00 -3.893159925937652588e-01
1.520000000000000000e+03 3.406421279907226562e+01 -2.938927268981933594e+01 -5.217077136039733887e-01 4.678692817687988281e+00 1.247095584869384766e+00 1.449858307838439941e+00
1.521000000000000000e+03 3.293196487426757812e+01 -3.040395736694335938e+01 -6.748617887496948242e-01 3.449173927307128906e+00 8.322936296463012695e-01 1.426834583282470703e+00
1.522000000000000000e+03 6.133890533447265625e+01 2.353289604187011719e+01 -1.189125537872314453e+00 4.724152565002441406e+00 1.060508131980895996e+00 -1.637266278266906738e+00
1.523000000000000000e+03 5.557868194580078125e+01 2.571154022216796875e+01 -3.012751340866088867e-01 8.794349431991577148e-01 1.734479367733001709e-01 -9.321224689483642578e-02
1.524000000000000000e+03 3.265675354003906250e+01 -3.902765750885009766e+00 5.515823960304260254e-01 6.347497463226318359e+00 2.069723844528198242e+00 -6.845406293869018555e-01
1.525000000000000000e+03 3.087403678894042969e+01 2.228664779663085938e+01 -8.038637042045593262e-01 4.354518413543701172e+00 1.065196394920349121e+00 -1.112318515777587891e+00
1.526000000000000000e+03 3.020860481262207031e+01 -6.904250621795654297e+00 -1.326825469732284546e-01 1.771482825279235840e+00 4.916400909423828125e-01 -1.573611617088317871e+00
1.527000000000000000e+03 1.152828788757324219e+01 2.026102638244628906e+01 9.618320465087890625e-01 7.563559532165527344e+00 2.557617425918579102e+00 -1.270699858665466309e+00
1.528000000000000000e+03 1.238527679443359375e+01 -1.126805210113525391e+01 -1.199506998062133789e+00 7.529972076416015625e+00 1.899139523506164551e+00 7.683531641960144043e-01
1.529000000000000000e+03 6.034150314331054688e+01 2.511213874816894531e+01 -8.810862898826599121e-01 3.322284460067749023e+00 7.323594689369201660e-01 -1.450318932533264160e+00
1.530000000000000000e+03 5.794186782836914062e+01 2.558574104309082031e+01 -3.816894292831420898e-01 1.600952029228210449e+00 3.657788038253784180e-01 -8.159555792808532715e-01
1.531000000000000000e+03 4.925492763519287109e+00 -4.032789230346679688e+01 -1.697715073823928833e-01 3.849890947341918945e+00 1.104035854339599609e+00 1.657361090183258057e-01
1.532000000000000000e+03 8.164513587951660156e+00 -4.108753585815429688e+01 -3.519212305545806885e-01 3.554668664932250977e+00 9.608242511749267578e-01 8.205553144216537476e-02
1.533000000000000000e+03 4.809509754180908203e+00 4.041220092773437500e+01 -7.258241623640060425e-02 3.794121980667114258e+00 1.116461873054504395e+00 -7.990970462560653687e-02
1.534000000000000000e+03 1.162376213073730469e+01 2.824463844299316406e+00 1.122491717338562012e+00 6.703734874725341797e+00 2.347867965698242188e+00 -4.707410335540771484e+00
1.535000000000000000e+03 1.161971282958984375e+01 -1.833066225051879883e+00 2.809261083602905273e+00 4.982501506805419922e+00 2.337528705596923828e+00 4.484722614288330078e+00
1.536000000000000000e+03 1.290056800842285156e+01 -1.631531000137329102e+00 1.781792044639587402e+00 1.437744235992431641e+01 4.847770214080810547e+00 4.872176647186279297e+00
1.537000000000000000e+03 1.254076576232910156e+01 -2.089837074279785156e+00 1.593349337577819824e+00 1.061863040924072266e+01 3.663594007492065430e+00 5.000943183898925781e+00
1.538000000000000000e+03 1.310467243194580078e+01 -1.959776401519775391e+00 1.099421501159667969e+00 1.412687683105468750e+01 4.567889213562011719e+00 3.558160305023193359e+00
1.539000000000000000e+03 1.399883842468261719e+01 -1.809014797210693359e+00 2.114633321762084961e+00 1.546696758270263672e+01 5.274480342864990234e+00 -5.789708495140075684e-01
1.540000000000000000e+03 1.679736518859863281e+01 5.283243656158447266e+00 -1.400619029998779297e+00 6.573494434356689453e+00 1.551862716674804688e+00 -3.710411190986633301e-01
1.541000000000000000e+03 1.445964431762695312e+01 -1.818635106086730957e+00 3.048379421234130859e+00 1.399708652496337891e+01 5.113639831542968750e+00 -1.783995866775512695e+00
1.542000000000000000e+03 1.458594131469726562e+01 -1.614225625991821289e+00 3.948735475540161133e+00 1.377608108520507812e+01 5.317444801330566406e+00 -2.302343845367431641e+00
1.543000000000000000e+03 1.547839260101318359e+01 1.695238649845123291e-01 8.478179931640625000e+00 9.450457572937011719e+00 5.378591060638427734e+00 -4.254514276981353760e-01
1.544000000000000000e+03 1.469363975524902344e+01 -1.393111228942871094e+00 5.102338314056396484e+00 1.335198497772216797e+01 5.536296844482421875e+00 -2.708118200302124023e+00
1.545000000000000000e+03 1.509074878692626953e+01 -5.994270443916320801e-01 8.553673744201660156e+00 1.115128803253173828e+01 5.911488533020019531e+00 -2.383629083633422852e+00
1.546000000000000000e+03 1.495008468627929688e+01 -8.002222776412963867e-01 7.931251049041748047e+00 1.202109432220458984e+01 5.985703468322753906e+00 -2.821860551834106445e+00
1.547000000000000000e+03 1.460436820983886719e+01 1.741952061653137207e+00 3.199940204620361328e+00 1.385801506042480469e+01 5.117386817932128906e+00 1.030448555946350098e+00
1.548000000000000000e+03 2.021513938903808594e+01 2.284627199172973633e+00 2.325020313262939453e+00 4.332199692726135254e-01 8.274720907211303711e-01 1.218269839882850647e-01
1.549000000000000000e+03 1.067406177520751953e+01 2.455153226852416992e+00 1.777791380882263184e+00 3.404334545135498047e+00 1.554637789726257324e+00 -3.498417139053344727e+00
1.550000000000000000e+03 1.107515239715576172e+01 2.614570856094360352e+00 1.667142868041992188e+00 4.550889015197753906e+00 1.865409612655639648e+00 -4.117272853851318359e+00
1.551000000000000000e+03 9.939154624938964844e+00 -2.422560691833496094e+00 1.605700492858886719e+00 1.663165092468261719e+00 9.806597232818603516e-01 2.062118053436279297e+00
1.552000000000000000e+03 8.206643104553222656e+00 -2.950834751129150391e+00 7.702012062072753906e-01 9.249341487884521484e-01 5.085405707359313965e-01 8.408457040786743164e-01
1.553000000000000000e+03 5.744501113891601562e+00 -4.251633644104003906e+00 3.393178284168243408e-01 6.569933295249938965e-01 2.988933324813842773e-01 5.870923399925231934e-02
1.554000000000000000e+03 6.415841102600097656e+00 -4.057852268218994141e+00 4.364559054374694824e-01 7.973119020462036133e-01 3.701303303241729736e-01 2.606913149356842041e-01
1.555000000000000000e+03 6.179537773132324219e+00 -3.317301511764526367e+00 2.850612103939056396e-01 4.778138995170593262e-01 2.288625389337539673e-01 3.196878358721733093e-02
1.556000000000000000e+03 4.377774715423583984e+00 -4.709614753723144531e+00 2.029486447572708130e-01 3.225108087062835693e-01 1.576378345489501953e-01 -2.224938571453094482e-01
1.557000000000000000e+03 5.065603733062744141e+00 -4.463300228118896484e+00 2.598602771759033203e-01 5.028015375137329102e-01 2.287985384464263916e-01 -1.039854660630226135e-01
1.558000000000000000e+03 3.262229442596435547e+00 -6.264482498168945312e+00 1.346432864665985107e-01 9.215754270553588867e-02 6.804024428129196167e-02 -2.275748401880264282e-01
1.559000000000000000e+03 7.075255393981933594e+00 -3.876745462417602539e+00 5.601446628570556641e-01 9.640997052192687988e-01 4.572733044624328613e-01 4.977252185344696045e-01
1.560000000000000000e+03 7.934837818145751953e+00 -4.344874382019042969e+00 6.914995908737182617e-01 1.690813422203063965e+00 7.146939039230346680e-01 1.056141972541809082e+00
1.561000000000000000e+03 2.626598358154296875e+00 -4.393599033355712891e+00 5.560510978102684021e-02 -2.035505324602127075e-01 -4.438363015651702881e-02 -3.539816141128540039e-01
1.562000000000000000e+03 6.807620525360107422e+00 3.884493350982666016e+00 3.638392388820648193e-01 9.780519008636474609e-01 4.025673568248748779e-01 -1.483926475048065186e-01
1.563000000000000000e+03 8.127241134643554688e+00 3.014385223388671875e+00 5.076382160186767578e-01 1.167840242385864258e+00 5.026435256004333496e-01 -7.775081396102905273e-01
1.564000000000000000e+03 6.100962638854980469e+00 4.057309627532958984e+00 3.133901059627532959e-01 7.422665953636169434e-01 3.166970312595367432e-01 6.662006676197052002e-02
1.565000000000000000e+03 3.948797941207885742e+00 4.874715805053710938e+00 1.623300611972808838e-01 1.234013065695762634e-01 8.571941405534744263e-02 4.718305468559265137e-01
1.566000000000000000e+03 5.083028316497802734e+00 3.521483421325683594e+00 7.286725938320159912e-02 3.117569088935852051e-01 1.153872534632682800e-01 4.092958271503448486e-01
1.567000000000000000e+03 3.224226474761962891e+00 5.483597755432128906e+00 1.335514783859252930e-01 -9.854405373334884644e-02 1.050222851336002350e-02 4.766904711723327637e-01
1.568000000000000000e+03 8.828229904174804688e+00 -2.879341602325439453e+00 1.013721585273742676e+00 1.230258584022521973e+00 6.731940507888793945e-01 1.263931512832641602e+00
1.569000000000000000e+03 1.128226757049560547e+01 3.092586994171142578e+00 9.858083128929138184e-01 5.866588115692138672e+00 2.055718898773193359e+00 -4.184181213378906250e+00
1.570000000000000000e+03 7.491551399230957031e+00 3.734561920166015625e+00 4.784274101257324219e-01 1.287961363792419434e+00 5.299166440963745117e-01 -5.475474596023559570e-01
1.571000000000000000e+03 8.676329612731933594e+00 3.815807104110717773e+00 6.903606057167053223e-01 2.110333919525146484e+00 8.402082920074462891e-01 -1.416622042655944824e+00
1.572000000000000000e+03 5.936777114868164062e+01 -1.136687660217285156e+01 -1.851542353630065918e+00 7.294763326644897461e-01 -3.366198241710662842e-01 3.503547906875610352e-01
1.573000000000000000e+03 5.728081893920898438e+01 -6.879777431488037109e+00 6.518064737319946289e-01 1.797651529312133789e+00 7.348374128341674805e-01 1.345883369445800781e+00
1.574000000000000000e+03 4.037083435058593750e+01 1.753125000000000000e+01 9.382350742816925049e-02 6.004106521606445312e+00 1.829379081726074219e+00 1.447652459144592285e+00
1.575000000000000000e+03 2.997431182861328125e+01 -4.588962554931640625e+00 1.604539752006530762e+00 2.424223184585571289e+00 1.208628892898559570e+00 -5.384830236434936523e-01
1.576000000000000000e+03 1.268760871887207031e+01 1.303052711486816406e+01 1.490724563598632812e+00 9.591856956481933594e+00 3.324774503707885742e+00 -1.134992837905883789e+00
1.577000000000000000e+03 1.196786880493164062e+01 -2.405916595458984375e+01 -1.539134234189987183e-01 6.373013973236083984e+00 1.865730166435241699e+00 8.729220032691955566e-01
1.578000000000000000e+03 1.938055038452148438e+01 -7.665637969970703125e+00 1.328973174095153809e-01 2.313345909118652344e+00 7.338730096817016602e-01 1.861364692449569702e-01
1.579000000000000000e+03 4.611947250366210938e+01 1.884066390991210938e+01 3.873553872108459473e-01 2.231300354003906250e+00 7.855967283248901367e-01 1.416290998458862305e+00
1.580000000000000000e+03 2.186671638488769531e+01 -6.956832408905029297e+00 7.884731292724609375e-01 5.004500150680541992e-01 3.866769373416900635e-01 -4.170634746551513672e-01
1.581000000000000000e+03 1.374772453308105469e+01 1.081951141357421875e+01 2.732084691524505615e-01 9.718722343444824219e+00 2.997579336166381836e+00 -1.308922529220581055e+00
1.582000000000000000e+03 1.566039466857910156e+01 7.125430583953857422e+00 -2.132697820663452148e+00 8.112783432006835938e+00 1.794025778770446777e+00 -1.224197149276733398e+00
1.583000000000000000e+03 1.656451797485351562e+01 7.194519519805908203e+00 -1.948513507843017578e+00 6.121834278106689453e+00 1.251996278762817383e+00 -1.098725318908691406e+00
1.584000000000000000e+03 1.455405807495117188e+01 -1.162347412109375000e+01 -1.599736213684082031e+00 8.275470733642578125e+00 2.002720355987548828e+00 1.516066193580627441e+00
1.585000000000000000e+03 1.404220962524414062e+01 -1.039536571502685547e+01 -1.873321294784545898e+00 7.848947525024414062e+00 1.792687892913818359e+00 1.416787981986999512e+00
1.586000000000000000e+03 2.079827117919921875e+01 1.591527342796325684e+00 2.915620088577270508e+00 -1.368098556995391846e-01 8.336430788040161133e-01 8.913105557439848781e-05
1.587000000000000000e+03 2.850962638854980469e+01 -3.267196178436279297e+00 3.289063215255737305e+00 8.951348066329956055e-01 1.255259394645690918e+00 9.019618481397628784e-02
1.588000000000000000e+03 2.430283546447753906e+01 -1.457568049430847168e+00 4.029080867767333984e+00 -1.239182591438293457e+00 8.369694352149963379e-01 -1.107810158282518387e-02
1.589000000000000000e+03 1.305389690399169922e+01 -1.328554248809814453e+01 6.317318975925445557e-02 8.425208091735839844e+00 2.546514511108398438e+00 6.778588294982910156e-01
1.590000000000000000e+03 1.127333164215087891e+01 -1.831321716308593750e+01 1.713514685630798340e+00 7.746134281158447266e+00 2.837894678115844727e+00 5.803957581520080566e-01
1.591000000000000000e+03 4.459682846069335938e+01 -8.259449005126953125e+00 -1.255911290645599365e-01 2.515485525131225586e+00 7.169682979583740234e-01 1.498026028275489807e-02
1.592000000000000000e+03 1.209284687042236328e+01 -2.074560356140136719e+01 1.512128114700317383e+00 8.058671951293945312e+00 2.871239900588989258e+00 9.402985572814941406e-01
1.593000000000000000e+03 1.911291313171386719e+01 4.213747501373291016e+00 -1.514101587235927582e-02 1.974884867668151855e+00 5.879231691360473633e-01 4.113500714302062988e-01
1.594000000000000000e+03 1.263047504425048828e+01 1.557300949096679688e+01 1.236791610717773438e+00 1.103825283050537109e+01 3.682513236999511719e+00 -8.751787543296813965e-01
1.595000000000000000e+03 9.947204589843750000e+00 8.698013305664062500e+00 -2.656634449958801270e-01 6.064769744873046875e+00 1.739731907844543457e+00 -8.508442044258117676e-01
1.596000000000000000e+03 5.549317550659179688e+01 -9.712814331054687500e+00 -2.941614985466003418e-01 1.256726861000061035e+00 2.887696027755737305e-01 1.530898809432983398e+00
1.597000000000000000e+03 5.756802368164062500e+01 -1.258950710296630859e+01 -1.645786046981811523e+00 4.847337603569030762e-01 -3.483156859874725342e-01 3.027072548866271973e-01
1.598000000000000000e+03 1.565080261230468750e+01 -1.211342334747314453e+01 -1.021618485450744629e+00 6.788612365722656250e+00 1.730098128318786621e+00 2.263378381729125977e+00
1.599000000000000000e+03 1.220819377899169922e+01 1.892268753051757812e+01 1.484295248985290527e+00 8.413608551025390625e+00 2.969371080398559570e+00 -8.663278222084045410e-01
1.600000000000000000e+03 2.210365867614746094e+01 1.187569618225097656e+00 2.906952857971191406e+00 -1.083081364631652832e+00 5.471614003181457520e-01 3.590786829590797424e-02
1.601000000000000000e+03 2.125078010559082031e+01 8.490429520606994629e-01 3.421112775802612305e+00 -4.879412651062011719e-01 8.799514174461364746e-01 -1.614330410957336426e-01
1.602000000000000000e+03 3.794670867919921875e+01 1.180717086791992188e+01 1.044626712799072266e+00 1.043598556518554688e+01 3.444183826446533203e+00 8.363739252090454102e-01
1.603000000000000000e+03 7.542012023925781250e+01 1.425515174865722656e+01 2.241105586290359497e-01 6.699175834655761719e+00 2.076985836029052734e+00 2.266394346952438354e-01
1.604000000000000000e+03 7.550788116455078125e+01 8.067481219768524170e-02 -6.511835008859634399e-02 7.216611862182617188e+00 2.145447969436645508e+00 -6.028685569763183594e-01
1.605000000000000000e+03 7.506221771240234375e+01 -1.529979801177978516e+01 7.552660107612609863e-01 8.415006637573242188e+00 2.751081705093383789e+00 7.083681821823120117e-01
1.606000000000000000e+03 7.154724121093750000e+01 -1.270941448211669922e+01 -4.063492119312286377e-01 9.979613304138183594e+00 2.871979236602783203e+00 2.614411711692810059e-01
1.607000000000000000e+03 7.577941131591796875e+01 -1.391062259674072266e+01 2.158170938491821289e-01 8.039217948913574219e+00 2.476510524749755859e+00 7.966551184654235840e-01
1.608000000000000000e+03 7.556906890869140625e+01 -1.268301105499267578e+01 -2.929983846843242645e-02 8.254182815551757812e+00 2.467464685440063477e+00 9.268040060997009277e-01
1.609000000000000000e+03 7.676399993896484375e+01 -1.241350173950195312e+01 -3.022889047861099243e-02 7.789797306060791016e+00 2.327870607376098633e+00 7.757116556167602539e-01
1.610000000000000000e+03 7.691039276123046875e+01 -6.795310974121093750e+00 -2.752209901809692383e-01 7.924020290374755859e+00 2.294639825820922852e+00 5.204002931714057922e-02
1.611000000000000000e+03 7.571753692626953125e+01 -6.837600708007812500e+00 -4.175290465354919434e-01 7.905081748962402344e+00 2.246265888214111328e+00 1.210361253470182419e-03
1.612000000000000000e+03 7.554178619384765625e+01 -4.148076534271240234e+00 -2.943220138549804688e-01 7.643962860107421875e+00 2.204892158508300781e+00 -3.754527866840362549e-01
1.613000000000000000e+03 7.552437591552734375e+01 -2.743610382080078125e+00 -2.299082577228546143e-01 7.502339839935302734e+00 2.181729555130004883e+00 -4.945825934410095215e-01
1.614000000000000000e+03 7.559494018554687500e+01 -5.529142379760742188e+00 -3.966436982154846191e-01 7.819865703582763672e+00 2.226966619491577148e+00 -2.050425112247467041e-01
1.615000000000000000e+03 7.677350616455078125e+01 1.503430724143981934e+00 -7.217684760689735413e-03 7.135870933532714844e+00 2.138596057891845703e+00 -4.828639030456542969e-01
1.616000000000000000e+03 7.549817657470703125e+01 1.485995292663574219e+00 2.128046751022338867e-02 7.085093975067138672e+00 2.131912231445312500e+00 -6.185683608055114746e-01
1.617000000000000000e+03 7.543386840820312500e+01 7.296283721923828125e+00 1.916048675775527954e-01 6.730104446411132812e+00 2.076512813568115234e+00 -3.686867058277130127e-01
1.618000000000000000e+03 7.420775604248046875e+01 2.857451677322387695e+00 1.130940690636634827e-01 6.951133251190185547e+00 2.119268178939819336e+00 -6.733306646347045898e-01
1.619000000000000000e+03 7.548203277587890625e+01 2.898097276687622070e+00 5.674007162451744080e-02 6.978696823120117188e+00 2.110630989074707031e+00 -5.779144167900085449e-01
1.620000000000000000e+03 7.580266571044921875e+01 -1.921672058105468750e+01 7.879132032394409180e-01 8.052845954895019531e+00 2.652227878570556641e+00 -4.417685866355895996e-01
1.621000000000000000e+03 7.712224578857421875e+01 -1.763977050781250000e+01 5.058273673057556152e-01 7.202674388885498047e+00 2.312550544738769531e+00 4.998257383704185486e-02
1.622000000000000000e+03 7.453869628906250000e+01 -1.983407402038574219e+01 1.124228358268737793e+00 8.817323684692382812e+00 2.982465744018554688e+00 -6.950473785400390625e-01
1.623000000000000000e+03 7.674236297607421875e+01 -2.117827987670898438e+01 3.657599389553070068e-01 7.730511665344238281e+00 2.428881406784057617e+00 -8.747186064720153809e-01
1.624000000000000000e+03 7.674504852294921875e+01 8.638466835021972656e+00 1.224535256624221802e-01 6.556799411773681641e+00 2.003775835037231445e+00 -2.198076248168945312e-01
1.625000000000000000e+03 7.552365875244140625e+01 1.017603492736816406e+01 2.306987643241882324e-01 6.651916503906250000e+00 2.064784526824951172e+00 -1.311423778533935547e-01
1.626000000000000000e+03 7.193107604980468750e+01 3.297577667236328125e+01 -2.042279690504074097e-01 6.813098907470703125e+00 1.982661247253417969e+00 5.928213894367218018e-02
1.627000000000000000e+03 7.599792480468750000e+01 3.458801651000976562e+01 -8.141534030437469482e-02 7.582320213317871094e+00 2.250271558761596680e+00 7.264642417430877686e-02
1.628000000000000000e+03 7.551149749755859375e+01 1.156234645843505859e+01 2.402297109365463257e-01 6.643571376800537109e+00 2.065140485763549805e+00 -7.391420658677816391e-03
1.629000000000000000e+03 7.434053039550781250e+01 1.028154659271240234e+01 3.299389779567718506e-01 6.753477096557617188e+00 2.125024795532226562e+00 -1.241809502243995667e-01
1.630000000000000000e+03 7.511880493164062500e+01 -3.091511154174804688e+01 -4.681714177131652832e-01 8.744687080383300781e+00 2.482954740524291992e+00 -5.301445126533508301e-01
1.631000000000000000e+03 7.657532501220703125e+01 -2.853130340576171875e+01 -2.383014112710952759e-01 8.885675430297851562e+00 2.594212293624877930e+00 -8.338229060173034668e-01
1.632000000000000000e+03 7.542501068115234375e+01 -2.399132156372070312e+01 7.566965371370315552e-02 8.582836151123046875e+00 2.597551822662353516e+00 -1.311008095741271973e+00
1.633000000000000000e+03 7.674600219726562500e+01 1.694708061218261719e+01 9.927519410848617554e-02 6.698077201843261719e+00 2.039205789566040039e+00 3.510951697826385498e-01
1.634000000000000000e+03 7.549890136718750000e+01 1.842163085937500000e+01 1.187758296728134155e-01 6.896828651428222656e+00 2.104681491851806641e+00 5.015646219253540039e-01
1.635000000000000000e+03 7.554047393798828125e+01 2.107948684692382812e+01 4.903356544673442841e-03 7.089114189147949219e+00 2.128205299377441406e+00 5.658898353576660156e-01
1.636000000000000000e+03 7.557433319091796875e+01 1.976471138000488281e+01 6.587009131908416748e-02 6.992131710052490234e+00 2.117400407791137695e+00 5.487284660339355469e-01
1.637000000000000000e+03 7.413127899169921875e+01 1.714893913269042969e+01 2.421850711107254028e-01 6.930913925170898438e+00 2.151929616928100586e+00 5.140259861946105957e-01
1.638000000000000000e+03 7.520590209960937500e+01 -2.680218696594238281e+01 -3.690224289894104004e-01 8.762619018554687500e+00 2.518079042434692383e+00 -1.137119770050048828e+00
1.639000000000000000e+03 7.418730163574218750e+01 -2.382517242431640625e+01 9.366918355226516724e-02 9.009825706481933594e+00 2.731048345565795898e+00 -1.363686203956604004e+00
1.640000000000000000e+03 7.470892333984375000e+01 2.516022109985351562e+01 -1.498343944549560547e-01 7.293209075927734375e+00 2.143012285232543945e+00 4.977947473526000977e-01
1.641000000000000000e+03 7.727392578125000000e+01 2.613207054138183594e+01 -5.547828972339630127e-02 7.534357070922851562e+00 2.243663549423217773e+00 3.121148645877838135e-01
1.642000000000000000e+03 7.395672607421875000e+01 2.349644851684570312e+01 -1.510818302631378174e-01 7.217180728912353516e+00 2.119829654693603516e+00 5.945159792900085449e-01
1.643000000000000000e+03 7.542307281494140625e+01 2.711178398132324219e+01 -1.471326798200607300e-01 7.412139415740966797e+00 2.179502010345458984e+00 3.659936785697937012e-01
1.644000000000000000e+03 7.628261566162109375e+01 3.042165565490722656e+01 -8.127171546220779419e-02 7.623244762420654297e+00 2.262591838836669922e+00 1.776095926761627197e-01
1.645000000000000000e+03 7.493950653076171875e+01 2.982800674438476562e+01 -1.572623401880264282e-01 7.393038749694824219e+00 2.170732975006103516e+00 2.280196398496627808e-01
1.646000000000000000e+03 7.519960021972656250e+01 2.854605865478515625e+01 -1.583668589591979980e-01 7.415049076080322266e+00 2.177004575729370117e+00 3.056188821792602539e-01
1.647000000000000000e+03 7.577210998535156250e+01 -3.652368927001953125e+01 -2.023198455572128296e-01 8.816023826599121094e+00 2.584111213684082031e+00 -6.821016222238540649e-02
1.648000000000000000e+03 7.529957580566406250e+01 -2.973613929748535156e+01 -4.597032368183135986e-01 8.823557853698730469e+00 2.509156465530395508e+00 -7.159074544906616211e-01
1.649000000000000000e+03 7.440052032470703125e+01 3.363454055786132812e+01 -9.748722612857818604e-02 7.317656517028808594e+00 2.166050910949707031e+00 9.072635322809219360e-02
1.650000000000000000e+03 6.057385253906250000e+01 -9.027093648910522461e-01 1.335092544555664062e+00 3.828263282775878906e+00 1.549006700515747070e+00 1.352906107902526855e+00
1.651000000000000000e+03 6.211941528320312500e+01 1.485696315765380859e+00 9.694108963012695312e-01 5.311540603637695312e+00 1.884285449981689453e+00 1.119786262512207031e+00
1.652000000000000000e+03 4.165748214721679688e+01 -2.106383705139160156e+01 2.059453248977661133e+00 9.689627647399902344e+00 3.524724006652832031e+00 -1.426211953163146973e+00
1.653000000000000000e+03 4.132882595062255859e+00 -1.576401615142822266e+01 3.261858820915222168e-01 1.231062531471252441e+00 4.671745300292968750e-01 2.723128795623779297e-01
1.654000000000000000e+03 3.346874713897705078e+00 2.002827453613281250e+01 1.408554762601852417e-01 1.395609736442565918e+00 4.609395563602447510e-01 -1.076688408851623535e+00
1.655000000000000000e+03 4.918671131134033203e+00 2.152654075622558594e+01 9.002897888422012329e-02 2.674969911575317383e+00 8.294996619224548340e-01 -1.422436714172363281e+00
1.656000000000000000e+03 4.179174900054931641e+00 -1.714490699768066406e+01 4.008846879005432129e-01 1.376145720481872559e+00 5.331091284751892090e-01 4.698983430862426758e-01
1.657000000000000000e+03 4.326380729675292969e+00 -2.132891654968261719e+01 2.945116162300109863e-01 1.959293127059936523e+00 6.761414408683776855e-01 1.119512438774108887e+00
1.658000000000000000e+03 6.112178802490234375e+00 2.583738899230957031e+01 -4.840379953384399414e-01 3.676226377487182617e+00 9.576565027236938477e-01 -1.282253384590148926e+00
1.659000000000000000e+03 4.848875999450683594e+00 2.971165657043457031e+01 -3.054578006267547607e-01 3.462425947189331055e+00 9.470904469490051270e-01 -7.534387111663818359e-01
1.660000000000000000e+03 4.941084384918212891e+00 -2.800888633728027344e+01 -2.387115508317947388e-01 3.236723423004150391e+00 8.994035720825195312e-01 1.218659043312072754e+00
1.661000000000000000e+03 3.139718294143676758e+00 -2.288679122924804688e+01 1.052749082446098328e-01 1.565113306045532227e+00 5.011164546012878418e-01 1.009457468986511230e+00
1.662000000000000000e+03 4.375221729278564453e+00 -2.270619583129882812e+01 1.714434921741485596e-01 2.243071317672729492e+00 7.243544459342956543e-01 1.244232654571533203e+00
1.663000000000000000e+03 4.110946655273437500e+00 1.709197425842285156e+01 3.847650289535522461e-01 1.423002123832702637e+00 5.423301458358764648e-01 -8.867914676666259766e-01
1.664000000000000000e+03 4.234065532684326172e+00 1.836421394348144531e+01 3.263055980205535889e-01 1.657177329063415527e+00 5.950449109077453613e-01 -1.048146128654479980e+00
1.665000000000000000e+03 3.111164569854736328e+00 1.861684989929199219e+01 1.868820339441299438e-01 9.218803048133850098e-01 3.326286971569061279e-01 -9.223186373710632324e-01
1.666000000000000000e+03 4.486621379852294922e+00 1.958831596374511719e+01 2.544532120227813721e-01 2.122867345809936523e+00 7.131962180137634277e-01 -1.280142545700073242e+00
1.667000000000000000e+03 2.988967895507812500e+00 1.447834396362304688e+01 2.425993382930755615e-01 1.595233231782913208e-01 1.206367984414100647e-01 -3.482834994792938232e-01
1.668000000000000000e+03 9.195542335510253906e+00 -1.669782447814941406e+01 1.245276927947998047e+00 5.350539684295654297e+00 1.978744983673095703e+00 5.423108339309692383e-01
1.669000000000000000e+03 4.219573497772216797e+00 -1.854257392883300781e+01 4.054245352745056152e-01 1.541326642036437988e+00 5.840253829956054688e-01 7.162088751792907715e-01
1.670000000000000000e+03 4.175441265106201172e+00 1.439392948150634766e+01 3.891886174678802490e-01 1.212286233901977539e+00 4.804424345493316650e-01 -4.489591717720031738e-01
1.671000000000000000e+03 3.262313365936279297e+00 2.608284950256347656e+01 -1.586845964193344116e-01 2.733163356781005859e+00 7.723436355590820312e-01 -9.557643532752990723e-01
1.672000000000000000e+03 4.843727111816406250e+00 2.505154228210449219e+01 -2.415629625320434570e-01 3.133744239807128906e+00 8.676543831825256348e-01 -1.283884882926940918e+00
1.673000000000000000e+03 5.491172313690185547e+00 2.392972755432128906e+01 -2.734602093696594238e-01 3.264520406723022461e+00 8.973180651664733887e-01 -1.457457661628723145e+00
1.674000000000000000e+03 5.702240467071533203e+00 -2.512847709655761719e+01 -7.183273136615753174e-02 3.247464418411254883e+00 9.526895284652709961e-01 1.474283099174499512e+00
1.675000000000000000e+03 4.421819686889648438e+00 -2.405257225036621094e+01 7.229240983724594116e-02 2.471794128417968750e+00 7.632259726524353027e-01 1.302642822265625000e+00
1.676000000000000000e+03 3.187976121902465820e+00 -2.426658248901367188e+01 2.539738826453685760e-02 1.922297120094299316e+00 5.843083262443542480e-01 1.068501114845275879e+00
1.677000000000000000e+03 3.957062005996704102e+00 -1.041851997375488281e+01 6.424481421709060669e-02 8.736042380332946777e-01 2.813547253608703613e-01 -4.922185838222503662e-02
1.678000000000000000e+03 4.036450862884521484e+00 -1.445042991638183594e+01 2.684461474418640137e-01 1.116404294967651367e+00 4.154551327228546143e-01 9.138104319572448730e-02
1.679000000000000000e+03 3.809818983078002930e+00 -2.974921989440917969e+01 -1.943387389183044434e-01 3.177031517028808594e+00 8.948078155517578125e-01 9.282891154289245605e-01
1.680000000000000000e+03 5.225487232208251953e+00 -2.929436683654785156e+01 -3.108303844928741455e-01 3.425316572189331055e+00 9.343459010124206543e-01 1.130399584770202637e+00
1.681000000000000000e+03 4.608973979949951172e+00 2.845621871948242188e+01 -3.074263632297515869e-01 3.313280582427978516e+00 9.017562270164489746e-01 -8.757862448692321777e-01
1.682000000000000000e+03 5.998917102813720703e+00 3.647979736328125000e+01 -1.812927126884460449e-01 3.602849483489990234e+00 1.026467084884643555e+00 -2.458432018756866455e-01
1.683000000000000000e+03 4.016518115997314453e+00 1.140121936798095703e+01 3.013864159584045410e-01 8.724064230918884277e-01 3.521378338336944580e-01 -3.179212659597396851e-02
1.684000000000000000e+03 3.964151859283447266e+00 -1.181510543823242188e+01 4.481063783168792725e-02 9.481269717216491699e-01 2.978812754154205322e-01 -3.636023774743080139e-02
1.685000000000000000e+03 7.715890884399414062e+00 -3.112840080261230469e+01 -6.369453072547912598e-01 3.898086547851562500e+00 9.783423542976379395e-01 9.208764433860778809e-01
1.686000000000000000e+03 5.641625404357910156e+00 -3.060464477539062500e+01 -4.018150866031646729e-01 3.615550279617309570e+00 9.641205668449401855e-01 1.005924940109252930e+00
1.687000000000000000e+03 4.158524036407470703e+00 -3.116680526733398438e+01 -2.364134192466735840e-01 3.400419712066650391e+00 9.492019414901733398e-01 8.341105580329895020e-01
1.688000000000000000e+03 3.715321540832519531e+00 8.940726280212402344e+00 2.044709175825119019e-01 3.822852373123168945e-01 1.760268509387969971e-01 1.972180753946304321e-01
1.689000000000000000e+03 5.195188522338867188e+00 3.526451873779296875e+01 -1.907024532556533813e-01 3.627914428710937500e+00 1.031163573265075684e+00 -2.601896524429321289e-01
1.690000000000000000e+03 4.177074909210205078e+00 3.321115112304687500e+01 -2.007839828729629517e-01 3.600955724716186523e+00 1.020051598548889160e+00 -4.109687209129333496e-01
1.691000000000000000e+03 5.634073734283447266e+00 4.870697975158691406e+00 3.267230689525604248e-01 8.152143955230712891e-01 3.425812423229217529e-01 1.354771107435226440e-01
1.692000000000000000e+03 3.005203485488891602e+00 -5.216687679290771484e+00 1.288683563470840454e-01 -5.969260632991790771e-02 2.075272612273693085e-02 -3.067294061183929443e-01
1.693000000000000000e+03 2.365826129913330078e+00 -6.387201786041259766e+00 7.925780862569808960e-02 -2.666779458522796631e-01 -5.622604116797447205e-02 -2.441396862268447876e-01
1.694000000000000000e+03 2.268814802169799805e+00 -5.180622100830078125e+00 7.470628619194030762e-02 -3.007522821426391602e-01 -6.781379878520965576e-02 -3.100787699222564697e-01
1.695000000000000000e+03 1.946459960937500000e+01 -9.113334655761718750e+00 -6.323387026786804199e-01 1.486057758331298828e+00 2.561157345771789551e-01 3.049310147762298584e-01
1.696000000000000000e+03 1.842201423645019531e+01 -9.596630096435546875e+00 -1.068752288818359375e+00 2.637498140335083008e+00 4.706237316131591797e-01 1.061763167381286621e+00
1.697000000000000000e+03 2.883434867858886719e+01 -5.689136981964111328e+00 1.255418539047241211e+00 5.983929634094238281e-01 5.561434626579284668e-01 -6.156560182571411133e-01
1.698000000000000000e+03 3.521319580078125000e+01 2.338261365890502930e+00 3.023216009140014648e+00 1.191236305236816406e+01 4.480673789978027344e+00 1.533113598823547363e+00
1.699000000000000000e+03 5.772983551025390625e+01 -5.636047840118408203e+00 9.682386517524719238e-01 2.093155860900878906e+00 9.184183478355407715e-01 1.337329387664794922e+00
1.700000000000000000e+03 6.806529998779296875e+01 -2.848883438110351562e+01 -1.104329347610473633e+00 6.256534099578857422e+00 1.545661449432373047e+00 7.814745306968688965e-01
1.701000000000000000e+03 6.972776031494140625e+01 -2.818041801452636719e+01 -1.134649038314819336e+00 7.644652366638183594e+00 1.953000903129577637e+00 2.392337322235107422e-01
1.702000000000000000e+03 1.718212890625000000e+01 5.960849761962890625e+00 -1.878190398216247559e+00 5.571048259735107422e+00 1.107857465744018555e+00 -4.412783086299896240e-01
1.703000000000000000e+03 4.832952499389648438e+01 -8.800028800964355469e+00 4.295482039451599121e-01 8.796548843383789062e-01 3.927609324455261230e-01 2.066591024398803711e+00
1.704000000000000000e+03 4.830597305297851562e+01 -1.436910915374755859e+01 1.860803842544555664e+00 2.060063838958740234e+00 1.176260232925415039e+00 1.918492674827575684e+00
1.705000000000000000e+03 1.563526821136474609e+01 -2.785431861877441406e+01 -9.466427564620971680e-01 3.914816379547119141e+00 8.904521465301513672e-01 -5.753735303878784180e-01
1.706000000000000000e+03 1.320421314239501953e+01 -2.347797393798828125e+01 1.042841374874114990e-01 7.165052890777587891e+00 2.180801153182983398e+00 2.642517387866973877e-01
1.707000000000000000e+03 3.363167572021484375e+01 -6.996806144714355469e+00 -9.653132557868957520e-01 7.798490047454833984e+00 2.049952983856201172e+00 -2.023962974548339844e+00
1.708000000000000000e+03 2.605989074707031250e+01 -2.692466735839843750e+00 3.643989324569702148e+00 -6.932273507118225098e-01 8.852285742759704590e-01 2.596830427646636963e-01
1.709000000000000000e+03 6.479220581054687500e+01 -8.667069435119628906e+00 -4.705118834972381592e-01 2.554829835891723633e+00 6.252953410148620605e-01 -1.922509193420410156e+00
1.710000000000000000e+03 4.425109100341796875e+01 1.901100730895996094e+01 2.050271034240722656e-01 3.514264345169067383e+00 1.115787386894226074e+00 1.736558198928833008e+00
1.711000000000000000e+03 4.138478088378906250e+01 1.839854812622070312e+01 -1.702965982258319855e-02 5.290059566497802734e+00 1.581909060478210449e+00 1.614014506340026855e+00
1.712000000000000000e+03 3.606478500366210938e+01 8.553143501281738281e+00 1.263420104980468750e+00 1.191022109985351562e+01 3.952092170715332031e+00 3.505313694477081299e-01
1.713000000000000000e+03 3.679353713989257812e+01 1.030848217010498047e+01 1.227032780647277832e+00 1.122011566162109375e+01 3.734144449234008789e+00 2.189096510410308838e-01
1.714000000000000000e+03 3.660680007934570312e+01 5.277203395962715149e-02 1.503194689750671387e+00 1.084326553344726562e+01 3.703938007354736328e+00 -3.266809582710266113e-01
1.715000000000000000e+03 3.345181274414062500e+01 -1.060064554214477539e+00 2.026229143142700195e+00 8.395137786865234375e+00 3.126410007476806641e+00 1.370207071304321289e+00
1.716000000000000000e+03 3.135372734069824219e+01 -3.319244861602783203e+00 1.959832072257995605e+00 4.332579612731933594e+00 1.887723565101623535e+00 -5.226376652717590332e-02
1.717000000000000000e+03 3.181081199645996094e+01 -1.984421610832214355e+00 2.727360725402832031e+00 5.022119045257568359e+00 2.324843883514404297e+00 6.015424728393554688e-01
1.718000000000000000e+03 3.925524139404296875e+01 -1.809843826293945312e+01 1.922333836555480957e+00 9.975522041320800781e+00 3.569356918334960938e+00 -1.617636084556579590e+00
1.719000000000000000e+03 4.398768234252929688e+01 -1.902475547790527344e+01 2.008776187896728516e+00 9.499107360839843750e+00 3.452364921569824219e+00 -1.440064758062362671e-01
1.720000000000000000e+03 6.705130767822265625e+01 1.631918144226074219e+01 8.891910910606384277e-01 7.819843292236328125e+00 2.612710237503051758e+00 3.520946800708770752e-01
1.721000000000000000e+03 4.778262710571289062e+01 -1.318275642395019531e+01 1.429261565208435059e+00 2.685385227203369141e+00 1.234394073486328125e+00 1.990457177162170410e+00
1.722000000000000000e+03 4.547775268554687500e+01 -6.913611412048339844e+00 -7.364991903305053711e-01 9.602260589599609375e-01 6.711806356906890869e-02 3.109820187091827393e-01
1.723000000000000000e+03 4.312277221679687500e+01 -2.630144882202148438e+01 1.985190629959106445e+00 9.213837623596191406e+00 3.359708547592163086e+00 -1.399681568145751953e+00
1.724000000000000000e+03 2.688347434997558594e+01 -1.947701215744018555e+00 4.113090515136718750e+00 -3.826397657394409180e-01 1.119135260581970215e+00 1.678060889244079590e-01
1.725000000000000000e+03 1.231932067871093750e+01 -1.252036666870117188e+01 -6.267523765563964844e-01 7.822068691253662109e+00 2.158594846725463867e+00 4.506375491619110107e-01
1.726000000000000000e+03 5.455327606201171875e+01 -1.219327259063720703e+01 -5.233881473541259766e-01 6.371805667877197266e-01 3.413773700594902039e-02 1.236267447471618652e+00
1.727000000000000000e+03 5.270278930664062500e+01 -7.356446266174316406e+00 4.552302658557891846e-01 2.014176607131958008e+00 7.408220767974853516e-01 2.348190069198608398e+00
1.728000000000000000e+03 5.230286026000976562e+01 2.518816566467285156e+01 -4.810404181480407715e-01 1.054790496826171875e+00 1.721250265836715698e-01 7.817046046257019043e-01
1.729000000000000000e+03 4.896095275878906250e+01 -1.045346736907958984e+01 7.705172896385192871e-01 1.455945372581481934e+00 6.679387688636779785e-01 2.233262300491333008e+00
1.730000000000000000e+03 2.702972793579101562e+01 2.578733253479003906e+01 -8.032326102256774902e-01 1.783282041549682617e+00 2.940148413181304932e-01 -1.120844006538391113e+00
1.731000000000000000e+03 6.434088897705078125e+01 1.020519256591796875e+01 9.210240244865417480e-01 8.906320571899414062e+00 2.948203325271606445e+00 6.758528351783752441e-01
1.732000000000000000e+03 3.970816040039062500e+01 -2.072386550903320312e+01 1.952522635459899902e+00 9.663589477539062500e+00 3.484833478927612305e+00 -1.194836139678955078e+00
1.733000000000000000e+03 4.093175506591796875e+01 -2.017115592956542969e+01 2.030218124389648438e+00 9.482412338256835938e+00 3.453789234161376953e+00 -1.368175148963928223e+00
1.734000000000000000e+03 1.585379505157470703e+01 -3.036063766479492188e+01 -1.189216613769531250e+00 3.377270936965942383e+00 6.564162969589233398e-01 -5.067427158355712891e-01
1.735000000000000000e+03 2.494899559020996094e+01 -1.076804399490356445e+00 3.850150823593139648e+00 -1.191622495651245117e+00 7.975584864616394043e-01 6.607366353273391724e-02
1.736000000000000000e+03 2.753993606567382812e+01 -5.518465518951416016e+00 1.658859610557556152e+00 -3.750264644622802734e-01 3.851499557495117188e-01 -1.247057095170021057e-01
1.737000000000000000e+03 6.639950561523437500e+01 1.384593868255615234e+01 9.623972177505493164e-01 8.280557632446289062e+00 2.772886514663696289e+00 2.537235021591186523e-01
1.738000000000000000e+03 3.281704330444335938e+01 -5.854673862457275391e+00 -4.622639119625091553e-01 6.504728794097900391e+00 1.812739372253417969e+00 -1.788830041885375977e+00
1.739000000000000000e+03 1.312219429016113281e+01 -2.692393302917480469e+01 -9.782956242561340332e-01 5.188377857208251953e+00 1.263024568557739258e+00 2.055115401744842529e-01
1.740000000000000000e+03 5.578688430786132812e+01 -6.642998695373535156e+00 7.076027989387512207e-01 2.010135173797607422e+00 8.153213858604431152e-01 1.679498434066772461e+00
1.741000000000000000e+03 7.068292999267578125e+01 9.780840873718261719e+00 7.069256305694580078e-01 7.091134071350097656e+00 2.339417934417724609e+00 -1.220386102795600891e-01
1.742000000000000000e+03 1.084836673736572266e+01 -1.722442436218261719e+01 1.595826745033264160e+00 7.070318698883056641e+00 2.599843740463256836e+00 7.653673291206359863e-01
1.743000000000000000e+03 5.373944854736328125e+01 2.393684768676757812e+01 -9.631003737449645996e-01 4.742316901683807373e-01 -1.466605961322784424e-01 3.978038728237152100e-01
1.744000000000000000e+03 1.783549880981445312e+01 -3.245331573486328125e+01 -9.932807087898254395e-01 2.435317039489746094e+00 4.326108694076538086e-01 -5.848941206932067871e-01
1.745000000000000000e+03 1.804836463928222656e+01 2.702447509765625000e+01 -6.701133847236633301e-01 2.279695749282836914e+00 4.828746914863586426e-01 1.096827983856201172e+00
1.746000000000000000e+03 1.767093849182128906e+01 2.593088531494140625e+01 -9.879382848739624023e-01 2.455934047698974609e+00 4.403987228870391846e-01 1.277783155441284180e+00
1.747000000000000000e+03 6.032690811157226562e+01 -9.002597808837890625e+00 -4.560907483100891113e-01 1.168315768241882324e+00 2.136674970388412476e-01 5.136224031448364258e-01
1.748000000000000000e+03 5.835185241699218750e+01 -4.414605140686035156e+00 1.351614713668823242e+00 2.347821235656738281e+00 1.109830856323242188e+00 1.294589996337890625e+00
1.749000000000000000e+03 3.899737930297851562e+01 -1.539175415039062500e+01 1.979292273521423340e+00 9.719019889831542969e+00 3.509493827819824219e+00 -1.978106260299682617e+00
1.750000000000000000e+03 1.821422004699707031e+01 -7.464145660400390625e+00 -2.107714265584945679e-01 3.877474784851074219e+00 1.100010991096496582e+00 3.792207539081573486e-01
1.751000000000000000e+03 5.371035003662109375e+01 2.503661918640136719e+01 -4.919415116310119629e-01 7.331226468086242676e-01 7.235433906316757202e-02 4.528246223926544189e-01
1.752000000000000000e+03 2.936236000061035156e+01 2.533895492553710938e+01 -1.092834115028381348e+00 3.046509027481079102e+00 5.861024856567382812e-01 -1.244192957878112793e+00
1.753000000000000000e+03 2.600251960754394531e+01 2.702445030212402344e+01 -5.839755535125732422e-01 1.562229752540588379e+00 2.934762537479400635e-01 -9.455497264862060547e-01
1.754000000000000000e+03 3.342936706542968750e+01 2.013150787353515625e+01 -1.572230160236358643e-01 5.774246215820312500e+00 1.685106992721557617e+00 -6.699668169021606445e-01
1.755000000000000000e+03 3.496116638183593750e+01 2.061174201965332031e+01 -4.391980171203613281e-01 5.856820106506347656e+00 1.625286698341369629e+00 -2.019080370664596558e-01
1.756000000000000000e+03 3.496050262451171875e+01 1.411214923858642578e+01 5.893491506576538086e-01 8.468820571899414062e+00 2.717450857162475586e+00 -1.147691965103149414e+00
1.757000000000000000e+03 3.885280990600585938e+01 -1.396705722808837891e+01 1.776903390884399414e+00 9.343406677246093750e+00 3.336092948913574219e+00 -1.909055590629577637e+00
1.758000000000000000e+03 4.774243164062500000e+01 -3.039162635803222656e+01 2.517044842243194580e-01 5.500897407531738281e+00 1.725780487060546875e+00 -2.544840574264526367e+00
1.759000000000000000e+03 4.199622344970703125e+01 -7.339666843414306641e+00 -9.204002022743225098e-01 4.965570449829101562e+00 1.213551163673400879e+00 -1.399886131286621094e+00
1.760000000000000000e+03 4.190614700317382812e+01 -1.052007865905761719e+01 3.327792882919311523e-01 6.117940902709960938e+00 1.935215950012207031e+00 -8.495832681655883789e-01
1.761000000000000000e+03 6.027275848388671875e+01 -3.735759019851684570e+00 1.200742363929748535e+00 2.842050790786743164e+00 1.212837934494018555e+00 8.928715586662292480e-01
1.762000000000000000e+03 2.270401382446289062e+01 -3.177220916748046875e+01 -1.102286815643310547e+00 2.828577756881713867e-01 -2.458287030458450317e-01 -4.287063777446746826e-01
1.763000000000000000e+03 3.646887969970703125e+01 1.297474956512451172e+01 6.963595151901245117e-01 9.350302696228027344e+00 3.013998746871948242e+00 -3.331773877143859863e-01
1.764000000000000000e+03 3.522069549560546875e+01 1.272455501556396484e+01 7.302445173263549805e-01 9.278496742248535156e+00 3.002622604370117188e+00 -9.575667381286621094e-01
1.765000000000000000e+03 1.213460063934326172e+01 2.225689506530761719e+01 -7.447887063026428223e-01 7.095275878906250000e+00 1.905146241188049316e+00 -7.869771718978881836e-01
1.766000000000000000e+03 4.755876541137695312e+01 -7.162216186523437500e+00 -4.219808876514434814e-01 2.486631125211715698e-01 -5.199532955884933472e-02 1.628005981445312500e+00
1.767000000000000000e+03 4.609240341186523438e+01 -9.334034919738769531e+00 4.676939845085144043e-01 2.141316413879394531e+00 7.827031016349792480e-01 9.746768474578857422e-01
1.768000000000000000e+03 6.522235870361328125e+01 8.410567283630371094e+00 1.006861329078674316e+00 8.006728172302246094e+00 2.704077005386352539e+00 4.874550402164459229e-01
1.769000000000000000e+03 6.370608520507812500e+01 4.050268650054931641e+00 8.842397332191467285e-01 6.729223251342773438e+00 2.284038782119750977e+00 7.282688021659851074e-01
1.770000000000000000e+03 6.435871887207031250e+01 5.465698719024658203e+00 9.641531705856323242e-01 7.175317287445068359e+00 2.441841125488281250e+00 6.469746232032775879e-01
1.771000000000000000e+03 3.884458923339843750e+01 -1.103770637512207031e+01 5.817582011222839355e-01 8.709669113159179688e+00 2.787428140640258789e+00 -1.513337492942810059e+00
1.772000000000000000e+03 3.875304031372070312e+01 -1.250834751129150391e+01 1.285090446472167969e+00 9.095283508300781250e+00 3.114112138748168945e+00 -1.691308617591857910e+00
1.773000000000000000e+03 6.309290695190429688e+01 -3.511631774902343750e+01 5.035236850380897522e-02 2.261860847473144531e+00 6.936639547348022461e-01 5.900331139564514160e-01
1.774000000000000000e+03 7.082395172119140625e+01 -2.125111961364746094e+01 1.454971313476562500e+00 1.171745491027832031e+01 3.951727867126464844e+00 -4.562286138534545898e-01
1.775000000000000000e+03 7.432593536376953125e+01 -1.774884796142578125e+01 1.329181075096130371e+00 8.977631568908691406e+00 3.092043876647949219e+00 -4.382506757974624634e-02
1.776000000000000000e+03 6.746627807617187500e+01 1.753777122497558594e+01 6.679987907409667969e-01 7.645256519317626953e+00 2.493976593017578125e+00 5.141997337341308594e-01
1.777000000000000000e+03 4.660405731201171875e+01 -1.365250396728515625e+01 1.316939234733581543e+00 3.913945913314819336e+00 1.569265604019165039e+00 1.479216217994689941e+00
1.778000000000000000e+03 3.457710266113281250e+01 1.297263741493225098e+00 2.845656394958496094e+00 1.117023086547851562e+01 4.204766273498535156e+00 1.345167517662048340e+00
1.779000000000000000e+03 2.293182754516601562e+01 2.770438003540039062e+01 -3.442375957965850830e-01 1.027087330818176270e+00 2.048549354076385498e-01 -1.432464122772216797e-01
1.780000000000000000e+03 7.520950317382812500e+01 -1.704066467285156250e+01 9.506678581237792969e-01 8.290788650512695312e+00 2.772436857223510742e+00 1.743658035993576050e-01
1.781000000000000000e+03 4.282506561279296875e+01 -1.922454071044921875e+01 1.872149348258972168e+00 9.517536163330078125e+00 3.416905641555786133e+00 -7.363114953041076660e-01
1.782000000000000000e+03 3.056109619140625000e+01 -3.568109512329101562e+01 -6.014965772628784180e-01 2.309920310974121094e+00 5.125271081924438477e-01 1.049772381782531738e+00
1.783000000000000000e+03 3.161758613586425781e+01 -3.111838340759277344e+01 -8.183386325836181641e-01 2.547845125198364258e+00 5.188519358634948730e-01 1.407418370246887207e+00
1.784000000000000000e+03 4.106563568115234375e+01 -2.381516265869140625e+01 1.953533887863159180e+00 9.072007179260253906e+00 3.307662248611450195e+00 -1.181597113609313965e+00
1.785000000000000000e+03 2.897203063964843750e+01 -4.638387203216552734e+00 2.026999473571777344e+00 1.046789765357971191e+00 9.221367835998535156e-01 -4.309577047824859619e-01
1.786000000000000000e+03 2.738803100585937500e+01 -3.363940429687500000e+01 -5.661588311195373535e-01 7.925471067428588867e-01 6.791647523641586304e-02 6.895970106124877930e-01
1.787000000000000000e+03 5.310612487792968750e+01 -3.544700241088867188e+01 -6.188266724348068237e-02 1.496186494827270508e+00 4.302911460399627686e-01 -1.183603286743164062e+00
1.788000000000000000e+03 6.519149780273437500e+01 -3.363980484008789062e+01 -4.206808209419250488e-01 3.420102834701538086e+00 8.998265862464904785e-01 7.868856787681579590e-01
1.789000000000000000e+03 4.714688110351562500e+01 2.691149520874023438e+01 -4.861578345298767090e-01 2.512163162231445312e+00 6.078016161918640137e-01 1.323758959770202637e+00
1.790000000000000000e+03 6.292313003540039062e+01 2.732454061508178711e+00 8.969044685363769531e-01 6.028789520263671875e+00 2.077708244323730469e+00 9.619580507278442383e-01
1.791000000000000000e+03 6.856830596923828125e+01 -3.053527259826660156e+01 -1.045973181724548340e+00 6.166328430175781250e+00 1.536106586456298828e+00 6.137087941169738770e-01
1.792000000000000000e+03 5.335763931274414062e+01 -9.992939949035644531e+00 -1.135667338967323303e-01 1.262640595436096191e+00 3.447221815586090088e-01 2.135506153106689453e+00
1.793000000000000000e+03 5.105881881713867188e+01 -8.169751167297363281e+00 2.491954118013381958e-01 1.137098431587219238e+00 4.158881306648254395e-01 2.827250719070434570e+00
1.794000000000000000e+03 3.694185256958007812e+01 -9.161599159240722656e+00 -6.881890892982482910e-01 9.564653396606445312e+00 2.662939310073852539e+00 -1.634864568710327148e+00
1.795000000000000000e+03 5.223106384277343750e+01 -3.432561111450195312e+01 -2.930572628974914551e-01 1.703379631042480469e+00 4.230967164039611816e-01 -1.638516187667846680e+00
1.796000000000000000e+03 3.527149200439453125e+01 -2.923732995986938477e+00 -2.409228682518005371e-01 9.507384300231933594e+00 2.779938459396362305e+00 -5.128875374794006348e-01
1.797000000000000000e+03 3.604510879516601562e+01 -2.757647895812988281e+01 1.377601772546768188e-01 6.342924594879150391e+00 1.944205403327941895e+00 1.097140073776245117e+00
1.798000000000000000e+03 3.900732803344726562e+01 -2.373149108886718750e+01 1.667742490768432617e+00 8.771355628967285156e+00 3.131729602813720703e+00 -5.829651355743408203e-01
1.799000000000000000e+03 3.988455581665039062e+01 -2.195751380920410156e+01 1.922411322593688965e+00 9.305264472961425781e+00 3.368302583694458008e+00 -1.158049345016479492e+00
1.800000000000000000e+03 2.017259979248046875e+01 2.766199111938476562e+01 -3.858759105205535889e-01 1.431152462959289551e+00 3.135829567909240723e-01 6.264590620994567871e-01
1.801000000000000000e+03 1.949421119689941406e+01 2.635193061828613281e+01 -7.214744687080383301e-01 1.332932829856872559e+00 1.834375113248825073e-01 8.373833298683166504e-01
1.802000000000000000e+03 3.748026275634765625e+01 1.462947940826416016e+01 4.559438228607177734e-01 8.329425811767578125e+00 2.635610818862915039e+00 3.365712165832519531e-01
1.803000000000000000e+03 3.430823135375976562e+01 1.702762222290039062e+01 4.142412245273590088e-01 7.003735065460205078e+00 2.225392818450927734e+00 -1.045966863632202148e+00
1.804000000000000000e+03 1.098385429382324219e+01 -1.459126663208007812e+01 9.261278510093688965e-01 6.876554965972900391e+00 2.340804815292358398e+00 1.857213079929351807e-01
1.805000000000000000e+03 1.034992694854736328e+01 -1.616954803466796875e+01 1.420680642127990723e+00 6.279148578643798828e+00 2.309948682785034180e+00 4.425868690013885498e-01
1.806000000000000000e+03 3.396012878417968750e+01 2.023091465234756470e-01 2.430537462234497070e+00 1.014649391174316406e+01 3.773109436035156250e+00 1.566207528114318848e+00
1.807000000000000000e+03 3.818179702758789062e+01 -2.509011507034301758e+00 -6.893724203109741211e-01 9.900279045104980469e+00 2.763272047042846680e+00 -1.156203031539916992e+00
1.808000000000000000e+03 5.231998825073242188e+01 -1.023516750335693359e+01 1.636509597301483154e-01 1.165824890136718750e+00 3.988427519798278809e-01 2.383674621582031250e+00
1.809000000000000000e+03 5.749673080444335938e+01 -9.748148918151855469e+00 -5.742905735969543457e-01 1.117124795913696289e+00 1.628502607345581055e-01 1.016329288482666016e+00
1.810000000000000000e+03 7.312433624267578125e+01 -2.512817192077636719e+01 -3.355166018009185791e-01 9.190710067749023438e+00 2.656557798385620117e+00 -1.197317957878112793e+00
1.811000000000000000e+03 7.156505584716796875e+01 -2.335721206665039062e+01 2.783927619457244873e-01 1.011412143707275391e+01 3.117754220962524414e+00 -9.352142214775085449e-01
1.812000000000000000e+03 5.398627090454101562e+01 2.768536186218261719e+01 2.493371255695819855e-02 1.430010437965393066e+00 4.364832341670989990e-01 3.759801387786865234e-01
1.813000000000000000e+03 1.392876434326171875e+01 2.460155296325683594e+01 -1.411126017570495605e+00 5.487232685089111328e+00 1.222832083702087402e+00 7.140915989875793457e-01
1.814000000000000000e+03 3.590995407104492188e+01 -3.190977668762207031e+01 -1.034386277198791504e+00 5.359471797943115234e+00 1.297525644302368164e+00 1.113562703132629395e+00
1.815000000000000000e+03 7.030012512207031250e+01 -1.001309108734130859e+01 -1.639151811599731445e+00 8.603941917419433594e+00 2.089437007904052734e+00 -8.410006761550903320e-01
1.816000000000000000e+03 6.856069183349609375e+01 -1.011614322662353516e+01 -1.804584145545959473e+00 7.577095508575439453e+00 1.731753468513488770e+00 -1.750825047492980957e+00
1.817000000000000000e+03 7.148706054687500000e+01 -1.454415512084960938e+01 1.114844202995300293e+00 1.079443931579589844e+01 3.572785139083862305e+00 3.902651667594909668e-01
1.818000000000000000e+03 7.254875183105468750e+01 -1.775839233398437500e+01 1.837050080299377441e+00 1.034901332855224609e+01 3.655818939208984375e+00 -2.237429171800613403e-01
1.819000000000000000e+03 6.996059417724609375e+01 -2.620028495788574219e+01 -8.851307034492492676e-01 8.624674797058105469e+00 2.321863174438476562e+00 5.135189369320869446e-02
1.820000000000000000e+03 7.094655609130859375e+01 -2.491605377197265625e+01 -4.764908552169799805e-01 9.444607734680175781e+00 2.690435171127319336e+00 -5.473523139953613281e-01
1.821000000000000000e+03 3.981460189819335938e+01 -2.705856513977050781e+01 7.197859883308410645e-01 7.975147724151611328e+00 2.608480215072631836e+00 -1.605606079101562500e-01
1.822000000000000000e+03 3.986814880371093750e+01 -2.490343475341796875e+01 1.619001865386962891e+00 8.599410057067871094e+00 3.065523624420166016e+00 -6.706579327583312988e-01
1.823000000000000000e+03 2.153880500793457031e+01 -3.257738876342773438e+01 -9.658222198486328125e-01 9.268400073051452637e-01 -1.169466599822044373e-02 -5.857498049736022949e-01
1.824000000000000000e+03 2.254922103881835938e+01 -3.441228103637695312e+01 -4.521068632602691650e-01 8.890901803970336914e-01 1.310949921607971191e-01 -3.739482760429382324e-01
1.825000000000000000e+03 7.080644989013671875e+01 -1.361894607543945312e+01 -1.263622492551803589e-01 1.050129413604736328e+01 3.112479686737060547e+00 5.845309421420097351e-02
1.826000000000000000e+03 7.493022155761718750e+01 -1.179441070556640625e+01 -3.210659623146057129e-01 8.491534233093261719e+00 2.451140403747558594e+00 8.451939225196838379e-01
1.827000000000000000e+03 4.072665405273437500e+01 -7.723563671112060547e+00 -1.141657233238220215e+00 6.700101375579833984e+00 1.667533159255981445e+00 -1.587060332298278809e+00
1.828000000000000000e+03 3.602311706542968750e+01 -9.102182388305664062e-01 1.061246871948242188e+00 1.005117321014404297e+01 3.333725929260253906e+00 -9.849549084901809692e-02
1.829000000000000000e+03 5.697763442993164062e+01 -1.179526233673095703e+01 -1.196960806846618652e+00 7.175489068031311035e-01 -1.438235789537429810e-01 6.563763618469238281e-01
1.830000000000000000e+03 6.612886810302734375e+01 1.803531837463378906e+01 7.509827017784118652e-01 7.846598148345947266e+00 2.579274177551269531e+00 3.037759661674499512e-01
1.831000000000000000e+03 4.292810058593750000e+01 -1.478202056884765625e+01 1.521165966987609863e+00 7.067450046539306641e+00 2.576584815979003906e+00 -4.981753826141357422e-01
1.832000000000000000e+03 5.068190765380859375e+01 -9.307005882263183594e+00 3.308579921722412109e-01 1.131080627441406250e+00 4.385815858840942383e-01 2.621728658676147461e+00
1.833000000000000000e+03 4.989244461059570312e+01 -7.906966686248779297e+00 1.342532932758331299e-01 7.522612214088439941e-01 2.659543454647064209e-01 2.588911294937133789e+00
1.834000000000000000e+03 1.283785247802734375e+01 2.350793838500976562e+00 4.153837859630584717e-01 1.253375625610351562e+01 3.884742021560668945e+00 -4.702065467834472656e+00
1.835000000000000000e+03 1.239356708526611328e+01 -2.342046499252319336e+00 1.478321075439453125e+00 9.495773315429687500e+00 3.292228460311889648e+00 4.773323535919189453e+00
1.836000000000000000e+03 1.036543178558349609e+01 -2.969979524612426758e+00 1.661347746849060059e+00 3.020403861999511719e+00 1.404525518417358398e+00 2.904879331588745117e+00
1.837000000000000000e+03 1.279847908020019531e+01 -2.199490070343017578e+00 1.118300914764404297e+00 1.183905410766601562e+01 3.887206315994262695e+00 4.322278499603271484e+00
1.838000000000000000e+03 1.335152053833007812e+01 -1.981673955917358398e+00 9.661267995834350586e-01 1.495806598663330078e+01 4.777257919311523438e+00 2.468331336975097656e+00
1.839000000000000000e+03 1.361592483520507812e+01 1.926485538482666016e+00 9.526941776275634766e-01 1.625090217590332031e+01 5.161078929901123047e+00 -1.963683485984802246e+00
1.840000000000000000e+03 1.315107154846191406e+01 2.808750152587890625e+00 -3.641129136085510254e-01 1.243199634552001953e+01 3.620364904403686523e+00 -3.657841920852661133e+00
1.841000000000000000e+03 1.430151271820068359e+01 1.735037684440612793e+00 2.624945402145385742e+00 1.516599845886230469e+01 5.337283134460449219e+00 5.505841374397277832e-01
1.842000000000000000e+03 1.471665859222412109e+01 -2.012426376342773438e+00 2.948141574859619141e+00 1.263648319244384766e+01 4.675387382507324219e+00 -1.853805780410766602e+00
1.843000000000000000e+03 1.613559532165527344e+01 -1.259545326232910156e+00 5.813457012176513672e+00 8.081815719604492188e+00 4.168581962585449219e+00 -2.274892330169677734e+00
1.844000000000000000e+03 1.405458450317382812e+01 1.790477633476257324e+00 1.955283164978027344e+00 1.613108444213867188e+01 5.425910472869873047e+00 -1.031060889363288879e-02
1.845000000000000000e+03 1.519155120849609375e+01 6.078789830207824707e-01 8.030218124389648438e+00 1.071009159088134766e+01 5.622093200683593750e+00 8.784185647964477539e-01
1.846000000000000000e+03 1.514666461944580078e+01 1.383259415626525879e+00 5.110741615295410156e+00 1.180792999267578125e+01 5.075601577758789062e+00 1.461172461509704590e+00
1.847000000000000000e+03 1.952651023864746094e+01 2.891359806060791016e+00 1.704205751419067383e+00 1.461445331573486328e+00 9.496953487396240234e-01 2.186194211244583130e-01
1.848000000000000000e+03 1.092642879486083984e+01 3.475778102874755859e+00 7.547246813774108887e-01 5.254903793334960938e+00 1.802888512611389160e+00 -3.696212530136108398e+00
1.849000000000000000e+03 9.399628639221191406e+00 -2.873732328414916992e+00 1.236036896705627441e+00 1.642043709754943848e+00 8.634241819381713867e-01 1.720117449760437012e+00
1.850000000000000000e+03 1.216192722320556641e+01 2.718930959701538086e+00 7.241764068603515625e-01 8.946811676025390625e+00 2.901296377182006836e+00 -5.024335861206054688e+00
1.851000000000000000e+03 9.388592720031738281e+00 -3.349665880203247070e+00 1.210603237152099609e+00 2.041440486907958984e+00 9.756131172180175781e-01 1.905828833580017090e+00
1.852000000000000000e+03 1.073485469818115234e+01 -2.868636608123779297e+00 1.780045390129089355e+00 3.589691400527954102e+00 1.610921025276184082e+00 3.299533843994140625e+00
1.853000000000000000e+03 8.328728675842285156e+00 -3.549416065216064453e+00 8.655373454093933105e-01 1.416824340820312500e+00 6.847085356712341309e-01 1.139806151390075684e+00
1.854000000000000000e+03 1.055161094665527344e+01 -3.524763822555541992e+00 1.232268691062927246e+00 3.924228906631469727e+00 1.546949267387390137e+00 3.051981449127197266e+00
1.855000000000000000e+03 1.073833274841308594e+01 2.808124065399169922e+00 1.340328574180603027e+00 4.153821945190429688e+00 1.648245215415954590e+00 -3.586518049240112305e+00
1.856000000000000000e+03 1.039328002929687500e+01 2.918700218200683594e+00 1.254313826560974121e+00 3.330414295196533203e+00 1.375418424606323242e+00 -3.054406881332397461e+00
1.857000000000000000e+03 4.048304557800292969e+00 -5.971751689910888672e+00 1.918650269508361816e-01 3.752956688404083252e-01 1.701482087373733521e-01 -1.767127811908721924e-01
1.858000000000000000e+03 7.046938419342041016e+00 4.535425662994384766e+00 4.407682716846466064e-01 1.480305671691894531e+00 5.763221979141235352e-01 -3.611146807670593262e-01
1.859000000000000000e+03 5.394133090972900391e+00 -5.281034469604492188e+00 3.071651756763458252e-01 8.663913607597351074e-01 3.520669639110565186e-01 8.392985910177230835e-02
1.860000000000000000e+03 6.048005580902099609e+00 -5.033209323883056641e+00 3.945553004741668701e-01 1.019784808158874512e+00 4.243020117282867432e-01 2.810689508914947510e-01
1.861000000000000000e+03 6.692850112915039062e+00 -4.798970222473144531e+00 4.921854436397552490e-01 1.199286341667175293e+00 5.074415206909179688e-01 4.839895963668823242e-01
1.862000000000000000e+03 9.295011520385742188e+00 -4.445805072784423828e+00 7.537752389907836914e-01 2.934228181838989258e+00 1.106401085853576660e+00 1.981569170951843262e+00
1.863000000000000000e+03 1.540421104431152344e+01 7.920214653015136719e+00 -1.976977825164794922e+00 8.157159805297851562e+00 1.854054570198059082e+00 -1.299550175666809082e+00
1.864000000000000000e+03 1.464463806152343750e+01 7.624830722808837891e+00 -2.049335956573486328e+00 8.703288078308105469e+00 1.996185660362243652e+00 -1.431679606437683105e+00
1.865000000000000000e+03 1.413961601257324219e+01 8.100583076477050781e+00 -1.844201087951660156e+00 8.981494903564453125e+00 2.141188144683837891e+00 -1.426065444946289062e+00
1.866000000000000000e+03 4.736331939697265625e+00 6.968306541442871094e+00 2.984332740306854248e-01 8.424394130706787109e-01 3.422617912292480469e-01 1.778265237808227539e-01
1.867000000000000000e+03 6.406564712524414062e+00 6.146559238433837891e+00 3.392576873302459717e-01 1.720737814903259277e+00 6.179986596107482910e-01 -1.962955296039581299e-01
1.868000000000000000e+03 4.768287181854248047e+00 6.176335811614990234e+00 2.806976437568664551e-01 7.350596785545349121e-01 3.047271966934204102e-01 2.489452213048934937e-01
1.869000000000000000e+03 4.653143882751464844e+00 4.487122058868408203e+00 1.838092803955078125e-01 3.505651354789733887e-01 1.603123247623443604e-01 4.105866551399230957e-01
1.870000000000000000e+03 8.159220695495605469e+00 3.633883476257324219e+00 6.290438175201416016e-01 1.578928947448730469e+00 6.623918414115905762e-01 -9.694437384605407715e-01
1.871000000000000000e+03 6.372806072235107422e+00 4.764528274536132812e+00 3.812474906444549561e-01 1.138165354728698730e+00 4.558238685131072998e-01 -1.036489382386207581e-01
1.872000000000000000e+03 2.155153656005859375e+01 6.000852584838867188e-02 3.813816785812377930e+00 -5.509062409400939941e-01 9.788731336593627930e-01 -3.335952758789062500e-01
1.873000000000000000e+03 2.241883087158203125e+01 2.688592970371246338e-01 3.488750696182250977e+00 -1.201448678970336914e+00 6.861906051635742188e-01 -1.566251814365386963e-01
1.874000000000000000e+03 3.774895668029785156e+00 6.822176456451416016e+00 2.116109579801559448e-01 2.835689485073089600e-01 1.485539823770523071e-01 3.596720397472381592e-01
1.875000000000000000e+03 1.324584197998046875e+01 1.191237831115722656e+01 1.030649304389953613e+00 1.006712150573730469e+01 3.329331159591674805e+00 -1.067496895790100098e+00
1.876000000000000000e+03 1.277719402313232422e+01 1.051337623596191406e+01 -5.840729176998138428e-02 9.068385124206542969e+00 2.702993392944335938e+00 -7.551112771034240723e-01
1.877000000000000000e+03 2.294504928588867188e+01 -6.244321823120117188e+00 1.356347918510437012e+00 -3.677899762988090515e-02 3.958706855773925781e-01 -3.330754041671752930e-01
1.878000000000000000e+03 2.344603919982910156e+01 -6.019442081451416016e-01 3.942853212356567383e+00 -1.306568741798400879e+00 7.908853292465209961e-01 -9.838676452636718750e-02
1.879000000000000000e+03 9.812846183776855469e+00 -3.442322969436645508e+00 1.264239192008972168e+00 2.647507190704345703e+00 1.173523902893066406e+00 2.339322566986083984e+00
1.880000000000000000e+03 8.116639137268066406e+00 5.877842903137207031e+00 3.096204698085784912e-01 3.064991474151611328e+00 1.012383580207824707e+00 -1.018849492073059082e+00
1.881000000000000000e+03 2.498874664306640625e+01 -5.918602466583251953e+00 1.399670362472534180e+00 -5.452383756637573242e-01 2.563295960426330566e-01 -5.374908447265625000e-02
1.882000000000000000e+03 2.620905876159667969e+01 -5.587088108062744141e+00 1.592579126358032227e+00 -6.479721665382385254e-01 2.833820879459381104e-01 5.227573215961456299e-02
1.883000000000000000e+03 9.493562698364257812e+00 3.830915212631225586e+00 7.518513202667236328e-01 3.132763862609863281e+00 1.165384531021118164e+00 -2.125216960906982422e+00
1.884000000000000000e+03 8.237278938293457031e+00 4.196080207824707031e+00 5.729752182960510254e-01 2.116579055786132812e+00 8.068662881851196289e-01 -1.097395539283752441e+00
1.885000000000000000e+03 1.729432868957519531e+01 -9.902891159057617188e+00 -1.442828536033630371e+00 4.181998252868652344e+00 8.217508792877197266e-01 1.524527072906494141e+00
1.886000000000000000e+03 1.496812629699707031e+01 -1.072948074340820312e+01 -1.821611046791076660e+00 7.466177940368652344e+00 1.693370103836059570e+00 1.883403420448303223e+00
1.887000000000000000e+03 1.706079292297363281e+01 -8.948948860168457031e+00 -1.264251708984375000e+00 4.779760360717773438e+00 1.054652571678161621e+00 1.357927441596984863e+00
1.888000000000000000e+03 1.876430892944335938e+01 -8.234129905700683594e+00 -3.687151670455932617e-01 2.963815212249755859e+00 7.785300016403198242e-01 5.403891205787658691e-01
1.889000000000000000e+03 8.810927391052246094e+00 1.717789077758789062e+01 1.214827537536621094e+00 5.167478084564208984e+00 1.914691686630249023e+00 -1.158308029174804688e+00
1.890000000000000000e+03 8.236563682556152344e+00 1.460886383056640625e+01 1.097783565521240234e+00 4.742862224578857422e+00 1.752193808555603027e+00 -7.257764935493469238e-01
1.891000000000000000e+03 1.641590499877929688e+01 6.273228168487548828e+00 -2.102767705917358398e+00 6.738908767700195312e+00 1.390842318534851074e+00 -7.777707576751708984e-01
1.892000000000000000e+03 1.562022876739501953e+01 1.538616538047790527e+00 4.732661724090576172e+00 9.865422248840332031e+00 4.379425048828125000e+00 1.213033080101013184e+00
1.893000000000000000e+03 4.356808090209960938e+01 -1.174497509002685547e+01 8.813157677650451660e-01 5.265565872192382812e+00 1.844064474105834961e+00 -7.640549540519714355e-02
1.894000000000000000e+03 1.015954113006591797e+01 1.964668655395507812e+01 9.031395912170410156e-01 6.046650886535644531e+00 2.084937095642089844e+00 -1.498291373252868652e+00
1.895000000000000000e+03 1.816477584838867188e+01 4.440187931060791016e+00 -3.428844213485717773e-01 3.689372777938842773e+00 1.003946542739868164e+00 9.025897085666656494e-02
1.896000000000000000e+03 2.204561233520507812e+01 -6.088625431060791016e+00 1.501971483230590820e+00 3.647787272930145264e-01 5.600250959396362305e-01 -4.492228627204895020e-01
1.897000000000000000e+03 1.035735225677490234e+01 1.658971977233886719e+01 1.544039487838745117e+00 6.772037029266357422e+00 2.494822978973388672e+00 -8.701468706130981445e-01
1.898000000000000000e+03 1.133399486541748047e+01 1.413054466247558594e+01 1.563615202903747559e+00 8.135236740112304688e+00 2.909655570983886719e+00 -9.401660561561584473e-01
1.899000000000000000e+03 2.760204553604125977e+00 6.497811794281005859e+00 1.325172483921051025e-01 -3.218141794204711914e-01 -5.678907781839370728e-02 4.151491820812225342e-01
1.900000000000000000e+03 1.875250244140625000e+01 3.344886064529418945e+00 1.287857890129089355e+00 2.857415437698364258e+00 1.243582010269165039e+00 3.156369924545288086e-01
1.901000000000000000e+03 2.947847747802734375e+01 -3.776407480239868164e+00 2.476867914199829102e+00 1.936529636383056641e+00 1.324019312858581543e+00 -8.555888384580612183e-02
1.902000000000000000e+03 3.995110702514648438e+01 1.552715873718261719e+01 5.592066645622253418e-01 6.999003887176513672e+00 2.267463207244873047e+00 1.580114483833312988e+00
1.903000000000000000e+03 1.291640853881835938e+01 -1.069395446777343750e+01 -1.517616271972656250e+00 7.756672859191894531e+00 1.871716976165771484e+00 1.141868710517883301e+00
1.904000000000000000e+03 6.265236377716064453e+00 -1.070936203002929688e+01 -2.572038769721984863e-02 2.662413120269775391e+00 7.910078763961791992e-01 1.548948138952255249e-01
1.905000000000000000e+03 5.363240242004394531e+00 -1.698902702331542969e+01 6.132988333702087402e-01 2.254054546356201172e+00 8.602060079574584961e-01 5.381645560264587402e-01
1.906000000000000000e+03 1.044082641601562500e+01 -2.004198646545410156e+01 1.434605360031127930e+00 6.429694175720214844e+00 2.359289884567260742e+00 1.133275389671325684e+00
1.907000000000000000e+03 3.504969787597656250e+01 -3.886750936508178711e-01 1.652048707008361816e+00 9.968384742736816406e+00 3.486129999160766602e+00 3.924169838428497314e-01
1.908000000000000000e+03 2.054236984252929688e+01 5.405078530311584473e-01 3.854270458221435547e+00 2.815655469894409180e-01 1.240750789642333984e+00 -3.685506880283355713e-01
1.909000000000000000e+03 2.910408020019531250e+01 -2.308019876480102539e+00 3.607493638992309570e+00 1.535994768142700195e+00 1.543046593666076660e+00 4.519272446632385254e-01
1.910000000000000000e+03 2.822750473022460938e+01 -1.892439603805541992e+00 4.442524433135986328e+00 4.183871746063232422e-01 1.458273410797119141e+00 3.083608150482177734e-01
1.911000000000000000e+03 3.874726104736328125e+01 1.497527885437011719e+01 5.508821010589599609e-01 7.810929775238037109e+00 2.508543491363525391e+00 1.077092170715332031e+00
1.912000000000000000e+03 1.164293289184570312e+01 1.242369842529296875e+01 1.001010417938232422e+00 8.379179954528808594e+00 2.814057111740112305e+00 -6.529234051704406738e-01
1.913000000000000000e+03 1.183321666717529297e+01 1.490466976165771484e+01 1.736139655113220215e+00 9.005684852600097656e+00 3.222547292709350586e+00 -8.298612236976623535e-01
1.914000000000000000e+03 2.546327590942382812e+01 -1.820817589759826660e+00 4.001008033752441406e+00 -1.078371644020080566e+00 8.767909407615661621e-01 2.020326703786849976e-01
1.915000000000000000e+03 2.210667419433593750e+01 -3.092511892318725586e+00 3.647911310195922852e+00 -2.417151927947998047e-01 1.021858811378479004e+00 -4.610348045825958252e-01
1.916000000000000000e+03 3.810417556762695312e+01 -8.012328147888183594e+00 -1.287135958671569824e+00 9.043042182922363281e+00 2.326771736145019531e+00 -1.607400655746459961e+00
1.917000000000000000e+03 7.391763305664062500e+01 2.892882537841796875e+01 -2.212088853120803833e-01 7.233643531799316406e+00 2.103730440139770508e+00 2.910611927509307861e-01
1.918000000000000000e+03 7.319733428955078125e+01 -3.213399887084960938e+01 -6.236566901206970215e-01 8.116455078125000000e+00 2.247839689254760742e+00 -2.962857782840728760e-01
1.919000000000000000e+03 7.513574218750000000e+01 -2.830308914184570312e+01 -4.496554732322692871e-01 8.810631752014160156e+00 2.508292913436889648e+00 -9.638808369636535645e-01
1.920000000000000000e+03 7.417545318603515625e+01 -2.997930526733398438e+01 -6.164236068725585938e-01 8.546314239501953125e+00 2.378967285156250000e+00 -6.563936471939086914e-01
1.921000000000000000e+03 3.102759933471679688e+01 -4.474870681762695312e+00 1.292314291000366211e+00 3.753346204757690430e+00 1.513698101043701172e+00 -6.974354982376098633e-01
1.922000000000000000e+03 7.412478637695312500e+01 2.220633125305175781e+01 -5.862774699926376343e-02 7.158506870269775391e+00 2.129963636398315430e+00 6.401021480560302734e-01
1.923000000000000000e+03 7.517052459716796875e+01 2.377666091918945312e+01 -9.538183361291885376e-02 7.252835273742675781e+00 2.147236108779907227e+00 5.358409285545349121e-01
1.924000000000000000e+03 7.499383544921875000e+01 -2.130393028259277344e+01 6.971262097358703613e-01 8.522258758544921875e+00 2.765815496444702148e+00 -1.067599177360534668e+00
1.925000000000000000e+03 1.423682308197021484e+01 -2.832818984985351562e+00 6.592549085617065430e-01 1.223513412475585938e+01 3.868316650390625000e+00 2.206467390060424805e-01
1.926000000000000000e+03 7.545125579833984375e+01 1.291741752624511719e+01 2.426395416259765625e-01 6.666650295257568359e+00 2.072786808013916016e+00 1.196279004216194153e-01
1.927000000000000000e+03 7.417460632324218750e+01 1.570799636840820312e+01 3.017348051071166992e-01 6.876457214355468750e+00 2.153457641601562500e+00 3.979330956935882568e-01
1.928000000000000000e+03 7.545047760009765625e+01 1.704211235046386719e+01 1.551862061023712158e-01 6.829164505004882812e+00 2.095305204391479492e+00 4.393656849861145020e-01
1.929000000000000000e+03 7.426985931396484375e+01 8.902279853820800781e+00 3.261789083480834961e-01 6.777630805969238281e+00 2.131142854690551758e+00 -2.595821917057037354e-01
1.930000000000000000e+03 7.420389556884765625e+01 4.307501792907714844e+00 1.653326600790023804e-01 6.889131546020507812e+00 2.116339206695556641e+00 -5.941926836967468262e-01
1.931000000000000000e+03 7.420638275146484375e+01 -1.594256210327148438e+01 1.186960101127624512e+00 9.065673828125000000e+00 3.075790166854858398e+00 5.062277317047119141e-01
1.932000000000000000e+03 7.331697082519531250e+01 -1.675453948974609375e+01 1.422055721282958984e+00 9.550450325012207031e+00 3.291751861572265625e+00 2.265381067991256714e-01
1.933000000000000000e+03 7.426029968261718750e+01 1.664566993713378906e-02 -5.566987767815589905e-02 7.125284671783447266e+00 2.120884418487548828e+00 -7.226119637489318848e-01
1.934000000000000000e+03 7.545938873291015625e+01 4.337071895599365234e+00 1.216403767466545105e-01 6.879159927368164062e+00 2.100239992141723633e+00 -5.431330800056457520e-01
1.935000000000000000e+03 7.423373413085937500e+01 1.432841658592224121e+00 1.773370243608951569e-02 7.036773204803466797e+00 2.116352081298828125e+00 -6.950542926788330078e-01
1.936000000000000000e+03 7.070732116699218750e+01 1.507113361358642578e+01 6.500580310821533203e-01 7.204127788543701172e+00 2.356255769729614258e+00 4.054151773452758789e-01
1.937000000000000000e+03 7.449694061279296875e+01 -7.056162357330322266e+00 -6.684519648551940918e-01 8.017271041870117188e+00 2.204645872116088867e+00 -1.666488051414489746e-01
1.938000000000000000e+03 7.195012664794921875e+01 -9.858519554138183594e+00 -1.325323939323425293e+00 8.840311050415039062e+00 2.254496335983276367e+00 -1.672108769416809082e-01
1.939000000000000000e+03 7.456803131103515625e+01 -1.415803718566894531e+01 3.022369146347045898e-01 8.820774078369140625e+00 2.736903190612792969e+00 9.147604107856750488e-01
1.940000000000000000e+03 7.577957153320312500e+01 -9.331890106201171875e+00 -4.638306796550750732e-01 8.121261596679687500e+00 2.297229290008544922e+00 4.674566686153411865e-01
1.941000000000000000e+03 7.349338531494140625e+01 -9.548071861267089844e+00 -9.601134061813354492e-01 8.587476730346679688e+00 2.288208961486816406e+00 1.807077080011367798e-01
1.942000000000000000e+03 7.429227447509765625e+01 -2.821166753768920898e+00 -2.815432250499725342e-01 7.389537811279296875e+00 2.132398366928100586e+00 -6.306537389755249023e-01
1.943000000000000000e+03 7.428666687011718750e+01 -4.240666389465332031e+00 -4.549524784088134766e-01 7.588799953460693359e+00 2.140154361724853516e+00 -5.203355550765991211e-01
1.944000000000000000e+03 7.427965545654296875e+01 -5.703550338745117188e+00 -5.500560998916625977e-01 7.761651515960693359e+00 2.163478612899780273e+00 -3.495799601078033447e-01
1.945000000000000000e+03 7.621389007568359375e+01 -1.807411575317382812e+01 7.206339836120605469e-01 7.845615386962890625e+00 2.569874763488769531e+00 -1.253869682550430298e-01
1.946000000000000000e+03 7.412792968750000000e+01 -2.143857383728027344e+01 7.848132848739624023e-01 9.108819007873535156e+00 2.968089580535888672e+00 -1.127575874328613281e+00
1.947000000000000000e+03 7.485211181640625000e+01 -8.144821166992187500e+00 -6.490192413330078125e-01 8.131170272827148438e+00 2.244645357131958008e+00 1.635249406099319458e-01
1.948000000000000000e+03 6.920896911621093750e+01 1.824652671813964844e+01 4.510784149169921875e-01 7.325819969177246094e+00 2.333069562911987305e+00 6.467218995094299316e-01
1.949000000000000000e+03 7.414337921142578125e+01 7.409201622009277344e+00 2.916758656501770020e-01 6.799276351928710938e+00 2.127285718917846680e+00 -3.860612213611602783e-01
1.950000000000000000e+03 7.395941162109375000e+01 -2.619645118713378906e+01 -5.003412365913391113e-01 8.905408859252929688e+00 2.521520376205444336e+00 -1.133291363716125488e+00
1.951000000000000000e+03 7.357499694824218750e+01 2.467438507080078125e+01 -1.851811707019805908e-01 7.219446182250976562e+00 2.110279560089111328e+00 5.481592416763305664e-01
1.952000000000000000e+03 7.395861816406250000e+01 2.651841926574707031e+01 -2.220523953437805176e-01 7.258420944213867188e+00 2.110910654067993164e+00 4.294762909412384033e-01
1.953000000000000000e+03 7.555756378173828125e+01 -2.048670005798339844e+01 7.087184190750122070e-01 8.267958641052246094e+00 2.693002939224243164e+00 -8.895735144615173340e-01
1.954000000000000000e+03 7.283050537109375000e+01 2.780531501770019531e+01 -2.908260226249694824e-01 7.131809234619140625e+00 2.052294969558715820e+00 3.309335112571716309e-01
1.955000000000000000e+03 7.402762603759765625e+01 1.431277084350585938e+01 3.632358014583587646e-01 6.844126701354980469e+00 2.162208795547485352e+00 2.773592770099639893e-01
1.956000000000000000e+03 7.431478118896484375e+01 1.160786056518554688e+01 3.544259369373321533e-01 6.771148204803466797e+00 2.137672185897827148e+00 2.087473636493086815e-03
1.957000000000000000e+03 7.207992553710937500e+01 3.146420097351074219e+01 -2.268889546394348145e-01 6.873128890991210938e+00 1.993872046470642090e+00 1.057945936918258667e-01
1.958000000000000000e+03 6.996166229248046875e+01 -3.078126907348632812e+01 -9.942736029624938965e-01 6.908442020416259766e+00 1.774250507354736328e+00 2.810767590999603271e-01
1.959000000000000000e+03 7.434759521484375000e+01 2.097620773315429688e+01 1.005441974848508835e-02 7.106522083282470703e+00 2.134972810745239258e+00 6.391483545303344727e-01
1.960000000000000000e+03 7.417942047119140625e+01 1.858547210693359375e+01 1.618088781833648682e-01 6.996090888977050781e+00 2.147369861602783203e+00 5.852892994880676270e-01
1.961000000000000000e+03 6.574787902832031250e+01 -9.486859321594238281e+00 -1.224452376365661621e+00 3.729424476623535156e+00 7.514916658401489258e-01 -2.461889266967773438e+00
1.962000000000000000e+03 6.306718063354492188e+01 -8.596502304077148438e+00 -2.345705181360244751e-01 1.409038543701171875e+00 3.523404300212860107e-01 -7.249556183815002441e-01
1.963000000000000000e+03 7.484622192382812500e+01 -3.365528488159179688e+01 -3.249441385269165039e-01 8.561201095581054688e+00 2.470876932144165039e+00 -2.577130198478698730e-01
1.964000000000000000e+03 7.374624633789062500e+01 -2.843753051757812500e+01 -6.783580183982849121e-01 8.665218353271484375e+00 2.396058082580566406e+00 -8.287570476531982422e-01
1.965000000000000000e+03 7.417802429199218750e+01 3.107189178466796875e+01 -1.511530131101608276e-01 7.274775505065917969e+00 2.137086629867553711e+00 1.828646659851074219e-01
1.966000000000000000e+03 4.885307693481445312e+01 -1.274748802185058594e+01 1.257305741310119629e+00 1.769487619400024414e+00 9.080379605293273926e-01 2.019213914871215820e+00
1.967000000000000000e+03 5.012937927246093750e+01 -1.105871200561523438e+01 7.790918946266174316e-01 1.032307505607604980e+00 5.434198379516601562e-01 2.399613857269287109e+00
1.968000000000000000e+03 6.605589389801025391e+00 -2.883954429626464844e+01 -4.395028650760650635e-01 3.767780065536499023e+00 9.984831809997558594e-01 1.253818631172180176e+00
1.969000000000000000e+03 4.365046977996826172e+00 2.730123710632324219e+01 -2.831389307975769043e-01 3.187865495681762695e+00 8.714179396629333496e-01 -9.415962100028991699e-01
1.970000000000000000e+03 3.653106307983398438e+01 -2.293000698089599609e+00 -5.080918595194816589e-02 9.885760307312011719e+00 2.950485467910766602e+00 -5.968199968338012695e-01
1.971000000000000000e+03 4.692340373992919922e+00 -2.671565055847167969e+01 -1.527185738086700439e-01 3.013170242309570312e+00 8.581355214118957520e-01 1.280887365341186523e+00
1.972000000000000000e+03 5.108359336853027344e+00 -1.188850116729736328e+01 1.065374240279197693e-01 1.775650858879089355e+00 5.646564960479736328e-01 2.512754499912261963e-02
1.973000000000000000e+03 5.126743316650390625e+00 -1.051515388488769531e+01 4.484333097934722900e-02 1.729881644248962402e+00 5.324174761772155762e-01 -2.652433235198259354e-03
1.974000000000000000e+03 5.845405960083007812e+01 -8.871765136718750000e+00 -2.299195826053619385e-01 1.292199134826660156e+00 3.186838924884796143e-01 9.890965819358825684e-01
1.975000000000000000e+03 7.445016479492187500e+01 -3.595614624023437500e+01 -1.934351474046707153e-01 8.307831764221191406e+00 2.434318780899047852e+00 -8.173175901174545288e-02
1.976000000000000000e+03 5.619733333587646484e+00 -2.256974029541015625e+01 2.795993089675903320e-01 2.865730047225952148e+00 9.435988068580627441e-01 1.397700428962707520e+00
1.977000000000000000e+03 4.875274181365966797e+00 2.291554069519042969e+01 -5.764162167906761169e-02 2.831186056137084961e+00 8.320633172988891602e-01 -1.439759492874145508e+00
1.978000000000000000e+03 6.663038730621337891e+00 2.454821395874023438e+01 -4.208949804306030273e-01 3.917272567749023438e+00 1.048913240432739258e+00 -1.426975965499877930e+00
1.979000000000000000e+03 1.069646835327148438e+01 2.530208587646484375e+01 -1.241032004356384277e+00 5.315471172332763672e+00 1.222331643104553223e+00 -7.728272080421447754e-01
1.980000000000000000e+03 5.372361183166503906e+00 -1.554249191284179688e+01 4.933729469776153564e-01 2.195162296295166016e+00 8.065605759620666504e-01 2.587204277515411377e-01
1.981000000000000000e+03 4.270095825195312500e+00 -1.993593597412109375e+01 3.613851964473724365e-01 1.741775155067443848e+00 6.309481263160705566e-01 9.116544127464294434e-01
1.982000000000000000e+03 5.333156585693359375e+00 1.816254997253417969e+01 5.023415088653564453e-01 2.547723770141601562e+00 9.150196313858032227e-01 -1.250578522682189941e+00
1.983000000000000000e+03 5.269911766052246094e+00 2.031452751159667969e+01 2.430972009897232056e-01 2.638293743133544922e+00 8.644172549247741699e-01 -1.448647856712341309e+00
1.984000000000000000e+03 8.655593872070312500e+00 -1.817813682556152344e+01 1.354277968406677246e+00 4.784659385681152344e+00 1.841681241989135742e+00 8.904927968978881836e-01
1.985000000000000000e+03 6.829796314239501953e+00 -2.381999588012695312e+01 1.550486534833908081e-01 3.701930284500122070e+00 1.157093644142150879e+00 1.569465637207031250e+00
1.986000000000000000e+03 5.907043933868408203e+00 2.812924194335937500e+01 -4.830520153045654297e-01 3.652749776840209961e+00 9.509093761444091797e-01 -9.578281044960021973e-01
1.987000000000000000e+03 4.423873424530029297e+00 2.625206375122070312e+01 -3.109484314918518066e-01 3.099724292755126953e+00 8.366327285766601562e-01 -1.124026775360107422e+00
1.988000000000000000e+03 1.124289798736572266e+01 -2.596352767944335938e+01 -6.618757247924804688e-01 5.415696620941162109e+00 1.426146268844604492e+00 9.877939224243164062e-01
1.989000000000000000e+03 5.174225807189941406e+00 1.697154998779296875e+01 5.971047282218933105e-01 2.205684185028076172e+00 8.408366441726684570e-01 -9.632367491722106934e-01
1.990000000000000000e+03 6.929580688476562500e+00 1.357327079772949219e+01 7.615538835525512695e-01 3.434102058410644531e+00 1.258696794509887695e+00 -4.819773435592651367e-01
1.991000000000000000e+03 6.094550609588623047e+00 1.472534656524658203e+01 7.576060891151428223e-01 2.843632221221923828e+00 1.080371499061584473e+00 -6.666149497032165527e-01
1.992000000000000000e+03 5.484955310821533203e+00 3.090594673156738281e+01 -3.491350710391998291e-01 3.594487905502319336e+00 9.736058712005615234e-01 -6.359704732894897461e-01
1.993000000000000000e+03 3.965713262557983398e+00 -1.315642261505126953e+01 1.474095880985260010e-01 1.045462727546691895e+00 3.578616976737976074e-01 -2.693659625947475433e-03
1.994000000000000000e+03 1.276896476745605469e+01 -9.239977836608886719e+00 -1.625865340232849121e+00 7.372554779052734375e+00 1.724006772041320801e+00 1.476639509201049805e+00
1.995000000000000000e+03 6.284748554229736328e+00 2.174043464660644531e+01 9.673739224672317505e-02 3.533845186233520508e+00 1.089174747467041016e+00 -1.654493212699890137e+00
1.996000000000000000e+03 5.474861145019531250e+00 -1.979428291320800781e+01 5.897567272186279297e-01 2.494728565216064453e+00 9.253455996513366699e-01 1.053660392761230469e+00
1.997000000000000000e+03 7.066158771514892578e+00 -3.337155914306640625e+01 -5.157482028007507324e-01 3.748821735382080078e+00 9.699220657348632812e-01 7.013564109802246094e-01
1.998000000000000000e+03 5.468061447143554688e+01 -9.081222534179687500e+00 -7.158252596855163574e-02 1.513186693191528320e+00 4.324812591075897217e-01 1.846051812171936035e+00
1.999000000000000000e+03 5.240232086181640625e+01 -1.113080978393554688e+01 1.042912453413009644e-01 9.728091955184936523e-01 3.231301307678222656e-01 2.039644241333007812e+00
2.000000000000000000e+03 5.950084686279296875e+00 -2.637523651123046875e+01 -2.023757845163345337e-01 3.456855535507202148e+00 9.763439297676086426e-01 1.437253594398498535e+00
2.001000000000000000e+03 3.796357870101928711e+00 1.011754226684570312e+01 2.243649512529373169e-01 5.445272326469421387e-01 2.306676656007766724e-01 6.660185754299163818e-02
2.002000000000000000e+03 6.246216297149658203e+00 1.084707260131835938e+01 4.122967720031738281e-01 2.631272077560424805e+00 9.130706191062927246e-01 -1.558131724596023560e-01
2.003000000000000000e+03 4.824545383453369141e+00 9.945349693298339844e+00 2.906686961650848389e-01 1.379186749458312988e+00 5.009566545486450195e-01 5.057506635785102844e-02
2.004000000000000000e+03 3.671458721160888672e+00 -7.518611907958984375e+00 1.161136925220489502e-01 4.536050558090209961e-01 1.709156185388565063e-01 -1.199971735477447510e-01
2.005000000000000000e+03 4.812940597534179688e+00 8.881000518798828125e+00 2.815152704715728760e-01 1.279479622840881348e+00 4.682984650135040283e-01 7.692651450634002686e-02
2.006000000000000000e+03 3.689738512039184570e+00 7.831788063049316406e+00 2.151297330856323242e-01 3.126483559608459473e-01 1.583334207534790039e-01 2.745965123176574707e-01
2.007000000000000000e+03 6.657393646240234375e+01 -8.423018455505371094e+00 -9.560822844505310059e-01 4.778703689575195312e+00 1.146786451339721680e+00 -2.197392702102661133e+00
2.008000000000000000e+03 5.179345607757568359e+00 -1.426490974426269531e+01 3.712478578090667725e-01 2.043411493301391602e+00 7.243978381156921387e-01 1.175500378012657166e-01
2.009000000000000000e+03 4.593149662017822266e+00 -7.042697906494140625e+00 1.702611893415451050e-01 8.329291939735412598e-01 3.009571135044097900e-01 -2.214957773685455322e-02
2.010000000000000000e+03 5.188530921936035156e+00 -9.091792106628417969e+00 5.038389563560485840e-02 1.594028949737548828e+00 4.933238327503204346e-01 8.648928999900817871e-02
2.011000000000000000e+03 5.192513465881347656e+00 -6.404564380645751953e+00 2.453405857086181641e-01 1.093765854835510254e+00 4.017319381237030029e-01 8.297914266586303711e-02
2.012000000000000000e+03 6.394052124023437500e+01 -9.526591300964355469e+00 -9.478424191474914551e-01 1.062511563301086426e+00 3.440074622631072998e-02 -1.372098684310913086e+00
2.013000000000000000e+03 6.132715225219726562e+01 -8.310754776000976562e+00 -1.742572933435440063e-01 1.311552047729492188e+00 3.411884009838104248e-01 6.753054261207580566e-02
2.014000000000000000e+03 6.133721923828125000e+01 2.806088626384735107e-01 1.140238404273986816e+00 4.549148082733154297e+00 1.706815958023071289e+00 1.306527256965637207e+00
2.015000000000000000e+03 4.234768295288085938e+01 -8.714527130126953125e+00 -4.533904194831848145e-01 5.200030803680419922e+00 1.423992037773132324e+00 -9.947265386581420898e-01
2.016000000000000000e+03 3.999558639526367188e+01 -1.244118690490722656e+01 1.088724493980407715e+00 8.109265327453613281e+00 2.759396791458129883e+00 -1.427227139472961426e+00
2.017000000000000000e+03 4.478657913208007812e+01 -1.065669918060302734e+01 7.905516624450683594e-01 3.755398035049438477e+00 1.363784909248352051e+00 5.071862936019897461e-01
2.018000000000000000e+03 4.502236938476562500e+01 -1.282480621337890625e+01 1.100611209869384766e+00 4.816542148590087891e+00 1.775146007537841797e+00 6.372275352478027344e-01
2.019000000000000000e+03 1.454769039154052734e+01 2.329448509216308594e+01 -1.526826381683349609e+00 5.924862384796142578e+00 1.319410800933837891e+00 7.133216857910156250e-01
2.020000000000000000e+03 1.150738239288330078e+01 2.385662078857421875e+01 -1.085107564926147461e+00 5.858186244964599609e+00 1.431923627853393555e+00 -8.118671774864196777e-01
2.021000000000000000e+03 3.620985794067382812e+01 1.436680412292480469e+01 5.662485957145690918e-01 8.555633544921875000e+00 2.736564636230468750e+00 -4.114513993263244629e-01
2.022000000000000000e+03 1.140845584869384766e+01 -3.084223365783691406e+01 -1.062438011169433594e+00 4.217196941375732422e+00 9.464276432991027832e-01 4.592516422271728516e-01
2.023000000000000000e+03 1.649018287658691406e+01 -3.271520996093750000e+01 -1.050857543945312500e+00 2.888252496719360352e+00 5.512185096740722656e-01 -5.306540727615356445e-01
2.024000000000000000e+03 3.391685104370117188e+01 1.856785774230957031e+01 2.745407223701477051e-01 6.311096668243408203e+00 1.975691318511962891e+00 -8.461709022521972656e-01
2.025000000000000000e+03 4.527242279052734375e+01 2.003622245788574219e+01 -8.330293744802474976e-02 2.915332317352294922e+00 8.496088385581970215e-01 1.538625836372375488e+00
2.026000000000000000e+03 4.521603012084960938e+01 2.246414184570312500e+01 -5.904005169868469238e-01 3.179451942443847656e+00 7.767153978347778320e-01 1.531967043876647949e+00
2.027000000000000000e+03 3.614427947998046875e+01 -8.516110420227050781e+00 -1.047077775001525879e+00 9.722883224487304688e+00 2.602741718292236328e+00 -1.752423763275146484e+00
2.028000000000000000e+03 6.399858474731445312e+01 2.142591714859008789e+00 7.571194767951965332e-01 6.007882118225097656e+00 2.029500484466552734e+00 4.470756649971008301e-01
2.029000000000000000e+03 5.850967788696289062e+01 -7.193699359893798828e+00 3.844486773014068604e-01 1.733952522277832031e+00 6.355203390121459961e-01 1.031782031059265137e+00
2.030000000000000000e+03 2.578334426879882812e+01 -4.389210224151611328e+00 2.688541889190673828e+00 -6.701529026031494141e-01 6.055166721343994141e-01 1.557781100273132324e-01
2.031000000000000000e+03 5.395997238159179688e+01 -7.664813995361328125e+00 2.927512824535369873e-01 1.986382961273193359e+00 6.837402582168579102e-01 2.043070316314697266e+00
2.032000000000000000e+03 1.306896305084228516e+01 -2.850829124450683594e+01 -1.113405704498291016e+00 4.632287979125976562e+00 1.055664777755737305e+00 1.633087098598480225e-01
2.033000000000000000e+03 1.257947826385498047e+01 -2.543607902526855469e+01 -6.222692131996154785e-01 5.911520004272460938e+00 1.586775183677673340e+00 5.240374803543090820e-01
2.034000000000000000e+03 5.906224060058593750e+01 -6.056992053985595703e+00 7.631518840789794922e-01 1.940642595291137695e+00 8.111383318901062012e-01 9.408296942710876465e-01
2.035000000000000000e+03 7.330654144287109375e+01 -1.246663093566894531e+01 -2.250781953334808350e-01 9.112219810485839844e+00 2.666142463684082031e+00 7.878881692886352539e-01
2.036000000000000000e+03 6.986294555664062500e+01 -1.286951828002929688e+01 -4.914138317108154297e-01 1.015821361541748047e+01 2.900039911270141602e+00 -4.850485920906066895e-01
2.037000000000000000e+03 4.242080688476562500e+01 1.929450035095214844e+01 -8.197515457868576050e-02 4.537671566009521484e+00 1.336708903312683105e+00 1.697263360023498535e+00
2.038000000000000000e+03 3.879394531250000000e+01 1.787834739685058594e+01 -1.184443682432174683e-01 6.446661472320556641e+00 1.898465156555175781e+00 8.762989640235900879e-01
2.039000000000000000e+03 3.942892837524414062e+01 -1.941732597351074219e+01 1.858357310295104980e+00 9.844528198242187500e+00 3.510865688323974609e+00 -1.442279100418090820e+00
2.040000000000000000e+03 3.784870147705078125e+01 -1.396270751953125000e+00 3.773559927940368652e-01 1.008544158935546875e+01 3.138839244842529297e+00 -7.282637357711791992e-01
2.041000000000000000e+03 3.737234115600585938e+01 -4.119127750396728516e+00 -1.467676877975463867e+00 9.624393463134765625e+00 2.447014808654785156e+00 -1.189257502555847168e+00
2.042000000000000000e+03 3.713829803466796875e+01 -3.008835554122924805e+00 -6.630038022994995117e-01 9.714159965515136719e+00 2.715346813201904297e+00 -9.297283291816711426e-01
2.043000000000000000e+03 4.020478439331054688e+01 -4.556582450866699219e+00 -1.740262985229492188e+00 7.646939754486083984e+00 1.772003054618835449e+00 -2.068570375442504883e+00
2.044000000000000000e+03 9.815806388854980469e+00 -1.511844730377197266e+01 1.138070344924926758e+00 5.898711204528808594e+00 2.111034393310546875e+00 2.548183798789978027e-01
2.045000000000000000e+03 6.737431335449218750e+01 1.216102695465087891e+01 9.675316810607910156e-01 7.885242938995361328e+00 2.655832290649414062e+00 2.075275480747222900e-01
2.046000000000000000e+03 3.705804443359375000e+01 -2.854870986938476562e+01 -2.458054572343826294e-01 6.429534435272216797e+00 1.855118632316589355e+00 7.504976391792297363e-01
2.047000000000000000e+03 6.584207916259765625e+01 1.121041107177734375e+01 9.606983661651611328e-01 8.402482986450195312e+00 2.808954477310180664e+00 3.209634721279144287e-01
2.048000000000000000e+03 7.307092285156250000e+01 9.127003669738769531e+00 4.355147182941436768e-01 6.855188369750976562e+00 2.187211036682128906e+00 -2.366086095571517944e-01
2.049000000000000000e+03 4.038918304443359375e+01 -1.653199386596679688e+01 2.044391393661499023e+00 9.082928657531738281e+00 3.338196039199829102e+00 -1.582728981971740723e+00
2.050000000000000000e+03 3.912987518310546875e+01 -1.676732063293457031e+01 1.883584618568420410e+00 9.881541252136230469e+00 3.529537677764892578e+00 -1.895754456520080566e+00
2.051000000000000000e+03 6.768307495117187500e+01 2.613081169128417969e+01 -6.988056302070617676e-01 6.662946224212646484e+00 1.789242267608642578e+00 5.011652782559394836e-02
2.052000000000000000e+03 4.358927154541015625e+01 -3.000442504882812500e+01 -1.621990501880645752e-01 7.737752914428710938e+00 2.272666215896606445e+00 -8.136693835258483887e-01
2.053000000000000000e+03 4.521836471557617188e+01 -2.814435768127441406e+01 1.143523812294006348e+00 8.590798377990722656e+00 2.920296430587768555e+00 -2.038487434387207031e+00
2.054000000000000000e+03 1.633697891235351562e+01 2.575261688232421875e+01 -1.056683897972106934e+00 3.502823591232299805e+00 7.338418960571289062e-01 1.411550760269165039e+00
2.055000000000000000e+03 1.278056907653808594e+01 2.426466178894042969e+01 -1.378678321838378906e+00 5.963888645172119141e+00 1.375563144683837891e+00 -1.417919993400573730e-01
2.056000000000000000e+03 4.099832534790039062e+01 -2.587134933471679688e+01 1.485556960105895996e+00 8.496878623962402344e+00 2.994730710983276367e+00 -6.818139553070068359e-01
2.057000000000000000e+03 2.043170928955078125e+01 -3.508304595947265625e+01 -5.244538187980651855e-01 1.365870118141174316e+00 2.524248957633972168e-01 -5.134660601615905762e-01
2.058000000000000000e+03 5.236877822875976562e+01 2.373039436340332031e+01 -8.933756351470947266e-01 6.938941478729248047e-01 -5.984444916248321533e-02 7.206896543502807617e-01
2.059000000000000000e+03 5.113924407958984375e+01 2.734235572814941406e+01 -1.860740780830383301e-01 1.635284304618835449e+00 4.347630739212036133e-01 9.491631984710693359e-01
2.060000000000000000e+03 4.096905899047851562e+01 -2.207205009460449219e+01 2.033123493194580078e+00 9.426033973693847656e+00 3.437747240066528320e+00 -1.248111844062805176e+00
2.061000000000000000e+03 2.739054870605468750e+01 2.814681434631347656e+01 -6.353865861892700195e-01 2.137603998184204102e+00 4.506652057170867920e-01 -9.189628362655639648e-01
2.062000000000000000e+03 6.766806793212890625e+01 1.343744087219238281e+01 9.626146554946899414e-01 7.841566085815429688e+00 2.641254186630249023e+00 2.459625452756881714e-01
2.063000000000000000e+03 7.218042755126953125e+01 1.797210121154785156e+01 3.055218458175659180e-01 7.092681884765625000e+00 2.219461202621459961e+00 6.273299455642700195e-01
2.064000000000000000e+03 6.484201812744140625e+01 6.944516658782958984e+00 9.740671515464782715e-01 7.706877708435058594e+00 2.604283571243286133e+00 5.334777235984802246e-01
2.065000000000000000e+03 6.646218109130859375e+01 8.054326057434082031e+00 9.384030699729919434e-01 7.663401603698730469e+00 2.580541372299194336e+00 1.696385592222213745e-01
2.066000000000000000e+03 1.850463294982910156e+01 2.813340759277343750e+01 -5.644401907920837402e-01 2.131918430328369141e+00 4.702434539794921875e-01 7.952120304107666016e-01
2.067000000000000000e+03 6.570659637451171875e+01 4.940440177917480469e+00 7.924133539199829102e-01 7.001441001892089844e+00 2.338156223297119141e+00 1.312009990215301514e-01
2.068000000000000000e+03 6.611711883544921875e+01 6.553462505340576172e+00 8.952344059944152832e-01 7.345478534698486328e+00 2.472213745117187500e+00 1.717217266559600830e-01
2.069000000000000000e+03 6.266684341430664062e+01 -6.152243614196777344e+00 3.732772171497344971e-01 2.579591989517211914e+00 8.858608007431030273e-01 -3.281535208225250244e-01
2.070000000000000000e+03 6.707991027832031250e+01 1.083978176116943359e+01 9.865735173225402832e-01 7.912727355957031250e+00 2.669790267944335938e+00 1.859877258539199829e-01
2.071000000000000000e+03 3.014997100830078125e+01 -2.812804460525512695e+00 2.985494852066040039e+00 2.673910140991210938e+00 1.697821497917175293e+00 1.558266431093215942e-01
2.072000000000000000e+03 2.452901649475097656e+01 2.783045196533203125e+01 -4.053041636943817139e-01 1.347617387771606445e+00 2.826939523220062256e-01 -5.376269817352294922e-01
2.073000000000000000e+03 5.275739669799804688e+01 2.661469459533691406e+01 -1.812121421098709106e-01 1.205555438995361328e+00 3.073029816150665283e-01 6.918616294860839844e-01
2.074000000000000000e+03 5.339980697631835938e+01 -1.111233425140380859e+01 -3.087251819670200348e-02 9.204081296920776367e-01 2.668606936931610107e-01 1.881654262542724609e+00
2.075000000000000000e+03 5.168821334838867188e+01 -9.536581993103027344e+00 2.303006350994110107e-01 1.169451475143432617e+00 4.199256300926208496e-01 2.531035184860229492e+00
2.076000000000000000e+03 6.729455566406250000e+01 -2.992050933837890625e+01 -1.062620520591735840e+00 5.196654319763183594e+00 1.240210175514221191e+00 8.960117101669311523e-01
2.077000000000000000e+03 5.669485092163085938e+01 2.690217399597167969e+01 -1.251767128705978394e-01 1.466290116310119629e+00 4.023340046405792236e-01 -4.148754775524139404e-01
2.078000000000000000e+03 6.695519447326660156e+00 1.253766345977783203e+01 7.631570696830749512e-01 3.191972494125366211e+00 1.186538934707641602e+00 -3.666051924228668213e-01
2.079000000000000000e+03 6.169689559936523438e+01 -1.423992872238159180e+00 1.115959286689758301e+00 3.984556198120117188e+00 1.530154705047607422e+00 8.397035002708435059e-01
2.080000000000000000e+03 4.236335754394531250e+01 -1.192467689514160156e+01 8.626168370246887207e-01 6.098130226135253906e+00 2.088224172592163086e+00 -6.962915658950805664e-01
2.081000000000000000e+03 3.539506530761718750e+01 1.894150352478027344e+01 -1.730412691831588745e-01 6.341220378875732422e+00 1.850453734397888184e+00 -2.689696848392486572e-01
2.082000000000000000e+03 2.509266853332519531e+01 -3.329678058624267578e+00 3.502754926681518555e+00 -9.185248613357543945e-01 7.752690315246582031e-01 9.563031792640686035e-02
2.083000000000000000e+03 5.396883392333984375e+01 -3.715878677368164062e+01 2.204486578702926636e-01 1.382168650627136230e+00 4.807851910591125488e-01 -8.445278406143188477e-01
2.084000000000000000e+03 5.545854949951171875e+01 -3.943555450439453125e+01 5.888472795486450195e-01 1.195837497711181641e+00 5.354054570198059082e-01 -3.562774658203125000e-01
2.085000000000000000e+03 7.225287628173828125e+01 -2.067236709594726562e+01 1.471521973609924316e+00 1.048510265350341797e+01 3.586987495422363281e+00 -8.085691332817077637e-01
2.086000000000000000e+03 7.354472351074218750e+01 -1.945219421386718750e+01 1.514451026916503906e+00 9.448741912841796875e+00 3.288958072662353516e+00 -5.822914242744445801e-01
2.087000000000000000e+03 6.496405029296875000e+01 3.426841259002685547e+00 7.622501850128173828e-01 6.520716667175292969e+00 2.184890031814575195e+00 2.594551742076873779e-01
2.088000000000000000e+03 7.078893280029296875e+01 -2.752422142028808594e+01 -1.050812840461730957e+00 8.322664260864257812e+00 2.181555509567260742e+00 -2.291245311498641968e-01
2.089000000000000000e+03 6.892650604248046875e+01 -2.728273963928222656e+01 -1.093562006950378418e+00 7.350122451782226562e+00 1.876968145370483398e+00 5.783961415290832520e-01
2.090000000000000000e+03 4.682014846801757812e+01 -3.228339767456054688e+01 -7.133624553680419922e-01 5.828833103179931641e+00 1.534641265869140625e+00 -1.880192041397094727e+00
2.091000000000000000e+03 4.788550186157226562e+01 -3.807383346557617188e+01 -9.780474901199340820e-01 4.217222690582275391e+00 9.717525839805603027e-01 -1.014702320098876953e+00
2.092000000000000000e+03 7.510228157043457031e+00 -1.635192489624023438e+01 8.933963775634765625e-01 3.908198356628417969e+00 1.440478444099426270e+00 4.966359138488769531e-01
2.093000000000000000e+03 9.679069519042968750e+00 -1.774123954772949219e+01 1.523515820503234863e+00 5.709002494812011719e+00 2.169755458831787109e+00 6.386789083480834961e-01
2.094000000000000000e+03 4.368804550170898438e+01 -2.851324081420898438e+01 6.535985469818115234e-01 8.432908058166503906e+00 2.725951910018920898e+00 -8.695039749145507812e-01
2.095000000000000000e+03 4.528728485107421875e+01 -2.965721702575683594e+01 2.971654832363128662e-01 7.803539752960205078e+00 2.430211544036865234e+00 -1.687440156936645508e+00
2.096000000000000000e+03 3.799352264404296875e+01 -9.401706695556640625e+00 -6.438746452331542969e-01 9.062570571899414062e+00 2.525608777999877930e+00 -1.596877455711364746e+00
2.097000000000000000e+03 5.588347244262695312e+01 2.853362083435058594e+01 1.271274089813232422e-01 1.808716535568237305e+00 5.807532072067260742e-01 -1.182349398732185364e-01
2.098000000000000000e+03 4.572542572021484375e+01 -8.107748985290527344e+00 -1.168334484100341797e-01 1.652612090110778809e+00 4.607335925102233887e-01 4.843870997428894043e-01
2.099000000000000000e+03 7.178839874267578125e+01 4.095355606079101562e+01 1.055974978953599930e-02 6.685814857482910156e+00 2.008912563323974609e+00 -2.655798569321632385e-03
2.100000000000000000e+03 6.641819763183593750e+01 -3.161894989013671875e+01 -8.466944098472595215e-01 4.464601516723632812e+00 1.085372090339660645e+00 8.635174632072448730e-01
2.101000000000000000e+03 4.264166259765625000e+01 -1.337021350860595703e+01 1.333183646202087402e+00 6.632676124572753906e+00 2.389757871627807617e+00 -4.821489453315734863e-01
2.102000000000000000e+03 1.563887500762939453e+01 2.726183700561523438e+01 -1.098387122154235840e+00 3.536658287048339844e+00 7.314813137054443359e-01 8.300587534904479980e-01
2.103000000000000000e+03 6.733705902099609375e+01 -3.474507522583007812e+01 -3.625659644603729248e-01 4.659977912902832031e+00 1.289223551750183105e+00 6.741816401481628418e-01
2.104000000000000000e+03 5.947616577148437500e+01 -8.013873100280761719e+00 4.201302677392959595e-02 1.443924903869628906e+00 4.457813799381256104e-01 6.966734528541564941e-01
2.105000000000000000e+03 6.801406097412109375e+01 -3.236339950561523438e+01 -8.137685656547546387e-01 5.362720012664794922e+00 1.364685535430908203e+00 7.210939526557922363e-01
2.106000000000000000e+03 3.937937164306640625e+01 -7.969939708709716797e+00 -1.262280464172363281e+00 7.982150554656982422e+00 2.015960931777954102e+00 -1.646077871322631836e+00
2.107000000000000000e+03 5.850371551513671875e+01 -1.050353622436523438e+01 -1.013890266418457031e+00 9.008340835571289062e-01 -3.391685336828231812e-02 7.203708887100219727e-01
2.108000000000000000e+03 5.937207031250000000e+01 -9.747258186340332031e+00 -8.797183632850646973e-01 1.031743526458740234e+00 4.560754820704460144e-02 5.764588117599487305e-01
2.109000000000000000e+03 1.102089881896972656e+01 -2.759741067886352539e+00 1.804914712905883789e+00 4.129032135009765625e+00 1.780184149742126465e+00 3.542711734771728516e+00
2.110000000000000000e+03 1.280607032775878906e+01 2.751376867294311523e+00 -9.061057865619659424e-02 1.152450942993164062e+01 3.430169820785522461e+00 -4.418931007385253906e+00
2.111000000000000000e+03 1.333400535583496094e+01 -2.323934555053710938e+00 6.208692193031311035e-01 1.350275230407714844e+01 4.237086772918701172e+00 2.499381065368652344e+00
2.112000000000000000e+03 1.619252777099609375e+01 5.502832889556884766e+00 -1.809284567832946777e+00 7.574628353118896484e+00 1.729603052139282227e+00 -7.345166802406311035e-01
2.113000000000000000e+03 1.807553863525390625e+01 1.253242492675781250e+00 4.296223163604736328e+00 3.861811161041259766e+00 2.447410345077514648e+00 -1.298361178487539291e-02
2.114000000000000000e+03 1.796968078613281250e+01 -8.665679931640625000e+00 -8.514361381530761719e-01 3.714214801788330078e+00 8.588336110115051270e-01 9.178088307380676270e-01
2.115000000000000000e+03 1.373786640167236328e+01 2.250451087951660156e+00 3.583869040012359619e-01 1.485862827301025391e+01 4.565104484558105469e+00 -1.884537458419799805e+00
2.116000000000000000e+03 2.013765525817871094e+01 -6.195237159729003906e+00 1.199965476989746094e+00 1.909006953239440918e+00 9.326916933059692383e-01 -4.052309095859527588e-01
2.117000000000000000e+03 1.516807460784912109e+01 -1.340756177902221680e+00 5.650842666625976562e+00 1.130077838897705078e+01 5.085486412048339844e+00 -2.755927085876464844e+00
2.118000000000000000e+03 1.542788028717041016e+01 -1.151495099067687988e+00 6.349982738494873047e+00 1.012335014343261719e+01 4.941999912261962891e+00 -2.586426734924316406e+00
2.119000000000000000e+03 1.426003646850585938e+01 2.387996912002563477e+00 7.333927154541015625e-01 1.382157993316650391e+01 4.366491794586181641e+00 -5.094549059867858887e-01
2.120000000000000000e+03 1.590947055816650391e+01 -2.344719469547271729e-01 7.557090282440185547e+00 8.107377052307128906e+00 4.699339866638183594e+00 -1.206705570220947266e+00
2.121000000000000000e+03 1.553080463409423828e+01 -8.876968622207641602e-01 6.826334953308105469e+00 9.570332527160644531e+00 4.919000625610351562e+00 -2.339906692504882812e+00
2.122000000000000000e+03 1.463775920867919922e+01 5.818764209747314453e+00 -2.227621316909790039e+00 9.359786987304687500e+00 2.139649629592895508e+00 -1.489332437515258789e+00
2.123000000000000000e+03 1.725779724121093750e+01 4.927263736724853516e+00 -9.317632913589477539e-01 5.869184970855712891e+00 1.481226563453674316e+00 -5.969006568193435669e-02
2.124000000000000000e+03 1.185406589508056641e+01 2.079753637313842773e+00 2.229583024978637695e+00 6.997243404388427734e+00 2.768047809600830078e+00 -5.557098388671875000e+00
2.125000000000000000e+03 1.002005958557128906e+01 2.996183872222900391e+00 1.130873441696166992e+00 2.906199693679809570e+00 1.211121916770935059e+00 -2.634070158004760742e+00
2.126000000000000000e+03 1.059657859802246094e+01 3.221951484680175781e+00 1.075024127960205078e+00 4.198787689208984375e+00 1.582143425941467285e+00 -3.351131439208984375e+00
2.127000000000000000e+03 9.878403663635253906e+00 3.422032833099365234e+00 9.572118520736694336e-01 3.193162202835083008e+00 1.245112180709838867e+00 -2.513844013214111328e+00
2.128000000000000000e+03 1.317785358428955078e+01 9.620225906372070312e+00 -7.200634479522705078e-01 9.068823814392089844e+00 2.504628181457519531e+00 -1.069832086563110352e+00
2.129000000000000000e+03 1.569494819641113281e+01 6.371516227722167969e+00 -2.305320739746093750e+00 7.983840942382812500e+00 1.703556060791015625e+00 -1.197106480598449707e+00
2.130000000000000000e+03 8.895607948303222656e+00 -3.423532009124755859e+00 1.032693028450012207e+00 1.704058051109313965e+00 8.210253119468688965e-01 1.515342950820922852e+00
2.131000000000000000e+03 1.132824897766113281e+01 -3.907996177673339844e+00 7.014086842536926270e-01 5.818018436431884766e+00 1.955828189849853516e+00 3.463830947875976562e+00
2.132000000000000000e+03 9.052279472351074219e+00 -3.944634199142456055e+00 9.645517468452453613e-01 2.296582698822021484e+00 9.783403277397155762e-01 1.781097650527954102e+00
2.133000000000000000e+03 1.443568706512451172e+01 3.776092052459716797e+00 -1.101499915122985840e+00 1.113607788085937500e+01 3.010373353958129883e+00 -1.312628269195556641e+00
2.134000000000000000e+03 1.744942855834960938e+01 4.365829944610595703e+00 -3.659707903861999512e-01 5.522069454193115234e+00 1.546829581260681152e+00 5.678470246493816376e-03
2.135000000000000000e+03 4.736230373382568359e+00 -5.597729682922363281e+00 2.409125566482543945e-01 6.451580524444580078e-01 2.658211886882781982e-01 -7.906073331832885742e-02
2.136000000000000000e+03 6.374600887298583984e+00 -5.827842235565185547e+00 3.729047179222106934e-01 1.419901371002197266e+00 5.378417968750000000e-01 4.468207657337188721e-01
2.137000000000000000e+03 7.012513637542724609e+00 -5.546727180480957031e+00 4.125156998634338379e-01 1.702508926391601562e+00 6.345073580741882324e-01 6.641650795936584473e-01
2.138000000000000000e+03 7.323506355285644531e+00 -4.569159507751464844e+00 5.784839391708374023e-01 1.423113584518432617e+00 6.004792451858520508e-01 7.369992733001708984e-01
2.139000000000000000e+03 1.234970664978027344e+01 9.349917411804199219e+00 -6.947678327560424805e-01 8.537978172302246094e+00 2.352963209152221680e+00 -8.577179908752441406e-01
2.140000000000000000e+03 4.725249290466308594e+00 7.864912033081054688e+00 2.764724493026733398e-01 1.032088994979858398e+00 3.925684094429016113e-01 1.473836302757263184e-01
2.141000000000000000e+03 6.472389698028564453e+00 5.474070549011230469e+00 4.006371200084686279e-01 1.492966771125793457e+00 5.680811405181884766e-01 -2.224505245685577393e-01
2.142000000000000000e+03 7.640472412109375000e+00 4.346871852874755859e+00 5.320351123809814453e-01 1.807319641113281250e+00 7.018064260482788086e-01 -7.794768810272216797e-01
2.143000000000000000e+03 5.606786251068115234e+00 6.157842636108398438e+00 3.462175130844116211e-01 1.170519113540649414e+00 4.550209939479827881e-01 1.135925855487585068e-02
2.144000000000000000e+03 8.763032913208007812e+00 -4.697106838226318359e+00 6.729564666748046875e-01 2.566811800003051758e+00 9.719305038452148438e-01 1.614379405975341797e+00
2.145000000000000000e+03 8.516520500183105469e+00 -4.136441230773925781e+00 8.193455338478088379e-01 1.964709162712097168e+00 8.352164030075073242e-01 1.407270312309265137e+00
2.146000000000000000e+03 1.983152198791503906e+01 -6.977030754089355469e+00 5.886418819427490234e-01 2.049731016159057617e+00 7.915118932723999023e-01 -2.006573081016540527e-01
2.147000000000000000e+03 2.094963455200195312e+01 -6.584774017333984375e+00 1.061054587364196777e+00 1.166356086730957031e+00 6.682232022285461426e-01 -4.638668000698089600e-01
2.148000000000000000e+03 1.875535202026367188e+01 -7.019932270050048828e+00 2.404114156961441040e-01 3.318546533584594727e+00 1.067687392234802246e+00 8.152021467685699463e-02
2.149000000000000000e+03 1.365205764770507812e+01 -1.115132617950439453e+01 -1.482774734497070312e+00 7.844675540924072266e+00 1.908570170402526855e+00 1.137099862098693848e+00
2.150000000000000000e+03 9.061366081237792969e+00 4.261947631835937500e+00 6.432573199272155762e-01 2.866631269454956055e+00 1.052966594696044922e+00 -1.762331485748291016e+00
2.151000000000000000e+03 7.293645381927490234e+00 5.611781597137451172e+00 3.753899633884429932e-01 2.222012996673583984e+00 7.792208790779113770e-01 -5.284980535507202148e-01
2.152000000000000000e+03 2.330289077758789062e+01 -4.437488555908203125e+00 2.746755123138427734e+00 -4.315209388732910156e-01 6.945702433586120605e-01 -2.258584201335906982e-01
2.153000000000000000e+03 2.081833267211914062e+01 -1.227755472064018250e-01 4.085171222686767578e+00 4.706416279077529907e-02 1.239670515060424805e+00 -5.230085253715515137e-01
2.154000000000000000e+03 1.232804107666015625e+01 -1.025652503967285156e+01 -1.419571399688720703e+00 7.307241439819335938e+00 1.766301035881042480e+00 1.065327525138854980e+00
2.155000000000000000e+03 1.287870597839355469e+01 7.982714653015136719e+00 -1.513543486595153809e+00 8.755160331726074219e+00 2.172485113143920898e+00 -1.310843229293823242e+00
2.156000000000000000e+03 5.659333705902099609e+00 1.020738983154296875e+01 3.785827159881591797e-01 2.141493082046508789e+00 7.560227513313293457e-01 -8.696576952934265137e-02
2.157000000000000000e+03 1.962208747863769531e+01 1.750797510147094727e+00 3.098284244537353516e+00 1.345493197441101074e+00 1.333133220672607422e+00 -4.763374477624893188e-02
2.158000000000000000e+03 2.012936592102050781e+01 1.161373019218444824e+00 3.531442403793334961e+00 6.429674029350280762e-01 1.252322912216186523e+00 -2.049017846584320068e-01
2.159000000000000000e+03 3.457858657836914062e+01 -1.520508050918579102e+00 1.121211051940917969e+00 9.206743240356445312e+00 3.098386287689208984e+00 2.121568024158477783e-01
2.160000000000000000e+03 3.389374542236328125e+01 -4.876911163330078125e+00 -5.864551663398742676e-01 7.973002910614013672e+00 2.215964317321777344e+00 -1.237396836280822754e+00
2.161000000000000000e+03 1.403269004821777344e+01 7.203802585601806641e+00 -2.115087032318115234e+00 9.104810714721679688e+00 2.096917152404785156e+00 -1.541630268096923828e+00
2.162000000000000000e+03 3.693019866943359375e+01 -1.405431628227233887e+00 2.499755024909973145e-01 1.026120376586914062e+01 3.153353691101074219e+00 -5.747338533401489258e-01
2.163000000000000000e+03 2.465983963012695312e+01 -4.873079299926757812e+00 2.344717741012573242e+00 -7.258953452110290527e-01 4.856466948986053467e-01 -7.056407630443572998e-03
2.164000000000000000e+03 2.255085182189941406e+01 -6.886877417564392090e-01 3.945026159286499023e+00 -1.024129033088684082e+00 8.762691020965576172e-01 -2.705167531967163086e-01
2.165000000000000000e+03 2.170575714111328125e+01 -7.847357988357543945e-01 4.054435729980468750e+00 -5.890267491340637207e-01 1.039622783660888672e+00 -4.826401174068450928e-01
2.166000000000000000e+03 7.288483428955078125e+01 -2.373369407653808594e+01 1.387596279382705688e-01 9.418167114257812500e+00 2.867078065872192383e+00 -1.214046001434326172e+00
2.167000000000000000e+03 7.422183990478515625e+01 -2.509773635864257812e+01 -1.477691382169723511e-01 8.962908744812011719e+00 2.644541740417480469e+00 -1.331569314002990723e+00
2.168000000000000000e+03 6.936582183837890625e+01 -9.084878921508789062e+00 -1.580478668212890625e+00 7.815502643585205078e+00 1.870507240295410156e+00 -1.553432703018188477e+00
2.169000000000000000e+03 7.055862426757812500e+01 -1.185896205902099609e+01 -1.334695458412170410e+00 9.677916526794433594e+00 2.502966403961181641e+00 -2.625960707664489746e-01
2.170000000000000000e+03 7.482667541503906250e+01 -9.114669799804687500e+00 -6.797204613685607910e-01 8.341105461120605469e+00 2.298415660858154297e+00 3.021118342876434326e-01
2.171000000000000000e+03 3.304789733886718750e+01 2.453068161010742188e+01 -1.151233196258544922e+00 4.632711887359619141e+00 1.044443607330322266e+00 -5.343561768531799316e-01
2.172000000000000000e+03 2.261848640441894531e+01 -1.676933765411376953e+00 4.033316135406494141e+00 -8.301731348037719727e-01 9.609429240226745605e-01 -3.236172795295715332e-01
2.173000000000000000e+03 2.429755210876464844e+01 -6.643555760383605957e-01 3.838980197906494141e+00 -1.268865227699279785e+00 7.710344791412353516e-01 9.377910196781158447e-02
2.174000000000000000e+03 7.339103698730468750e+01 -1.475606155395507812e+01 8.157853484153747559e-01 9.258238792419433594e+00 3.022207260131835938e+00 7.599077224731445312e-01
2.175000000000000000e+03 7.288790893554687500e+01 -1.059811687469482422e+01 -8.813000917434692383e-01 8.891885757446289062e+00 2.403175592422485352e+00 2.385592013597488403e-01
2.176000000000000000e+03 4.373145675659179688e+01 -9.541385650634765625e+00 1.943147331476211548e-01 4.052829742431640625e+00 1.274143338203430176e+00 -2.572216093540191650e-01
2.177000000000000000e+03 9.923257827758789062e+00 5.053988456726074219e+00 1.462065726518630981e-01 4.705400943756103516e+00 1.455482244491577148e+00 -2.212032079696655273e+00
2.178000000000000000e+03 3.483295440673828125e+01 -6.171052455902099609e+00 -1.273330450057983398e+00 8.864386558532714844e+00 2.277316808700561523e+00 -1.625828385353088379e+00
2.179000000000000000e+03 2.760919189453125000e+01 -2.695362091064453125e+00 3.613492012023925781e+00 2.475401610136032104e-01 1.158309578895568848e+00 2.196150273084640503e-01
2.180000000000000000e+03 7.695330142974853516e+00 -1.827454376220703125e+01 1.084102153778076172e+00 4.010827064514160156e+00 1.528478741645812988e+00 8.458403348922729492e-01
2.181000000000000000e+03 8.011660575866699219e+00 -2.086205863952636719e+01 8.527166843414306641e-01 4.297093391418457031e+00 1.544942975044250488e+00 1.393671154975891113e+00
2.182000000000000000e+03 6.780954837799072266e+00 -2.489099121093750000e+01 -1.066330000758171082e-01 3.675153017044067383e+00 1.070556044578552246e+00 1.534048438072204590e+00
2.183000000000000000e+03 9.523274421691894531e+00 -1.168931102752685547e+01 -3.396066725254058838e-01 5.497679233551025391e+00 1.547421693801879883e+00 3.716067075729370117e-01
2.184000000000000000e+03 1.142732906341552734e+01 -1.309897708892822266e+01 1.258065178990364075e-02 7.116467952728271484e+00 2.138714551925659180e+00 2.665491998195648193e-01
2.185000000000000000e+03 1.427157402038574219e+01 -9.629823684692382812e+00 -1.924347162246704102e+00 7.530063152313232422e+00 1.681714773178100586e+00 1.675230264663696289e+00
2.186000000000000000e+03 1.328342723846435547e+01 -1.006325149536132812e+01 -1.667227506637573242e+00 7.577485561370849609e+00 1.773077368736267090e+00 1.327090024948120117e+00
2.187000000000000000e+03 5.647141265869140625e+01 -8.836127281188964844e+00 -6.663756072521209717e-02 1.461240053176879883e+00 4.183807671070098877e-01 1.424747586250305176e+00
2.188000000000000000e+03 7.195873260498046875e+01 1.343264389038085938e+01 5.776847600936889648e-01 7.028013706207275391e+00 2.281709432601928711e+00 2.340464890003204346e-01
2.189000000000000000e+03 7.121076965332031250e+01 -2.909599113464355469e+01 -1.003648638725280762e+00 7.931421279907226562e+00 2.078331708908081055e+00 -1.945392638444900513e-01
2.190000000000000000e+03 6.667156696319580078e+00 1.925329971313476562e+01 5.490633845329284668e-01 3.543629646301269531e+00 1.227807879447937012e+00 -1.505016922950744629e+00
2.191000000000000000e+03 7.365546417236328125e+01 -3.505101013183593750e+01 -2.893106043338775635e-01 7.940007209777832031e+00 2.295208930969238281e+00 -1.104819849133491516e-01
2.192000000000000000e+03 7.277061462402343750e+01 2.559935188293457031e+01 -2.878834903240203857e-01 7.170845985412597656e+00 2.064888715744018555e+00 4.843664169311523438e-01
2.193000000000000000e+03 7.314360141754150391e+00 2.800539016723632812e+01 -6.794422268867492676e-01 3.929539680480957031e+00 9.750292301177978516e-01 -9.809356331825256348e-01
2.194000000000000000e+03 9.301247596740722656e+00 3.206999588012695312e+01 -6.390568017959594727e-01 3.837105035781860352e+00 9.594144821166992188e-01 -3.485537469387054443e-01
2.195000000000000000e+03 7.417445373535156250e+01 -2.253193855285644531e+01 5.334436893463134766e-01 8.980907440185546875e+00 2.854305267333984375e+00 -1.292540311813354492e+00
2.196000000000000000e+03 7.301683044433593750e+01 -2.231948280334472656e+01 7.198578119277954102e-01 9.659445762634277344e+00 3.113791227340698242e+00 -1.215147256851196289e+00
2.197000000000000000e+03 1.170706176757812500e+01 -2.823440361022949219e+01 -1.017793536186218262e+00 4.909416675567626953e+00 1.167486906051635742e+00 6.436468362808227539e-01
2.198000000000000000e+03 7.127304840087890625e+01 2.404199028015136719e+01 -3.278698921203613281e-01 7.155161857604980469e+00 2.048187494277954102e+00 5.746249556541442871e-01
2.199000000000000000e+03 7.307515716552734375e+01 1.583027839660644531e+01 3.678214848041534424e-01 6.956031322479248047e+00 2.197155952453613281e+00 4.356663525104522705e-01
2.200000000000000000e+03 3.935969543457031250e+01 1.680681037902832031e+01 1.384876519441604614e-01 6.713588237762451172e+00 2.055622816085815430e+00 1.167743206024169922e+00
2.201000000000000000e+03 3.959928131103515625e+01 2.069483757019042969e+01 -6.378298997879028320e-01 5.481547832489013672e+00 1.453115344047546387e+00 1.000562310218811035e+00
2.202000000000000000e+03 6.800209045410156250e+01 9.144520759582519531e+00 9.003486037254333496e-01 7.495492458343505859e+00 2.518752336502075195e+00 7.351353997364640236e-04
2.203000000000000000e+03 4.013462066650390625e+01 -1.380244445800781250e+01 1.572420120239257812e+00 8.432973861694335938e+00 3.001618146896362305e+00 -1.484751224517822266e+00
2.204000000000000000e+03 4.028264236450195312e+01 -1.518496894836425781e+01 1.858135581016540527e+00 8.681868553161621094e+00 3.162001371383666992e+00 -1.608629941940307617e+00
2.205000000000000000e+03 4.856316757202148438e+01 -1.166617870330810547e+01 1.063019990921020508e+00 1.814235925674438477e+00 8.631767630577087402e-01 2.121872901916503906e+00
2.206000000000000000e+03 7.367984008789062500e+01 -1.849356460571289062e+01 1.569441437721252441e+00 9.441505432128906250e+00 3.303284168243408203e+00 -2.554319798946380615e-01
2.207000000000000000e+03 7.472354888916015625e+01 -1.880319213867187500e+01 1.091677069664001465e+00 8.632878303527832031e+00 2.917366743087768555e+00 -4.422900676727294922e-01
2.208000000000000000e+03 7.344146728515625000e+01 -7.767992019653320312e+00 -9.033573865890502930e-01 8.147186279296875000e+00 2.173148632049560547e+00 -1.678741872310638428e-01
2.209000000000000000e+03 6.987644195556640625e+01 4.725770473480224609e+00 4.819529354572296143e-01 6.882760524749755859e+00 2.209414005279541016e+00 -5.062887072563171387e-01
2.210000000000000000e+03 7.442494201660156250e+01 -1.014478683471679688e+01 -6.386170983314514160e-01 8.485288619995117188e+00 2.354001283645629883e+00 4.783367812633514404e-01
2.211000000000000000e+03 7.106487274169921875e+01 -9.074406623840332031e+00 -1.377472162246704102e+00 8.421584129333496094e+00 2.113233804702758789e+00 -8.103164434432983398e-01
2.212000000000000000e+03 7.309604644775390625e+01 -2.913420677185058594e+00 -3.897764980792999268e-01 7.300662040710449219e+00 2.073265790939331055e+00 -7.461828589439392090e-01
2.213000000000000000e+03 7.306893920898437500e+01 -4.299878597259521484e+00 -5.078387856483459473e-01 7.446463108062744141e+00 2.081587314605712891e+00 -6.905870437622070312e-01
2.214000000000000000e+03 7.428292846679687500e+01 -1.403292179107666016e+00 -1.909974962472915649e-01 7.262843608856201172e+00 2.121553897857666016e+00 -6.822727322578430176e-01
2.215000000000000000e+03 7.308271026611328125e+01 -1.510994195938110352e+00 -1.963645666837692261e-01 7.127585887908935547e+00 2.079366445541381836e+00 -8.052681088447570801e-01
2.216000000000000000e+03 7.413922882080078125e+01 5.835480690002441406e+00 2.473694086074829102e-01 6.841493606567382812e+00 2.126658916473388672e+00 -5.156750679016113281e-01
2.217000000000000000e+03 7.190683746337890625e+01 -1.660382032394409180e+00 -2.421146333217620850e-01 6.994988918304443359e+00 2.025862216949462891e+00 -8.749417662620544434e-01
2.218000000000000000e+03 7.409876251220703125e+01 1.294185733795166016e+01 3.693623840808868408e-01 6.805874824523925781e+00 2.152571201324462891e+00 1.452932208776473999e-01
2.219000000000000000e+03 7.136250305175781250e+01 1.223861122131347656e+01 6.742143630981445312e-01 7.074320793151855469e+00 2.324560642242431641e+00 1.061945185065269470e-01
2.220000000000000000e+03 5.023887157440185547e+00 -1.314644050598144531e+01 1.432991027832031250e-01 1.797016024589538574e+00 5.820945501327514648e-01 5.549173429608345032e-02
2.221000000000000000e+03 7.201074981689453125e+01 -2.723836517333984375e+01 -8.708451390266418457e-01 8.762701034545898438e+00 2.367556571960449219e+00 -6.269046068191528320e-01
2.222000000000000000e+03 7.314965057373046875e+01 -2.698512077331542969e+01 -6.084980368614196777e-01 8.781656265258789062e+00 2.451947450637817383e+00 -1.019985437393188477e+00
2.223000000000000000e+03 7.443574523925781250e+01 1.985027885437011719e+01 8.994489908218383789e-02 7.036794185638427734e+00 2.138021707534790039e+00 6.156771183013916016e-01
2.224000000000000000e+03 7.292782592773437500e+01 2.224296951293945312e+01 -8.513307571411132812e-02 7.171596050262451172e+00 2.125938892364501953e+00 6.787508130073547363e-01
2.225000000000000000e+03 1.021413040161132812e+01 2.310862159729003906e+01 -6.190963983535766602e-01 5.743727684020996094e+00 1.537389397621154785e+00 -1.311002373695373535e+00
2.226000000000000000e+03 7.152054595947265625e+01 2.665320014953613281e+01 -3.791648447513580322e-01 7.048503398895263672e+00 2.000801563262939453e+00 3.777425587177276611e-01
2.227000000000000000e+03 6.364367485046386719e+00 -9.444211959838867188e+00 -3.019037842750549316e-02 2.518477678298950195e+00 7.464861869812011719e-01 2.752537429332733154e-01
2.228000000000000000e+03 5.381540298461914062e+00 2.688545608520507812e+01 -4.411156177520751953e-01 3.505686283111572266e+00 9.193711876869201660e-01 -1.120934247970581055e+00
2.229000000000000000e+03 6.613239765167236328e+00 -1.558262729644775391e+01 6.317141056060791016e-01 3.081648111343383789e+00 1.114008665084838867e+00 3.177395164966583252e-01
2.230000000000000000e+03 5.411915779113769531e+00 -1.839453697204589844e+01 5.894192457199096680e-01 2.345007658004760742e+00 8.803280591964721680e-01 7.619506120681762695e-01
2.231000000000000000e+03 7.062906742095947266e+00 -2.594799804687500000e+01 -1.918551176786422729e-01 3.766194105148315430e+00 1.072301745414733887e+00 1.517660975456237793e+00
2.232000000000000000e+03 1.072106552124023438e+01 -2.771982574462890625e+01 -8.528686165809631348e-01 4.853556632995605469e+00 1.200206398963928223e+00 9.363397359848022461e-01
2.233000000000000000e+03 6.606343269348144531e+00 -1.825001335144042969e+01 8.445960879325866699e-01 3.133710384368896484e+00 1.193491935729980469e+00 8.427746891975402832e-01
2.234000000000000000e+03 5.628997325897216797e+00 -2.387250518798828125e+01 1.297968924045562744e-01 3.070286512374877930e+00 9.600250720977783203e-01 1.500715732574462891e+00
2.235000000000000000e+03 3.828326034545898438e+01 1.631829261779785156e+01 1.734515279531478882e-01 7.213294506072998047e+00 2.216023921966552734e+00 6.883769035339355469e-01
2.236000000000000000e+03 3.590291595458984375e+01 1.580010795593261719e+01 3.274464607238769531e-01 7.721712112426757812e+00 2.414747714996337891e+00 -5.035031437873840332e-01
2.237000000000000000e+03 1.091827201843261719e+01 1.837886810302734375e+01 1.370043277740478516e+00 7.390037536621093750e+00 2.628024339675903320e+00 -1.057614803314208984e+00
2.238000000000000000e+03 6.102111816406250000e+00 1.574716854095458984e+01 7.477926015853881836e-01 2.821032285690307617e+00 1.070647478103637695e+00 -8.275175094604492188e-01
2.239000000000000000e+03 9.850464820861816406e+00 1.388669967651367188e+01 1.249140381813049316e+00 6.237502574920654297e+00 2.245992898941040039e+00 -6.456975340843200684e-01
2.240000000000000000e+03 7.169660949707031250e+01 -3.415934371948242188e+01 -5.296429991722106934e-01 7.280646324157714844e+00 2.025300979614257812e+00 1.509743928909301758e-02
2.241000000000000000e+03 5.509983062744140625e+00 1.271432495117187500e+01 5.556287765502929688e-01 2.110776901245117188e+00 7.999216914176940918e-01 -2.859234809875488281e-01
2.242000000000000000e+03 5.202715873718261719e+00 1.458180141448974609e+01 5.844876766204833984e-01 1.959074974060058594e+00 7.630687952041625977e-01 -5.548874735832214355e-01
2.243000000000000000e+03 5.487146854400634766e+00 1.928269386291503906e+01 4.374265968799591064e-01 2.705188989639282227e+00 9.427847266197204590e-01 -1.376248359680175781e+00
2.244000000000000000e+03 7.385636329650878906e+00 2.640825462341308594e+01 -6.707935929298400879e-01 4.119428157806396484e+00 1.034590363502502441e+00 -1.116828441619873047e+00
2.245000000000000000e+03 6.221457290649414062e+01 -3.152733802795410156e+00 9.337676167488098145e-01 3.509224414825439453e+00 1.332897663116455078e+00 3.179038465023040771e-01
2.246000000000000000e+03 1.005488395690917969e+01 -3.160704040527343750e+01 -9.094066619873046875e-01 4.095538616180419922e+00 9.558395743370056152e-01 6.180548667907714844e-01
2.247000000000000000e+03 5.556786537170410156e+00 -2.119423103332519531e+01 4.374488592147827148e-01 2.736503839492797852e+00 9.521858096122741699e-01 1.262929320335388184e+00
2.248000000000000000e+03 7.786622047424316406e+00 -1.952942276000976562e+01 1.016492605209350586e+00 3.989951372146606445e+00 1.501933217048645020e+00 1.188647150993347168e+00
2.249000000000000000e+03 6.582726001739501953e+00 8.132614135742187500e+00 2.804589569568634033e-01 2.564817905426025391e+00 8.535830378532409668e-01 -2.520304620265960693e-01
2.250000000000000000e+03 5.717949390411376953e+00 6.981320381164550781e+00 3.183571696281433105e-01 1.556800484657287598e+00 5.625472664833068848e-01 -2.589048072695732117e-02
2.251000000000000000e+03 5.850829124450683594e+00 8.673046112060546875e+00 3.039265573024749756e-01 2.063369512557983398e+00 7.101888060569763184e-01 -5.253760144114494324e-02
2.252000000000000000e+03 9.730883598327636719e+00 7.089374065399169922e+00 -2.633534669876098633e-01 5.301888942718505859e+00 1.511560678482055664e+00 -1.351261615753173828e+00
2.253000000000000000e+03 7.796879768371582031e+00 3.573138809204101562e+01 -3.356858789920806885e-01 3.588482379913330078e+00 9.758389592170715332e-01 -2.319792956113815308e-01
2.254000000000000000e+03 1.084854412078857422e+01 2.167228126525878906e+01 -2.367387413978576660e-01 6.317051410675048828e+00 1.824093818664550781e+00 -1.490450978279113770e+00
2.255000000000000000e+03 1.071793937683105469e+01 1.174375915527343750e+01 7.193753123283386230e-01 6.882843017578125000e+00 2.280665636062622070e+00 -5.075569748878479004e-01
2.256000000000000000e+03 1.086638355255126953e+01 -1.224001979827880859e+01 -4.413073360919952393e-01 6.688817024230957031e+00 1.874252796173095703e+00 3.656761348247528076e-01
2.257000000000000000e+03 7.064279079437255859e+00 -1.421872520446777344e+01 5.295100212097167969e-01 3.449134588241577148e+00 1.193593382835388184e+00 1.429494023323059082e-01
2.258000000000000000e+03 5.550317287445068359e+00 -7.823475837707519531e+00 1.147307679057121277e-01 1.574665904045104980e+00 5.068190097808837891e-01 2.033189088106155396e-01
2.259000000000000000e+03 6.099854660034179688e+01 -2.600694656372070312e+00 1.185900807380676270e+00 3.365058898925781250e+00 1.365287899971008301e+00 8.673671483993530273e-01
2.260000000000000000e+03 6.231935501098632812e+01 -7.668163776397705078e+00 1.427058503031730652e-02 1.816196322441101074e+00 5.491400361061096191e-01 -2.826915085315704346e-01
2.261000000000000000e+03 2.290903663635253906e+01 -5.457669734954833984e+00 1.976521134376525879e+00 -1.433843374252319336e-01 5.499410629272460938e-01 -3.273022174835205078e-01
2.262000000000000000e+03 4.160939025878906250e+01 -1.866253662109375000e+01 2.018970251083374023e+00 9.338542938232421875e+00 3.407253980636596680e+00 -1.279124736785888672e+00
2.263000000000000000e+03 4.058504104614257812e+01 -1.900978660583496094e+01 2.086865663528442383e+00 9.483062744140625000e+00 3.470978498458862305e+00 -1.404812216758728027e+00
2.264000000000000000e+03 1.104162025451660156e+01 1.561535739898681641e+01 1.639829039573669434e+00 7.958803176879882812e+00 2.879589796066284180e+00 -1.023700833320617676e+00
2.265000000000000000e+03 3.417876434326171875e+01 -3.157076835632324219e+01 -9.657801985740661621e-01 4.372512817382812500e+00 1.022019743919372559e+00 1.342039942741394043e+00
2.266000000000000000e+03 3.945307922363281250e+01 -3.202053833007812500e+01 -1.039858818054199219e+00 6.694284915924072266e+00 1.696327805519104004e+00 4.913566708564758301e-01
2.267000000000000000e+03 2.064062309265136719e+01 -7.460511684417724609e+00 4.100634157657623291e-01 1.291688442230224609e+00 5.105255842208862305e-01 -2.869884669780731201e-01
2.268000000000000000e+03 4.160705947875976562e+01 -1.500724029541015625e+01 1.757389187812805176e+00 7.957290649414062500e+00 2.914403915405273438e+00 -1.056528925895690918e+00
2.269000000000000000e+03 5.454576492309570312e+01 -1.103592777252197266e+01 -3.610905110836029053e-01 9.313855767250061035e-01 1.710885167121887207e-01 1.600568771362304688e+00
2.270000000000000000e+03 5.350777816772460938e+01 -8.836181640625000000e+00 1.119911000132560730e-01 1.617169976234436035e+00 5.187483429908752441e-01 2.158897161483764648e+00
2.271000000000000000e+03 3.876458740234375000e+01 -2.614294242858886719e+01 8.689213395118713379e-01 8.042643547058105469e+00 2.673469543457031250e+00 -7.148563745431602001e-04
2.272000000000000000e+03 3.788993835449218750e+01 -2.741884994506835938e+01 2.806675732135772705e-01 7.283662796020507812e+00 2.269299030303955078e+00 4.498756229877471924e-01
2.273000000000000000e+03 7.102102279663085938e+00 1.668870544433593750e+01 9.012450575828552246e-01 3.652600765228271484e+00 1.366153717041015625e+00 -1.038205504417419434e+00
2.274000000000000000e+03 6.591628265380859375e+01 2.117304229736328125e+01 -3.864296078681945801e-01 7.358068943023681641e+00 2.091491937637329102e+00 4.410474598407745361e-01
2.275000000000000000e+03 5.089927291870117188e+01 -1.023604202270507812e+01 4.400959312915802002e-01 1.074523687362670898e+00 4.543858766555786133e-01 2.517410993576049805e+00
2.276000000000000000e+03 4.950848007202148438e+01 -9.171718597412109375e+00 4.457668960094451904e-01 8.602129817008972168e-01 3.917939662933349609e-01 2.598703145980834961e+00
2.277000000000000000e+03 4.486506271362304688e+01 -9.520115852355957031e+00 3.335612416267395020e-01 3.084097385406494141e+00 1.025297641754150391e+00 2.317842245101928711e-01
2.278000000000000000e+03 4.383974456787109375e+01 -1.311592769622802734e+01 1.180012702941894531e+00 5.727870464324951172e+00 2.072365045547485352e+00 -2.931382320821285248e-02
2.279000000000000000e+03 4.566221618652343750e+01 -1.124602031707763672e+01 8.078389763832092285e-01 3.458696603775024414e+00 1.279960632324218750e+00 8.550303578376770020e-01
2.280000000000000000e+03 4.344600296020507812e+01 2.010829162597656250e+01 -1.916528195142745972e-01 3.978556632995605469e+00 1.136071085929870605e+00 1.682504296302795410e+00
2.281000000000000000e+03 4.164916610717773438e+01 2.061146163940429688e+01 -4.968915581703186035e-01 4.738898277282714844e+00 1.272601962089538574e+00 1.422588467597961426e+00
2.282000000000000000e+03 4.151159667968750000e+01 -2.906065940856933594e+01 1.362240761518478394e-01 7.943265914916992188e+00 2.423846960067749023e+00 -2.310738265514373779e-01
2.283000000000000000e+03 4.357087707519531250e+01 -2.736050987243652344e+01 1.269446253776550293e+00 8.713447570800781250e+00 2.994868040084838867e+00 -1.052087545394897461e+00
2.284000000000000000e+03 3.560797882080078125e+01 1.730452156066894531e+01 2.321190834045410156e-01 6.999998092651367188e+00 2.169635295867919922e+00 -4.112882018089294434e-01
2.285000000000000000e+03 5.576734924316406250e+01 -1.081113910675048828e+01 -5.396834015846252441e-01 1.041115164756774902e+00 1.504295319318771362e-01 1.281592845916748047e+00
2.286000000000000000e+03 3.606099700927734375e+01 -4.312148571014404297e+00 -1.060093283653259277e+00 9.374887466430664062e+00 2.494438171386718750e+00 -1.149150967597961426e+00
2.287000000000000000e+03 4.090680694580078125e+01 -1.099863147735595703e+01 4.913928806781768799e-01 6.939724445343017578e+00 2.229335308074951172e+00 -1.161934733390808105e+00
2.288000000000000000e+03 3.920393753051757812e+01 -9.546247482299804688e+00 -3.303585350513458252e-01 8.216403961181640625e+00 2.365813732147216797e+00 -1.443880438804626465e+00
2.289000000000000000e+03 6.028354644775390625e+01 -6.244989871978759766e+00 5.423688292503356934e-01 2.000832796096801758e+00 7.629604935646057129e-01 5.702080726623535156e-01
2.290000000000000000e+03 1.066314220428466797e+01 -2.466435050964355469e+01 -2.441301345825195312e-01 5.602650165557861328e+00 1.607555985450744629e+00 1.302464246749877930e+00
2.291000000000000000e+03 4.845255279541015625e+01 2.489528083801269531e+01 -5.810978412628173828e-01 2.010648012161254883e+00 4.288650155067443848e-01 1.364361166954040527e+00
2.292000000000000000e+03 1.307048606872558594e+01 2.574502563476562500e+01 -1.526536464691162109e+00 5.127110958099365234e+00 1.080172419548034668e+00 4.842735454440116882e-02
2.293000000000000000e+03 1.506659698486328125e+01 2.520207214355468750e+01 -1.515014410018920898e+00 4.667787551879882812e+00 9.458318948745727539e-01 8.699743747711181641e-01
2.294000000000000000e+03 6.756205749511718750e+01 -9.228638648986816406e+00 -1.544968962669372559e+00 6.281624317169189453e+00 1.420996546745300293e+00 -2.339176177978515625e+00
2.295000000000000000e+03 4.029014205932617188e+01 -1.001918983459472656e+01 -1.015109494328498840e-01 7.392251014709472656e+00 2.187222003936767578e+00 -1.318328261375427246e+00
2.296000000000000000e+03 1.702107810974121094e+01 -3.128824234008789062e+01 -1.115640163421630859e+00 2.799655914306640625e+00 5.052047371864318848e-01 -6.245462894439697266e-01
2.297000000000000000e+03 3.919088363647460938e+01 -6.412352085113525391e+00 -1.795014858245849609e+00 8.381258010864257812e+00 1.975872755050659180e+00 -1.765024185180664062e+00
2.298000000000000000e+03 3.891496658325195312e+01 -4.998964309692382812e+00 -1.864533424377441406e+00 8.725085258483886719e+00 2.058165550231933594e+00 -1.563059091567993164e+00
2.299000000000000000e+03 9.456196784973144531e+00 2.105587387084960938e+01 3.647565543651580811e-01 5.599350452423095703e+00 1.789232134819030762e+00 -1.684572577476501465e+00
2.300000000000000000e+03 6.459256649017333984e+00 1.800365257263183594e+01 7.589437961578369141e-01 3.322071313858032227e+00 1.224304556846618652e+00 -1.302565336227416992e+00
2.301000000000000000e+03 4.175996398925781250e+01 -1.642029190063476562e+01 1.932906150817871094e+00 8.407411575317382812e+00 3.102095127105712891e+00 -1.168046236038208008e+00
2.302000000000000000e+03 3.199743461608886719e+01 -4.924148559570312500e+00 3.946393728256225586e-01 5.205374717712402344e+00 1.680004239082336426e+00 -1.273118138313293457e+00
2.303000000000000000e+03 1.362311267852783203e+01 -3.089582443237304688e+01 -1.153182983398437500e+00 3.926284790039062500e+00 8.319305181503295898e-01 2.844349294900894165e-02
2.304000000000000000e+03 1.651151657104492188e+01 -3.491849517822265625e+01 -7.825434207916259766e-01 2.609612226486206055e+00 5.481206178665161133e-01 -4.308083057403564453e-01
2.305000000000000000e+03 5.957616043090820312e+01 -4.857359886169433594e+00 1.024278283119201660e+00 2.418024063110351562e+00 1.032690763473510742e+00 9.234153032302856445e-01
2.306000000000000000e+03 6.061820602416992188e+01 -5.261882781982421875e+00 8.751501441001892090e-01 2.338930368423461914e+00 9.642241597175598145e-01 5.658989548683166504e-01
2.307000000000000000e+03 6.731888580322265625e+01 3.105497360229492188e+00 5.674771070480346680e-01 6.598585128784179688e+00 2.149818658828735352e+00 -3.323777914047241211e-01
2.308000000000000000e+03 6.315554809570312500e+01 9.416396021842956543e-01 8.575452566146850586e-01 5.344398975372314453e+00 1.860583305358886719e+00 6.704265475273132324e-01
2.309000000000000000e+03 6.492461395263671875e+01 1.444559693336486816e+00 6.710735559463500977e-01 5.913761138916015625e+00 1.975450396537780762e+00 1.119454577565193176e-01
2.310000000000000000e+03 6.893016052246093750e+01 1.305365562438964844e+01 8.762838840484619141e-01 7.485736370086669922e+00 2.508606195449829102e+00 2.251407504081726074e-01
2.311000000000000000e+03 6.797174072265625000e+01 1.466120147705078125e+01 9.108579754829406738e-01 7.697525024414062500e+00 2.582514762878417969e+00 3.266583085060119629e-01
2.312000000000000000e+03 7.285887145996093750e+01 7.740672588348388672e+00 4.132592976093292236e-01 6.883691310882568359e+00 2.189085245132446289e+00 -3.804630041122436523e-01
2.313000000000000000e+03 3.070658874511718750e+01 2.443171882629394531e+01 -1.119625449180603027e+00 3.786437273025512695e+00 8.000435233116149902e-01 -1.102006435394287109e+00
2.314000000000000000e+03 3.006250000000000000e+01 2.680080413818359375e+01 -1.000946521759033203e+00 3.178059339523315430e+00 6.531338095664978027e-01 -1.018105864524841309e+00
2.315000000000000000e+03 9.406498908996582031e+00 1.483165550231933594e+01 1.417204499244689941e+00 5.723993301391601562e+00 2.142359256744384766e+00 -7.600036263465881348e-01
2.316000000000000000e+03 1.010972213745117188e+01 1.244094467163085938e+01 9.840866327285766602e-01 6.506367206573486328e+00 2.247136116027832031e+00 -4.971773028373718262e-01
2.317000000000000000e+03 6.770874786376953125e+01 7.751240253448486328e+00 8.612409830093383789e-01 7.335619926452636719e+00 2.459058284759521484e+00 -4.388358071446418762e-02
2.318000000000000000e+03 6.830210876464843750e+01 1.048422050476074219e+01 9.210799336433410645e-01 7.516556262969970703e+00 2.531291007995605469e+00 6.539281457662582397e-02
2.319000000000000000e+03 3.167693901062011719e+01 -3.249024200439453125e+01 -8.588273525238037109e-01 2.651341199874877930e+00 5.377541184425354004e-01 1.418671488761901855e+00
2.320000000000000000e+03 3.349144744873046875e+01 -3.315444946289062500e+01 -9.718272089958190918e-01 3.717669725418090820e+00 8.237527608871459961e-01 1.268451213836669922e+00
2.321000000000000000e+03 3.749194717407226562e+01 -3.091005325317382812e+01 -8.932700753211975098e-01 6.207707881927490234e+00 1.594331383705139160e+00 7.588217258453369141e-01
2.322000000000000000e+03 5.922706604003906250e+01 2.672449493408203125e+01 -3.693497180938720703e-01 2.677197694778442383e+00 6.923543810844421387e-01 -1.048487305641174316e+00
2.323000000000000000e+03 2.002626991271972656e+01 -3.312361907958984375e+01 -8.161807656288146973e-01 1.390985369682312012e+00 1.724413931369781494e-01 -6.792629361152648926e-01
2.324000000000000000e+03 8.591361999511718750e+00 -1.560738563537597656e+01 1.031015515327453613e+00 4.694940567016601562e+00 1.717786908149719238e+00 3.029247522354125977e-01
2.325000000000000000e+03 4.283367919921875000e+01 -9.926592826843261719e+00 3.286018371582031250e-01 5.038743019104003906e+00 1.610203504562377930e+00 -6.212237477302551270e-01
2.326000000000000000e+03 4.122039031982421875e+01 -9.203004837036132812e+00 -2.719608843326568604e-01 6.376029968261718750e+00 1.831220746040344238e+00 -1.238571524620056152e+00
2.327000000000000000e+03 7.190857696533203125e+01 -2.188724517822265625e+01 1.026830554008483887e+00 1.031306743621826172e+01 3.401969432830810547e+00 -9.639422893524169922e-01
2.328000000000000000e+03 6.403033447265625000e+01 -2.293929576873779297e+00 6.587521433830261230e-01 4.483374118804931641e+00 1.542637825012207031e+00 -1.425451189279556274e-01
2.329000000000000000e+03 6.411731719970703125e+01 3.906413912773132324e-01 7.081826329231262207e-01 5.413768291473388672e+00 1.836585283279418945e+00 2.179432660341262817e-01
2.330000000000000000e+03 5.777470397949218750e+01 2.826272392272949219e+01 -1.265798136591911316e-02 2.302198410034179688e+00 6.868621110916137695e-01 -5.776946544647216797e-01
2.331000000000000000e+03 6.935558795928955078e+00 -2.998484802246093750e+01 -5.460723638534545898e-01 3.812591552734375000e+00 9.799557328224182129e-01 1.075753331184387207e+00
2.332000000000000000e+03 6.660397338867187500e+01 1.257441043853759766e+00 4.872324168682098389e-01 6.128524780273437500e+00 1.984727144241333008e+00 -3.677864670753479004e-01
2.333000000000000000e+03 3.665496063232421875e+01 -6.942240715026855469e+00 -1.547910690307617188e+00 9.448789596557617188e+00 2.370263576507568359e+00 -1.604209184646606445e+00
2.334000000000000000e+03 3.283411407470703125e+01 2.176438522338867188e+01 -6.354131698608398438e-01 5.297229290008544922e+00 1.398544907569885254e+00 -6.289856433868408203e-01
2.335000000000000000e+03 3.194013214111328125e+01 2.326985359191894531e+01 -1.045762419700622559e+00 4.555515289306640625e+00 1.052925944328308105e+00 -8.462283015251159668e-01
2.336000000000000000e+03 4.617367935180664062e+01 -1.240076541900634766e+01 1.202753782272338867e+00 3.516990423202514648e+00 1.415923237800598145e+00 1.224102377891540527e+00
2.337000000000000000e+03 7.142208099365234375e+01 -3.069426345825195312e+01 -9.299618601799011230e-01 7.621533870697021484e+00 2.007471561431884766e+00 -1.370850354433059692e-01
2.338000000000000000e+03 7.246261596679687500e+01 -2.880694198608398438e+01 -9.283185601234436035e-01 8.373006820678710938e+00 2.233406305313110352e+00 -5.571049451828002930e-01
2.339000000000000000e+03 5.135128784179687500e+01 -3.573602294921875000e+01 -3.106476068496704102e-01 2.448484182357788086e+00 6.413509249687194824e-01 -1.511941194534301758e+00
2.340000000000000000e+03 4.788658905029296875e+01 -3.574455261230468750e+01 -8.903059959411621094e-01 4.388019084930419922e+00 1.049313902854919434e+00 -1.606171250343322754e+00
2.341000000000000000e+03 3.993940353393554688e+01 -1.116329002380371094e+01 5.892973542213439941e-01 7.998708248138427734e+00 2.576401710510253906e+00 -1.381152868270874023e+00
2.342000000000000000e+03 4.119073867797851562e+01 -1.224702835083007812e+01 9.903843402862548828e-01 7.196805477142333984e+00 2.456156969070434570e+00 -1.059006810188293457e+00
2.343000000000000000e+03 1.682454299926757812e+01 2.970352172851562500e+01 -7.783930301666259766e-01 2.959509849548339844e+00 6.543350815773010254e-01 6.923099756240844727e-01
2.344000000000000000e+03 7.288964080810546875e+01 1.911128044128417969e+01 1.818518787622451782e-01 7.066946506500244141e+00 2.174639463424682617e+00 6.598154306411743164e-01
2.345000000000000000e+03 2.633900451660156250e+01 3.193924903869628906e+01 -3.281807303428649902e-01 2.116207838058471680e+00 5.364081859588623047e-01 -5.174218416213989258e-01
2.346000000000000000e+03 1.271133422851562500e+01 -2.473108768463134766e+00 8.664385080337524414e-01 1.089957427978515625e+01 3.529803991317749023e+00 4.140668392181396484e+00
2.347000000000000000e+03 1.300775051116943359e+01 -2.560457944869995117e+00 5.373132824897766113e-01 1.186524868011474609e+01 3.720768690109252930e+00 3.459601640701293945e+00
2.348000000000000000e+03 1.357011127471923828e+01 -2.742810964584350586e+00 3.012694120407104492e-01 1.261816310882568359e+01 3.875829696655273438e+00 1.822979807853698730e+00
2.349000000000000000e+03 1.507075500488281250e+01 6.363680362701416016e+00 -2.280986070632934570e+00 8.868741989135742188e+00 1.976326942443847656e+00 -1.281362652778625488e+00
2.350000000000000000e+03 1.570094299316406250e+01 7.118799090385437012e-01 7.028870105743408203e+00 9.052280426025390625e+00 4.824345111846923828e+00 5.196462273597717285e-01
2.351000000000000000e+03 1.388637351989746094e+01 -2.808388710021972656e+00 4.002923965454101562e-01 1.252467823028564453e+01 3.877490997314453125e+00 1.057795524597167969e+00
2.352000000000000000e+03 1.858374595642089844e+01 1.726456165313720703e+00 3.413114547729492188e+00 2.955904960632324219e+00 1.910705804824829102e+00 5.689869076013565063e-02
2.353000000000000000e+03 1.566407775878906250e+01 1.034969329833984375e+00 6.153487205505371094e+00 9.346743583679199219e+00 4.650069236755371094e+00 9.039207100868225098e-01
2.354000000000000000e+03 1.388964653015136719e+01 2.594620227813720703e+00 -9.097856283187866211e-02 1.372817039489746094e+01 4.091157913208007812e+00 -1.705065369606018066e+00
2.355000000000000000e+03 1.486493587493896484e+01 -1.795601129531860352e+00 3.683452129364013672e+00 1.236740303039550781e+01 4.815256595611572266e+00 -2.210934877395629883e+00
2.356000000000000000e+03 1.454064369201660156e+01 -2.427592515945434570e+00 1.660273790359497070e+00 1.255192661285400391e+01 4.263659954071044922e+00 -8.877764344215393066e-01
2.357000000000000000e+03 1.637468910217285156e+01 -3.962289690971374512e-01 6.764307022094726562e+00 7.014522552490234375e+00 4.133648872375488281e+00 -1.333227157592773438e+00
2.358000000000000000e+03 1.577601623535156250e+01 -1.486122488975524902e+00 5.310622692108154297e+00 9.158152580261230469e+00 4.340632438659667969e+00 -2.460141658782958984e+00
2.359000000000000000e+03 1.555689907073974609e+01 4.623271465301513672e+00 -1.278910756111145020e+00 9.087589263916015625e+00 2.342603445053100586e+00 -6.865713000297546387e-01
2.360000000000000000e+03 1.584673404693603516e+01 -5.565398335456848145e-01 7.391448497772216797e+00 8.438667297363281250e+00 4.749034881591796875e+00 -1.773889183998107910e+00
2.361000000000000000e+03 1.601532936096191406e+01 1.409228295087814331e-01 7.408906936645507812e+00 7.868418216705322266e+00 4.583197593688964844e+00 -5.557376742362976074e-01
2.362000000000000000e+03 1.502912998199462891e+01 2.296031236648559570e+00 1.949209809303283691e+00 1.202760696411132812e+01 4.193045139312744141e+00 6.838427782058715820e-01
2.363000000000000000e+03 1.565864849090576172e+01 2.409540176391601562e+00 2.194094896316528320e+00 9.886987686157226562e+00 3.624324798583984375e+00 7.652680873870849609e-01
2.364000000000000000e+03 1.538424205780029297e+01 8.301106095314025879e-01 7.364269733428955078e+00 1.023151969909667969e+01 5.278736591339111328e+00 9.198619723320007324e-01
2.365000000000000000e+03 1.571584129333496094e+01 1.920705199241638184e+00 3.565785408020019531e+00 9.810414314270019531e+00 4.012859821319580078e+00 1.101151466369628906e+00
2.366000000000000000e+03 1.188023948669433594e+01 3.285812616348266602e+00 3.049033880233764648e-01 7.936275959014892578e+00 2.472353935241699219e+00 -4.436772823333740234e+00
2.367000000000000000e+03 1.224601364135742188e+01 3.136042118072509766e+00 1.303060948848724365e-01 9.110677719116210938e+00 2.772295236587524414e+00 -4.520788669586181641e+00
2.368000000000000000e+03 1.017924594879150391e+01 -3.788725614547729492e+00 1.114286899566650391e+00 3.477829933166503906e+00 1.377635002136230469e+00 2.724204540252685547e+00
2.369000000000000000e+03 9.799812316894531250e+00 -4.172361850738525391e+00 8.998984694480895996e-01 3.283223390579223633e+00 1.254936575889587402e+00 2.363258123397827148e+00
2.370000000000000000e+03 1.695844268798828125e+01 4.201121807098388672e+00 -2.560101151466369629e-01 6.835732936859130859e+00 1.973916769027709961e+00 1.265956014394760132e-01
2.371000000000000000e+03 1.623837661743164062e+01 4.475551128387451172e+00 -8.670158386230468750e-01 8.005674362182617188e+00 2.141597509384155273e+00 -2.337896078824996948e-01
2.372000000000000000e+03 1.907668304443359375e+01 1.266314268112182617e+00 3.837197780609130859e+00 2.174142599105834961e+00 1.803402066230773926e+00 -1.495642662048339844e-01
2.373000000000000000e+03 1.904926681518554688e+01 2.267116069793701172e+00 2.649956226348876953e+00 2.275755405426025391e+00 1.477713465690612793e+00 1.120619997382164001e-01
2.374000000000000000e+03 1.996425819396972656e+01 2.318312823772430420e-01 4.218978881835937500e+00 9.678809642791748047e-01 1.556057929992675781e+00 -5.317940115928649902e-01
2.375000000000000000e+03 1.024708557128906250e+01 3.676596879959106445e+00 7.796242833137512207e-01 4.065975666046142578e+00 1.453680038452148438e+00 -2.920290946960449219e+00
2.376000000000000000e+03 1.098953342437744141e+01 4.185314655303955078e+00 1.549920588731765747e-01 5.949533462524414062e+00 1.831357598304748535e+00 -3.389753818511962891e+00
2.377000000000000000e+03 8.207507133483886719e+00 -4.961597442626953125e+00 5.822253227233886719e-01 2.249008893966674805e+00 8.493703007698059082e-01 1.278574109077453613e+00
2.378000000000000000e+03 1.557775402069091797e+01 5.671327590942382812e+00 -2.038641691207885742e+00 8.421199798583984375e+00 1.914767384529113770e+00 -1.050732612609863281e+00
2.379000000000000000e+03 5.739599704742431641e+00 -6.046146392822265625e+00 3.099968433380126953e-01 1.239976286888122559e+00 4.649919569492340088e-01 2.857321798801422119e-01
2.380000000000000000e+03 6.694025993347167969e+00 -6.701340198516845703e+00 2.140150666236877441e-01 1.965369582176208496e+00 6.538153886795043945e-01 5.481485128402709961e-01
2.381000000000000000e+03 7.393159866333007812e+00 -6.282647132873535156e+00 2.713935375213623047e-01 2.343401908874511719e+00 7.844386100769042969e-01 8.530145287513732910e-01
2.382000000000000000e+03 8.879198074340820312e+00 5.136638641357421875e+00 3.757311105728149414e-01 3.428369522094726562e+00 1.141230225563049316e+00 -1.580568671226501465e+00
2.383000000000000000e+03 1.310473728179931641e+01 7.348730564117431641e+00 -1.863322496414184570e+00 8.939594268798828125e+00 2.122881650924682617e+00 -1.643872261047363281e+00
2.384000000000000000e+03 5.731933116912841797e+00 7.825109004974365234e+00 2.976040244102478027e-01 1.717910051345825195e+00 6.046542525291442871e-01 -4.072165116667747498e-02
2.385000000000000000e+03 5.667321681976318359e+00 5.461919307708740234e+00 3.097926676273345947e-01 9.814292788505554199e-01 3.873665928840637207e-01 8.785054832696914673e-02
2.386000000000000000e+03 1.727200317382812500e+01 -1.059793949127197266e+00 5.427436828613281250e+00 5.270741462707519531e+00 3.209453582763671875e+00 -1.621143341064453125e+00
2.387000000000000000e+03 2.223528289794921875e+01 -5.367974281311035156e+00 2.041287660598754883e+00 2.113262563943862915e-01 6.757841110229492188e-01 -3.993597328662872314e-01
2.388000000000000000e+03 7.551270008087158203e+00 4.948211669921875000e+00 4.408242106437683105e-01 2.081678628921508789e+00 7.567508220672607422e-01 -7.221091985702514648e-01
2.389000000000000000e+03 9.879527091979980469e+00 4.182418346405029297e+00 5.455396175384521484e-01 4.015237331390380859e+00 1.368233084678649902e+00 -2.438183784484863281e+00
2.390000000000000000e+03 1.523768138885498047e+01 -9.026018142700195312e+00 -1.784220457077026367e+00 6.735110759735107422e+00 1.485267043113708496e+00 1.753531098365783691e+00
2.391000000000000000e+03 1.755804634094238281e+01 -7.827489852905273438e+00 -6.286174654960632324e-01 4.564246654510498047e+00 1.180688738822937012e+00 7.838937044143676758e-01
2.392000000000000000e+03 1.841834259033203125e+01 2.659501791000366211e+00 2.207187652587890625e+00 3.343639373779296875e+00 1.665248155593872070e+00 2.834677696228027344e-01
2.393000000000000000e+03 1.794389152526855469e+01 3.588999271392822266e+00 8.195017576217651367e-01 4.361701965332031250e+00 1.554361104965209961e+00 2.313398569822311401e-01
2.394000000000000000e+03 8.532956123352050781e+00 -5.540700435638427734e+00 4.051392972469329834e-01 2.856605291366577148e+00 9.785233736038208008e-01 1.442026257514953613e+00
2.395000000000000000e+03 1.222175979614257812e+01 -9.423698425292968750e+00 -1.466544508934020996e+00 7.154747009277343750e+00 1.706460833549499512e+00 1.286945104598999023e+00
2.396000000000000000e+03 1.433969974517822266e+01 6.729208946228027344e+00 -2.208640098571777344e+00 9.102991104125976562e+00 2.068305253982543945e+00 -1.585075378417968750e+00
2.397000000000000000e+03 7.389334201812744141e+00 -9.741206169128417969e+00 -1.541543900966644287e-01 3.407205820083618164e+00 9.759154319763183594e-01 4.446324408054351807e-01
2.398000000000000000e+03 1.454811286926269531e+01 6.259647846221923828e+00 -2.242255926132202148e+00 9.136618614196777344e+00 2.068308591842651367e+00 -1.563028216361999512e+00
2.399000000000000000e+03 1.445272064208984375e+01 2.846062660217285156e+00 1.381413340568542480e-01 1.269018745422363281e+01 3.848498582839965820e+00 -6.212676167488098145e-01
2.400000000000000000e+03 1.674506759643554688e+01 4.709368228912353516e+00 -8.863563537597656250e-01 6.991239547729492188e+00 1.831464886665344238e+00 -2.025485336780548096e-01
2.401000000000000000e+03 1.612875556945800781e+01 -9.064475059509277344e+00 -1.580798149108886719e+00 5.865939617156982422e+00 1.285542368888854980e+00 1.579969525337219238e+00
2.402000000000000000e+03 7.069983959197998047e+00 6.294542312622070312e+00 3.446373343467712402e-01 2.283399343490600586e+00 7.884110212326049805e-01 -4.552364647388458252e-01
2.403000000000000000e+03 8.237627983093261719e+00 5.152742385864257812e+00 4.218153953552246094e-01 2.775821924209594727e+00 9.592912197113037109e-01 -1.081001043319702148e+00
2.404000000000000000e+03 1.266033172607421875e+01 8.642771720886230469e+00 -1.163852453231811523e+00 8.654287338256835938e+00 2.247130632400512695e+00 -1.194780230522155762e+00
2.405000000000000000e+03 1.188708591461181641e+01 1.010417747497558594e+01 -1.797081530094146729e-01 8.051194190979003906e+00 2.361445903778076172e+00 -7.524301409721374512e-01
2.406000000000000000e+03 6.013743877410888672e+00 -1.349644947052001953e+01 2.796395719051361084e-01 2.604765415191650391e+00 8.653214573860168457e-01 9.964884817600250244e-02
2.407000000000000000e+03 1.941698455810546875e+01 -5.934249877929687500e+00 1.204938411712646484e+00 2.621968269348144531e+00 1.148072004318237305e+00 -4.326790869235992432e-01
2.408000000000000000e+03 7.102034568786621094e+00 1.569192504882812500e+01 9.685892462730407715e-01 3.737834453582763672e+00 1.411927103996276855e+00 -9.212322831153869629e-01
2.409000000000000000e+03 7.090870857238769531e+00 1.463123416900634766e+01 8.989520072937011719e-01 3.499993562698364258e+00 1.319683670997619629e+00 -7.078825831413269043e-01
2.410000000000000000e+03 9.804652214050292969e+00 1.774041366577148438e+01 1.310395359992980957e+00 6.006190299987792969e+00 2.194975852966308594e+00 -1.306172370910644531e+00
2.411000000000000000e+03 7.412318706512451172e+00 1.757996177673339844e+01 9.475321173667907715e-01 4.118239879608154297e+00 1.519731521606445312e+00 -1.304098248481750488e+00
2.412000000000000000e+03 1.915854263305664062e+01 -1.169241294264793396e-01 4.608633041381835938e+00 2.035934925079345703e+00 1.993370413780212402e+00 -7.654424905776977539e-01
2.413000000000000000e+03 2.272840690612792969e+01 -3.765743255615234375e+00 3.204589605331420898e+00 -3.428777158260345459e-01 8.585135936737060547e-01 -3.007655143737792969e-01
2.414000000000000000e+03 7.298188018798828125e+01 -5.713721752166748047e+00 -7.601552009582519531e-01 7.740765571594238281e+00 2.094183206558227539e+00 -5.457206368446350098e-01
2.415000000000000000e+03 6.846028900146484375e+01 -8.054633140563964844e+00 -1.248887538909912109e+00 6.614702701568603516e+00 1.609744548797607422e+00 -1.731261014938354492e+00
2.416000000000000000e+03 1.348864078521728516e+01 -9.388305664062500000e+00 -1.829371809959411621e+00 7.600635051727294922e+00 1.731378912925720215e+00 1.493018746376037598e+00
2.417000000000000000e+03 1.184060096740722656e+01 -1.069037532806396484e+01 -1.151645064353942871e+00 7.100333690643310547e+00 1.784606575965881348e+00 9.546061754226684570e-01
2.418000000000000000e+03 1.169410991668701172e+01 -1.178313922882080078e+01 -7.358978390693664551e-01 7.156343460083007812e+00 1.926133632659912109e+00 6.060884594917297363e-01
2.419000000000000000e+03 6.321492385864257812e+01 -7.041957855224609375e+00 2.076404094696044922e-01 2.311950922012329102e+00 7.558773756027221680e-01 -6.919052600860595703e-01
2.420000000000000000e+03 6.455326080322265625e+01 -1.142009377479553223e+00 5.940311551094055176e-01 5.057297229766845703e+00 1.695398449897766113e+00 -1.422633677721023560e-01
2.421000000000000000e+03 4.140807342529296875e+01 -1.361096191406250000e+01 1.374767184257507324e+00 7.418927669525146484e+00 2.638108491897583008e+00 -1.078962326049804688e+00
2.422000000000000000e+03 2.412685775756835938e+01 -3.908513545989990234e+00 3.119366645812988281e+00 -7.415577769279479980e-01 7.133426666259765625e-01 -3.975040465593338013e-02
2.423000000000000000e+03 7.298628997802734375e+01 1.696663475036621094e+01 3.250395655632019043e-01 6.994850158691406250e+00 2.195966958999633789e+00 5.345078110694885254e-01
2.424000000000000000e+03 3.793323516845703125e+01 1.750240325927734375e+01 -1.210427284240722656e-02 6.765871047973632812e+00 2.026129961013793945e+00 5.469126105308532715e-01
2.425000000000000000e+03 3.684889984130859375e+01 1.743597221374511719e+01 -9.444990195333957672e-03 6.940573215484619141e+00 2.079338550567626953e+00 8.070747554302215576e-02
2.426000000000000000e+03 2.459058570861816406e+01 -2.334867715835571289e+00 3.810650825500488281e+00 -1.025284409523010254e+00 8.356099724769592285e-01 7.112633436918258667e-02
2.427000000000000000e+03 2.172465515136718750e+01 -1.686482310295104980e+00 4.043836593627929688e+00 -3.298078775405883789e-01 1.114208579063415527e+00 -5.323120951652526855e-01
2.428000000000000000e+03 6.651527404785156250e+00 -1.966508483886718750e+01 7.922157645225524902e-01 3.308868646621704102e+00 1.230325341224670410e+00 1.107990145683288574e+00
2.429000000000000000e+03 8.912630081176757812e+00 -1.927577400207519531e+01 1.288876652717590332e+00 5.046125411987304688e+00 1.900500535964965820e+00 1.040889859199523926e+00
2.430000000000000000e+03 5.447333526611328125e+01 -1.000416564941406250e+01 -1.756580322980880737e-01 1.267694473266601562e+00 3.276109397411346436e-01 1.756783246994018555e+00
2.431000000000000000e+03 7.320436096191406250e+01 1.040855216979980469e+01 4.523078203201293945e-01 6.865601539611816406e+00 2.195372819900512695e+00 -1.117754802107810974e-01
2.432000000000000000e+03 7.409275054931640625e+01 -8.627492904663085938e+00 -7.672191858291625977e-01 8.298800468444824219e+00 2.259474277496337891e+00 6.920748203992843628e-02
2.433000000000000000e+03 7.200361633300781250e+01 2.287232780456542969e+01 -1.808485239744186401e-01 7.167339324951171875e+00 2.095947265625000000e+00 6.621493101119995117e-01
2.434000000000000000e+03 2.786312484741210938e+01 -4.302909374237060547e+00 2.480904817581176758e+00 2.123775482177734375e-01 8.079846501350402832e-01 -4.508821666240692139e-02
2.435000000000000000e+03 3.558218383789062500e+01 -1.900615453720092773e+00 2.918776869773864746e-01 9.702508926391601562e+00 2.998315811157226562e+00 -3.267265856266021729e-01
2.436000000000000000e+03 3.430580520629882812e+01 -2.781809568405151367e+00 2.579500973224639893e-01 8.500991821289062500e+00 2.627682447433471680e+00 -3.307810723781585693e-01
2.437000000000000000e+03 4.471312332153320312e+01 -1.167888450622558594e+01 9.108458161354064941e-01 4.380026817321777344e+00 1.587261795997619629e+00 3.847447931766510010e-01
2.438000000000000000e+03 7.290670013427734375e+01 2.798026800155639648e+00 1.523310691118240356e-01 6.916198253631591797e+00 2.120558738708496094e+00 -7.004016637802124023e-01
2.439000000000000000e+03 7.120062255859375000e+01 3.744646310806274414e+00 3.055694103240966797e-01 6.871464252471923828e+00 2.153110027313232422e+00 -6.474933028221130371e-01
2.440000000000000000e+03 6.742246246337890625e+01 6.275904178619384766e+00 7.864280939102172852e-01 7.183105468750000000e+00 2.390860080718994141e+00 -1.168243885040283203e-01
2.441000000000000000e+03 7.161525726318359375e+01 8.190680503845214844e+00 5.596832036972045898e-01 6.948694229125976562e+00 2.252513170242309570e+00 -3.073536455631256104e-01
2.442000000000000000e+03 6.061065673828125000e+01 -7.298208713531494141e+00 2.907045185565948486e-01 1.732885956764221191e+00 6.070771217346191406e-01 4.881367683410644531e-01
2.443000000000000000e+03 1.042150497436523438e+01 -1.360829734802246094e+01 3.408001661300659180e-01 6.422297477722167969e+00 2.028929471969604492e+00 1.864248365163803101e-01
2.444000000000000000e+03 6.727132415771484375e+01 2.066850090026855469e+01 -4.098147153854370117e-03 7.436296939849853516e+00 2.229659557342529297e+00 5.986057519912719727e-01
2.445000000000000000e+03 2.350922203063964844e+01 -1.555450558662414551e+00 3.955489158630371094e+00 -1.077517509460449219e+00 8.633915185928344727e-01 -6.919308751821517944e-02
2.446000000000000000e+03 9.386665344238281250e+00 -6.496736049652099609e+00 -4.636161029338836670e-02 4.100170135498046875e+00 1.216142535209655762e+00 1.707209706306457520e+00
2.447000000000000000e+03 6.265932559967041016e+00 -1.211017894744873047e+01 1.370773017406463623e-01 2.798702001571655273e+00 8.807337880134582520e-01 3.985548764467239380e-02
2.448000000000000000e+03 7.246751403808593750e+01 2.446313858032226562e+01 -2.675048410892486572e-01 7.166023731231689453e+00 2.069555521011352539e+00 5.485184788703918457e-01
2.449000000000000000e+03 5.755105590820312500e+01 -7.978990554809570312e+00 9.440958499908447266e-02 1.565277576446533203e+00 4.979061484336853027e-01 1.178261399269104004e+00
2.450000000000000000e+03 7.816627025604248047e+00 2.504309463500976562e+01 -6.853533387184143066e-01 4.335326194763183594e+00 1.094991922378540039e+00 -1.407987594604492188e+00
2.451000000000000000e+03 7.326749420166015625e+01 1.156651496887207031e+01 4.418238103389739990e-01 6.851228713989257812e+00 2.187915802001953125e+00 4.765378776937723160e-03
2.452000000000000000e+03 6.861285400390625000e+01 1.178825664520263672e+01 9.138713479042053223e-01 7.549487590789794922e+00 2.539007663726806641e+00 1.318446546792984009e-01
2.453000000000000000e+03 7.224880981445312500e+01 -1.168182849884033203e+01 -9.272347092628479004e-01 9.533406257629394531e+00 2.581851482391357422e+00 3.956061899662017822e-01
2.454000000000000000e+03 7.444225311279296875e+01 -1.289258003234863281e+01 1.045410055667161942e-02 8.858129501342773438e+00 2.660575151443481445e+00 8.415063619613647461e-01
2.455000000000000000e+03 7.302400207519531250e+01 5.670084953308105469e+00 3.089889883995056152e-01 6.876087188720703125e+00 2.155522823333740234e+00 -5.244308114051818848e-01
2.456000000000000000e+03 7.176762390136718750e+01 -5.574632167816162109e+00 -7.860953807830810547e-01 7.483396053314208984e+00 2.009190320968627930e+00 -8.619927167892456055e-01
2.457000000000000000e+03 6.127140808105468750e+01 -5.862835884094238281e+00 5.865461230278015137e-01 2.310472726821899414e+00 8.691056966781616211e-01 3.047316968441009521e-01
2.458000000000000000e+03 7.209099578857421875e+01 5.637761592864990234e+00 3.839457333087921143e-01 6.899722099304199219e+00 2.185100317001342773e+00 -5.576813220977783203e-01
2.459000000000000000e+03 6.773421478271484375e+01 1.700550317764282227e+00 3.889097273349761963e-01 6.411585330963134766e+00 2.040148496627807617e+00 -5.052722096443176270e-01
2.460000000000000000e+03 7.186705780029296875e+01 -4.337296962738037109e+00 -6.396511793136596680e-01 7.321480274200439453e+00 2.004548788070678711e+00 -8.474494814872741699e-01
2.461000000000000000e+03 7.235807037353515625e+01 1.175987625122070312e+01 5.622534155845642090e-01 6.980018615722656250e+00 2.262681722640991211e+00 4.854798316955566406e-02
2.462000000000000000e+03 6.393815612792968750e+01 -7.860771179199218750e+00 -1.660475879907608032e-01 2.196664333343505859e+00 6.091850399971008301e-01 -1.193111658096313477e+00
2.463000000000000000e+03 9.611936569213867188e+00 -2.186210632324218750e+01 7.714552879333496094e-01 5.461659431457519531e+00 1.869934439659118652e+00 1.509519219398498535e+00
2.464000000000000000e+03 7.663517951965332031e+00 -2.687480926513671875e+01 -4.164403080940246582e-01 4.154344558715820312e+00 1.121371269226074219e+00 1.448976755142211914e+00
2.465000000000000000e+03 6.190637588500976562e+00 1.684661293029785156e+01 7.552964091300964355e-01 3.074563026428222656e+00 1.148957848548889160e+00 -1.099664807319641113e+00
2.466000000000000000e+03 7.924494743347167969e+00 1.677607154846191406e+01 1.118861913681030273e+00 4.507728576660156250e+00 1.687977075576782227e+00 -1.201805353164672852e+00
2.467000000000000000e+03 9.100603103637695312e+00 1.885008811950683594e+01 9.485978484153747559e-01 5.530084133148193359e+00 1.943604588508605957e+00 -1.480249881744384766e+00
2.468000000000000000e+03 6.789895057678222656e+00 -2.106436538696289062e+01 6.526662707328796387e-01 3.437102556228637695e+00 1.226930618286132812e+00 1.371252775192260742e+00
2.469000000000000000e+03 7.330662250518798828e+00 -1.085551452636718750e+01 -1.352384388446807861e-01 3.479790925979614258e+00 1.003365755081176758e+00 2.612667679786682129e-01
2.470000000000000000e+03 3.661420440673828125e+01 2.448263359069824219e+01 -1.128397464752197266e+00 4.993031501770019531e+00 1.159390211105346680e+00 2.239426225423812866e-01
2.471000000000000000e+03 6.678164958953857422e+00 -8.332758903503417969e+00 1.714757643640041351e-03 2.506132364273071289e+00 7.523541450500488281e-01 4.510066211223602295e-01
2.472000000000000000e+03 6.411535739898681641e+00 9.501500129699707031e+00 3.372077047824859619e-01 2.617430925369262695e+00 8.863915801048278809e-01 -1.461611390113830566e-01
2.473000000000000000e+03 9.704246520996093750e+00 5.705301284790039062e+00 -8.231484331190586090e-03 4.778303623199462891e+00 1.431021571159362793e+00 -1.918226599693298340e+00
2.474000000000000000e+03 7.398439884185791016e+00 2.981723594665527344e+01 -6.377193331718444824e-01 3.880406141281127930e+00 9.728060364723205566e-01 -7.059718370437622070e-01
2.475000000000000000e+03 1.073931694030761719e+01 2.934511947631835938e+01 -9.752936363220214844e-01 4.297291755676269531e+00 9.965994358062744141e-01 -3.399285376071929932e-01
2.476000000000000000e+03 3.479796218872070312e+01 -3.892594575881958008e+00 -5.412508845329284668e-01 8.730843544006347656e+00 2.456877946853637695e+00 -7.884859442710876465e-01
2.477000000000000000e+03 1.045373058319091797e+01 1.018879890441894531e+01 1.027926132082939148e-01 6.572665691375732422e+00 2.002637386322021484e+00 -5.497952103614807129e-01
2.478000000000000000e+03 6.551832675933837891e+00 1.158294963836669922e+01 4.921757280826568604e-01 3.028898239135742188e+00 1.056322216987609863e+00 -2.230134010314941406e-01
2.479000000000000000e+03 6.742798614501953125e+01 -7.204241275787353516e+00 -9.294443726539611816e-01 5.780192375183105469e+00 1.455224394798278809e+00 -1.888142704963684082e+00
2.480000000000000000e+03 5.225244903564453125e+01 -8.523655891418457031e+00 3.658084571361541748e-02 1.550388574600219727e+00 4.760908484458923340e-01 2.587861061096191406e+00
2.481000000000000000e+03 6.399291992187500000e+01 2.374251365661621094e+01 -1.206657767295837402e+00 6.397548198699951172e+00 1.557267189025878906e+00 -4.951836466789245605e-01
2.482000000000000000e+03 8.783918380737304688e+00 2.798086929321289062e+01 -8.510013818740844727e-01 4.291500568389892578e+00 1.032149791717529297e+00 -7.731492519378662109e-01
2.483000000000000000e+03 3.685104370117187500e+01 1.892564773559570312e+01 -2.418527603149414062e-01 6.347692012786865234e+00 1.831751704216003418e+00 2.064009457826614380e-01
2.484000000000000000e+03 3.790628051757812500e+01 -6.653048038482666016e+00 -1.755046963691711426e+00 9.080365180969238281e+00 2.197595357894897461e+00 -1.564186334609985352e+00
2.485000000000000000e+03 1.521229839324951172e+01 2.204099845886230469e+01 -7.979172468185424805e-01 6.596768379211425781e+00 1.739655375480651855e+00 1.974384546279907227e+00
2.486000000000000000e+03 7.034051895141601562e+00 1.034095191955566406e+01 4.098738133907318115e-01 3.240177631378173828e+00 1.095015406608581543e+00 -2.170355468988418579e-01
2.487000000000000000e+03 7.217908477783203125e+01 -2.588689994812011719e+01 -5.827922821044921875e-01 9.114826202392578125e+00 2.559610366821289062e+00 -8.866015672683715820e-01
2.488000000000000000e+03 7.345619964599609375e+01 2.033303642272949219e+01 6.230376660823822021e-02 7.105734348297119141e+00 2.150411367416381836e+00 6.740434765815734863e-01
2.489000000000000000e+03 7.101204681396484375e+01 1.877235031127929688e+01 2.829541862010955811e-01 7.172480106353759766e+00 2.236630201339721680e+00 6.891683936119079590e-01
2.490000000000000000e+03 6.172344970703125000e+01 -6.737338066101074219e+00 3.865380883216857910e-01 2.062542200088500977e+00 7.347241044044494629e-01 7.888133637607097626e-03
2.491000000000000000e+03 3.079295158386230469e+01 -3.392063522338867188e+01 -7.041027545928955078e-01 2.193724393844604492e+00 4.468865096569061279e-01 1.248007893562316895e+00
2.492000000000000000e+03 3.250175094604492188e+01 -3.484479141235351562e+01 -8.499143123626708984e-01 3.236056804656982422e+00 7.158427834510803223e-01 1.177857637405395508e+00
2.493000000000000000e+03 6.368067264556884766e+00 -2.760205841064453125e+01 -3.409940004348754883e-01 3.654106616973876953e+00 9.939337968826293945e-01 1.351227402687072754e+00
2.494000000000000000e+03 8.712179183959960938e+00 -2.782408905029296875e+01 -5.951251387596130371e-01 4.328533172607421875e+00 1.120022416114807129e+00 1.269375324249267578e+00
2.495000000000000000e+03 6.665312194824218750e+01 1.931676483154296875e+01 3.632299005985260010e-01 7.551439285278320312e+00 2.374400854110717773e+00 5.522077083587646484e-01
2.496000000000000000e+03 6.923371887207031250e+01 1.425666332244873047e+01 8.306697607040405273e-01 7.449474334716796875e+00 2.484043121337890625e+00 3.281385898590087891e-01
2.497000000000000000e+03 2.120989990234375000e+01 -5.740632534027099609e+00 1.713487029075622559e+00 9.108619093894958496e-01 7.873046994209289551e-01 -4.723534882068634033e-01
2.498000000000000000e+03 7.183148956298828125e+01 -2.678959667682647705e-01 -4.873942583799362183e-02 6.888923645019531250e+00 2.052055120468139648e+00 -8.684569597244262695e-01
2.499000000000000000e+03 7.303885650634765625e+01 -9.550690650939941406e-02 -8.407415449619293213e-02 7.040121078491210938e+00 2.086813926696777344e+00 -7.868334054946899414e-01
2.500000000000000000e+03 4.164657974243164062e+01 -1.766292381286621094e+01 2.114751338958740234e+00 8.878327369689941406e+00 3.297923564910888672e+00 -1.185646533966064453e+00
2.501000000000000000e+03 3.620041656494140625e+01 -5.630464076995849609e+00 -1.582755804061889648e+00 9.396511077880859375e+00 2.344126462936401367e+00 -1.376183271408081055e+00
2.502000000000000000e+03 3.866384124755859375e+01 1.957162094116210938e+01 -4.149510264396667480e-01 5.962268352508544922e+00 1.664195299148559570e+00 7.789236903190612793e-01
2.503000000000000000e+03 4.055627059936523438e+01 1.961013221740722656e+01 -3.599903583526611328e-01 5.373864173889160156e+00 1.504162192344665527e+00 1.276512384414672852e+00
2.504000000000000000e+03 7.256561279296875000e+01 -7.037519931793212891e+00 -8.973786234855651855e-01 7.916364192962646484e+00 2.105695724487304688e+00 -5.554039478302001953e-01
2.505000000000000000e+03 7.242623138427734375e+01 6.599335193634033203e+00 3.967349231243133545e-01 6.874128341674804688e+00 2.181258916854858398e+00 -4.628356099128723145e-01
2.506000000000000000e+03 7.108177947998046875e+01 5.861061573028564453e+00 4.675153791904449463e-01 6.907166481018066406e+00 2.212404489517211914e+00 -4.957662224769592285e-01
2.507000000000000000e+03 4.667559432983398438e+01 2.371852493286132812e+01 -6.283784508705139160e-01 2.596922159194946289e+00 5.905631184577941895e-01 1.445184469223022461e+00
2.508000000000000000e+03 4.537760543823242188e+01 2.533882331848144531e+01 -6.811947226524353027e-01 3.033574581146240234e+00 7.057139873504638672e-01 1.411890506744384766e+00
2.509000000000000000e+03 4.402297210693359375e+01 2.399142837524414062e+01 -7.430312037467956543e-01 3.589560985565185547e+00 8.539589643478393555e-01 1.480164885520935059e+00
2.510000000000000000e+03 9.233861923217773438e+00 1.604091644287109375e+01 1.367423772811889648e+00 5.704106807708740234e+00 2.121459245681762695e+00 -1.068269371986389160e+00
2.511000000000000000e+03 9.420182228088378906e+00 -3.407510757446289062e+01 -7.586966156959533691e-01 3.744972467422485352e+00 8.958827257156372070e-01 4.533486366271972656e-01
2.512000000000000000e+03 1.242299365997314453e+01 -2.992399787902832031e+01 -1.145994067192077637e+00 4.346384525299072266e+00 9.601171612739562988e-01 2.675003409385681152e-01
2.513000000000000000e+03 4.781778717041015625e+01 -9.843832015991210938e+00 6.941252350807189941e-01 1.506875991821289062e+00 6.603003740310668945e-01 1.918834686279296875e+00
2.514000000000000000e+03 1.138315105438232422e+01 -2.268147850036621094e+01 5.268997550010681152e-01 6.593101501464843750e+00 2.136000394821166992e+00 1.243107795715332031e+00
2.515000000000000000e+03 1.431827831268310547e+01 2.659724807739257812e+01 -1.243074893951416016e+00 4.493706226348876953e+00 9.751893877983093262e-01 6.143920421600341797e-01
2.516000000000000000e+03 1.248545646667480469e+01 2.864464759826660156e+01 -1.137508273124694824e+00 4.221422195434570312e+00 9.251741170883178711e-01 1.467393990606069565e-02
2.517000000000000000e+03 1.125797080993652344e+01 1.089858150482177734e+01 2.746541202068328857e-01 7.647366046905517578e+00 2.376605987548828125e+00 -5.461718440055847168e-01
2.518000000000000000e+03 1.081329059600830078e+01 1.323451995849609375e+01 1.263664841651916504e+00 7.228837490081787109e+00 2.547750711441040039e+00 -5.564978122711181641e-01
2.519000000000000000e+03 7.240535736083984375e+01 2.111100959777832031e+01 3.539625788107514381e-03 7.141270160675048828e+00 2.143442869186401367e+00 7.042889595031738281e-01
2.520000000000000000e+03 4.257877731323242188e+01 -2.809898948669433594e+01 6.992729306221008301e-01 8.320263862609863281e+00 2.705861091613769531e+00 -7.097913622856140137e-01
2.521000000000000000e+03 7.978773117065429688e+00 2.066505432128906250e+01 3.443959355354309082e-01 4.493703842163085938e+00 1.451429963111877441e+00 -1.709503412246704102e+00
2.522000000000000000e+03 4.066522979736328125e+01 -2.804113197326660156e+01 4.489057362079620361e-01 7.994340419769287109e+00 2.532973766326904297e+00 -2.528741061687469482e-01
2.523000000000000000e+03 4.186775207519531250e+01 -2.695504951477050781e+01 1.161821603775024414e+00 8.488488197326660156e+00 2.895092725753784180e+00 -6.071065664291381836e-01
2.524000000000000000e+03 7.125561523437500000e+01 -1.086566543579101562e+01 -1.235116481781005859e+00 9.226981163024902344e+00 2.397559404373168945e+00 -3.648807704448699951e-01
2.525000000000000000e+03 1.120918178558349609e+01 -2.946990013122558594e+01 -1.018460988998413086e+00 4.508852958679199219e+00 1.047117471694946289e+00 6.205697655677795410e-01
2.526000000000000000e+03 7.839803695678710938e+00 -2.908302688598632812e+01 -6.062024831771850586e-01 4.072945117950439453e+00 1.040022730827331543e+00 1.191564798355102539e+00
2.527000000000000000e+03 7.018273162841796875e+01 1.267522430419921875e+01 7.700634002685546875e-01 7.261045932769775391e+00 2.409332752227783203e+00 1.696427166461944580e-01
2.528000000000000000e+03 7.950424194335937500e+00 -3.499378585815429688e+01 -5.355315804481506348e-01 3.675141096115112305e+00 9.418829083442687988e-01 5.170127749443054199e-01
2.529000000000000000e+03 8.172927856445312500e+00 -1.731120491027832031e+01 1.181509494781494141e+00 4.305472373962402344e+00 1.646094560623168945e+00 6.372021436691284180e-01
2.530000000000000000e+03 1.500147247314453125e+01 -3.199979591369628906e+01 -1.104188561439514160e+00 3.367234230041503906e+00 6.789137125015258789e-01 -3.461933135986328125e-01
2.531000000000000000e+03 7.318681335449218750e+01 -2.116249084472656250e+01 1.079532504081726074e+00 9.530611991882324219e+00 3.183043479919433594e+00 -1.049301743507385254e+00
2.532000000000000000e+03 7.290007781982421875e+01 3.011696434020996094e+01 -2.607159018516540527e-01 7.050622463226318359e+00 2.036972045898437500e+00 1.950214058160781860e-01
2.533000000000000000e+03 7.023725891113281250e+01 2.545832824707031250e+01 -4.669950902462005615e-01 7.033272266387939453e+00 1.969883084297180176e+00 3.829927146434783936e-01
2.534000000000000000e+03 6.894424438476562500e+01 7.502351760864257812e+00 7.522938251495361328e-01 7.178097724914550781e+00 2.379117488861083984e+00 -2.204155921936035156e-01
2.535000000000000000e+03 7.131397247314453125e+01 7.003536224365234375e+00 5.110042095184326172e-01 6.962634086608886719e+00 2.242091417312622070e+00 -4.122146070003509521e-01
2.536000000000000000e+03 1.924079513549804688e+01 3.095803451538085938e+01 -3.613634407520294189e-01 2.192677021026611328e+00 5.493940711021423340e-01 4.693357646465301514e-01
2.537000000000000000e+03 9.339899063110351562e+00 -1.405195236206054688e+01 5.435523390769958496e-01 5.386677265167236328e+00 1.779068946838378906e+00 1.231622099876403809e-01
2.538000000000000000e+03 8.210609436035156250e+00 -1.443088817596435547e+01 6.826415061950683594e-01 4.424568176269531250e+00 1.532162904739379883e+00 1.722446978092193604e-01
2.539000000000000000e+03 7.704792976379394531e+00 -2.443595886230468750e+01 2.147448435425758362e-02 4.128168582916259766e+00 1.244892954826354980e+00 1.604398369789123535e+00
2.540000000000000000e+03 8.099026679992675781e+00 -2.569226074218750000e+01 -2.746067941188812256e-01 4.356586456298828125e+00 1.224593877792358398e+00 1.538693189620971680e+00
2.541000000000000000e+03 3.178938484191894531e+01 2.587502670288085938e+01 -1.188717365264892578e+00 3.950390100479125977e+00 8.285018205642700195e-01 -8.229053616523742676e-01
2.542000000000000000e+03 2.841470718383789062e+01 2.660787391662597656e+01 -8.687734007835388184e-01 2.507126092910766602e+00 4.915058314800262451e-01 -1.171099781990051270e+00
2.543000000000000000e+03 5.492807769775390625e+01 3.064198684692382812e+01 2.671768665313720703e-01 2.102875471115112305e+00 7.110157608985900879e-01 8.440998196601867676e-02
2.544000000000000000e+03 8.882764816284179688e+00 2.548342895507812500e+01 -8.797904253005981445e-01 4.736802577972412109e+00 1.157103657722473145e+00 -1.098852396011352539e+00
2.545000000000000000e+03 1.174186992645263672e+01 2.674495506286621094e+01 -1.209811091423034668e+00 4.909191608428955078e+00 1.109814167022705078e+00 -2.058789432048797607e-01
2.546000000000000000e+03 7.063140106201171875e+01 -4.967599809169769287e-01 -5.183174461126327515e-02 6.736203670501708984e+00 2.005311489105224609e+00 -8.757020831108093262e-01
2.547000000000000000e+03 6.718330383300781250e+01 4.679388523101806641e+00 6.819807887077331543e-01 6.876816749572753906e+00 2.267639160156250000e+00 -1.631651967763900757e-01
2.548000000000000000e+03 6.500356292724609375e+01 -1.083884239196777344e-01 5.999983549118041992e-01 5.456193923950195312e+00 1.816857695579528809e+00 -8.920270204544067383e-02
2.549000000000000000e+03 6.346072006225585938e+01 -7.293649315834045410e-01 8.106493949890136719e-01 4.813228607177734375e+00 1.687163472175598145e+00 3.181228935718536377e-01
2.550000000000000000e+03 6.598382568359375000e+01 2.460501432418823242e+00 5.959486365318298340e-01 6.410360336303710938e+00 2.101892709732055664e+00 -9.078191220760345459e-02
2.551000000000000000e+03 1.352360343933105469e+01 2.730978250503540039e+00 -4.373399317264556885e-01 1.329354667663574219e+01 3.856861829757690430e+00 -2.744608163833618164e+00
2.552000000000000000e+03 1.323307991027832031e+01 3.272342920303344727e+00 -8.299183845520019531e-01 1.175468540191650391e+01 3.277430057525634766e+00 -3.319942951202392578e+00
2.553000000000000000e+03 1.774155426025390625e+01 -6.098149776458740234e+00 3.451741039752960205e-01 4.849637985229492188e+00 1.558443546295166016e+00 -9.940578043460845947e-02
2.554000000000000000e+03 1.656109046936035156e+01 -1.425606571137905121e-02 6.597129344940185547e+00 6.534959793090820312e+00 3.939626932144165039e+00 -8.337003588676452637e-01
2.555000000000000000e+03 1.402045059204101562e+01 2.976342201232910156e+00 -4.893980026245117188e-01 1.292116641998291016e+01 3.729530572891235352e+00 -1.658110380172729492e+00
2.556000000000000000e+03 1.462067794799804688e+01 -2.819707393646240234e+00 1.097301840782165527e+00 1.174263954162597656e+01 3.851982593536376953e+00 -5.635666847229003906e-01
2.557000000000000000e+03 1.618176269531250000e+01 -7.039110660552978516e-01 6.677078723907470703e+00 7.539852619171142578e+00 4.265079498291015625e+00 -1.714212179183959961e+00
2.558000000000000000e+03 1.529820060729980469e+01 -2.227141618728637695e+00 3.106021404266357422e+00 1.069750976562500000e+01 4.141059398651123047e+00 -2.040419101715087891e+00
2.559000000000000000e+03 1.640862655639648438e+01 1.139674663543701172e+00 5.375015258789062500e+00 7.320049285888671875e+00 3.808519363403320312e+00 4.843076765537261963e-01
2.560000000000000000e+03 1.229835510253906250e+01 -2.687638044357299805e+00 1.204868555068969727e+00 8.781227111816406250e+00 2.995828628540039062e+00 4.442142963409423828e+00
2.561000000000000000e+03 1.196668624877929688e+01 -3.135453701019287109e+00 9.594061970710754395e-01 7.410071372985839844e+00 2.510843276977539062e+00 4.045458793640136719e+00
2.562000000000000000e+03 1.954187011718750000e+01 7.337729334831237793e-01 4.072359085083007812e+00 1.469538569450378418e+00 1.662569284439086914e+00 -4.204403460025787354e-01
2.563000000000000000e+03 2.035594558715820312e+01 -5.313690185546875000e+00 1.906319737434387207e+00 1.667669773101806641e+00 1.072196841239929199e+00 -6.249569058418273926e-01
2.564000000000000000e+03 1.099084472656250000e+01 -4.260467529296875000e+00 5.641419887542724609e-01 5.279744625091552734e+00 1.753165960311889648e+00 3.141764402389526367e+00
2.565000000000000000e+03 1.555221939086914062e+01 2.948889493942260742e+00 8.763946294784545898e-01 1.009639739990234375e+01 3.291837453842163086e+00 3.855124711990356445e-01
2.566000000000000000e+03 1.615572547912597656e+01 3.142831087112426758e+00 9.551745057106018066e-01 8.541084289550781250e+00 2.848877429962158203e+00 4.073366522789001465e-01
2.567000000000000000e+03 1.701924324035644531e+01 1.002860426902770996e+00 5.243729114532470703e+00 5.730123043060302734e+00 3.292155742645263672e+00 1.617656052112579346e-01
2.568000000000000000e+03 1.730110740661621094e+01 3.808433532714843750e+00 2.916474342346191406e-01 5.804519653320312500e+00 1.828850150108337402e+00 1.085025519132614136e-01
2.569000000000000000e+03 1.231993579864501953e+01 -3.093457698822021484e+00 7.032535076141357422e-01 8.570590019226074219e+00 2.782153129577636719e+00 3.986327886581420898e+00
2.570000000000000000e+03 1.058031368255615234e+01 -4.024512767791748047e+00 8.881213665008544922e-01 4.382674694061279297e+00 1.581238865852355957e+00 3.008960723876953125e+00
2.571000000000000000e+03 1.060950756072998047e+01 3.949924230575561523e+00 5.025173425674438477e-01 5.009067535400390625e+00 1.653475403785705566e+00 -3.113928318023681641e+00
2.572000000000000000e+03 1.029023647308349609e+01 4.465639114379882812e+00 3.010346889495849609e-01 4.783288955688476562e+00 1.525297045707702637e+00 -2.736145257949829102e+00
2.573000000000000000e+03 1.121401405334472656e+01 3.796524524688720703e+00 3.778963685035705566e-01 6.238859653472900391e+00 1.985026836395263672e+00 -3.765264272689819336e+00
2.574000000000000000e+03 1.345624351501464844e+01 6.812870979309082031e+00 -2.014050483703613281e+00 9.065231323242187500e+00 2.115354299545288086e+00 -1.743541359901428223e+00
2.575000000000000000e+03 1.648787307739257812e+01 3.925185441970825195e+00 -2.092727720737457275e-01 7.633447170257568359e+00 2.227252244949340820e+00 6.137632951140403748e-02
2.576000000000000000e+03 7.992157459259033203e+00 -5.893154144287109375e+00 3.391186892986297607e-01 2.576757431030273438e+00 8.747628331184387207e-01 1.155220150947570801e+00
2.577000000000000000e+03 9.558851242065429688e+00 -4.946324825286865234e+00 5.411343574523925781e-01 3.507397174835205078e+00 1.214559435844421387e+00 2.103952646255493164e+00
2.578000000000000000e+03 1.591867637634277344e+01 4.921991348266601562e+00 -1.439615488052368164e+00 8.189995765686035156e+00 2.025114059448242188e+00 -6.321378946304321289e-01
2.579000000000000000e+03 1.505269908905029297e+01 5.791575908660888672e+00 -2.258177280426025391e+00 9.039787292480468750e+00 2.034482955932617188e+00 -1.354761838912963867e+00
2.580000000000000000e+03 1.779744148254394531e+01 -6.768168926239013672e+00 -3.826170042157173157e-02 4.670062541961669922e+00 1.389540195465087891e+00 2.598845660686492920e-01
2.581000000000000000e+03 1.226217651367187500e+01 7.782721996307373047e+00 -1.383859276771545410e+00 8.369112968444824219e+00 2.095576286315917969e+00 -1.477785825729370117e+00
2.582000000000000000e+03 2.020862579345703125e+01 -2.649297714233398438e-01 4.225879192352294922e+00 7.624303102493286133e-01 1.496492862701416016e+00 -6.594084501266479492e-01
2.583000000000000000e+03 7.252066612243652344e+00 -7.515057563781738281e+00 4.886979237198829651e-02 2.642226696014404297e+00 8.073289394378662109e-01 6.954065561294555664e-01
2.584000000000000000e+03 1.615227317810058594e+01 1.799609780311584473e+00 3.823734045028686523e+00 8.345829963684082031e+00 3.650869369506835938e+00 7.839008569717407227e-01
2.585000000000000000e+03 1.772195625305175781e+01 2.877025365829467773e+00 1.869769096374511719e+00 4.872317790985107422e+00 2.022625923156738281e+00 3.725046217441558838e-01
2.586000000000000000e+03 9.808445930480957031e+00 -5.434821128845214844e+00 2.692746520042419434e-01 4.127274513244628906e+00 1.318964719772338867e+00 2.204776763916015625e+00
2.587000000000000000e+03 1.476613712310791016e+01 5.422393321990966797e+00 -2.134063243865966797e+00 9.347730636596679688e+00 2.164100170135498047e+00 -1.480899691581726074e+00
2.588000000000000000e+03 8.050775527954101562e+00 8.104676246643066406e+00 1.535914093255996704e-01 3.869563817977905273e+00 1.206946611404418945e+00 -6.101859211921691895e-01
2.589000000000000000e+03 1.201642990112304688e+01 8.398962974548339844e+00 -1.046994566917419434e+00 8.187982559204101562e+00 2.142296314239501953e+00 -1.116628766059875488e+00
2.590000000000000000e+03 1.165913867950439453e+01 9.000273704528808594e+00 -6.369397640228271484e-01 7.765946388244628906e+00 2.138701915740966797e+00 -9.729127287864685059e-01
2.591000000000000000e+03 9.019446372985839844e+00 -9.869361877441406250e+00 -5.037981271743774414e-01 4.819498062133789062e+00 1.294710040092468262e+00 7.413767576217651367e-01
2.592000000000000000e+03 2.094225692749023438e+01 -8.370482921600341797e-01 4.140666961669921875e+00 1.314032375812530518e-01 1.281620979309082031e+00 -6.157405972480773926e-01
2.593000000000000000e+03 1.968039894104003906e+01 -2.207694947719573975e-01 4.432844161987304688e+00 1.383913636207580566e+00 1.745027303695678711e+00 -7.597402334213256836e-01
2.594000000000000000e+03 1.681335258483886719e+01 -8.098615646362304688e+00 -1.050935029983520508e+00 5.338587760925292969e+00 1.286295890808105469e+00 1.066529631614685059e+00
2.595000000000000000e+03 1.440174102783203125e+01 -8.876315116882324219e+00 -1.893107652664184570e+00 7.367193698883056641e+00 1.642225742340087891e+00 1.693220853805541992e+00
2.596000000000000000e+03 2.155236434936523438e+01 -4.979319095611572266e+00 2.269155263900756836e+00 6.013572216033935547e-01 8.611537814140319824e-01 -5.320083498954772949e-01
2.597000000000000000e+03 1.225021076202392578e+01 1.145584678649902344e+01 6.570103168487548828e-01 8.617173194885253906e+00 2.782254934310913086e+00 -7.232047319412231445e-01
2.598000000000000000e+03 1.490523529052734375e+01 -2.346385478973388672e+00 2.391372680664062500e+00 1.176750850677490234e+01 4.247664451599121094e+00 -1.629020214080810547e+00
2.599000000000000000e+03 1.827915000915527344e+01 -6.397065639495849609e+00 4.886164367198944092e-01 4.040973663330078125e+00 1.358876943588256836e+00 -8.618879318237304688e-02
2.600000000000000000e+03 7.171863555908203125e+01 1.139306664466857910e+00 6.764911860227584839e-02 6.867701530456542969e+00 2.080605030059814453e+00 -7.943789958953857422e-01
2.601000000000000000e+03 7.156088256835937500e+01 2.557812452316284180e+00 2.220806181430816650e-01 6.837680339813232422e+00 2.117928266525268555e+00 -7.444472312927246094e-01
2.602000000000000000e+03 7.057566070556640625e+01 -5.631837368011474609e+00 -8.985886573791503906e-01 7.248342514038085938e+00 1.904926180839538574e+00 -1.074323654174804688e+00
2.603000000000000000e+03 1.609287261962890625e+01 -6.251999378204345703e+00 -5.641838908195495605e-01 6.797095775604248047e+00 1.869873523712158203e+00 5.601437091827392578e-01
2.604000000000000000e+03 3.761348724365234375e+01 -5.345655918121337891e+00 -1.679583787918090820e+00 9.378193855285644531e+00 2.309583187103271484e+00 -1.481555938720703125e+00
2.605000000000000000e+03 3.619971466064453125e+01 -3.192723274230957031e+00 -6.234865784645080566e-01 9.542463302612304688e+00 2.675693035125732422e+00 -6.980961561203002930e-01
2.606000000000000000e+03 6.631252288818359375e+01 -6.625118732452392578e+00 -4.215381741523742676e-01 4.663885593414306641e+00 1.272704243659973145e+00 -1.688697099685668945e+00
2.607000000000000000e+03 6.221074295043945312e+01 -5.151612281799316406e+00 6.690912246704101562e-01 2.780959606170654297e+00 1.035015225410461426e+00 -2.443238534033298492e-02
2.608000000000000000e+03 6.954740905761718750e+01 -7.158957958221435547e+00 -1.187446355819702148e+00 7.158020496368408203e+00 1.791172266006469727e+00 -1.408507466316223145e+00
2.609000000000000000e+03 1.525556373596191406e+01 -8.261516571044921875e+00 -1.621737718582153320e+00 6.824858665466308594e+00 1.560936331748962402e+00 1.535522580146789551e+00
2.610000000000000000e+03 1.603024482727050781e+01 -8.244126319885253906e+00 -1.391061067581176758e+00 6.135150909423828125e+00 1.423226952552795410e+00 1.395950198173522949e+00
2.611000000000000000e+03 2.284380149841308594e+01 -2.573633193969726562e+00 3.798873424530029297e+00 -6.254519820213317871e-01 9.520263671875000000e-01 -3.275911509990692139e-01
2.612000000000000000e+03 2.367948722839355469e+01 -2.465060949325561523e+00 3.833805322647094727e+00 -9.947072863578796387e-01 8.517293930053710938e-01 -1.185062825679779053e-01
2.613000000000000000e+03 6.946630096435546875e+01 -4.505106449127197266e+00 -5.829592347145080566e-01 6.571997642517089844e+00 1.796711564064025879e+00 -1.203885436058044434e+00
2.614000000000000000e+03 6.142334747314453125e+01 -4.305308341979980469e+00 8.818173408508300781e-01 2.916916608810424805e+00 1.139620184898376465e+00 4.043501317501068115e-01
2.615000000000000000e+03 6.560518646240234375e+01 -7.710199356079101562e+00 -5.885852575302124023e-01 3.943698167800903320e+00 1.006533861160278320e+00 -1.885376214981079102e+00
2.616000000000000000e+03 6.530813598632812500e+01 -6.121776103973388672e+00 -1.401694267988204956e-01 4.067510128021240234e+00 1.178202271461486816e+00 -1.387191653251647949e+00
2.617000000000000000e+03 7.187943935394287109e+00 7.434925079345703125e+00 2.680464088916778564e-01 2.777044773101806641e+00 9.135273694992065430e-01 -4.196761548519134521e-01
2.618000000000000000e+03 6.575255870819091797e+00 6.792468547821044922e+00 3.256573379039764404e-01 2.108069896697998047e+00 7.301182150840759277e-01 -2.838348448276519775e-01
2.619000000000000000e+03 2.342768096923828125e+01 -3.208209753036499023e+00 3.582446098327636719e+00 -7.370222806930541992e-01 8.536271452903747559e-01 -1.644412130117416382e-01
2.620000000000000000e+03 9.015857696533203125e+00 8.549268722534179688e+00 -8.304385468363761902e-03 4.853708267211914062e+00 1.453621149063110352e+00 -7.798225879669189453e-01
2.621000000000000000e+03 7.343427658081054688e+00 8.890645027160644531e+00 2.671343982219696045e-01 3.364264726638793945e+00 1.089419722557067871e+00 -3.615610003471374512e-01
2.622000000000000000e+03 7.191847229003906250e+01 4.511079788208007812e+00 3.307946622371673584e-01 6.865575790405273438e+00 2.158910989761352539e+00 -6.097679138183593750e-01
2.623000000000000000e+03 7.074563598632812500e+01 -3.151851415634155273e+00 -4.256875514984130859e-01 6.869024276733398438e+00 1.933001041412353516e+00 -1.003070950508117676e+00
2.624000000000000000e+03 1.187709426879882812e+01 -9.845661163330078125e+00 -1.346079587936401367e+00 7.071793079376220703e+00 1.717714071273803711e+00 1.234314680099487305e+00
2.625000000000000000e+03 7.187143707275390625e+01 9.438255310058593750e+00 5.684160590171813965e-01 6.982937812805175781e+00 2.265406131744384766e+00 -1.970969289541244507e-01
2.626000000000000000e+03 7.209322357177734375e+01 1.065214729309082031e+01 5.763830542564392090e-01 6.965106010437011719e+00 2.262446641921997070e+00 -7.049338519573211670e-02
2.627000000000000000e+03 6.790633392333984375e+01 2.214045333862304688e+01 -4.141338169574737549e-01 7.232674598693847656e+00 2.045562267303466797e+00 5.560181736946105957e-01
2.628000000000000000e+03 6.926059722900390625e+01 2.160073661804199219e+01 -1.726674586534500122e-01 7.249696731567382812e+00 2.123108863830566406e+00 6.611094474792480469e-01
2.629000000000000000e+03 7.168680572509765625e+01 1.993207550048828125e+01 1.355674117803573608e-01 7.167463779449462891e+00 2.190909385681152344e+00 7.174199819564819336e-01
2.630000000000000000e+03 8.085155487060546875e+00 1.340010929107666016e+01 9.976994395256042480e-01 4.485823154449462891e+00 1.645056724548339844e+00 -5.195778608322143555e-01
2.631000000000000000e+03 7.447019577026367188e+00 1.126928901672363281e+01 5.104436278343200684e-01 3.772758483886718750e+00 1.284960627555847168e+00 -3.309546411037445068e-01
2.632000000000000000e+03 4.673957824707031250e+01 -1.059069442749023438e+01 8.622542023658752441e-01 2.371897459030151367e+00 9.702455401420593262e-01 1.407442212104797363e+00
2.633000000000000000e+03 1.065647220611572266e+01 -9.591109275817871094e+00 -9.972622990608215332e-01 6.167889118194580078e+00 1.551188111305236816e+00 1.088176131248474121e+00
2.634000000000000000e+03 7.388489532470703125e+01 -1.124705123901367188e+01 -6.682281494140625000e-01 8.853091239929199219e+00 2.455458879470825195e+00 5.902670621871948242e-01
2.635000000000000000e+03 8.367921829223632812e+00 2.379705047607421875e+01 -4.822597503662109375e-01 4.726621150970458984e+00 1.273308396339416504e+00 -1.463364839553833008e+00
2.636000000000000000e+03 7.756352424621582031e+00 1.228376579284667969e+01 7.533776760101318359e-01 4.187957763671875000e+00 1.482400655746459961e+00 -3.448832631111145020e-01
2.637000000000000000e+03 7.183294677734375000e+01 -8.129314422607421875e+00 -1.241987466812133789e+00 8.190947532653808594e+00 2.084688186645507812e+00 -5.259320735931396484e-01
2.638000000000000000e+03 6.872137451171875000e+01 6.119615077972412109e+00 6.840681433677673340e-01 7.014158725738525391e+00 2.309468030929565430e+00 -2.942051589488983154e-01
2.639000000000000000e+03 7.426929950714111328e+00 -1.215120506286621094e+01 9.495646506547927856e-02 3.739382982254028320e+00 1.150301814079284668e+00 1.689466834068298340e-01
2.640000000000000000e+03 6.552255630493164062e+00 2.051312828063964844e+01 2.807442843914031982e-01 3.614389419555664062e+00 1.168540120124816895e+00 -1.587485671043395996e+00
2.641000000000000000e+03 8.219033241271972656e+00 1.819066047668457031e+01 9.360055327415466309e-01 4.586165904998779297e+00 1.656651377677917480e+00 -1.376049399375915527e+00
2.642000000000000000e+03 7.649551868438720703e+00 -8.835122108459472656e+00 -1.689843237400054932e-01 3.408847093582153320e+00 9.719588160514831543e-01 6.561561226844787598e-01
2.643000000000000000e+03 4.365890502929687500e+01 -1.055318641662597656e+01 4.757112264633178711e-01 4.619463443756103516e+00 1.528552412986755371e+00 -3.160192668437957764e-01
2.644000000000000000e+03 4.227889633178710938e+01 2.311651611328125000e+01 -7.739489674568176270e-01 4.180664062500000000e+00 1.022014498710632324e+00 1.369529128074645996e+00
2.645000000000000000e+03 4.073070526123046875e+01 2.200118446350097656e+01 -7.551641464233398438e-01 4.850010395050048828e+00 1.228453874588012695e+00 1.179283499717712402e+00
2.646000000000000000e+03 9.540986061096191406e+00 2.440787887573242188e+01 -8.429597616195678711e-01 5.083633899688720703e+00 1.272202134132385254e+00 -1.312327265739440918e+00
2.647000000000000000e+03 7.023707580566406250e+01 -8.204883575439453125e+00 -1.381036043167114258e+00 7.740113735198974609e+00 1.907723307609558105e+00 -1.100586175918579102e+00
2.648000000000000000e+03 3.575378036499023438e+01 2.268301582336425781e+01 -9.239732623100280762e-01 5.372331619262695312e+00 1.334507584571838379e+00 6.133631244301795959e-02
2.649000000000000000e+03 8.301038742065429688e+00 -2.232088851928710938e+01 5.365542173385620117e-01 4.425398349761962891e+00 1.488585710525512695e+00 1.562707543373107910e+00
2.650000000000000000e+03 3.701490402221679688e+01 -8.099576950073242188e+00 -1.312224268913269043e+00 9.383179664611816406e+00 2.421286582946777344e+00 -1.619014859199523926e+00
2.651000000000000000e+03 6.942694854736328125e+01 -7.895628809928894043e-01 3.398961573839187622e-02 6.445211887359619141e+00 1.943760514259338379e+00 -8.998863697052001953e-01
2.652000000000000000e+03 9.226543426513671875e+00 -2.051684951782226562e+01 1.153854489326477051e+00 5.082450866699218750e+00 1.870891571044921875e+00 1.338033556938171387e+00
2.653000000000000000e+03 7.982081413269042969e+00 9.852375984191894531e+00 2.803842425346374512e-01 4.131259918212890625e+00 1.323493242263793945e+00 -3.995735049247741699e-01
2.654000000000000000e+03 7.617494106292724609e+00 2.204001998901367188e+01 4.762265458703041077e-02 4.398078918457031250e+00 1.333710551261901855e+00 -1.718039393424987793e+00
2.655000000000000000e+03 7.157834625244140625e+01 -6.659307003021240234e+00 -1.014820218086242676e+00 7.720579624176025391e+00 2.011727809906005859e+00 -7.691459655761718750e-01
2.656000000000000000e+03 7.040863800048828125e+01 8.529101371765136719e+00 6.811074018478393555e-01 7.093259334564208984e+00 2.332309961318969727e+00 -2.337703406810760498e-01
2.657000000000000000e+03 1.041942024230957031e+01 1.472736454010009766e+01 1.505514979362487793e+00 7.000552654266357422e+00 2.551820278167724609e+00 -6.672325730323791504e-01
2.658000000000000000e+03 6.870867919921875000e+01 1.703103256225585938e+01 6.625490784645080566e-01 7.454454898834228516e+00 2.435101270675659180e+00 5.225909352302551270e-01
2.659000000000000000e+03 6.950877380371093750e+01 1.539920997619628906e+01 7.445852160453796387e-01 7.365417003631591797e+00 2.433000802993774414e+00 4.197485446929931641e-01
2.660000000000000000e+03 7.057288360595703125e+01 1.391837406158447266e+01 7.034789919853210449e-01 7.202951908111572266e+00 2.371929168701171875e+00 2.942200899124145508e-01
2.661000000000000000e+03 9.758302688598632812e+00 1.159060192108154297e+01 6.003885269165039062e-01 6.121781826019287109e+00 2.016651153564453125e+00 -3.939065337181091309e-01
2.662000000000000000e+03 6.981847381591796875e+01 1.141040420532226562e+01 8.198214769363403320e-01 7.268252372741699219e+00 2.426422119140625000e+00 6.132915243506431580e-02
2.663000000000000000e+03 9.033658981323242188e+00 2.979211425781250000e+01 -7.967876195907592773e-01 4.027125835418701172e+00 9.691014885902404785e-01 -6.151404380798339844e-01
2.664000000000000000e+03 2.036104393005371094e+01 2.945637702941894531e+01 -3.094714879989624023e-01 1.662768602371215820e+00 4.059891104698181152e-01 3.769406080245971680e-01
2.665000000000000000e+03 1.764153099060058594e+01 3.373995971679687500e+01 -3.787679374217987061e-01 2.673319339752197266e+00 6.883654594421386719e-01 3.114153742790222168e-01
2.666000000000000000e+03 6.940153598785400391e+00 -2.252178764343261719e+01 3.701947629451751709e-01 3.698415040969848633e+00 1.220582962036132812e+00 1.541993975639343262e+00
2.667000000000000000e+03 8.786048889160156250e+00 -2.382191658020019531e+01 1.289412081241607666e-01 4.755279541015625000e+00 1.465266227722167969e+00 1.611095547676086426e+00
2.668000000000000000e+03 3.747456359863281250e+01 2.031495857238769531e+01 -5.730384588241577148e-01 5.909860610961914062e+00 1.601046681404113770e+00 4.539490342140197754e-01
2.669000000000000000e+03 7.124455261230468750e+01 2.194427871704101562e+01 -1.145396605134010315e-01 7.199665546417236328e+00 2.125537872314453125e+00 7.059845924377441406e-01
2.670000000000000000e+03 7.048475646972656250e+01 2.076046371459960938e+01 2.037795446813106537e-02 7.196349143981933594e+00 2.165018081665039062e+00 7.222828269004821777e-01
2.671000000000000000e+03 6.980387878417968750e+01 1.949070167541503906e+01 2.253270000219345093e-01 7.270781517028808594e+00 2.248832464218139648e+00 7.040463685989379883e-01
2.672000000000000000e+03 8.592450141906738281e+00 -3.251094436645507812e+01 -7.187168002128601074e-01 3.865324020385742188e+00 9.439821243286132812e-01 7.132302522659301758e-01
2.673000000000000000e+03 6.563426971435546875e+01 6.630240678787231445e-01 5.212307572364807129e-01 5.917626380920410156e+00 1.931657195091247559e+00 -1.796197295188903809e-01
2.674000000000000000e+03 6.861603546142578125e+01 4.703974246978759766e+00 5.781386494636535645e-01 6.874105930328369141e+00 2.235673427581787109e+00 -4.256918132305145264e-01
2.675000000000000000e+03 6.798764801025390625e+01 4.124988615512847900e-01 2.682743370532989502e-01 6.279060363769531250e+00 1.964200377464294434e+00 -6.993567943572998047e-01
2.676000000000000000e+03 6.904389953613281250e+01 -2.911759948730468750e+01 -1.163821458816528320e+00 6.786305904388427734e+00 1.686745405197143555e+00 5.354908704757690430e-01
2.677000000000000000e+03 7.005725860595703125e+01 -2.931306266784667969e+01 -1.132303357124328613e+00 7.446374893188476562e+00 1.894221544265747070e+00 1.500245183706283569e-01
2.678000000000000000e+03 8.926240921020507812e+00 2.249036598205566406e+01 -3.532218635082244873e-01 5.044095993041992188e+00 1.407262325286865234e+00 -1.670820951461791992e+00
2.679000000000000000e+03 7.015965270996093750e+01 2.298538017272949219e+01 -3.135323524475097656e-01 7.149629116058349609e+00 2.050828933715820312e+00 6.099107861518859863e-01
2.680000000000000000e+03 3.802449798583984375e+01 1.854951667785644531e+01 -2.999782264232635498e-01 6.365474700927734375e+00 1.819648981094360352e+00 5.866110324859619141e-01
2.681000000000000000e+03 8.757576942443847656e+00 1.194204139709472656e+01 6.937468051910400391e-01 4.992373943328857422e+00 1.705836296081542969e+00 -4.146840870380401611e-01
2.682000000000000000e+03 1.024598598480224609e+01 2.757602119445800781e+01 -1.074199676513671875e+00 4.513871192932128906e+00 1.031901478767395020e+00 -6.621767282485961914e-01
2.683000000000000000e+03 6.949867248535156250e+01 1.013212299346923828e+01 8.214809298515319824e-01 7.298472404479980469e+00 2.435986042022705078e+00 -3.936012461781501770e-02
2.684000000000000000e+03 6.332673645019531250e+01 2.233704185485839844e+01 -9.797450304031372070e-01 6.512551307678222656e+00 1.659841895103454590e+00 -7.410379648208618164e-01
2.685000000000000000e+03 7.225054931640625000e+01 1.628546714782714844e+01 4.286386668682098389e-01 7.054144382476806641e+00 2.244834899902343750e+00 5.015349984169006348e-01
2.686000000000000000e+03 7.037724304199218750e+01 1.765087127685546875e+01 4.561920166015625000e-01 7.238159656524658203e+00 2.308305501937866211e+00 6.140067577362060547e-01
2.687000000000000000e+03 1.427977561950683594e+01 2.814275169372558594e+01 -1.188426852226257324e+00 4.114897727966308594e+00 8.779413104057312012e-01 5.268800258636474609e-01
2.688000000000000000e+03 8.901805877685546875e+00 -1.299509429931640625e+01 1.428696811199188232e-01 4.995324134826660156e+00 1.541458129882812500e+00 1.521660387516021729e-01
2.689000000000000000e+03 4.345410919189453125e+01 2.592290306091308594e+01 -8.096989989280700684e-01 3.612310647964477539e+00 8.407834768295288086e-01 1.323449492454528809e+00
2.690000000000000000e+03 7.295832061767578125e+01 1.260267829895019531e+01 4.821450710296630859e-01 6.914930820465087891e+00 2.219122648239135742e+00 1.308180838823318481e-01
2.691000000000000000e+03 6.920945739746093750e+01 8.835398674011230469e+00 8.045310378074645996e-01 7.226883888244628906e+00 2.409424543380737305e+00 -1.236983761191368103e-01
2.692000000000000000e+03 7.014931488037109375e+01 7.271084308624267578e+00 6.410866975784301758e-01 7.015074253082275391e+00 2.296848297119140625e+00 -3.244440555572509766e-01
2.693000000000000000e+03 9.929314613342285156e+00 -2.890163803100585938e+01 -8.758416175842285156e-01 4.560737609863281250e+00 1.105468750000000000e+00 9.554432630538940430e-01
2.694000000000000000e+03 7.012215423583984375e+01 2.819833946228027344e+01 -4.783052206039428711e-01 6.818465709686279297e+00 1.902048230171203613e+00 1.482362151145935059e-01
2.695000000000000000e+03 5.472922325134277344e+00 -3.416753387451171875e+01 -3.635737299919128418e-01 3.671238422393798828e+00 9.922993779182434082e-01 6.197218298912048340e-01
2.696000000000000000e+03 4.402929782867431641e+00 -3.533813095092773438e+01 -2.340849488973617554e-01 3.741462707519531250e+00 1.052213311195373535e+00 4.541177153587341309e-01
2.697000000000000000e+03 1.107186794281005859e+01 -3.338046264648437500e+01 -9.185980558395385742e-01 3.800178050994873047e+00 8.644740581512451172e-01 3.130602240562438965e-01
2.698000000000000000e+03 6.480153656005859375e+01 2.744305419921875000e+01 -7.836835980415344238e-01 5.781120300292968750e+00 1.499230980873107910e+00 -5.509260892868041992e-01
2.699000000000000000e+03 6.324132537841796875e+01 2.719253540039062500e+01 -8.328831791877746582e-01 5.266730308532714844e+00 1.330154180526733398e+00 -8.196249008178710938e-01
2.700000000000000000e+03 1.534198379516601562e+01 3.353174209594726562e+01 -4.771584868431091309e-01 3.028472900390625000e+00 7.653943300247192383e-01 2.616825401782989502e-01
2.701000000000000000e+03 1.697968673706054688e+01 2.803916549682617188e+01 -8.148249983787536621e-01 3.010447740554809570e+00 6.586868166923522949e-01 1.054256677627563477e+00
2.702000000000000000e+03 6.440309906005859375e+01 -5.737912178039550781e+00 2.251142710447311401e-01 3.485978603363037109e+00 1.113327860832214355e+00 -1.000550508499145508e+00
2.703000000000000000e+03 1.489747047424316406e+01 2.994907188415527344e+01 -8.421232104301452637e-01 3.449687719345092773e+00 7.822693586349487305e-01 4.614958763122558594e-01
2.704000000000000000e+03 8.618423461914062500e+00 2.657740783691406250e+01 -8.838159441947937012e-01 4.376580238342285156e+00 1.047829270362854004e+00 -1.063292145729064941e+00
2.705000000000000000e+03 3.061669349670410156e+01 2.878524017333984375e+01 -9.203325510025024414e-01 3.180885076522827148e+00 6.781657934188842773e-01 -7.988187670707702637e-01
2.706000000000000000e+03 6.806267547607421875e+01 2.481760597229003906e+01 -6.789366006851196289e-01 6.858801364898681641e+00 1.853959321975708008e+00 2.445250451564788818e-01
2.707000000000000000e+03 1.407990264892578125e+01 -3.399413681030273438e+01 -9.135791063308715820e-01 3.259909868240356445e+00 7.038992047309875488e-01 -1.042029485106468201e-01
2.708000000000000000e+03 1.296262645721435547e+01 -3.080548286437988281e+00 2.226790040731430054e-01 1.069595241546630859e+01 3.275589466094970703e+00 3.147125959396362305e+00
2.709000000000000000e+03 1.098098087310791016e+01 -3.385215520858764648e+00 1.263578772544860840e+00 4.703176021575927734e+00 1.790026545524597168e+00 3.458415031433105469e+00
2.710000000000000000e+03 1.424400138854980469e+01 4.956497192382812500e+00 -1.989016532897949219e+00 1.002160644531250000e+01 2.409776926040649414e+00 -1.772880554199218750e+00
2.711000000000000000e+03 1.677234649658203125e+01 4.503170847892761230e-01 6.058518409729003906e+00 6.081789016723632812e+00 3.642092227935791016e+00 -3.370082080364227295e-01
2.712000000000000000e+03 1.819160652160644531e+01 3.675869703292846680e-01 4.928685188293457031e+00 3.471970796585083008e+00 2.520196914672851562e+00 -5.594122409820556641e-01
2.713000000000000000e+03 1.683561706542968750e+01 -6.467215538024902344e+00 -3.224974870681762695e-01 5.909849166870117188e+00 1.676205515861511230e+00 3.485497832298278809e-01
2.714000000000000000e+03 1.346924686431884766e+01 -3.775137186050415039e+00 -3.351460099220275879e-01 1.030916118621826172e+01 2.992204666137695312e+00 2.111565351486206055e+00
2.715000000000000000e+03 1.618306159973144531e+01 6.129544377326965332e-01 6.605311870574951172e+00 7.664850234985351562e+00 4.281048774719238281e+00 9.998525679111480713e-02
2.716000000000000000e+03 1.261414051055908203e+01 3.023675203323364258e+00 -1.569430828094482422e-01 1.061377906799316406e+01 3.137050867080688477e+00 -4.350631713867187500e+00
2.717000000000000000e+03 1.345138072967529297e+01 4.491228103637695312e+00 -1.612509250640869141e+00 1.037034034729003906e+01 2.627349376678466797e+00 -2.529709339141845703e+00
2.718000000000000000e+03 1.734666824340820312e+01 1.943481862545013428e-01 5.686920166015625000e+00 4.995219230651855469e+00 3.204641819000244141e+00 -6.077211499214172363e-01
2.719000000000000000e+03 1.516451072692871094e+01 -1.845881223678588867e+00 3.960687637329101562e+00 1.126834201812744141e+01 4.568708896636962891e+00 -2.414238452911376953e+00
2.720000000000000000e+03 1.385437488555908203e+01 -3.242621421813964844e+00 3.779851272702217102e-02 1.144519901275634766e+01 3.444899320602416992e+00 1.340259909629821777e+00
2.721000000000000000e+03 2.008594703674316406e+01 -3.782935619354248047e+00 2.955246925354003906e+00 1.789160847663879395e+00 1.423322319984436035e+00 -9.202344417572021484e-01
2.722000000000000000e+03 1.546657943725585938e+01 -1.698180675506591797e+00 4.603533267974853516e+00 1.015701198577880859e+01 4.428163528442382812e+00 -2.483435869216918945e+00
2.723000000000000000e+03 1.467918968200683594e+01 -3.240899085998535156e+00 6.138679981231689453e-01 1.097118663787841797e+01 3.475516319274902344e+00 -2.262616455554962158e-01
2.724000000000000000e+03 1.503599929809570312e+01 -2.762807369232177734e+00 1.703717112541198730e+00 1.088756275177001953e+01 3.777383804321289062e+00 -1.211393833160400391e+00
2.725000000000000000e+03 1.485101222991943359e+01 3.851879358291625977e+00 -9.908604025840759277e-01 1.058877849578857422e+01 2.879375457763671875e+00 -9.026771187782287598e-01
2.726000000000000000e+03 1.650447845458984375e+01 -1.004548788070678711e+00 5.991927623748779297e+00 6.902600765228271484e+00 3.868358612060546875e+00 -1.896304011344909668e+00
2.727000000000000000e+03 1.656725692749023438e+01 1.645657658576965332e+00 4.292015075683593750e+00 7.058932781219482422e+00 3.405284404754638672e+00 6.767209172248840332e-01
2.728000000000000000e+03 1.595659160614013672e+01 1.341965436935424805e+00 5.259318351745605469e+00 8.756975173950195312e+00 4.204887866973876953e+00 9.001739025115966797e-01
2.729000000000000000e+03 1.493583679199218750e+01 3.361907005310058594e+00 -3.303736448287963867e-01 1.104670333862304688e+01 3.214898824691772461e+00 -4.596588015556335449e-01
2.730000000000000000e+03 1.679291534423828125e+01 3.403930902481079102e+00 7.513135075569152832e-01 6.911688327789306641e+00 2.298900604248046875e+00 2.940733134746551514e-01
2.731000000000000000e+03 1.700121688842773438e+01 2.833684682846069336e+00 1.777702689170837402e+00 6.350881099700927734e+00 2.438575029373168945e+00 4.103803038597106934e-01
2.732000000000000000e+03 1.242989540100097656e+01 3.561078786849975586e+00 -4.951073825359344482e-01 9.395995140075683594e+00 2.670266389846801758e+00 -3.993344545364379883e+00
2.733000000000000000e+03 1.159333133697509766e+01 -3.232076406478881836e+00 1.128023266792297363e+00 6.245465755462646484e+00 2.212046861648559570e+00 3.916659593582153320e+00
2.734000000000000000e+03 1.007898330688476562e+01 -4.689109802246093750e+00 5.876374840736389160e-01 4.036645412445068359e+00 1.387284874916076660e+00 2.524113178253173828e+00
2.735000000000000000e+03 1.596550369262695312e+01 3.669415950775146484e+00 -1.096441522240638733e-01 8.823332786560058594e+00 2.614106416702270508e+00 5.030977353453636169e-02
2.736000000000000000e+03 1.183266544342041016e+01 6.069934368133544922e+00 -1.273749470710754395e+00 7.938871383666992188e+00 1.999536633491516113e+00 -2.311103105545043945e+00
2.737000000000000000e+03 9.443754196166992188e+00 4.721232891082763672e+00 3.806963860988616943e-01 3.774473428726196289e+00 1.246550917625427246e+00 -1.972820520401000977e+00
2.738000000000000000e+03 9.045119285583496094e+00 -5.226149559020996094e+00 4.659709632396697998e-01 3.162966251373291016e+00 1.088681221008300781e+00 1.770002126693725586e+00
2.739000000000000000e+03 1.412897109985351562e+01 6.074632644653320312e+00 -2.204879283905029297e+00 9.374902725219726562e+00 2.151007175445556641e+00 -1.721463203430175781e+00
2.740000000000000000e+03 1.245182800292968750e+01 7.149941921234130859e+00 -1.591372609138488770e+00 8.540576934814453125e+00 2.084761381149291992e+00 -1.707204937934875488e+00
2.741000000000000000e+03 1.344836330413818359e+01 3.681919097900390625e+00 -1.146071076393127441e+00 1.124479961395263672e+01 3.029618501663208008e+00 -2.780149698257446289e+00
2.742000000000000000e+03 1.496801757812500000e+01 4.968937873840332031e+00 -1.853761315345764160e+00 9.550217628479003906e+00 2.308936834335327148e+00 -1.212686777114868164e+00
2.743000000000000000e+03 1.858413314819335938e+01 8.257876038551330566e-01 4.418776988983154297e+00 2.855102539062500000e+00 2.182163953781127930e+00 -3.254145085811614990e-01
2.744000000000000000e+03 1.410054206848144531e+01 3.355445146560668945e+00 -7.863011956214904785e-01 1.217501163482666016e+01 3.416613101959228516e+00 -1.616845726966857910e+00
2.745000000000000000e+03 1.546978855133056641e+01 5.080776214599609375e+00 -1.848543882369995117e+00 8.836261749267578125e+00 2.096315145492553711e+00 -1.015112876892089844e+00
2.746000000000000000e+03 7.899627685546875000e+00 -6.952759742736816406e+00 9.775934368371963501e-02 2.956778287887573242e+00 9.163612723350524902e-01 1.020385146141052246e+00
2.747000000000000000e+03 9.734753608703613281e+00 -8.895079612731933594e+00 -6.673086285591125488e-01 5.199666023254394531e+00 1.359707236289978027e+00 1.120938539505004883e+00
2.748000000000000000e+03 9.759749412536621094e+00 6.280208110809326172e+00 -1.267283558845520020e-01 5.013195514678955078e+00 1.465940117835998535e+00 -1.701575398445129395e+00
2.749000000000000000e+03 1.108971023559570312e+01 8.588836669921875000e+00 -6.477994918823242188e-01 7.298720359802246094e+00 1.995276212692260742e+00 -1.021414041519165039e+00
2.750000000000000000e+03 1.115616321563720703e+01 9.597271919250488281e+00 -3.275070190429687500e-01 7.543243885040283203e+00 2.164721012115478516e+00 -7.327930927276611328e-01
2.751000000000000000e+03 1.770051383972167969e+01 1.732978940010070801e+00 3.836286544799804688e+00 4.646983146667480469e+00 2.544981002807617188e+00 2.959605455398559570e-01
2.752000000000000000e+03 1.513779830932617188e+01 4.462605476379394531e+00 -1.422932147979736328e+00 9.667983055114746094e+00 2.473515272140502930e+00 -9.191996455192565918e-01
2.753000000000000000e+03 1.473015785217285156e+01 4.311939239501953125e+00 -1.465046882629394531e+00 1.025981521606445312e+01 2.638430356979370117e+00 -1.195659518241882324e+00
2.754000000000000000e+03 1.358899974822998047e+01 -8.666747093200683594e+00 -1.788855075836181641e+00 7.506648540496826172e+00 1.715337991714477539e+00 1.680418729782104492e+00
2.755000000000000000e+03 1.945017433166503906e+01 -5.129292964935302734e+00 1.821992993354797363e+00 2.603766918182373047e+00 1.327728033065795898e+00 -6.451056003570556641e-01
2.756000000000000000e+03 1.264935111999511719e+01 -7.915696144104003906e+00 -1.520017743110656738e+00 7.294342994689941406e+00 1.732297539710998535e+00 1.816955685615539551e+00
2.757000000000000000e+03 8.069172859191894531e+00 -8.121080398559570312e+00 -1.713099032640457153e-01 3.531125783920288086e+00 1.007944822311401367e+00 8.763963580131530762e-01
2.758000000000000000e+03 2.020480918884277344e+01 -2.114980459213256836e+00 4.066882133483886719e+00 1.186059355735778809e+00 1.575882554054260254e+00 -1.011264562606811523e+00
2.759000000000000000e+03 2.093344879150390625e+01 -1.554453969001770020e+00 4.148930549621582031e+00 2.540873885154724121e-01 1.320905327796936035e+00 -7.792027592658996582e-01
2.760000000000000000e+03 7.795417785644531250e+00 6.690507888793945312e+00 2.566221952438354492e-01 3.155737876892089844e+00 1.023708105087280273e+00 -7.471984624862670898e-01
2.761000000000000000e+03 8.957303047180175781e+00 5.846735000610351562e+00 1.948901712894439697e-01 3.895744562149047852e+00 1.227190375328063965e+00 -1.433700799942016602e+00
2.762000000000000000e+03 1.919206619262695312e+01 -6.528827667236328125e+00 6.935948133468627930e-01 2.834108829498291016e+00 1.058311104774475098e+00 -9.406556934118270874e-02
2.763000000000000000e+03 6.604176330566406250e+01 -3.991844892501831055e+00 4.373442381620407104e-02 4.968593120574951172e+00 1.503698348999023438e+00 -1.088499784469604492e+00
2.764000000000000000e+03 8.272741317749023438e+00 -9.944392204284667969e+00 -3.262989819049835205e-01 4.129832744598388672e+00 1.141060233116149902e+00 5.369744896888732910e-01
2.765000000000000000e+03 7.097140502929687500e+01 4.751325607299804688e+00 4.273053705692291260e-01 6.878043651580810547e+00 2.191604614257812500e+00 -5.848841667175292969e-01
2.766000000000000000e+03 6.471162414550781250e+01 -7.053896903991699219e+00 -6.153508275747299194e-02 3.182830333709716797e+00 9.363886117935180664e-01 -1.448690772056579590e+00
2.767000000000000000e+03 6.802514648437500000e+01 -5.817222118377685547e+00 -6.866255402565002441e-01 6.007639884948730469e+00 1.596304297447204590e+00 -1.477372169494628906e+00
2.768000000000000000e+03 7.831229686737060547e+00 -1.334202384948730469e+01 2.407233715057373047e-01 4.011151313781738281e+00 1.275562405586242676e+00 1.311731040477752686e-01
2.769000000000000000e+03 2.142575073242187500e+01 -3.774497509002685547e+00 3.196493387222290039e+00 4.969540834426879883e-01 1.108034253120422363e+00 -6.632338166236877441e-01
2.770000000000000000e+03 1.523971462249755859e+01 -7.572104454040527344e+00 -1.420437812805175781e+00 6.974964141845703125e+00 1.666357994079589844e+00 1.403352737426757812e+00
2.771000000000000000e+03 1.656540107727050781e+01 -7.359975814819335938e+00 -8.659865260124206543e-01 5.891450881958007812e+00 1.507639408111572266e+00 8.770561218261718750e-01
2.772000000000000000e+03 6.595568847656250000e+01 -2.693227827548980713e-01 4.361439943313598633e-01 5.704789161682128906e+00 1.842280030250549316e+00 -4.329736232757568359e-01
2.773000000000000000e+03 6.352830123901367188e+01 -3.525835752487182617e+00 6.222587227821350098e-01 3.845868825912475586e+00 1.340438246726989746e+00 -2.505892217159271240e-01
2.774000000000000000e+03 6.396673583984375000e+01 -6.448830604553222656e+00 1.462759226560592651e-01 2.922497987747192383e+00 9.206321835517883301e-01 -9.480618834495544434e-01
2.775000000000000000e+03 7.097740173339843750e+01 1.101709651947021484e+01 6.994668841361999512e-01 7.120586395263671875e+00 2.346015930175781250e+00 -6.905178073793649673e-03
2.776000000000000000e+03 1.119175338745117188e+01 -1.106292343139648438e+01 -9.325821995735168457e-01 6.761062622070312500e+00 1.748544216156005859e+00 6.758716702461242676e-01
2.777000000000000000e+03 9.805442810058593750e+00 -9.685756683349609375e+00 -6.772283315658569336e-01 5.366772651672363281e+00 1.406863212585449219e+00 9.027726054191589355e-01
2.778000000000000000e+03 1.720148468017578125e+01 -7.062859535217285156e+00 -4.389710128307342529e-01 5.214630126953125000e+00 1.432697772979736328e+00 4.911092221736907959e-01
2.779000000000000000e+03 8.130125999450683594e+00 1.576543903350830078e+01 1.179099559783935547e+00 4.491894245147705078e+00 1.701298236846923828e+00 -9.103726148605346680e-01
2.780000000000000000e+03 7.063260650634765625e+01 -6.696496486663818359e+00 -1.008080363273620605e+00 7.404964923858642578e+00 1.919065356254577637e+00 -1.079431056976318359e+00
2.781000000000000000e+03 9.927068710327148438e+00 -1.264025974273681641e+01 -7.809858024120330811e-02 5.852325916290283203e+00 1.732268214225769043e+00 2.055081576108932495e-01
2.782000000000000000e+03 9.181582450866699219e+00 1.300467872619628906e+01 1.061568140983581543e+00 5.620207786560058594e+00 2.004532814025878906e+00 -4.761615693569183350e-01
2.783000000000000000e+03 9.181984901428222656e+00 6.585386753082275391e+00 -2.009737491607666016e-02 4.514070987701416016e+00 1.348192095756530762e+00 -1.344095945358276367e+00
2.784000000000000000e+03 6.986128234863281250e+01 1.652605247497558594e+01 6.193997859954833984e-01 7.289362430572509766e+00 2.372628688812255859e+00 5.350952148437500000e-01
2.785000000000000000e+03 6.994889068603515625e+01 6.002567291259765625e+00 5.696454644203186035e-01 6.972897052764892578e+00 2.262762784957885742e+00 -4.406375288963317871e-01
2.786000000000000000e+03 8.513141632080078125e+00 -9.250069618225097656e+00 -3.598628342151641846e-01 4.238726139068603516e+00 1.163658976554870605e+00 7.688308358192443848e-01
2.787000000000000000e+03 7.074903869628906250e+01 -1.840211868286132812e+00 -1.994118988513946533e-01 6.757482528686523438e+00 1.967421174049377441e+00 -9.700773954391479492e-01
2.788000000000000000e+03 8.003924369812011719e+00 1.930494117736816406e+01 7.477338314056396484e-01 4.516842842102050781e+00 1.579373002052307129e+00 -1.551053762435913086e+00
2.789000000000000000e+03 6.871509552001953125e+01 3.316313266754150391e+00 4.506469964981079102e-01 6.749792575836181641e+00 2.160131931304931641e+00 -5.025961399078369141e-01
2.790000000000000000e+03 6.514246368408203125e+01 2.505534553527832031e+01 -1.004526138305664062e+00 6.396972656250000000e+00 1.617733836174011230e+00 -4.260385036468505859e-01
2.791000000000000000e+03 6.916896057128906250e+01 5.590100884437561035e-01 1.664596796035766602e-01 6.508546352386474609e+00 2.002501726150512695e+00 -7.442777156829833984e-01
2.792000000000000000e+03 7.023276519775390625e+01 2.211964368820190430e+00 2.549940347671508789e-01 6.747207641601562500e+00 2.100660562515258789e+00 -7.046921253204345703e-01
2.793000000000000000e+03 6.960857391357421875e+01 -3.261573791503906250e+00 -3.377028107643127441e-01 6.535173892974853516e+00 1.859241247177124023e+00 -1.128010988235473633e+00
2.794000000000000000e+03 6.796792602539062500e+01 1.879955291748046875e+01 4.340318739414215088e-01 7.486209392547607422e+00 2.376072406768798828e+00 5.936977267265319824e-01
2.795000000000000000e+03 8.404188156127929688e+00 1.091195774078369141e+01 4.730829894542694092e-01 4.666862964630126953e+00 1.541983842849731445e+00 -3.436725437641143799e-01
2.796000000000000000e+03 9.314076423645019531e+00 -2.533112907409667969e+01 -3.042522370815277100e-01 4.832868576049804688e+00 1.358585000038146973e+00 1.449124932289123535e+00
2.797000000000000000e+03 1.010256004333496094e+01 -2.326541137695312500e+01 2.974458932876586914e-01 5.504981517791748047e+00 1.740728259086608887e+00 1.459211111068725586e+00
2.798000000000000000e+03 7.165311431884765625e+01 1.539670085906982422e+01 5.568311214447021484e-01 7.082214355468750000e+00 2.291713714599609375e+00 4.341244697570800781e-01
2.799000000000000000e+03 7.088053894042968750e+01 1.605983734130859375e+01 5.724699497222900391e-01 7.193002223968505859e+00 2.329641580581665039e+00 4.991784393787384033e-01
2.800000000000000000e+03 8.326316833496093750e+00 -1.087464046478271484e+01 -2.451379746198654175e-01 4.355643749237060547e+00 1.233151793479919434e+00 4.183914363384246826e-01
2.801000000000000000e+03 1.041076850891113281e+01 -1.139435768127441406e+01 -5.819287300109863281e-01 6.144243717193603516e+00 1.668694496154785156e+00 5.053617358207702637e-01
2.802000000000000000e+03 6.931493377685546875e+01 -5.860022068023681641e+00 -8.220115900039672852e-01 6.685136795043945312e+00 1.758937597274780273e+00 -1.416729092597961426e+00
2.803000000000000000e+03 3.693236923217773438e+01 2.319820785522460938e+01 -9.864368438720703125e-01 5.203353404998779297e+00 1.265075087547302246e+00 3.275360167026519775e-01
2.804000000000000000e+03 6.856452178955078125e+01 2.013237953186035156e+01 1.170945838093757629e-01 7.309666633605957031e+00 2.228028297424316406e+00 6.876105666160583496e-01
2.805000000000000000e+03 6.690769958496093750e+01 2.363458824157714844e+01 -7.004290223121643066e-01 6.990181922912597656e+00 1.886925816535949707e+00 2.499987035989761353e-01
2.806000000000000000e+03 9.044656753540039062e+00 9.556201934814453125e+00 1.197224035859107971e-01 5.103158473968505859e+00 1.566864252090454102e+00 -5.479723811149597168e-01
2.807000000000000000e+03 3.883536529541015625e+01 -2.816041564941406250e+01 9.231343865394592285e-02 7.470708847045898438e+00 2.268906593322753906e+00 3.030760586261749268e-01
2.808000000000000000e+03 7.008415985107421875e+01 3.534042739868164062e+01 -1.505542099475860596e-01 6.362360477447509766e+00 1.863541841506958008e+00 -5.736685544252395630e-02
2.809000000000000000e+03 6.745711517333984375e+01 3.250832748413085938e+01 -3.066748976707458496e-01 5.899765968322753906e+00 1.677927255630493164e+00 -2.091979086399078369e-01
2.810000000000000000e+03 4.314603042602539062e+01 2.835477828979492188e+01 -7.548856735229492188e-01 3.478333234786987305e+00 8.170342445373535156e-01 1.076546192169189453e+00
2.811000000000000000e+03 4.144065856933593750e+01 2.512234497070312500e+01 -9.113153219223022461e-01 4.140763282775878906e+00 9.688343405723571777e-01 1.102735638618469238e+00
2.812000000000000000e+03 9.922758102416992188e+00 -2.670187377929687500e+01 -6.341329216957092285e-01 4.901778221130371094e+00 1.280293583869934082e+00 1.241690278053283691e+00
2.813000000000000000e+03 3.949698638916015625e+01 -2.913856315612792969e+01 -2.047551125288009644e-01 7.310327053070068359e+00 2.131671667098999023e+00 2.622984945774078369e-01
2.814000000000000000e+03 6.597251129150390625e+01 2.410391807556152344e+01 -9.574086666107177734e-01 6.806584358215332031e+00 1.754752755165100098e+00 -4.839442670345306396e-02
2.815000000000000000e+03 1.016492271423339844e+01 3.470523071289062500e+01 -5.051371455192565918e-01 3.566605567932128906e+00 9.184405207633972168e-01 -1.481277793645858765e-01
2.816000000000000000e+03 1.252256011962890625e+01 -3.231983947753906250e+01 -1.028492569923400879e+00 3.871742725372314453e+00 8.529750108718872070e-01 1.768557131290435791e-01
2.817000000000000000e+03 7.049035644531250000e+01 3.091874694824218750e+01 -3.438042104244232178e-01 6.634938716888427734e+00 1.887340426445007324e+00 4.036111757159233093e-02
2.818000000000000000e+03 1.724756622314453125e+01 3.155207252502441406e+01 -4.911334812641143799e-01 2.728828191757202148e+00 6.713083982467651367e-01 4.873774349689483643e-01
2.819000000000000000e+03 1.388511943817138672e+01 3.236646652221679688e+01 -6.892882585525512695e-01 3.389827013015747070e+00 8.101616501808166504e-01 1.794297397136688232e-01
2.820000000000000000e+03 6.411534118652343750e+01 2.603051757812500000e+01 -9.745202660560607910e-01 5.827564239501953125e+00 1.455913186073303223e+00 -6.326238512992858887e-01
2.821000000000000000e+03 6.524964141845703125e+01 2.302454757690429688e+01 -8.353879451751708984e-01 6.926270008087158203e+00 1.827264666557312012e+00 -8.525606244802474976e-02
2.822000000000000000e+03 2.655946159362792969e+01 2.981652069091796875e+01 -4.427050352096557617e-01 2.016022682189941406e+00 4.719952940940856934e-01 -6.688446402549743652e-01
2.823000000000000000e+03 2.345222663879394531e+01 3.343314361572265625e+01 -1.552223861217498779e-01 2.057811260223388672e+00 5.707767009735107422e-01 -1.377259343862533569e-01
2.824000000000000000e+03 3.436886978149414062e+01 2.502719306945800781e+01 -1.222455620765686035e+00 4.655589103698730469e+00 1.029940009117126465e+00 -2.908287346363067627e-01
2.825000000000000000e+03 6.758394622802734375e+01 -6.633551716804504395e-01 2.222663164138793945e-01 6.022273063659667969e+00 1.873361825942993164e+00 -7.183239459991455078e-01
2.826000000000000000e+03 9.683867454528808594e+00 2.624771308898925781e+01 -9.654639959335327148e-01 4.722407341003417969e+00 1.127083063125610352e+00 -8.263542056083679199e-01
2.827000000000000000e+03 6.459108734130859375e+01 -4.799980163574218750e+00 2.590491473674774170e-01 3.977674484252929688e+00 1.271017074584960938e+00 -8.879569768905639648e-01
2.828000000000000000e+03 6.337327575683593750e+01 -4.731400966644287109e+00 5.608661770820617676e-01 3.343809127807617188e+00 1.171402573585510254e+00 -3.608262538909912109e-01
2.829000000000000000e+03 6.895726013183593750e+01 1.958099961280822754e+00 3.396101295948028564e-01 6.597684860229492188e+00 2.081188440322875977e+00 -6.459118723869323730e-01
2.830000000000000000e+03 1.255287075042724609e+01 4.493664741516113281e+00 -1.176244020462036133e+00 9.225974082946777344e+00 2.414919137954711914e+00 -3.222294330596923828e+00
2.831000000000000000e+03 1.631710433959960938e+01 -6.750568389892578125e+00 -7.274917364120483398e-01 6.331557273864746094e+00 1.681219696998596191e+00 6.837304234504699707e-01
2.832000000000000000e+03 1.425758075714111328e+01 -3.254273176193237305e+00 2.559587061405181885e-01 1.135301494598388672e+01 3.482692241668701172e+00 5.154645442962646484e-01
2.833000000000000000e+03 1.709082794189453125e+01 -2.782989740371704102e-01 6.000864982604980469e+00 5.473124504089355469e+00 3.442196846008300781e+00 -1.065930128097534180e+00
2.834000000000000000e+03 1.764369773864746094e+01 7.407266497611999512e-01 5.009257793426513672e+00 4.492047786712646484e+00 2.850391626358032227e+00 -2.219093292951583862e-01
2.835000000000000000e+03 1.264349746704101562e+01 -3.793213844299316406e+00 -7.753039151430130005e-02 8.927511215209960938e+00 2.654994249343872070e+00 3.193191051483154297e+00
2.836000000000000000e+03 1.264881324768066406e+01 -3.078868865966796875e+00 4.309194982051849365e-01 9.704058647155761719e+00 3.040493488311767578e+00 3.693007469177246094e+00
2.837000000000000000e+03 1.448705387115478516e+01 3.330517053604125977e+00 -6.228259801864624023e-01 1.174695396423339844e+01 3.337238311767578125e+00 -1.020003318786621094e+00
2.838000000000000000e+03 1.718165588378906250e+01 -6.015352725982666016e+00 1.578649133443832397e-01 5.604206085205078125e+00 1.728621363639831543e+00 -3.798212483525276184e-02
2.839000000000000000e+03 1.173446273803710938e+01 -3.721258640289306641e+00 6.282517910003662109e-01 6.725360870361328125e+00 2.206083774566650391e+00 3.666413068771362305e+00
2.840000000000000000e+03 1.711980056762695312e+01 1.617802619934082031e+00 4.164074420928955078e+00 5.774903297424316406e+00 2.981693267822265625e+00 4.249485433101654053e-01
2.841000000000000000e+03 1.606619453430175781e+01 -1.893411040306091309e+00 4.365029335021972656e+00 8.428205490112304688e+00 3.837970733642578125e+00 -2.280030488967895508e+00
2.842000000000000000e+03 1.644885635375976562e+01 -1.662275671958923340e+00 4.887815952301025391e+00 7.384427547454833984e+00 3.681673049926757812e+00 -2.218853473663330078e+00
2.843000000000000000e+03 1.682222175598144531e+01 -6.760929822921752930e-01 6.064305782318115234e+00 6.081121444702148438e+00 3.643628120422363281e+00 -1.496687769889831543e+00
2.844000000000000000e+03 1.547173500061035156e+01 -2.658088684082031250e+00 2.365902662277221680e+00 1.000048351287841797e+01 3.709915876388549805e+00 -1.714830875396728516e+00
2.845000000000000000e+03 1.649483871459960938e+01 -3.178336381912231445e+00 2.349551200866699219e+00 7.437849521636962891e+00 2.936220169067382812e+00 -1.601329922676086426e+00
2.846000000000000000e+03 1.166809463500976562e+01 -4.817857265472412109e+00 -1.461225748062133789e-01 6.742433547973632812e+00 1.978893280029296875e+00 3.006462812423706055e+00
2.847000000000000000e+03 1.744128227233886719e+01 -2.227362155914306641e+00 4.019225120544433594e+00 5.321444511413574219e+00 2.802200794219970703e+00 -1.853846788406372070e+00
2.848000000000000000e+03 1.684538841247558594e+01 -1.383899211883544922e+00 5.310996532440185547e+00 6.355241775512695312e+00 3.499871492385864258e+00 -1.993555068969726562e+00
2.849000000000000000e+03 1.763253593444824219e+01 -6.385329961776733398e-01 5.424682140350341797e+00 4.539773464202880859e+00 2.989336490631103516e+00 -1.255784273147583008e+00
2.850000000000000000e+03 1.229652214050292969e+01 4.138477325439453125e+00 -7.568081021308898926e-01 8.907834053039550781e+00 2.445307731628417969e+00 -3.620425701141357422e+00
2.851000000000000000e+03 1.059474563598632812e+01 -4.526452541351318359e+00 5.321455597877502441e-01 4.730967044830322266e+00 1.578933715820312500e+00 2.841578483581542969e+00
2.852000000000000000e+03 1.543611717224121094e+01 3.476026773452758789e+00 -1.526495963335037231e-01 1.007312774658203125e+01 2.976143360137939453e+00 -1.319597810506820679e-01
2.853000000000000000e+03 1.631715393066406250e+01 2.606782913208007812e+00 2.033374547958374023e+00 8.141458511352539062e+00 3.052449941635131836e+00 6.570404171943664551e-01
2.854000000000000000e+03 1.649664115905761719e+01 2.110597610473632812e+00 3.093399524688720703e+00 7.496067523956298828e+00 3.176840066909790039e+00 7.055082917213439941e-01
2.855000000000000000e+03 1.902443504333496094e+01 3.881536722183227539e-01 4.469375610351562500e+00 2.186758041381835938e+00 1.996840119361877441e+00 -5.403507947921752930e-01
2.856000000000000000e+03 1.867037200927734375e+01 3.540647402405738831e-02 4.826334953308105469e+00 2.755825996398925781e+00 2.274648427963256836e+00 -7.403712868690490723e-01
2.857000000000000000e+03 1.175573253631591797e+01 3.953671932220458984e+00 -2.171267718076705933e-01 7.730094432830810547e+00 2.253890275955200195e+00 -3.828881502151489258e+00
2.858000000000000000e+03 1.351081848144531250e+01 5.997599124908447266e+00 -2.064071178436279297e+00 9.351681709289550781e+00 2.186283111572265625e+00 -1.990180611610412598e+00
2.859000000000000000e+03 2.025038719177246094e+01 -8.610180020332336426e-01 4.334200382232666016e+00 7.906177639961242676e-01 1.537445425987243652e+00 -8.368204236030578613e-01
2.860000000000000000e+03 1.384742927551269531e+01 6.410738468170166016e+00 -2.163845777511596680e+00 9.284815788269042969e+00 2.136291027069091797e+00 -1.757981419563293457e+00
2.861000000000000000e+03 1.433443832397460938e+01 4.198771476745605469e+00 -1.513772845268249512e+00 1.068662643432617188e+01 2.751856088638305664e+00 -1.599666833877563477e+00
2.862000000000000000e+03 1.424980831146240234e+01 5.736294269561767578e+00 -2.220454454421997070e+00 9.453426361083984375e+00 2.169891595840454102e+00 -1.731699228286743164e+00
2.863000000000000000e+03 1.179100704193115234e+01 7.074629306793212891e+00 -1.279275774955749512e+00 7.871472835540771484e+00 1.977659106254577637e+00 -1.798395156860351562e+00
2.864000000000000000e+03 1.145598793029785156e+01 8.154879570007324219e+00 -8.969409465789794922e-01 7.593863487243652344e+00 2.009076833724975586e+00 -1.290050745010375977e+00
2.865000000000000000e+03 8.446067810058593750e+00 -6.477007865905761719e+00 1.386085450649261475e-01 3.231108665466308594e+00 1.010915160179138184e+00 1.297095179557800293e+00
2.866000000000000000e+03 1.028678989410400391e+01 -5.229790210723876953e+00 2.392613887786865234e-01 4.616255283355712891e+00 1.456655025482177734e+00 2.482561349868774414e+00
2.867000000000000000e+03 1.450416660308837891e+01 -8.165244102478027344e+00 -1.715490698814392090e+00 7.273231506347656250e+00 1.667322278022766113e+00 1.676042199134826660e+00
2.868000000000000000e+03 1.276205539703369141e+01 -8.582456588745117188e+00 -1.633994221687316895e+00 7.357406139373779297e+00 1.717023611068725586e+00 1.600577354431152344e+00
2.869000000000000000e+03 1.954042625427246094e+01 -1.463765621185302734e+00 4.379835605621337891e+00 1.809716105461120605e+00 1.856865644454956055e+00 -1.159168958663940430e+00
2.870000000000000000e+03 2.142969703674316406e+01 -2.533928871154785156e+00 3.862822771072387695e+00 8.037683367729187012e-02 1.182959914207458496e+00 -6.848622560501098633e-01
2.871000000000000000e+03 1.138547325134277344e+01 4.181810379028320312e+00 -9.670004993677139282e-02 6.825538635253906250e+00 2.018651723861694336e+00 -3.540412902832031250e+00
2.872000000000000000e+03 1.075628471374511719e+01 4.690928936004638672e+00 -4.729010909795761108e-02 5.850669384002685547e+00 1.741013765335083008e+00 -2.922045707702636719e+00
2.873000000000000000e+03 8.545604705810546875e+00 -7.513529777526855469e+00 -1.608872562646865845e-01 3.730747938156127930e+00 1.070958256721496582e+00 1.143820047378540039e+00
2.874000000000000000e+03 1.006651496887207031e+01 -1.054561614990234375e+01 -7.170178294181823730e-01 5.823958396911621094e+00 1.532082080841064453e+00 6.976614594459533691e-01
2.875000000000000000e+03 1.146151256561279297e+01 -1.013910579681396484e+01 -1.186839580535888672e+00 6.789461135864257812e+00 1.680786490440368652e+00 9.899172186851501465e-01
2.876000000000000000e+03 1.590313434600830078e+01 -7.523847579956054688e+00 -1.193549275398254395e+00 6.457376956939697266e+00 1.579148292541503906e+00 1.141141057014465332e+00
2.877000000000000000e+03 1.164556598663330078e+01 7.622999668121337891e+00 -1.127023696899414062e+00 7.823109149932861328e+00 2.008825540542602539e+00 -1.434375643730163574e+00
2.878000000000000000e+03 1.060005092620849609e+01 9.036258697509765625e+00 -3.092512786388397217e-01 6.681723117828369141e+00 1.911741614341735840e+00 -8.055602312088012695e-01
2.879000000000000000e+03 1.857596588134765625e+01 -5.271951675415039062e+00 1.383270502090454102e+00 3.849365949630737305e+00 1.569790959358215332e+00 -6.378212571144104004e-01
2.880000000000000000e+03 2.077404022216796875e+01 -4.476469993591308594e+00 2.587391853332519531e+00 1.209787964820861816e+00 1.139153957366943359e+00 -6.782676577568054199e-01
2.881000000000000000e+03 9.471118927001953125e+00 1.060497283935546875e+01 3.175840675830841064e-01 5.673871517181396484e+00 1.797436714172363281e+00 -4.896617829799652100e-01
2.882000000000000000e+03 9.352075576782226562e+00 7.714031696319580078e+00 -1.609100550413131714e-01 5.103726387023925781e+00 1.482844948768615723e+00 -1.047957897186279297e+00
2.883000000000000000e+03 2.022845840454101562e+01 -1.494611144065856934e+00 4.238774776458740234e+00 1.035804867744445801e+00 1.582373857498168945e+00 -9.255483150482177734e-01
2.884000000000000000e+03 8.897798538208007812e+00 -8.615854263305664062e+00 -4.138204455375671387e-01 4.375804424285888672e+00 1.188595175743103027e+00 9.911133050918579102e-01
2.885000000000000000e+03 8.579152107238769531e+00 7.220361709594726562e+00 8.360943198204040527e-02 4.067350864410400391e+00 1.245288133621215820e+00 -9.912097454071044922e-01
2.886000000000000000e+03 1.144338130950927734e+01 -8.353915214538574219e+00 -1.216596364974975586e+00 6.618974685668945312e+00 1.620713472366333008e+00 1.569636344909667969e+00
2.887000000000000000e+03 1.031867504119873047e+01 5.764950275421142578e+00 -2.487089931964874268e-01 5.652408123016357422e+00 1.621109724044799805e+00 -2.160716295242309570e+00
2.888000000000000000e+03 1.902910995483398438e+01 -6.815761923789978027e-01 4.686584472656250000e+00 2.249487400054931641e+00 2.080821514129638672e+00 -1.038257479667663574e+00
2.889000000000000000e+03 1.083185386657714844e+01 -1.033386707305908203e+01 -9.226534962654113770e-01 6.319316864013671875e+00 1.618999123573303223e+00 8.609901070594787598e-01
2.890000000000000000e+03 2.082522010803222656e+01 -3.212703704833984375e+00 3.487291574478149414e+00 7.803869843482971191e-01 1.280303597450256348e+00 -7.960556745529174805e-01
2.891000000000000000e+03 6.863500213623046875e+01 -2.219216108322143555e+00 -9.397894144058227539e-02 6.230404853820800781e+00 1.840927720069885254e+00 -1.030911922454833984e+00
2.892000000000000000e+03 6.682946014404296875e+01 -5.445912361145019531e+00 -3.803704679012298584e-01 5.264428138732910156e+00 1.465217351913452148e+00 -1.514948248863220215e+00
2.893000000000000000e+03 6.572636413574218750e+01 -1.406161069869995117e+00 4.037027060985565186e-01 5.370014667510986328e+00 1.732115149497985840e+00 -4.914273917675018311e-01
2.894000000000000000e+03 6.999632263183593750e+01 3.479814767837524414e+00 3.923827409744262695e-01 6.788659572601318359e+00 2.154312849044799805e+00 -6.267763376235961914e-01
2.895000000000000000e+03 6.837276458740234375e+01 -1.294376373291015625e+00 3.241996094584465027e-02 6.206013679504394531e+00 1.871530175209045410e+00 -8.918877243995666504e-01
2.896000000000000000e+03 6.696612548828125000e+01 1.105988398194313049e-01 3.443903326988220215e-01 5.993883609771728516e+00 1.901482224464416504e+00 -5.403662323951721191e-01
2.897000000000000000e+03 9.234899520874023438e+00 -1.075298881530761719e+01 -4.393666684627532959e-01 5.109922885894775391e+00 1.401166796684265137e+00 5.484540462493896484e-01
2.898000000000000000e+03 4.384172821044921875e+01 -3.170907592773437500e+01 -8.923165202140808105e-01 7.201825141906738281e+00 1.892852663993835449e+00 -8.069561123847961426e-01
2.899000000000000000e+03 4.190972137451171875e+01 -3.038109970092773438e+01 -4.264652132987976074e-01 7.704277992248535156e+00 2.183343887329101562e+00 -2.024142444133758545e-01
2.900000000000000000e+03 7.044870758056640625e+01 8.661949634552001953e-01 1.317417025566101074e-01 6.704286098480224609e+00 2.050808191299438477e+00 -8.223134875297546387e-01
2.901000000000000000e+03 6.459495544433593750e+01 2.174958610534667969e+01 -9.201871156692504883e-01 7.319917678833007812e+00 1.919919252395629883e+00 -7.220472209155559540e-03
2.902000000000000000e+03 6.650821685791015625e+01 2.247501754760742188e+01 -6.551311612129211426e-01 7.235415458679199219e+00 1.974085211753845215e+00 2.745222449302673340e-01
2.903000000000000000e+03 3.750078201293945312e+01 2.226160430908203125e+01 -8.772330284118652344e-01 5.373590946197509766e+00 1.348907351493835449e+00 4.956068694591522217e-01
2.904000000000000000e+03 3.496043014526367188e+01 2.673104286193847656e+01 -1.187796473503112793e+00 4.372824192047119141e+00 9.555082321166992188e-01 -1.604291349649429321e-01
2.905000000000000000e+03 6.571443176269531250e+01 -5.080319881439208984e+00 3.883101278916001320e-03 4.519951343536376953e+00 1.357150316238403320e+00 -1.214870214462280273e+00
2.906000000000000000e+03 7.325214385986328125e+01 3.229239273071289062e+01 -1.721017062664031982e-01 7.088474273681640625e+00 2.074911594390869141e+00 1.296180784702301025e-01
2.907000000000000000e+03 8.531299591064453125e+00 -1.193387126922607422e+01 -8.031842857599258423e-02 4.607666015625000000e+00 1.358204245567321777e+00 2.460925281047821045e-01
2.908000000000000000e+03 6.996034240722656250e+01 3.298139953613281250e+01 -2.213030755519866943e-01 6.445945739746093750e+00 1.867392778396606445e+00 -3.456503897905349731e-02
2.909000000000000000e+03 6.641312408447265625e+01 2.704896926879882812e+01 -7.810311913490295410e-01 6.240453243255615234e+00 1.637826561927795410e+00 -2.442061156034469604e-01
2.910000000000000000e+03 6.883410644531250000e+01 2.704541587829589844e+01 -5.949360728263854980e-01 6.759520053863525391e+00 1.849375247955322266e+00 1.486944407224655151e-01
2.911000000000000000e+03 3.282017135620117188e+01 2.778486442565917969e+01 -1.135731816291809082e+00 3.907013654708862305e+00 8.313845992088317871e-01 -5.645113587379455566e-01
2.912000000000000000e+03 1.218859100341796875e+01 -3.549449920654296875e+01 -7.720944285392761230e-01 3.396098613739013672e+00 7.872012257575988770e-01 8.189314603805541992e-02
2.913000000000000000e+03 5.049739456176757812e+01 2.535589790344238281e+01 -4.585792422294616699e-01 1.480047464370727539e+00 3.064404428005218506e-01 1.119715929031372070e+00
2.914000000000000000e+03 4.568443298339843750e+01 2.910231590270996094e+01 -4.982852339744567871e-01 2.919376134872436523e+00 7.263272404670715332e-01 1.151930928230285645e+00
2.915000000000000000e+03 2.570082283020019531e+01 3.430912017822265625e+01 -2.254658192396163940e-01 2.249724388122558594e+00 6.072775721549987793e-01 -2.780418992042541504e-01
2.916000000000000000e+03 1.329575824737548828e+01 -3.471975326538085938e+00 -1.217337548732757568e-01 1.060676574707031250e+01 3.145509719848632812e+00 2.429161310195922852e+00
2.917000000000000000e+03 1.379269218444824219e+01 4.981062412261962891e+00 -1.918256521224975586e+00 1.002912139892578125e+01 2.433259487152099609e+00 -2.074285745620727539e+00
2.918000000000000000e+03 1.235473632812500000e+01 -4.006929874420166016e+00 -3.542890772223472595e-02 8.169140815734863281e+00 2.440113544464111328e+00 3.251912355422973633e+00
2.919000000000000000e+03 1.390888595581054688e+01 -4.159685611724853516e+00 -4.819185733795166016e-01 9.942495346069335938e+00 2.838173151016235352e+00 1.457312464714050293e+00
2.920000000000000000e+03 1.384380817413330078e+01 4.549623489379882812e+00 -1.742393374443054199e+00 1.037977123260498047e+01 2.591213226318359375e+00 -2.121057510375976562e+00
2.921000000000000000e+03 1.289572143554687500e+01 3.849273920059204102e+00 -1.067971706390380859e+00 1.035038661956787109e+01 2.784724473953247070e+00 -3.399533510208129883e+00
2.922000000000000000e+03 1.281683158874511719e+01 3.415696859359741211e+00 -6.452689170837402344e-01 1.057388782501220703e+01 2.978585720062255859e+00 -3.760884761810302734e+00
2.923000000000000000e+03 1.789866065979003906e+01 -1.344422399997711182e-01 5.301963806152343750e+00 3.968961715698242188e+00 2.781277656555175781e+00 -8.810099363327026367e-01
2.924000000000000000e+03 1.472677898406982422e+01 -3.679892301559448242e+00 2.478900253772735596e-01 1.026785182952880859e+01 3.154722690582275391e+00 8.648523688316345215e-02
2.925000000000000000e+03 1.392780876159667969e+01 4.106548786163330078e+00 -1.460203647613525391e+00 1.096327114105224609e+01 2.850920200347900391e+00 -2.049018621444702148e+00
2.926000000000000000e+03 1.423193264007568359e+01 4.593669414520263672e+00 -1.753817796707153320e+00 1.040851688385009766e+01 2.596409559249877930e+00 -1.738414168357849121e+00
2.927000000000000000e+03 1.569139099121093750e+01 -2.085837841033935547e+00 3.790061473846435547e+00 9.513189315795898438e+00 3.990975141525268555e+00 -2.233074665069580078e+00
2.928000000000000000e+03 1.589640331268310547e+01 -2.500227451324462891e+00 3.005974531173706055e+00 8.946063041687011719e+00 3.585611104965209961e+00 -1.957837224006652832e+00
2.929000000000000000e+03 1.962065696716308594e+01 -8.172088265419006348e-01 4.514972209930419922e+00 1.619257330894470215e+00 1.840268850326538086e+00 -9.465041756629943848e-01
2.930000000000000000e+03 1.565571594238281250e+01 -3.119970560073852539e+00 1.773140430450439453e+00 9.222386360168457031e+00 3.298657894134521484e+00 -1.374732732772827148e+00
2.931000000000000000e+03 1.476374340057373047e+01 -4.138999938964843750e+00 -1.037003695964813232e-01 9.676954269409179688e+00 2.871976137161254883e+00 3.364461064338684082e-01
2.932000000000000000e+03 1.757212257385253906e+01 -1.511643290519714355e+00 4.857573986053466797e+00 4.851944923400878906e+00 2.912855863571166992e+00 -1.725002765655517578e+00
2.933000000000000000e+03 1.819432449340820312e+01 -2.250113964080810547e+00 4.016920089721679688e+00 4.102988243103027344e+00 2.435972452163696289e+00 -1.608813881874084473e+00
2.934000000000000000e+03 1.805526733398437500e+01 -1.499146223068237305e+00 4.777170658111572266e+00 4.025309085845947266e+00 2.640743732452392578e+00 -1.540820002555847168e+00
2.935000000000000000e+03 1.157356929779052734e+01 4.622366428375244141e+00 -5.090128779411315918e-01 7.376064777374267578e+00 2.060115575790405273e+00 -3.301607370376586914e+00
2.936000000000000000e+03 1.321936035156250000e+01 3.958709716796875000e+00 -1.252800226211547852e+00 1.072842884063720703e+01 2.842688798904418945e+00 -3.002452611923217773e+00
2.937000000000000000e+03 1.118470096588134766e+01 4.943000316619873047e+00 -4.103240072727203369e-01 6.691991329193115234e+00 1.884500145912170410e+00 -3.029847145080566406e+00
2.938000000000000000e+03 1.576633834838867188e+01 -6.907886505126953125e+00 -1.005197525024414062e+00 6.808579921722412109e+00 1.741014838218688965e+00 9.783628582954406738e-01
2.939000000000000000e+03 1.128156471252441406e+01 6.489450454711914062e+00 -9.586997032165527344e-01 7.140529632568359375e+00 1.854549050331115723e+00 -2.070204496383666992e+00
2.940000000000000000e+03 1.048136425018310547e+01 5.229042530059814453e+00 -1.889962106943130493e-01 5.673382282257080078e+00 1.645315766334533691e+00 -2.491923332214355469e+00
2.941000000000000000e+03 1.845366668701171875e+01 -4.503630995750427246e-01 4.970827102661132812e+00 3.137207508087158203e+00 2.432410478591918945e+00 -9.895716905593872070e-01
2.942000000000000000e+03 1.650282287597656250e+01 -6.044572353363037109e+00 -2.404865324497222900e-01 6.501751422882080078e+00 1.878379344940185547e+00 2.230510264635086060e-01
2.943000000000000000e+03 1.428578090667724609e+01 -3.696271181106567383e+00 -7.396805286407470703e-02 1.062842845916748047e+01 3.166338205337524414e+00 7.309876084327697754e-01
2.944000000000000000e+03 9.352952003479003906e+00 -5.709011554718017578e+00 2.500537335872650146e-01 3.718676328659057617e+00 1.190618991851806641e+00 1.858854174613952637e+00
2.945000000000000000e+03 1.706211662292480469e+01 2.226835250854492188e+00 2.911146879196166992e+00 6.081329822540283203e+00 2.697742938995361328e+00 5.360980033874511719e-01
2.946000000000000000e+03 1.143937015533447266e+01 5.306936740875244141e+00 -7.994907498359680176e-01 7.348061084747314453e+00 1.964571118354797363e+00 -2.815091848373413086e+00
2.947000000000000000e+03 1.973141098022460938e+01 -2.959612607955932617e+00 3.529011011123657227e+00 2.018035173416137695e+00 1.664113879203796387e+00 -1.136251211166381836e+00
2.948000000000000000e+03 1.282133007049560547e+01 5.698437690734863281e+00 -1.732118606567382812e+00 9.062023162841796875e+00 2.198971509933471680e+00 -2.391039609909057617e+00
2.949000000000000000e+03 1.117009067535400391e+01 6.985328674316406250e+00 -9.078813195228576660e-01 7.102723598480224609e+00 1.858452677726745605e+00 -1.712698340415954590e+00
2.950000000000000000e+03 1.714631080627441406e+01 -1.805603504180908203e+00 4.578974723815917969e+00 5.904093742370605469e+00 3.144920587539672852e+00 -1.962360978126525879e+00
2.951000000000000000e+03 1.101740360260009766e+01 7.509562969207763672e+00 -8.192514181137084961e-01 6.940486431121826172e+00 1.836370587348937988e+00 -1.471590399742126465e+00
2.952000000000000000e+03 1.088147068023681641e+01 8.074384689331054688e+00 -6.916821599006652832e-01 6.981633663177490234e+00 1.886985540390014648e+00 -1.122725009918212891e+00
2.953000000000000000e+03 1.289281272888183594e+01 4.809846401214599609e+00 -1.522746443748474121e+00 9.549917221069335938e+00 2.408151149749755859e+00 -2.793274402618408203e+00
2.954000000000000000e+03 1.332535743713378906e+01 5.497451305389404297e+00 -1.898720145225524902e+00 9.515890121459960938e+00 2.285151004791259766e+00 -2.253425359725952148e+00
2.955000000000000000e+03 1.045584774017333984e+01 -5.741083145141601562e+00 -5.343244969844818115e-02 5.014842987060546875e+00 1.488423228263854980e+00 2.378371000289916992e+00
2.956000000000000000e+03 1.376724052429199219e+01 -7.965291976928710938e+00 -1.718652129173278809e+00 7.539664745330810547e+00 1.746303915977478027e+00 1.719699144363403320e+00
2.957000000000000000e+03 1.137575244903564453e+01 -9.589118003845214844e+00 -1.159756779670715332e+00 6.586687088012695312e+00 1.628079175949096680e+00 1.152270078659057617e+00
2.958000000000000000e+03 1.200446605682373047e+01 -8.533337593078613281e+00 -1.370914816856384277e+00 6.921016216278076172e+00 1.665030360221862793e+00 1.597005367279052734e+00
2.959000000000000000e+03 8.916686058044433594e+00 -6.062017917633056641e+00 1.871538013219833374e-01 3.473026752471923828e+00 1.098054170608520508e+00 1.594087719917297363e+00
2.960000000000000000e+03 9.237886428833007812e+00 -7.949427604675292969e+00 -4.231346547603607178e-01 4.548670768737792969e+00 1.237660765647888184e+00 1.274429798126220703e+00
2.961000000000000000e+03 1.400079345703125000e+01 -7.351381301879882812e+00 -1.550581455230712891e+00 7.560353279113769531e+00 1.802931547164916992e+00 1.715603709220886230e+00
2.962000000000000000e+03 1.016211509704589844e+01 8.004109382629394531e+00 -4.022169113159179688e-01 6.026802062988281250e+00 1.687375545501708984e+00 -1.121799111366271973e+00
2.963000000000000000e+03 1.024316883087158203e+01 6.245018959045410156e+00 -3.675216734409332275e-01 5.700252056121826172e+00 1.599819183349609375e+00 -1.961666822433471680e+00
2.964000000000000000e+03 9.871257781982421875e+00 -8.243885993957519531e+00 -6.221758127212524414e-01 5.083792686462402344e+00 1.338485002517700195e+00 1.352189540863037109e+00
2.965000000000000000e+03 1.007352066040039062e+01 6.647852420806884766e+00 -3.581244945526123047e-01 5.594746112823486328e+00 1.570986509323120117e+00 -1.638999223709106445e+00
2.966000000000000000e+03 1.678534126281738281e+01 -5.134386062622070312e+00 4.823873639106750488e-01 6.407102108001708984e+00 2.066846847534179688e+00 -3.712112009525299072e-01
2.967000000000000000e+03 1.777060127258300781e+01 -5.387481212615966797e+00 8.733564019203186035e-01 5.016798973083496094e+00 1.767046570777893066e+00 -4.604608118534088135e-01
2.968000000000000000e+03 1.923467826843261719e+01 -4.234210014343261719e+00 2.477977991104125977e+00 2.797148704528808594e+00 1.582538008689880371e+00 -9.595478773117065430e-01
2.969000000000000000e+03 9.006811141967773438e+00 -6.971933841705322266e+00 -1.095376610755920410e-01 3.955136775970458984e+00 1.153679728507995605e+00 1.459950566291809082e+00
2.970000000000000000e+03 1.906338691711425781e+01 -2.972530841827392578e+00 3.457466363906860352e+00 2.840694427490234375e+00 1.889448165893554688e+00 -1.293874979019165039e+00
2.971000000000000000e+03 1.044886589050292969e+01 -8.277631759643554688e+00 -8.669100999832153320e-01 5.745763778686523438e+00 1.463656067848205566e+00 1.487914562225341797e+00
2.972000000000000000e+03 1.673425865173339844e+01 -2.086058378219604492e+00 4.175582408905029297e+00 6.860167980194091797e+00 3.310724973678588867e+00 -2.111180543899536133e+00
2.973000000000000000e+03 6.639315795898437500e+01 -2.878357887268066406e+00 1.475758254528045654e-01 5.285971164703369141e+00 1.630064129829406738e+00 -8.819378614425659180e-01
2.974000000000000000e+03 6.831476593017578125e+01 -4.467740058898925781e+00 -4.162145256996154785e-01 6.121654510498046875e+00 1.711632013320922852e+00 -1.317498922348022461e+00
2.975000000000000000e+03 6.689205169677734375e+01 2.465287017822265625e+01 -8.197583556175231934e-01 6.765630722045898438e+00 1.783761620521545410e+00 -1.646949909627437592e-03
2.976000000000000000e+03 6.978149414062500000e+01 -3.256045150756835938e+01 -8.031206130981445312e-01 6.410540103912353516e+00 1.682225823402404785e+00 3.332359492778778076e-01
2.977000000000000000e+03 6.963446807861328125e+01 -2.036837577819824219e+00 -1.929366439580917358e-01 6.514158248901367188e+00 1.896366477012634277e+00 -9.943841695785522461e-01
2.978000000000000000e+03 3.801282501220703125e+01 2.473899078369140625e+01 -1.067276239395141602e+00 4.785820007324218750e+00 1.115563154220581055e+00 5.648667812347412109e-01
2.979000000000000000e+03 3.597159194946289062e+01 2.878865623474121094e+01 -1.115546584129333496e+00 4.057078361511230469e+00 8.824594616889953613e-01 2.960174344480037689e-03
2.980000000000000000e+03 3.940815353393554688e+01 2.297916793823242188e+01 -9.280718564987182617e-01 4.959102630615234375e+00 1.209309339523315430e+00 8.932555913925170898e-01
2.981000000000000000e+03 7.065786743164062500e+01 -4.418000221252441406e+00 -6.216073036193847656e-01 6.984823226928710938e+00 1.908964872360229492e+00 -1.111315131187438965e+00
2.982000000000000000e+03 6.643674468994140625e+01 2.574116516113281250e+01 -8.663926720619201660e-01 6.442017078399658203e+00 1.672687292098999023e+00 -1.466522216796875000e-01
2.983000000000000000e+03 6.259923934936523438e+01 2.896289634704589844e+01 -4.935356378555297852e-01 4.607828617095947266e+00 1.234287858009338379e+00 -8.410906791687011719e-01
2.984000000000000000e+03 6.858209991455078125e+01 3.008844947814941406e+01 -4.576837122440338135e-01 6.318431854248046875e+00 1.758224487304687500e+00 -8.993370085954666138e-02
2.985000000000000000e+03 1.130663681030273438e+01 3.139513778686523438e+01 -8.179526329040527344e-01 3.840953588485717773e+00 9.069002866744995117e-01 -1.309435069561004639e-01
2.986000000000000000e+03 4.502441406250000000e+01 -3.257109069824218750e+01 -1.054494619369506836e+00 6.569089412689208984e+00 1.654378414154052734e+00 -1.132634997367858887e+00
2.987000000000000000e+03 4.659409713745117188e+01 -3.097238540649414062e+01 -4.568168222904205322e-01 6.768006801605224609e+00 1.893356919288635254e+00 -1.977881908416748047e+00
2.988000000000000000e+03 3.824905014038085938e+01 -2.935350418090820312e+01 -3.766824305057525635e-01 6.954912185668945312e+00 1.973469018936157227e+00 5.781945586204528809e-01
2.989000000000000000e+03 6.340228271484375000e+01 -3.794650650024414062e+01 4.475895762443542480e-01 2.524803638458251953e+00 8.917179703712463379e-01 3.723320662975311279e-01
2.990000000000000000e+03 1.294567584991455078e+01 -4.052334785461425781e+00 -3.290570974349975586e-01 9.180388450622558594e+00 2.655399322509765625e+00 2.771260023117065430e+00
2.991000000000000000e+03 1.133623886108398438e+01 -4.604349613189697266e+00 2.351302802562713623e-01 5.944655895233154297e+00 1.853935956954956055e+00 3.143193960189819336e+00
2.992000000000000000e+03 1.165104961395263672e+01 -4.396508216857910156e+00 1.206215694546699524e-01 6.636955738067626953e+00 2.027273178100585938e+00 3.199097633361816406e+00
2.993000000000000000e+03 1.563856887817382812e+01 -6.378612518310546875e+00 -8.453627824783325195e-01 7.125976085662841797e+00 1.884184002876281738e+00 8.027285337448120117e-01
2.994000000000000000e+03 1.386234569549560547e+01 -3.704467296600341797e+00 -2.364159822463989258e-01 1.059385013580322266e+01 3.107230186462402344e+00 1.443661928176879883e+00
2.995000000000000000e+03 1.621050262451171875e+01 -5.356733798980712891e+00 -4.338011890649795532e-02 7.107884883880615234e+00 2.119351387023925781e+00 -1.162183843553066254e-02
2.996000000000000000e+03 1.002399063110351562e+01 -5.874520778656005859e+00 1.158698182553052902e-02 4.579683303833007812e+00 1.377381086349487305e+00 2.180643796920776367e+00
2.997000000000000000e+03 1.091637802124023438e+01 -5.594316959381103516e+00 -1.551419198513031006e-01 5.582523345947265625e+00 1.628214478492736816e+00 2.586346626281738281e+00
2.998000000000000000e+03 1.210120868682861328e+01 -5.125967502593994141e+00 -4.590870440006256104e-01 7.240055084228515625e+00 2.034290313720703125e+00 2.774149417877197266e+00
2.999000000000000000e+03 1.628141593933105469e+01 -5.688499450683593750e+00 -2.117501795291900635e-01 6.905811786651611328e+00 2.008218526840209961e+00 1.727358102798461914e-01
3.000000000000000000e+03 1.631407737731933594e+01 -2.310676097869873047e+00 3.672223329544067383e+00 7.796819210052490234e+00 3.440712690353393555e+00 -2.084592580795288086e+00
3.001000000000000000e+03 1.700551605224609375e+01 -2.545734882354736328e+00 3.507669448852539062e+00 6.398546218872070312e+00 2.971864700317382812e+00 -1.933170557022094727e+00
3.002000000000000000e+03 1.459734344482421875e+01 -7.513299942016601562e+00 -1.552082300186157227e+00 7.376798152923583984e+00 1.747414827346801758e+00 1.544563770294189453e+00
3.003000000000000000e+03 1.520419311523437500e+01 -6.960997104644775391e+00 -1.237397313117980957e+00 7.222239494323730469e+00 1.795452594757080078e+00 1.207016348838806152e+00
3.004000000000000000e+03 1.653134727478027344e+01 -2.742074489593505859e+00 3.056237459182739258e+00 7.316181182861328125e+00 3.111725568771362305e+00 -1.890983343124389648e+00
3.005000000000000000e+03 1.610719108581542969e+01 -2.925033807754516602e+00 2.410020828247070312e+00 8.372428894042968750e+00 3.234735012054443359e+00 -1.678938508033752441e+00
3.006000000000000000e+03 1.223467826843261719e+01 4.779340744018554688e+00 -1.077989935874938965e+00 8.618065834045410156e+00 2.262022733688354492e+00 -3.156911373138427734e+00
3.007000000000000000e+03 1.247216510772705078e+01 6.509491920471191406e+00 -1.676514506340026855e+00 8.616268157958984375e+00 2.081926107406616211e+00 -2.036370754241943359e+00
3.008000000000000000e+03 1.749982261657714844e+01 -4.129823684692382812e+00 1.815630435943603516e+00 5.519821166992187500e+00 2.200635433197021484e+00 -1.138282060623168945e+00
3.009000000000000000e+03 1.332570457458496094e+01 4.973693370819091797e+00 -1.795340538024902344e+00 9.782784461975097656e+00 2.396233081817626953e+00 -2.478510856628417969e+00
3.010000000000000000e+03 1.304774188995361328e+01 6.299636840820312500e+00 -1.898944377899169922e+00 9.047075271606445312e+00 2.144439220428466797e+00 -2.019572019577026367e+00
3.011000000000000000e+03 1.316288661956787109e+01 -7.577443122863769531e+00 -1.553575396537780762e+00 7.463534355163574219e+00 1.772987723350524902e+00 1.819655895233154297e+00
3.012000000000000000e+03 1.056785011291503906e+01 -6.248970985412597656e+00 -3.261139690876007080e-01 5.314768314361572266e+00 1.496596336364746094e+00 2.225856781005859375e+00
3.013000000000000000e+03 1.058767223358154297e+01 6.854055404663085938e+00 -6.152058839797973633e-01 6.261899948120117188e+00 1.694008231163024902e+00 -1.719500660896301270e+00
3.014000000000000000e+03 1.466069698333740234e+01 -6.918737411499023438e+00 -1.353010535240173340e+00 7.518601417541503906e+00 1.849677205085754395e+00 1.453019976615905762e+00
3.015000000000000000e+03 1.576304912567138672e+01 -4.096949577331542969e+00 6.347829699516296387e-01 8.407169342041015625e+00 2.712585687637329102e+00 -6.011403799057006836e-01
3.016000000000000000e+03 9.684027671813964844e+00 -6.106194019317626953e+00 4.908289760351181030e-03 4.307097911834716797e+00 1.293601870536804199e+00 1.949769973754882812e+00
3.017000000000000000e+03 1.078479766845703125e+01 -5.069294452667236328e+00 1.729387640953063965e-01 5.175431728363037109e+00 1.604511260986328125e+00 2.716194868087768555e+00
3.018000000000000000e+03 1.168614959716796875e+01 -9.060976028442382812e+00 -1.313617348670959473e+00 6.821212291717529297e+00 1.652278542518615723e+00 1.399975061416625977e+00
3.019000000000000000e+03 1.203930187225341797e+01 -8.002665519714355469e+00 -1.363408684730529785e+00 6.945943355560302734e+00 1.674760341644287109e+00 1.741706848144531250e+00
3.020000000000000000e+03 1.088530731201171875e+01 5.871502399444580078e+00 -6.120252609252929688e-01 6.511147022247314453e+00 1.769736647605895996e+00 -2.350975513458251953e+00
3.021000000000000000e+03 1.037064361572265625e+01 7.373232364654541016e+00 -5.316742658615112305e-01 6.192456245422363281e+00 1.698234558105468750e+00 -1.394291281700134277e+00
3.022000000000000000e+03 1.053858089447021484e+01 -8.897619247436523438e+00 -9.241791367530822754e-01 5.920743942260742188e+00 1.498969435691833496e+00 1.284488916397094727e+00
3.023000000000000000e+03 1.022351074218750000e+01 -7.749544620513916016e+00 -6.535581350326538086e-01 5.349731922149658203e+00 1.408852100372314453e+00 1.624217867851257324e+00
3.024000000000000000e+03 1.839873504638671875e+01 -4.531674385070800781e+00 1.847779393196105957e+00 4.155580520629882812e+00 1.801007986068725586e+00 -9.134579300880432129e-01
3.025000000000000000e+03 1.633959960937500000e+01 -3.644315004348754883e+00 1.588909387588500977e+00 7.607970714569091797e+00 2.759063959121704102e+00 -1.212216019630432129e+00
3.026000000000000000e+03 1.871858024597167969e+01 -3.540257930755615234e+00 2.889335870742797852e+00 3.454269170761108398e+00 1.903081536293029785e+00 -1.261646628379821777e+00
3.027000000000000000e+03 1.957292556762695312e+01 -2.181675672531127930e+00 4.105886459350585938e+00 2.015604019165039062e+00 1.836447119712829590e+00 -1.224072933197021484e+00
3.028000000000000000e+03 6.684539031982421875e+01 -1.715795874595642090e+00 1.768847405910491943e-01 5.686382293701171875e+00 1.758980035781860352e+00 -8.105962276458740234e-01
3.029000000000000000e+03 6.747025299072265625e+01 -3.149935483932495117e+00 -8.794894814491271973e-02 5.772710800170898438e+00 1.705428600311279297e+00 -1.097383141517639160e+00
3.030000000000000000e+03 6.524473571777343750e+01 -2.591289758682250977e+00 3.607201278209686279e-01 4.877413749694824219e+00 1.571440219879150391e+00 -6.347770094871520996e-01
3.031000000000000000e+03 6.718386840820312500e+01 -4.267333984375000000e+00 -2.068501710891723633e-01 5.527952194213867188e+00 1.596330642700195312e+00 -1.217397689819335938e+00
3.032000000000000000e+03 9.987496376037597656e+00 9.408091545104980469e+00 -9.465537220239639282e-02 6.105234622955322266e+00 1.803173780441284180e+00 -7.224509119987487793e-01
3.033000000000000000e+03 6.776580810546875000e+01 -2.121735572814941406e+00 3.047593310475349426e-02 5.908603191375732422e+00 1.781723737716674805e+00 -9.189116358757019043e-01
3.034000000000000000e+03 7.036869049072265625e+01 -3.707205963134765625e+01 -1.506363153457641602e-01 6.304473876953125000e+00 1.846151232719421387e+00 1.586084663867950439e-01
3.035000000000000000e+03 6.974932861328125000e+01 -3.467173385620117188e+01 -4.255239963531494141e-01 6.025167942047119141e+00 1.679893136024475098e+00 3.158588409423828125e-01
3.036000000000000000e+03 4.676815032958984375e+01 -2.969561767578125000e+01 6.086243391036987305e-01 6.992331981658935547e+00 2.280286788940429688e+00 -2.305033206939697266e+00
3.037000000000000000e+03 6.713406372070312500e+01 2.866407394409179688e+01 -5.975372791290283203e-01 6.168047428131103516e+00 1.671153068542480469e+00 -2.209915369749069214e-01
3.038000000000000000e+03 6.370686721801757812e+01 3.485001754760742188e+01 2.622836502268910408e-03 4.727313995361328125e+00 1.418980956077575684e+00 -3.224557936191558838e-01
3.039000000000000000e+03 6.070484542846679688e+01 2.794246673583984375e+01 -4.086594581604003906e-01 3.662401676177978516e+00 9.761226773262023926e-01 -1.046316027641296387e+00
3.040000000000000000e+03 1.267220306396484375e+01 -4.339374542236328125e+00 -3.702883124351501465e-01 8.509161949157714844e+00 2.441662073135375977e+00 2.891872406005859375e+00
3.041000000000000000e+03 1.322744178771972656e+01 -4.300264835357666016e+00 -5.274432301521301270e-01 9.274706840515136719e+00 2.624179124832153320e+00 2.408340215682983398e+00
3.042000000000000000e+03 1.552542114257812500e+01 -5.903197288513183594e+00 -6.760217547416687012e-01 7.500888824462890625e+00 2.047460079193115234e+00 6.688277721405029297e-01
3.043000000000000000e+03 1.415936565399169922e+01 -6.800194740295410156e+00 -1.404758334159851074e+00 7.740104198455810547e+00 1.900603771209716797e+00 1.604758858680725098e+00
3.044000000000000000e+03 1.347635746002197266e+01 -7.078094482421875000e+00 -1.503258347511291504e+00 7.688238143920898438e+00 1.855494022369384766e+00 1.834917068481445312e+00
3.045000000000000000e+03 1.432142734527587891e+01 -4.157186508178710938e+00 -3.401584625244140625e-01 9.895057678222656250e+00 2.866469621658325195e+00 9.225725531578063965e-01
3.046000000000000000e+03 1.240707683563232422e+01 -4.686077594757080078e+00 -4.221507012844085693e-01 7.885560512542724609e+00 2.239022970199584961e+00 2.886379003524780273e+00
3.047000000000000000e+03 1.630882835388183594e+01 -4.580136775970458984e+00 5.863781571388244629e-01 7.397704601287841797e+00 2.395224809646606445e+00 -5.398138165473937988e-01
3.048000000000000000e+03 1.524202823638916016e+01 -4.111287593841552734e+00 2.603914141654968262e-01 9.173949241638183594e+00 2.830302000045776367e+00 -1.758119314908981323e-01
3.049000000000000000e+03 1.210896587371826172e+01 5.461859226226806641e+00 -1.271255731582641602e+00 8.305497169494628906e+00 2.110272407531738281e+00 -2.699736595153808594e+00
3.050000000000000000e+03 1.823020553588867188e+01 -9.836475849151611328e-01 4.962637424468994141e+00 3.594581127166748047e+00 2.567165613174438477e+00 -1.335411787033081055e+00
3.051000000000000000e+03 1.185313415527343750e+01 6.543474197387695312e+00 -1.284285306930541992e+00 7.929296970367431641e+00 1.993503451347351074e+00 -2.030071020126342773e+00
3.052000000000000000e+03 1.115242958068847656e+01 -8.704686164855957031e+00 -1.123306751251220703e+00 6.349615097045898438e+00 1.567892432212829590e+00 1.394481420516967773e+00
3.053000000000000000e+03 1.236641502380371094e+01 -7.384898662567138672e+00 -1.323251008987426758e+00 7.126233100891113281e+00 1.740894675254821777e+00 1.960765242576599121e+00
3.054000000000000000e+03 1.369371891021728516e+01 7.659453868865966797e+00 -1.988314628601074219e+00 8.998992919921875000e+00 2.103203296661376953e+00 -1.470926880836486816e+00
3.055000000000000000e+03 1.255149745941162109e+01 5.193181514739990234e+00 -1.471513986587524414e+00 8.939470291137695312e+00 2.240386962890625000e+00 -2.759648561477661133e+00
3.056000000000000000e+03 1.731532478332519531e+01 -3.665980339050292969e+00 2.222938776016235352e+00 5.751657485961914062e+00 2.392378807067871094e+00 -1.369382143020629883e+00
3.057000000000000000e+03 1.138080501556396484e+01 6.021270751953125000e+00 -9.195610284805297852e-01 7.261976242065429688e+00 1.902724623680114746e+00 -2.325007438659667969e+00
3.058000000000000000e+03 1.898638725280761719e+01 -2.326871395111083984e+00 4.021616935729980469e+00 2.683593988418579102e+00 2.011563062667846680e+00 -1.350285410881042480e+00
3.059000000000000000e+03 1.887257957458496094e+01 -1.284463644027709961e+00 4.603548526763916016e+00 2.639555215835571289e+00 2.172931194305419922e+00 -1.239234328269958496e+00
3.060000000000000000e+03 1.779251861572265625e+01 -2.630897521972656250e+00 3.620162010192871094e+00 4.874008178710937500e+00 2.548250913619995117e+00 -1.710764288902282715e+00
3.061000000000000000e+03 1.138545894622802734e+01 -5.464302062988281250e+00 -3.346407413482666016e-01 6.226758003234863281e+00 1.767635107040405273e+00 2.675045013427734375e+00
3.062000000000000000e+03 1.782201766967773438e+01 -1.902874231338500977e+00 4.329212188720703125e+00 4.562237262725830078e+00 2.667434692382812500e+00 -1.709526777267456055e+00
3.063000000000000000e+03 1.626362609863281250e+01 -4.991565704345703125e+00 2.766787707805633545e-01 7.248629093170166016e+00 2.257592439651489258e+00 -2.566372454166412354e-01
3.064000000000000000e+03 1.098871612548828125e+01 5.376862049102783203e+00 -4.785993099212646484e-01 6.511952400207519531e+00 1.810005903244018555e+00 -2.619267702102661133e+00
3.065000000000000000e+03 1.763177490234375000e+01 -4.702327251434326172e+00 1.359193325042724609e+00 5.237914085388183594e+00 1.979132175445556641e+00 -8.549820184707641602e-01
3.066000000000000000e+03 1.426177310943603516e+01 -6.277765750885009766e+00 -1.220034122467041016e+00 7.900135040283203125e+00 2.004030227661132812e+00 1.529174685478210449e+00
3.067000000000000000e+03 1.074773025512695312e+01 6.369524002075195312e+00 -6.188673973083496094e-01 6.412137985229492188e+00 1.737981200218200684e+00 -1.964002013206481934e+00
3.068000000000000000e+03 1.008353710174560547e+01 -6.293576717376708984e+00 -1.918115019798278809e-01 4.829761028289794922e+00 1.391384959220886230e+00 2.066521406173706055e+00
3.069000000000000000e+03 1.080729389190673828e+01 -7.386160373687744141e+00 -7.880421876907348633e-01 5.818597316741943359e+00 1.509166598320007324e+00 1.802710294723510742e+00
3.070000000000000000e+03 1.433969783782958984e+01 -4.645160198211669922e+00 -5.884445905685424805e-01 9.296926498413085938e+00 2.612544536590576172e+00 1.052605986595153809e+00
3.071000000000000000e+03 1.592343711853027344e+01 -5.811170578002929688e+00 -4.402898848056793213e-01 7.178378582000732422e+00 2.021426677703857422e+00 3.659092485904693604e-01
3.072000000000000000e+03 6.705838775634765625e+01 3.530676651000976562e+01 -1.064421609044075012e-01 5.635347366333007812e+00 1.658671617507934570e+00 -2.108527570962905884e-01
3.073000000000000000e+03 3.378015899658203125e+01 3.007106018066406250e+01 -1.011648774147033691e+00 3.670248508453369141e+00 7.975799441337585449e-01 -3.098919093608856201e-01
3.074000000000000000e+03 6.165412139892578125e+01 3.121482276916503906e+01 -1.447384655475616455e-01 4.122183322906494141e+00 1.193233489990234375e+00 -6.434740424156188965e-01
3.075000000000000000e+03 1.124643421173095703e+01 -6.542572975158691406e+00 -7.311881184577941895e-01 6.170491695404052734e+00 1.631790995597839355e+00 2.173545598983764648e+00
3.076000000000000000e+03 1.364662456512451172e+01 -5.439049243927001953e+00 -9.905280470848083496e-01 8.467195510864257812e+00 2.243000268936157227e+00 1.820790290832519531e+00
3.077000000000000000e+03 1.129504680633544922e+01 -5.005106449127197266e+00 6.139074102975428104e-04 6.051869869232177734e+00 1.815745234489440918e+00 2.953161716461181641e+00
3.078000000000000000e+03 1.431588172912597656e+01 -5.741436958312988281e+00 -1.029544234275817871e+00 8.291886329650878906e+00 2.178702831268310547e+00 1.378792643547058105e+00
3.079000000000000000e+03 1.232000637054443359e+01 5.934862613677978516e+00 -1.490692973136901855e+00 8.473519325256347656e+00 2.094847917556762695e+00 -2.379343271255493164e+00
3.080000000000000000e+03 1.302549648284912109e+01 -6.726650714874267578e+00 -1.328799247741699219e+00 7.590302467346191406e+00 1.878450989723205566e+00 1.992380976676940918e+00
3.081000000000000000e+03 1.235030078887939453e+01 -6.727767467498779297e+00 -1.143392801284790039e+00 7.157242774963378906e+00 1.804154992103576660e+00 2.175106763839721680e+00
3.082000000000000000e+03 1.512989807128906250e+01 -5.962214946746826172e+00 -8.659061789512634277e-01 7.729241371154785156e+00 2.059000492095947266e+00 8.899160027503967285e-01
3.083000000000000000e+03 1.484392929077148438e+01 -5.130981922149658203e+00 -6.268445849418640137e-01 8.552072525024414062e+00 2.377568483352661133e+00 7.650546431541442871e-01
3.084000000000000000e+03 1.479451274871826172e+01 -4.622191905975341797e+00 -3.821461498737335205e-01 9.106144905090332031e+00 2.617199659347534180e+00 6.008019447326660156e-01
3.085000000000000000e+03 1.531794452667236328e+01 -5.029044628143310547e+00 -3.185091614723205566e-01 8.293751716613769531e+00 2.392572879791259766e+00 3.378294706344604492e-01
3.086000000000000000e+03 1.106335258483886719e+01 -6.082182407379150391e+00 -4.804379343986511230e-01 5.884209632873535156e+00 1.621131420135498047e+00 2.346387386322021484e+00
3.087000000000000000e+03 1.191994762420654297e+01 -7.546628475189208984e+00 -1.246166348457336426e+00 6.856581211090087891e+00 1.683124542236328125e+00 1.904710292816162109e+00
3.088000000000000000e+03 1.112950325012207031e+01 -7.808996677398681641e+00 -9.943325519561767578e-01 6.164006233215332031e+00 1.550902128219604492e+00 1.676743626594543457e+00
3.089000000000000000e+03 1.097906208038330078e+01 -8.227540969848632812e+00 -9.788644909858703613e-01 6.081583499908447266e+00 1.530815601348876953e+00 1.532239556312561035e+00
3.090000000000000000e+03 1.469865417480468750e+01 -6.374521255493164062e+00 -1.187494277954101562e+00 7.803537845611572266e+00 1.984813094139099121e+00 1.297353148460388184e+00
3.091000000000000000e+03 1.576944828033447266e+01 -4.551289081573486328e+00 2.736805379390716553e-01 8.128126144409179688e+00 2.520541906356811523e+00 -2.644228637218475342e-01
3.092000000000000000e+03 1.526902961730957031e+01 -4.575802803039550781e+00 -9.161539375782012939e-02 8.697665214538574219e+00 2.581815004348754883e+00 9.438937902450561523e-02
3.093000000000000000e+03 1.686637687683105469e+01 -3.734263181686401367e+00 1.846905589103698730e+00 6.660388946533203125e+00 2.552188396453857422e+00 -1.288509607315063477e+00
3.094000000000000000e+03 1.735634803771972656e+01 -2.979858398437500000e+00 3.082646846771240234e+00 5.751722335815429688e+00 2.650310754776000977e+00 -1.711485624313354492e+00
3.095000000000000000e+03 1.857421684265136719e+01 -2.654578685760498047e+00 3.672626733779907227e+00 3.644957065582275391e+00 2.195275068283081055e+00 -1.504017472267150879e+00
3.096000000000000000e+03 1.776037979125976562e+01 -3.404974460601806641e+00 2.693187952041625977e+00 5.006226062774658203e+00 2.309824228286743164e+00 -1.416232109069824219e+00
3.097000000000000000e+03 1.690007972717285156e+01 -4.180678844451904297e+00 1.413907170295715332e+00 6.491221904754638672e+00 2.371538639068603516e+00 -1.034591555595397949e+00
3.098000000000000000e+03 9.970682144165039062e+00 -6.793112277984619141e+00 -3.367146253585815430e-01 4.887694835662841797e+00 1.365294098854064941e+00 1.851336359977722168e+00
3.099000000000000000e+03 1.811629867553710938e+01 -3.913874387741088867e+00 2.286996126174926758e+00 4.432398796081542969e+00 2.015818595886230469e+00 -1.167391061782836914e+00
3.100000000000000000e+03 4.007484054565429688e+01 2.652527046203613281e+01 -1.028332114219665527e+00 4.231711387634277344e+00 9.610137343406677246e-01 8.354749679565429688e-01
3.101000000000000000e+03 7.227867889404296875e+01 -3.583304595947265625e+01 -2.767908573150634766e-01 7.424077033996582031e+00 2.144185781478881836e+00 1.495297998189926147e-01
3.102000000000000000e+03 1.300046730041503906e+01 -4.563975811004638672e+00 -5.513610243797302246e-01 8.743764877319335938e+00 2.457721233367919922e+00 2.563097953796386719e+00
3.103000000000000000e+03 1.350201606750488281e+01 -4.513807773590087891e+00 -6.722372770309448242e-01 9.206705093383789062e+00 2.560340404510498047e+00 1.975180268287658691e+00
3.104000000000000000e+03 1.385026454925537109e+01 -5.089051723480224609e+00 -8.702914714813232422e-01 8.814145088195800781e+00 2.383156299591064453e+00 1.659779906272888184e+00
3.105000000000000000e+03 1.475156593322753906e+01 -5.877538204193115234e+00 -9.654043912887573242e-01 8.085995674133300781e+00 2.136177539825439453e+00 1.112838506698608398e+00
3.106000000000000000e+03 1.273584461212158203e+01 -7.100826740264892578e+00 -1.370816588401794434e+00 7.420852661132812500e+00 1.815010786056518555e+00 2.010459899902343750e+00
3.107000000000000000e+03 1.329023838043212891e+01 -6.343394279479980469e+00 -1.276881456375122070e+00 7.865733623504638672e+00 1.976655602455139160e+00 1.974677324295043945e+00
3.108000000000000000e+03 1.386416721343994141e+01 -6.190006732940673828e+00 -1.248506188392639160e+00 8.048336029052734375e+00 2.039948940277099609e+00 1.677911639213562012e+00
3.109000000000000000e+03 1.150745773315429688e+01 -6.885848522186279297e+00 -8.985784649848937988e-01 6.457814216613769531e+00 1.667770624160766602e+00 2.142784833908081055e+00
3.110000000000000000e+03 1.134913158416748047e+01 -7.240407466888427734e+00 -9.400020241737365723e-01 6.327682495117187500e+00 1.616304039955139160e+00 2.030024051666259766e+00
3.111000000000000000e+03 1.210137271881103516e+01 -6.999006271362304688e+00 -1.156926035881042480e+00 6.953448295593261719e+00 1.738956570625305176e+00 2.066370010375976562e+00
3.112000000000000000e+03 1.578232002258300781e+01 -4.977787017822265625e+00 -3.531823679804801941e-02 7.854015350341796875e+00 2.345609188079833984e+00 -1.588062010705471039e-02
3.113000000000000000e+03 1.153729629516601562e+01 -7.973552227020263672e+00 -1.183768868446350098e+00 6.575287342071533203e+00 1.617455482482910156e+00 1.686111211776733398e+00
3.114000000000000000e+03 1.148475074768066406e+01 -7.622547149658203125e+00 -1.093044161796569824e+00 6.437382221221923828e+00 1.603301405906677246e+00 1.831625461578369141e+00
3.115000000000000000e+03 1.820396232604980469e+01 -3.057897806167602539e+00 3.279553890228271484e+00 4.291970252990722656e+00 2.271457195281982422e+00 -1.536210775375366211e+00
3.116000000000000000e+03 3.800641632080078125e+01 2.749780654907226562e+01 -1.102782368659973145e+00 4.270946502685546875e+00 9.504492282867431641e-01 4.348637759685516357e-01
3.117000000000000000e+03 3.697240829467773438e+01 2.589312362670898438e+01 -1.181700348854064941e+00 4.687521457672119141e+00 1.051746368408203125e+00 2.950737476348876953e-01
3.118000000000000000e+03 1.181856822967529297e+01 -5.572968482971191406e+00 -5.638473629951477051e-01 6.769627571105957031e+00 1.861734032630920410e+00 2.644272327423095703e+00
3.119000000000000000e+03 1.291590404510498047e+01 -5.994107723236083984e+00 -1.086052536964416504e+00 7.783803939819335938e+00 2.009325504302978516e+00 2.189188718795776367e+00
3.120000000000000000e+03 1.541199779510498047e+01 -5.462939262390136719e+00 -5.159294605255126953e-01 7.912276268005371094e+00 2.218904018402099609e+00 4.796438515186309814e-01
3.121000000000000000e+03 1.433691215515136719e+01 -5.180377960205078125e+00 -8.158583641052246094e-01 8.741312980651855469e+00 2.377636432647705078e+00 1.243960022926330566e+00
3.122000000000000000e+03 1.176108551025390625e+01 -6.266992568969726562e+00 -8.064293861389160156e-01 6.678677082061767578e+00 1.761674284934997559e+00 2.373489141464233398e+00
3.123000000000000000e+03 1.298374652862548828e+01 -5.295499324798583984e+00 -8.553264737129211426e-01 8.184688568115234375e+00 2.198808670043945312e+00 2.339921712875366211e+00
3.124000000000000000e+03 1.193572807312011719e+01 -6.655873298645019531e+00 -9.906133413314819336e-01 6.845114231109619141e+00 1.756350159645080566e+00 2.219687938690185547e+00
3.125000000000000000e+03 1.259129714965820312e+01 -6.355696678161621094e+00 -1.131441354751586914e+00 7.474245071411132812e+00 1.902841091156005859e+00 2.227325677871704102e+00
3.126000000000000000e+03 1.150786972045898438e+01 -5.877315521240234375e+00 -5.774741172790527344e-01 6.400995731353759766e+00 1.747056484222412109e+00 2.466530084609985352e+00
3.127000000000000000e+03 1.255325031280517578e+01 -5.567126274108886719e+00 -8.587312698364257812e-01 7.720651149749755859e+00 2.058575868606567383e+00 2.481488704681396484e+00
3.128000000000000000e+03 7.362258148193359375e+01 3.727041625976562500e+01 -7.368497550487518311e-02 7.070538043975830078e+00 2.099056005477905273e+00 4.289985075592994690e-02
3.129000000000000000e+03 1.326363182067871094e+01 -5.689024448394775391e+00 -1.074090600013732910e+00 8.138162612915039062e+00 2.119221687316894531e+00 2.080801486968994141e+00
3.130000000000000000e+03 1.219173812866210938e+01 -5.953103542327880859e+00 -8.412234783172607422e-01 7.155560016632080078e+00 1.894300937652587891e+00 2.456132888793945312e+00
3.131000000000000000e+03 6.809558868408203125e+01 2.355361747741699219e+01 -5.655257701873779297e-01 7.108449935913085938e+00 1.962877154350280762e+00 3.749639689922332764e-01
3.132000000000000000e+03 1.087080860137939453e+01 -2.132745361328125000e+01 1.151630401611328125e+00 6.379862785339355469e+00 2.259447813034057617e+00 1.224807858467102051e+00
3.133000000000000000e+03 3.960633468627929688e+01 1.865584754943847656e+01 -2.660670578479766846e-01 6.015012741088867188e+00 1.724683761596679688e+00 1.093231916427612305e+00
3.134000000000000000e+03 3.509819793701171875e+01 -3.052461051940917969e+01 -7.619228363037109375e-01 5.192910671234130859e+00 1.329296350479125977e+00 1.230128884315490723e+00
3.135000000000000000e+03 2.237791061401367188e+01 3.183314895629882812e+01 -1.785215735435485840e-01 1.887579202651977539e+00 5.127173066139221191e-01 -3.290937468409538269e-02
3.136000000000000000e+03 4.229190826416015625e+01 -3.775583267211914062e+01 -1.690639615058898926e+00 5.731946468353271484e+00 1.212392091751098633e+00 -2.556368410587310791e-01
3.137000000000000000e+03 4.198077011108398438e+01 -3.481975936889648438e+01 -1.505632758140563965e+00 6.396353721618652344e+00 1.467216253280639648e+00 -2.242251485586166382e-01
3.138000000000000000e+03 4.079559707641601562e+01 2.830987548828125000e+01 -9.283823966979980469e-01 3.898732900619506836e+00 8.911051750183105469e-01 8.450147509574890137e-01
3.139000000000000000e+03 1.175051975250244141e+01 3.755352401733398438e+01 -3.178910613059997559e-01 3.290346622467041016e+00 8.917366862297058105e-01 -7.724518887698650360e-03
3.140000000000000000e+03 2.453829574584960938e+01 2.965232849121093750e+01 -2.917737364768981934e-01 1.624887704849243164e+00 3.999341726303100586e-01 -4.971112906932830811e-01
3.141000000000000000e+03 2.428529739379882812e+01 3.164632225036621094e+01 -2.088346481323242188e-01 1.860280513763427734e+00 4.954337477684020996e-01 -2.696353197097778320e-01
3.142000000000000000e+03 8.392735481262207031e+00 3.831295013427734375e+01 -2.422781884670257568e-01 3.485231161117553711e+00 9.728859066963195801e-01 -1.229861453175544739e-01
3.143000000000000000e+03 5.889267444610595703e+00 3.831638336181640625e+01 -1.824075430631637573e-01 3.634603023529052734e+00 1.035658717155456543e+00 -1.842772811651229858e-01
3.144000000000000000e+03 2.423366928100585938e+01 -3.656869506835937500e+01 -1.714994013309478760e-01 9.071027040481567383e-01 2.206809967756271362e-01 -3.349961712956428528e-02
3.145000000000000000e+03 3.575712203979492188e+01 -3.397659301757812500e+01 -1.236504912376403809e+00 5.125177383422851562e+00 1.166601777076721191e+00 1.034943461418151855e+00
3.146000000000000000e+03 3.151486015319824219e+01 -3.799927520751953125e+01 -7.485623955726623535e-01 2.965598344802856445e+00 6.651107668876647949e-01 7.175236344337463379e-01
3.147000000000000000e+03 3.200204467773437500e+01 3.383336257934570312e+01 -6.772220730781555176e-01 3.074884891510009766e+00 7.192988395690917969e-01 -3.225308358669281006e-01
3.148000000000000000e+03 2.224365806579589844e+01 -4.089512634277343750e+01 -3.967157751321792603e-02 1.382066607475280762e+00 4.027185142040252686e-01 -6.561453640460968018e-02
3.149000000000000000e+03 2.120886802673339844e+01 -3.770595169067382812e+01 -2.181217074394226074e-01 1.371297359466552734e+00 3.459526896476745605e-01 -2.894267439842224121e-01
3.150000000000000000e+03 3.897883605957031250e+01 2.917217445373535156e+01 -1.011713743209838867e+00 3.973826169967651367e+00 8.886337280273437500e-01 4.937053620815277100e-01
3.151000000000000000e+03 3.718004608154296875e+01 3.076603126525878906e+01 -9.686639308929443359e-01 3.768100261688232422e+00 8.398308753967285156e-01 2.054050117731094360e-01
3.152000000000000000e+03 7.212760925292968750e+01 -4.113938522338867188e+01 5.363734439015388489e-02 6.967368602752685547e+00 2.106301784515380859e+00 6.648658215999603271e-02
3.153000000000000000e+03 4.488177490234375000e+01 -3.447214889526367188e+01 -1.338988542556762695e+00 6.040646076202392578e+00 1.410497188568115234e+00 -9.797645807266235352e-01
3.154000000000000000e+03 4.719757461547851562e+01 3.220965194702148438e+01 -1.829300373792648315e-01 2.681580543518066406e+00 7.495951652526855469e-01 8.399759531021118164e-01
3.155000000000000000e+03 5.123825073242187500e+01 -3.800040054321289062e+01 -2.261620759963989258e-01 2.594490289688110352e+00 7.104984521865844727e-01 -1.041568279266357422e+00
3.156000000000000000e+03 6.124664783477783203e+00 -3.794708251953125000e+01 -3.219186663627624512e-01 3.694781541824340820e+00 1.011858820915222168e+00 3.134746253490447998e-01
3.157000000000000000e+03 6.726660156250000000e+01 -3.779800415039062500e+01 1.108830347657203674e-01 4.523415088653564453e+00 1.390289425849914551e+00 4.316794872283935547e-01
3.158000000000000000e+03 1.278823280334472656e+01 -3.822788619995117188e+01 -5.988430380821228027e-01 3.086551904678344727e+00 7.463126182556152344e-01 -1.204725820571184158e-02
3.159000000000000000e+03 6.730479431152343750e+01 4.108316802978515625e+01 7.678829878568649292e-02 5.566740036010742188e+00 1.693058490753173828e+00 -4.062497243285179138e-02
3.160000000000000000e+03 6.703742980957031250e+01 3.819406127929687500e+01 3.957739472389221191e-02 5.538311958312988281e+00 1.673366785049438477e+00 -1.160497143864631653e-01
3.161000000000000000e+03 2.727558326721191406e+01 -4.091569519042968750e+01 -1.337096244096755981e-01 1.638171434402465820e+00 4.513385295867919922e-01 1.115947365760803223e-01
3.162000000000000000e+03 3.869146728515625000e+01 -3.462235641479492188e+01 -1.409890413284301758e+00 5.868420600891113281e+00 1.337558984756469727e+00 5.849332213401794434e-01
3.163000000000000000e+03 3.788224411010742188e+01 -3.762858200073242188e+01 -1.530384063720703125e+00 5.183874607086181641e+00 1.096047043800354004e+00 5.068324208259582520e-01
3.164000000000000000e+03 6.753629302978515625e+01 -4.099308776855468750e+01 3.302718102931976318e-01 4.583116531372070312e+00 1.474016547203063965e+00 1.063776612281799316e-01
3.165000000000000000e+03 6.033410644531250000e+01 3.389244079589843750e+01 1.623900681734085083e-01 3.721470832824707031e+00 1.165158271789550781e+00 -4.106552898883819580e-01
3.166000000000000000e+03 6.298208618164062500e+01 3.788751983642578125e+01 1.756472438573837280e-01 4.504726409912109375e+00 1.404112100601196289e+00 -2.030121535062789917e-01
3.167000000000000000e+03 5.251469802856445312e+01 4.059267044067382812e+01 3.683184683322906494e-01 2.802835226058959961e+00 9.513460993766784668e-01 7.550554722547531128e-02
3.168000000000000000e+03 3.642539978027343750e+01 3.505982589721679688e+01 -6.848227977752685547e-01 3.262600421905517578e+00 7.733333110809326172e-01 5.968517437577247620e-02
3.169000000000000000e+03 3.277637863159179688e+01 3.690668487548828125e+01 -5.391764640808105469e-01 2.960662126541137695e+00 7.264456748962402344e-01 -1.630567610263824463e-01
3.170000000000000000e+03 3.929344177246093750e+01 3.692389297485351562e+01 -5.280649065971374512e-01 3.146080493927001953e+00 7.854046821594238281e-01 1.882022023200988770e-01
3.171000000000000000e+03 4.330477523803710938e+01 3.763492965698242188e+01 -2.695973217487335205e-01 2.939937114715576172e+00 8.011019229888916016e-01 3.148751258850097656e-01
3.172000000000000000e+03 5.176582717895507812e+01 3.707798004150390625e+01 3.163718879222869873e-01 2.656905174255371094e+00 8.919831514358520508e-01 2.238054424524307251e-01
3.173000000000000000e+03 2.424600219726562500e+01 3.711903381347656250e+01 -1.645209491252899170e-01 2.345236063003540039e+00 6.542145013809204102e-01 -1.126911416649818420e-01
3.174000000000000000e+03 1.432013320922851562e+01 3.572171401977539062e+01 -4.093543589115142822e-01 3.090611696243286133e+00 8.043771982192993164e-01 9.465827792882919312e-02
3.175000000000000000e+03 3.444139862060546875e+01 -3.644164657592773438e+01 -1.144787907600402832e+00 4.153008460998535156e+00 9.024662375450134277e-01 8.727723360061645508e-01
3.176000000000000000e+03 5.278999710083007812e+01 2.911474037170410156e+01 1.089400947093963623e-01 1.732510447502136230e+00 5.524351596832275391e-01 5.309610366821289062e-01
3.177000000000000000e+03 5.115940856933593750e+01 3.053978729248046875e+01 9.720754623413085938e-02 2.030168771743774414e+00 6.382129192352294922e-01 6.639683842658996582e-01
3.178000000000000000e+03 2.137256431579589844e+01 3.542536926269531250e+01 -1.530773490667343140e-01 2.328893423080444336e+00 6.527448296546936035e-01 1.121219526976346970e-02
3.179000000000000000e+03 1.234743499755859375e+01 3.356766128540039062e+01 -6.162391901016235352e-01 3.574200868606567383e+00 8.873885273933410645e-01 1.196060981601476669e-02
3.180000000000000000e+03 9.614377975463867188e+00 -3.588783645629882812e+01 -6.247820258140563965e-01 3.569257259368896484e+00 8.833425641059875488e-01 3.142930567264556885e-01
3.181000000000000000e+03 4.785286331176757812e+01 3.021900558471679688e+01 -2.181842774152755737e-01 2.472887039184570312e+00 6.764108538627624512e-01 1.016819000244140625e+00
3.182000000000000000e+03 2.875836181640625000e+01 3.184729194641113281e+01 -5.593980550765991211e-01 2.621471405029296875e+00 6.186219453811645508e-01 -6.037935614585876465e-01
3.183000000000000000e+03 4.476833724975585938e+01 3.170386123657226562e+01 -4.329148828983306885e-01 3.042549610137939453e+00 7.828904390335083008e-01 8.447287678718566895e-01
3.184000000000000000e+03 4.032191085815429688e+01 3.032496452331542969e+01 -8.566474318504333496e-01 3.642727851867675781e+00 8.358241319656372070e-01 6.516104936599731445e-01
3.185000000000000000e+03 2.874989700317382812e+01 3.447356414794921875e+01 -4.250425994396209717e-01 2.602434396743774414e+00 6.532175540924072266e-01 -4.003630280494689941e-01
3.186000000000000000e+03 5.041735839843750000e+01 3.414960479736328125e+01 1.868330240249633789e-01 2.432476282119750977e+00 7.857927680015563965e-01 4.941993355751037598e-01
3.187000000000000000e+03 4.234992980957031250e+01 3.102808761596679688e+01 -6.616071462631225586e-01 3.353176116943359375e+00 8.074706792831420898e-01 7.633029222488403320e-01
3.188000000000000000e+03 5.523041915893554688e+01 3.510691833496093750e+01 3.883580565452575684e-01 2.716559171676635742e+00 9.314751625061035156e-01 4.978003725409507751e-02
3.189000000000000000e+03 5.850077819824218750e+01 -4.084855270385742188e+01 8.388058543205261230e-01 1.258131980895996094e+00 6.290813684463500977e-01 -4.995810240507125854e-02
3.190000000000000000e+03 5.300947952270507812e+01 3.267077636718750000e+01 2.802945673465728760e-01 2.286986589431762695e+00 7.701843380928039551e-01 3.133430778980255127e-01
3.191000000000000000e+03 4.402616119384765625e+01 3.454988479614257812e+01 -3.456667661666870117e-01 3.003795385360717773e+00 7.974385619163513184e-01 5.628182888031005859e-01
3.192000000000000000e+03 4.932239151000976562e+01 3.181012725830078125e+01 1.231249794363975525e-02 2.330147743225097656e+00 7.027380466461181641e-01 7.582898736000061035e-01
3.193000000000000000e+03 1.074973583221435547e+01 -1.713681936264038086e+00 2.318843841552734375e+00 1.850101590156555176e+00 1.250683665275573730e+00 2.528652667999267578e+00
3.194000000000000000e+03 1.216483592987060547e+01 -1.640827536582946777e+00 3.261814594268798828e+00 7.612812995910644531e+00 3.262388229370117188e+00 5.677354335784912109e+00
3.195000000000000000e+03 1.233757305145263672e+01 -1.592270851135253906e+00 3.210189819335937500e+00 9.144834518432617188e+00 3.706507205963134766e+00 6.161827564239501953e+00
3.196000000000000000e+03 1.245377254486083984e+01 -1.755323052406311035e+00 2.355078935623168945e+00 1.038370513916015625e+01 3.821635246276855469e+00 5.700819492340087891e+00
3.197000000000000000e+03 1.264488220214843750e+01 -1.854465603828430176e+00 1.869176506996154785e+00 1.175402927398681641e+01 4.086961746215820312e+00 5.241020679473876953e+00
3.198000000000000000e+03 1.286727523803710938e+01 -1.919656157493591309e+00 1.359735250473022461e+00 1.303762626647949219e+01 4.319208621978759766e+00 4.491765022277832031e+00
3.199000000000000000e+03 1.418607997894287109e+01 -1.632086992263793945e+00 3.138898611068725586e+00 1.550374221801757812e+01 5.592792034149169922e+00 -1.624287009239196777e+00
3.200000000000000000e+03 1.361228847503662109e+01 -1.993474483489990234e+00 1.121242284774780273e+00 1.522990036010742188e+01 4.905343055725097656e+00 1.256627559661865234e+00
3.201000000000000000e+03 1.538540935516357422e+01 -1.708250194787979126e-01 8.619013786315917969e+00 9.708644866943359375e+00 5.498297691345214844e+00 -1.251018643379211426e+00
3.202000000000000000e+03 1.497427654266357422e+01 4.525409340858459473e-01 9.179578781127929688e+00 1.163710784912109375e+01 6.245006084442138672e+00 5.687710642814636230e-01
3.203000000000000000e+03 1.517173194885253906e+01 9.962388873100280762e-01 6.890140056610107422e+00 1.119255542755126953e+01 5.424808502197265625e+00 1.287952184677124023e+00
3.204000000000000000e+03 1.460192871093750000e+01 1.411519885063171387e+00 4.663959503173828125e+00 1.414989852905273438e+01 5.644157409667968750e+00 1.550124883651733398e+00
3.205000000000000000e+03 1.383150577545166016e+01 1.829966306686401367e+00 1.380713582038879395e+00 1.652248191833496094e+01 5.370958805084228516e+00 -9.948934912681579590e-01
3.206000000000000000e+03 1.312753200531005859e+01 2.016801357269287109e+00 6.025142669677734375e-01 1.476689815521240234e+01 4.610823631286621094e+00 -4.169045448303222656e+00
3.207000000000000000e+03 1.203211879730224609e+01 1.979179143905639648e+00 2.282182216644287109e+00 7.774708271026611328e+00 3.017067193984985352e+00 -5.910099506378173828e+00
3.208000000000000000e+03 1.231381511688232422e+01 1.638760566711425781e+00 2.812987327575683594e+00 9.807969093322753906e+00 3.786286830902099609e+00 -6.754993438720703125e+00
3.209000000000000000e+03 1.212572479248046875e+01 1.654303312301635742e+00 3.210488080978393555e+00 8.049189567565917969e+00 3.377903223037719727e+00 -6.500517845153808594e+00
3.210000000000000000e+03 1.221203517913818359e+01 1.932627081871032715e+00 2.131180286407470703e+00 9.200521469116210938e+00 3.399510622024536133e+00 -6.116961479187011719e+00
3.211000000000000000e+03 1.164152336120605469e+01 2.201008081436157227e+00 2.125560045242309570e+00 5.977292060852050781e+00 2.430855512619018555e+00 -5.094873428344726562e+00
3.212000000000000000e+03 1.152530002593994141e+01 1.751114130020141602e+00 2.953404903411865234e+00 4.512334346771240234e+00 2.239721775054931641e+00 -4.869124889373779297e+00
3.213000000000000000e+03 1.091544723510742188e+01 2.255815982818603516e+00 2.064234018325805664e+00 3.564780950546264648e+00 1.688704490661621094e+00 -3.822784900665283203e+00
3.214000000000000000e+03 2.285816192626953125e+00 3.325626850128173828e+00 -4.574082791805267334e-02 -3.306587636470794678e-01 -1.129198744893074036e-01 5.121073722839355469e-01
3.215000000000000000e+03 7.504801940917968750e+01 3.999835205078125000e+01 1.425668876618146896e-02 7.492163181304931641e+00 2.251925945281982422e+00 6.388997286558151245e-02
3.216000000000000000e+03 4.704951095581054688e+01 -1.491167736053466797e+01 2.122518301010131836e+00 3.949919462203979492e+00 1.821731328964233398e+00 2.064650058746337891e+00
3.217000000000000000e+03 1.016772079467773438e+01 2.100572347640991211e+00 1.455957293510437012e+00 1.772855877876281738e+00 9.686439633369445801e-01 -2.328886270523071289e+00
3.218000000000000000e+03 1.028611946105957031e+01 -2.428869962692260742e+00 1.820360779762268066e+00 2.158065080642700195e+00 1.193527817726135254e+00 2.529591798782348633e+00
3.219000000000000000e+03 1.158020496368408203e+01 -2.096292734146118164e+00 2.541262149810791016e+00 5.156358718872070312e+00 2.309286117553710938e+00 4.424230098724365234e+00
3.220000000000000000e+03 1.144016075134277344e+01 -1.752701401710510254e+00 3.117218017578125000e+00 3.842416286468505859e+00 2.087890148162841797e+00 4.081043720245361328e+00
3.221000000000000000e+03 1.179814052581787109e+01 -1.787428498268127441e+00 3.076974630355834961e+00 5.510869503021240234e+00 2.576353073120117188e+00 4.950362682342529297e+00
3.222000000000000000e+03 1.187783241271972656e+01 -2.176380872726440430e+00 2.370918750762939453e+00 6.755791187286376953e+00 2.738013029098510742e+00 4.973598003387451172e+00
3.223000000000000000e+03 1.444280719757080078e+01 -2.079945325851440430e+00 2.238919019699096680e+00 1.345529079437255859e+01 4.708262920379638672e+00 -1.204803705215454102e+00
3.224000000000000000e+03 1.388773250579833984e+01 -2.058164119720458984e+00 1.358488678932189941e+00 1.491033744812011719e+01 4.880647659301757812e+00 2.937757372856140137e-01
3.225000000000000000e+03 1.415812492370605469e+01 -2.093093395233154297e+00 1.793684482574462891e+00 1.417128944396972656e+01 4.789492130279541016e+00 -6.284269690513610840e-01
3.226000000000000000e+03 1.462731075286865234e+01 -1.148526906967163086e+00 6.238369464874267578e+00 1.368902873992919922e+01 5.978219509124755859e+00 -2.928575992584228516e+00
3.227000000000000000e+03 1.344273090362548828e+01 2.352708816528320312e+00 6.902267038822174072e-02 1.429581451416015625e+01 4.309451103210449219e+00 -2.963171005249023438e+00
3.228000000000000000e+03 1.253234386444091797e+01 2.016130924224853516e+00 1.499942541122436523e+00 1.136418151855468750e+01 3.859237194061279297e+00 -5.857392787933349609e+00
3.229000000000000000e+03 1.267352199554443359e+01 1.901042938232421875e+00 1.500808596611022949e+00 1.231886196136474609e+01 4.145901203155517578e+00 -5.796951293945312500e+00
3.230000000000000000e+03 1.399303436279296875e+01 2.080408573150634766e+00 1.111587047576904297e+00 1.533316802978515625e+01 4.933426380157470703e+00 -7.342278361320495605e-01
3.231000000000000000e+03 1.454107666015625000e+01 2.103373765945434570e+00 1.749062418937683105e+00 1.372058868408203125e+01 4.640895366668701172e+00 3.691193163394927979e-01
3.232000000000000000e+03 1.360348892211914062e+01 -2.371814727783203125e+00 6.240044236183166504e-01 1.368804073333740234e+01 4.293613433837890625e+00 1.600721955299377441e+00
3.233000000000000000e+03 1.306619262695312500e+01 -2.269692420959472656e+00 7.530742287635803223e-01 1.285811710357666016e+01 4.083357334136962891e+00 3.469322919845581055e+00
3.234000000000000000e+03 1.472277450561523438e+01 1.210186123847961426e+00 6.012790203094482422e+00 1.350759029388427734e+01 5.856113910675048828e+00 1.786806344985961914e+00
3.235000000000000000e+03 1.488855171203613281e+01 1.467368841171264648e+00 4.653320312500000000e+00 1.258716487884521484e+01 5.172145843505859375e+00 1.481587886810302734e+00
3.236000000000000000e+03 1.495174217224121094e+01 1.108714342117309570e+00 6.435832500457763672e+00 1.236975955963134766e+01 5.641677379608154297e+00 1.568383336067199707e+00
3.237000000000000000e+03 1.501009368896484375e+01 1.826414108276367188e+00 3.438392877578735352e+00 1.224725151062011719e+01 4.705693244934082031e+00 1.213994503021240234e+00
3.238000000000000000e+03 1.488760280609130859e+01 8.694347143173217773e-01 7.699252128601074219e+00 1.234750556945800781e+01 6.014027595520019531e+00 1.433007717132568359e+00
3.239000000000000000e+03 1.512836074829101562e+01 2.557565569877624512e-01 9.284219741821289062e+00 1.094155979156494141e+01 6.067733764648437500e+00 1.405046880245208740e-02
3.240000000000000000e+03 1.542936515808105469e+01 4.349786639213562012e-01 7.863692283630371094e+00 9.572297096252441406e+00 5.230796813964843750e+00 1.208595186471939087e-01
3.241000000000000000e+03 1.542918872833251953e+01 -5.286463499069213867e-01 8.124629020690917969e+00 9.719857215881347656e+00 5.353345870971679688e+00 -1.868922948837280273e+00
3.242000000000000000e+03 1.522361564636230469e+01 -8.824829459190368652e-01 7.232923030853271484e+00 1.073642730712890625e+01 5.390805244445800781e+00 -2.631708860397338867e+00
3.243000000000000000e+03 1.497135829925537109e+01 -1.549194574356079102e+00 4.898795127868652344e+00 1.208638763427734375e+01 5.095554828643798828e+00 -2.679180622100830078e+00
3.244000000000000000e+03 1.221706485748291016e+01 2.197376728057861328e+00 1.541960239410400391e+00 9.187951087951660156e+00 3.218973398208618164e+00 -5.759744167327880859e+00
3.245000000000000000e+03 1.205362033843994141e+01 2.386742830276489258e+00 1.411281704902648926e+00 8.495489120483398438e+00 2.972031354904174805e+00 -5.497985363006591797e+00
3.246000000000000000e+03 1.185980319976806641e+01 2.578625679016113281e+00 1.256765484809875488e+00 7.553002834320068359e+00 2.642930507659912109e+00 -5.044795036315917969e+00
3.247000000000000000e+03 1.001088523864746094e+01 2.533573865890502930e+00 1.371434330940246582e+00 2.165121078491210938e+00 1.060966610908508301e+00 -2.419636964797973633e+00
3.248000000000000000e+03 1.090430068969726562e+01 -2.330815315246582031e+00 2.222982645034790039e+00 3.184628963470458984e+00 1.622283458709716797e+00 3.361294746398925781e+00
3.249000000000000000e+03 1.231992340087890625e+01 -1.906668543815612793e+00 2.301226854324340820e+00 9.360731124877929688e+00 3.498587369918823242e+00 5.473642349243164062e+00
3.250000000000000000e+03 4.338342285156250000e+01 -2.515093231201171875e+01 2.227168321609497070e+00 9.674791336059570312e+00 3.570587873458862305e+00 -1.693570733070373535e+00
3.251000000000000000e+03 5.129872512817382812e+01 -3.315079879760742188e+01 -4.068334996700286865e-01 1.893061280250549316e+00 4.458683133125305176e-01 -1.823737382888793945e+00
3.252000000000000000e+03 1.127723789215087891e+01 -2.661775827407836914e+00 1.909992098808288574e+00 4.675330638885498047e+00 1.975596904754638672e+00 3.878556013107299805e+00
3.253000000000000000e+03 9.911097526550292969e+00 -2.954540252685546875e+00 1.459693312644958496e+00 2.320326328277587891e+00 1.134005904197692871e+00 2.311423778533935547e+00
3.254000000000000000e+03 1.540321063995361328e+01 1.241861701011657715e+00 5.700174331665039062e+00 1.032453536987304688e+01 4.807412624359130859e+00 1.177765727043151855e+00
3.255000000000000000e+03 1.420240211486816406e+01 -2.444112300872802734e+00 1.159364581108093262e+00 1.322602081298828125e+01 4.315615653991699219e+00 -1.796963214874267578e-01
3.256000000000000000e+03 1.534746837615966797e+01 1.717460155487060547e+00 3.873196125030517578e+00 1.087014102935791016e+01 4.423000812530517578e+00 1.083489656448364258e+00
3.257000000000000000e+03 2.003023386001586914e+00 3.717889404296875000e+01 -1.845028437674045563e-02 3.892155647277832031e+00 1.162111639976501465e+00 -7.856047898530960083e-02
3.258000000000000000e+03 1.145793056488037109e+01 -2.910052776336669922e+00 1.643275499343872070e+00 5.787053585052490234e+00 2.229098796844482422e+00 4.219888687133789062e+00
3.259000000000000000e+03 7.760408020019531250e+01 -3.566338348388671875e+01 -1.001312509179115295e-01 9.644745826721191406e+00 2.863384246826171875e+00 -8.328245580196380615e-02
3.260000000000000000e+03 1.590053272247314453e+01 -8.871785998344421387e-01 6.723335266113281250e+00 8.530308723449707031e+00 4.576093196868896484e+00 -2.166052818298339844e+00
3.261000000000000000e+03 3.150012016296386719e+01 2.110544395446777344e+01 -2.323721945285797119e-01 4.969453811645507812e+00 1.421124577522277832e+00 -1.027157425880432129e+00
3.262000000000000000e+03 1.863015556335449219e+01 -3.421093750000000000e+01 -7.335417866706848145e-01 1.984970092773437500e+00 3.754284977912902832e-01 -5.210788249969482422e-01
3.263000000000000000e+03 1.118799018859863281e+01 -2.358847856521606445e+00 2.223348855972290039e+00 4.162541866302490234e+00 1.915767312049865723e+00 3.811447381973266602e+00
3.264000000000000000e+03 1.143326473236083984e+01 -2.302702426910400391e+00 2.357388019561767578e+00 4.973761558532714844e+00 2.199344873428344727e+00 4.267840862274169922e+00
3.265000000000000000e+03 4.682678985595703125e+01 -7.846233367919921875e+00 2.861421369016170502e-02 8.066406250000000000e-01 2.505764663219451904e-01 1.295807242393493652e+00
3.266000000000000000e+03 1.496933746337890625e+01 2.826736211776733398e+00 5.850962996482849121e-01 1.160315513610839844e+01 3.656475305557250977e+00 -5.360691808164119720e-03
3.267000000000000000e+03 4.718020629882812500e+01 -3.386435699462890625e+01 -9.812967777252197266e-01 5.159961700439453125e+00 1.253599405288696289e+00 -1.678363084793090820e+00
3.268000000000000000e+03 3.617409515380859375e+01 -2.961981201171875000e+01 -5.889554023742675781e-01 5.894184112548828125e+00 1.591568589210510254e+00 1.151229262351989746e+00
3.269000000000000000e+03 3.819319915771484375e+01 -1.981548309326171875e+01 1.631449103355407715e+00 1.041134738922119141e+01 3.612838745117187500e+00 -1.028908848762512207e+00
3.270000000000000000e+03 1.155853366851806641e+01 -2.633575916290283203e+00 1.903668642044067383e+00 5.714420318603515625e+00 2.285426616668701172e+00 4.341248989105224609e+00
3.271000000000000000e+03 7.253146362304687500e+01 -1.363320636749267578e+01 1.589533090591430664e-01 9.911426544189453125e+00 3.021114110946655273e+00 7.965646982192993164e-01
3.272000000000000000e+03 1.328606510162353516e+01 -2.649473190307617188e+00 3.586071431636810303e-01 1.229128360748291016e+01 3.794967174530029297e+00 2.601005554199218750e+00
3.273000000000000000e+03 3.414501667022705078e+00 3.608350372314453125e+01 -9.617291390895843506e-02 3.760237932205200195e+00 1.099219441413879395e+00 -1.785674989223480225e-01
3.274000000000000000e+03 1.264709281921386719e+01 -2.767569303512573242e+00 7.085739970207214355e-01 1.027513980865478516e+01 3.295114040374755859e+00 3.940801143646240234e+00
3.275000000000000000e+03 1.154019069671630859e+01 3.522056341171264648e+00 3.688138425350189209e-01 6.848443984985351562e+00 2.165177345275878906e+00 -4.092156410217285156e+00
3.276000000000000000e+03 1.209022521972656250e+01 3.737194061279296875e+00 -3.457196652889251709e-01 8.529926300048828125e+00 2.455262184143066406e+00 -3.972726106643676758e+00
3.277000000000000000e+03 1.125427055358886719e+01 -3.131021261215209961e+00 1.425935268402099609e+00 5.238660812377929688e+00 1.999378800392150879e+00 3.788650035858154297e+00
3.278000000000000000e+03 5.691863632202148438e+01 -1.076587963104248047e+01 -7.861255407333374023e-01 9.498928785324096680e-01 4.913021251559257507e-02 1.033288717269897461e+00
3.279000000000000000e+03 9.111565589904785156e+00 3.394032239913940430e+00 8.572528958320617676e-01 2.170754909515380859e+00 9.084023237228393555e-01 -1.676294326782226562e+00
3.280000000000000000e+03 9.509609222412109375e+00 -3.752602338790893555e+00 1.075205206871032715e+00 2.601664304733276367e+00 1.103060841560363770e+00 2.129354715347290039e+00
3.281000000000000000e+03 1.318577098846435547e+01 -2.945643186569213867e+00 1.757559627294540405e-01 1.144090080261230469e+01 3.484997034072875977e+00 2.821588277816772461e+00
3.282000000000000000e+03 5.161343765258789062e+01 -1.086622142791748047e+01 4.208441078662872314e-01 9.616125822067260742e-01 4.147369861602783203e-01 2.327733039855957031e+00
3.283000000000000000e+03 7.274115753173828125e+01 -1.971242332458496094e+01 1.619195461273193359e+00 1.010905742645263672e+01 3.518475770950317383e+00 -6.721447706222534180e-01
3.284000000000000000e+03 7.344392395019531250e+01 -2.028584861755371094e+01 1.298124074935913086e+00 9.494575500488281250e+00 3.237809896469116211e+00 -8.157558441162109375e-01
3.285000000000000000e+03 6.240242385864257812e+01 -2.400407046079635620e-01 9.649837017059326172e-01 4.689290523529052734e+00 1.696282148361206055e+00 7.558717727661132812e-01
3.286000000000000000e+03 1.308161449432373047e+01 3.058842468261718750e+01 -9.047083854675292969e-01 3.852602005004882812e+00 8.843681216239929199e-01 1.397300809621810913e-01
3.287000000000000000e+03 1.294426250457763672e+01 -2.825176000595092773e+00 3.852517604827880859e-01 1.112491703033447266e+01 3.453050613403320312e+00 3.385263919830322266e+00
3.288000000000000000e+03 1.538501358032226562e+01 3.175083541870117188e+01 -6.823450922966003418e-01 3.171768903732299805e+00 7.468271255493164062e-01 3.975605964660644531e-01
3.289000000000000000e+03 3.700720977783203125e+01 9.119779586791992188e+00 1.654142260551452637e+00 1.215358257293701172e+01 4.142317295074462891e+00 9.107660651206970215e-01
3.290000000000000000e+03 1.350603103637695312e+01 8.166598320007324219e+00 -1.684657454490661621e+00 9.109850883483886719e+00 2.227557897567749023e+00 -1.333621978759765625e+00
3.291000000000000000e+03 6.554746246337890625e+01 9.833384513854980469e+00 9.902636408805847168e-01 8.322716712951660156e+00 2.793894052505493164e+00 4.238238930702209473e-01
3.292000000000000000e+03 2.206955337524414062e+01 -4.330126285552978516e+00 2.837774753570556641e+00 1.248778775334358215e-01 8.887957930564880371e-01 -4.689237773418426514e-01
3.293000000000000000e+03 4.723070144653320312e+01 -8.864760398864746094e+00 3.542951047420501709e-01 1.257308125495910645e+00 4.834809899330139160e-01 1.576560020446777344e+00
3.294000000000000000e+03 1.196995544433593750e+01 4.373453617095947266e+00 -6.739672422409057617e-01 8.192142486572265625e+00 2.255452632904052734e+00 -3.506700992584228516e+00
3.295000000000000000e+03 6.915689086914062500e+01 2.422163009643554688e+01 -5.576520562171936035e-01 7.082989215850830078e+00 1.957601070404052734e+00 4.396500289440155029e-01
3.296000000000000000e+03 7.625213623046875000e+00 -5.248305320739746094e+00 4.906515777111053467e-01 1.996182084083557129e+00 7.460501194000244141e-01 9.620679616928100586e-01
3.297000000000000000e+03 1.211359119415283203e+01 -3.592104434967041016e+00 4.400122463703155518e-01 7.747231006622314453e+00 2.456172943115234375e+00 3.655668258666992188e+00
3.298000000000000000e+03 1.201806259155273438e+01 -4.238893508911132812e+00 1.683930121362209320e-02 7.292339324951171875e+00 2.192753553390502930e+00 3.216602563858032227e+00
3.299000000000000000e+03 1.243229007720947266e+01 -3.468168258666992188e+00 3.025522530078887939e-01 8.689070701599121094e+00 2.697486877441406250e+00 3.594345331192016602e+00
3.300000000000000000e+03 1.286579513549804688e+01 -3.589917898178100586e+00 -7.563949376344680786e-02 9.590066909790039062e+00 2.854328155517578125e+00 3.043698310852050781e+00
3.301000000000000000e+03 1.404926395416259766e+01 3.709208726882934570e+00 -1.239313840866088867e+00 1.146221065521240234e+01 3.066869020462036133e+00 -1.865784049034118652e+00
3.302000000000000000e+03 1.520979785919189453e+01 -3.651248216629028320e+00 6.544845104217529297e-01 9.704179763793945312e+00 3.107599258422851562e+00 -5.229424238204956055e-01
3.303000000000000000e+03 1.514186096191406250e+01 -3.200888156890869141e+00 1.115655422210693359e+00 1.023821258544921875e+01 3.406160354614257812e+00 -8.280816674232482910e-01
3.304000000000000000e+03 1.493596839904785156e+01 6.973797321319580078e+00 -2.222171545028686523e+00 8.640878677368164062e+00 1.925612330436706543e+00 -1.340099334716796875e+00
3.305000000000000000e+03 2.077930450439453125e+01 -2.208855152130126953e+00 3.997246503829956055e+00 5.316778421401977539e-01 1.358677268028259277e+00 -8.201168775558471680e-01
3.306000000000000000e+03 1.575721740722656250e+01 -3.612129926681518555e+00 1.195732951164245605e+00 8.735146522521972656e+00 2.979263782501220703e+00 -9.771312475204467773e-01
3.307000000000000000e+03 6.283985900878906250e+01 -1.904664874076843262e+00 8.622210025787353516e-01 4.222307205200195312e+00 1.525358438491821289e+00 2.995844781398773193e-01
3.308000000000000000e+03 3.414593887329101562e+01 2.374529457092285156e+01 -1.098262190818786621e+00 5.058773994445800781e+00 1.188153505325317383e+00 -3.562479913234710693e-01
3.309000000000000000e+03 1.762690162658691406e+01 2.268218278884887695e+00 2.910144567489624023e+00 5.032643795013427734e+00 2.382836341857910156e+00 4.314393401145935059e-01
3.310000000000000000e+03 1.811750793457031250e+01 2.105542421340942383e+00 3.128135204315185547e+00 3.841570854187011719e+00 2.090911865234375000e+00 2.322100251913070679e-01
3.311000000000000000e+03 3.535301971435546875e+01 2.409762001037597656e+01 -1.093755245208740234e+00 4.959554672241210938e+00 1.159739851951599121e+00 -2.399227768182754517e-02
3.312000000000000000e+03 1.258603763580322266e+01 3.934236049652099609e+00 -8.468505740165710449e-01 9.643483161926269531e+00 2.638989686965942383e+00 -3.647309541702270508e+00
3.313000000000000000e+03 1.576341915130615234e+01 4.177400112152099609e+00 -8.761894702911376953e-01 9.017380714416503906e+00 2.442357301712036133e+00 -3.474960625171661377e-01
3.314000000000000000e+03 1.529614830017089844e+01 3.979897022247314453e+00 -8.945233225822448730e-01 9.919873237609863281e+00 2.707604885101318359e+00 -5.173370242118835449e-01
3.315000000000000000e+03 7.597650909423828125e+01 -1.504604148864746094e+01 3.464511036872863770e-01 7.941943168640136719e+00 2.486518383026123047e+00 7.435137629508972168e-01
3.316000000000000000e+03 1.362869262695312500e+01 3.119722604751586914e+00 -7.248959541320800781e-01 1.249987983703613281e+01 3.532495021820068359e+00 -2.525393486022949219e+00
3.317000000000000000e+03 5.366602420806884766e+00 4.232524394989013672e+00 2.367241084575653076e-01 5.395894646644592285e-01 2.328940778970718384e-01 2.760460376739501953e-01
3.318000000000000000e+03 6.354648208618164062e+01 -5.729720115661621094e+00 3.759257495403289795e-01 2.985485076904296875e+00 1.008423209190368652e+00 -6.403699517250061035e-01
3.319000000000000000e+03 5.882863044738769531e+00 -6.846627235412597656e+00 2.242652475833892822e-01 1.563038110733032227e+00 5.361909866333007812e-01 3.207526206970214844e-01
3.320000000000000000e+03 1.298482227325439453e+01 -3.350083112716674805e+00 3.640379011631011963e-02 1.029680252075195312e+01 3.099961996078491211e+00 2.998465061187744141e+00
3.321000000000000000e+03 1.185300636291503906e+01 5.041604518890380859e+00 -9.607827067375183105e-01 7.955054283142089844e+00 2.098281383514404297e+00 -2.989374399185180664e+00
3.322000000000000000e+03 1.270841026306152344e+01 -3.367875099182128906e+00 1.936255693435668945e-01 9.516818046569824219e+00 2.913133144378662109e+00 3.445926666259765625e+00
3.323000000000000000e+03 1.313617324829101562e+01 -3.759824752807617188e+00 -2.401883453130722046e-01 9.674734115600585938e+00 2.830363750457763672e+00 2.660601615905761719e+00
3.324000000000000000e+03 1.377706909179687500e+01 3.492502927780151367e+00 -1.077425122261047363e+00 1.194088077545166016e+01 3.259036779403686523e+00 -2.320054292678833008e+00
3.325000000000000000e+03 7.265277862548828125e+01 -8.831206321716308594e+00 -1.071727991104125977e+00 8.430302619934082031e+00 2.207572460174560547e+00 -2.714222669601440430e-01
3.326000000000000000e+03 7.484467315673828125e+01 -3.221098327636718750e+01 -4.027453958988189697e-01 8.592065811157226562e+00 2.456795930862426758e+00 -3.640083670616149902e-01
3.327000000000000000e+03 1.632093048095703125e+01 -4.128652095794677734e+00 1.007316350936889648e+00 7.536073207855224609e+00 2.563016891479492188e+00 -8.188995718955993652e-01
3.328000000000000000e+03 1.347299575805664062e+01 -3.135186195373535156e+00 1.462473906576633453e-02 1.145644855499267578e+01 3.441321849822998047e+00 2.147753953933715820e+00
3.329000000000000000e+03 1.352640819549560547e+01 -4.162891387939453125e+00 -4.924683868885040283e-01 9.689030647277832031e+00 2.758968830108642578e+00 1.999850153923034668e+00
3.330000000000000000e+03 6.503305912017822266e+00 -1.688717651367187500e+01 8.305553793907165527e-01 2.997419118881225586e+00 1.148392319679260254e+00 5.273976922035217285e-01
3.331000000000000000e+03 1.877757263183593750e+01 -5.996042251586914062e+00 8.678413629531860352e-01 3.544924020767211914e+00 1.323829531669616699e+00 -2.953897118568420410e-01
3.332000000000000000e+03 2.037788009643554688e+01 -2.676232337951660156e+00 3.756927490234375000e+00 1.122263908386230469e+00 1.463757395744323730e+00 -9.480018019676208496e-01
3.333000000000000000e+03 1.266869449615478516e+01 -9.778572082519531250e+00 -1.622879981994628906e+00 7.517308712005615234e+00 1.768328547477722168e+00 1.294296979904174805e+00
3.334000000000000000e+03 8.569561004638671875e+00 4.657465934753417969e+00 5.029847025871276855e-01 2.651852607727050781e+00 9.464512467384338379e-01 -1.354877471923828125e+00
3.335000000000000000e+03 1.309331035614013672e+01 4.370867729187011719e+00 -1.431996226310729980e+00 1.007947158813476562e+01 2.594242572784423828e+00 -2.956783294677734375e+00
3.336000000000000000e+03 6.484539031982421875e+01 -3.729367017745971680e+00 3.604992926120758057e-01 4.373964786529541016e+00 1.420339226722717285e+00 -7.134941816329956055e-01
3.337000000000000000e+03 1.456709861755371094e+01 4.737339019775390625e+00 -1.794368624687194824e+00 9.972004890441894531e+00 2.453290939331054688e+00 -1.480632066726684570e+00
3.338000000000000000e+03 1.354704284667968750e+01 4.059351444244384766e+00 -1.441271066665649414e+00 1.092652893066406250e+01 2.845577239990234375e+00 -2.527294635772705078e+00
3.339000000000000000e+03 1.279002761840820312e+01 4.195036411285400391e+00 -1.182496428489685059e+00 9.811341285705566406e+00 2.588653564453125000e+00 -3.194039583206176758e+00
3.340000000000000000e+03 1.388976860046386719e+01 5.788338661193847656e+00 -2.148450613021850586e+00 9.590763092041015625e+00 2.232693672180175781e+00 -1.875687003135681152e+00
3.341000000000000000e+03 1.428159999847412109e+01 5.343039989471435547e+00 -2.088768482208251953e+00 9.786672592163085938e+00 2.309370994567871094e+00 -1.681155920028686523e+00
3.342000000000000000e+03 1.389042091369628906e+01 -4.618551254272460938e+00 -6.823627352714538574e-01 9.281672477722167969e+00 2.579792976379394531e+00 1.583763122558593750e+00
3.343000000000000000e+03 1.370096397399902344e+01 -6.613868713378906250e+00 -1.365102410316467285e+00 7.807262897491455078e+00 1.932648181915283203e+00 1.791082143783569336e+00
3.344000000000000000e+03 1.516382503509521484e+01 -6.423642158508300781e+00 -1.032047271728515625e+00 7.494822978973388672e+00 1.938832759857177734e+00 1.049531698226928711e+00
3.345000000000000000e+03 6.852711486816406250e+01 -3.286927461624145508e+00 -2.643407881259918213e-01 6.174097537994384766e+00 1.772926926612854004e+00 -1.103421092033386230e+00
3.346000000000000000e+03 3.964044952392578125e+01 2.476517868041992188e+01 -1.027837753295898438e+00 4.626881599426269531e+00 1.079713225364685059e+00 8.736917376518249512e-01
3.347000000000000000e+03 4.501735210418701172e+00 5.514898777008056641e+00 2.195324599742889404e-01 4.802676439285278320e-01 2.099400311708450317e-01 3.359185755252838135e-01
3.348000000000000000e+03 1.326371574401855469e+01 -4.787384033203125000e+00 -7.811657190322875977e-01 8.852340698242187500e+00 2.421352386474609375e+00 2.155563831329345703e+00
3.349000000000000000e+03 1.287104415893554688e+01 -4.885098934173583984e+00 -6.757934093475341797e-01 8.271633148193359375e+00 2.278751850128173828e+00 2.523847579956054688e+00
3.350000000000000000e+03 3.850433349609375000e+01 2.154824638366699219e+01 -7.685726284980773926e-01 5.430067062377929688e+00 1.398448348045349121e+00 7.389909029006958008e-01
3.351000000000000000e+03 5.104944229125976562e+00 1.577234077453613281e+01 5.334738492965698242e-01 2.050589799880981445e+00 7.752190828323364258e-01 -7.872845530509948730e-01
3.352000000000000000e+03 7.263118743896484375e+01 1.464531517028808594e+01 4.693702459335327148e-01 6.982823371887207031e+00 2.235658168792724609e+00 3.322533667087554932e-01
3.353000000000000000e+03 5.674508571624755859e+00 1.156927299499511719e+01 4.401476979255676270e-01 2.082296848297119141e+00 7.567333579063415527e-01 -1.660086661577224731e-01
3.354000000000000000e+03 5.835925102233886719e+00 1.382258510589599609e+01 5.697669982910156250e-01 2.411316394805908203e+00 8.943250179290771484e-01 -5.059336423873901367e-01
3.355000000000000000e+03 1.166149425506591797e+01 5.687515258789062500e+00 -1.026689410209655762e+00 7.617184162139892578e+00 1.977148413658142090e+00 -2.582085132598876953e+00
3.356000000000000000e+03 1.380642223358154297e+01 5.401003837585449219e+00 -2.066778182983398438e+00 9.753843307495117188e+00 2.306119441986083984e+00 -2.049448013305664062e+00
3.357000000000000000e+03 1.858747291564941406e+01 -1.824374914169311523e+00 4.378802299499511719e+00 3.175101041793823242e+00 2.266170978546142578e+00 -1.447657227516174316e+00
3.358000000000000000e+03 1.386967277526855469e+01 -5.781631469726562500e+00 -1.094579577445983887e+00 8.301360130310058594e+00 2.162034034729003906e+00 1.693550109863281250e+00
3.359000000000000000e+03 1.354567337036132812e+01 -6.004961013793945312e+00 -1.170943379402160645e+00 8.065863609313964844e+00 2.068475961685180664e+00 1.904242038726806641e+00
3.360000000000000000e+03 1.342822647094726562e+01 -5.113806724548339844e+00 -8.740134239196777344e-01 8.740123748779296875e+00 2.359833002090454102e+00 2.041281700134277344e+00
3.361000000000000000e+03 9.659293174743652344e+00 -7.356532573699951172e+00 -4.114128351211547852e-01 4.734326362609863281e+00 1.296874046325683594e+00 1.589207410812377930e+00
3.362000000000000000e+03 3.805632019042968750e+01 2.333560180664062500e+01 -9.867155551910400391e-01 5.055668830871582031e+00 1.220686078071594238e+00 6.166486144065856934e-01
3.363000000000000000e+03 1.692305564880371094e+01 -4.682866096496582031e+00 9.221025705337524414e-01 6.357428073883056641e+00 2.183859109878540039e+00 -6.712217926979064941e-01
3.364000000000000000e+03 1.682643890380859375e+01 -5.756938457489013672e+00 2.390841208398342133e-02 6.325531005859375000e+00 1.904831886291503906e+00 -5.558850243687629700e-03
3.365000000000000000e+03 1.716919136047363281e+01 -5.495195388793945312e+00 5.008339285850524902e-01 5.763524055480957031e+00 1.879307389259338379e+00 -3.353398740291595459e-01
3.366000000000000000e+03 1.654814910888671875e+01 -5.471746921539306641e+00 8.123095333576202393e-02 6.601664543151855469e+00 2.004868507385253906e+00 -4.756882786750793457e-02
3.367000000000000000e+03 1.063963699340820312e+01 -6.798774242401123047e+00 -5.640503764152526855e-01 5.538999080657958984e+00 1.492484569549560547e+00 2.010997533798217773e+00
3.368000000000000000e+03 4.992667675018310547e+00 1.094568347930908203e+01 3.469710350036621094e-01 1.596604228019714355e+00 5.830726027488708496e-01 -5.349223315715789795e-02
3.369000000000000000e+03 1.699303245544433594e+01 -3.339184284210205078e+00 2.434371471405029297e+00 6.408313274383544922e+00 2.652805566787719727e+00 -1.530568718910217285e+00
3.370000000000000000e+03 1.174976062774658203e+01 -7.172816753387451172e+00 -1.106717348098754883e+00 6.751646041870117188e+00 1.693478584289550781e+00 2.015551090240478516e+00
3.371000000000000000e+03 1.582238101959228516e+01 -5.391647338867187500e+00 -2.551899850368499756e-01 7.552471637725830078e+00 2.189184427261352539e+00 2.158927470445632935e-01
3.372000000000000000e+03 1.499658775329589844e+01 -5.572226524353027344e+00 -7.463288307189941406e-01 8.140673637390136719e+00 2.218303442001342773e+00 8.476331830024719238e-01
3.373000000000000000e+03 8.752271652221679688e+00 3.066081702709197998e-01 -2.444425344467163086e+00 9.034608490765094757e-03 -7.306172251701354980e-01 4.621515423059463501e-02
3.374000000000000000e+03 9.833781242370605469e+00 5.495092272758483887e-01 -1.582003235816955566e+00 8.183231204748153687e-02 -4.500513076782226562e-01 -2.133247107267379761e-01
3.375000000000000000e+03 6.321410179138183594e+00 2.854638695716857910e-01 -1.887529015541076660e+00 -5.541041493415832520e-03 -5.679210424423217773e-01 7.858484238386154175e-02
3.376000000000000000e+03 3.759227991104125977e+00 2.727958261966705322e-01 -8.568801283836364746e-01 1.615441287867724895e-03 -2.565794289112091064e-01 1.072852388024330139e-01
3.377000000000000000e+03 3.746336221694946289e+00 1.257759094238281250e+00 -5.664814114570617676e-01 -4.171366989612579346e-02 -1.824585199356079102e-01 4.315007328987121582e-01
3.378000000000000000e+03 2.135026216506958008e+00 2.732039391994476318e-01 -2.560396194458007812e-01 9.609728120267391205e-03 -7.392896711826324463e-02 8.140992373228073120e-02
3.379000000000000000e+03 2.236721992492675781e+00 7.683213353157043457e-01 -3.114069402217864990e-01 -3.341231867671012878e-02 -1.034457832574844360e-01 2.058908194303512573e-01
3.380000000000000000e+03 1.115606069564819336e+00 1.127467751502990723e+00 -1.102468296885490417e-01 -1.135698854923248291e-01 -6.714501231908798218e-02 1.552837342023849487e-01
3.381000000000000000e+03 6.991648674011230469e-01 3.874677717685699463e-01 -1.456071063876152039e-02 -1.810645917430520058e-03 -4.911406897008419037e-03 1.916194707155227661e-02
3.382000000000000000e+03 3.944967985153198242e-01 9.580501914024353027e-01 -2.318496070802211761e-02 -5.300606787204742432e-02 -2.285730838775634766e-02 3.462183102965354919e-02
3.383000000000000000e+03 2.933083057403564453e+00 2.634710371494293213e-01 -5.371472239494323730e-01 -1.463326811790466309e-02 -1.655341535806655884e-01 8.673746883869171143e-02
3.384000000000000000e+03 4.642991542816162109e+00 3.262811899185180664e-01 -1.245561003684997559e+00 -2.907350286841392517e-02 -3.823903501033782959e-01 1.483516693115234375e-01
3.385000000000000000e+03 4.602259159088134766e+00 8.435411453247070312e-01 -9.523532986640930176e-01 -6.240754853934049606e-03 -2.875782251358032227e-01 3.315110802650451660e-01
3.386000000000000000e+03 5.951948642730712891e+00 1.097157001495361328e+00 -1.064951896667480469e+00 6.752397865056991577e-02 -2.992283999919891357e-01 3.336945176124572754e-01
3.387000000000000000e+03 5.536401271820068359e+00 3.571569621562957764e-01 -1.584107041358947754e+00 4.458180442452430725e-02 -4.618575870990753174e-01 1.508060842752456665e-01
3.388000000000000000e+03 6.702025890350341797e+00 8.255285620689392090e-01 -1.400986790657043457e+00 1.634030486457049847e-03 -4.198058247566223145e-01 2.396374791860580444e-01
3.389000000000000000e+03 7.297278881072998047e+00 1.197861552238464355e+00 -1.070767283439636230e+00 1.145322918891906738e-01 -2.868704795837402344e-01 1.750689893960952759e-01
3.390000000000000000e+03 7.053605556488037109e+00 2.940145134925842285e-01 -2.164938211441040039e+00 3.171406220644712448e-03 -6.485300660133361816e-01 8.178253471851348877e-02
3.391000000000000000e+03 8.790164947509765625e+00 8.518409729003906250e-01 -1.224654555320739746e+00 8.935277163982391357e-02 -3.405905663967132568e-01 -1.292708814144134521e-01
3.392000000000000000e+03 9.420927047729492188e+00 8.831226825714111328e-01 -8.148024082183837891e-01 2.378378063440322876e-01 -1.730893701314926147e-01 -3.903594315052032471e-01
3.393000000000000000e+03 9.835148811340332031e+00 7.373248934745788574e-01 -5.826743245124816895e-01 1.326643675565719604e-01 -1.350029855966567993e-01 -4.575863778591156006e-01
3.394000000000000000e+03 9.719403266906738281e+00 1.126337170600891113e+00 -8.483383059501647949e-02 2.147872447967529297e-01 3.898602724075317383e-02 -7.081422209739685059e-01
3.395000000000000000e+03 9.608688354492187500e+00 1.359852433204650879e+00 2.531641423702239990e-01 4.581407010555267334e-01 2.133914530277252197e-01 -9.133118391036987305e-01
3.396000000000000000e+03 8.786287307739257812e+00 1.305232763290405273e+00 -4.314554631710052490e-01 2.907896041870117188e-01 -4.219975322484970093e-02 -3.415688872337341309e-01
3.397000000000000000e+03 9.534539222717285156e+00 6.234375238418579102e-01 -1.434069752693176270e+00 1.160963326692581177e-01 -3.953920304775238037e-01 -2.558045089244842529e-01
3.398000000000000000e+03 7.967594146728515625e+00 1.290320038795471191e+00 -7.332820296287536621e-01 1.430326104164123535e-01 -1.770748347043991089e-01 5.467238277196884155e-02
3.399000000000000000e+03 2.184646606445312500e+00 1.255117416381835938e+00 -2.533278167247772217e-01 -1.040683388710021973e-01 -1.072188466787338257e-01 3.021829128265380859e-01
3.400000000000000000e+03 1.676338553428649902e+00 9.385187625885009766e-01 -1.869331747293472290e-01 -5.264450237154960632e-02 -7.187329977750778198e-02 1.922037750482559204e-01
3.401000000000000000e+03 5.225920200347900391e+00 1.202624440193176270e+00 -8.919979333877563477e-01 4.078412055969238281e-02 -2.553641498088836670e-01 3.548961579799652100e-01
3.402000000000000000e+03 7.881241321563720703e+00 3.312998712062835693e-01 -2.316320896148681641e+00 5.665215197950601578e-03 -6.931967139244079590e-01 6.986527144908905029e-02
3.403000000000000000e+03 9.689496040344238281e+00 1.323071718215942383e-01 -2.735993862152099609e+00 7.097101211547851562e-02 -7.995068430900573730e-01 4.067598283290863037e-02
3.404000000000000000e+03 9.802154541015625000e+00 3.487610816955566406e-01 -1.841396927833557129e+00 1.792332679033279419e-01 -4.986490905284881592e-01 1.376363728195428848e-02
3.405000000000000000e+03 9.806314468383789062e+00 9.307543635368347168e-01 -3.393869400024414062e-01 5.517573654651641846e-02 -8.526336401700973511e-02 -4.872826337814331055e-01
3.406000000000000000e+03 1.385173320770263672e+00 3.213079869747161865e-01 -7.548443228006362915e-02 -2.862435951828956604e-02 -3.123263828456401825e-02 4.146188125014305115e-02
3.407000000000000000e+03 2.937102317810058594e+00 1.255387306213378906e+00 -4.190496802330017090e-01 -5.923116952180862427e-02 -1.434842497110366821e-01 3.924258053302764893e-01
3.408000000000000000e+03 2.954053878784179688e+00 7.588583230972290039e-01 -4.792244136333465576e-01 -1.887915655970573425e-02 -1.494310647249221802e-01 2.548987865447998047e-01
3.409000000000000000e+03 4.541759014129638672e+00 1.277259945869445801e+00 -6.810840964317321777e-01 9.360663592815399170e-03 -2.015170454978942871e-01 4.209632277488708496e-01
3.410000000000000000e+03 7.933622360229492188e+00 8.616198897361755371e-01 -1.476320862770080566e+00 5.018116906285285950e-02 -4.278419315814971924e-01 7.137861102819442749e-02
3.411000000000000000e+03 9.388120651245117188e+00 3.355626761913299561e-01 -2.322132110595703125e+00 -4.621160775423049927e-02 -7.105031609535217285e-01 -7.147782016545534134e-04
3.412000000000000000e+03 3.756252527236938477e+00 7.705549001693725586e-01 -7.533485293388366699e-01 -2.623342350125312805e-02 -2.338745892047882080e-01 3.018784224987030029e-01
3.413000000000000000e+03 1.290104007720947266e+01 3.621627110987901688e-03 3.067469978332519531e+01 5.864758491516113281e+00 1.096183776855468750e+01 1.125851821899414062e+01
3.414000000000000000e+03 1.290504932403564453e+01 -1.542920805513858795e-02 2.811203193664550781e+01 1.726702499389648438e+01 1.361371707916259766e+01 2.135932540893554688e+01
3.415000000000000000e+03 1.291269111633300781e+01 -3.333497792482376099e-02 2.603278923034667969e+01 2.847602653503417969e+01 1.635264396667480469e+01 2.477161979675292969e+01
3.416000000000000000e+03 1.292367172241210938e+01 -4.941047728061676025e-02 2.252216148376464844e+01 3.982590484619140625e+01 1.870442008972167969e+01 2.568268203735351562e+01
3.417000000000000000e+03 1.293757247924804688e+01 -6.304055452346801758e-02 1.958031272888183594e+01 5.036352920532226562e+01 2.098315238952636719e+01 2.379144477844238281e+01
3.418000000000000000e+03 1.295386123657226562e+01 -7.370362430810928345e-02 1.674938011169433594e+01 5.931501770019531250e+01 2.281931877136230469e+01 1.964778900146484375e+01
3.419000000000000000e+03 1.297191333770751953e+01 -8.099163323640823364e-02 1.541155147552490234e+01 6.586420440673828125e+01 2.438272476196289062e+01 1.379887485504150391e+01
3.420000000000000000e+03 1.299103927612304688e+01 -8.462569862604141235e-02 1.559444808959960938e+01 6.946344757080078125e+01 2.551736831665039062e+01 7.004365921020507812e+00
3.421000000000000000e+03 1.301050662994384766e+01 -8.446675539016723633e-02 1.784482765197753906e+01 7.011408233642578125e+01 2.638767242431640625e+01 3.017627894878387451e-01
3.422000000000000000e+03 1.302957153320312500e+01 -8.052088320255279541e-02 2.158910560607910156e+01 6.799082946777343750e+01 2.687398147583007812e+01 -5.467916965484619141e+00
3.423000000000000000e+03 1.304750251770019531e+01 -7.293907552957534790e-02 2.659075546264648438e+01 6.398432540893554688e+01 2.717252349853515625e+01 -9.493950843811035156e+00
3.424000000000000000e+03 1.306361484527587891e+01 -6.201147660613059998e-02 3.188479614257812500e+01 5.882212829589843750e+01 2.721207809448242188e+01 -1.151481437683105469e+01
3.425000000000000000e+03 1.307729053497314453e+01 -4.815624654293060303e-02 3.703404235839843750e+01 5.367409133911132812e+01 2.721244049072265625e+01 -1.143223381042480469e+01
3.426000000000000000e+03 1.308800792694091797e+01 -3.190357983112335205e-02 4.117019271850585938e+01 4.904058074951171875e+01 2.706323242187500000e+01 -9.654222488403320312e+00
3.427000000000000000e+03 1.309535598754882812e+01 -1.387542765587568283e-02 4.418130493164062500e+01 4.583822631835937500e+01 2.700585937500000000e+01 -6.528326988220214844e+00
3.428000000000000000e+03 1.309905433654785156e+01 5.238333251327276230e-03 4.560300827026367188e+01 4.403651428222656250e+01 2.689185714721679688e+01 -2.723254680633544922e+00
3.429000000000000000e+03 1.309895992279052734e+01 2.470627054572105408e-02 4.564255523681640625e+01 4.425819015502929688e+01 2.697022438049316406e+01 1.412953495979309082e+00
3.430000000000000000e+03 1.309507751464843750e+01 4.378340765833854675e-02 4.402390289306640625e+01 4.581273651123046875e+01 2.695099258422851562e+01 5.187112331390380859e+00
3.431000000000000000e+03 1.308755588531494141e+01 6.173971667885780334e-02 4.115791320800781250e+01 4.934752273559570312e+01 2.715163040161132812e+01 8.154007911682128906e+00
3.432000000000000000e+03 1.307668209075927734e+01 7.788806408643722534e-02 3.696280670166015625e+01 5.382297134399414062e+01 2.723573303222656250e+01 9.860924720764160156e+00
3.433000000000000000e+03 1.306287193298339844e+01 9.161049872636795044e-02 3.207250595092773438e+01 5.902355194091796875e+01 2.732881736755371094e+01 9.781810760498046875e+00
3.434000000000000000e+03 1.304665565490722656e+01 1.023819148540496826e-01 2.698603630065917969e+01 6.413640594482421875e+01 2.733673286437988281e+01 7.660919666290283203e+00
3.435000000000000000e+03 1.302865219116210938e+01 1.097901090979576111e-01 2.230258941650390625e+01 6.809357452392578125e+01 2.711885070800781250e+01 3.572791337966918945e+00
3.436000000000000000e+03 1.300955104827880859e+01 1.135515943169593811e-01 1.894351768493652344e+01 7.018698120117187500e+01 2.673914909362792969e+01 -2.221064090728759766e+00
3.437000000000000000e+03 1.299008274078369141e+01 1.135224327445030212e-01 1.712985038757324219e+01 6.952970886230468750e+01 2.599786758422851562e+01 -8.912364959716796875e+00
3.438000000000000000e+03 1.297099208831787109e+01 1.097037345170974731e-01 1.745185852050781250e+01 6.593512725830078125e+01 2.501609611511230469e+01 -1.568013668060302734e+01
3.439000000000000000e+03 1.295301151275634766e+01 1.022416427731513977e-01 1.923187255859375000e+01 5.935079193115234375e+01 2.357479858398437500e+01 -2.145754241943359375e+01
3.440000000000000000e+03 1.293682670593261719e+01 9.142169356346130371e-02 2.270601654052734375e+01 5.041262817382812500e+01 2.193559455871582031e+01 -2.544273185729980469e+01
3.441000000000000000e+03 1.292305850982666016e+01 7.765794545412063599e-02 2.614249610900878906e+01 3.974483871459960938e+01 1.976619911193847656e+01 -2.713620948791503906e+01
3.442000000000000000e+03 1.291223239898681641e+01 6.147709861397743225e-02 3.017382431030273438e+01 2.833435630798339844e+01 1.755245399475097656e+01 -2.586722755432128906e+01
3.443000000000000000e+03 1.290476417541503906e+01 4.349833354353904724e-02 3.254011535644531250e+01 1.703878402709960938e+01 1.487366962432861328e+01 -2.204038810729980469e+01
3.444000000000000000e+03 1.290093898773193359e+01 2.440964989364147186e-02 3.514350128173828125e+01 5.777289867401123047e+00 1.227623748779296875e+01 -1.142074203491210938e+01
